.Version 9.5.1 of ABINIT

 ABINIT is a project of the Universite Catholique de Louvain,
 Corning Inc. and other collaborators, see ~abinit/doc/developers/contributors.txt .
 acknowledgments of the ABINIT effort.

.Starting date : Wed 19 May 2021.
- ( at 01h20 )

- input  file    -> /scratch/users/j/a/jabreu/flow_simple_8atoms/flow/w413/t1/run.abi
- output file    -> /scratch/users/j/a/jabreu/flow_simple_8atoms/flow/w413/t1/run.abo
- root for input  files -> /scratch/users/j/a/jabreu/flow_simple_8atoms/flow/w413/t1/indata/in
- root for output files -> /scratch/users/j/a/jabreu/flow_simple_8atoms/flow/w413/t1/outdata/out

 Symmetries : space group P2_1 3 (#198); Bravais cP (primitive cubic)
     intxc =       0      iscf =       7    lmnmax =      32     lnmax =       8
     mgfft =      50  mpssoang =       4    mqgrid =    3001     natom =       8
  nloc_mem =       1    nspden =       1   nspinor =       1    nsppol =       1
      nsym =      12    n1xccc =    2501    ntypat =       2    occopt =       1
   xclevel =       2
-    mband =          49        mffmem =           1         mkmem =           2
-   mkqmem =           2        mk1mem =           2           mpw =        7756
      nfft =      125000          nkpt =           2
  Rough estimation (10% accuracy) of disk space for files :

------------- Echo of variables that govern the present computation ------------
-
- outvars: echo of selected default values
-   iomode0 =  0 , fftalg0 =512 , wfoptalg0 =  0
-
- outvars: echo of global parameters not present in the input file
-  max_nthreads =    0
-
 -outvars: echo values of preprocessed input variables --------
            acell      1.0000000000E+00  1.0000000000E+00  1.0000000000E+00 Bohr
              amu      2.80855000E+01  1.90200000E+02
             ecut      3.70000000E+01 Hartree
-          fftalg         512
           irdden           1
           irdwfk           1
              ixc     -116133
              kpt      0.00000000E+00  2.75000000E-01  0.00000000E+00
                       0.00000000E+00  4.25000000E-01  0.00000000E+00
           kptopt           0
P           mkmem           2
P          mkqmem           2
P          mk1mem           2
            natom           8
            nband          49
           nbdbuf           4
            ngfft          50      50      50
             nkpt           2
            nstep        2000
             nsym          12
           ntypat           2
              occ      2.000000  2.000000  2.000000  2.000000  2.000000  2.000000
                       2.000000  2.000000  2.000000  2.000000  2.000000  2.000000
                       2.000000  2.000000  2.000000  2.000000  2.000000  2.000000
                       2.000000  2.000000  2.000000  2.000000  2.000000  2.000000
                       2.000000  2.000000  2.000000  2.000000  2.000000  2.000000
                       2.000000  2.000000  2.000000  2.000000  2.000000  2.000000
                       2.000000  2.000000  2.000000  2.000000  0.000000  0.000000
                       0.000000  0.000000  0.000000  0.000000  0.000000  0.000000
                       0.000000
        optdriver           1
            prtwf          -1
            rfdir           1       1       1
           rfelfd           2
            rprim      8.9602789431E+00  0.0000000000E+00  0.0000000000E+00
                       0.0000000000E+00  8.9602789431E+00  0.0000000000E+00
                       0.0000000000E+00  0.0000000000E+00  8.9602789431E+00
          spgroup         198
           symrel      1  0  0   0  1  0   0  0  1      -1  0  0   0  1  0   0  0 -1
                      -1  0  0   0 -1  0   0  0  1       1  0  0   0 -1  0   0  0 -1
                       0  0  1   1  0  0   0  1  0       0  0 -1   1  0  0   0 -1  0
                       0  0 -1  -1  0  0   0  1  0       0  0  1  -1  0  0   0 -1  0
                       0  1  0   0  0  1   1  0  0       0 -1  0   0  0  1  -1  0  0
                       0 -1  0   0  0 -1   1  0  0       0  1  0   0  0 -1  -1  0  0
            tnons      0.0000000  0.0000000  0.0000000     0.0000000  0.5000000  0.5000000
                       0.5000000  0.0000000  0.5000000     0.5000000  0.5000000  0.0000000
                       0.0000000  0.0000000  0.0000000     0.5000000  0.5000000  0.0000000
                       0.0000000  0.5000000  0.5000000     0.5000000  0.0000000  0.5000000
                       0.0000000  0.0000000  0.0000000     0.5000000  0.0000000  0.5000000
                       0.5000000  0.5000000  0.0000000     0.0000000  0.5000000  0.5000000
           tolwfr      1.00000000E-20
            typat      1  1  1  1  2  2  2  2
           useylm           1
              wtk        0.50000    0.50000
           xangst      7.7398157715E-01  1.5968061225E+00  3.1447692768E+00
                       1.5968061225E+00  3.1447692768E+00  7.7398157715E-01
                       3.1447692768E+00  7.7398157715E-01  1.5968061225E+00
                       3.9675938221E+00  3.9675938221E+00  3.9675938221E+00
                       4.1438903371E+00  2.9684727619E+00  1.7731026374E+00
                       2.9684727619E+00  1.7731026374E+00  4.1438903371E+00
                       1.7731026374E+00  4.1438903371E+00  2.9684727619E+00
                       5.9768506223E-01  5.9768506223E-01  5.9768506223E-01
            xcart      1.4626132127E+00  3.0175262588E+00  5.9427526843E+00
                       3.0175262588E+00  5.9427526843E+00  1.4626132127E+00
                       5.9427526843E+00  1.4626132127E+00  3.0175262588E+00
                       7.4976657304E+00  7.4976657304E+00  7.4976657304E+00
                       7.8308178618E+00  5.6096005529E+00  3.3506783902E+00
                       5.6096005529E+00  3.3506783902E+00  7.8308178618E+00
                       3.3506783902E+00  7.8308178618E+00  5.6096005529E+00
                       1.1294610813E+00  1.1294610813E+00  1.1294610813E+00
             xred      1.6323300000E-01  3.3676700000E-01  6.6323300000E-01
                       3.3676700000E-01  6.6323300000E-01  1.6323300000E-01
                       6.6323300000E-01  1.6323300000E-01  3.3676700000E-01
                       8.3676700000E-01  8.3676700000E-01  8.3676700000E-01
                       8.7394800000E-01  6.2605200000E-01  3.7394800000E-01
                       6.2605200000E-01  3.7394800000E-01  8.7394800000E-01
                       3.7394800000E-01  8.7394800000E-01  6.2605200000E-01
                       1.2605200000E-01  1.2605200000E-01  1.2605200000E-01
            znucl       14.00000   76.00000

 chkinp: Checking input parameters for consistency.

== DATASET  1 ==================================================================
-   mpi_nproc: 1, omp_nthreads: -1 (-1 if OMP is not activated)

--- !DatasetInfo
iteration_state: {dtset: 1, }
dimensions: {natom: 8, nkpt: 2, mband: 49, nsppol: 1, nspinor: 1, nspden: 1, mpw: 7756, }
cutoff_energies: {ecut:  37.0, pawecutdg:  -1.0, }
electrons: {nelect:   8.00000000E+01, charge:   0.00000000E+00, occopt:   1.00000000E+00, tsmear:   1.00000000E-02, }
meta: {optdriver: 1, rfelfd: 2, }
...

 Real(R)+Recip(G) space primitive vectors, cartesian coordinates (Bohr,Bohr^-1):
 R(1)=  8.9602789  0.0000000  0.0000000  G(1)=  0.1116037  0.0000000  0.0000000
 R(2)=  0.0000000  8.9602789  0.0000000  G(2)=  0.0000000  0.1116037  0.0000000
 R(3)=  0.0000000  0.0000000  8.9602789  G(3)=  0.0000000  0.0000000  0.1116037
 Unit cell volume ucvol=  7.1939032E+02 bohr^3
 Angles (23,13,12)=  9.00000000E+01  9.00000000E+01  9.00000000E+01 degrees

 getcut: wavevector=  0.0000  0.0000  0.0000  ngfft=  50  50  50
         ecut(hartree)=     37.000   => boxcut(ratio)=   2.03790

--- Pseudopotential description ------------------------------------------------
- pspini: atom type   1  psp file is /scratch/users/j/a/jabreu/pseudos/PBEsol/Si.psp8
- pspatm: opening atomic psp file    /scratch/users/j/a/jabreu/pseudos/PBEsol/Si.psp8
- Si    ONCVPSP-3.3.0  r_core=   1.60303   1.72197   1.91712
- 14.00000   4.00000    180112                znucl, zion, pspdat
    8 -116133    2    4       600   0.00000   pspcod,pspxc,lmax,lloc,mmax,r2well
    5.99000000000000    4.00000000000000    0.00000000000000   rchrg,fchrg,qchrg
     nproj     2     2     2
     extension_switch     1
  pspatm : epsatm=    7.86468782
         --- l  ekb(1:nproj) -->
             0    5.384426    0.843824
             1    2.663259    0.615854
             2   -2.267219   -0.458043
 pspatm: atomic psp has been read  and splines computed

- pspini: atom type   2  psp file is /scratch/users/j/a/jabreu/pseudos/PBEsol/Os.psp8
- pspatm: opening atomic psp file    /scratch/users/j/a/jabreu/pseudos/PBEsol/Os.psp8
- Os    ONCVPSP-3.3.0  r_core=   1.51352   1.55006   1.55006   2.27051
- 76.00000  16.00000    180112                znucl, zion, pspdat
    8 -116133    3    4       600   0.00000   pspcod,pspxc,lmax,lloc,mmax,r2well
    5.99000000000000    5.00000000000000    0.00000000000000   rchrg,fchrg,qchrg
     nproj     2     2     2     2
     extension_switch     1
  pspatm : epsatm=   26.11825460
         --- l  ekb(1:nproj) -->
             0    7.994989   -1.246074
             1    8.240861    1.154929
             2    2.240487    0.219183
             3    0.647575    0.186609
 pspatm: atomic psp has been read  and splines computed

   1.08745416E+04                                ecore*ucvol(ha*bohr**3)

-inwffil : will read wavefunctions from disk file /scratch/users/j/a/jabreu/flow_simple_8atoms/flow/w413/t1/indata/in_WFK

 ==>  initialize data related to q vector <==

 The list of irreducible perturbations for this q vector is:
    1)    idir= 1    ipert=   9
    2)    idir= 2    ipert=   9
    3)    idir= 3    ipert=   9

 Perturbation wavevector (in red.coord.)   0.000000  0.000000  0.000000
 Perturbation : derivative vs k along direction   1

 dfpt_looppert : COMMENT -
  In a d/dk calculation, iscf is set to -3 automatically.
 The set of symmetries contains only one element for this perturbation.
 symkpt : not enough symmetry to change the number of k points.

[...]

 Initialisation of the first-order wave-functions :
  ireadwf=   0

--- !BeginCycle
iteration_state: {dtset: 1, }
solver: {iscf: 7, nstep: 2000, nline: 4, wfoptalg: 0, }
tolerances: {tolwfr: 1.00E-20, }
...

     iter   2DEtotal(Ha)        deltaE(Ha) residm    vres2
-ETOT  1  -43.881946641720     -4.388E+01 8.934E-02 0.000E+00
 ETOT  2  -44.045915900977     -1.640E-01 1.532E-02 0.000E+00
 ETOT  3  -44.049592947434     -3.677E-03 1.118E-03 0.000E+00
 ETOT  4  -44.049718220403     -1.253E-04 3.754E-04 0.000E+00
 ETOT  5  -44.049723084963     -4.865E-06 5.709E-05 0.000E+00
 ETOT  6  -44.049723287355     -2.024E-07 2.245E-05 0.000E+00
 ETOT  7  -44.049723296173     -8.818E-09 3.780E-06 0.000E+00
 ETOT  8  -44.049723296571     -3.980E-10 1.587E-06 0.000E+00
 ETOT  9  -44.049723296589     -1.840E-11 2.586E-07 0.000E+00
 ETOT 10  -44.049723296590     -9.308E-13 1.118E-07 0.000E+00
 ETOT 11  -44.049723296590      0.000E+00 1.786E-08 0.000E+00
 ETOT 12  -44.049723296590     -4.974E-14 7.858E-09 0.000E+00
[...]
 ETOT 33  -44.049723296590      1.421E-14 9.918E-21 0.000E+00

 At SCF step   33   max residual=  9.92E-21 < tolwfr=  1.00E-20 =>converged.

 ----iterations are completed or convergence reached----

 dfpt_looppert: DFPT cycle converged with prtwf=-1. Will skip output of the 1st-order WFK file.
 dfpt_looppert : ek2=    7.8674983322E+01
          f-sum rule ratio=    1.0674625085E+00
 prteigrs : about to open file /scratch/users/j/a/jabreu/flow_simple_8atoms/flow/w413/t1/tmpdata/tmp_1WF1_EIG
 Expectation of eigenvalue derivatives (hartree) for nkpt=   2  k points:
  (in case of degenerate eigenvalues, averaged derivative)
 kpt#   1, nband= 49, wtk=  0.50000, kpt=  0.0000  0.2750  0.0000 (reduced coord)
   0.00000    0.00000   -0.00000   -0.00000    0.00000    0.00000    0.00000    0.00000
  -0.00000   -0.00000    0.00000   -0.00000   -0.00000   -0.00000    0.00000    0.00000
   0.00000   -0.00000   -0.00000    0.00000    0.00000   -0.00000    0.00000   -0.00000
   0.00000    0.00000   -0.00000    0.00000    0.00000   -0.00000   -0.00000   -0.00000
  -0.00000    0.00000   -0.00000   -0.00000    0.00000    0.00000    0.00000   -0.00000
  -0.00000   -0.00000   -0.00000   -0.00000   -0.00000    0.00000   -0.00000   -0.00000
  -0.00001
 prteigrs : prtvol=0 or 1, do not print more k-points.

 Eight components of 2nd-order total energy (hartree) are
 1,2,3: 0th-order hamiltonian combined with 1st-order wavefunctions
     kin0=   7.07241920E+01 eigvalue=  -1.53367814E+01  local=  -3.52369086E+01
 4,5,6: 1st-order hamiltonian combined with 1st and 0th-order wfs
     kin1=  -8.39825951E+01  Hartree=   0.00000000E+00     xc=   0.00000000E+00
 7,8,9: eventually, occupation + non-local contributions
    edocc=   1.69459024E+01     enl0=   6.95331896E+00   enl1=  -4.11685154E+00
 1-9 gives the relaxation energy (to be shifted if some occ is /=2.0)
   erelax=  -4.40497233E+01
  No Ewald or frozen-wf contrib.: the relaxation energy is the total one
 2DEtotal=   -0.4404972330E+02 Ha. Also 2DEtotal=   -0.119865392955E+04 eV
    (  non-var. 2DEtotal :   -4.4049723296E+01 Ha)

 Perturbation wavevector (in red.coord.)   0.000000  0.000000  0.000000
 Perturbation : derivative vs k along direction   2
 The set of symmetries contains only one element for this perturbation.
 symkpt : not enough symmetry to change the number of k points.

[...]

 Perturbation wavevector (in red.coord.)   0.000000  0.000000  0.000000
 Perturbation : derivative vs k along direction   3
 The set of symmetries contains only one element for this perturbation.
 symkpt : not enough symmetry to change the number of k points.

-inwffil : will read wavefunctions from disk file /scratch/users/j/a/jabreu/flow_simple_8atoms/flow/w413/t1/indata/in_WFK

 Initialisation of the first-order wave-functions :
  ireadwf=   0

--- !BeginCycle
iteration_state: {dtset: 1, }
solver: {iscf: 7, nstep: 2000, nline: 4, wfoptalg: 0, }
tolerances: {tolwfr: 1.00E-20, }
...

     iter   2DEtotal(Ha)        deltaE(Ha) residm    vres2
-ETOT  1  -43.975474664142     -4.398E+01 2.156E-01 0.000E+00
 ETOT  2  -44.102949930515     -1.275E-01 4.366E-02 0.000E+00
 ETOT  3  -44.104912074340     -1.962E-03 4.500E-03 0.000E+00
 ETOT  4  -44.104968984493     -5.691E-05 1.324E-03 0.000E+00
 ETOT  5  -44.104970997596     -2.013E-06 2.187E-04 0.000E+00
 ETOT  6  -44.104971075624     -7.803E-08 7.494E-05 0.000E+00
 ETOT  7  -44.104971078794     -3.169E-09 1.294E-05 0.000E+00
 ETOT  8  -44.104971078926     -1.327E-10 4.755E-06 0.000E+00
 ETOT  9  -44.104971078932     -5.734E-12 8.051E-07 0.000E+00
 ETOT 10  -44.104971078932     -2.416E-13 3.033E-07 0.000E+00
 ETOT 11  -44.104971078932      0.000E+00 5.045E-08 0.000E+00
 ETOT 12  -44.104971078932      1.421E-14 1.927E-08 0.000E+00
 ETOT 13  -44.104971078932     -4.263E-14 3.170E-09 0.000E+00
 ETOT 14  -44.104971078932      1.421E-14 1.224E-09 0.000E+00
 ETOT 15  -44.104971078932      2.132E-14 1.997E-10 0.000E+00
 ETOT 16  -44.104971078932     -1.421E-14 8.215E-11 0.000E+00
 ETOT 17  -44.104971078932     -1.421E-14 1.422E-11 0.000E+00
 ETOT 18  -44.104971078932      2.842E-14 5.992E-12 0.000E+00
 ETOT 19  -44.104971078932     -2.842E-14 1.029E-12 0.000E+00
 ETOT 20  -44.104971078932      0.000E+00 4.377E-13 0.000E+00
 ETOT 21  -44.104971078932     -7.105E-15 7.458E-14 0.000E+00
 ETOT 22  -44.104971078932      0.000E+00 3.200E-14 0.000E+00
 ETOT 23  -44.104971078932      0.000E+00 5.417E-15 0.000E+00
 ETOT 24  -44.104971078932      0.000E+00 2.342E-15 0.000E+00
 ETOT 25  -44.104971078932      0.000E+00 3.941E-16 0.000E+00
 ETOT 26  -44.104971078932      2.842E-14 1.716E-16 0.000E+00
 ETOT 27  -44.104971078932     -1.421E-14 2.871E-17 0.000E+00
 ETOT 28  -44.104971078932     -7.105E-15 1.258E-17 0.000E+00
 ETOT 29  -44.104971078932      7.105E-15 2.094E-18 0.000E+00
 ETOT 30  -44.104971078932     -7.105E-15 9.231E-19 0.000E+00
 ETOT 31  -44.104971078932      0.000E+00 1.528E-19 0.000E+00
 ETOT 32  -44.104971078932      7.105E-15 6.776E-20 0.000E+00
 ETOT 33  -44.104971078932     -7.105E-15 1.116E-20 0.000E+00
 ETOT 34  -44.104971078932      2.132E-14 9.836E-21 0.000E+00

 At SCF step   34   max residual=  9.84E-21 < tolwfr=  1.00E-20 =>converged.

 ----iterations are completed or convergence reached----

 dfpt_looppert: DFPT cycle converged with prtwf=-1. Will skip output of the 1st-order WFK file.
 dfpt_looppert : ek2=    7.8674983322E+01
          f-sum rule ratio=    1.0679516776E+00
 prteigrs : about to open file /scratch/users/j/a/jabreu/flow_simple_8atoms/flow/w413/t1/tmpdata/tmp_1WF1_EIG
 Expectation of eigenvalue derivatives (hartree) for nkpt=   2  k points:
  (in case of degenerate eigenvalues, averaged derivative)
 kpt#   1, nband= 49, wtk=  0.50000, kpt=  0.0000  0.2750  0.0000 (reduced coord)
  -0.00000   -0.00000    0.00000   -0.00000   -0.00000   -0.00000   -0.00000   -0.00000
  -0.00000   -0.00000    0.00000    0.00000   -0.00000   -0.00000   -0.00000   -0.00000
   0.00000    0.00000    0.00000    0.00000   -0.00000    0.00000   -0.00000   -0.00000
  -0.00000    0.00000    0.00000   -0.00000    0.00000    0.00000   -0.00000   -0.00000
   0.00000    0.00000   -0.00000   -0.00000   -0.00000    0.00000    0.00000   -0.00000
  -0.00000    0.00000   -0.00000    0.00000   -0.00000    0.00000   -0.00000   -0.00000
   0.00001
 prteigrs : prtvol=0 or 1, do not print more k-points.

 Eight components of 2nd-order total energy (hartree) are
 1,2,3: 0th-order hamiltonian combined with 1st-order wavefunctions
     kin0=   7.57628536E+01 eigvalue=  -1.68516152E+01  local=  -3.76390647E+01
 4,5,6: 1st-order hamiltonian combined with 1st and 0th-order wfs
     kin1=  -8.40210804E+01  Hartree=   0.00000000E+00     xc=   0.00000000E+00
 7,8,9: eventually, occupation + non-local contributions
    edocc=   1.52551188E+01     enl0=   7.57767864E+00   enl1=  -4.18886174E+00
 1-9 gives the relaxation energy (to be shifted if some occ is /=2.0)
   erelax=  -4.41049711E+01
  No Ewald or frozen-wf contrib.: the relaxation energy is the total one
 2DEtotal=   -0.4410497108E+02 Ha. Also 2DEtotal=   -0.120015729816E+04 eV
    (  non-var. 2DEtotal :   -4.4104971079E+01 Ha)

 CALCULATION OF EFFECTIVE MASSES
 NOTE : Additional infos (eff. mass eigenvalues, eigenvectors and, if degenerate, average mass) are available in stdout.

 K-point ( 0.000, 0.275, 0.000) | band =    40
 Effective mass tensor:
             -7.7115982307             -0.0000384371             -0.0003830435
             -0.0000384371             -0.7059946423             -0.0000014625
             -0.0003830435             -0.0000014625             -2.3977772392
 Effective mass tensor eigenvalues:
             -7.7115982585             -2.3977772116             -0.7059946421
 Angular average effective mass 1/(<1/m>)=  -1.5281414316
 Angular average effective mass for Frohlich model (<m**0.5>)**2=  -1.9585002164
 Effective masses along directions: (cart. coord. / red. coord. -> eff. mass)
    1:   1.000000  0.000000  0.000000 /   1.000000  0.000000  0.000000 ->  -7.7115981674
    2:   0.000000  1.000000  0.000000 /   0.000000  1.000000  0.000000 ->  -0.7059946421
    3:   0.000000  0.000000  1.000000 /   0.000000  0.000000  1.000000 ->  -2.3977772202
    4:   0.577350  0.577350  0.577350 /   0.577350  0.577350  0.577350 ->  -1.5281860172
    5:   0.000000  0.707107  0.707107 /   0.000000  0.707107  0.707107 ->  -1.0908143631
    6:   0.707107  0.000000  0.707107 /   0.707107  0.000000  0.707107 ->  -3.6584052004
    7:   0.707107  0.707107  0.000000 /   0.707107  0.707107  0.000000 ->  -1.2935756890

--- !WARNING
src_file: m_efmas.F90
src_line: 0
message: |

    Band(s)    41,
    are not band extrema, but saddle points;
    the transport equivalent formalism breaks down in these conditions.
    The associated tensor(s) will therefore not be printed.
...

 K-point ( 0.000, 0.425, 0.000) | band =    41
 Effective mass tensor:
     *** SADDLE POINT: TRANSPORT EQV. EFF. MASS NOT DEFINED (see WARNING above) ***
 Angular average effective mass 1/(<1/m>)=   4.6231824831
 Angular average effective mass for Frohlich model (<m**0.5>)**2=   9.5474894918
 Effective masses along directions: (cart. coord. / red. coord. -> eff. mass)
    1:   1.000000  0.000000  0.000000 /   1.000000  0.000000  0.000000 ->  -3.2449673778
    2:   0.000000  1.000000  0.000000 /   0.000000  1.000000  0.000000 ->   1.0849188102
    3:   0.000000  0.000000  1.000000 /   0.000000  0.000000  1.000000 ->  28.2923831692
    4:   0.577350  0.577350  0.577350 /   0.577350  0.577350  0.577350 ->   4.6214439293
    5:   0.000000  0.707107  0.707107 /   0.000000  0.707107  0.707107 ->   2.0893268884
    6:   0.707107  0.000000  0.707107 /   0.707107  0.000000  0.707107 ->  -7.3306805493
    7:   0.707107  0.707107  0.000000 /   0.707107  0.707107  0.000000 ->   3.2592862009

 END OF EFFECTIVE MASSES SECTION

 ---- first-order wavefunction calculations are completed ----

 Total localisation tensor (bohr^2) in cartesian coordinates
  WARNING : still subject to testing - especially symmetries.
      direction              matrix element
   alpha     beta       real part   imaginary part
     1        1       1.7491848600    0.0000000000
     1        2       0.0000000000    0.0000000000
     1        3       0.0000000000    0.0000000000
     2        1       0.0000000000    0.0000000000
     2        2       1.4569952532    0.0000000000
     2        3       0.0000000000    0.0000000000
     3        1       0.0000000000    0.0000000000
     3        2       0.0000000000    0.0000000000
     3        3       1.6733967066    0.0000000000

 respfn : d/dk was computed, but no 2DTE, so no DDB output.

== END DATASET(S) ==============================================================

 -outvars: echo values of variables after computation  --------
            acell      1.0000000000E+00  1.0000000000E+00  1.0000000000E+00 Bohr
              amu      2.80855000E+01  1.90200000E+02
             ecut      3.70000000E+01 Hartree
           etotal     -4.4104971079E+01
            fcart      0.0000000000E+00  0.0000000000E+00  0.0000000000E+00
                       0.0000000000E+00  0.0000000000E+00  0.0000000000E+00
                       0.0000000000E+00  0.0000000000E+00  0.0000000000E+00
                       0.0000000000E+00  0.0000000000E+00  0.0000000000E+00
                       0.0000000000E+00  0.0000000000E+00  0.0000000000E+00
                       0.0000000000E+00  0.0000000000E+00  0.0000000000E+00
                       0.0000000000E+00  0.0000000000E+00  0.0000000000E+00
                       0.0000000000E+00  0.0000000000E+00  0.0000000000E+00
-          fftalg         512
           irdden           1
           irdwfk           1
              ixc     -116133
              kpt      0.00000000E+00  2.75000000E-01  0.00000000E+00
                       0.00000000E+00  4.25000000E-01  0.00000000E+00
           kptopt           0
P           mkmem           2
P          mkqmem           2
P          mk1mem           2
            natom           8
            nband          49
           nbdbuf           4
            ngfft          50      50      50
             nkpt           2
            nstep        2000
             nsym          12
           ntypat           2
              occ      2.000000  2.000000  2.000000  2.000000  2.000000  2.000000
                       2.000000  2.000000  2.000000  2.000000  2.000000  2.000000
                       2.000000  2.000000  2.000000  2.000000  2.000000  2.000000
                       2.000000  2.000000  2.000000  2.000000  2.000000  2.000000
                       2.000000  2.000000  2.000000  2.000000  2.000000  2.000000
                       2.000000  2.000000  2.000000  2.000000  2.000000  2.000000
                       2.000000  2.000000  2.000000  2.000000  0.000000  0.000000
                       0.000000  0.000000  0.000000  0.000000  0.000000  0.000000
                       0.000000
        optdriver           1
            prtwf          -1
            rfdir           1       1       1
           rfelfd           2
            rprim      8.9602789431E+00  0.0000000000E+00  0.0000000000E+00
                       0.0000000000E+00  8.9602789431E+00  0.0000000000E+00
                       0.0000000000E+00  0.0000000000E+00  8.9602789431E+00
          spgroup         198
           strten      0.0000000000E+00  0.0000000000E+00  0.0000000000E+00
                       0.0000000000E+00  0.0000000000E+00  0.0000000000E+00
           symrel      1  0  0   0  1  0   0  0  1      -1  0  0   0  1  0   0  0 -1
                      -1  0  0   0 -1  0   0  0  1       1  0  0   0 -1  0   0  0 -1
                       0  0  1   1  0  0   0  1  0       0  0 -1   1  0  0   0 -1  0
                       0  0 -1  -1  0  0   0  1  0       0  0  1  -1  0  0   0 -1  0
                       0  1  0   0  0  1   1  0  0       0 -1  0   0  0  1  -1  0  0
                       0 -1  0   0  0 -1   1  0  0       0  1  0   0  0 -1  -1  0  0
            tnons      0.0000000  0.0000000  0.0000000     0.0000000  0.5000000  0.5000000
                       0.5000000  0.0000000  0.5000000     0.5000000  0.5000000  0.0000000
                       0.0000000  0.0000000  0.0000000     0.5000000  0.5000000  0.0000000
                       0.0000000  0.5000000  0.5000000     0.5000000  0.0000000  0.5000000
                       0.0000000  0.0000000  0.0000000     0.5000000  0.0000000  0.5000000
                       0.5000000  0.5000000  0.0000000     0.0000000  0.5000000  0.5000000
           tolwfr      1.00000000E-20
            typat      1  1  1  1  2  2  2  2
           useylm           1
              wtk        0.50000    0.50000
           xangst      7.7398157715E-01  1.5968061225E+00  3.1447692768E+00
                       1.5968061225E+00  3.1447692768E+00  7.7398157715E-01
                       3.1447692768E+00  7.7398157715E-01  1.5968061225E+00
                       3.9675938221E+00  3.9675938221E+00  3.9675938221E+00
                       4.1438903371E+00  2.9684727619E+00  1.7731026374E+00
                       2.9684727619E+00  1.7731026374E+00  4.1438903371E+00
                       1.7731026374E+00  4.1438903371E+00  2.9684727619E+00
                       5.9768506223E-01  5.9768506223E-01  5.9768506223E-01
            xcart      1.4626132127E+00  3.0175262588E+00  5.9427526843E+00
                       3.0175262588E+00  5.9427526843E+00  1.4626132127E+00
                       5.9427526843E+00  1.4626132127E+00  3.0175262588E+00
                       7.4976657304E+00  7.4976657304E+00  7.4976657304E+00
                       7.8308178618E+00  5.6096005529E+00  3.3506783902E+00
                       5.6096005529E+00  3.3506783902E+00  7.8308178618E+00
                       3.3506783902E+00  7.8308178618E+00  5.6096005529E+00
                       1.1294610813E+00  1.1294610813E+00  1.1294610813E+00
             xred      1.6323300000E-01  3.3676700000E-01  6.6323300000E-01
                       3.3676700000E-01  6.6323300000E-01  1.6323300000E-01
                       6.6323300000E-01  1.6323300000E-01  3.3676700000E-01
                       8.3676700000E-01  8.3676700000E-01  8.3676700000E-01
                       8.7394800000E-01  6.2605200000E-01  3.7394800000E-01
                       6.2605200000E-01  3.7394800000E-01  8.7394800000E-01
                       3.7394800000E-01  8.7394800000E-01  6.2605200000E-01
                       1.2605200000E-01  1.2605200000E-01  1.2605200000E-01
            znucl       14.00000   76.00000

- Timing analysis has been suppressed with timopt=0

 Suggested references for the acknowledgment of ABINIT usage.

 Calculation completed.
.Delivered  15 WARNINGs and   9 COMMENTs to log file.