.Version 9.5.1 of ABINIT

 ABINIT is a project of the Universite Catholique de Louvain,
 Corning Inc. and other collaborators, see ~abinit/doc/developers/contributors.txt .
 acknowledgments of the ABINIT effort.

.Starting date : Wed 19 May 2021.
- ( at 15h35 )

- input  file    -> /scratch/users/j/a/jabreu/flow_simple_9atoms/flow/w203/t1/run.abi
- output file    -> /scratch/users/j/a/jabreu/flow_simple_9atoms/flow/w203/t1/run.abo
- root for input  files -> /scratch/users/j/a/jabreu/flow_simple_9atoms/flow/w203/t1/indata/in
- root for output files -> /scratch/users/j/a/jabreu/flow_simple_9atoms/flow/w203/t1/outdata/out

 Symmetries : space group Fm -3 m (#225); Bravais cF (face-center cubic)
     intxc =       0      iscf =       7    lmnmax =      32     lnmax =       8
     mgfft =      90  mpssoang =       4    mqgrid =    3348     natom =       9
  nloc_mem =       1    nspden =       1   nspinor =       1    nsppol =       1
      nsym =      48    n1xccc =    2501    ntypat =       3    occopt =       1
   xclevel =       2
-    mband =          45        mffmem =           1         mkmem =           2
-   mkqmem =           2        mk1mem =           2           mpw =       25605
      nfft =      729000          nkpt =           2
  Rough estimation (10% accuracy) of disk space for files :

------------- Echo of variables that govern the present computation ------------
-
- outvars: echo of selected default values
-   iomode0 =  0 , fftalg0 =512 , wfoptalg0 =  0
-
- outvars: echo of global parameters not present in the input file
-  max_nthreads =    0
-
 -outvars: echo values of preprocessed input variables --------
            acell      1.0000000000E+00  1.0000000000E+00  1.0000000000E+00 Bohr
              amu      1.32905430E+02  1.78490000E+02  1.26904470E+02
             ecut      3.50000000E+01 Hartree
-          fftalg         512
           irdden           1
           irdwfk           1
           istwfk        1    1
              ixc     -116133
              kpt      0.00000000E+00  0.00000000E+00  0.00000000E+00
                       5.00000000E-01  0.00000000E+00  5.00000000E-01
           kptopt           0
P           mkmem           2
P          mkqmem           2
P          mk1mem           2
            natom           9
            nband          45
           nbdbuf           4
            ngfft          90      90      90
             nkpt           2
            nstep        2000
             nsym          48
           ntypat           3
              occ      2.000000  2.000000  2.000000  2.000000  2.000000  2.000000
                       2.000000  2.000000  2.000000  2.000000  2.000000  2.000000
                       2.000000  2.000000  2.000000  2.000000  2.000000  2.000000
                       2.000000  2.000000  2.000000  2.000000  2.000000  2.000000
                       2.000000  2.000000  2.000000  2.000000  2.000000  2.000000
                       2.000000  2.000000  2.000000  2.000000  2.000000  2.000000
                       0.000000  0.000000  0.000000  0.000000  0.000000  0.000000
                       0.000000  0.000000  0.000000
        optdriver           1
            prtwf          -1
            rfdir           1       1       1
           rfelfd           2
            rprim      1.3331226720E+01  0.0000000000E+00  7.6967873353E+00
                       4.4437422399E+00  1.2568801087E+01  7.6967873353E+00
                       0.0000000000E+00  0.0000000000E+00  1.5393574671E+01
          spgroup         225
           symrel      1  0  0   0  1  0   0  0  1      -1  0  0   0 -1  0   0  0 -1
                       0 -1  1   0 -1  0   1 -1  0       0  1 -1   0  1  0  -1  1  0
                      -1  0  0  -1  0  1  -1  1  0       1  0  0   1  0 -1   1 -1  0
                       0  1 -1   1  0 -1   0  0 -1       0 -1  1  -1  0  1   0  0  1
                      -1  0  0  -1  1  0  -1  0  1       1  0  0   1 -1  0   1  0 -1
                       0 -1  1   1 -1  0   0 -1  0       0  1 -1  -1  1  0   0  1  0
                       1  0  0   0  0  1   0  1  0      -1  0  0   0  0 -1   0 -1  0
                       0  1 -1   0  0 -1   1  0 -1       0 -1  1   0  0  1  -1  0  1
                      -1  0  1  -1  1  0  -1  0  0       1  0 -1   1 -1  0   1  0  0
                       0 -1  0   1 -1  0   0 -1  1       0  1  0  -1  1  0   0  1 -1
                       1  0 -1   0  0 -1   0  1 -1      -1  0  1   0  0  1   0 -1  1
                       0  1  0   0  0  1   1  0  0       0 -1  0   0  0 -1  -1  0  0
                       1  0 -1   0  1 -1   0  0 -1      -1  0  1   0 -1  1   0  0  1
                       0 -1  0   0 -1  1   1 -1  0       0  1  0   0  1 -1  -1  1  0
                      -1  0  1  -1  0  0  -1  1  0       1  0 -1   1  0  0   1 -1  0
                       0  1  0   1  0  0   0  0  1       0 -1  0  -1  0  0   0  0 -1
                       0  0 -1   0  1 -1   1  0 -1       0  0  1   0 -1  1  -1  0  1
                       1 -1  0   0 -1  1   0 -1  0      -1  1  0   0  1 -1   0  1  0
                       0  0  1   1  0  0   0  1  0       0  0 -1  -1  0  0   0 -1  0
                      -1  1  0  -1  0  0  -1  0  1       1 -1  0   1  0  0   1  0 -1
                       0  0  1   0  1  0   1  0  0       0  0 -1   0 -1  0  -1  0  0
                       1 -1  0   0 -1  0   0 -1  1      -1  1  0   0  1  0   0  1 -1
                       0  0 -1   1  0 -1   0  1 -1       0  0  1  -1  0  1   0 -1  1
                      -1  1  0  -1  0  1  -1  0  0       1 -1  0   1  0 -1   1  0  0
           tolwfr      1.00000000E-20
            typat      1  1  2  3  3  3  3  3  3
           useylm           1
              wtk        0.50000    0.50000
           xangst      7.0545813427E+00  4.9883423058E+00  1.2218893312E+01
                       2.3515271142E+00  1.6627807686E+00  4.0729644372E+00
                       0.0000000000E+00  0.0000000000E+00  0.0000000000E+00
                       7.0968994246E+00  5.0182657085E+00  8.1459288744E+00
                       3.5061316303E+00  5.0182657085E+00  6.0727981218E+00
                       5.8999768265E+00  1.6328573659E+00  1.0219059627E+01
                       2.3092090323E+00  1.6328573659E+00  8.1459288744E+00
                       5.8999768265E+00  1.6328573659E+00  6.0727981218E+00
                       3.5061316303E+00  5.0182657085E+00  1.0219059627E+01
            xcart      1.3331226720E+01  9.4266008151E+00  2.3090362006E+01
                       4.4437422399E+00  3.1422002717E+00  7.6967873353E+00
                       0.0000000000E+00  0.0000000000E+00  0.0000000000E+00
                       1.3411196305E+01  9.4831478512E+00  1.5393574671E+01
                       6.6256285672E+00  9.4831478512E+00  1.1475925311E+01
                       1.1149340393E+01  3.0856532356E+00  1.9311224031E+01
                       4.3637726546E+00  3.0856532356E+00  1.5393574671E+01
                       1.1149340393E+01  3.0856532356E+00  1.1475925311E+01
                       6.6256285672E+00  9.4831478512E+00  1.9311224031E+01
             xred      7.5000000000E-01  7.5000000000E-01  7.5000000000E-01
                       2.5000000000E-01  2.5000000000E-01  2.5000000000E-01
                       0.0000000000E+00  0.0000000000E+00  0.0000000000E+00
                       7.5449900000E-01  7.5449900000E-01  2.4550100000E-01
                       2.4550100000E-01  7.5449900000E-01  2.4550100000E-01
                       7.5449900000E-01  2.4550100000E-01  7.5449900000E-01
                       2.4550100000E-01  2.4550100000E-01  7.5449900000E-01
                       7.5449900000E-01  2.4550100000E-01  2.4550100000E-01
                       2.4550100000E-01  7.5449900000E-01  7.5449900000E-01
            znucl       55.00000   72.00000   53.00000

 chkinp: Checking input parameters for consistency.

== DATASET  1 ==================================================================
-   mpi_nproc: 1, omp_nthreads: -1 (-1 if OMP is not activated)

--- !DatasetInfo
iteration_state: {dtset: 1, }
dimensions: {natom: 9, nkpt: 2, mband: 45, nsppol: 1, nspinor: 1, nspden: 1, mpw: 25605, }
cutoff_energies: {ecut:  35.0, pawecutdg:  -1.0, }
electrons: {nelect:   7.20000000E+01, charge:   0.00000000E+00, occopt:   1.00000000E+00, tsmear:   1.00000000E-02, }
meta: {optdriver: 1, rfelfd: 2, }
...

 Real(R)+Recip(G) space primitive vectors, cartesian coordinates (Bohr,Bohr^-1):
 R(1)= 13.3312267  0.0000000  7.6967873  G(1)=  0.0750119 -0.0265207  0.0000000
 R(2)=  4.4437422 12.5688011  7.6967873  G(2)=  0.0000000  0.0795621  0.0000000
 R(3)=  0.0000000  0.0000000 15.3935747  G(3)= -0.0375059 -0.0265207  0.0649622
 Unit cell volume ucvol=  2.5793095E+03 bohr^3
 Angles (23,13,12)=  6.00000000E+01  6.00000000E+01  6.00000000E+01 degrees

 getcut: wavevector=  0.0000  0.0000  0.0000  ngfft=  90  90  90
         ecut(hartree)=     35.000   => boxcut(ratio)=   2.19562

--- Pseudopotential description ------------------------------------------------
- pspini: atom type   1  psp file is /scratch/users/j/a/jabreu/pseudos/PBEsol/Cs.psp8
- pspatm: opening atomic psp file    /scratch/users/j/a/jabreu/pseudos/PBEsol/Cs.psp8
- Cs    ONCVPSP-3.3.0  r_core=   2.27353   1.85623   2.01788   1.90105
- 55.00000   9.00000    180112                znucl, zion, pspdat
    8 -116133    3    4       600   0.00000   pspcod,pspxc,lmax,lloc,mmax,r2well
    5.99000000000000    5.00000000000000    0.00000000000000   rchrg,fchrg,qchrg
     nproj     2     2     2     2
     extension_switch     1
  pspatm : epsatm=   22.12462445
         --- l  ekb(1:nproj) -->
             0    6.214110    0.767882
             1    6.311966    0.793598
             2    3.769790    0.913105
             3   -9.247129   -2.432478
 pspatm: atomic psp has been read  and splines computed

- pspini: atom type   2  psp file is /scratch/users/j/a/jabreu/pseudos/PBEsol/Hf.psp8
- pspatm: opening atomic psp file    /scratch/users/j/a/jabreu/pseudos/PBEsol/Hf.psp8
- Hf    ONCVPSP-3.3.0  r_core=   1.71613   1.71613   1.71613   2.42541
- 72.00000  12.00000    180112                znucl, zion, pspdat
    8 -116133    3    4       600   0.00000   pspcod,pspxc,lmax,lloc,mmax,r2well
    5.99000000000000    5.40000000000000    0.00000000000000   rchrg,fchrg,qchrg
     nproj     2     2     2     2
     extension_switch     1
  pspatm : epsatm=   21.99082902
         --- l  ekb(1:nproj) -->
             0    5.882750   -0.519107
             1    2.555685   -1.768609
             2    1.383259    0.138001
             3    9.464546    0.347497
 pspatm: atomic psp has been read  and splines computed

- pspini: atom type   3  psp file is /scratch/users/j/a/jabreu/pseudos/PBEsol/I.psp8
- pspatm: opening atomic psp file    /scratch/users/j/a/jabreu/pseudos/PBEsol/I.psp8
- I     ONCVPSP-3.3.0  r_core=   2.02042   2.17032   2.27639
- 53.00000   7.00000    180112                znucl, zion, pspdat
    8 -116133    2    4       600   0.00000   pspcod,pspxc,lmax,lloc,mmax,r2well
    5.99000000000000    4.00000000000000    0.00000000000000   rchrg,fchrg,qchrg
     nproj     2     2     2
     extension_switch     1
[...]
 ETOT 11  -22.493165044239     -9.447E-12 1.073E-07 0.000E+00
 ETOT 12  -22.493165044240     -1.279E-12 5.191E-08 0.000E+00
 ETOT 13  -22.493165044241     -1.670E-13 1.237E-08 0.000E+00
 ETOT 14  -22.493165044241     -3.553E-14 6.047E-09 0.000E+00
 ETOT 15  -22.493165044241      1.066E-14 1.437E-09 0.000E+00
 ETOT 16  -22.493165044241     -2.487E-14 7.086E-10 0.000E+00
 ETOT 17  -22.493165044241      3.908E-14 1.211E-10 0.000E+00
 ETOT 18  -22.493165044241     -7.105E-15 5.374E-11 0.000E+00
 ETOT 19  -22.493165044241      1.066E-14 9.221E-12 0.000E+00
 ETOT 20  -22.493165044241      1.066E-14 6.593E-12 0.000E+00
 ETOT 21  -22.493165044241      3.553E-15 1.225E-12 0.000E+00
 ETOT 22  -22.493165044241     -1.066E-14 9.092E-13 0.000E+00
 ETOT 23  -22.493165044241      0.000E+00 1.689E-13 0.000E+00
 ETOT 24  -22.493165044241      0.000E+00 1.256E-13 0.000E+00
 ETOT 25  -22.493165044241      0.000E+00 2.342E-14 0.000E+00
 ETOT 26  -22.493165044241      0.000E+00 1.743E-14 0.000E+00
 ETOT 27  -22.493165044241      0.000E+00 3.260E-15 0.000E+00
 ETOT 28  -22.493165044241      3.553E-15 2.428E-15 0.000E+00
 ETOT 29  -22.493165044241     -3.553E-15 4.552E-16 0.000E+00
 ETOT 30  -22.493165044241      7.105E-15 3.392E-16 0.000E+00
 ETOT 31  -22.493165044241     -1.066E-14 6.372E-17 0.000E+00
 ETOT 32  -22.493165044241      7.105E-15 4.750E-17 0.000E+00
 ETOT 33  -22.493165044241     -7.105E-15 8.939E-18 0.000E+00
 ETOT 34  -22.493165044241      0.000E+00 6.667E-18 0.000E+00
 ETOT 35  -22.493165044241      3.553E-15 1.256E-18 0.000E+00
 ETOT 36  -22.493165044241      0.000E+00 9.374E-19 0.000E+00
 ETOT 37  -22.493165044241      7.105E-15 1.769E-19 0.000E+00
 ETOT 38  -22.493165044241      0.000E+00 1.320E-19 0.000E+00
 ETOT 39  -22.493165044241      0.000E+00 2.493E-20 0.000E+00
 ETOT 40  -22.493165044241      0.000E+00 1.862E-20 0.000E+00
 ETOT 41  -22.493165044241      7.105E-15 9.806E-21 0.000E+00

 At SCF step   41   max residual=  9.81E-21 < tolwfr=  1.00E-20 =>converged.

 ----iterations are completed or convergence reached----

 dfpt_looppert: DFPT cycle converged with prtwf=-1. Will skip output of the 1st-order WFK file.
 dfpt_looppert : ek2=    3.5986078458E+01
          f-sum rule ratio=    1.0954790498E+00
 prteigrs : about to open file /scratch/users/j/a/jabreu/flow_simple_9atoms/flow/w203/t1/tmpdata/tmp_1WF1_EIG
 Expectation of eigenvalue derivatives (hartree) for nkpt=   2  k points:
  (in case of degenerate eigenvalues, averaged derivative)
 kpt#   1, nband= 45, wtk=  0.50000, kpt=  0.0000  0.0000  0.0000 (reduced coord)
   0.00000   -0.00000   -0.00000   -0.00000   -0.00000   -0.00000    0.00000   -0.00000
  -0.00000   -0.00000    0.00000    0.00000   -0.00000   -0.00000   -0.00000   -0.00000
  -0.00000   -0.00000    0.00000   -0.00000   -0.00000   -0.00000   -0.00000   -0.00000
  -0.00000   -0.00000   -0.00000   -0.00000   -0.00000   -0.00000   -0.00000   -0.00000
  -0.00000    0.00000    0.00000    0.00000    0.00000    0.00000    0.00000   -0.00000
  -0.00000    0.00000    0.00000   -0.00000    0.00075
 prteigrs : prtvol=0 or 1, do not print more k-points.

 Eight components of 2nd-order total energy (hartree) are
 1,2,3: 0th-order hamiltonian combined with 1st-order wavefunctions
     kin0=   2.84625566E+01 eigvalue=   7.24699788E-01  local=  -1.96904606E+01
 4,5,6: 1st-order hamiltonian combined with 1st and 0th-order wfs
     kin1=  -3.94219950E+01  Hartree=   0.00000000E+00     xc=   0.00000000E+00
 7,8,9: eventually, occupation + non-local contributions
    edocc=   6.64774573E+00     enl0=   6.34862362E+00   enl1=  -5.56433505E+00
 1-9 gives the relaxation energy (to be shifted if some occ is /=2.0)
   erelax=  -2.24931650E+01
  No Ewald or frozen-wf contrib.: the relaxation energy is the total one
 2DEtotal=   -0.2249316504E+02 Ha. Also 2DEtotal=   -0.612070148245E+03 eV
    (  non-var. 2DEtotal :   -2.2493165044E+01 Ha)

 CALCULATION OF EFFECTIVE MASSES
 NOTE : Additional infos (eff. mass eigenvalues, eigenvectors and, if degenerate, average mass) are available in stdout.

 COMMENTS:
 - At k-point ( 0.000, 0.000, 0.000), bands    34 through    36
   are DEGENERATE (effective mass tensor is therefore not defined).
   See Section IIIB Eqs. (67)-(70) and Appendix E of PRB 93 205147 (2016).
 - Angular average effective mass for Frohlich model is to be averaged over degenerate bands. See later.
 - Associated theta integrals calculated with ntheta=   1000 points.

 K-point ( 0.000, 0.000, 0.000) | band =    34
 Transport equivalent effective mass tensor:
             -0.5845007037              0.0000646780              0.0000237781
              0.0000646780             -0.5845757870             -0.0000271985
              0.0000237781             -0.0000271985             -0.5844700013
 Transport equivalent effective mass tensor eigenvalues:
             -0.5846213433             -0.5844694780             -0.5844556707
 Angular average effective mass 1/(<1/m>)=  -0.5594263637
 Angular average effective mass for Frohlich model (<m**0.5>)**2=  -0.5604083586
 Effective masses along directions: (cart. coord. / red. coord. -> eff. mass)
    1:   1.000000  0.000000  0.000000 /   0.948683  0.316228  0.000000 ->  -0.5922277095
    2:   0.000000  1.000000  0.000000 /   0.000000  1.000000  0.000000 ->  -0.6622504657
    3:   0.000000  0.000000  1.000000 /   0.408248  0.408248  0.816497 ->  -0.5355110234
    4:   0.577350  0.577350  0.577350 /   0.585539  0.688047  0.428644 ->  -0.5743176458
    5:   0.000000  0.707107  0.707107 /   0.289489  0.762222  0.578977 ->  -0.5388967710
    6:   0.707107  0.000000  0.707107 /   0.731423  0.422287  0.535439 ->  -0.5534304297
    7:   0.707107  0.707107  0.000000 /   0.616798  0.787122  0.000000 ->  -0.5399832770

[...]

 K-point ( 0.000, 0.000, 0.000) | band =    36
 Transport equivalent effective mass tensor:
            -25.7143200247              0.0008194361              0.0002988421
              0.0008194361            -25.7154524992             -0.0002082887
              0.0002988421             -0.0002082887            -25.7134599709
 Transport equivalent effective mass tensor eigenvalues:
            -25.7159249383            -25.7139427481            -25.7133648083
 Angular average effective mass 1/(<1/m>)=  -2.1653078741
 Angular average effective mass for Frohlich model (<m**0.5>)**2=  -2.6772046455
 Effective masses along directions: (cart. coord. / red. coord. -> eff. mass)
    1:   1.000000  0.000000  0.000000 /   0.948683  0.316228  0.000000 ->  -1.8470161621
    2:   0.000000  1.000000  0.000000 /   0.000000  1.000000  0.000000 ->  -1.2721194857
    3:   0.000000  0.000000  1.000000 /   0.408248  0.408248  0.816497 ->  -1.6463032107
    4:   0.577350  0.577350  0.577350 /   0.585539  0.688047  0.428644 ->  -1.7900805019
    5:   0.000000  0.707107  0.707107 /   0.289489  0.762222  0.578977 ->  -3.0764185042
    6:   0.707107  0.000000  0.707107 /   0.731423  0.422287  0.535439 ->  -1.7473451328
    7:   0.707107  0.707107  0.000000 /   0.616798  0.787122  0.000000 ->  -8.7500255268

 Angular average effective mass for Frohlich model, averaged over degenerate bands.
 Value of     (<<m**0.5>>)**2 =     1.129981E+00
 Absolute Value of <<m**0.5>> =     1.063006E+00

 K-point ( 0.500, 0.000, 0.500) | band =    37
 Effective mass tensor:
              6.2427662550             -7.9417363023              9.7266008061
             -7.9417363023             11.8584218479            -13.7554907750
              9.7266008061            -13.7554907750             17.4740774409
 Effective mass tensor eigenvalues:
              0.6271106609              0.6271106610             34.3210442218
 Angular average effective mass 1/(<1/m>)=   0.9321499168
 Angular average effective mass for Frohlich model (<m**0.5>)**2=   1.3157774964
 Effective masses along directions: (cart. coord. / red. coord. -> eff. mass)
    1:   1.000000  0.000000  0.000000 /   0.948683  0.316228  0.000000 ->   0.7497927656
    2:   0.000000  1.000000  0.000000 /   0.000000  1.000000  0.000000 ->   0.9321499168
    3:   0.000000  0.000000  1.000000 /   0.408248  0.408248  0.816497 ->   1.2317155396
    4:   0.577350  0.577350  0.577350 /   0.585539  0.688047  0.428644 ->   0.6927257302
    5:   0.000000  0.707107  0.707107 /   0.289489  0.762222  0.578977 ->   0.6323366428
    6:   0.707107  0.000000  0.707107 /   0.731423  0.422287  0.535439 ->   1.6106323247
    7:   0.707107  0.707107  0.000000 /   0.616798  0.787122  0.000000 ->   0.6360384095

 END OF EFFECTIVE MASSES SECTION

 ---- first-order wavefunction calculations are completed ----

 Total localisation tensor (bohr^2) in cartesian coordinates
  WARNING : still subject to testing - especially symmetries.
      direction              matrix element
   alpha     beta       real part   imaginary part
     1        1       2.3892616490    0.0000000000
     1        2       0.6757830537    0.0000000000
     1        3       1.6553281326    0.0000000000
     2        1       0.6757830537    0.0000000000
     2        2       1.9114031197    0.0000000000
     2        3       1.1704905840    0.0000000000
     3        1       1.6553281326    0.0000000000
     3        2       1.1704905840    0.0000000000
     3        3       4.3006987270    0.0000000000

 respfn : d/dk was computed, but no 2DTE, so no DDB output.

== END DATASET(S) ==============================================================

 -outvars: echo values of variables after computation  --------
            acell      1.0000000000E+00  1.0000000000E+00  1.0000000000E+00 Bohr
              amu      1.32905430E+02  1.78490000E+02  1.26904470E+02
             ecut      3.50000000E+01 Hartree
           etotal     -2.2493165044E+01
            fcart      0.0000000000E+00  0.0000000000E+00  0.0000000000E+00
                       0.0000000000E+00  0.0000000000E+00  0.0000000000E+00
                       0.0000000000E+00  0.0000000000E+00  0.0000000000E+00
                       0.0000000000E+00  0.0000000000E+00  0.0000000000E+00
                       0.0000000000E+00  0.0000000000E+00  0.0000000000E+00
                       0.0000000000E+00  0.0000000000E+00  0.0000000000E+00
                       0.0000000000E+00  0.0000000000E+00  0.0000000000E+00
                       0.0000000000E+00  0.0000000000E+00  0.0000000000E+00
                       0.0000000000E+00  0.0000000000E+00  0.0000000000E+00
-          fftalg         512
           irdden           1
           irdwfk           1
           istwfk        1    1
              ixc     -116133
              kpt      0.00000000E+00  0.00000000E+00  0.00000000E+00
                       5.00000000E-01  0.00000000E+00  5.00000000E-01
           kptopt           0
P           mkmem           2
P          mkqmem           2
P          mk1mem           2
            natom           9
            nband          45
           nbdbuf           4
            ngfft          90      90      90
             nkpt           2
            nstep        2000
             nsym          48
           ntypat           3
              occ      2.000000  2.000000  2.000000  2.000000  2.000000  2.000000
                       2.000000  2.000000  2.000000  2.000000  2.000000  2.000000
                       2.000000  2.000000  2.000000  2.000000  2.000000  2.000000
                       2.000000  2.000000  2.000000  2.000000  2.000000  2.000000
                       2.000000  2.000000  2.000000  2.000000  2.000000  2.000000
                       2.000000  2.000000  2.000000  2.000000  2.000000  2.000000
                       0.000000  0.000000  0.000000  0.000000  0.000000  0.000000
                       0.000000  0.000000  0.000000
        optdriver           1
            prtwf          -1
            rfdir           1       1       1
           rfelfd           2
            rprim      1.3331226720E+01  0.0000000000E+00  7.6967873353E+00
                       4.4437422399E+00  1.2568801087E+01  7.6967873353E+00
                       0.0000000000E+00  0.0000000000E+00  1.5393574671E+01
          spgroup         225
           strten      0.0000000000E+00  0.0000000000E+00  0.0000000000E+00
                       0.0000000000E+00  0.0000000000E+00  0.0000000000E+00
           symrel      1  0  0   0  1  0   0  0  1      -1  0  0   0 -1  0   0  0 -1
                       0 -1  1   0 -1  0   1 -1  0       0  1 -1   0  1  0  -1  1  0
                      -1  0  0  -1  0  1  -1  1  0       1  0  0   1  0 -1   1 -1  0
                       0  1 -1   1  0 -1   0  0 -1       0 -1  1  -1  0  1   0  0  1
                      -1  0  0  -1  1  0  -1  0  1       1  0  0   1 -1  0   1  0 -1
                       0 -1  1   1 -1  0   0 -1  0       0  1 -1  -1  1  0   0  1  0
                       1  0  0   0  0  1   0  1  0      -1  0  0   0  0 -1   0 -1  0
                       0  1 -1   0  0 -1   1  0 -1       0 -1  1   0  0  1  -1  0  1
                      -1  0  1  -1  1  0  -1  0  0       1  0 -1   1 -1  0   1  0  0
                       0 -1  0   1 -1  0   0 -1  1       0  1  0  -1  1  0   0  1 -1
                       1  0 -1   0  0 -1   0  1 -1      -1  0  1   0  0  1   0 -1  1
                       0  1  0   0  0  1   1  0  0       0 -1  0   0  0 -1  -1  0  0
                       1  0 -1   0  1 -1   0  0 -1      -1  0  1   0 -1  1   0  0  1
                       0 -1  0   0 -1  1   1 -1  0       0  1  0   0  1 -1  -1  1  0
                      -1  0  1  -1  0  0  -1  1  0       1  0 -1   1  0  0   1 -1  0
                       0  1  0   1  0  0   0  0  1       0 -1  0  -1  0  0   0  0 -1
                       0  0 -1   0  1 -1   1  0 -1       0  0  1   0 -1  1  -1  0  1
                       1 -1  0   0 -1  1   0 -1  0      -1  1  0   0  1 -1   0  1  0
                       0  0  1   1  0  0   0  1  0       0  0 -1  -1  0  0   0 -1  0
                      -1  1  0  -1  0  0  -1  0  1       1 -1  0   1  0  0   1  0 -1
                       0  0  1   0  1  0   1  0  0       0  0 -1   0 -1  0  -1  0  0
                       1 -1  0   0 -1  0   0 -1  1      -1  1  0   0  1  0   0  1 -1
                       0  0 -1   1  0 -1   0  1 -1       0  0  1  -1  0  1   0 -1  1
                      -1  1  0  -1  0  1  -1  0  0       1 -1  0   1  0 -1   1  0  0
           tolwfr      1.00000000E-20
            typat      1  1  2  3  3  3  3  3  3
           useylm           1
              wtk        0.50000    0.50000
           xangst      7.0545813427E+00  4.9883423058E+00  1.2218893312E+01
                       2.3515271142E+00  1.6627807686E+00  4.0729644372E+00
                       0.0000000000E+00  0.0000000000E+00  0.0000000000E+00
                       7.0968994246E+00  5.0182657085E+00  8.1459288744E+00
                       3.5061316303E+00  5.0182657085E+00  6.0727981218E+00
                       5.8999768265E+00  1.6328573659E+00  1.0219059627E+01
                       2.3092090323E+00  1.6328573659E+00  8.1459288744E+00
                       5.8999768265E+00  1.6328573659E+00  6.0727981218E+00
                       3.5061316303E+00  5.0182657085E+00  1.0219059627E+01
            xcart      1.3331226720E+01  9.4266008151E+00  2.3090362006E+01
                       4.4437422399E+00  3.1422002717E+00  7.6967873353E+00
                       0.0000000000E+00  0.0000000000E+00  0.0000000000E+00
                       1.3411196305E+01  9.4831478512E+00  1.5393574671E+01
                       6.6256285672E+00  9.4831478512E+00  1.1475925311E+01
                       1.1149340393E+01  3.0856532356E+00  1.9311224031E+01
                       4.3637726546E+00  3.0856532356E+00  1.5393574671E+01
                       1.1149340393E+01  3.0856532356E+00  1.1475925311E+01
                       6.6256285672E+00  9.4831478512E+00  1.9311224031E+01
             xred      7.5000000000E-01  7.5000000000E-01  7.5000000000E-01
                       2.5000000000E-01  2.5000000000E-01  2.5000000000E-01
                       0.0000000000E+00  0.0000000000E+00  0.0000000000E+00
                       7.5449900000E-01  7.5449900000E-01  2.4550100000E-01
                       2.4550100000E-01  7.5449900000E-01  2.4550100000E-01
                       7.5449900000E-01  2.4550100000E-01  7.5449900000E-01
                       2.4550100000E-01  2.4550100000E-01  7.5449900000E-01
                       7.5449900000E-01  2.4550100000E-01  2.4550100000E-01
                       2.4550100000E-01  7.5449900000E-01  7.5449900000E-01
            znucl       55.00000   72.00000   53.00000

- Timing analysis has been suppressed with timopt=0

 Suggested references for the acknowledgment of ABINIT usage.

 Calculation completed.
.Delivered  14 WARNINGs and  11 COMMENTs to log file.