.Version 9.5.1 of ABINIT

 ABINIT is a project of the Universite Catholique de Louvain,
 Corning Inc. and other collaborators, see ~abinit/doc/developers/contributors.txt .
 acknowledgments of the ABINIT effort.

.Starting date : Tue  4 May 2021.
- ( at 19h49 )

- input  file    -> /scratch/users/j/a/jabreu/flow_simple_6atoms/flow/w243/t1/run.abi
- output file    -> /scratch/users/j/a/jabreu/flow_simple_6atoms/flow/w243/t1/run.abo
- root for input  files -> /scratch/users/j/a/jabreu/flow_simple_6atoms/flow/w243/t1/indata/in
- root for output files -> /scratch/users/j/a/jabreu/flow_simple_6atoms/flow/w243/t1/outdata/out

 Symmetries : space group P4/n m m (#129); Bravais tP (primitive tetrag.)
     intxc =       0      iscf =       7    lmnmax =      18     lnmax =       6
     mgfft =      80  mpssoang =       3    mqgrid =    3799     natom =       6
  nloc_mem =       1    nspden =       1   nspinor =       1    nsppol =       1
      nsym =      16    n1xccc =    2501    ntypat =       3    occopt =       1
   xclevel =       2
-    mband =          27        mffmem =           1         mkmem =           1
-   mkqmem =           1        mk1mem =           1           mpw =        9790
      nfft =      184320          nkpt =           1
  Rough estimation (10% accuracy) of disk space for files :

------------- Echo of variables that govern the present computation ------------
-
- outvars: echo of selected default values
-   iomode0 =  0 , fftalg0 =512 , wfoptalg0 =  0
-
- outvars: echo of global parameters not present in the input file
-  max_nthreads =    0
-
 -outvars: echo values of preprocessed input variables --------
            acell      1.0000000000E+00  1.0000000000E+00  1.0000000000E+00 Bohr
              amu      8.76200000E+01  1.00794000E+00  7.99040000E+01
             ecut      3.90000000E+01 Hartree
-          fftalg         512
           irdden           1
           irdwfk           1
           istwfk        1
              ixc     -116133
              kpt      0.00000000E+00 -3.08148791E-33  5.00000000E-01
           kptopt           0
P           mkmem           1
P          mkqmem           1
P          mk1mem           1
            natom           6
            nband          27
           nbdbuf           4
            ngfft          48      48      80
             nkpt           1
            nstep        1000
             nsym          16
           ntypat           3
              occ      2.000000  2.000000  2.000000  2.000000  2.000000  2.000000
                       2.000000  2.000000  2.000000  2.000000  2.000000  2.000000
                       2.000000  2.000000  2.000000  2.000000  2.000000  2.000000
                       0.000000  0.000000  0.000000  0.000000  0.000000  0.000000
                       0.000000  0.000000  0.000000
        optdriver           1
            prtwf          -1
            rfdir           1       1       1
           rfelfd           2
            rprim      7.8933855312E+00  0.0000000000E+00  0.0000000000E+00
                       0.0000000000E+00  7.8933855312E+00  0.0000000000E+00
                       0.0000000000E+00  0.0000000000E+00  1.3512332887E+01
          spgroup         129
           symrel      1  0  0   0  1  0   0  0  1      -1  0  0   0 -1  0   0  0 -1
                      -1  0  0   0  1  0   0  0 -1       1  0  0   0 -1  0   0  0  1
                      -1  0  0   0 -1  0   0  0  1       1  0  0   0  1  0   0  0 -1
                       1  0  0   0 -1  0   0  0 -1      -1  0  0   0  1  0   0  0  1
                       0  1  0   1  0  0   0  0  1       0 -1  0  -1  0  0   0  0 -1
                       0 -1  0   1  0  0   0  0 -1       0  1  0  -1  0  0   0  0  1
                       0 -1  0  -1  0  0   0  0  1       0  1  0   1  0  0   0  0 -1
                       0  1  0  -1  0  0   0  0 -1       0 -1  0   1  0  0   0  0  1
            tnons      0.0000000  0.0000000  0.0000000     0.5000000  0.5000000 -0.0000000
                       0.5000000  0.5000000 -0.0000000     0.0000000  0.0000000  0.0000000
                       0.0000000  0.0000000  0.0000000     0.5000000  0.5000000 -0.0000000
                       0.5000000  0.5000000 -0.0000000     0.0000000  0.0000000  0.0000000
                       0.5000000  0.5000000  0.0000000     0.0000000  0.0000000 -0.0000000
                       0.0000000  0.0000000 -0.0000000     0.5000000  0.5000000  0.0000000
                       0.5000000  0.5000000  0.0000000     0.0000000  0.0000000 -0.0000000
                       0.0000000  0.0000000 -0.0000000     0.5000000  0.5000000  0.0000000
           tolwfr      1.00000000E-20
            typat      1  1  2  2  3  3
           useylm           1
           xangst      2.0884998609E+00  0.0000000000E+00  5.8086425487E+00
                       0.0000000000E+00  2.0884998609E+00  1.3417760501E+00
                       2.0884998609E+00  2.0884998609E+00  0.0000000000E+00
                       0.0000000000E+00  0.0000000000E+00  0.0000000000E+00
                       0.0000000000E+00  2.0884998609E+00  4.6676574033E+00
                       2.0884998609E+00  0.0000000000E+00  2.4827611954E+00
            xcart      3.9466927656E+00  0.0000000000E+00  1.0976743621E+01
                       0.0000000000E+00  3.9466927656E+00  2.5355892663E+00
                       3.9466927656E+00  3.9466927656E+00  0.0000000000E+00
                       0.0000000000E+00  0.0000000000E+00  0.0000000000E+00
                       0.0000000000E+00  3.9466927656E+00  8.8205941744E+00
                       3.9466927656E+00  0.0000000000E+00  4.6917387127E+00
             xred      5.0000000000E-01  0.0000000000E+00  8.1235000000E-01
                       0.0000000000E+00  5.0000000000E-01  1.8765000000E-01
                       5.0000000000E-01  5.0000000000E-01  0.0000000000E+00
                       0.0000000000E+00  0.0000000000E+00  0.0000000000E+00
                       0.0000000000E+00  5.0000000000E-01  6.5278100000E-01
                       5.0000000000E-01  0.0000000000E+00  3.4721900000E-01
            znucl       38.00000    1.00000   35.00000

 chkinp: Checking input parameters for consistency.

== DATASET  1 ==================================================================
-   mpi_nproc: 1, omp_nthreads: -1 (-1 if OMP is not activated)

--- !DatasetInfo
iteration_state: {dtset: 1, }
dimensions: {natom: 6, nkpt: 1, mband: 27, nsppol: 1, nspinor: 1, nspden: 1, mpw: 9790, }
cutoff_energies: {ecut:  39.0, pawecutdg:  -1.0, }
electrons: {nelect:   3.60000000E+01, charge:   0.00000000E+00, occopt:   1.00000000E+00, tsmear:   1.00000000E-02, }
meta: {optdriver: 1, rfelfd: 2, }
...

 Real(R)+Recip(G) space primitive vectors, cartesian coordinates (Bohr,Bohr^-1):
 R(1)=  7.8933855  0.0000000  0.0000000  G(1)=  0.1266884  0.0000000  0.0000000
 R(2)=  0.0000000  7.8933855  0.0000000  G(2)=  0.0000000  0.1266884  0.0000000
 R(3)=  0.0000000  0.0000000 13.5123329  G(3)=  0.0000000  0.0000000  0.0740065
 Unit cell volume ucvol=  8.4189313E+02 bohr^3
 Angles (23,13,12)=  9.00000000E+01  9.00000000E+01  9.00000000E+01 degrees

 getcut: wavevector=  0.0000  0.0000  0.0000  ngfft=  48  48  80
         ecut(hartree)=     39.000   => boxcut(ratio)=   2.10602

--- Pseudopotential description ------------------------------------------------
- pspini: atom type   1  psp file is /scratch/users/j/a/jabreu/pseudos/PBEsol/Sr.psp8
- pspatm: opening atomic psp file    /scratch/users/j/a/jabreu/pseudos/PBEsol/Sr.psp8
- Sr    ONCVPSP-3.3.0  r_core=   1.66721   1.31335   1.51547
- 38.00000  10.00000    180112                znucl, zion, pspdat
    8 -116133    2    4       600   0.00000   pspcod,pspxc,lmax,lloc,mmax,r2well
    5.99000000000000    6.00000000000000    0.00000000000000   rchrg,fchrg,qchrg
     nproj     2     2     2
     extension_switch     1
  pspatm : epsatm=   12.46450977
         --- l  ekb(1:nproj) -->
             0   10.029206    1.044171
             1    7.472414    1.670829
             2    4.142950    0.968140
 pspatm: atomic psp has been read  and splines computed

- pspini: atom type   2  psp file is /scratch/users/j/a/jabreu/pseudos/PBEsol/H.psp8
- pspatm: opening atomic psp file    /scratch/users/j/a/jabreu/pseudos/PBEsol/H.psp8
- H     ONCVPSP-3.3.0  r_core=   1.00957   0.70586
-  1.00000   1.00000    180112                znucl, zion, pspdat
    8 -116133    1    4       300   0.00000   pspcod,pspxc,lmax,lloc,mmax,r2well
    2.99000000000000    0.00000000000000    0.00000000000000   rchrg,fchrg,qchrg
     nproj     2     1
     extension_switch     1
  pspatm : epsatm=    0.35627032
         --- l  ekb(1:nproj) -->
             0   -1.674911   -0.523609
             1   -0.494138
 pspatm: atomic psp has been read  and splines computed

- pspini: atom type   3  psp file is /scratch/users/j/a/jabreu/pseudos/PBEsol/Br.psp8
- pspatm: opening atomic psp file    /scratch/users/j/a/jabreu/pseudos/PBEsol/Br.psp8
- Br    ONCVPSP-3.3.0  r_core=   1.81012   1.51356   1.92136
- 35.00000   7.00000    180112                znucl, zion, pspdat
    8 -116133    2    4       600   0.00000   pspcod,pspxc,lmax,lloc,mmax,r2well
    5.99000000000000    8.00000000000000    0.00000000000000   rchrg,fchrg,qchrg
     nproj     2     2     2
     extension_switch     1
  pspatm : epsatm=   10.94933070
         --- l  ekb(1:nproj) -->
             0    8.508690    0.897946
             1    5.393311    0.892021
             2    2.527513    0.394763
 pspatm: atomic psp has been read  and splines computed

   1.71144798E+03                                ecore*ucvol(ha*bohr**3)

-inwffil : will read wavefunctions from disk file /scratch/users/j/a/jabreu/flow_simple_6atoms/flow/w243/t1/indata/in_WFK

 ==>  initialize data related to q vector <==

 The list of irreducible perturbations for this q vector is:
    1)    idir= 1    ipert=   7
    2)    idir= 2    ipert=   7
    3)    idir= 3    ipert=   7

 Perturbation wavevector (in red.coord.)   0.000000  0.000000  0.000000
 Perturbation : derivative vs k along direction   1

 dfpt_looppert : COMMENT -
  In a d/dk calculation, iscf is set to -3 automatically.
 The set of symmetries contains only one element for this perturbation.
 symkpt : not enough symmetry to change the number of k points.

[...]

 Initialisation of the first-order wave-functions :
  ireadwf=   0

--- !BeginCycle
iteration_state: {dtset: 1, }
solver: {iscf: 7, nstep: 1000, nline: 4, wfoptalg: 0, }
tolerances: {tolwfr: 1.00E-20, }
...

     iter   2DEtotal(Ha)        deltaE(Ha) residm    vres2
-ETOT  1  -27.145002367967     -2.715E+01 3.699E-02 0.000E+00
 ETOT  2  -27.153961418683     -8.959E-03 8.280E-03 0.000E+00
 ETOT  3  -27.153975803923     -1.439E-05 1.623E-04 0.000E+00
 ETOT  4  -27.153975860002     -5.608E-08 4.624E-05 0.000E+00
 ETOT  5  -27.153975860276     -2.746E-10 1.094E-06 0.000E+00
 ETOT  6  -27.153975860278     -1.517E-12 3.174E-07 0.000E+00
 ETOT  7  -27.153975860278      1.776E-14 2.044E-08 0.000E+00
 ETOT  8  -27.153975860278     -2.132E-14 2.544E-09 0.000E+00
 ETOT  9  -27.153975860278      1.066E-14 1.802E-10 0.000E+00
 ETOT 10  -27.153975860278     -1.066E-14 2.264E-11 0.000E+00
 ETOT 11  -27.153975860278      1.066E-14 1.590E-12 0.000E+00
 ETOT 12  -27.153975860278     -1.421E-14 2.099E-13 0.000E+00
 ETOT 13  -27.153975860278      1.066E-14 1.439E-14 0.000E+00
 ETOT 14  -27.153975860278     -1.421E-14 2.027E-15 0.000E+00
 ETOT 15  -27.153975860278      3.553E-15 1.347E-16 0.000E+00
 ETOT 16  -27.153975860278      0.000E+00 2.030E-17 0.000E+00
 ETOT 17  -27.153975860278      1.066E-14 1.302E-18 0.000E+00
 ETOT 18  -27.153975860278      1.421E-14 2.085E-19 0.000E+00
 ETOT 19  -27.153975860278     -1.421E-14 1.292E-20 0.000E+00
 ETOT 20  -27.153975860278     -7.105E-15 9.624E-21 0.000E+00

 At SCF step   20   max residual=  9.62E-21 < tolwfr=  1.00E-20 =>converged.

 ----iterations are completed or convergence reached----

 dfpt_looppert: DFPT cycle converged with prtwf=-1. Will skip output of the 1st-order WFK file.
 dfpt_looppert : ek2=    4.5621084241E+01
          f-sum rule ratio=    1.1591556116E+00
 prteigrs : about to open file /scratch/users/j/a/jabreu/flow_simple_6atoms/flow/w243/t1/tmpdata/tmp_1WF1_EIG
 Expectation of eigenvalue derivatives (hartree) for nkpt=   1  k points:
  (in case of degenerate eigenvalues, averaged derivative)
 kpt#   1, nband= 27, wtk=  1.00000, kpt=  0.0000  0.0000  0.5000 (reduced coord)
  -0.00000   -0.00000    0.00000    0.00000   -0.00000   -0.00000    0.00000    0.00000
   0.00000    0.00000   -0.00000   -0.00000   -0.00000   -0.00000   -0.00000   -0.00000
  -0.00000    0.00000    0.00000    0.00000   -0.00000   -0.00000    0.00000   -0.00000
   0.00000   -0.00000    0.00000

 Eight components of 2nd-order total energy (hartree) are
 1,2,3: 0th-order hamiltonian combined with 1st-order wavefunctions
     kin0=   2.23888902E+01 eigvalue=   4.74864214E-02  local=  -1.32858058E+01
 4,5,6: 1st-order hamiltonian combined with 1st and 0th-order wfs
     kin1=  -5.28819358E+01  Hartree=   0.00000000E+00     xc=   0.00000000E+00
 7,8,9: eventually, occupation + non-local contributions
    edocc=   1.46850999E+01     enl0=   3.31830513E+00   enl1=  -1.42601592E+00
 1-9 gives the relaxation energy (to be shifted if some occ is /=2.0)
   erelax=  -2.71539759E+01
  No Ewald or frozen-wf contrib.: the relaxation energy is the total one
 2DEtotal=   -0.2715397586E+02 Ha. Also 2DEtotal=   -0.738897260459E+03 eV
    (  non-var. 2DEtotal :   -2.7153975860E+01 Ha)

 Perturbation wavevector (in red.coord.)   0.000000  0.000000  0.000000
 Perturbation : derivative vs k along direction   2
 The set of symmetries contains only one element for this perturbation.
 symkpt : not enough symmetry to change the number of k points.

[...]

 Perturbation wavevector (in red.coord.)   0.000000  0.000000  0.000000
 Perturbation : derivative vs k along direction   3
 The set of symmetries contains only one element for this perturbation.
 symkpt : not enough symmetry to change the number of k points.

-inwffil : will read wavefunctions from disk file /scratch/users/j/a/jabreu/flow_simple_6atoms/flow/w243/t1/indata/in_WFK

 Initialisation of the first-order wave-functions :
  ireadwf=   0

--- !BeginCycle
iteration_state: {dtset: 1, }
solver: {iscf: 7, nstep: 1000, nline: 4, wfoptalg: 0, }
tolerances: {tolwfr: 1.00E-20, }
...

     iter   2DEtotal(Ha)        deltaE(Ha) residm    vres2
-ETOT  1  -8.4793592243636     -8.479E+00 1.204E-02 0.000E+00
 ETOT  2  -8.4878859711098     -8.527E-03 3.328E-04 0.000E+00
 ETOT  3  -8.4879196979622     -3.373E-05 1.505E-05 0.000E+00
 ETOT  4  -8.4879199716767     -2.737E-07 1.051E-06 0.000E+00
 ETOT  5  -8.4879199741977     -2.521E-09 4.151E-08 0.000E+00
 ETOT  6  -8.4879199742216     -2.390E-11 3.360E-09 0.000E+00
 ETOT  7  -8.4879199742218     -2.238E-13 1.593E-10 0.000E+00
 ETOT  8  -8.4879199742218     -1.066E-14 1.704E-11 0.000E+00
 ETOT  9  -8.4879199742218      3.553E-15 5.306E-13 0.000E+00
 ETOT 10  -8.4879199742218      3.553E-15 8.869E-14 0.000E+00
 ETOT 11  -8.4879199742218      5.329E-15 3.773E-15 0.000E+00
 ETOT 12  -8.4879199742218      0.000E+00 5.409E-16 0.000E+00
 ETOT 13  -8.4879199742218      0.000E+00 1.706E-16 0.000E+00
 ETOT 14  -8.4879199742218      0.000E+00 4.417E-17 0.000E+00
 ETOT 15  -8.4879199742218     -1.776E-15 1.988E-17 0.000E+00
 ETOT 16  -8.4879199742218      0.000E+00 5.086E-18 0.000E+00
 ETOT 17  -8.4879199742218     -1.776E-15 2.416E-18 0.000E+00
 ETOT 18  -8.4879199742218      1.776E-15 6.164E-19 0.000E+00
 ETOT 19  -8.4879199742218      0.000E+00 2.996E-19 0.000E+00
 ETOT 20  -8.4879199742218      0.000E+00 7.642E-20 0.000E+00
 ETOT 21  -8.4879199742218     -1.776E-15 3.745E-20 0.000E+00
 ETOT 22  -8.4879199742218      1.776E-15 9.933E-21 0.000E+00

 At SCF step   22   max residual=  9.93E-21 < tolwfr=  1.00E-20 =>converged.

 ----iterations are completed or convergence reached----

 dfpt_looppert: DFPT cycle converged with prtwf=-1. Will skip output of the 1st-order WFK file.
 dfpt_looppert : ek2=    1.5567954778E+01
          f-sum rule ratio=    1.0606714051E+00
 prteigrs : about to open file /scratch/users/j/a/jabreu/flow_simple_6atoms/flow/w243/t1/tmpdata/tmp_1WF1_EIG
 Expectation of eigenvalue derivatives (hartree) for nkpt=   1  k points:
  (in case of degenerate eigenvalues, averaged derivative)
 kpt#   1, nband= 27, wtk=  1.00000, kpt=  0.0000  0.0000  0.5000 (reduced coord)
  -0.00000    0.00000   -0.00000   -0.00000    0.00000    0.00000    0.00000    0.00000
   0.00000    0.00000   -0.00000   -0.00000   -0.00000   -0.00000   -0.00000   -0.00000
   0.00000   -0.00000   -0.00000   -0.00000   -0.00000   -0.00000   -0.00000    0.00000
   0.00000   -0.00000    0.00000

 Eight components of 2nd-order total energy (hartree) are
 1,2,3: 0th-order hamiltonian combined with 1st-order wavefunctions
     kin0=   9.62676696E+00 eigvalue=   2.00043656E-01  local=  -5.86583900E+00
 4,5,6: 1st-order hamiltonian combined with 1st and 0th-order wfs
     kin1=  -1.65124845E+01  Hartree=   0.00000000E+00     xc=   0.00000000E+00
 7,8,9: eventually, occupation + non-local contributions
    edocc=   3.02030501E+00     enl0=   1.50664334E+00   enl1=  -4.63355479E-01
 1-9 gives the relaxation energy (to be shifted if some occ is /=2.0)
   erelax=  -8.48791997E+00
  No Ewald or frozen-wf contrib.: the relaxation energy is the total one
 2DEtotal=   -0.8487919974E+01 Ha. Also 2DEtotal=   -0.230968048592E+03 eV
    (  non-var. 2DEtotal :   -8.4879199741E+00 Ha)

 CALCULATION OF EFFECTIVE MASSES
 NOTE : Additional infos (eff. mass eigenvalues, eigenvectors and, if degenerate, average mass) are available in stdout.

 K-point ( 0.000,-0.000, 0.500) | band =    18
 Effective mass tensor:
             -1.5330345271             -0.0000000000             -0.0000000000
             -0.0000000000             -1.5330345271              0.0000000000
             -0.0000000000              0.0000000000             -0.3318222333
 Effective mass tensor eigenvalues:
             -1.5330345271             -1.5330345271             -0.3318222333
 Angular average effective mass 1/(<1/m>)=  -0.6947236378
 Angular average effective mass for Frohlich model (<m**0.5>)**2=  -0.8291151059
 Effective masses along directions: (cart. coord. / red. coord. -> eff. mass)
    1:   1.000000  0.000000  0.000000 /   1.000000  0.000000  0.000000 ->  -1.5330345271
    2:   0.000000  1.000000  0.000000 /   0.000000  1.000000  0.000000 ->  -1.5330345271
    3:   0.000000  0.000000  1.000000 /   0.000000  0.000000  1.000000 ->  -0.3318222333
    4:   0.577350  0.577350  0.577350 /   0.450357  0.450357  0.770946 ->  -0.6947236378
    5:   0.000000  0.707107  0.707107 /   0.000000  0.504405  0.863467 ->  -0.5455592637
    6:   0.707107  0.000000  0.707107 /   0.504405  0.000000  0.863467 ->  -0.5455592637
    7:   0.707107  0.707107  0.000000 /   0.707107  0.707107  0.000000 ->  -1.5330345271

 K-point ( 0.000,-0.000, 0.500) | band =    19
 Effective mass tensor:
              0.4229682367             -0.0000000000             -0.0000000035
             -0.0000000000              0.4229682367              0.0000000005
             -0.0000000035              0.0000000005              0.7922697224
 Effective mass tensor eigenvalues:
              0.4229682367              0.4229682367              0.7922697224
 Angular average effective mass 1/(<1/m>)=   0.5007775520
 Angular average effective mass for Frohlich model (<m**0.5>)**2=   0.5124617425
 Effective masses along directions: (cart. coord. / red. coord. -> eff. mass)
    1:   1.000000  0.000000  0.000000 /   1.000000  0.000000  0.000000 ->   0.4229682367
    2:   0.000000  1.000000  0.000000 /   0.000000  1.000000  0.000000 ->   0.4229682367
    3:   0.000000  0.000000  1.000000 /   0.000000  0.000000  1.000000 ->   0.7922697224
    4:   0.577350  0.577350  0.577350 /   0.450357  0.450357  0.770946 ->   0.5007775505
    5:   0.000000  0.707107  0.707107 /   0.000000  0.504405  0.863467 ->   0.5515050369
    6:   0.707107  0.000000  0.707107 /   0.504405  0.000000  0.863467 ->   0.5515050333
    7:   0.707107  0.707107  0.000000 /   0.707107  0.707107  0.000000 ->   0.4229682367

 END OF EFFECTIVE MASSES SECTION

 ---- first-order wavefunction calculations are completed ----

 Total localisation tensor (bohr^2) in cartesian coordinates
  WARNING : still subject to testing - especially symmetries.
      direction              matrix element
   alpha     beta       real part   imaginary part
     1        1       1.4539018209    0.0000000000
     1        2       0.0000000000    0.0000000000
     1        3       0.0000000000    0.0000000000
     2        1       0.0000000000    0.0000000000
     2        2       1.4539017935    0.0000000000
     2        3       0.0000000000    0.0000000000
     3        1       0.0000000000    0.0000000000
     3        2       0.0000000000    0.0000000000
     3        3       1.3467253970    0.0000000000

 respfn : d/dk was computed, but no 2DTE, so no DDB output.

== END DATASET(S) ==============================================================

 -outvars: echo values of variables after computation  --------
            acell      1.0000000000E+00  1.0000000000E+00  1.0000000000E+00 Bohr
              amu      8.76200000E+01  1.00794000E+00  7.99040000E+01
             ecut      3.90000000E+01 Hartree
           etotal     -8.4879199742E+00
            fcart      0.0000000000E+00  0.0000000000E+00  0.0000000000E+00
                       0.0000000000E+00  0.0000000000E+00  0.0000000000E+00
                       0.0000000000E+00  0.0000000000E+00  0.0000000000E+00
                       0.0000000000E+00  0.0000000000E+00  0.0000000000E+00
                       0.0000000000E+00  0.0000000000E+00  0.0000000000E+00
                       0.0000000000E+00  0.0000000000E+00  0.0000000000E+00
-          fftalg         512
           irdden           1
           irdwfk           1
           istwfk        1
              ixc     -116133
              kpt      0.00000000E+00 -3.08148791E-33  5.00000000E-01
           kptopt           0
P           mkmem           1
P          mkqmem           1
P          mk1mem           1
            natom           6
            nband          27
           nbdbuf           4
            ngfft          48      48      80
             nkpt           1
            nstep        1000
             nsym          16
           ntypat           3
              occ      2.000000  2.000000  2.000000  2.000000  2.000000  2.000000
                       2.000000  2.000000  2.000000  2.000000  2.000000  2.000000
                       2.000000  2.000000  2.000000  2.000000  2.000000  2.000000
                       0.000000  0.000000  0.000000  0.000000  0.000000  0.000000
                       0.000000  0.000000  0.000000
        optdriver           1
            prtwf          -1
            rfdir           1       1       1
           rfelfd           2
            rprim      7.8933855312E+00  0.0000000000E+00  0.0000000000E+00
                       0.0000000000E+00  7.8933855312E+00  0.0000000000E+00
                       0.0000000000E+00  0.0000000000E+00  1.3512332887E+01
          spgroup         129
           strten      0.0000000000E+00  0.0000000000E+00  0.0000000000E+00
                       0.0000000000E+00  0.0000000000E+00  0.0000000000E+00
           symrel      1  0  0   0  1  0   0  0  1      -1  0  0   0 -1  0   0  0 -1
                      -1  0  0   0  1  0   0  0 -1       1  0  0   0 -1  0   0  0  1
                      -1  0  0   0 -1  0   0  0  1       1  0  0   0  1  0   0  0 -1
                       1  0  0   0 -1  0   0  0 -1      -1  0  0   0  1  0   0  0  1
                       0  1  0   1  0  0   0  0  1       0 -1  0  -1  0  0   0  0 -1
                       0 -1  0   1  0  0   0  0 -1       0  1  0  -1  0  0   0  0  1
                       0 -1  0  -1  0  0   0  0  1       0  1  0   1  0  0   0  0 -1
                       0  1  0  -1  0  0   0  0 -1       0 -1  0   1  0  0   0  0  1
            tnons      0.0000000  0.0000000  0.0000000     0.5000000  0.5000000 -0.0000000
                       0.5000000  0.5000000 -0.0000000     0.0000000  0.0000000  0.0000000
                       0.0000000  0.0000000  0.0000000     0.5000000  0.5000000 -0.0000000
                       0.5000000  0.5000000 -0.0000000     0.0000000  0.0000000  0.0000000
                       0.5000000  0.5000000  0.0000000     0.0000000  0.0000000 -0.0000000
                       0.0000000  0.0000000 -0.0000000     0.5000000  0.5000000  0.0000000
                       0.5000000  0.5000000  0.0000000     0.0000000  0.0000000 -0.0000000
                       0.0000000  0.0000000 -0.0000000     0.5000000  0.5000000  0.0000000
           tolwfr      1.00000000E-20
            typat      1  1  2  2  3  3
           useylm           1
           xangst      2.0884998609E+00  0.0000000000E+00  5.8086425487E+00
                       0.0000000000E+00  2.0884998609E+00  1.3417760501E+00
                       2.0884998609E+00  2.0884998609E+00  0.0000000000E+00
                       0.0000000000E+00  0.0000000000E+00  0.0000000000E+00
                       0.0000000000E+00  2.0884998609E+00  4.6676574033E+00
                       2.0884998609E+00  0.0000000000E+00  2.4827611954E+00
            xcart      3.9466927656E+00  0.0000000000E+00  1.0976743621E+01
                       0.0000000000E+00  3.9466927656E+00  2.5355892663E+00
                       3.9466927656E+00  3.9466927656E+00  0.0000000000E+00
                       0.0000000000E+00  0.0000000000E+00  0.0000000000E+00
                       0.0000000000E+00  3.9466927656E+00  8.8205941744E+00
                       3.9466927656E+00  0.0000000000E+00  4.6917387127E+00
             xred      5.0000000000E-01  0.0000000000E+00  8.1235000000E-01
                       0.0000000000E+00  5.0000000000E-01  1.8765000000E-01
                       5.0000000000E-01  5.0000000000E-01  0.0000000000E+00
                       0.0000000000E+00  0.0000000000E+00  0.0000000000E+00
                       0.0000000000E+00  5.0000000000E-01  6.5278100000E-01
                       5.0000000000E-01  0.0000000000E+00  3.4721900000E-01
            znucl       38.00000    1.00000   35.00000

- Timing analysis has been suppressed with timopt=0

 Suggested references for the acknowledgment of ABINIT usage.

 Calculation completed.
.Delivered   6 WARNINGs and   5 COMMENTs to log file.