.Version 9.5.2 of ABINIT

 ABINIT is a project of the Universite Catholique de Louvain,
 Corning Inc. and other collaborators, see ~abinit/doc/developers/contributors.txt .
 acknowledgments of the ABINIT effort.

.Starting date : Wed 26 May 2021.
- ( at 03h29 )

- input  file    -> /scratch/users/j/a/jabreu/flow_simple_11atoms/flow/w301/t1/run.abi
- output file    -> /scratch/users/j/a/jabreu/flow_simple_11atoms/flow/w301/t1/run.abo
- root for input  files -> /scratch/users/j/a/jabreu/flow_simple_11atoms/flow/w301/t1/indata/in
- root for output files -> /scratch/users/j/a/jabreu/flow_simple_11atoms/flow/w301/t1/outdata/out

 Symmetries : space group C2/c (# 15); Bravais mC (1-face-center monocl.)
     intxc =       0      iscf =       7    lmnmax =      18     lnmax =       6
     mgfft =      75  mpssoang =       3    mqgrid =    3001     natom =      12
  nloc_mem =       1    nspden =       1   nspinor =       1    nsppol =       1
      nsym =       4    n1xccc =    2501    ntypat =       3    occopt =       1
   xclevel =       2
-    mband =          63        mffmem =           1         mkmem =           2
-   mkqmem =           2        mk1mem =           2           mpw =       14770
      nfft =      360000          nkpt =           2
  Rough estimation (10% accuracy) of disk space for files :

------------- Echo of variables that govern the present computation ------------
-
- outvars: echo of selected default values
-   iomode0 =  0 , fftalg0 =512 , wfoptalg0 =  0
-
- outvars: echo of global parameters not present in the input file
-  max_nthreads =    0
-
 -outvars: echo values of preprocessed input variables --------
            acell      1.0000000000E+00  1.0000000000E+00  1.0000000000E+00 Bohr
              amu      2.08980370E+02  1.21753000E+02  1.59994000E+01
             ecut      4.40000000E+01 Hartree
-          fftalg         512
           irdden           1
           irdwfk           1
              ixc     -116133
              kpt      2.57378155E-02 -2.57378155E-02  0.00000000E+00
                       4.11764706E-01  4.11764706E-01  0.00000000E+00
           kptopt           0
P           mkmem           2
P          mkqmem           2
P          mk1mem           2
            natom          12
            nband          63
           nbdbuf           4
            ngfft          75      75      64
             nkpt           2
            nstep        2000
             nsym           4
           ntypat           3
              occ      2.000000  2.000000  2.000000  2.000000  2.000000  2.000000
                       2.000000  2.000000  2.000000  2.000000  2.000000  2.000000
                       2.000000  2.000000  2.000000  2.000000  2.000000  2.000000
                       2.000000  2.000000  2.000000  2.000000  2.000000  2.000000
                       2.000000  2.000000  2.000000  2.000000  2.000000  2.000000
                       2.000000  2.000000  2.000000  2.000000  2.000000  2.000000
                       2.000000  2.000000  2.000000  2.000000  2.000000  2.000000
                       2.000000  2.000000  2.000000  2.000000  2.000000  2.000000
                       2.000000  2.000000  2.000000  2.000000  2.000000  2.000000
                       0.000000  0.000000  0.000000  0.000000  0.000000  0.000000
                       0.000000  0.000000  0.000000
        optdriver           1
            prtwf          -1
            rfdir           1       1       1
           rfelfd           2
            rprim      1.1865732675E+01  0.0000000000E+00  3.1032779452E+00
                       8.1787587198E+00  8.5967155193E+00  3.1032779452E+00
                       0.0000000000E+00  0.0000000000E+00  1.0395986990E+01
          spgroup          15
           symrel      1  0  0   0  1  0   0  0  1      -1  0  0   0 -1  0   0  0 -1
                       0 -1  0  -1  0  0   0  0 -1       0  1  0   1  0  0   0  0  1
            tnons      0.0000000  0.0000000  0.0000000    -0.0000000  0.0000000  0.0000000
                      -0.0000000 -0.0000000  0.5000000     0.0000000  0.0000000  0.5000000
           tolwfr      1.00000000E-20
            typat      1  1  2  2  3  3  3  3  3  3  3  3
           useylm           1
              wtk        0.50000    0.50000
           xangst      4.8247532434E+00  3.3909631859E+00  5.7681734925E+00
                       5.7823347605E+00  1.1582227356E+00  3.0175138045E+00
                       3.1395376474E+00  0.0000000000E+00  8.2109198026E-01
                       2.1640063545E+00  2.2745929608E+00  3.5717516682E+00
                       4.1087777648E+00  2.2589483104E+00  3.8812749877E+00
                       6.1384016260E+00  3.1294168397E+00  2.1537526213E+00
                       6.4983102391E+00  2.2902376112E+00  4.9044123093E+00
                       4.4686863779E+00  1.4197690818E+00  6.6319346757E+00
                       8.7487613444E+00  3.5045290633E+00  3.6368076602E+00
                       2.0377522281E+00  6.2630007338E-01  2.3982199489E+00
                       1.8583266595E+00  1.0446568583E+00  5.1488796368E+00
                       8.5693357758E+00  3.9228858482E+00  6.3874673481E+00
            xcart      9.1174622888E+00  6.4079917481E+00  1.0900268188E+01
                       1.0927029106E+01  2.1887237712E+00  5.7022746927E+00
                       5.9328663376E+00  0.0000000000E+00  1.5516389726E+00
                       4.0893793599E+00  4.2983577596E+00  6.7496324677E+00
                       7.7644647164E+00  4.2687936550E+00  7.3345467732E+00
                       1.1599897967E+01  5.9137407827E+00  4.0700026122E+00
                       1.2280026678E+01  4.3279218643E+00  9.2679961073E+00
                       8.4445934280E+00  2.6829747366E+00  1.2532540268E+01
                       1.6532762943E+01  6.6226001543E+00  6.8725704757E+00
                       3.8507936378E+00  1.1835356157E+00  4.5319789098E+00
                       3.5117284520E+00  1.9741153650E+00  9.7299724048E+00
                       1.6193697757E+01  7.4131799036E+00  1.2070563971E+01
             xred      2.5460000000E-01  7.4540000000E-01  7.5000000000E-01
                       7.4540000000E-01  2.5460000000E-01  2.5000000000E-01
                       5.0000000000E-01  0.0000000000E+00  0.0000000000E+00
                       0.0000000000E+00  5.0000000000E-01  5.0000000000E-01
                       3.1209300000E-01  4.9656100000E-01  4.6412800000E-01
                       5.0343900000E-01  6.8790700000E-01  3.5872000000E-02
                       6.8790700000E-01  5.0343900000E-01  5.3587200000E-01
                       4.9656100000E-01  3.1209300000E-01  9.6412800000E-01
                       8.6232700000E-01  7.7036400000E-01  1.7370900000E-01
                       2.2963600000E-01  1.3767300000E-01  3.2629100000E-01
                       1.3767300000E-01  2.2963600000E-01  8.2629100000E-01
                       7.7036400000E-01  8.6232700000E-01  6.7370900000E-01
            znucl       83.00000   51.00000    8.00000

 chkinp: Checking input parameters for consistency.

== DATASET  1 ==================================================================
-   mpi_nproc: 1, omp_nthreads: -1 (-1 if OMP is not activated)

--- !DatasetInfo
iteration_state: {dtset: 1, }
dimensions: {natom: 12, nkpt: 2, mband: 63, nsppol: 1, nspinor: 1, nspden: 1, mpw: 14770, }
cutoff_energies: {ecut:  44.0, pawecutdg:  -1.0, }
electrons: {nelect:   1.08000000E+02, charge:   0.00000000E+00, occopt:   1.00000000E+00, tsmear:   1.00000000E-02, }
meta: {optdriver: 1, rfelfd: 2, }
...

 Real(R)+Recip(G) space primitive vectors, cartesian coordinates (Bohr,Bohr^-1):
 R(1)= 11.8657327  0.0000000  3.1032779  G(1)=  0.0842763 -0.0801789  0.0000000
 R(2)=  8.1787587  8.5967155  3.1032779  G(2)=  0.0000000  0.1163235  0.0000000
 R(3)=  0.0000000  0.0000000 10.3959870  G(3)= -0.0251571 -0.0107894  0.0961910
 Unit cell volume ucvol=  1.0604565E+03 bohr^3
 Angles (23,13,12)=  7.53435541E+01  7.53435541E+01  4.48327213E+01 degrees

 getcut: wavevector=  0.0000  0.0000  0.0000  ngfft=  75  75  64
         ecut(hartree)=     44.000   => boxcut(ratio)=   2.02069

--- Pseudopotential description ------------------------------------------------
- pspini: atom type   1  psp file is /scratch/users/j/a/jabreu/pseudos/PBEsol/Bi.psp8
- pspatm: opening atomic psp file    /scratch/users/j/a/jabreu/pseudos/PBEsol/Bi.psp8
- Bi    ONCVPSP-3.3.0  r_core=   2.42776   2.51622   2.10397
- 83.00000  15.00000    180112                znucl, zion, pspdat
    8 -116133    2    4       600   0.00000   pspcod,pspxc,lmax,lloc,mmax,r2well
    5.99000000000000    6.00000000000000    0.00000000000000   rchrg,fchrg,qchrg
     nproj     2     2     2
     extension_switch     1
  pspatm : epsatm=   42.90078186
         --- l  ekb(1:nproj) -->
             0    6.017688    0.961606
             1    4.379371    0.528498
             2   -3.458170   -0.753782
 pspatm: atomic psp has been read  and splines computed

- pspini: atom type   2  psp file is /scratch/users/j/a/jabreu/pseudos/PBEsol/Sb.psp8
- pspatm: opening atomic psp file    /scratch/users/j/a/jabreu/pseudos/PBEsol/Sb.psp8
- Sb    ONCVPSP-3.3.0  r_core=   1.81962   2.12485   1.81962
- 51.00000  15.00000    180112                znucl, zion, pspdat
    8 -116133    2    4       600   0.00000   pspcod,pspxc,lmax,lloc,mmax,r2well
    5.99000000000000    5.00000000000000    0.00000000000000   rchrg,fchrg,qchrg
     nproj     2     2     2
     extension_switch     1
  pspatm : epsatm=   26.35641246
         --- l  ekb(1:nproj) -->
             0    9.727814    1.485032
             1    5.505335    0.704623
             2   -4.710637   -1.436443
 pspatm: atomic psp has been read  and splines computed

- pspini: atom type   3  psp file is /scratch/users/j/a/jabreu/pseudos/PBEsol/O.psp8
- pspatm: opening atomic psp file    /scratch/users/j/a/jabreu/pseudos/PBEsol/O.psp8
- O     ONCVPSP-3.3.0  r_core=   1.35509   1.45563   1.26150
-  8.00000   6.00000    180112                znucl, zion, pspdat
    8 -116133    2    4       600   0.00000   pspcod,pspxc,lmax,lloc,mmax,r2well
    5.99000000000000    4.00000000000000    0.00000000000000   rchrg,fchrg,qchrg
     nproj     2     2     1
     extension_switch     1
  pspatm : epsatm=    6.22910522
         --- l  ekb(1:nproj) -->
             0    6.050032    0.820363
             1   -4.739617   -1.153841
             2   -1.335834
 pspatm: atomic psp has been read  and splines computed

   2.03415009E+04                                ecore*ucvol(ha*bohr**3)

 ==>  initialize data related to q vector <==

 The list of irreducible perturbations for this q vector is:
    1)    idir= 1    ipert=  13
    2)    idir= 2    ipert=  13
    3)    idir= 3    ipert=  13

 Perturbation wavevector (in red.coord.)   0.000000  0.000000  0.000000
 Perturbation : derivative vs k along direction   1

 dfpt_looppert : COMMENT -
  In a d/dk calculation, iscf is set to -3 automatically.
 The set of symmetries contains only one element for this perturbation.
 symkpt : not enough symmetry to change the number of k points.

[...]
   0.00290   -0.00852    0.01832    0.00535   -0.00546    0.00048    0.01801   -0.01833
   0.00380   -0.03233   -0.11454   -0.01327    0.10073    0.01820    0.02589
 prteigrs : prtvol=0 or 1, do not print more k-points.

 Eight components of 2nd-order total energy (hartree) are
 1,2,3: 0th-order hamiltonian combined with 1st-order wavefunctions
     kin0=   1.29008096E+02 eigvalue=   1.00299836E+01  local=  -6.44484143E+01
 4,5,6: 1st-order hamiltonian combined with 1st and 0th-order wfs
     kin1=  -1.14674585E+02  Hartree=   0.00000000E+00     xc=   0.00000000E+00
 7,8,9: eventually, occupation + non-local contributions
    edocc=   1.18661313E+01     enl0=   1.10425324E+01   enl1=  -8.03220730E+01
 1-9 gives the relaxation energy (to be shifted if some occ is /=2.0)
   erelax=  -9.74983291E+01
  No Ewald or frozen-wf contrib.: the relaxation energy is the total one
 2DEtotal=   -0.9749832906E+02 Ha. Also 2DEtotal=   -0.265306445788E+04 eV
    (  non-var. 2DEtotal :   -9.7498329064E+01 Ha)

 Perturbation wavevector (in red.coord.)   0.000000  0.000000  0.000000
 Perturbation : derivative vs k along direction   2
 The set of symmetries contains only one element for this perturbation.
 symkpt : not enough symmetry to change the number of k points.

[...]

 Perturbation wavevector (in red.coord.)   0.000000  0.000000  0.000000
 Perturbation : derivative vs k along direction   3
 The set of symmetries contains only one element for this perturbation.
 symkpt : not enough symmetry to change the number of k points.

 Initialisation of the first-order wave-functions :
  ireadwf=   0

--- !BeginCycle
iteration_state: {dtset: 1, }
solver: {iscf: 7, nstep: 2000, nline: 4, wfoptalg: 0, }
tolerances: {tolwfr: 1.00E-20, }
...

     iter   2DEtotal(Ha)        deltaE(Ha) residm    vres2
-ETOT  1  -74.071957602174     -7.407E+01 1.061E-01 0.000E+00
 ETOT  2  -74.191912314037     -1.200E-01 3.359E-02 0.000E+00
 ETOT  3  -74.193675086867     -1.763E-03 3.615E-03 0.000E+00
 ETOT  4  -74.193726844677     -5.176E-05 2.411E-03 0.000E+00
 ETOT  5  -74.193728715941     -1.871E-06 3.102E-04 0.000E+00
 ETOT  6  -74.193728793587     -7.765E-08 2.146E-04 0.000E+00
 ETOT  7  -74.193728797039     -3.452E-09 2.896E-05 0.000E+00
 ETOT  8  -74.193728797200     -1.615E-10 2.091E-05 0.000E+00
 ETOT  9  -74.193728797208     -7.773E-12 2.826E-06 0.000E+00
 ETOT 10  -74.193728797209     -3.695E-13 2.096E-06 0.000E+00
 ETOT 11  -74.193728797209     -4.263E-14 2.826E-07 0.000E+00
 ETOT 12  -74.193728797209     -2.842E-14 2.137E-07 0.000E+00
 ETOT 13  -74.193728797209      1.421E-14 2.872E-08 0.000E+00
 ETOT 14  -74.193728797209      1.421E-14 2.204E-08 0.000E+00
 ETOT 15  -74.193728797209      4.263E-14 2.955E-09 0.000E+00
 ETOT 16  -74.193728797209     -2.842E-14 2.291E-09 0.000E+00
 ETOT 17  -74.193728797209      0.000E+00 3.066E-10 0.000E+00
 ETOT 18  -74.193728797209      0.000E+00 2.397E-10 0.000E+00
 ETOT 19  -74.193728797209      0.000E+00 3.202E-11 0.000E+00
 ETOT 20  -74.193728797209      1.421E-14 2.518E-11 0.000E+00
 ETOT 21  -74.193728797209      0.000E+00 3.362E-12 0.000E+00
 ETOT 22  -74.193728797209     -1.421E-14 2.653E-12 0.000E+00
 ETOT 23  -74.193728797209      0.000E+00 3.546E-13 0.000E+00
 ETOT 24  -74.193728797209      0.000E+00 2.803E-13 0.000E+00
 ETOT 25  -74.193728797209      0.000E+00 3.752E-14 0.000E+00
 ETOT 26  -74.193728797209      1.421E-14 2.966E-14 0.000E+00
 ETOT 27  -74.193728797209      0.000E+00 3.983E-15 0.000E+00
 ETOT 28  -74.193728797209     -1.421E-14 3.143E-15 0.000E+00
 ETOT 29  -74.193728797209      0.000E+00 4.239E-16 0.000E+00
 ETOT 30  -74.193728797209      0.000E+00 3.335E-16 0.000E+00
 ETOT 31  -74.193728797209     -1.421E-14 4.522E-17 0.000E+00
 ETOT 32  -74.193728797209      2.842E-14 3.544E-17 0.000E+00
 ETOT 33  -74.193728797209      0.000E+00 4.835E-18 0.000E+00
 ETOT 34  -74.193728797209     -1.421E-14 3.770E-18 0.000E+00
 ETOT 35  -74.193728797209      0.000E+00 5.180E-19 0.000E+00
 ETOT 36  -74.193728797209      0.000E+00 4.015E-19 0.000E+00
 ETOT 37  -74.193728797209      1.421E-14 5.560E-20 0.000E+00
 ETOT 38  -74.193728797209      0.000E+00 4.284E-20 0.000E+00
 ETOT 39  -74.193728797209     -2.842E-14 9.784E-21 0.000E+00

 At SCF step   39   max residual=  9.78E-21 < tolwfr=  1.00E-20 =>converged.

 ----iterations are completed or convergence reached----

 dfpt_looppert: DFPT cycle converged with prtwf=-1. Will skip output of the 1st-order WFK file.
 dfpt_looppert : ek2=    8.5290368264E+01
          f-sum rule ratio=    1.0476579735E+00
 prteigrs : about to open file /scratch/users/j/a/jabreu/flow_simple_11atoms/flow/w301/t1/tmpdata/tmp_1WF1_EIG
 Expectation of eigenvalue derivatives (hartree) for nkpt=   2  k points:
  (in case of degenerate eigenvalues, averaged derivative)
 kpt#   1, nband= 63, wtk=  0.50000, kpt=  0.0257 -0.0257  0.0000 (reduced coord)
  -0.00000    0.00000    0.00000    0.00000   -0.00000    0.00000   -0.00000    0.00000
  -0.00000   -0.00000   -0.00000    0.00000   -0.00000    0.00000    0.00000    0.00000
  -0.00000    0.00000    0.00000   -0.00000   -0.00000   -0.00000    0.00000    0.00000
  -0.00000    0.00000   -0.00000    0.00000   -0.00000    0.00000   -0.00000   -0.00000
  -0.00000    0.00000   -0.00000   -0.00000   -0.00000    0.00000    0.00000   -0.00000
   0.00000    0.00000   -0.00000   -0.00000   -0.00000    0.00000    0.00000    0.00000
  -0.00000    0.00000   -0.00000    0.00000   -0.00000   -0.00000   -0.00000    0.00000
   0.00000    0.00000    0.00000   -0.00000    0.00000    0.00000    0.00686
 prteigrs : prtvol=0 or 1, do not print more k-points.

 Eight components of 2nd-order total energy (hartree) are
 1,2,3: 0th-order hamiltonian combined with 1st-order wavefunctions
     kin0=   9.57966790E+01 eigvalue=   7.18281153E+00  local=  -4.70621424E+01
 4,5,6: 1st-order hamiltonian combined with 1st and 0th-order wfs
     kin1=  -8.93551344E+01  Hartree=   0.00000000E+00     xc=   0.00000000E+00
 7,8,9: eventually, occupation + non-local contributions
    edocc=   1.02463367E+01     enl0=   8.03004403E+00   enl1=  -5.90323232E+01
 1-9 gives the relaxation energy (to be shifted if some occ is /=2.0)
   erelax=  -7.41937288E+01
  No Ewald or frozen-wf contrib.: the relaxation energy is the total one
 2DEtotal=   -0.7419372880E+02 Ha. Also 2DEtotal=   -0.201891403431E+04 eV
    (  non-var. 2DEtotal :   -7.4193728797E+01 Ha)

 CALCULATION OF EFFECTIVE MASSES
 NOTE : Additional infos (eff. mass eigenvalues, eigenvectors and, if degenerate, average mass) are available in stdout.

 K-point ( 0.026,-0.026, 0.000) | band =    54
 Effective mass tensor:
            -38.4506979479             -9.6524732987              6.5236515758
             -9.6524732987            -20.0654882887              2.7979119063
              6.5236515758              2.7979119063             -2.5001481311
 Effective mass tensor eigenvalues:
            -43.8073384414            -15.9286438283             -1.2803520980
 Angular average effective mass 1/(<1/m>)=  -3.4616355276
 Angular average effective mass for Frohlich model (<m**0.5>)**2=  -6.3168278492
 Effective masses along directions: (cart. coord. / red. coord. -> eff. mass)
    1:   1.000000  0.000000  0.000000 /   0.823359  0.567521  0.000000 -> -21.1018644834
    2:   0.000000  1.000000  0.000000 /   0.000000  1.000000  0.000000 -> -16.6762226106
    3:   0.000000  0.000000  1.000000 /   0.275007  0.275007  0.921272 ->  -1.3170240639
    4:   0.577350  0.577350  0.577350 /   0.555051  0.737104  0.385483 ->  -2.5296746933
    5:   0.000000  0.707107  0.707107 /   0.194489  0.733262  0.651537 ->  -2.1759899296
    6:   0.707107  0.000000  0.707107 /   0.698365  0.526353  0.485015 ->  -1.9244613347
    7:   0.707107  0.707107  0.000000 /   0.577470  0.816412  0.000000 -> -21.2332590967

 K-point ( 0.412, 0.412, 0.000) | band =    55
 Effective mass tensor:
              4.3055503544              1.5932488974              0.7235154925
              1.5932488974              1.2739128022              0.3102942420
              0.7235154925              0.3102942420              0.5661268231
 Effective mass tensor eigenvalues:
              0.4301758137              0.5906070682              5.1248070977
 Angular average effective mass 1/(<1/m>)=   0.7120929224
 Angular average effective mass for Frohlich model (<m**0.5>)**2=   0.8729942319
 Effective masses along directions: (cart. coord. / red. coord. -> eff. mass)
    1:   1.000000  0.000000  0.000000 /   0.823359  0.567521  0.000000 ->   2.0835412944
    2:   0.000000  1.000000  0.000000 /   0.000000  1.000000  0.000000 ->   0.6802636999
    3:   0.000000  0.000000  1.000000 /   0.275007  0.275007  0.921272 ->   0.4418985083
    4:   0.577350  0.577350  0.577350 /   0.555051  0.737104  0.385483 ->   1.3426301781
    5:   0.000000  0.707107  0.707107 /   0.194489  0.733262  0.651537 ->   0.5794577502
    6:   0.707107  0.000000  0.707107 /   0.698365  0.526353  0.485015 ->   0.9585306224
    7:   0.707107  0.707107  0.000000 /   0.577470  0.816412  0.000000 ->   2.1994364668

 END OF EFFECTIVE MASSES SECTION

 ---- first-order wavefunction calculations are completed ----

 Total localisation tensor (bohr^2) in cartesian coordinates
  WARNING : still subject to testing - especially symmetries.
      direction              matrix element
   alpha     beta       real part   imaginary part
     1        1       2.1963565064    0.0000000000
     1        2       0.7435582359    0.0000000000
     1        3       0.6578216164    0.0000000000
     2        1       0.7435582359    0.0000000000
     2        2       0.7815560827    0.0000000000
     2        3       0.2821293492    0.0000000000
     3        1       0.6578216164    0.0000000000
     3        2       0.2821293492    0.0000000000
     3        3       1.1507921357    0.0000000000

 respfn : d/dk was computed, but no 2DTE, so no DDB output.

== END DATASET(S) ==============================================================

 -outvars: echo values of variables after computation  --------
            acell      1.0000000000E+00  1.0000000000E+00  1.0000000000E+00 Bohr
              amu      2.08980370E+02  1.21753000E+02  1.59994000E+01
             ecut      4.40000000E+01 Hartree
           etotal     -7.4193728797E+01
            fcart      0.0000000000E+00  0.0000000000E+00  0.0000000000E+00
                       0.0000000000E+00  0.0000000000E+00  0.0000000000E+00
                       0.0000000000E+00  0.0000000000E+00  0.0000000000E+00
                       0.0000000000E+00  0.0000000000E+00  0.0000000000E+00
                       0.0000000000E+00  0.0000000000E+00  0.0000000000E+00
                       0.0000000000E+00  0.0000000000E+00  0.0000000000E+00
                       0.0000000000E+00  0.0000000000E+00  0.0000000000E+00
                       0.0000000000E+00  0.0000000000E+00  0.0000000000E+00
                       0.0000000000E+00  0.0000000000E+00  0.0000000000E+00
                       0.0000000000E+00  0.0000000000E+00  0.0000000000E+00
                       0.0000000000E+00  0.0000000000E+00  0.0000000000E+00
                       0.0000000000E+00  0.0000000000E+00  0.0000000000E+00
-          fftalg         512
           irdden           1
           irdwfk           1
              ixc     -116133
              kpt      2.57378155E-02 -2.57378155E-02  0.00000000E+00
                       4.11764706E-01  4.11764706E-01  0.00000000E+00
           kptopt           0
P           mkmem           2
P          mkqmem           2
P          mk1mem           2
            natom          12
            nband          63
           nbdbuf           4
            ngfft          75      75      64
             nkpt           2
            nstep        2000
             nsym           4
           ntypat           3
              occ      2.000000  2.000000  2.000000  2.000000  2.000000  2.000000
                       2.000000  2.000000  2.000000  2.000000  2.000000  2.000000
                       2.000000  2.000000  2.000000  2.000000  2.000000  2.000000
                       2.000000  2.000000  2.000000  2.000000  2.000000  2.000000
                       2.000000  2.000000  2.000000  2.000000  2.000000  2.000000
                       2.000000  2.000000  2.000000  2.000000  2.000000  2.000000
                       2.000000  2.000000  2.000000  2.000000  2.000000  2.000000
                       2.000000  2.000000  2.000000  2.000000  2.000000  2.000000
                       2.000000  2.000000  2.000000  2.000000  2.000000  2.000000
                       0.000000  0.000000  0.000000  0.000000  0.000000  0.000000
                       0.000000  0.000000  0.000000
        optdriver           1
            prtwf          -1
            rfdir           1       1       1
           rfelfd           2
            rprim      1.1865732675E+01  0.0000000000E+00  3.1032779452E+00
                       8.1787587198E+00  8.5967155193E+00  3.1032779452E+00
                       0.0000000000E+00  0.0000000000E+00  1.0395986990E+01
          spgroup          15
           strten      0.0000000000E+00  0.0000000000E+00  0.0000000000E+00
                       0.0000000000E+00  0.0000000000E+00  0.0000000000E+00
           symrel      1  0  0   0  1  0   0  0  1      -1  0  0   0 -1  0   0  0 -1
                       0 -1  0  -1  0  0   0  0 -1       0  1  0   1  0  0   0  0  1
            tnons      0.0000000  0.0000000  0.0000000    -0.0000000  0.0000000  0.0000000
                      -0.0000000 -0.0000000  0.5000000     0.0000000  0.0000000  0.5000000
           tolwfr      1.00000000E-20
            typat      1  1  2  2  3  3  3  3  3  3  3  3
           useylm           1
              wtk        0.50000    0.50000
           xangst      4.8247532434E+00  3.3909631859E+00  5.7681734925E+00
                       5.7823347605E+00  1.1582227356E+00  3.0175138045E+00
                       3.1395376474E+00  0.0000000000E+00  8.2109198026E-01
                       2.1640063545E+00  2.2745929608E+00  3.5717516682E+00
                       4.1087777648E+00  2.2589483104E+00  3.8812749877E+00
                       6.1384016260E+00  3.1294168397E+00  2.1537526213E+00
                       6.4983102391E+00  2.2902376112E+00  4.9044123093E+00
                       4.4686863779E+00  1.4197690818E+00  6.6319346757E+00
                       8.7487613444E+00  3.5045290633E+00  3.6368076602E+00
                       2.0377522281E+00  6.2630007338E-01  2.3982199489E+00
                       1.8583266595E+00  1.0446568583E+00  5.1488796368E+00
                       8.5693357758E+00  3.9228858482E+00  6.3874673481E+00
            xcart      9.1174622888E+00  6.4079917481E+00  1.0900268188E+01
                       1.0927029106E+01  2.1887237712E+00  5.7022746927E+00
                       5.9328663376E+00  0.0000000000E+00  1.5516389726E+00
                       4.0893793599E+00  4.2983577596E+00  6.7496324677E+00
                       7.7644647164E+00  4.2687936550E+00  7.3345467732E+00
                       1.1599897967E+01  5.9137407827E+00  4.0700026122E+00
                       1.2280026678E+01  4.3279218643E+00  9.2679961073E+00
                       8.4445934280E+00  2.6829747366E+00  1.2532540268E+01
                       1.6532762943E+01  6.6226001543E+00  6.8725704757E+00
                       3.8507936378E+00  1.1835356157E+00  4.5319789098E+00
                       3.5117284520E+00  1.9741153650E+00  9.7299724048E+00
                       1.6193697757E+01  7.4131799036E+00  1.2070563971E+01
             xred      2.5460000000E-01  7.4540000000E-01  7.5000000000E-01
                       7.4540000000E-01  2.5460000000E-01  2.5000000000E-01
                       5.0000000000E-01  0.0000000000E+00  0.0000000000E+00
                       0.0000000000E+00  5.0000000000E-01  5.0000000000E-01
                       3.1209300000E-01  4.9656100000E-01  4.6412800000E-01
                       5.0343900000E-01  6.8790700000E-01  3.5872000000E-02
                       6.8790700000E-01  5.0343900000E-01  5.3587200000E-01
                       4.9656100000E-01  3.1209300000E-01  9.6412800000E-01
                       8.6232700000E-01  7.7036400000E-01  1.7370900000E-01
                       2.2963600000E-01  1.3767300000E-01  3.2629100000E-01
                       1.3767300000E-01  2.2963600000E-01  8.2629100000E-01
                       7.7036400000E-01  8.6232700000E-01  6.7370900000E-01
            znucl       83.00000   51.00000    8.00000

- Timing analysis has been suppressed with timopt=0

 Suggested references for the acknowledgment of ABINIT usage.

 Calculation completed.
.Delivered   2 WARNINGs and   5 COMMENTs to log file.