.Version 9.5.1 of ABINIT

 ABINIT is a project of the Universite Catholique de Louvain,
 Corning Inc. and other collaborators, see ~abinit/doc/developers/contributors.txt .
 acknowledgments of the ABINIT effort.

.Starting date : Sun 25 Apr 2021.
- ( at 17h23 )

- input  file    -> /scratch/users/j/a/jabreu/flow_simple2/flow/w220/t1/run.abi
- output file    -> /scratch/users/j/a/jabreu/flow_simple2/flow/w220/t1/run.abo
- root for input  files -> /scratch/users/j/a/jabreu/flow_simple2/flow/w220/t1/indata/in
- root for output files -> /scratch/users/j/a/jabreu/flow_simple2/flow/w220/t1/outdata/out

 Symmetries : space group F-4 3 m (#216); Bravais cF (face-center cubic)
     intxc =       0      iscf =       7    lmnmax =      18     lnmax =       6
     mgfft =      45  mpssoang =       3    mqgrid =    3001     natom =       2
  nloc_mem =       1    nspden =       1   nspinor =       1    nsppol =       1
      nsym =      24    n1xccc =    2501    ntypat =       2    occopt =       1
   xclevel =       2
-    mband =          18        mffmem =           1         mkmem =           2
-   mkqmem =           2        mk1mem =           2           mpw =        3287
      nfft =       91125          nkpt =           2
  Rough estimation (10% accuracy) of disk space for files :

------------- Echo of variables that govern the present computation ------------
-
- outvars: echo of selected default values
-   iomode0 =  0 , fftalg0 =512 , wfoptalg0 =  0
-
- outvars: echo of global parameters not present in the input file
-  max_nthreads =    0
-
 -outvars: echo values of preprocessed input variables --------
            acell      1.0000000000E+00  1.0000000000E+00  1.0000000000E+00 Bohr
              amu      6.97230000E+01  3.09737620E+01
             ecut      4.00000000E+01 Hartree
-          fftalg         512
           irdden           1
           irdwfk           1
           istwfk        1    0
              ixc     -116133
              kpt      0.00000000E+00  0.00000000E+00  0.00000000E+00
                       4.37500000E-01 -2.46519033E-32  4.37500000E-01
           kptopt           0
P           mkmem           2
P          mkqmem           2
P          mk1mem           2
            natom           2
            nband          18
           nbdbuf           4
            ngfft          45      45      45
             nkpt           2
            nstep         100
             nsym          24
           ntypat           2
              occ      2.000000  2.000000  2.000000  2.000000  2.000000  2.000000
                       2.000000  2.000000  2.000000  0.000000  0.000000  0.000000
                       0.000000  0.000000  0.000000  0.000000  0.000000  0.000000
        optdriver           1
            prtwf          -1
            rfdir           1       1       1
           rfelfd           2
            rprim      6.2947794928E+00  0.0000000000E+00  3.6342926346E+00
                       2.0982598309E+00  5.9347750205E+00  3.6342926346E+00
                       0.0000000000E+00  0.0000000000E+00  7.2685852693E+00
          spgroup         216
           symrel      1  0  0   0  1  0   0  0  1       0 -1  1   0 -1  0   1 -1  0
                      -1  0  0  -1  0  1  -1  1  0       0  1 -1   1  0 -1   0  0 -1
                      -1  0  0  -1  1  0  -1  0  1       0 -1  1   1 -1  0   0 -1  0
                       1  0  0   0  0  1   0  1  0       0  1 -1   0  0 -1   1  0 -1
                      -1  0  1  -1  1  0  -1  0  0       0 -1  0   1 -1  0   0 -1  1
                       1  0 -1   0  0 -1   0  1 -1       0  1  0   0  0  1   1  0  0
                       1  0 -1   0  1 -1   0  0 -1       0 -1  0   0 -1  1   1 -1  0
                      -1  0  1  -1  0  0  -1  1  0       0  1  0   1  0  0   0  0  1
                       0  0 -1   0  1 -1   1  0 -1       1 -1  0   0 -1  1   0 -1  0
                       0  0  1   1  0  0   0  1  0      -1  1  0  -1  0  0  -1  0  1
                       0  0  1   0  1  0   1  0  0       1 -1  0   0 -1  0   0 -1  1
                       0  0 -1   1  0 -1   0  1 -1      -1  1  0  -1  0  1  -1  0  0
           tolwfr      1.00000000E-20
            typat      1  2
           useylm           1
              wtk        0.50000    0.50000
           xangst      0.0000000000E+00  0.0000000000E+00  0.0000000000E+00
                       3.3310538407E+00  2.3554107592E+00  5.7695544948E+00
            xcart      0.0000000000E+00  0.0000000000E+00  0.0000000000E+00
                       6.2947794928E+00  4.4510812654E+00  1.0902877904E+01
             xred      0.0000000000E+00  0.0000000000E+00  0.0000000000E+00
                       7.5000000000E-01  7.5000000000E-01  7.5000000000E-01
            znucl       31.00000   15.00000

 chkinp: Checking input parameters for consistency.

== DATASET  1 ==================================================================
-   mpi_nproc: 1, omp_nthreads: -1 (-1 if OMP is not activated)

--- !DatasetInfo
iteration_state: {dtset: 1, }
dimensions: {natom: 2, nkpt: 2, mband: 18, nsppol: 1, nspinor: 1, nspden: 1, mpw: 3287, }
cutoff_energies: {ecut:  40.0, pawecutdg:  -1.0, }
electrons: {nelect:   1.80000000E+01, charge:   0.00000000E+00, occopt:   1.00000000E+00, tsmear:   1.00000000E-02, }
meta: {optdriver: 1, rfelfd: 2, }
...

 Real(R)+Recip(G) space primitive vectors, cartesian coordinates (Bohr,Bohr^-1):
 R(1)=  6.2947795  0.0000000  3.6342926  G(1)=  0.1588618 -0.0561661  0.0000000
 R(2)=  2.0982598  5.9347750  3.6342926  G(2)=  0.0000000  0.1684984  0.0000000
 R(3)=  0.0000000  0.0000000  7.2685853  G(3)= -0.0794309 -0.0561661  0.1375784
 Unit cell volume ucvol=  2.7154054E+02 bohr^3
 Angles (23,13,12)=  6.00000000E+01  6.00000000E+01  6.00000000E+01 degrees

 getcut: wavevector=  0.0000  0.0000  0.0000  ngfft=  45  45  45
         ecut(hartree)=     40.000   => boxcut(ratio)=   2.12622

--- Pseudopotential description ------------------------------------------------
- pspini: atom type   1  psp file is /scratch/users/j/a/jabreu/pseudos/PBEsol/Ga.psp8
- pspatm: opening atomic psp file    /scratch/users/j/a/jabreu/pseudos/PBEsol/Ga.psp8
- Ga    ONCVPSP-3.3.0  r_core=   1.66857   1.75011   1.90252
- 31.00000  13.00000    180112                znucl, zion, pspdat
    8 -116133    2    4       600   0.00000   pspcod,pspxc,lmax,lloc,mmax,r2well
    5.99000000000000    5.00000000000000    0.00000000000000   rchrg,fchrg,qchrg
     nproj     2     2     2
     extension_switch     1
  pspatm : epsatm=   24.50969055
         --- l  ekb(1:nproj) -->
             0    7.053021    1.156713
             1    6.846070    1.293139
             2   -8.368667   -2.819170
 pspatm: atomic psp has been read  and splines computed

- pspini: atom type   2  psp file is /scratch/users/j/a/jabreu/pseudos/PBEsol/P.psp8
- pspatm: opening atomic psp file    /scratch/users/j/a/jabreu/pseudos/PBEsol/P.psp8
- P     ONCVPSP-3.3.0  r_core=   1.46089   1.55067   1.70594
- 15.00000   5.00000    180112                znucl, zion, pspdat
    8 -116133    2    4       600   0.00000   pspcod,pspxc,lmax,lloc,mmax,r2well
    5.99000000000000    5.00000000000000    0.00000000000000   rchrg,fchrg,qchrg
     nproj     2     2     2
     extension_switch     1
  pspatm : epsatm=    7.31221086
         --- l  ekb(1:nproj) -->
             0    6.742364    1.063650
             1    3.449117    0.910422
             2   -3.077645   -0.799176
 pspatm: atomic psp has been read  and splines computed

   5.72794225E+02                                ecore*ucvol(ha*bohr**3)

-inwffil : will read wavefunctions from disk file /scratch/users/j/a/jabreu/flow_simple2/flow/w220/t1/indata/in_WFK

 ==>  initialize data related to q vector <==

 The list of irreducible perturbations for this q vector is:
    1)    idir= 1    ipert=   3
    2)    idir= 2    ipert=   3
    3)    idir= 3    ipert=   3

 Perturbation wavevector (in red.coord.)   0.000000  0.000000  0.000000
 Perturbation : derivative vs k along direction   1

 dfpt_looppert : COMMENT -
  In a d/dk calculation, iscf is set to -3 automatically.
 The set of symmetries contains only one element for this perturbation.
 symkpt : not enough symmetry to change the number of k points.

[...]

 Initialisation of the first-order wave-functions :
  ireadwf=   0

--- !BeginCycle
iteration_state: {dtset: 1, }
solver: {iscf: 7, nstep: 100, nline: 4, wfoptalg: 0, }
tolerances: {tolwfr: 1.00E-20, }
...

     iter   2DEtotal(Ha)        deltaE(Ha) residm    vres2
-ETOT  1  -59.233787199803     -5.923E+01 8.266E-02 0.000E+00
 ETOT  2  -59.245492386591     -1.171E-02 7.108E-04 0.000E+00
 ETOT  3  -59.245510377922     -1.799E-05 8.806E-06 0.000E+00
 ETOT  4  -59.245510436764     -5.884E-08 1.750E-07 0.000E+00
 ETOT  5  -59.245510437024     -2.606E-10 3.929E-09 0.000E+00
 ETOT  6  -59.245510437026     -1.229E-12 8.145E-11 0.000E+00
 ETOT  7  -59.245510437026     -9.237E-14 2.272E-12 0.000E+00
 ETOT  8  -59.245510437026      2.842E-14 4.087E-14 0.000E+00
 ETOT  9  -59.245510437026     -3.553E-14 1.466E-15 0.000E+00
 ETOT 10  -59.245510437026      2.132E-14 2.099E-17 0.000E+00
 ETOT 11  -59.245510437026      0.000E+00 9.648E-19 0.000E+00
 ETOT 12  -59.245510437026     -1.421E-14 1.122E-20 0.000E+00
 ETOT 13  -59.245510437026      7.105E-15 9.572E-21 0.000E+00

 At SCF step   13   max residual=  9.57E-21 < tolwfr=  1.00E-20 =>converged.

 ----iterations are completed or convergence reached----

 dfpt_looppert: DFPT cycle converged with prtwf=-1. Will skip output of the 1st-order WFK file.
 dfpt_looppert : ek2=    4.0350945667E+01
          f-sum rule ratio=    1.8570329506E+00
 prteigrs : about to open file /scratch/users/j/a/jabreu/flow_simple2/flow/w220/t1/tmpdata/tmp_1WF1_EIG
 Expectation of eigenvalue derivatives (hartree) for nkpt=   2  k points:
  (in case of degenerate eigenvalues, averaged derivative)
 kpt#   1, nband= 18, wtk=  0.50000, kpt=  0.0000  0.0000  0.0000 (reduced coord)
  -0.00000   -0.00000   -0.00000   -0.00000   -0.00000    0.00000   -0.00000   -0.00000
  -0.00000    0.00000   -0.00000   -0.00000   -0.00000   -0.00000   -0.00000   -0.00000
   0.00000    0.00000
 prteigrs : prtvol=0 or 1, do not print more k-points.

 Eight components of 2nd-order total energy (hartree) are
 1,2,3: 0th-order hamiltonian combined with 1st-order wavefunctions
     kin0=   3.94353035E+01 eigvalue=   2.34893802E+00  local=  -1.37611352E+01
 4,5,6: 1st-order hamiltonian combined with 1st and 0th-order wfs
     kin1=  -7.49330357E+01  Hartree=   0.00000000E+00     xc=   0.00000000E+00
 7,8,9: eventually, occupation + non-local contributions
    edocc=   2.62984677E+01     enl0=   4.92393633E+00   enl1=  -4.35579852E+01
 1-9 gives the relaxation energy (to be shifted if some occ is /=2.0)
   erelax=  -5.92455104E+01
  No Ewald or frozen-wf contrib.: the relaxation energy is the total one
 2DEtotal=   -0.5924551044E+02 Ha. Also 2DEtotal=   -0.161215232648E+04 eV
    (  non-var. 2DEtotal :   -5.9245510437E+01 Ha)

 Perturbation wavevector (in red.coord.)   0.000000  0.000000  0.000000
 Perturbation : derivative vs k along direction   2
 The set of symmetries contains only one element for this perturbation.
 symkpt : not enough symmetry to change the number of k points.

[...]

 Perturbation wavevector (in red.coord.)   0.000000  0.000000  0.000000
 Perturbation : derivative vs k along direction   3
 The set of symmetries contains only one element for this perturbation.
 symkpt : not enough symmetry to change the number of k points.

-inwffil : will read wavefunctions from disk file /scratch/users/j/a/jabreu/flow_simple2/flow/w220/t1/indata/in_WFK

 Initialisation of the first-order wave-functions :
  ireadwf=   0

--- !BeginCycle
iteration_state: {dtset: 1, }
solver: {iscf: 7, nstep: 100, nline: 4, wfoptalg: 0, }
tolerances: {tolwfr: 1.00E-20, }
...

     iter   2DEtotal(Ha)        deltaE(Ha) residm    vres2
-ETOT  1  -59.234138308519     -5.923E+01 8.266E-02 0.000E+00
 ETOT  2  -59.245490907246     -1.135E-02 7.108E-04 0.000E+00
 ETOT  3  -59.245510270409     -1.936E-05 8.806E-06 0.000E+00
 ETOT  4  -59.245510332870     -6.246E-08 1.750E-07 0.000E+00
 ETOT  5  -59.245510333134     -2.643E-10 3.929E-09 0.000E+00
 ETOT  6  -59.245510333136     -1.343E-12 8.145E-11 0.000E+00
 ETOT  7  -59.245510333136     -4.263E-14 2.272E-12 0.000E+00
 ETOT  8  -59.245510333136     -7.105E-15 4.087E-14 0.000E+00
 ETOT  9  -59.245510333136     -7.105E-15 1.466E-15 0.000E+00
 ETOT 10  -59.245510333136      0.000E+00 2.099E-17 0.000E+00
 ETOT 11  -59.245510333136     -2.132E-14 9.648E-19 0.000E+00
 ETOT 12  -59.245510333136      0.000E+00 1.122E-20 0.000E+00
 ETOT 13  -59.245510333136      2.842E-14 9.572E-21 0.000E+00

 At SCF step   13   max residual=  9.57E-21 < tolwfr=  1.00E-20 =>converged.

 ----iterations are completed or convergence reached----

 dfpt_looppert: DFPT cycle converged with prtwf=-1. Will skip output of the 1st-order WFK file.
 dfpt_looppert : ek2=    4.0350945667E+01
          f-sum rule ratio=    1.8570329479E+00
 prteigrs : about to open file /scratch/users/j/a/jabreu/flow_simple2/flow/w220/t1/tmpdata/tmp_1WF1_EIG
 Expectation of eigenvalue derivatives (hartree) for nkpt=   2  k points:
  (in case of degenerate eigenvalues, averaged derivative)
 kpt#   1, nband= 18, wtk=  0.50000, kpt=  0.0000  0.0000  0.0000 (reduced coord)
  -0.00000   -0.00000   -0.00000    0.00000    0.00000    0.00000   -0.00000   -0.00000
  -0.00000   -0.00000   -0.00000   -0.00000   -0.00000   -0.00000    0.00000    0.00000
  -0.00000   -0.00000
 prteigrs : prtvol=0 or 1, do not print more k-points.

 Eight components of 2nd-order total energy (hartree) are
 1,2,3: 0th-order hamiltonian combined with 1st-order wavefunctions
     kin0=   3.94017257E+01 eigvalue=   2.33887306E+00  local=  -1.37250377E+01
 4,5,6: 1st-order hamiltonian combined with 1st and 0th-order wfs
     kin1=  -7.49330356E+01  Hartree=   0.00000000E+00     xc=   0.00000000E+00
 7,8,9: eventually, occupation + non-local contributions
    edocc=   2.63286833E+01     enl0=   4.90126593E+00   enl1=  -4.35579851E+01
 1-9 gives the relaxation energy (to be shifted if some occ is /=2.0)
   erelax=  -5.92455103E+01
  No Ewald or frozen-wf contrib.: the relaxation energy is the total one
 2DEtotal=   -0.5924551033E+02 Ha. Also 2DEtotal=   -0.161215232366E+04 eV
    (  non-var. 2DEtotal :   -5.9245510333E+01 Ha)

 CALCULATION OF EFFECTIVE MASSES
 NOTE : Additional infos (eff. mass eigenvalues, eigenvectors and, if degenerate, average mass) are available in stdout.

 COMMENTS:
 - At k-point ( 0.000, 0.000, 0.000), bands     7 through     9
   are DEGENERATE (effective mass tensor is therefore not defined).
   See Section IIIB Eqs. (67)-(70) and Appendix E of PRB 93 205147 (2016).
 - Angular average effective mass for Frohlich model is to be averaged over degenerate bands. See later.
 - Associated theta integrals calculated with ntheta=   1000 points.

 K-point ( 0.000, 0.000, 0.000) | band =     7
 Transport equivalent effective mass tensor:
             -0.0932957387              0.0000000000              0.0000000000
              0.0000000000             -0.0932957387             -0.0000000000
              0.0000000000             -0.0000000000             -0.0932957387
 Transport equivalent effective mass tensor eigenvalues:
             -0.0932957388             -0.0932957387             -0.0932957387
 Angular average effective mass 1/(<1/m>)=  -0.0882406732
 Angular average effective mass for Frohlich model (<m**0.5>)**2=  -0.0885733668
 Effective masses along directions: (cart. coord. / red. coord. -> eff. mass)
    1:   1.000000  0.000000  0.000000 /   0.948683  0.316228  0.000000 ->  -0.0845608021
    2:   0.000000  1.000000  0.000000 /   0.000000  1.000000  0.000000 ->  -0.0800588367
    3:   0.000000  0.000000  1.000000 /   0.408248  0.408248  0.816497 ->  -0.0853800171
    4:   0.577350  0.577350  0.577350 /   0.585539  0.688047  0.428644 ->  -0.0845198934
    5:   0.000000  0.707107  0.707107 /   0.289489  0.762222  0.578977 ->  -0.0918478655
    6:   0.707107  0.000000  0.707107 /   0.731423  0.422287  0.535439 ->  -0.0849638739
    7:   0.707107  0.707107  0.000000 /   0.616798  0.787122  0.000000 ->  -0.1029300382

[...]

 K-point ( 0.000, 0.000, 0.000) | band =     9
 Transport equivalent effective mass tensor:
             -9.2047554839              0.0000099701              0.0000000005
              0.0000099701             -9.2047525742             -0.0000000023
              0.0000000005             -0.0000000023             -9.2047411945
 Transport equivalent effective mass tensor eigenvalues:
             -9.2047641047             -9.2047439534             -9.2047411945
 Angular average effective mass 1/(<1/m>)=  -0.8940833986
 Angular average effective mass for Frohlich model (<m**0.5>)**2=  -1.0794138007
 Effective masses along directions: (cart. coord. / red. coord. -> eff. mass)
    1:   1.000000  0.000000  0.000000 /   0.948683  0.316228  0.000000 ->  -0.9703145585
    2:   0.000000  1.000000  0.000000 /   0.000000  1.000000  0.000000 ->  -0.8740789523
    3:   0.000000  0.000000  1.000000 /   0.408248  0.408248  0.816497 ->  -2.7353019499
    4:   0.577350  0.577350  0.577350 /   0.585539  0.688047  0.428644 ->  -1.1710905912
    5:   0.000000  0.707107  0.707107 /   0.289489  0.762222  0.578977 ->  -0.7981354090
    6:   0.707107  0.000000  0.707107 /   0.731423  0.422287  0.535439 ->  -1.6049890627
    7:   0.707107  0.707107  0.000000 /   0.616798  0.787122  0.000000 ->  -0.4116279703

 Angular average effective mass for Frohlich model, averaged over degenerate bands.
 Value of     (<<m**0.5>>)**2 =     4.443716E-01
 Absolute Value of <<m**0.5>> =     6.666120E-01

 K-point ( 0.438,-0.000, 0.438) | band =    10
 Effective mass tensor:
              0.3833139185             -0.2223725276              0.2723496127
             -0.2223725276              0.5405550409             -0.3851605162
              0.2723496127             -0.3851605162              0.6977961632
 Effective mass tensor eigenvalues:
              0.2260727963              0.2260727964              1.1695195299
 Angular average effective mass 1/(<1/m>)=   0.3092222468
 Angular average effective mass for Frohlich model (<m**0.5>)**2=   0.3487657870
 Effective masses along directions: (cart. coord. / red. coord. -> eff. mass)
    1:   1.000000  0.000000  0.000000 /   0.948683  0.316228  0.000000 ->   0.2611895586
    2:   0.000000  1.000000  0.000000 /   0.000000  1.000000  0.000000 ->   0.3092222469
    3:   0.000000  0.000000  1.000000 /   0.408248  0.408248  0.816497 ->   0.3789022705
    4:   0.577350  0.577350  0.577350 /   0.585539  0.688047  0.428644 ->   0.2451537224
    5:   0.000000  0.707107  0.707107 /   0.289489  0.762222  0.578977 ->   0.2276185701
    6:   0.707107  0.000000  0.707107 /   0.731423  0.422287  0.535439 ->   0.4537534650
    7:   0.707107  0.707107  0.000000 /   0.616798  0.787122  0.000000 ->   0.2287107298

 END OF EFFECTIVE MASSES SECTION

 ---- first-order wavefunction calculations are completed ----

 Total localisation tensor (bohr^2) in cartesian coordinates
  WARNING : still subject to testing - especially symmetries.
      direction              matrix element
   alpha     beta       real part   imaginary part
     1        1       7.7509571020    0.0000000000
     1        2       2.1923017300    0.0000000000
     1        3       5.3700206027    0.0000000000
     2        1       2.1923017300    0.0000000000
     2        2       6.2007656787    0.0000000000
     2        3       3.7971779819    0.0000000000
     3        1       5.3700206027    0.0000000000
     3        2       3.7971779819    0.0000000000
     3        3      13.9517227751    0.0000000000

 respfn : d/dk was computed, but no 2DTE, so no DDB output.

== END DATASET(S) ==============================================================

 -outvars: echo values of variables after computation  --------
            acell      1.0000000000E+00  1.0000000000E+00  1.0000000000E+00 Bohr
              amu      6.97230000E+01  3.09737620E+01
             ecut      4.00000000E+01 Hartree
           etotal     -5.9245510333E+01
            fcart      0.0000000000E+00  0.0000000000E+00  0.0000000000E+00
                       0.0000000000E+00  0.0000000000E+00  0.0000000000E+00
-          fftalg         512
           irdden           1
           irdwfk           1
           istwfk        1    0
              ixc     -116133
              kpt      0.00000000E+00  0.00000000E+00  0.00000000E+00
                       4.37500000E-01 -2.46519033E-32  4.37500000E-01
           kptopt           0
P           mkmem           2
P          mkqmem           2
P          mk1mem           2
            natom           2
            nband          18
           nbdbuf           4
            ngfft          45      45      45
             nkpt           2
            nstep         100
             nsym          24
           ntypat           2
              occ      2.000000  2.000000  2.000000  2.000000  2.000000  2.000000
                       2.000000  2.000000  2.000000  0.000000  0.000000  0.000000
                       0.000000  0.000000  0.000000  0.000000  0.000000  0.000000
        optdriver           1
            prtwf          -1
            rfdir           1       1       1
           rfelfd           2
            rprim      6.2947794928E+00  0.0000000000E+00  3.6342926346E+00
                       2.0982598309E+00  5.9347750205E+00  3.6342926346E+00
                       0.0000000000E+00  0.0000000000E+00  7.2685852693E+00
          spgroup         216
           strten      0.0000000000E+00  0.0000000000E+00  0.0000000000E+00
                       0.0000000000E+00  0.0000000000E+00  0.0000000000E+00
           symrel      1  0  0   0  1  0   0  0  1       0 -1  1   0 -1  0   1 -1  0
                      -1  0  0  -1  0  1  -1  1  0       0  1 -1   1  0 -1   0  0 -1
                      -1  0  0  -1  1  0  -1  0  1       0 -1  1   1 -1  0   0 -1  0
                       1  0  0   0  0  1   0  1  0       0  1 -1   0  0 -1   1  0 -1
                      -1  0  1  -1  1  0  -1  0  0       0 -1  0   1 -1  0   0 -1  1
                       1  0 -1   0  0 -1   0  1 -1       0  1  0   0  0  1   1  0  0
                       1  0 -1   0  1 -1   0  0 -1       0 -1  0   0 -1  1   1 -1  0
                      -1  0  1  -1  0  0  -1  1  0       0  1  0   1  0  0   0  0  1
                       0  0 -1   0  1 -1   1  0 -1       1 -1  0   0 -1  1   0 -1  0
                       0  0  1   1  0  0   0  1  0      -1  1  0  -1  0  0  -1  0  1
                       0  0  1   0  1  0   1  0  0       1 -1  0   0 -1  0   0 -1  1
                       0  0 -1   1  0 -1   0  1 -1      -1  1  0  -1  0  1  -1  0  0
           tolwfr      1.00000000E-20
            typat      1  2
           useylm           1
              wtk        0.50000    0.50000
           xangst      0.0000000000E+00  0.0000000000E+00  0.0000000000E+00
                       3.3310538407E+00  2.3554107592E+00  5.7695544948E+00
            xcart      0.0000000000E+00  0.0000000000E+00  0.0000000000E+00
                       6.2947794928E+00  4.4510812654E+00  1.0902877904E+01
             xred      0.0000000000E+00  0.0000000000E+00  0.0000000000E+00
                       7.5000000000E-01  7.5000000000E-01  7.5000000000E-01
            znucl       31.00000   15.00000

- Timing analysis has been suppressed with timopt=0

 Suggested references for the acknowledgment of ABINIT usage.

 Calculation completed.
.Delivered  14 WARNINGs and   9 COMMENTs to log file.