.Version 9.5.1 of ABINIT

 ABINIT is a project of the Universite Catholique de Louvain,
 Corning Inc. and other collaborators, see ~abinit/doc/developers/contributors.txt .
 acknowledgments of the ABINIT effort.

.Starting date : Tue 27 Apr 2021.
- ( at 15h42 )

- input  file    -> /scratch/users/j/a/jabreu/flow_simple/flow/w175/t1/run.abi
- output file    -> /scratch/users/j/a/jabreu/flow_simple/flow/w175/t1/run.abo
- root for input  files -> /scratch/users/j/a/jabreu/flow_simple/flow/w175/t1/indata/in
- root for output files -> /scratch/users/j/a/jabreu/flow_simple/flow/w175/t1/outdata/out

 Symmetries : space group I4/m m m (#139); Bravais tI (body-center tetrag.)
     intxc =       0      iscf =       7    lmnmax =      18     lnmax =       6
     mgfft =      48  mpssoang =       3    mqgrid =    3001     natom =       3
  nloc_mem =       1    nspden =       1   nspinor =       1    nsppol =       1
      nsym =      16    n1xccc =    2501    ntypat =       2    occopt =       1
   xclevel =       2
-    mband =          20        mffmem =           1         mkmem =           1
-   mkqmem =           1        mk1mem =           1           mpw =        3846
      nfft =      110592          nkpt =           1
  Rough estimation (10% accuracy) of disk space for files :

------------- Echo of variables that govern the present computation ------------
-
- outvars: echo of selected default values
-   iomode0 =  0 , fftalg0 =512 , wfoptalg0 =  0
-
- outvars: echo of global parameters not present in the input file
-  max_nthreads =    0
-
 -outvars: echo values of preprocessed input variables --------
            acell      1.0000000000E+00  1.0000000000E+00  1.0000000000E+00 Bohr
              amu      8.76200000E+01  1.59994000E+01
             ecut      4.40000000E+01 Hartree
-          fftalg         512
           irdden           1
           irdwfk           1
              ixc     -116133
              kpt      5.00000000E-01  5.00000000E-01 -5.00000000E-01
           kptopt           0
P           mkmem           1
P          mkqmem           1
P          mk1mem           1
            natom           3
            nband          20
           nbdbuf           4
            ngfft          48      48      48
             nkpt           1
            nstep         100
             nsym          16
           ntypat           2
              occ      2.000000  2.000000  2.000000  2.000000  2.000000  2.000000
                       2.000000  2.000000  2.000000  2.000000  2.000000  0.000000
                       0.000000  0.000000  0.000000  0.000000  0.000000  0.000000
                       0.000000  0.000000
        optdriver           1
            prtwf          -1
            rfdir           1       1       1
           rfelfd           2
            rprim      6.0086510336E+00  0.0000000000E+00 -4.9977997762E+00
                      -1.3213249151E+00  5.8615687074E+00 -4.9977997762E+00
                       0.0000000000E+00  0.0000000000E+00  7.8154903779E+00
          spgroup         139
           symrel      1  0  0   0  1  0   0  0  1      -1  0  0   0 -1  0   0  0 -1
                       0  0  1  -1 -1 -1   1  0  0       0  0 -1   1  1  1  -1  0  0
                       0  1  0   1  0  0  -1 -1 -1       0 -1  0  -1  0  0   1  1  1
                      -1 -1 -1   0  0  1   0  1  0       1  1  1   0  0 -1   0 -1  0
                       0  1  0   1  0  0   0  0  1       0 -1  0  -1  0  0   0  0 -1
                       0  0  1  -1 -1 -1   0  1  0       0  0 -1   1  1  1   0 -1  0
                       1  0  0   0  1  0  -1 -1 -1      -1  0  0   0 -1  0   1  1  1
                      -1 -1 -1   0  0  1   1  0  0       1  1  1   0  0 -1  -1  0  0
           tolwfr      1.00000000E-20
            typat      1  2  2
           useylm           1
           xangst      0.0000000000E+00  0.0000000000E+00  0.0000000000E+00
                       1.5173957371E+00  1.8975251870E+00 -3.2358064635E+00
                       9.6303041403E-01  1.2042833796E+00 -2.0536370059E+00
            xcart      0.0000000000E+00  0.0000000000E+00  0.0000000000E+00
                       2.8674623783E+00  3.5858029336E+00 -6.1147880350E+00
                       1.8198637402E+00  2.2757657738E+00 -3.8808115174E+00
             xred      0.0000000000E+00  0.0000000000E+00  0.0000000000E+00
                       6.1174800000E-01  6.1174800000E-01  1.6653345369E-16
                       3.8825200000E-01  3.8825200000E-01  1.1102230246E-16
            znucl       38.00000    8.00000

 chkinp: Checking input parameters for consistency.

== DATASET  1 ==================================================================
-   mpi_nproc: 1, omp_nthreads: -1 (-1 if OMP is not activated)

--- !DatasetInfo
iteration_state: {dtset: 1, }
dimensions: {natom: 3, nkpt: 1, mband: 20, nsppol: 1, nspinor: 1, nspden: 1, mpw: 3846, }
cutoff_energies: {ecut:  44.0, pawecutdg:  -1.0, }
electrons: {nelect:   2.20000000E+01, charge:   0.00000000E+00, occopt:   1.00000000E+00, tsmear:   1.00000000E-02, }
meta: {optdriver: 1, rfelfd: 2, }
...

 Real(R)+Recip(G) space primitive vectors, cartesian coordinates (Bohr,Bohr^-1):
 R(1)=  6.0086510  0.0000000 -4.9977998  G(1)=  0.1664267  0.0375162  0.0000000
 R(2)= -1.3213249  5.8615687 -4.9977998  G(2)=  0.0000000  0.1706028  0.0000000
 R(3)=  0.0000000  0.0000000  7.8154904  G(3)=  0.1064255  0.1330866  0.1279510
 Unit cell volume ucvol=  2.7526252E+02 bohr^3
 Angles (23,13,12)=  1.29752578E+02  1.29752578E+02  7.38026195E+01 degrees

 getcut: wavevector=  0.0000  0.0000  0.0000  ngfft=  48  48  48
         ecut(hartree)=     44.000   => boxcut(ratio)=   2.05774

--- Pseudopotential description ------------------------------------------------
- pspini: atom type   1  psp file is /scratch/users/j/a/jabreu/pseudos/PBEsol/Sr.psp8
- pspatm: opening atomic psp file    /scratch/users/j/a/jabreu/pseudos/PBEsol/Sr.psp8
- Sr    ONCVPSP-3.3.0  r_core=   1.66721   1.31335   1.51547
- 38.00000  10.00000    180112                znucl, zion, pspdat
    8 -116133    2    4       600   0.00000   pspcod,pspxc,lmax,lloc,mmax,r2well
    5.99000000000000    6.00000000000000    0.00000000000000   rchrg,fchrg,qchrg
     nproj     2     2     2
     extension_switch     1
  pspatm : epsatm=   12.46450977
         --- l  ekb(1:nproj) -->
             0   10.029206    1.044171
             1    7.472414    1.670829
             2    4.142950    0.968140
 pspatm: atomic psp has been read  and splines computed

- pspini: atom type   2  psp file is /scratch/users/j/a/jabreu/pseudos/PBEsol/O.psp8
- pspatm: opening atomic psp file    /scratch/users/j/a/jabreu/pseudos/PBEsol/O.psp8
- O     ONCVPSP-3.3.0  r_core=   1.35509   1.45563   1.26150
-  8.00000   6.00000    180112                znucl, zion, pspdat
    8 -116133    2    4       600   0.00000   pspcod,pspxc,lmax,lloc,mmax,r2well
    5.99000000000000    4.00000000000000    0.00000000000000   rchrg,fchrg,qchrg
     nproj     2     2     1
     extension_switch     1
  pspatm : epsatm=    6.22910522
         --- l  ekb(1:nproj) -->
             0    6.050032    0.820363
             1   -4.739617   -1.153841
             2   -1.335834
 pspatm: atomic psp has been read  and splines computed

   5.48299844E+02                                ecore*ucvol(ha*bohr**3)

-inwffil : will read wavefunctions from disk file /scratch/users/j/a/jabreu/flow_simple/flow/w175/t1/indata/in_WFK

 ==>  initialize data related to q vector <==

 The list of irreducible perturbations for this q vector is:
    1)    idir= 1    ipert=   4
    2)    idir= 2    ipert=   4
    3)    idir= 3    ipert=   4

 Perturbation wavevector (in red.coord.)   0.000000  0.000000  0.000000
 Perturbation : derivative vs k along direction   1

 dfpt_looppert : COMMENT -
  In a d/dk calculation, iscf is set to -3 automatically.
 The set of symmetries contains only one element for this perturbation.
 symkpt : not enough symmetry to change the number of k points.

[...]

 Initialisation of the first-order wave-functions :
  ireadwf=   0

--- !BeginCycle
iteration_state: {dtset: 1, }
solver: {iscf: 7, nstep: 100, nline: 4, wfoptalg: 0, }
tolerances: {tolwfr: 1.00E-20, }
...

     iter   2DEtotal(Ha)        deltaE(Ha) residm    vres2
-ETOT  1  -31.105324888354     -3.111E+01 1.798E-02 0.000E+00
 ETOT  2  -31.112812520906     -7.488E-03 5.897E-05 0.000E+00
 ETOT  3  -31.112813599301     -1.078E-06 3.610E-08 0.000E+00
 ETOT  4  -31.112813599935     -6.339E-10 1.630E-10 0.000E+00
 ETOT  5  -31.112813599935     -3.979E-13 4.030E-13 0.000E+00
 ETOT  6  -31.112813599935      0.000E+00 4.240E-15 0.000E+00
 ETOT  7  -31.112813599935     -1.776E-14 7.194E-18 0.000E+00
 ETOT  8  -31.112813599935      3.553E-15 7.893E-20 0.000E+00
 ETOT  9  -31.112813599935      3.553E-15 9.910E-21 0.000E+00

 At SCF step    9   max residual=  9.91E-21 < tolwfr=  1.00E-20 =>converged.

 ----iterations are completed or convergence reached----

 dfpt_looppert: DFPT cycle converged with prtwf=-1. Will skip output of the 1st-order WFK file.
 dfpt_looppert : ek2=    5.0557395536E+01
          f-sum rule ratio=    1.2359006995E+00
 prteigrs : about to open file /scratch/users/j/a/jabreu/flow_simple/flow/w175/t1/tmpdata/tmp_1WF1_EIG
 Expectation of eigenvalue derivatives (hartree) for nkpt=   1  k points:
  (in case of degenerate eigenvalues, averaged derivative)
 kpt#   1, nband= 20, wtk=  1.00000, kpt=  0.5000  0.5000 -0.5000 (reduced coord)
  -0.00000    0.00000    0.00000    0.00000    0.00000   -0.00000    0.00000   -0.00000
  -0.00000   -0.00000   -0.00000    0.00000    0.00000    0.00000    0.00000    0.00000
   0.00000   -0.00000    0.00000    0.00000

 Eight components of 2nd-order total energy (hartree) are
 1,2,3: 0th-order hamiltonian combined with 1st-order wavefunctions
     kin0=   2.30765291E+01 eigvalue=  -1.05700486E+00  local=  -7.39585365E+00
 4,5,6: 1st-order hamiltonian combined with 1st and 0th-order wfs
     kin1=  -6.24839205E+01  Hartree=   0.00000000E+00     xc=   0.00000000E+00
 7,8,9: eventually, occupation + non-local contributions
    edocc=   1.70137846E+01     enl0=  -5.24641544E-01   enl1=   2.58293306E-01
 1-9 gives the relaxation energy (to be shifted if some occ is /=2.0)
   erelax=  -3.11128136E+01
  No Ewald or frozen-wf contrib.: the relaxation energy is the total one
 2DEtotal=   -0.3111281360E+02 Ha. Also 2DEtotal=   -0.846622713832E+03 eV
    (  non-var. 2DEtotal :   -3.1112813600E+01 Ha)

 Perturbation wavevector (in red.coord.)   0.000000  0.000000  0.000000
 Perturbation : derivative vs k along direction   2
 The set of symmetries contains only one element for this perturbation.
 symkpt : not enough symmetry to change the number of k points.

[...]

 Perturbation wavevector (in red.coord.)   0.000000  0.000000  0.000000
 Perturbation : derivative vs k along direction   3
 The set of symmetries contains only one element for this perturbation.
 symkpt : not enough symmetry to change the number of k points.

-inwffil : will read wavefunctions from disk file /scratch/users/j/a/jabreu/flow_simple/flow/w175/t1/indata/in_WFK

 Initialisation of the first-order wave-functions :
  ireadwf=   0

--- !BeginCycle
iteration_state: {dtset: 1, }
solver: {iscf: 7, nstep: 100, nline: 4, wfoptalg: 0, }
tolerances: {tolwfr: 1.00E-20, }
...

     iter   2DEtotal(Ha)        deltaE(Ha) residm    vres2
-ETOT  1  -49.883126847214     -4.988E+01 7.781E-02 0.000E+00
 ETOT  2  -49.890320775151     -7.194E-03 3.469E-05 0.000E+00
 ETOT  3  -49.890321975960     -1.201E-06 3.493E-08 0.000E+00
 ETOT  4  -49.890321976170     -2.101E-10 2.786E-12 0.000E+00
 ETOT  5  -49.890321976170     -2.132E-14 4.704E-15 0.000E+00
 ETOT  6  -49.890321976170     -3.553E-14 2.048E-17 0.000E+00
 ETOT  7  -49.890321976170     -2.132E-14 2.052E-20 0.000E+00
 ETOT  8  -49.890321976170     -2.842E-14 9.845E-21 0.000E+00

 At SCF step    8   max residual=  9.84E-21 < tolwfr=  1.00E-20 =>converged.

 ----iterations are completed or convergence reached----

 dfpt_looppert: DFPT cycle converged with prtwf=-1. Will skip output of the 1st-order WFK file.
 dfpt_looppert : ek2=    7.8879268957E+01
          f-sum rule ratio=    1.2716231569E+00
 prteigrs : about to open file /scratch/users/j/a/jabreu/flow_simple/flow/w175/t1/tmpdata/tmp_1WF1_EIG
 Expectation of eigenvalue derivatives (hartree) for nkpt=   1  k points:
  (in case of degenerate eigenvalues, averaged derivative)
 kpt#   1, nband= 20, wtk=  1.00000, kpt=  0.5000  0.5000 -0.5000 (reduced coord)
  -0.00000    0.00000    0.00000   -0.00000   -0.00000   -0.00000    0.00000    0.00000
   0.00000   -0.00000   -0.00000    0.00000    0.00000   -0.00000   -0.00000    0.00000
   0.00000    0.00000   -0.00000    0.00000

 Eight components of 2nd-order total energy (hartree) are
 1,2,3: 0th-order hamiltonian combined with 1st-order wavefunctions
     kin0=   3.67462941E+01 eigvalue=  -1.41394698E+00  local=  -1.18711253E+01
 4,5,6: 1st-order hamiltonian combined with 1st and 0th-order wfs
     kin1=  -1.00304705E+02  Hartree=   0.00000000E+00     xc=   0.00000000E+00
 7,8,9: eventually, occupation + non-local contributions
    edocc=   2.69403105E+01     enl0=  -5.11210369E-01   enl1=   5.24061053E-01
 1-9 gives the relaxation energy (to be shifted if some occ is /=2.0)
   erelax=  -4.98903220E+01
  No Ewald or frozen-wf contrib.: the relaxation energy is the total one
 2DEtotal=   -0.4989032198E+02 Ha. Also 2DEtotal=   -0.135758470219E+04 eV
    (  non-var. 2DEtotal :   -4.9890321976E+01 Ha)

 CALCULATION OF EFFECTIVE MASSES
 NOTE : Additional infos (eff. mass eigenvalues, eigenvectors and, if degenerate, average mass) are available in stdout.

 COMMENTS:
 - At k-point ( 0.500, 0.500,-0.500), bands    10 through    11
   are DEGENERATE (effective mass tensor is therefore not defined).
   See Section IIIB Eqs. (67)-(70) and Appendix E of PRB 93 205147 (2016).
 - Angular average effective mass for Frohlich model is to be averaged over degenerate bands. See later.
 - Associated theta integrals calculated with ntheta=   1000 points.

 K-point ( 0.500, 0.500,-0.500) | band =    10
 Transport equivalent effective mass tensor:
             -2.4117597068              0.2159295277             -0.3682196787
              0.2159295277             -2.3144092834             -0.4604640149
             -0.3682196787             -0.4604640149             -1.7992134698
 Transport equivalent effective mass tensor eigenvalues:
             -2.5844322693             -2.5844322479             -1.3565179428
 Angular average effective mass 1/(<1/m>)=  -1.8811893941
 Angular average effective mass for Frohlich model (<m**0.5>)**2=  -1.9492984130
 Effective masses along directions: (cart. coord. / red. coord. -> eff. mass)
    1:   1.000000  0.000000  0.000000 /   0.976664 -0.214772  0.000000 ->  -2.0587171142
    2:   0.000000  1.000000  0.000000 /   0.000000  1.000000  0.000000 ->  -1.9067321875
    3:   0.000000  0.000000  1.000000 /  -0.474289 -0.474289  0.741687 ->  -1.5892406150
    4:   0.577350  0.577350  0.577350 /   0.128055 -0.057964  0.990072 ->  -2.8349665940
    5:   0.000000  0.707107  0.707107 /  -0.536419  0.092709  0.838844 ->  -2.2629345159
    6:   0.707107  0.000000  0.707107 /   0.100072 -0.625579  0.773716 ->  -2.1144670246
    7:   0.707107  0.707107  0.000000 /   0.797843  0.602865  0.000000 ->  -1.9548757958

 K-point ( 0.500, 0.500,-0.500) | band =    11
 Transport equivalent effective mass tensor:
            -15.7600944420              2.5920014642             -4.4200809752
              2.5920014642            -14.5915075586             -5.5273748067
             -4.4200809752             -5.5273748067             -8.4071362732
 Transport equivalent effective mass tensor eigenvalues:
            -17.8328426674            -17.8328425870             -3.0930530194
 Angular average effective mass 1/(<1/m>)=  -3.0338010859
 Angular average effective mass for Frohlich model (<m**0.5>)**2=  -4.3022549609
 Effective masses along directions: (cart. coord. / red. coord. -> eff. mass)
    1:   1.000000  0.000000  0.000000 /   0.976664 -0.214772  0.000000 ->  -5.9246817059
    2:   0.000000  1.000000  0.000000 /   0.000000  1.000000  0.000000 ->  -4.6491596330
    3:   0.000000  0.000000  1.000000 /  -0.474289 -0.474289  0.741687 ->  -1.7847965296
    4:   0.577350  0.577350  0.577350 /   0.128055 -0.057964  0.990072 ->  -6.5929926540
    5:   0.000000  0.707107  0.707107 /  -0.536419  0.092709  0.838844 ->  -8.3012399510
    6:   0.707107  0.000000  0.707107 /   0.100072 -0.625579  0.773716 ->  -7.8438369948
    7:   0.707107  0.707107  0.000000 /   0.797843  0.602865  0.000000 ->  -2.6731701489

 Angular average effective mass for Frohlich model, averaged over degenerate bands.
 Value of     (<<m**0.5>>)**2 =     3.010851E+00
 Absolute Value of <<m**0.5>> =     1.735180E+00

 K-point ( 0.500, 0.500,-0.500) | band =    12
 Effective mass tensor:
              0.6188280953              0.2148921872             -0.3664507501
              0.2148921872              0.7157108294             -0.4582519320
             -0.3664507501             -0.4582519320              1.2284316375
 Effective mass tensor eigenvalues:
              0.4469850594              0.4469850596              1.6690004431
 Angular average effective mass 1/(<1/m>)=   0.5912980443
 Angular average effective mass for Frohlich model (<m**0.5>)**2=   0.6437156286
 Effective masses along directions: (cart. coord. / red. coord. -> eff. mass)
    1:   1.000000  0.000000  0.000000 /   0.976664 -0.214772  0.000000 ->   0.4982897982
    2:   0.000000  1.000000  0.000000 /   0.000000  1.000000  0.000000 ->   0.5327656614
    3:   0.000000  0.000000  1.000000 /  -0.474289 -0.474289  0.741687 ->   0.8405329432
    4:   0.577350  0.577350  0.577350 /   0.128055 -0.057964  0.990072 ->   0.4471989142
    5:   0.000000  0.707107  0.707107 /  -0.536419  0.092709  0.838844 ->   0.4656310075
    6:   0.707107  0.000000  0.707107 /   0.100072 -0.625579  0.773716 ->   0.4785830165
    7:   0.707107  0.707107  0.000000 /   0.797843  0.602865  0.000000 ->   0.6046391960

 END OF EFFECTIVE MASSES SECTION

 ---- first-order wavefunction calculations are completed ----

 Total localisation tensor (bohr^2) in cartesian coordinates
  WARNING : still subject to testing - especially symmetries.
      direction              matrix element
   alpha     beta       real part   imaginary part
     1        1       0.9541398018    0.0000000000
     1        2      -0.1952414659    0.0000000000
     1        3      -0.5905444593    0.0000000000
     2        1      -0.1952414659    0.0000000000
     2        2       0.8661164669    0.0000000000
     2        3      -0.7384843376    0.0000000000
     3        1      -0.5905444593    0.0000000000
     3        2      -0.7384843376    0.0000000000
     3        3       3.7600835533    0.0000000000

 respfn : d/dk was computed, but no 2DTE, so no DDB output.

== END DATASET(S) ==============================================================

 -outvars: echo values of variables after computation  --------
            acell      1.0000000000E+00  1.0000000000E+00  1.0000000000E+00 Bohr
              amu      8.76200000E+01  1.59994000E+01
             ecut      4.40000000E+01 Hartree
           etotal     -4.9890321976E+01
            fcart      0.0000000000E+00  0.0000000000E+00  0.0000000000E+00
                       0.0000000000E+00  0.0000000000E+00  0.0000000000E+00
                       0.0000000000E+00  0.0000000000E+00  0.0000000000E+00
-          fftalg         512
           irdden           1
           irdwfk           1
              ixc     -116133
              kpt      5.00000000E-01  5.00000000E-01 -5.00000000E-01
           kptopt           0
P           mkmem           1
P          mkqmem           1
P          mk1mem           1
            natom           3
            nband          20
           nbdbuf           4
            ngfft          48      48      48
             nkpt           1
            nstep         100
             nsym          16
           ntypat           2
              occ      2.000000  2.000000  2.000000  2.000000  2.000000  2.000000
                       2.000000  2.000000  2.000000  2.000000  2.000000  0.000000
                       0.000000  0.000000  0.000000  0.000000  0.000000  0.000000
                       0.000000  0.000000
        optdriver           1
            prtwf          -1
            rfdir           1       1       1
           rfelfd           2
            rprim      6.0086510336E+00  0.0000000000E+00 -4.9977997762E+00
                      -1.3213249151E+00  5.8615687074E+00 -4.9977997762E+00
                       0.0000000000E+00  0.0000000000E+00  7.8154903779E+00
          spgroup         139
           strten      0.0000000000E+00  0.0000000000E+00  0.0000000000E+00
                       0.0000000000E+00  0.0000000000E+00  0.0000000000E+00
           symrel      1  0  0   0  1  0   0  0  1      -1  0  0   0 -1  0   0  0 -1
                       0  0  1  -1 -1 -1   1  0  0       0  0 -1   1  1  1  -1  0  0
                       0  1  0   1  0  0  -1 -1 -1       0 -1  0  -1  0  0   1  1  1
                      -1 -1 -1   0  0  1   0  1  0       1  1  1   0  0 -1   0 -1  0
                       0  1  0   1  0  0   0  0  1       0 -1  0  -1  0  0   0  0 -1
                       0  0  1  -1 -1 -1   0  1  0       0  0 -1   1  1  1   0 -1  0
                       1  0  0   0  1  0  -1 -1 -1      -1  0  0   0 -1  0   1  1  1
                      -1 -1 -1   0  0  1   1  0  0       1  1  1   0  0 -1  -1  0  0
           tolwfr      1.00000000E-20
            typat      1  2  2
           useylm           1
           xangst      0.0000000000E+00  0.0000000000E+00  0.0000000000E+00
                       1.5173957371E+00  1.8975251870E+00 -3.2358064635E+00
                       9.6303041403E-01  1.2042833796E+00 -2.0536370059E+00
            xcart      0.0000000000E+00  0.0000000000E+00  0.0000000000E+00
                       2.8674623783E+00  3.5858029336E+00 -6.1147880350E+00
                       1.8198637402E+00  2.2757657738E+00 -3.8808115174E+00
             xred      0.0000000000E+00  0.0000000000E+00  0.0000000000E+00
                       6.1174800000E-01  6.1174800000E-01  1.6653345369E-16
                       3.8825200000E-01  3.8825200000E-01  1.1102230246E-16
            znucl       38.00000    8.00000

- Timing analysis has been suppressed with timopt=0

 Suggested references for the acknowledgment of ABINIT usage.

 Calculation completed.
.Delivered   6 WARNINGs and   5 COMMENTs to log file.