.Version 9.5.1 of ABINIT

 ABINIT is a project of the Universite Catholique de Louvain,
 Corning Inc. and other collaborators, see ~abinit/doc/developers/contributors.txt .
 acknowledgments of the ABINIT effort.

.Starting date : Tue 27 Apr 2021.
- ( at 18h38 )

- input  file    -> /scratch/users/j/a/jabreu/flow_simple_4atoms/flow/w215/t1/run.abi
- output file    -> /scratch/users/j/a/jabreu/flow_simple_4atoms/flow/w215/t1/run.abo
- root for input  files -> /scratch/users/j/a/jabreu/flow_simple_4atoms/flow/w215/t1/indata/in
- root for output files -> /scratch/users/j/a/jabreu/flow_simple_4atoms/flow/w215/t1/outdata/out

 Symmetries : space group R-3 m (#166); Bravais hR (rhombohedral)
     intxc =       0      iscf =       7    lmnmax =       8     lnmax =       4
     mgfft =      64  mpssoang =       2    mqgrid =    3001     natom =       4
  nloc_mem =       1    nspden =       1   nspinor =       1    nsppol =       1
      nsym =      12    n1xccc =    2501    ntypat =       2    occopt =       1
   xclevel =       2
-    mband =          21        mffmem =           1         mkmem =           2
-   mkqmem =           2        mk1mem =           2           mpw =        5500
      nfft =      262144          nkpt =           2
  Rough estimation (10% accuracy) of disk space for files :

------------- Echo of variables that govern the present computation ------------
-
- outvars: echo of selected default values
-   iomode0 =  0 , fftalg0 =512 , wfoptalg0 =  0
-
- outvars: echo of global parameters not present in the input file
-  max_nthreads =    0
-
 -outvars: echo values of preprocessed input variables --------
            acell      1.0000000000E+00  1.0000000000E+00  1.0000000000E+00 Bohr
              amu      2.29897680E+01  1.40067400E+01
             ecut      4.40000000E+01 Hartree
-          fftalg         512
           irdden           1
           irdwfk           1
           istwfk        1    1
              ixc     -116133
              kpt      5.00000000E-01  5.00000000E-01  5.00000000E-01
                       5.00000000E-01  0.00000000E+00  0.00000000E+00
           kptopt           0
P           mkmem           2
P          mkqmem           2
P          mk1mem           2
            natom           4
            nband          21
           nbdbuf           4
            ngfft          64      64      64
             nkpt           2
            nstep         100
             nsym          12
           ntypat           2
              occ      2.000000  2.000000  2.000000  2.000000  2.000000  2.000000
                       2.000000  2.000000  2.000000  2.000000  2.000000  2.000000
                       0.000000  0.000000  0.000000  0.000000  0.000000  0.000000
                       0.000000  0.000000  0.000000
        optdriver           1
            prtwf          -1
            rfdir           1       1       1
           rfelfd           2
            rprim      6.4930854521E+00  0.0000000000E+00  8.1397400039E+00
                       2.8488560310E+00  5.8347388975E+00  8.1397400039E+00
                       0.0000000000E+00  0.0000000000E+00  1.0412277658E+01
          spgroup         166
           symrel      1  0  0   0  1  0   0  0  1      -1  0  0   0 -1  0   0  0 -1
                       0  1  0   1  0  0   0  0  1       0 -1  0  -1  0  0   0  0 -1
                       0  0  1   1  0  0   0  1  0       0  0 -1  -1  0  0   0 -1  0
                       1  0  0   0  0  1   0  1  0      -1  0  0   0  0 -1   0 -1  0
                       0  1  0   0  0  1   1  0  0       0 -1  0   0  0 -1  -1  0  0
                       0  0  1   0  1  0   1  0  0       0  0 -1   0 -1  0  -1  0  0
           tolwfr      1.00000000E-20
            typat      1  2  2  2
           useylm           1
              wtk        0.50000    0.50000
           xangst      0.0000000000E+00  0.0000000000E+00  0.0000000000E+00
                       2.8542976348E+00  1.7827216607E+00  8.1552877324E+00
                       2.4717712584E+00  1.5438054213E+00  7.0623349069E+00
                       2.0892448820E+00  1.3048891819E+00  5.9693820814E+00
            xcart      0.0000000000E+00  0.0000000000E+00  0.0000000000E+00
                       5.3938408316E+00  3.3688557099E+00  1.5411260349E+01
                       4.6709707415E+00  2.9173694487E+00  1.3345878833E+01
                       3.9481006515E+00  2.4658831876E+00  1.1280497316E+01
             xred      0.0000000000E+00  0.0000000000E+00  0.0000000000E+00
                       5.7737900000E-01  5.7737900000E-01  5.7737900000E-01
                       5.0000000000E-01  5.0000000000E-01  5.0000000000E-01
                       4.2262100000E-01  4.2262100000E-01  4.2262100000E-01
            znucl       11.00000    7.00000

 chkinp: Checking input parameters for consistency.

== DATASET  1 ==================================================================
-   mpi_nproc: 1, omp_nthreads: -1 (-1 if OMP is not activated)

--- !DatasetInfo
iteration_state: {dtset: 1, }
dimensions: {natom: 4, nkpt: 2, mband: 21, nsppol: 1, nspinor: 1, nspden: 1, mpw: 5500, }
cutoff_energies: {ecut:  44.0, pawecutdg:  -1.0, }
electrons: {nelect:   2.40000000E+01, charge:   0.00000000E+00, occopt:   1.00000000E+00, tsmear:   1.00000000E-02, }
meta: {optdriver: 1, rfelfd: 2, }
...

 Real(R)+Recip(G) space primitive vectors, cartesian coordinates (Bohr,Bohr^-1):
 R(1)=  6.4930855  0.0000000  8.1397400  G(1)=  0.1540100 -0.0751966  0.0000000
 R(2)=  2.8488560  5.8347389  8.1397400  G(2)=  0.0000000  0.1713873  0.0000000
 R(3)=  0.0000000  0.0000000 10.4122777  G(3)= -0.1203964 -0.0751966  0.0960405
 Unit cell volume ucvol=  3.9447391E+02 bohr^3
 Angles (23,13,12)=  3.85794281E+01  3.85794281E+01  3.85794281E+01 degrees

 getcut: wavevector=  0.0000  0.0000  0.0000  ngfft=  64  64  64
         ecut(hartree)=     44.000   => boxcut(ratio)=   2.05846

--- Pseudopotential description ------------------------------------------------
- pspini: atom type   1  psp file is /scratch/users/j/a/jabreu/pseudos/PBEsol/Na.psp8
- pspatm: opening atomic psp file    /scratch/users/j/a/jabreu/pseudos/PBEsol/Na.psp8
- Na    ONCVPSP-3.3.0  r_core=   1.20708   1.55069
- 11.00000   9.00000    180112                znucl, zion, pspdat
    8 -116133    1    4       400   0.00000   pspcod,pspxc,lmax,lloc,mmax,r2well
    3.99000000000000    0.00000000000000    0.00000000000000   rchrg,fchrg,qchrg
     nproj     2     2
     extension_switch     1
  pspatm : epsatm=    9.32878306
         --- l  ekb(1:nproj) -->
             0    2.657905   -0.678300
             1   -6.761319   -2.404728
 pspatm: atomic psp has been read  and splines computed

- pspini: atom type   2  psp file is /scratch/users/j/a/jabreu/pseudos/PBEsol/N.psp8
- pspatm: opening atomic psp file    /scratch/users/j/a/jabreu/pseudos/PBEsol/N.psp8
- N     ONCVPSP-3.3.0  r_core=   1.20551   1.35824
-  7.00000   5.00000    180112                znucl, zion, pspdat
    8 -116133    1    4       600   0.00000   pspcod,pspxc,lmax,lloc,mmax,r2well
    5.99000000000000    4.00000000000000    0.00000000000000   rchrg,fchrg,qchrg
     nproj     2     2
     extension_switch     1
  pspatm : epsatm=    5.26508895
         --- l  ekb(1:nproj) -->
             0    7.464189    0.625868
             1   -4.309714   -1.012941
 pspatm: atomic psp has been read  and splines computed

   6.02977198E+02                                ecore*ucvol(ha*bohr**3)

-inwffil : will read wavefunctions from disk file /scratch/users/j/a/jabreu/flow_simple_4atoms/flow/w215/t1/indata/in_WFK

 ==>  initialize data related to q vector <==

 The list of irreducible perturbations for this q vector is:
    1)    idir= 1    ipert=   5
    2)    idir= 2    ipert=   5
    3)    idir= 3    ipert=   5

 Perturbation wavevector (in red.coord.)   0.000000  0.000000  0.000000
 Perturbation : derivative vs k along direction   1

 dfpt_looppert : COMMENT -
  In a d/dk calculation, iscf is set to -3 automatically.
 The set of symmetries contains only one element for this perturbation.
 symkpt : not enough symmetry to change the number of k points.

[...]

 Initialisation of the first-order wave-functions :
  ireadwf=   0

--- !BeginCycle
iteration_state: {dtset: 1, }
solver: {iscf: 7, nstep: 100, nline: 4, wfoptalg: 0, }
tolerances: {tolwfr: 1.00E-20, }
...

     iter   2DEtotal(Ha)        deltaE(Ha) residm    vres2
-ETOT  1  -30.859712994014     -3.086E+01 1.493E-01 0.000E+00
 ETOT  2  -30.871050152498     -1.134E-02 7.981E-04 0.000E+00
 ETOT  3  -30.871055714308     -5.562E-06 1.266E-05 0.000E+00
 ETOT  4  -30.871055728527     -1.422E-08 1.073E-07 0.000E+00
 ETOT  5  -30.871055728575     -4.729E-11 3.550E-09 0.000E+00
 ETOT  6  -30.871055728575     -1.990E-13 3.271E-11 0.000E+00
 ETOT  7  -30.871055728575      1.066E-14 1.241E-12 0.000E+00
 ETOT  8  -30.871055728575     -7.105E-15 1.017E-14 0.000E+00
 ETOT  9  -30.871055728575      0.000E+00 4.757E-16 0.000E+00
 ETOT 10  -30.871055728575     -3.553E-15 3.891E-18 0.000E+00
 ETOT 11  -30.871055728575      0.000E+00 2.056E-19 0.000E+00
 ETOT 12  -30.871055728575      1.066E-14 9.807E-21 0.000E+00

 At SCF step   12   max residual=  9.81E-21 < tolwfr=  1.00E-20 =>converged.

 ----iterations are completed or convergence reached----

 dfpt_looppert: DFPT cycle converged with prtwf=-1. Will skip output of the 1st-order WFK file.
 dfpt_looppert : ek2=    5.5661912144E+01
          f-sum rule ratio=    1.0252518668E+00
 prteigrs : about to open file /scratch/users/j/a/jabreu/flow_simple_4atoms/flow/w215/t1/tmpdata/tmp_1WF1_EIG
 Expectation of eigenvalue derivatives (hartree) for nkpt=   2  k points:
  (in case of degenerate eigenvalues, averaged derivative)
 kpt#   1, nband= 21, wtk=  0.50000, kpt=  0.5000  0.5000  0.5000 (reduced coord)
   0.00000   -0.00000   -0.00000   -0.00000    0.00000    0.00000   -0.00000   -0.00000
  -0.00000    0.00000    0.00000    0.00000    0.00000    0.00000    0.00000   -0.00000
  -0.00000    0.00000   -0.00000   -0.00000   -0.00000
 prteigrs : prtvol=0 or 1, do not print more k-points.

 Eight components of 2nd-order total energy (hartree) are
 1,2,3: 0th-order hamiltonian combined with 1st-order wavefunctions
     kin0=   3.43836759E+01 eigvalue=   3.95592497E+00  local=  -1.30512778E+01
 4,5,6: 1st-order hamiltonian combined with 1st and 0th-order wfs
     kin1=  -5.70674793E+01  Hartree=   0.00000000E+00     xc=   0.00000000E+00
 7,8,9: eventually, occupation + non-local contributions
    edocc=   6.86802474E+00     enl0=  -1.28529217E+00   enl1=  -4.67463212E+00
 1-9 gives the relaxation energy (to be shifted if some occ is /=2.0)
   erelax=  -3.08710557E+01
  No Ewald or frozen-wf contrib.: the relaxation energy is the total one
 2DEtotal=   -0.3087105573E+02 Ha. Also 2DEtotal=   -0.840044147594E+03 eV
    (  non-var. 2DEtotal :   -3.0871055729E+01 Ha)

 Perturbation wavevector (in red.coord.)   0.000000  0.000000  0.000000
 Perturbation : derivative vs k along direction   2
 The set of symmetries contains only one element for this perturbation.
 symkpt : not enough symmetry to change the number of k points.

[...]

 Perturbation wavevector (in red.coord.)   0.000000  0.000000  0.000000
 Perturbation : derivative vs k along direction   3
 The set of symmetries contains only one element for this perturbation.
 symkpt : not enough symmetry to change the number of k points.

-inwffil : will read wavefunctions from disk file /scratch/users/j/a/jabreu/flow_simple_4atoms/flow/w215/t1/indata/in_WFK

 Initialisation of the first-order wave-functions :
  ireadwf=   0

--- !BeginCycle
iteration_state: {dtset: 1, }
solver: {iscf: 7, nstep: 100, nline: 4, wfoptalg: 0, }
tolerances: {tolwfr: 1.00E-20, }
...

     iter   2DEtotal(Ha)        deltaE(Ha) residm    vres2
-ETOT  1  -32.022317217515     -3.202E+01 1.290E-01 0.000E+00
 ETOT  2  -32.031217622185     -8.900E-03 8.150E-04 0.000E+00
 ETOT  3  -32.031224676731     -7.055E-06 1.222E-05 0.000E+00
 ETOT  4  -32.031224694780     -1.805E-08 1.261E-07 0.000E+00
 ETOT  5  -32.031224694841     -6.006E-11 3.734E-09 0.000E+00
 ETOT  6  -32.031224694841     -1.776E-13 4.347E-11 0.000E+00
 ETOT  7  -32.031224694841     -2.842E-14 1.397E-12 0.000E+00
 ETOT  8  -32.031224694841      2.132E-14 1.532E-14 0.000E+00
 ETOT  9  -32.031224694841     -7.105E-15 5.584E-16 0.000E+00
 ETOT 10  -32.031224694841      1.421E-14 5.973E-18 0.000E+00
 ETOT 11  -32.031224694841     -7.105E-15 2.498E-19 0.000E+00
 ETOT 12  -32.031224694841      7.105E-15 9.694E-21 0.000E+00

 At SCF step   12   max residual=  9.69E-21 < tolwfr=  1.00E-20 =>converged.

 ----iterations are completed or convergence reached----

 dfpt_looppert: DFPT cycle converged with prtwf=-1. Will skip output of the 1st-order WFK file.
 dfpt_looppert : ek2=    5.5661912145E+01
          f-sum rule ratio=    1.0688046473E+00
 prteigrs : about to open file /scratch/users/j/a/jabreu/flow_simple_4atoms/flow/w215/t1/tmpdata/tmp_1WF1_EIG
 Expectation of eigenvalue derivatives (hartree) for nkpt=   2  k points:
  (in case of degenerate eigenvalues, averaged derivative)
 kpt#   1, nband= 21, wtk=  0.50000, kpt=  0.5000  0.5000  0.5000 (reduced coord)
  -0.00000   -0.00000   -0.00000   -0.00000   -0.00000    0.00000    0.00000    0.00000
   0.00000    0.00000   -0.00000   -0.00000   -0.00000   -0.00000   -0.00000   -0.00000
   0.00000    0.00000   -0.00000   -0.00000   -0.00000
 prteigrs : prtvol=0 or 1, do not print more k-points.

 Eight components of 2nd-order total energy (hartree) are
 1,2,3: 0th-order hamiltonian combined with 1st-order wavefunctions
     kin0=   3.30643575E+01 eigvalue=   3.78328955E+00  local=  -1.23778473E+01
 4,5,6: 1st-order hamiltonian combined with 1st and 0th-order wfs
     kin1=  -5.94917104E+01  Hartree=   0.00000000E+00     xc=   0.00000000E+00
 7,8,9: eventually, occupation + non-local contributions
    edocc=   8.98875909E+00     enl0=  -1.42733409E+00   enl1=  -4.57073901E+00
 1-9 gives the relaxation energy (to be shifted if some occ is /=2.0)
   erelax=  -3.20312247E+01
  No Ewald or frozen-wf contrib.: the relaxation energy is the total one
 2DEtotal=   -0.3203122469E+02 Ha. Also 2DEtotal=   -0.871613950677E+03 eV
    (  non-var. 2DEtotal :   -3.2031224695E+01 Ha)

 CALCULATION OF EFFECTIVE MASSES
 NOTE : Additional infos (eff. mass eigenvalues, eigenvectors and, if degenerate, average mass) are available in stdout.

 COMMENTS:
 - At k-point ( 0.500, 0.500, 0.500), bands    11 through    12
   are DEGENERATE (effective mass tensor is therefore not defined).
   See Section IIIB Eqs. (67)-(70) and Appendix E of PRB 93 205147 (2016).
 - Angular average effective mass for Frohlich model is to be averaged over degenerate bands. See later.
 - Associated theta integrals calculated with ntheta=   1000 points.

 K-point ( 0.500, 0.500, 0.500) | band =    11
 Transport equivalent effective mass tensor:
             -1.4750008515             -0.1136091719             -0.5197136780
             -0.1136091719             -1.3640640460             -0.3246027485
             -0.5197136780             -0.3246027485             -2.7780309398
 Transport equivalent effective mass tensor eigenvalues:
             -3.0308848838             -1.2931063511             -1.2931046024
 Angular average effective mass 1/(<1/m>)=  -1.4812630281
 Angular average effective mass for Frohlich model (<m**0.5>)**2=  -1.5439653218
 Effective masses along directions: (cart. coord. / red. coord. -> eff. mass)
    1:   1.000000  0.000000  0.000000 /   0.915736  0.401781  0.000000 ->  -1.2583415512
    2:   0.000000  1.000000  0.000000 /   0.000000  1.000000  0.000000 ->  -1.1826593335
    3:   0.000000  0.000000  1.000000 /   0.524407  0.524407  0.670816 ->  -2.0995984003
    4:   0.577350  0.577350  0.577350 /   0.594634  0.683650  0.423124 ->  -2.0891722913
    5:   0.000000  0.707107  0.707107 /   0.423190  0.726541  0.541340 ->  -1.7467342358
    6:   0.707107  0.000000  0.707107 /   0.695004  0.521916  0.494544 ->  -1.9150999267
    7:   0.707107  0.707107  0.000000 /   0.598842  0.800867  0.000000 ->  -1.3919465503

 K-point ( 0.500, 0.500, 0.500) | band =    12
 Transport equivalent effective mass tensor:
             -8.5008723543              0.1927891854              0.8819475802
              0.1927891854             -8.6891211621              0.5508444331
              0.8819475802              0.5508444331             -6.2896488835
 Transport equivalent effective mass tensor eigenvalues:
             -8.8095484467             -8.8095343259             -5.8605596273
 Angular average effective mass 1/(<1/m>)=  -4.6149270377
 Angular average effective mass for Frohlich model (<m**0.5>)**2=  -4.9001312514
 Effective masses along directions: (cart. coord. / red. coord. -> eff. mass)
    1:   1.000000  0.000000  0.000000 /   0.915736  0.401781  0.000000 ->  -5.9015924922
    2:   0.000000  1.000000  0.000000 /   0.000000  1.000000  0.000000 ->  -7.2050586389
    3:   0.000000  0.000000  1.000000 /   0.524407  0.524407  0.670816 ->  -3.9904940058
    4:   0.577350  0.577350  0.577350 /   0.594634  0.683650  0.423124 ->  -3.3687579025
    5:   0.000000  0.707107  0.707107 /   0.423190  0.726541  0.541340 ->  -4.4641338607
    6:   0.707107  0.000000  0.707107 /   0.695004  0.521916  0.494544 ->  -4.3723433818
    7:   0.707107  0.707107  0.000000 /   0.598842  0.800867  0.000000 ->  -4.2528218436

 Angular average effective mass for Frohlich model, averaged over degenerate bands.
 Value of     (<<m**0.5>>)**2 =     2.986309E+00
 Absolute Value of <<m**0.5>> =     1.728094E+00

 K-point ( 0.500, 0.000, 0.000) | band =    13
 Effective mass tensor:
              1.5714816054              0.3502878101             -0.1475348792
              0.3502878101              2.0901289432             -0.3729558260
             -0.1475348792             -0.3729558260              1.2636009774
 Effective mass tensor eigenvalues:
              1.1197473638              1.3990475375              2.4064166247
 Angular average effective mass 1/(<1/m>)=   1.4826630552
 Angular average effective mass for Frohlich model (<m**0.5>)**2=   1.5248983906
 Effective masses along directions: (cart. coord. / red. coord. -> eff. mass)
    1:   1.000000  0.000000  0.000000 /   0.915736  0.401781  0.000000 ->   1.5067363357
    2:   0.000000  1.000000  0.000000 /   0.000000  1.000000  0.000000 ->   1.9195122523
    3:   0.000000  0.000000  1.000000 /   0.524407  0.524407  0.670816 ->   1.1922725172
    4:   0.577350  0.577350  0.577350 /   0.594634  0.683650  0.423124 ->   1.3663925239
    5:   0.000000  0.707107  0.707107 /   0.423190  0.726541  0.541340 ->   1.2171222042
    6:   0.707107  0.000000  0.707107 /   0.695004  0.521916  0.494544 ->   1.2525769435
    7:   0.707107  0.707107  0.000000 /   0.598842  0.800867  0.000000 ->   2.0428593567

 END OF EFFECTIVE MASSES SECTION

 ---- first-order wavefunction calculations are completed ----

 Total localisation tensor (bohr^2) in cartesian coordinates
  WARNING : still subject to testing - especially symmetries.
      direction              matrix element
   alpha     beta       real part   imaginary part
     1        1       0.7458087883    0.0000000000
     1        2       0.2667830040    0.0000000000
     1        3       1.1438292291    0.0000000000
     2        1       0.2667830040    0.0000000000
     2        2       0.5463979766    0.0000000000
     2        3       0.7622513271    0.0000000000
     3        1       1.1438292291    0.0000000000
     3        2       0.7622513271    0.0000000000
     3        3       3.7707750314    0.0000000000

 respfn : d/dk was computed, but no 2DTE, so no DDB output.

== END DATASET(S) ==============================================================

 -outvars: echo values of variables after computation  --------
            acell      1.0000000000E+00  1.0000000000E+00  1.0000000000E+00 Bohr
              amu      2.29897680E+01  1.40067400E+01
             ecut      4.40000000E+01 Hartree
           etotal     -3.2031224695E+01
            fcart      0.0000000000E+00  0.0000000000E+00  0.0000000000E+00
                       0.0000000000E+00  0.0000000000E+00  0.0000000000E+00
                       0.0000000000E+00  0.0000000000E+00  0.0000000000E+00
                       0.0000000000E+00  0.0000000000E+00  0.0000000000E+00
-          fftalg         512
           irdden           1
           irdwfk           1
           istwfk        1    1
              ixc     -116133
              kpt      5.00000000E-01  5.00000000E-01  5.00000000E-01
                       5.00000000E-01  0.00000000E+00  0.00000000E+00
           kptopt           0
P           mkmem           2
P          mkqmem           2
P          mk1mem           2
            natom           4
            nband          21
           nbdbuf           4
            ngfft          64      64      64
             nkpt           2
            nstep         100
             nsym          12
           ntypat           2
              occ      2.000000  2.000000  2.000000  2.000000  2.000000  2.000000
                       2.000000  2.000000  2.000000  2.000000  2.000000  2.000000
                       0.000000  0.000000  0.000000  0.000000  0.000000  0.000000
                       0.000000  0.000000  0.000000
        optdriver           1
            prtwf          -1
            rfdir           1       1       1
           rfelfd           2
            rprim      6.4930854521E+00  0.0000000000E+00  8.1397400039E+00
                       2.8488560310E+00  5.8347388975E+00  8.1397400039E+00
                       0.0000000000E+00  0.0000000000E+00  1.0412277658E+01
          spgroup         166
           strten      0.0000000000E+00  0.0000000000E+00  0.0000000000E+00
                       0.0000000000E+00  0.0000000000E+00  0.0000000000E+00
           symrel      1  0  0   0  1  0   0  0  1      -1  0  0   0 -1  0   0  0 -1
                       0  1  0   1  0  0   0  0  1       0 -1  0  -1  0  0   0  0 -1
                       0  0  1   1  0  0   0  1  0       0  0 -1  -1  0  0   0 -1  0
                       1  0  0   0  0  1   0  1  0      -1  0  0   0  0 -1   0 -1  0
                       0  1  0   0  0  1   1  0  0       0 -1  0   0  0 -1  -1  0  0
                       0  0  1   0  1  0   1  0  0       0  0 -1   0 -1  0  -1  0  0
           tolwfr      1.00000000E-20
            typat      1  2  2  2
           useylm           1
              wtk        0.50000    0.50000
           xangst      0.0000000000E+00  0.0000000000E+00  0.0000000000E+00
                       2.8542976348E+00  1.7827216607E+00  8.1552877324E+00
                       2.4717712584E+00  1.5438054213E+00  7.0623349069E+00
                       2.0892448820E+00  1.3048891819E+00  5.9693820814E+00
            xcart      0.0000000000E+00  0.0000000000E+00  0.0000000000E+00
                       5.3938408316E+00  3.3688557099E+00  1.5411260349E+01
                       4.6709707415E+00  2.9173694487E+00  1.3345878833E+01
                       3.9481006515E+00  2.4658831876E+00  1.1280497316E+01
             xred      0.0000000000E+00  0.0000000000E+00  0.0000000000E+00
                       5.7737900000E-01  5.7737900000E-01  5.7737900000E-01
                       5.0000000000E-01  5.0000000000E-01  5.0000000000E-01
                       4.2262100000E-01  4.2262100000E-01  4.2262100000E-01
            znucl       11.00000    7.00000

- Timing analysis has been suppressed with timopt=0

 Suggested references for the acknowledgment of ABINIT usage.

 Calculation completed.
.Delivered  14 WARNINGs and   9 COMMENTs to log file.