.Version 9.5.1 of ABINIT

 ABINIT is a project of the Universite Catholique de Louvain,
 Corning Inc. and other collaborators, see ~abinit/doc/developers/contributors.txt .
 acknowledgments of the ABINIT effort.

.Starting date : Tue 27 Apr 2021.
- ( at 18h36 )

- input  file    -> /scratch/users/j/a/jabreu/flow_simple_4atoms/flow/w203/t1/run.abi
- output file    -> /scratch/users/j/a/jabreu/flow_simple_4atoms/flow/w203/t1/run.abo
- root for input  files -> /scratch/users/j/a/jabreu/flow_simple_4atoms/flow/w203/t1/indata/in
- root for output files -> /scratch/users/j/a/jabreu/flow_simple_4atoms/flow/w203/t1/outdata/out

 Symmetries : space group P6_3 m c (#186); Bravais hP (primitive hexag.)
     intxc =       0      iscf =       7    lmnmax =      18     lnmax =       6
     mgfft =      90  mpssoang =       3    mqgrid =    4163     natom =       4
  nloc_mem =       1    nspden =       1   nspinor =       1    nsppol =       1
      nsym =      12    n1xccc =    2501    ntypat =       2    occopt =       1
   xclevel =       2
-    mband =          35        mffmem =           1         mkmem =           1
-   mkqmem =           1        mk1mem =           1           mpw =       12287
      nfft =      262440          nkpt =           1
  Rough estimation (10% accuracy) of disk space for files :

------------- Echo of variables that govern the present computation ------------
-
- outvars: echo of selected default values
-   iomode0 =  0 , fftalg0 =512 , wfoptalg0 =  0
-
- outvars: echo of global parameters not present in the input file
-  max_nthreads =    0
-
 -outvars: echo values of preprocessed input variables --------
            acell      1.0000000000E+00  1.0000000000E+00  1.0000000000E+00 Bohr
              amu      1.07868200E+02  1.26904470E+02
             ecut      4.30000000E+01 Hartree
-          fftalg         512
           irdden           1
           irdwfk           1
           istwfk        1
              ixc     -116133
           kptopt           0
P           mkmem           1
P          mkqmem           1
P          mk1mem           1
            natom           4
            nband          35
           nbdbuf           4
            ngfft          54      54      90
             nkpt           1
            nstep         100
             nsym          12
           ntypat           2
              occ      2.000000  2.000000  2.000000  2.000000  2.000000  2.000000
                       2.000000  2.000000  2.000000  2.000000  2.000000  2.000000
                       2.000000  2.000000  2.000000  2.000000  2.000000  2.000000
                       2.000000  2.000000  2.000000  2.000000  2.000000  2.000000
                       2.000000  2.000000  0.000000  0.000000  0.000000  0.000000
                       0.000000  0.000000  0.000000  0.000000  0.000000
        optdriver           1
            prtwf          -1
            rfdir           1       1       1
           rfelfd           2
            rprim      8.6298166964E+00  0.0000000000E+00  0.0000000000E+00
                      -4.3149083482E+00  7.4736404891E+00  0.0000000000E+00
                       0.0000000000E+00  0.0000000000E+00  1.4101459315E+01
          spgroup         186
           symrel      1  0  0   0  1  0   0  0  1       0  1  0   1  0  0   0  0  1
                       1  1  0  -1  0  0   0  0  1      -1  0  0   1  1  0   0  0  1
                       0  1  0  -1 -1  0   0  0  1      -1 -1  0   0  1  0   0  0  1
                      -1  0  0   0 -1  0   0  0  1       0 -1  0  -1  0  0   0  0  1
                      -1 -1  0   1  0  0   0  0  1       1  0  0  -1 -1  0   0  0  1
                       0 -1  0   1  1  0   0  0  1       1  1  0   0 -1  0   0  0  1
            tnons      0.0000000  0.0000000  0.0000000     0.0000000 -0.0000000  0.5000000
                      -0.0000000 -0.0000000  0.5000000     0.0000000  0.0000000  0.0000000
                      -0.0000000 -0.0000000  0.0000000    -0.0000000 -0.0000000  0.5000000
                      -0.0000000 -0.0000000  0.5000000    -0.0000000 -0.0000000  0.0000000
                       0.0000000 -0.0000000  0.0000000    -0.0000000 -0.0000000  0.5000000
                       0.0000000 -0.0000000  0.5000000     0.0000000 -0.0000000  0.0000000
           tolwfr      1.00000000E-20
            typat      1  1  2  2
           useylm           1
           xangst      0.0000000000E+00  2.6365868080E+00  1.8013680498E-02
                       2.2833511550E+00  1.3182934040E+00  3.7490991192E+00
                       0.0000000000E+00  2.6365868080E+00  2.8168650358E+00
                       2.2833511550E+00  1.3182934040E+00  6.5479504745E+00
            xcart      0.0000000000E+00  4.9824269927E+00  3.4040922786E-02
                       4.3149083482E+00  2.4912134964E+00  7.0847705803E+00
                       0.0000000000E+00  4.9824269927E+00  5.3231034710E+00
                       4.3149083482E+00  2.4912134964E+00  1.2373833128E+01
             xred      3.3333333333E-01  6.6666666667E-01  2.4140000000E-03
                       6.6666666667E-01  3.3333333333E-01  5.0241400000E-01
                       3.3333333333E-01  6.6666666667E-01  3.7748600000E-01
                       6.6666666667E-01  3.3333333333E-01  8.7748600000E-01
            znucl       47.00000   53.00000

 chkinp: Checking input parameters for consistency.

== DATASET  1 ==================================================================
-   mpi_nproc: 1, omp_nthreads: -1 (-1 if OMP is not activated)

--- !DatasetInfo
iteration_state: {dtset: 1, }
dimensions: {natom: 4, nkpt: 1, mband: 35, nsppol: 1, nspinor: 1, nspden: 1, mpw: 12287, }
cutoff_energies: {ecut:  43.0, pawecutdg:  -1.0, }
electrons: {nelect:   5.20000000E+01, charge:   0.00000000E+00, occopt:   1.00000000E+00, tsmear:   1.00000000E-02, }
meta: {optdriver: 1, rfelfd: 2, }
...

 Real(R)+Recip(G) space primitive vectors, cartesian coordinates (Bohr,Bohr^-1):
 R(1)=  8.6298167  0.0000000  0.0000000  G(1)=  0.1158773  0.0669018  0.0000000
 R(2)= -4.3149083  7.4736405  0.0000000  G(2)=  0.0000000  0.1338036  0.0000000
 R(3)=  0.0000000  0.0000000 14.1014593  G(3)=  0.0000000  0.0000000  0.0709146
 Unit cell volume ucvol=  9.0948980E+02 bohr^3
 Angles (23,13,12)=  9.00000000E+01  9.00000000E+01  1.20000000E+02 degrees

 getcut: wavevector=  0.0000  0.0000  0.0000  ngfft=  54  54  90
         ecut(hartree)=     43.000   => boxcut(ratio)=   2.12027

--- Pseudopotential description ------------------------------------------------
- pspini: atom type   1  psp file is /scratch/users/j/a/jabreu/pseudos/PBEsol/Ag.psp8
- pspatm: opening atomic psp file    /scratch/users/j/a/jabreu/pseudos/PBEsol/Ag.psp8
- Ag    ONCVPSP-3.3.0  r_core=   1.41384   1.46535   1.61207
- 47.00000  19.00000    180112                znucl, zion, pspdat
    8 -116133    2    4       600   0.00000   pspcod,pspxc,lmax,lloc,mmax,r2well
    5.99000000000000    7.00000000000000    0.00000000000000   rchrg,fchrg,qchrg
     nproj     2     2     2
     extension_switch     1
  pspatm : epsatm=   27.64581383
         --- l  ekb(1:nproj) -->
             0    9.559407   -0.398585
             1    3.418858   -0.136622
             2   -1.644397   -0.401551
 pspatm: atomic psp has been read  and splines computed

- pspini: atom type   2  psp file is /scratch/users/j/a/jabreu/pseudos/PBEsol/I.psp8
- pspatm: opening atomic psp file    /scratch/users/j/a/jabreu/pseudos/PBEsol/I.psp8
- I     ONCVPSP-3.3.0  r_core=   2.02042   2.17032   2.27639
- 53.00000   7.00000    180112                znucl, zion, pspdat
    8 -116133    2    4       600   0.00000   pspcod,pspxc,lmax,lloc,mmax,r2well
    5.99000000000000    4.00000000000000    0.00000000000000   rchrg,fchrg,qchrg
     nproj     2     2     2
     extension_switch     1
  pspatm : epsatm=   18.14229533
         --- l  ekb(1:nproj) -->
             0    6.015861    0.935228
             1    4.063749    0.754139
             2    4.149534    0.722940
 pspatm: atomic psp has been read  and splines computed

   4.76196335E+03                                ecore*ucvol(ha*bohr**3)

-inwffil : will read wavefunctions from disk file /scratch/users/j/a/jabreu/flow_simple_4atoms/flow/w203/t1/indata/in_WFK

 ==>  initialize data related to q vector <==

 The list of irreducible perturbations for this q vector is:
    1)    idir= 1    ipert=   5
    2)    idir= 2    ipert=   5
    3)    idir= 3    ipert=   5

 Perturbation wavevector (in red.coord.)   0.000000  0.000000  0.000000
 Perturbation : derivative vs k along direction   1

 dfpt_looppert : COMMENT -
  In a d/dk calculation, iscf is set to -3 automatically.
 The set of symmetries contains only one element for this perturbation.
 symkpt : not enough symmetry to change the number of k points.

[...]

 Initialisation of the first-order wave-functions :
  ireadwf=   0

--- !BeginCycle
iteration_state: {dtset: 1, }
solver: {iscf: 7, nstep: 100, nline: 4, wfoptalg: 0, }
tolerances: {tolwfr: 1.00E-20, }
...

     iter   2DEtotal(Ha)        deltaE(Ha) residm    vres2
-ETOT  1  -55.245919957192     -5.525E+01 3.241E-02 0.000E+00
 ETOT  2  -55.282614809787     -3.669E-02 2.509E-04 0.000E+00
 ETOT  3  -55.282749505208     -1.347E-04 8.184E-07 0.000E+00
 ETOT  4  -55.282750409974     -9.048E-07 6.292E-09 0.000E+00
 ETOT  5  -55.282750418618     -8.644E-09 3.299E-11 0.000E+00
 ETOT  6  -55.282750418720     -1.020E-10 7.853E-13 0.000E+00
 ETOT  7  -55.282750418722     -1.300E-12 7.287E-15 0.000E+00
 ETOT  8  -55.282750418722     -4.263E-14 1.972E-16 0.000E+00
 ETOT  9  -55.282750418722      2.842E-14 1.897E-18 0.000E+00
 ETOT 10  -55.282750418722     -2.132E-14 5.139E-20 0.000E+00
 ETOT 11  -55.282750418722      5.684E-14 9.309E-21 0.000E+00

 At SCF step   11   max residual=  9.31E-21 < tolwfr=  1.00E-20 =>converged.

 ----iterations are completed or convergence reached----

 dfpt_looppert: DFPT cycle converged with prtwf=-1. Will skip output of the 1st-order WFK file.
 dfpt_looppert : ek2=    7.3506995255E+01
          f-sum rule ratio=    1.3937357363E+00
 prteigrs : about to open file /scratch/users/j/a/jabreu/flow_simple_4atoms/flow/w203/t1/tmpdata/tmp_1WF1_EIG
 Expectation of eigenvalue derivatives (hartree) for nkpt=   1  k points:
  (in case of degenerate eigenvalues, averaged derivative)
 kpt#   1, nband= 35, wtk=  1.00000, kpt=  0.0000  0.0000  0.0000 (reduced coord)
   0.00000    0.00000   -0.00000   -0.00000   -0.00000    0.00000    0.00000   -0.00000
  -0.00000    0.00000   -0.00000    0.00000    0.00000    0.00000    0.00000    0.00000
   0.00000    0.00000    0.00000    0.00000   -0.00000    0.00000    0.00000    0.00000
  -0.00000   -0.00000    0.00000   -0.00000   -0.00000   -0.00000   -0.00000    0.00000
   0.00000   -0.00000   -0.02742

 Eight components of 2nd-order total energy (hartree) are
 1,2,3: 0th-order hamiltonian combined with 1st-order wavefunctions
     kin0=   5.31552648E+01 eigvalue=   4.84755860E-01  local=  -2.70406994E+01
 4,5,6: 1st-order hamiltonian combined with 1st and 0th-order wfs
     kin1=  -1.02449326E+02  Hartree=   0.00000000E+00     xc=   0.00000000E+00
 7,8,9: eventually, occupation + non-local contributions
    edocc=   2.60383025E+01     enl0=   2.64512663E+00   enl1=  -8.11617468E+00
 1-9 gives the relaxation energy (to be shifted if some occ is /=2.0)
   erelax=  -5.52827504E+01
  No Ewald or frozen-wf contrib.: the relaxation energy is the total one
 2DEtotal=   -0.5528275042E+02 Ha. Also 2DEtotal=   -0.150432014248E+04 eV
    (  non-var. 2DEtotal :   -5.5282750418E+01 Ha)

 Perturbation wavevector (in red.coord.)   0.000000  0.000000  0.000000
 Perturbation : derivative vs k along direction   2
 The set of symmetries contains only one element for this perturbation.
 symkpt : not enough symmetry to change the number of k points.

[...]

 Perturbation wavevector (in red.coord.)   0.000000  0.000000  0.000000
 Perturbation : derivative vs k along direction   3
 The set of symmetries contains only one element for this perturbation.
 symkpt : not enough symmetry to change the number of k points.

-inwffil : will read wavefunctions from disk file /scratch/users/j/a/jabreu/flow_simple_4atoms/flow/w203/t1/indata/in_WFK

 Initialisation of the first-order wave-functions :
  ireadwf=   0

--- !BeginCycle
iteration_state: {dtset: 1, }
solver: {iscf: 7, nstep: 100, nline: 4, wfoptalg: 0, }
tolerances: {tolwfr: 1.00E-20, }
...

     iter   2DEtotal(Ha)        deltaE(Ha) residm    vres2
-ETOT  1  -13.196006480751     -1.320E+01 6.637E-03 0.000E+00
 ETOT  2  -13.202125394742     -6.119E-03 6.144E-05 0.000E+00
 ETOT  3  -13.202145197326     -1.980E-05 1.359E-07 0.000E+00
 ETOT  4  -13.202145332346     -1.350E-07 7.272E-10 0.000E+00
 ETOT  5  -13.202145333567     -1.221E-09 7.928E-12 0.000E+00
 ETOT  6  -13.202145333580     -1.293E-11 1.000E-13 0.000E+00
 ETOT  7  -13.202145333580     -1.403E-13 1.380E-15 0.000E+00
 ETOT  8  -13.202145333580     -3.730E-14 2.075E-17 0.000E+00
 ETOT  9  -13.202145333580      7.105E-15 3.077E-19 0.000E+00
 ETOT 10  -13.202145333580     -1.066E-14 9.943E-21 0.000E+00

 At SCF step   10   max residual=  9.94E-21 < tolwfr=  1.00E-20 =>converged.

 ----iterations are completed or convergence reached----

 dfpt_looppert: DFPT cycle converged with prtwf=-1. Will skip output of the 1st-order WFK file.
 dfpt_looppert : ek2=    2.0647380372E+01
          f-sum rule ratio=    1.1788625472E+00
 prteigrs : about to open file /scratch/users/j/a/jabreu/flow_simple_4atoms/flow/w203/t1/tmpdata/tmp_1WF1_EIG
 Expectation of eigenvalue derivatives (hartree) for nkpt=   1  k points:
  (in case of degenerate eigenvalues, averaged derivative)
 kpt#   1, nband= 35, wtk=  1.00000, kpt=  0.0000  0.0000  0.0000 (reduced coord)
   0.00000    0.00000   -0.00000   -0.00000   -0.00000   -0.00000   -0.00000    0.00000
   0.00000    0.00000   -0.00000   -0.00000   -0.00000    0.00000   -0.00000   -0.00000
   0.00000    0.00000   -0.00000   -0.00000    0.00000    0.00000    0.00000   -0.00000
  -0.00000   -0.00000   -0.00000    0.00000    0.00000    0.00000    0.00000   -0.00000
  -0.00000    0.00000    0.00001

 Eight components of 2nd-order total energy (hartree) are
 1,2,3: 0th-order hamiltonian combined with 1st-order wavefunctions
     kin0=   1.59223582E+01 eigvalue=   9.80849405E-02  local=  -8.25163889E+00
 4,5,6: 1st-order hamiltonian combined with 1st and 0th-order wfs
     kin1=  -2.43404234E+01  Hartree=   0.00000000E+00     xc=   0.00000000E+00
 7,8,9: eventually, occupation + non-local contributions
    edocc=   4.53473111E+00     enl0=   8.98609931E-01   enl1=  -2.06386725E+00
 1-9 gives the relaxation energy (to be shifted if some occ is /=2.0)
   erelax=  -1.32021453E+01
  No Ewald or frozen-wf contrib.: the relaxation energy is the total one
 2DEtotal=   -0.1320214533E+02 Ha. Also 2DEtotal=   -0.359248644448E+03 eV
    (  non-var. 2DEtotal :   -1.3202145334E+01 Ha)

 CALCULATION OF EFFECTIVE MASSES
 NOTE : Additional infos (eff. mass eigenvalues, eigenvectors and, if degenerate, average mass) are available in stdout.

 COMMENTS:
 - At k-point ( 0.000, 0.000, 0.000), bands    25 through    26
   are DEGENERATE (effective mass tensor is therefore not defined).
   See Section IIIB Eqs. (67)-(70) and Appendix E of PRB 93 205147 (2016).
 - Angular average effective mass for Frohlich model is to be averaged over degenerate bands. See later.
 - Associated theta integrals calculated with ntheta=   1000 points.

 K-point ( 0.000, 0.000, 0.000) | band =    25
 Transport equivalent effective mass tensor:
             -0.1678140156             -0.0000246727              0.0001073160
             -0.0000246727             -0.1678617544              0.0000389503
              0.0001073160              0.0000389503             -1.3672130448
 Transport equivalent effective mass tensor eigenvalues:
             -1.3672130557             -0.1678722091             -0.1678035500
 Angular average effective mass 1/(<1/m>)=  -0.2371956781
 Angular average effective mass for Frohlich model (<m**0.5>)**2=  -0.2814290829
 Effective masses along directions: (cart. coord. / red. coord. -> eff. mass)
    1:   1.000000  0.000000  0.000000 /   0.894427 -0.447214  0.000000 ->  -0.1678332584
    2:   0.000000  1.000000  0.000000 /   0.000000  1.000000  0.000000 ->  -0.1678386577
    3:   0.000000  0.000000  1.000000 /   0.000000  0.000000  1.000000 ->  -1.3649995612
    4:   0.577350  0.577350  0.577350 /   0.512715  0.187667  0.837797 ->  -0.2371809768
    5:   0.000000  0.707107  0.707107 /   0.000000  0.468287  0.883576 ->  -0.2989855532
    6:   0.707107  0.000000  0.707107 /   0.505071 -0.252535  0.825306 ->  -0.2988984938
    7:   0.707107  0.707107  0.000000 /   0.939071  0.343724  0.000000 ->  -0.1678356952

 K-point ( 0.000, 0.000, 0.000) | band =    26
 Transport equivalent effective mass tensor:
             -1.3711175493              0.0002053003              0.0001706733
              0.0002053003             -1.3707689794             -0.0001134836
              0.0001706733             -0.0001134836             -1.3672844927
 Transport equivalent effective mass tensor eigenvalues:
             -1.3712229880             -1.3706742452             -1.3672737881
 Angular average effective mass 1/(<1/m>)=  -1.3697175305
 Angular average effective mass for Frohlich model (<m**0.5>)**2=  -1.3697182649
 Effective masses along directions: (cart. coord. / red. coord. -> eff. mass)
    1:   1.000000  0.000000  0.000000 /   0.894427 -0.447214  0.000000 ->  -1.3709433500
    2:   0.000000  1.000000  0.000000 /   0.000000  1.000000  0.000000 ->  -1.3709433305
    3:   0.000000  0.000000  1.000000 /   0.000000  0.000000  1.000000 ->  -1.3695443743
    4:   0.577350  0.577350  0.577350 /   0.512715  0.187667  0.837797 ->  -1.3693581580
    5:   0.000000  0.707107  0.707107 /   0.000000  0.468287  0.883576 ->  -1.3687095437
    6:   0.707107  0.000000  0.707107 /   0.505071 -0.252535  0.825306 ->  -1.3695104576
    7:   0.707107  0.707107  0.000000 /   0.939071  0.343724  0.000000 ->  -1.3709421144

 Angular average effective mass for Frohlich model, averaged over degenerate bands.
 Value of     (<<m**0.5>>)**2 =     7.232214E-01
 Absolute Value of <<m**0.5>> =     8.504243E-01

 K-point ( 0.000, 0.000, 0.000) | band =    27
 Effective mass tensor:
              0.1575039519             -0.0000000824              0.0000002178
             -0.0000000824              0.1575037131              0.0000001451
              0.0000002178              0.0000001451              0.1484138027
 Effective mass tensor eigenvalues:
              0.1484138027              0.1575036874              0.1575039776
 Angular average effective mass 1/(<1/m>)=   0.1543525768
 Angular average effective mass for Frohlich model (<m**0.5>)**2=   0.1543893163
 Effective masses along directions: (cart. coord. / red. coord. -> eff. mass)
    1:   1.000000  0.000000  0.000000 /   0.894427 -0.447214  0.000000 ->   0.1575039519
    2:   0.000000  1.000000  0.000000 /   0.000000  1.000000  0.000000 ->   0.1575037131
    3:   0.000000  0.000000  1.000000 /   0.000000  0.000000  1.000000 ->   0.1484138027
    4:   0.577350  0.577350  0.577350 /   0.512715  0.187667  0.837797 ->   0.1543527707
    5:   0.000000  0.707107  0.707107 /   0.000000  0.468287  0.883576 ->   0.1528238559
    6:   0.707107  0.000000  0.707107 /   0.505071 -0.252535  0.825306 ->   0.1528240410
    7:   0.707107  0.707107  0.000000 /   0.939071  0.343724  0.000000 ->   0.1575037501

 END OF EFFECTIVE MASSES SECTION

 ---- first-order wavefunction calculations are completed ----

 Total localisation tensor (bohr^2) in cartesian coordinates
  WARNING : still subject to testing - especially symmetries.
      direction              matrix element
   alpha     beta       real part   imaginary part
     1        1       5.8587872226    0.0000000000
     1        2      -2.0294955558    0.0000000000
     1        3       0.0000000000    0.0000000000
     2        1      -2.0294955558    0.0000000000
     2        2       3.5151894163    0.0000000000
     2        3       0.0000000000    0.0000000000
     3        1       0.0000000000    0.0000000000
     3        2       0.0000000000    0.0000000000
     3        3       2.8455871970    0.0000000000

 respfn : d/dk was computed, but no 2DTE, so no DDB output.

== END DATASET(S) ==============================================================

 -outvars: echo values of variables after computation  --------
            acell      1.0000000000E+00  1.0000000000E+00  1.0000000000E+00 Bohr
              amu      1.07868200E+02  1.26904470E+02
             ecut      4.30000000E+01 Hartree
           etotal     -1.3202145334E+01
            fcart      0.0000000000E+00  0.0000000000E+00  0.0000000000E+00
                       0.0000000000E+00  0.0000000000E+00  0.0000000000E+00
                       0.0000000000E+00  0.0000000000E+00  0.0000000000E+00
                       0.0000000000E+00  0.0000000000E+00  0.0000000000E+00
-          fftalg         512
           irdden           1
           irdwfk           1
           istwfk        1
              ixc     -116133
           kptopt           0
P           mkmem           1
P          mkqmem           1
P          mk1mem           1
            natom           4
            nband          35
           nbdbuf           4
            ngfft          54      54      90
             nkpt           1
            nstep         100
             nsym          12
           ntypat           2
              occ      2.000000  2.000000  2.000000  2.000000  2.000000  2.000000
                       2.000000  2.000000  2.000000  2.000000  2.000000  2.000000
                       2.000000  2.000000  2.000000  2.000000  2.000000  2.000000
                       2.000000  2.000000  2.000000  2.000000  2.000000  2.000000
                       2.000000  2.000000  0.000000  0.000000  0.000000  0.000000
                       0.000000  0.000000  0.000000  0.000000  0.000000
        optdriver           1
            prtwf          -1
            rfdir           1       1       1
           rfelfd           2
            rprim      8.6298166964E+00  0.0000000000E+00  0.0000000000E+00
                      -4.3149083482E+00  7.4736404891E+00  0.0000000000E+00
                       0.0000000000E+00  0.0000000000E+00  1.4101459315E+01
          spgroup         186
           strten      0.0000000000E+00  0.0000000000E+00  0.0000000000E+00
                       0.0000000000E+00  0.0000000000E+00  0.0000000000E+00
           symrel      1  0  0   0  1  0   0  0  1       0  1  0   1  0  0   0  0  1
                       1  1  0  -1  0  0   0  0  1      -1  0  0   1  1  0   0  0  1
                       0  1  0  -1 -1  0   0  0  1      -1 -1  0   0  1  0   0  0  1
                      -1  0  0   0 -1  0   0  0  1       0 -1  0  -1  0  0   0  0  1
                      -1 -1  0   1  0  0   0  0  1       1  0  0  -1 -1  0   0  0  1
                       0 -1  0   1  1  0   0  0  1       1  1  0   0 -1  0   0  0  1
            tnons      0.0000000  0.0000000  0.0000000     0.0000000 -0.0000000  0.5000000
                      -0.0000000 -0.0000000  0.5000000     0.0000000  0.0000000  0.0000000
                      -0.0000000 -0.0000000  0.0000000    -0.0000000 -0.0000000  0.5000000
                      -0.0000000 -0.0000000  0.5000000    -0.0000000 -0.0000000  0.0000000
                       0.0000000 -0.0000000  0.0000000    -0.0000000 -0.0000000  0.5000000
                       0.0000000 -0.0000000  0.5000000     0.0000000 -0.0000000  0.0000000
           tolwfr      1.00000000E-20
            typat      1  1  2  2
           useylm           1
           xangst      0.0000000000E+00  2.6365868080E+00  1.8013680498E-02
                       2.2833511550E+00  1.3182934040E+00  3.7490991192E+00
                       0.0000000000E+00  2.6365868080E+00  2.8168650358E+00
                       2.2833511550E+00  1.3182934040E+00  6.5479504745E+00
            xcart      0.0000000000E+00  4.9824269927E+00  3.4040922786E-02
                       4.3149083482E+00  2.4912134964E+00  7.0847705803E+00
                       0.0000000000E+00  4.9824269927E+00  5.3231034710E+00
                       4.3149083482E+00  2.4912134964E+00  1.2373833128E+01
             xred      3.3333333333E-01  6.6666666667E-01  2.4140000000E-03
                       6.6666666667E-01  3.3333333333E-01  5.0241400000E-01
                       3.3333333333E-01  6.6666666667E-01  3.7748600000E-01
                       6.6666666667E-01  3.3333333333E-01  8.7748600000E-01
            znucl       47.00000   53.00000

- Timing analysis has been suppressed with timopt=0

 Suggested references for the acknowledgment of ABINIT usage.

 Calculation completed.
.Delivered   6 WARNINGs and   5 COMMENTs to log file.