.Version 9.5.1 of ABINIT

 ABINIT is a project of the Universite Catholique de Louvain,
 Corning Inc. and other collaborators, see ~abinit/doc/developers/contributors.txt .
 acknowledgments of the ABINIT effort.

.Starting date : Tue 11 May 2021.
- ( at 21h27 )

- input  file    -> /scratch/users/j/a/jabreu/flow_simple_8atoms/flow/w313/t1/run.abi
- output file    -> /scratch/users/j/a/jabreu/flow_simple_8atoms/flow/w313/t1/run.abo
- root for input  files -> /scratch/users/j/a/jabreu/flow_simple_8atoms/flow/w313/t1/indata/in
- root for output files -> /scratch/users/j/a/jabreu/flow_simple_8atoms/flow/w313/t1/outdata/out

 Symmetries : space group P6_3/m m c (#194); Bravais hP (primitive hexag.)
     intxc =       0      iscf =       7    lmnmax =      18     lnmax =       6
     mgfft =     120  mpssoang =       3    mqgrid =    5679     natom =       8
  nloc_mem =       1    nspden =       1   nspinor =       1    nsppol =       1
      nsym =      24    n1xccc =    2501    ntypat =       2    occopt =       1
   xclevel =       2
-    mband =          39        mffmem =           1         mkmem =           1
-   mkqmem =           1        mk1mem =           1           mpw =       16365
      nfft =      349920          nkpt =           1
  Rough estimation (10% accuracy) of disk space for files :

------------- Echo of variables that govern the present computation ------------
-
- outvars: echo of selected default values
-   iomode0 =  0 , fftalg0 =512 , wfoptalg0 =  0
-
- outvars: echo of global parameters not present in the input file
-  max_nthreads =    0
-
 -outvars: echo values of preprocessed input variables --------
            acell      1.0000000000E+00  1.0000000000E+00  1.0000000000E+00 Bohr
              amu      2.29897680E+01  3.20660000E+01
             ecut      4.40000000E+01 Hartree
-          fftalg         512
           irdden           1
           irdwfk           1
           istwfk        1
              ixc     -116133
           kptopt           0
P           mkmem           1
P          mkqmem           1
P          mk1mem           1
            natom           8
            nband          39
           nbdbuf           4
            ngfft          54      54     120
             nkpt           1
            nstep        2000
             nsym          24
           ntypat           2
              occ      2.000000  2.000000  2.000000  2.000000  2.000000  2.000000
                       2.000000  2.000000  2.000000  2.000000  2.000000  2.000000
                       2.000000  2.000000  2.000000  2.000000  2.000000  2.000000
                       2.000000  2.000000  2.000000  2.000000  2.000000  2.000000
                       2.000000  2.000000  2.000000  2.000000  2.000000  2.000000
                       0.000000  0.000000  0.000000  0.000000  0.000000  0.000000
                       0.000000  0.000000  0.000000
        optdriver           1
            prtwf          -1
            rfdir           1       1       1
           rfelfd           2
            rprim      8.4299767792E+00  0.0000000000E+00  0.0000000000E+00
                      -4.2149883896E+00  7.3005740441E+00  0.0000000000E+00
                       0.0000000000E+00  0.0000000000E+00  1.9018189829E+01
          spgroup         194
           symrel      1  0  0   0  1  0   0  0  1      -1  0  0   0 -1  0   0  0 -1
                       0  1  0   1  0  0   0  0  1       0 -1  0  -1  0  0   0  0 -1
                       1  1  0  -1  0  0   0  0  1      -1 -1  0   1  0  0   0  0 -1
                      -1  0  0   1  1  0   0  0  1       1  0  0  -1 -1  0   0  0 -1
                       0  1  0  -1 -1  0   0  0  1       0 -1  0   1  1  0   0  0 -1
                      -1 -1  0   0  1  0   0  0  1       1  1  0   0 -1  0   0  0 -1
                      -1  0  0   0 -1  0   0  0  1       1  0  0   0  1  0   0  0 -1
                       0 -1  0  -1  0  0   0  0  1       0  1  0   1  0  0   0  0 -1
                      -1 -1  0   1  0  0   0  0  1       1  1  0  -1  0  0   0  0 -1
                       1  0  0  -1 -1  0   0  0  1      -1  0  0   1  1  0   0  0 -1
                       0 -1  0   1  1  0   0  0  1       0  1  0  -1 -1  0   0  0 -1
                       1  1  0   0 -1  0   0  0  1      -1 -1  0   0  1  0   0  0 -1
            tnons      0.0000000  0.0000000  0.0000000     0.0000000  0.0000000  0.0000000
                       0.0000000  0.0000000  0.5000000     0.0000000  0.0000000  0.5000000
                       0.0000000  0.0000000  0.5000000     0.0000000  0.0000000  0.5000000
                       0.0000000  0.0000000  0.0000000     0.0000000  0.0000000  0.0000000
                       0.0000000  0.0000000  0.0000000     0.0000000  0.0000000  0.0000000
                       0.0000000  0.0000000  0.5000000     0.0000000  0.0000000  0.5000000
                       0.0000000  0.0000000  0.5000000     0.0000000  0.0000000  0.5000000
                       0.0000000  0.0000000  0.0000000     0.0000000  0.0000000  0.0000000
                       0.0000000  0.0000000  0.0000000     0.0000000  0.0000000  0.0000000
                       0.0000000  0.0000000  0.5000000     0.0000000  0.0000000  0.5000000
                       0.0000000  0.0000000  0.5000000     0.0000000  0.0000000  0.5000000
                       0.0000000  0.0000000  0.0000000     0.0000000  0.0000000  0.0000000
           tolwfr      1.00000000E-20
            typat      1  1  1  1  2  2  2  2
           useylm           1
           xangst      0.0000000000E+00  0.0000000000E+00  0.0000000000E+00
                       0.0000000000E+00  0.0000000000E+00  5.0319963030E+00
                       0.0000000000E+00  2.5755315958E+00  7.5479944545E+00
                       2.2304757902E+00  1.2877657979E+00  2.5159981515E+00
                       0.0000000000E+00  2.5755315958E+00  3.5969615333E+00
                       2.2304757902E+00  1.2877657979E+00  8.6289578363E+00
                       2.2304757902E+00  1.2877657979E+00  6.4670310727E+00
                       0.0000000000E+00  2.5755315958E+00  1.4350347697E+00
            xcart      0.0000000000E+00  0.0000000000E+00  0.0000000000E+00
                       0.0000000000E+00  0.0000000000E+00  9.5090949143E+00
                       0.0000000000E+00  4.8670493627E+00  1.4263642372E+01
                       4.2149883896E+00  2.4335246814E+00  4.7545474572E+00
                       0.0000000000E+00  4.8670493627E+00  6.7972722085E+00
                       4.2149883896E+00  2.4335246814E+00  1.6306367123E+01
                       4.2149883896E+00  2.4335246814E+00  1.2220917620E+01
                       0.0000000000E+00  4.8670493627E+00  2.7118227059E+00
             xred      0.0000000000E+00  0.0000000000E+00  0.0000000000E+00
                       0.0000000000E+00  0.0000000000E+00  5.0000000000E-01
                       3.3333333333E-01  6.6666666667E-01  7.5000000000E-01
                       6.6666666667E-01  3.3333333333E-01  2.5000000000E-01
                       3.3333333333E-01  6.6666666667E-01  3.5740900000E-01
                       6.6666666667E-01  3.3333333333E-01  8.5740900000E-01
                       6.6666666667E-01  3.3333333333E-01  6.4259100000E-01
                       3.3333333333E-01  6.6666666667E-01  1.4259100000E-01
            znucl       11.00000   16.00000

 chkinp: Checking input parameters for consistency.

== DATASET  1 ==================================================================
-   mpi_nproc: 1, omp_nthreads: -1 (-1 if OMP is not activated)

--- !DatasetInfo
iteration_state: {dtset: 1, }
dimensions: {natom: 8, nkpt: 1, mband: 39, nsppol: 1, nspinor: 1, nspden: 1, mpw: 16365, }
cutoff_energies: {ecut:  44.0, pawecutdg:  -1.0, }
electrons: {nelect:   6.00000000E+01, charge:   0.00000000E+00, occopt:   1.00000000E+00, tsmear:   1.00000000E-02, }
meta: {optdriver: 1, rfelfd: 2, }
...

 Real(R)+Recip(G) space primitive vectors, cartesian coordinates (Bohr,Bohr^-1):
 R(1)=  8.4299768  0.0000000  0.0000000  G(1)=  0.1186243  0.0684878  0.0000000
 R(2)= -4.2149884  7.3005740  0.0000000  G(2)=  0.0000000  0.1369755  0.0000000
 R(3)=  0.0000000  0.0000000 19.0181898  G(3)=  0.0000000  0.0000000  0.0525812
 Unit cell volume ucvol=  1.1704492E+03 bohr^3
 Angles (23,13,12)=  9.00000000E+01  9.00000000E+01  1.20000000E+02 degrees

 getcut: wavevector=  0.0000  0.0000  0.0000  ngfft=  54  54 120
         ecut(hartree)=     44.000   => boxcut(ratio)=   2.11310

--- Pseudopotential description ------------------------------------------------
- pspini: atom type   1  psp file is /scratch/users/j/a/jabreu/pseudos/PBEsol/Na.psp8
- pspatm: opening atomic psp file    /scratch/users/j/a/jabreu/pseudos/PBEsol/Na.psp8
- Na    ONCVPSP-3.3.0  r_core=   1.20708   1.55069
- 11.00000   9.00000    180112                znucl, zion, pspdat
    8 -116133    1    4       400   0.00000   pspcod,pspxc,lmax,lloc,mmax,r2well
    3.99000000000000    0.00000000000000    0.00000000000000   rchrg,fchrg,qchrg
     nproj     2     2
     extension_switch     1
  pspatm : epsatm=    9.32878306
         --- l  ekb(1:nproj) -->
             0    2.657905   -0.678300
             1   -6.761319   -2.404728
 pspatm: atomic psp has been read  and splines computed

- pspini: atom type   2  psp file is /scratch/users/j/a/jabreu/pseudos/PBEsol/S.psp8
- pspatm: opening atomic psp file    /scratch/users/j/a/jabreu/pseudos/PBEsol/S.psp8
- S     ONCVPSP-3.3.0  r_core=   1.45376   1.45376   1.61851
- 16.00000   6.00000    180112                znucl, zion, pspdat
    8 -116133    2    4       600   0.00000   pspcod,pspxc,lmax,lloc,mmax,r2well
    5.99000000000000    6.00000000000000    0.00000000000000   rchrg,fchrg,qchrg
     nproj     2     2     2
     extension_switch     1
  pspatm : epsatm=    8.71840985
         --- l  ekb(1:nproj) -->
             0    6.834532    0.579453
             1    3.282851    0.896984
             2   -3.496974   -0.974265
 pspatm: atomic psp has been read  and splines computed

   4.33132630E+03                                ecore*ucvol(ha*bohr**3)

-inwffil : will read wavefunctions from disk file /scratch/users/j/a/jabreu/flow_simple_8atoms/flow/w313/t1/indata/in_WFK

 ==>  initialize data related to q vector <==

 The list of irreducible perturbations for this q vector is:
    1)    idir= 1    ipert=   9
    2)    idir= 2    ipert=   9
    3)    idir= 3    ipert=   9

 Perturbation wavevector (in red.coord.)   0.000000  0.000000  0.000000
 Perturbation : derivative vs k along direction   1

 dfpt_looppert : COMMENT -
  In a d/dk calculation, iscf is set to -3 automatically.
 The set of symmetries contains only one element for this perturbation.
 symkpt : not enough symmetry to change the number of k points.

[...]

 Initialisation of the first-order wave-functions :
  ireadwf=   0

--- !BeginCycle
iteration_state: {dtset: 1, }
solver: {iscf: 7, nstep: 2000, nline: 4, wfoptalg: 0, }
tolerances: {tolwfr: 1.00E-20, }
...

     iter   2DEtotal(Ha)        deltaE(Ha) residm    vres2
-ETOT  1  -59.340342444864     -5.934E+01 2.456E-02 0.000E+00
[...]
  -0.00000    0.00000    0.00000    0.00000    0.00000    0.00000   -0.00000   -0.00000
  -0.00000   -0.00000    0.00000    0.00000   -0.00000   -0.00000    0.00000    0.00000
   0.00000   -0.00000    0.00000   -0.00000   -0.00000   -0.00000   -0.00000

 Eight components of 2nd-order total energy (hartree) are
 1,2,3: 0th-order hamiltonian combined with 1st-order wavefunctions
     kin0=   6.42063443E+01 eigvalue=   5.26075048E+00  local=  -2.74915383E+01
 4,5,6: 1st-order hamiltonian combined with 1st and 0th-order wfs
     kin1=  -1.12285165E+02  Hartree=   0.00000000E+00     xc=   0.00000000E+00
 7,8,9: eventually, occupation + non-local contributions
    edocc=   1.73929055E+01     enl0=   2.52048429E-03   enl1=  -6.45679955E+00
 1-9 gives the relaxation energy (to be shifted if some occ is /=2.0)
   erelax=  -5.93709825E+01
  No Ewald or frozen-wf contrib.: the relaxation energy is the total one
 2DEtotal=   -0.5937098248E+02 Ha. Also 2DEtotal=   -0.161556659428E+04 eV
    (  non-var. 2DEtotal :   -5.9370982475E+01 Ha)

 Perturbation wavevector (in red.coord.)   0.000000  0.000000  0.000000
 Perturbation : derivative vs k along direction   2
 The set of symmetries contains only one element for this perturbation.
 symkpt : not enough symmetry to change the number of k points.

[...]

 Perturbation wavevector (in red.coord.)   0.000000  0.000000  0.000000
 Perturbation : derivative vs k along direction   3
 The set of symmetries contains only one element for this perturbation.
 symkpt : not enough symmetry to change the number of k points.

-inwffil : will read wavefunctions from disk file /scratch/users/j/a/jabreu/flow_simple_8atoms/flow/w313/t1/indata/in_WFK

 Initialisation of the first-order wave-functions :
  ireadwf=   0

--- !BeginCycle
iteration_state: {dtset: 1, }
solver: {iscf: 7, nstep: 2000, nline: 4, wfoptalg: 0, }
tolerances: {tolwfr: 1.00E-20, }
...

     iter   2DEtotal(Ha)        deltaE(Ha) residm    vres2
-ETOT  1  -7.3868000352574     -7.387E+00 1.494E-02 0.000E+00
 ETOT  2  -7.3896887246974     -2.889E-03 3.336E-05 0.000E+00
 ETOT  3  -7.3896900351058     -1.310E-06 2.483E-07 0.000E+00
 ETOT  4  -7.3896900370955     -1.990E-09 1.137E-09 0.000E+00
 ETOT  5  -7.3896900371005     -4.953E-12 1.273E-11 0.000E+00
 ETOT  6  -7.3896900371005     -7.994E-15 7.365E-14 0.000E+00
 ETOT  7  -7.3896900371005      4.441E-15 8.453E-16 0.000E+00
 ETOT  8  -7.3896900371005     -7.994E-15 5.171E-18 0.000E+00
 ETOT  9  -7.3896900371005      8.882E-16 5.755E-20 0.000E+00
 ETOT 10  -7.3896900371005     -8.882E-16 9.126E-21 0.000E+00

 At SCF step   10   max residual=  9.13E-21 < tolwfr=  1.00E-20 =>converged.

 ----iterations are completed or convergence reached----

 dfpt_looppert: DFPT cycle converged with prtwf=-1. Will skip output of the 1st-order WFK file.
 dfpt_looppert : ek2=    1.3097928847E+01
          f-sum rule ratio=    1.0431227049E+00
 prteigrs : about to open file /scratch/users/j/a/jabreu/flow_simple_8atoms/flow/w313/t1/tmpdata/tmp_1WF1_EIG
 Expectation of eigenvalue derivatives (hartree) for nkpt=   1  k points:
  (in case of degenerate eigenvalues, averaged derivative)
 kpt#   1, nband= 39, wtk=  1.00000, kpt=  0.0000  0.0000  0.0000 (reduced coord)
  -0.00000   -0.00000    0.00000   -0.00000   -0.00000   -0.00000    0.00000    0.00000
  -0.00000   -0.00000    0.00000    0.00000    0.00000    0.00000    0.00000   -0.00000
  -0.00000   -0.00000    0.00000   -0.00000    0.00000   -0.00000   -0.00000   -0.00000
   0.00000    0.00000   -0.00000   -0.00000   -0.00000   -0.00000    0.00000   -0.00000
  -0.00000   -0.00000    0.00000   -0.00000   -0.00000    0.00000    0.00000

 Eight components of 2nd-order total energy (hartree) are
 1,2,3: 0th-order hamiltonian combined with 1st-order wavefunctions
     kin0=   8.89624343E+00 eigvalue=   7.64514039E-01  local=  -3.74977394E+00
 4,5,6: 1st-order hamiltonian combined with 1st and 0th-order wfs
     kin1=  -1.36627470E+01  Hartree=   0.00000000E+00     xc=   0.00000000E+00
 7,8,9: eventually, occupation + non-local contributions
    edocc=   1.63194940E+00     enl0=  -1.53242889E-01   enl1=  -1.11663311E+00
 1-9 gives the relaxation energy (to be shifted if some occ is /=2.0)
   erelax=  -7.38969004E+00
  No Ewald or frozen-wf contrib.: the relaxation energy is the total one
 2DEtotal=   -0.7389690037E+01 Ha. Also 2DEtotal=   -0.201083692206E+03 eV
    (  non-var. 2DEtotal :   -7.3896900370E+00 Ha)

 CALCULATION OF EFFECTIVE MASSES
 NOTE : Additional infos (eff. mass eigenvalues, eigenvectors and, if degenerate, average mass) are available in stdout.

 COMMENTS:
 - At k-point ( 0.000, 0.000, 0.000), bands    29 through    30
   are DEGENERATE (effective mass tensor is therefore not defined).
   See Section IIIB Eqs. (67)-(70) and Appendix E of PRB 93 205147 (2016).
 - Angular average effective mass for Frohlich model is to be averaged over degenerate bands. See later.
 - Associated theta integrals calculated with ntheta=   1000 points.

 K-point ( 0.000, 0.000, 0.000) | band =    29
 Transport equivalent effective mass tensor:
             -0.3885696260              0.0000000013             -0.0000003462
              0.0000000013             -0.3885696026             -0.0000001557
             -0.0000003462             -0.0000001557             -1.2591541967
 Transport equivalent effective mass tensor eigenvalues:
             -1.2591541967             -0.3885696260             -0.3885696025
 Angular average effective mass 1/(<1/m>)=  -0.5049428210
 Angular average effective mass for Frohlich model (<m**0.5>)**2=  -0.5417469430
 Effective masses along directions: (cart. coord. / red. coord. -> eff. mass)
    1:   1.000000  0.000000  0.000000 /   0.894427 -0.447214  0.000000 ->  -0.3885696143
    2:   0.000000  1.000000  0.000000 /   0.000000  1.000000  0.000000 ->  -0.3885696143
    3:   0.000000  0.000000  1.000000 /   0.000000  0.000000  1.000000 ->  -1.2591539541
    4:   0.577350  0.577350  0.577350 /   0.400848  0.146720  0.904320 ->  -0.5049431221
    5:   0.000000  0.707107  0.707107 /   0.000000  0.358375  0.933578 ->  -0.5938726292
    6:   0.707107  0.000000  0.707107 /   0.397163 -0.198581  0.896006 ->  -0.5938727860
    7:   0.707107  0.707107  0.000000 /   0.939071  0.343724  0.000000 ->  -0.3885696143

 K-point ( 0.000, 0.000, 0.000) | band =    30
 Transport equivalent effective mass tensor:
            -19.7682970758             -0.0000000687             -0.0000137262
             -0.0000000687            -19.7682982474             -0.0000014299
             -0.0000137262             -0.0000014299             -1.2591541968
 Transport equivalent effective mass tensor eigenvalues:
            -19.7682982514            -19.7682970718             -1.2591541968
 Angular average effective mass 1/(<1/m>)=  -3.3506225533
 Angular average effective mass for Frohlich model (<m**0.5>)**2=  -5.6717110862
 Effective masses along directions: (cart. coord. / red. coord. -> eff. mass)
    1:   1.000000  0.000000  0.000000 /   0.894427 -0.447214  0.000000 -> -19.7682976786
    2:   0.000000  1.000000  0.000000 /   0.000000  1.000000  0.000000 -> -19.7682976596
    3:   0.000000  0.000000  1.000000 /   0.000000  0.000000  1.000000 ->  -1.2591544393
    4:   0.577350  0.577350  0.577350 /   0.400848  0.146720  0.904320 ->  -3.3506215315
    5:   0.000000  0.707107  0.707107 /   0.000000  0.358375  0.933578 ->  -2.3675110298
    6:   0.707107  0.000000  0.707107 /   0.397163 -0.198581  0.896006 ->  -2.3675134882
    7:   0.707107  0.707107  0.000000 /   0.939071  0.343724  0.000000 -> -19.7682976404

 Angular average effective mass for Frohlich model, averaged over degenerate bands.
 Value of     (<<m**0.5>>)**2 =     2.429811E+00
 Absolute Value of <<m**0.5>> =     1.558785E+00

 K-point ( 0.000, 0.000, 0.000) | band =    31
 Effective mass tensor:
              0.5022253837              0.0000000000              0.0000000000
              0.0000000000              0.5022253837             -0.0000000000
              0.0000000000             -0.0000000000              0.4149501662
 Effective mass tensor eigenvalues:
              0.4149501662              0.5022253837              0.5022253837
 Angular average effective mass 1/(<1/m>)=   0.4693217102
 Angular average effective mass for Frohlich model (<m**0.5>)**2=   0.4704994987
 Effective masses along directions: (cart. coord. / red. coord. -> eff. mass)
    1:   1.000000  0.000000  0.000000 /   0.894427 -0.447214  0.000000 ->   0.5022253837
    2:   0.000000  1.000000  0.000000 /   0.000000  1.000000  0.000000 ->   0.5022253837
    3:   0.000000  0.000000  1.000000 /   0.000000  0.000000  1.000000 ->   0.4149501662
    4:   0.577350  0.577350  0.577350 /   0.400848  0.146720  0.904320 ->   0.4693217102
    5:   0.000000  0.707107  0.707107 /   0.000000  0.358375  0.933578 ->   0.4544353727
    6:   0.707107  0.000000  0.707107 /   0.397163 -0.198581  0.896006 ->   0.4544353727
    7:   0.707107  0.707107  0.000000 /   0.939071  0.343724  0.000000 ->   0.5022253837

 END OF EFFECTIVE MASSES SECTION

 ---- first-order wavefunction calculations are completed ----

 Total localisation tensor (bohr^2) in cartesian coordinates
  WARNING : still subject to testing - especially symmetries.
      direction              matrix element
   alpha     beta       real part   imaginary part
     1        1       2.9456821327    0.0000000000
     1        2      -1.0204142623    0.0000000000
     1        3       0.0000000000    0.0000000000
     2        1      -1.0204142623    0.0000000000
     2        2       1.7674093470    0.0000000000
     2        3       0.0000000000    0.0000000000
     3        1       0.0000000000    0.0000000000
     3        2       0.0000000000    0.0000000000
     3        3       0.9986569594    0.0000000000

 respfn : d/dk was computed, but no 2DTE, so no DDB output.

== END DATASET(S) ==============================================================

 -outvars: echo values of variables after computation  --------
            acell      1.0000000000E+00  1.0000000000E+00  1.0000000000E+00 Bohr
              amu      2.29897680E+01  3.20660000E+01
             ecut      4.40000000E+01 Hartree
           etotal     -7.3896900371E+00
            fcart      0.0000000000E+00  0.0000000000E+00  0.0000000000E+00
                       0.0000000000E+00  0.0000000000E+00  0.0000000000E+00
                       0.0000000000E+00  0.0000000000E+00  0.0000000000E+00
                       0.0000000000E+00  0.0000000000E+00  0.0000000000E+00
                       0.0000000000E+00  0.0000000000E+00  0.0000000000E+00
                       0.0000000000E+00  0.0000000000E+00  0.0000000000E+00
                       0.0000000000E+00  0.0000000000E+00  0.0000000000E+00
                       0.0000000000E+00  0.0000000000E+00  0.0000000000E+00
-          fftalg         512
           irdden           1
           irdwfk           1
           istwfk        1
              ixc     -116133
           kptopt           0
P           mkmem           1
P          mkqmem           1
P          mk1mem           1
            natom           8
            nband          39
           nbdbuf           4
            ngfft          54      54     120
             nkpt           1
            nstep        2000
             nsym          24
           ntypat           2
              occ      2.000000  2.000000  2.000000  2.000000  2.000000  2.000000
                       2.000000  2.000000  2.000000  2.000000  2.000000  2.000000
                       2.000000  2.000000  2.000000  2.000000  2.000000  2.000000
                       2.000000  2.000000  2.000000  2.000000  2.000000  2.000000
                       2.000000  2.000000  2.000000  2.000000  2.000000  2.000000
                       0.000000  0.000000  0.000000  0.000000  0.000000  0.000000
                       0.000000  0.000000  0.000000
        optdriver           1
            prtwf          -1
            rfdir           1       1       1
           rfelfd           2
            rprim      8.4299767792E+00  0.0000000000E+00  0.0000000000E+00
                      -4.2149883896E+00  7.3005740441E+00  0.0000000000E+00
                       0.0000000000E+00  0.0000000000E+00  1.9018189829E+01
          spgroup         194
           strten      0.0000000000E+00  0.0000000000E+00  0.0000000000E+00
                       0.0000000000E+00  0.0000000000E+00  0.0000000000E+00
           symrel      1  0  0   0  1  0   0  0  1      -1  0  0   0 -1  0   0  0 -1
                       0  1  0   1  0  0   0  0  1       0 -1  0  -1  0  0   0  0 -1
                       1  1  0  -1  0  0   0  0  1      -1 -1  0   1  0  0   0  0 -1
                      -1  0  0   1  1  0   0  0  1       1  0  0  -1 -1  0   0  0 -1
                       0  1  0  -1 -1  0   0  0  1       0 -1  0   1  1  0   0  0 -1
                      -1 -1  0   0  1  0   0  0  1       1  1  0   0 -1  0   0  0 -1
                      -1  0  0   0 -1  0   0  0  1       1  0  0   0  1  0   0  0 -1
                       0 -1  0  -1  0  0   0  0  1       0  1  0   1  0  0   0  0 -1
                      -1 -1  0   1  0  0   0  0  1       1  1  0  -1  0  0   0  0 -1
                       1  0  0  -1 -1  0   0  0  1      -1  0  0   1  1  0   0  0 -1
                       0 -1  0   1  1  0   0  0  1       0  1  0  -1 -1  0   0  0 -1
                       1  1  0   0 -1  0   0  0  1      -1 -1  0   0  1  0   0  0 -1
            tnons      0.0000000  0.0000000  0.0000000     0.0000000  0.0000000  0.0000000
                       0.0000000  0.0000000  0.5000000     0.0000000  0.0000000  0.5000000
                       0.0000000  0.0000000  0.5000000     0.0000000  0.0000000  0.5000000
                       0.0000000  0.0000000  0.0000000     0.0000000  0.0000000  0.0000000
                       0.0000000  0.0000000  0.0000000     0.0000000  0.0000000  0.0000000
                       0.0000000  0.0000000  0.5000000     0.0000000  0.0000000  0.5000000
                       0.0000000  0.0000000  0.5000000     0.0000000  0.0000000  0.5000000
                       0.0000000  0.0000000  0.0000000     0.0000000  0.0000000  0.0000000
                       0.0000000  0.0000000  0.0000000     0.0000000  0.0000000  0.0000000
                       0.0000000  0.0000000  0.5000000     0.0000000  0.0000000  0.5000000
                       0.0000000  0.0000000  0.5000000     0.0000000  0.0000000  0.5000000
                       0.0000000  0.0000000  0.0000000     0.0000000  0.0000000  0.0000000
           tolwfr      1.00000000E-20
            typat      1  1  1  1  2  2  2  2
           useylm           1
           xangst      0.0000000000E+00  0.0000000000E+00  0.0000000000E+00
                       0.0000000000E+00  0.0000000000E+00  5.0319963030E+00
                       0.0000000000E+00  2.5755315958E+00  7.5479944545E+00
                       2.2304757902E+00  1.2877657979E+00  2.5159981515E+00
                       0.0000000000E+00  2.5755315958E+00  3.5969615333E+00
                       2.2304757902E+00  1.2877657979E+00  8.6289578363E+00
                       2.2304757902E+00  1.2877657979E+00  6.4670310727E+00
                       0.0000000000E+00  2.5755315958E+00  1.4350347697E+00
            xcart      0.0000000000E+00  0.0000000000E+00  0.0000000000E+00
                       0.0000000000E+00  0.0000000000E+00  9.5090949143E+00
                       0.0000000000E+00  4.8670493627E+00  1.4263642372E+01
                       4.2149883896E+00  2.4335246814E+00  4.7545474572E+00
                       0.0000000000E+00  4.8670493627E+00  6.7972722085E+00
                       4.2149883896E+00  2.4335246814E+00  1.6306367123E+01
                       4.2149883896E+00  2.4335246814E+00  1.2220917620E+01
                       0.0000000000E+00  4.8670493627E+00  2.7118227059E+00
             xred      0.0000000000E+00  0.0000000000E+00  0.0000000000E+00
                       0.0000000000E+00  0.0000000000E+00  5.0000000000E-01
                       3.3333333333E-01  6.6666666667E-01  7.5000000000E-01
                       6.6666666667E-01  3.3333333333E-01  2.5000000000E-01
                       3.3333333333E-01  6.6666666667E-01  3.5740900000E-01
                       6.6666666667E-01  3.3333333333E-01  8.5740900000E-01
                       6.6666666667E-01  3.3333333333E-01  6.4259100000E-01
                       3.3333333333E-01  6.6666666667E-01  1.4259100000E-01
            znucl       11.00000   16.00000

- Timing analysis has been suppressed with timopt=0

 Suggested references for the acknowledgment of ABINIT usage.

 Calculation completed.
.Delivered   6 WARNINGs and   5 COMMENTs to log file.