.Version 9.7.2 of ABINIT

 ABINIT is a project of the Universite Catholique de Louvain,
 Corning Inc. and other collaborators, see ~abinit/doc/developers/contributors.txt .
 acknowledgments of the ABINIT effort.

.Starting date : Wed  1 Dec 2021.
- ( at 21h41 )

- input  file    -> /scratch/users/j/a/jabreu/flow_simple_remain_atoms/flow/w162/t1/run.abi
- output file    -> /scratch/users/j/a/jabreu/flow_simple_remain_atoms/flow/w162/t1/run.abo
- root for input  files -> /scratch/users/j/a/jabreu/flow_simple_remain_atoms/flow/w162/t1/indata/in
- root for output files -> /scratch/users/j/a/jabreu/flow_simple_remain_atoms/flow/w162/t1/outdata/out

 Symmetries : space group P4/n m m (#129); Bravais tP (primitive tetrag.)
     intxc =       0      iscf =       7    lmnmax =      32     lnmax =       8
     mgfft =      96  mpssoang =       4    mqgrid =    4515     natom =       6
  nloc_mem =       1    nspden =       1   nspinor =       1    nsppol =       1
      nsym =      16    n1xccc =    2501    ntypat =       3    occopt =       1
   xclevel =       2
-    mband =          33        mffmem =           1         mkmem =           1
-   mkqmem =           1        mk1mem =           1           mpw =       14989
      nfft =      279936          nkpt =           1
  Rough estimation (10% accuracy) of disk space for files :

------------- Echo of variables that govern the present computation ------------
-
- outvars: echo of selected default values
-   iomode0 =  0 , fftalg0 =512 , wfoptalg0 =  0
-
- outvars: echo of global parameters not present in the input file
-  max_nthreads =    0
-
 -outvars: echo values of preprocessed input variables --------
            acell      1.0000000000E+00  1.0000000000E+00  1.0000000000E+00 Bohr
              amu      1.38905500E+02  7.99040000E+01  1.59994000E+01
             ecut      5.20000000E+01 Hartree
-          fftalg         512
           irdden           1
           irdwfk           1
           istwfk        1
              ixc     -116133
           kptopt           0
P           mkmem           1
P          mkqmem           1
P          mk1mem           1
            natom           6
            nband          33
           nbdbuf           4
            ngfft          54      54      96
             nkpt           1
            nstep        2000
             nsym          16
           ntypat           3
              occ      2.000000  2.000000  2.000000  2.000000  2.000000  2.000000
                       2.000000  2.000000  2.000000  2.000000  2.000000  2.000000
                       2.000000  2.000000  2.000000  2.000000  2.000000  2.000000
                       2.000000  2.000000  2.000000  2.000000  2.000000  2.000000
                       0.000000  0.000000  0.000000  0.000000  0.000000  0.000000
                       0.000000  0.000000  0.000000
        optdriver           1
            prtwf          -1
            rfdir           1       1       1
           rfelfd           2
            rprim      7.7605234605E+00  0.0000000000E+00  0.0000000000E+00
                       0.0000000000E+00  7.7605234605E+00  0.0000000000E+00
                       0.0000000000E+00  0.0000000000E+00  1.3908224539E+01
          spgroup         129
           symrel      1  0  0   0  1  0   0  0  1      -1  0  0   0 -1  0   0  0 -1
                      -1  0  0   0  1  0   0  0 -1       1  0  0   0 -1  0   0  0  1
                      -1  0  0   0 -1  0   0  0  1       1  0  0   0  1  0   0  0 -1
                       1  0  0   0 -1  0   0  0 -1      -1  0  0   0  1  0   0  0  1
                       0  1  0   1  0  0   0  0  1       0 -1  0  -1  0  0   0  0 -1
                       0 -1  0   1  0  0   0  0 -1       0  1  0  -1  0  0   0  0  1
                       0 -1  0  -1  0  0   0  0  1       0  1  0   1  0  0   0  0 -1
                       0  1  0  -1  0  0   0  0 -1       0 -1  0   1  0  0   0  0  1
            tnons      0.0000000  0.0000000  0.0000000     0.5000000  0.5000000  0.0000000
                       0.5000000  0.5000000  0.0000000     0.0000000  0.0000000  0.0000000
                       0.0000000  0.0000000  0.0000000     0.5000000  0.5000000  0.0000000
                       0.5000000  0.5000000  0.0000000     0.0000000  0.0000000  0.0000000
                       0.5000000  0.5000000  0.0000000     0.0000000  0.0000000  0.0000000
                       0.0000000  0.0000000  0.0000000     0.5000000  0.5000000  0.0000000
                       0.5000000  0.5000000  0.0000000     0.0000000  0.0000000  0.0000000
                       0.0000000  0.0000000  0.0000000     0.5000000  0.5000000  0.0000000
           tolwfr      1.00000000E-20
            typat      1  1  2  2  3  3
           useylm           1
           xangst      0.0000000000E+00  2.0533460710E+00  6.1700967883E+00
                       2.0533460710E+00  0.0000000000E+00  1.1898186495E+00
                       2.0533460710E+00  0.0000000000E+00  4.6848658530E+00
                       0.0000000000E+00  2.0533460710E+00  2.6750495849E+00
                       0.0000000000E+00  0.0000000000E+00  0.0000000000E+00
                       2.0533460710E+00  2.0533460710E+00  0.0000000000E+00
            xcart      0.0000000000E+00  3.8802617302E+00  1.1659793143E+01
                       3.8802617302E+00  0.0000000000E+00  2.2484313954E+00
                       3.8802617302E+00  0.0000000000E+00  8.8531134314E+00
                       0.0000000000E+00  3.8802617302E+00  5.0551111073E+00
                       0.0000000000E+00  0.0000000000E+00  0.0000000000E+00
                       3.8802617302E+00  3.8802617302E+00  0.0000000000E+00
             xred      0.0000000000E+00  5.0000000000E-01  8.3833800000E-01
                       5.0000000000E-01  0.0000000000E+00  1.6166200000E-01
                       5.0000000000E-01  0.0000000000E+00  6.3653800000E-01
                       0.0000000000E+00  5.0000000000E-01  3.6346200000E-01
                       0.0000000000E+00  0.0000000000E+00  0.0000000000E+00
                       5.0000000000E-01  5.0000000000E-01  0.0000000000E+00
            znucl       57.00000   35.00000    8.00000

 chkinp: Checking input parameters for consistency.

== DATASET  1 ==================================================================
-   mpi_nproc: 1, omp_nthreads: -1 (-1 if OMP is not activated)

--- !DatasetInfo
iteration_state: {dtset: 1, }
dimensions: {natom: 6, nkpt: 1, mband: 33, nsppol: 1, nspinor: 1, nspden: 1, mpw: 14989, }
cutoff_energies: {ecut:  52.0, pawecutdg:  -1.0, }
electrons: {nelect:   4.80000000E+01, charge:   0.00000000E+00, occopt:   1.00000000E+00, tsmear:   1.00000000E-02, }
meta: {optdriver: 1, rfelfd: 2, }
...

 Real(R)+Recip(G) space primitive vectors, cartesian coordinates (Bohr,Bohr^-1):
 R(1)=  7.7605235  0.0000000  0.0000000  G(1)=  0.1288573  0.0000000  0.0000000
 R(2)=  0.0000000  7.7605235  0.0000000  G(2)=  0.0000000  0.1288573  0.0000000
 R(3)=  0.0000000  0.0000000 13.9082245  G(3)=  0.0000000  0.0000000  0.0718999
 Unit cell volume ucvol=  8.3763290E+02 bohr^3
 Angles (23,13,12)=  9.00000000E+01  9.00000000E+01  9.00000000E+01 degrees

 getcut: wavevector=  0.0000  0.0000  0.0000  ngfft=  54  54  96
         ecut(hartree)=     52.000   => boxcut(ratio)=   2.12634

--- Pseudopotential description ------------------------------------------------
- pspini: atom type   1  psp file is /scratch/users/j/a/jabreu/pseudos/PBEsol/La.psp8
- pspatm: opening atomic psp file    /scratch/users/j/a/jabreu/pseudos/PBEsol/La.psp8
- La    ONCVPSP-3.3.0  r_core=   2.11664   1.60878   1.85636   1.66739
- 57.00000  11.00000    180112                znucl, zion, pspdat
    8 -116133    3    4       600   0.00000   pspcod,pspxc,lmax,lloc,mmax,r2well
    5.99000000000000    5.00000000000000    0.00000000000000   rchrg,fchrg,qchrg
     nproj     2     2     2     2
     extension_switch     1
  pspatm : epsatm=   29.08531775
         --- l  ekb(1:nproj) -->
             0    6.695600    0.639047
             1    6.383649    1.151322
             2    3.612966    0.847811
             3  -13.718437   -4.858923
 pspatm: atomic psp has been read  and splines computed

- pspini: atom type   2  psp file is /scratch/users/j/a/jabreu/pseudos/PBEsol/Br.psp8
- pspatm: opening atomic psp file    /scratch/users/j/a/jabreu/pseudos/PBEsol/Br.psp8
- Br    ONCVPSP-3.3.0  r_core=   1.81012   1.51356   1.92136
- 35.00000   7.00000    180112                znucl, zion, pspdat
    8 -116133    2    4       600   0.00000   pspcod,pspxc,lmax,lloc,mmax,r2well
    5.99000000000000    8.00000000000000    0.00000000000000   rchrg,fchrg,qchrg
     nproj     2     2     2
     extension_switch     1
  pspatm : epsatm=   10.94933070
         --- l  ekb(1:nproj) -->
             0    8.508690    0.897946
             1    5.393311    0.892021
             2    2.527513    0.394763
 pspatm: atomic psp has been read  and splines computed

- pspini: atom type   3  psp file is /scratch/users/j/a/jabreu/pseudos/PBEsol/O.psp8
- pspatm: opening atomic psp file    /scratch/users/j/a/jabreu/pseudos/PBEsol/O.psp8
- O     ONCVPSP-3.3.0  r_core=   1.35509   1.45563   1.26150
-  8.00000   6.00000    180112                znucl, zion, pspdat
    8 -116133    2    4       600   0.00000   pspcod,pspxc,lmax,lloc,mmax,r2well
    5.99000000000000    4.00000000000000    0.00000000000000   rchrg,fchrg,qchrg
     nproj     2     2     1
     extension_switch     1
  pspatm : epsatm=    6.22910522
         --- l  ekb(1:nproj) -->
             0    6.050032    0.820363
             1   -4.739617   -1.153841
             2   -1.335834
 pspatm: atomic psp has been read  and splines computed

   4.44132035E+03                                ecore*ucvol(ha*bohr**3)

 ==>  initialize data related to q vector <==

 The list of irreducible perturbations for this q vector is:
    1)    idir= 1    ipert=   7
    2)    idir= 2    ipert=   7
    3)    idir= 3    ipert=   7

 Perturbation wavevector (in red.coord.)   0.000000  0.000000  0.000000
 Perturbation : derivative vs k along direction   1

 dfpt_looppert : COMMENT -
  In a d/dk calculation, iscf is set to -3 automatically.
 The set of symmetries contains only one element for this perturbation.
 symkpt : not enough symmetry to change the number of k points.

 Initialisation of the first-order wave-functions :
  ireadwf=   0

--- !BeginCycle
iteration_state: {dtset: 1, }
solver: {iscf: 7, nstep: 2000, nline: 4, wfoptalg: 0, }
tolerances: {tolwfr: 1.00E-20, }
...

     iter   2DEtotal(Ha)        deltaE(Ha) residm    vres2
-ETOT  1  -36.759659534966     -3.676E+01 1.861E-01 0.000E+00
 ETOT  2  -37.166079293066     -4.064E-01 1.361E-02 0.000E+00
 ETOT  3  -37.186293611883     -2.021E-02 1.141E-02 0.000E+00
 ETOT  4  -37.187561515124     -1.268E-03 6.318E-03 0.000E+00
 ETOT  5  -37.187673008009     -1.115E-04 5.615E-03 0.000E+00
 ETOT  6  -37.187684249093     -1.124E-05 3.656E-03 0.000E+00
 ETOT  7  -37.187685775451     -1.526E-06 3.808E-03 0.000E+00
 ETOT  8  -37.187686008683     -2.332E-07 2.615E-03 0.000E+00
 ETOT  9  -37.187686050009     -4.133E-08 2.601E-03 0.000E+00
[...]
 ETOT 13  -10.866873200742     -4.523E-07 1.325E-03 0.000E+00
 ETOT 14  -10.866873438048     -2.373E-07 3.146E-03 0.000E+00
 ETOT 15  -10.866873563059     -1.250E-07 1.103E-03 0.000E+00
 ETOT 16  -10.866873629182     -6.612E-08 2.645E-03 0.000E+00
 ETOT 17  -10.866873664279     -3.510E-08 9.212E-04 0.000E+00
 ETOT 18  -10.866873682980     -1.870E-08 2.230E-03 0.000E+00
 ETOT 19  -10.866873692978     -9.999E-09 7.709E-04 0.000E+00
 ETOT 20  -10.866873698344     -5.366E-09 1.883E-03 0.000E+00
 ETOT 21  -10.866873701233     -2.888E-09 6.458E-04 0.000E+00
 ETOT 22  -10.866873702792     -1.560E-09 1.591E-03 0.000E+00
 ETOT 23  -10.866873703636     -8.440E-10 5.415E-04 0.000E+00
 ETOT 24  -10.866873704094     -4.578E-10 1.345E-03 0.000E+00
 ETOT 25  -10.866873704343     -2.487E-10 4.542E-04 0.000E+00
 ETOT 26  -10.866873704478     -1.353E-10 1.136E-03 0.000E+00
 ETOT 27  -10.866873704552     -7.369E-11 3.812E-04 0.000E+00
 ETOT 28  -10.866873704592     -4.017E-11 9.603E-04 0.000E+00
 ETOT 29  -10.866873704614     -2.192E-11 3.203E-04 0.000E+00
 ETOT 30  -10.866873704626     -1.195E-11 8.124E-04 0.000E+00
 ETOT 31  -10.866873704632     -6.539E-12 2.715E-04 0.000E+00
 ETOT 32  -10.866873704636     -3.578E-12 6.936E-04 0.000E+00
 ETOT 33  -10.866873704638     -1.933E-12 2.368E-04 0.000E+00
 ETOT 34  -10.866873704639     -1.062E-12 5.954E-04 0.000E+00
 ETOT 35  -10.866873704640     -5.862E-13 1.998E-04 0.000E+00
 ETOT 36  -10.866873704640     -3.340E-13 5.067E-04 0.000E+00
 ETOT 37  -10.866873704640     -1.528E-13 1.668E-04 0.000E+00
 ETOT 38  -10.866873704640     -1.101E-13 4.317E-04 0.000E+00
 ETOT 39  -10.866873704640     -5.329E-14 1.410E-04 0.000E+00
 ETOT 40  -10.866873704640     -2.132E-14 3.673E-04 0.000E+00
 ETOT 41  -10.866873704640     -7.105E-15 1.193E-04 0.000E+00
 ETOT 42  -10.866873704640     -8.882E-15 3.117E-04 0.000E+00
 ETOT 43  -10.866873704640     -7.105E-15 1.010E-04 0.000E+00
 ETOT 44  -10.866873704640      1.776E-15 2.639E-04 0.000E+00
 ETOT 45  -10.866873704640     -3.553E-15 8.550E-05 0.000E+00
 ETOT 46  -10.866873704640     -1.243E-14 2.229E-04 0.000E+00
 ETOT 47  -10.866873704640      5.329E-15 7.240E-05 0.000E+00
 ETOT 48  -10.866873704640      7.105E-15 1.880E-04 0.000E+00
 ETOT 49  -10.866873704640      5.329E-15 6.133E-05 0.000E+00
 ETOT 50  -10.866873704640     -1.066E-14 1.585E-04 0.000E+00
 ETOT 51  -10.866873704640      5.329E-15 5.197E-05 0.000E+00
 ETOT 52  -10.866873704640      7.105E-15 1.338E-04 0.000E+00
 ETOT 53  -10.866873704640     -1.599E-14 4.406E-05 0.000E+00
 ETOT 54  -10.866873704640      1.776E-15 1.131E-04 0.000E+00
 ETOT 55  -10.866873704640      1.243E-14 3.736E-05 0.000E+00
 ETOT 56  -10.866873704640      3.553E-15 9.566E-05 0.000E+00
 ETOT 57  -10.866873704640     -1.776E-15 3.169E-05 0.000E+00
 ETOT 58  -10.866873704640     -7.105E-15 8.103E-05 0.000E+00
 ETOT 59  -10.866873704640     -5.329E-15 2.689E-05 0.000E+00
 ETOT 60  -10.866873704640      1.776E-15 6.871E-05 0.000E+00
 ETOT 61  -10.866873704640      1.954E-14 2.282E-05 0.000E+00
[...]
 ETOT  485  -10.866873704640      0.000E+00 2.718E-20 0.000E+00
 ETOT  486  -10.866873704640     -1.776E-15 7.450E-20 0.000E+00
 ETOT  487  -10.866873704640      1.421E-14 2.312E-20 0.000E+00
 ETOT  488  -10.866873704640     -1.599E-14 6.338E-20 0.000E+00
 ETOT  489  -10.866873704640      1.066E-14 1.966E-20 0.000E+00
 ETOT  490  -10.866873704640     -3.553E-15 5.391E-20 0.000E+00
 ETOT  491  -10.866873704640      8.882E-15 1.673E-20 0.000E+00
 ETOT  492  -10.866873704640     -7.105E-15 4.585E-20 0.000E+00
 ETOT  493  -10.866873704640     -8.882E-15 1.423E-20 0.000E+00
 ETOT  494  -10.866873704640      3.553E-15 3.900E-20 0.000E+00
 ETOT  495  -10.866873704640      1.066E-14 1.210E-20 0.000E+00
 ETOT  496  -10.866873704640     -7.105E-15 3.319E-20 0.000E+00
 ETOT  497  -10.866873704640     -7.105E-15 1.029E-20 0.000E+00
 ETOT  498  -10.866873704640      8.882E-15 2.823E-20 0.000E+00
 ETOT  499  -10.866873704640      7.105E-15 9.906E-21 0.000E+00

 At SCF step  499   max residual=  9.91E-21 < tolwfr=  1.00E-20 =>converged.

 ----iterations are completed or convergence reached----

 dfpt_looppert: DFPT cycle converged with prtwf=-1. Will skip output of the 1st-order WFK file.
 dfpt_looppert : ek2=    1.9592397476E+01
          f-sum rule ratio=    1.0405404712E+00
 prteigrs : about to open file /scratch/users/j/a/jabreu/flow_simple_remain_atoms/flow/w162/t1/tmpdata/tmp_1WF1_EIG
 Expectation of eigenvalue derivatives (hartree) for nkpt=   1  k points:
  (in case of degenerate eigenvalues, averaged derivative)
 kpt#   1, nband= 33, wtk=  1.00000, kpt=  0.0000  0.0000  0.0000 (reduced coord)
  -0.00000   -0.00000   -0.00000    0.00000   -0.00000   -0.00000    0.00000    0.00000
   0.00000    0.00000    0.00000    0.00000   -0.00000    0.00000    0.00000    0.00000
   0.00000    0.00000    0.00000   -0.00000   -0.00000    0.00000    0.00000    0.00000
   0.00000   -0.00000    0.00000    0.00000   -0.00000   -0.00000   -0.00000    0.00000
   0.00000

 Eight components of 2nd-order total energy (hartree) are
 1,2,3: 0th-order hamiltonian combined with 1st-order wavefunctions
     kin0=   3.40507210E+01 eigvalue=  -1.06453549E+00  local=  -1.73881468E+01
 4,5,6: 1st-order hamiltonian combined with 1st and 0th-order wfs
     kin1=  -2.03866825E+01  Hartree=   0.00000000E+00     xc=   0.00000000E+00
 7,8,9: eventually, occupation + non-local contributions
    edocc=   1.35850460E+00     enl0=  -6.08966957E+00   enl1=  -1.34706491E+00
 1-9 gives the relaxation energy (to be shifted if some occ is /=2.0)
   erelax=  -1.08668737E+01
  No Ewald or frozen-wf contrib.: the relaxation energy is the total one
 2DEtotal=   -0.1086687370E+02 Ha. Also 2DEtotal=   -0.295702671735E+03 eV
    (  non-var. 2DEtotal :   -1.0866873704E+01 Ha)

 CALCULATION OF EFFECTIVE MASSES
 NOTE : Additional infos (eff. mass eigenvalues, eigenvectors and, if degenerate, average mass) are available in stdout.

 COMMENTS:
 - At k-point ( 0.000, 0.000, 0.000), bands    23 through    24
   are DEGENERATE (effective mass tensor is therefore not defined).
   See Section IIIB Eqs. (67)-(70) and Appendix E of PRB 93 205147 (2016).
 - Angular average effective mass for Frohlich model is to be averaged over degenerate bands. See later.
 - Associated theta integrals calculated with ntheta=   1000 points.

 K-point ( 0.000, 0.000, 0.000) | band =    23
 Transport equivalent effective mass tensor:
             -0.3379380416             -0.0000000000             -0.0000000005
             -0.0000000000             -0.3379380417              0.0000000002
             -0.0000000005              0.0000000002             -1.1337539833
 Transport equivalent effective mass tensor eigenvalues:
             -1.1337539833             -0.3379380417             -0.3379380416
 Angular average effective mass 1/(<1/m>)=  -0.4388560475
 Angular average effective mass for Frohlich model (<m**0.5>)**2=  -0.4725834321
 Effective masses along directions: (cart. coord. / red. coord. -> eff. mass)
    1:   1.000000  0.000000  0.000000 /   1.000000  0.000000  0.000000 ->  -0.3522220608
    2:   0.000000  1.000000  0.000000 /   0.000000  1.000000  0.000000 ->  -0.3522220608
    3:   0.000000  0.000000  1.000000 /   0.000000  0.000000  1.000000 ->  -1.1249767598
    4:   0.577350  0.577350  0.577350 /   0.438028  0.438028  0.785024 ->  -0.4230944804
    5:   0.000000  0.707107  0.707107 /   0.000000  0.487261  0.873257 ->  -0.5364770498
    6:   0.707107  0.000000  0.707107 /   0.487261  0.000000  0.873257 ->  -0.5364770503
    7:   0.707107  0.707107  0.000000 /   0.707107  0.707107  0.000000 ->  -0.3224918253

 K-point ( 0.000, 0.000, 0.000) | band =    24
 Transport equivalent effective mass tensor:
             -2.1169618100              0.0000000004             -0.0000000002
              0.0000000004             -2.1169618099             -0.0000000000
             -0.0000000002             -0.0000000000             -1.4075159324
 Transport equivalent effective mass tensor eigenvalues:
             -2.1169618104             -2.1169618095             -1.4075159324
 Angular average effective mass 1/(<1/m>)=  -1.5172863468
 Angular average effective mass for Frohlich model (<m**0.5>)**2=  -1.5601912219
 Effective masses along directions: (cart. coord. / red. coord. -> eff. mass)
    1:   1.000000  0.000000  0.000000 /   1.000000  0.000000  0.000000 ->  -1.4737110448
    2:   0.000000  1.000000  0.000000 /   0.000000  1.000000  0.000000 ->  -1.4737110447
    3:   0.000000  0.000000  1.000000 /   0.000000  0.000000  1.000000 ->  -1.1249767610
    4:   0.577350  0.577350  0.577350 /   0.438028  0.438028  0.785024 ->  -1.7416001243
    5:   0.000000  0.707107  0.707107 /   0.000000  0.487261  0.873257 ->  -1.2759444773
    6:   0.707107  0.000000  0.707107 /   0.487261  0.000000  0.873257 ->  -1.2759444776
    7:   0.707107  0.707107  0.000000 /   0.707107  0.707107  0.000000 ->  -2.3990981336

 Angular average effective mass for Frohlich model, averaged over degenerate bands.
 Value of     (<<m**0.5>>)**2 =     9.375305E-01
 Absolute Value of <<m**0.5>> =     9.682616E-01

 K-point ( 0.000, 0.000, 0.000) | band =    25
 Effective mass tensor:
              0.5810025046             -0.0000000000              0.0000000005
             -0.0000000000              0.5810025046              0.0000000002
              0.0000000005              0.0000000002              1.2449040037
 Effective mass tensor eigenvalues:
              0.5810025046              0.5810025046              1.2449040037
 Angular average effective mass 1/(<1/m>)=   0.7066137829
 Angular average effective mass for Frohlich model (<m**0.5>)**2=   0.7302626043
 Effective masses along directions: (cart. coord. / red. coord. -> eff. mass)
    1:   1.000000  0.000000  0.000000 /   1.000000  0.000000  0.000000 ->   0.5810025046
    2:   0.000000  1.000000  0.000000 /   0.000000  1.000000  0.000000 ->   0.5810025046
    3:   0.000000  0.000000  1.000000 /   0.000000  0.000000  1.000000 ->   1.2449040037
    4:   0.577350  0.577350  0.577350 /   0.438028  0.438028  0.785024 ->   0.7066137832
    5:   0.000000  0.707107  0.707107 /   0.000000  0.487261  0.873257 ->   0.7922556177
    6:   0.707107  0.000000  0.707107 /   0.487261  0.000000  0.873257 ->   0.7922556179
    7:   0.707107  0.707107  0.000000 /   0.707107  0.707107  0.000000 ->   0.5810025046

 END OF EFFECTIVE MASSES SECTION

 ---- first-order wavefunction calculations are completed ----

 Total localisation tensor (bohr^2) in cartesian coordinates
  WARNING : still subject to testing - especially symmetries.
      direction              matrix element
   alpha     beta       real part   imaginary part
     1        1       1.3370125961    0.0000000000
     1        2       0.0000000000    0.0000000000
     1        3       0.0000000000    0.0000000000
     2        1       0.0000000000    0.0000000000
     2        2       1.3370125960    0.0000000000
     2        3       0.0000000000    0.0000000000
     3        1       0.0000000000    0.0000000000
     3        2       0.0000000000    0.0000000000
     3        3       1.1078524570    0.0000000000

 respfn : d/dk was computed, but no 2DTE, so no DDB output.

== END DATASET(S) ==============================================================

 -outvars: echo values of variables after computation  --------
            acell      1.0000000000E+00  1.0000000000E+00  1.0000000000E+00 Bohr
              amu      1.38905500E+02  7.99040000E+01  1.59994000E+01
             ecut      5.20000000E+01 Hartree
           etotal     -1.0866873705E+01
            fcart      0.0000000000E+00  0.0000000000E+00  0.0000000000E+00
                       0.0000000000E+00  0.0000000000E+00  0.0000000000E+00
                       0.0000000000E+00  0.0000000000E+00  0.0000000000E+00
                       0.0000000000E+00  0.0000000000E+00  0.0000000000E+00
                       0.0000000000E+00  0.0000000000E+00  0.0000000000E+00
                       0.0000000000E+00  0.0000000000E+00  0.0000000000E+00
-          fftalg         512
           irdden           1
           irdwfk           1
           istwfk        1
              ixc     -116133
           kptopt           0
P           mkmem           1
P          mkqmem           1
P          mk1mem           1
            natom           6
            nband          33
           nbdbuf           4
            ngfft          54      54      96
             nkpt           1
            nstep        2000
             nsym          16
           ntypat           3
              occ      2.000000  2.000000  2.000000  2.000000  2.000000  2.000000
                       2.000000  2.000000  2.000000  2.000000  2.000000  2.000000
                       2.000000  2.000000  2.000000  2.000000  2.000000  2.000000
                       2.000000  2.000000  2.000000  2.000000  2.000000  2.000000
                       0.000000  0.000000  0.000000  0.000000  0.000000  0.000000
                       0.000000  0.000000  0.000000
        optdriver           1
            prtwf          -1
            rfdir           1       1       1
           rfelfd           2
            rprim      7.7605234605E+00  0.0000000000E+00  0.0000000000E+00
                       0.0000000000E+00  7.7605234605E+00  0.0000000000E+00
                       0.0000000000E+00  0.0000000000E+00  1.3908224539E+01
          spgroup         129
           strten      0.0000000000E+00  0.0000000000E+00  0.0000000000E+00
                       0.0000000000E+00  0.0000000000E+00  0.0000000000E+00
           symrel      1  0  0   0  1  0   0  0  1      -1  0  0   0 -1  0   0  0 -1
                      -1  0  0   0  1  0   0  0 -1       1  0  0   0 -1  0   0  0  1
                      -1  0  0   0 -1  0   0  0  1       1  0  0   0  1  0   0  0 -1
                       1  0  0   0 -1  0   0  0 -1      -1  0  0   0  1  0   0  0  1
                       0  1  0   1  0  0   0  0  1       0 -1  0  -1  0  0   0  0 -1
                       0 -1  0   1  0  0   0  0 -1       0  1  0  -1  0  0   0  0  1
                       0 -1  0  -1  0  0   0  0  1       0  1  0   1  0  0   0  0 -1
                       0  1  0  -1  0  0   0  0 -1       0 -1  0   1  0  0   0  0  1
            tnons      0.0000000  0.0000000  0.0000000     0.5000000  0.5000000  0.0000000
                       0.5000000  0.5000000  0.0000000     0.0000000  0.0000000  0.0000000
                       0.0000000  0.0000000  0.0000000     0.5000000  0.5000000  0.0000000
                       0.5000000  0.5000000  0.0000000     0.0000000  0.0000000  0.0000000
                       0.5000000  0.5000000  0.0000000     0.0000000  0.0000000  0.0000000
                       0.0000000  0.0000000  0.0000000     0.5000000  0.5000000  0.0000000
                       0.5000000  0.5000000  0.0000000     0.0000000  0.0000000  0.0000000
                       0.0000000  0.0000000  0.0000000     0.5000000  0.5000000  0.0000000
           tolwfr      1.00000000E-20
            typat      1  1  2  2  3  3
           useylm           1
           xangst      0.0000000000E+00  2.0533460710E+00  6.1700967883E+00
                       2.0533460710E+00  0.0000000000E+00  1.1898186495E+00
                       2.0533460710E+00  0.0000000000E+00  4.6848658530E+00
                       0.0000000000E+00  2.0533460710E+00  2.6750495849E+00
                       0.0000000000E+00  0.0000000000E+00  0.0000000000E+00
                       2.0533460710E+00  2.0533460710E+00  0.0000000000E+00
            xcart      0.0000000000E+00  3.8802617302E+00  1.1659793143E+01
                       3.8802617302E+00  0.0000000000E+00  2.2484313954E+00
                       3.8802617302E+00  0.0000000000E+00  8.8531134314E+00
                       0.0000000000E+00  3.8802617302E+00  5.0551111073E+00
                       0.0000000000E+00  0.0000000000E+00  0.0000000000E+00
                       3.8802617302E+00  3.8802617302E+00  0.0000000000E+00
             xred      0.0000000000E+00  5.0000000000E-01  8.3833800000E-01
                       5.0000000000E-01  0.0000000000E+00  1.6166200000E-01
                       5.0000000000E-01  0.0000000000E+00  6.3653800000E-01
                       0.0000000000E+00  5.0000000000E-01  3.6346200000E-01
                       0.0000000000E+00  0.0000000000E+00  0.0000000000E+00
                       5.0000000000E-01  5.0000000000E-01  0.0000000000E+00
            znucl       57.00000   35.00000    8.00000

- Timing analysis has been suppressed with timopt=0

 Suggested references for the acknowledgment of ABINIT usage.

 Calculation completed.
.Delivered   2 WARNINGs and   5 COMMENTs to log file.