.Version 9.5.1 of ABINIT

 ABINIT is a project of the Universite Catholique de Louvain,
 Corning Inc. and other collaborators, see ~abinit/doc/developers/contributors.txt .
 acknowledgments of the ABINIT effort.

.Starting date : Sun 25 Apr 2021.
- ( at 17h26 )

- input  file    -> /scratch/users/j/a/jabreu/flow_simple2/flow/w239/t1/run.abi
- output file    -> /scratch/users/j/a/jabreu/flow_simple2/flow/w239/t1/run.abo
- root for input  files -> /scratch/users/j/a/jabreu/flow_simple2/flow/w239/t1/indata/in
- root for output files -> /scratch/users/j/a/jabreu/flow_simple2/flow/w239/t1/outdata/out

 Symmetries : space group Fm -3 m (#225); Bravais cF (face-center cubic)
     intxc =       0      iscf =       7    lmnmax =      18     lnmax =       6
     mgfft =      50  mpssoang =       3    mqgrid =    3001     natom =       2
  nloc_mem =       1    nspden =       1   nspinor =       1    nsppol =       1
      nsym =      48    n1xccc =    2501    ntypat =       2    occopt =       1
   xclevel =       2
-    mband =          22        mffmem =           1         mkmem =           2
-   mkqmem =           2        mk1mem =           2           mpw =        5434
      nfft =      125000          nkpt =           2
  Rough estimation (10% accuracy) of disk space for files :

------------- Echo of variables that govern the present computation ------------
-
- outvars: echo of selected default values
-   iomode0 =  0 , fftalg0 =512 , wfoptalg0 =  0
-
- outvars: echo of global parameters not present in the input file
-  max_nthreads =    0
-
 -outvars: echo values of preprocessed input variables --------
            acell      1.0000000000E+00  1.0000000000E+00  1.0000000000E+00 Bohr
              amu      8.76200000E+01  7.89600000E+01
             ecut      4.30000000E+01 Hartree
-          fftalg         512
           irdden           1
           irdwfk           1
           istwfk        1    1
              ixc     -116133
              kpt      0.00000000E+00  0.00000000E+00  0.00000000E+00
                       5.00000000E-01 -2.46519033E-32  5.00000000E-01
           kptopt           0
P           mkmem           2
P          mkqmem           2
P          mk1mem           2
            natom           2
            nband          22
           nbdbuf           4
            ngfft          50      50      50
             nkpt           2
            nstep         100
             nsym          48
           ntypat           2
              occ      2.000000  2.000000  2.000000  2.000000  2.000000  2.000000
                       2.000000  2.000000  2.000000  2.000000  2.000000  2.000000
                       2.000000  0.000000  0.000000  0.000000  0.000000  0.000000
                       0.000000  0.000000  0.000000  0.000000
        optdriver           1
            prtwf          -1
            rfdir           1       1       1
           rfelfd           2
            rprim      7.1688450565E+00  0.0000000000E+00  4.1389346232E+00
                       2.3896150188E+00  6.7588519370E+00  4.1389346232E+00
                       0.0000000000E+00  0.0000000000E+00  8.2778692463E+00
          spgroup         225
           symrel      1  0  0   0  1  0   0  0  1      -1  0  0   0 -1  0   0  0 -1
                       0 -1  1   0 -1  0   1 -1  0       0  1 -1   0  1  0  -1  1  0
                      -1  0  0  -1  0  1  -1  1  0       1  0  0   1  0 -1   1 -1  0
                       0  1 -1   1  0 -1   0  0 -1       0 -1  1  -1  0  1   0  0  1
                      -1  0  0  -1  1  0  -1  0  1       1  0  0   1 -1  0   1  0 -1
                       0 -1  1   1 -1  0   0 -1  0       0  1 -1  -1  1  0   0  1  0
                       1  0  0   0  0  1   0  1  0      -1  0  0   0  0 -1   0 -1  0
                       0  1 -1   0  0 -1   1  0 -1       0 -1  1   0  0  1  -1  0  1
                      -1  0  1  -1  1  0  -1  0  0       1  0 -1   1 -1  0   1  0  0
                       0 -1  0   1 -1  0   0 -1  1       0  1  0  -1  1  0   0  1 -1
                       1  0 -1   0  0 -1   0  1 -1      -1  0  1   0  0  1   0 -1  1
                       0  1  0   0  0  1   1  0  0       0 -1  0   0  0 -1  -1  0  0
                       1  0 -1   0  1 -1   0  0 -1      -1  0  1   0 -1  1   0  0  1
                       0 -1  0   0 -1  1   1 -1  0       0  1  0   0  1 -1  -1  1  0
                      -1  0  1  -1  0  0  -1  1  0       1  0 -1   1  0  0   1 -1  0
                       0  1  0   1  0  0   0  0  1       0 -1  0  -1  0  0   0  0 -1
                       0  0 -1   0  1 -1   1  0 -1       0  0  1   0 -1  1  -1  0  1
                       1 -1  0   0 -1  1   0 -1  0      -1  1  0   0  1 -1   0  1  0
                       0  0  1   1  0  0   0  1  0       0  0 -1  -1  0  0   0 -1  0
                      -1  1  0  -1  0  0  -1  0  1       1 -1  0   1  0  0   1  0 -1
                       0  0  1   0  1  0   1  0  0       0  0 -1   0 -1  0  -1  0  0
                       1 -1  0   0 -1  0   0 -1  1      -1  1  0   0  1  0   0  1 -1
                       0  0 -1   1  0 -1   0  1 -1       0  0  1  -1  0  1   0 -1  1
                      -1  1  0  -1  0  1  -1  0  0       1 -1  0   1  0 -1   1  0  0
           tolwfr      1.00000000E-20
            typat      1  2
           useylm           1
              wtk        0.50000    0.50000
           xangst      0.0000000000E+00  0.0000000000E+00  0.0000000000E+00
                       2.5290596105E+00  1.7883152006E+00  4.3804597409E+00
            xcart      0.0000000000E+00  0.0000000000E+00  0.0000000000E+00
                       4.7792300377E+00  3.3794259685E+00  8.2778692464E+00
             xred      0.0000000000E+00  0.0000000000E+00  0.0000000000E+00
                       5.0000000000E-01  5.0000000000E-01  5.0000000000E-01
            znucl       38.00000   34.00000

 chkinp: Checking input parameters for consistency.

== DATASET  1 ==================================================================
-   mpi_nproc: 1, omp_nthreads: -1 (-1 if OMP is not activated)

--- !DatasetInfo
iteration_state: {dtset: 1, }
dimensions: {natom: 2, nkpt: 2, mband: 22, nsppol: 1, nspinor: 1, nspden: 1, mpw: 5434, }
cutoff_energies: {ecut:  43.0, pawecutdg:  -1.0, }
electrons: {nelect:   2.60000000E+01, charge:   0.00000000E+00, occopt:   1.00000000E+00, tsmear:   1.00000000E-02, }
meta: {optdriver: 1, rfelfd: 2, }
...

 Real(R)+Recip(G) space primitive vectors, cartesian coordinates (Bohr,Bohr^-1):
 R(1)=  7.1688451  0.0000000  4.1389346  G(1)=  0.1394925 -0.0493180  0.0000000
 R(2)=  2.3896150  6.7588519  4.1389346  G(2)=  0.0000000  0.1479541  0.0000000
 R(3)=  0.0000000  0.0000000  8.2778692  G(3)= -0.0697462 -0.0493180  0.1208040
 Unit cell volume ucvol=  4.0108894E+02 bohr^3
 Angles (23,13,12)=  6.00000000E+01  6.00000000E+01  6.00000000E+01 degrees

 getcut: wavevector=  0.0000  0.0000  0.0000  ngfft=  50  50  50
         ecut(hartree)=     43.000   => boxcut(ratio)=   2.04704

--- Pseudopotential description ------------------------------------------------
- pspini: atom type   1  psp file is /scratch/users/j/a/jabreu/pseudos/PBEsol/Sr.psp8
- pspatm: opening atomic psp file    /scratch/users/j/a/jabreu/pseudos/PBEsol/Sr.psp8
- Sr    ONCVPSP-3.3.0  r_core=   1.66721   1.31335   1.51547
- 38.00000  10.00000    180112                znucl, zion, pspdat
    8 -116133    2    4       600   0.00000   pspcod,pspxc,lmax,lloc,mmax,r2well
    5.99000000000000    6.00000000000000    0.00000000000000   rchrg,fchrg,qchrg
     nproj     2     2     2
     extension_switch     1
  pspatm : epsatm=   12.46450977
         --- l  ekb(1:nproj) -->
             0   10.029206    1.044171
             1    7.472414    1.670829
             2    4.142950    0.968140
 pspatm: atomic psp has been read  and splines computed

- pspini: atom type   2  psp file is /scratch/users/j/a/jabreu/pseudos/PBEsol/Se.psp8
- pspatm: opening atomic psp file    /scratch/users/j/a/jabreu/pseudos/PBEsol/Se.psp8
- Se    ONCVPSP-3.3.0  r_core=   1.81943   1.50330   1.90835
- 34.00000  16.00000    180112                znucl, zion, pspdat
    8 -116133    2    4       600   0.00000   pspcod,pspxc,lmax,lloc,mmax,r2well
    5.99000000000000    5.00000000000000    0.00000000000000   rchrg,fchrg,qchrg
     nproj     2     2     2
     extension_switch     1
  pspatm : epsatm=   29.17862020
         --- l  ekb(1:nproj) -->
             0    8.973804    1.019550
             1    6.849857    1.297308
             2   -9.203962   -3.731027
 pspatm: atomic psp has been read  and splines computed

   1.08272138E+03                                ecore*ucvol(ha*bohr**3)

-inwffil : will read wavefunctions from disk file /scratch/users/j/a/jabreu/flow_simple2/flow/w239/t1/indata/in_WFK

 ==>  initialize data related to q vector <==

 The list of irreducible perturbations for this q vector is:
    1)    idir= 1    ipert=   3
    2)    idir= 2    ipert=   3
    3)    idir= 3    ipert=   3

 Perturbation wavevector (in red.coord.)   0.000000  0.000000  0.000000
 Perturbation : derivative vs k along direction   1

 dfpt_looppert : COMMENT -
  In a d/dk calculation, iscf is set to -3 automatically.
 The set of symmetries contains only one element for this perturbation.
 symkpt : not enough symmetry to change the number of k points.

[...]

 Initialisation of the first-order wave-functions :
  ireadwf=   0

--- !BeginCycle
iteration_state: {dtset: 1, }
solver: {iscf: 7, nstep: 100, nline: 4, wfoptalg: 0, }
tolerances: {tolwfr: 1.00E-20, }
...

     iter   2DEtotal(Ha)        deltaE(Ha) residm    vres2
-ETOT  1  -52.786991067563     -5.279E+01 6.922E-02 0.000E+00
 ETOT  2  -52.808027183097     -2.104E-02 3.457E-05 0.000E+00
 ETOT  3  -52.808042212515     -1.503E-05 2.120E-07 0.000E+00
 ETOT  4  -52.808042261989     -4.947E-08 7.666E-10 0.000E+00
 ETOT  5  -52.808042262195     -2.062E-10 4.785E-12 0.000E+00
 ETOT  6  -52.808042262196     -9.024E-13 1.928E-14 0.000E+00
 ETOT  7  -52.808042262196     -7.105E-15 2.355E-16 0.000E+00
 ETOT  8  -52.808042262196      1.421E-14 2.050E-18 0.000E+00
 ETOT  9  -52.808042262196      7.105E-15 1.353E-19 0.000E+00
 ETOT 10  -52.808042262196      0.000E+00 9.879E-21 0.000E+00

 At SCF step   10   max residual=  9.88E-21 < tolwfr=  1.00E-20 =>converged.

 ----iterations are completed or convergence reached----

 dfpt_looppert: DFPT cycle converged with prtwf=-1. Will skip output of the 1st-order WFK file.
 dfpt_looppert : ek2=    4.4938359585E+01
          f-sum rule ratio=    1.3766445880E+00
 prteigrs : about to open file /scratch/users/j/a/jabreu/flow_simple2/flow/w239/t1/tmpdata/tmp_1WF1_EIG
 Expectation of eigenvalue derivatives (hartree) for nkpt=   2  k points:
  (in case of degenerate eigenvalues, averaged derivative)
 kpt#   1, nband= 22, wtk=  0.50000, kpt=  0.0000  0.0000  0.0000 (reduced coord)
  -0.00000   -0.00000    0.00000    0.00000    0.00000    0.00000   -0.00000   -0.00000
  -0.00000   -0.00000   -0.00000   -0.00000   -0.00000   -0.00000    0.00000    0.00000
   0.00000    0.00000    0.00000   -0.00000    0.00498   -0.06877
 prteigrs : prtvol=0 or 1, do not print more k-points.

 Eight components of 2nd-order total energy (hartree) are
 1,2,3: 0th-order hamiltonian combined with 1st-order wavefunctions
     kin0=   3.82371647E+01 eigvalue=   6.38511583E+00  local=  -1.55420602E+01
 4,5,6: 1st-order hamiltonian combined with 1st and 0th-order wfs
     kin1=  -6.18641495E+01  Hartree=   0.00000000E+00     xc=   0.00000000E+00
 7,8,9: eventually, occupation + non-local contributions
    edocc=   1.92081700E+01     enl0=   4.51965198E+00   enl1=  -4.37519350E+01
 1-9 gives the relaxation energy (to be shifted if some occ is /=2.0)
   erelax=  -5.28080423E+01
  No Ewald or frozen-wf contrib.: the relaxation energy is the total one
 2DEtotal=   -0.5280804226E+02 Ha. Also 2DEtotal=   -0.143697990889E+04 eV
    (  non-var. 2DEtotal :   -5.2808042262E+01 Ha)

 Perturbation wavevector (in red.coord.)   0.000000  0.000000  0.000000
 Perturbation : derivative vs k along direction   2
 The set of symmetries contains only one element for this perturbation.
 symkpt : not enough symmetry to change the number of k points.

[...]

 Perturbation wavevector (in red.coord.)   0.000000  0.000000  0.000000
 Perturbation : derivative vs k along direction   3
 The set of symmetries contains only one element for this perturbation.
 symkpt : not enough symmetry to change the number of k points.

-inwffil : will read wavefunctions from disk file /scratch/users/j/a/jabreu/flow_simple2/flow/w239/t1/indata/in_WFK

 Initialisation of the first-order wave-functions :
  ireadwf=   0

--- !BeginCycle
iteration_state: {dtset: 1, }
solver: {iscf: 7, nstep: 100, nline: 4, wfoptalg: 0, }
tolerances: {tolwfr: 1.00E-20, }
...

     iter   2DEtotal(Ha)        deltaE(Ha) residm    vres2
-ETOT  1  -52.786313042958     -5.279E+01 7.042E-02 0.000E+00
 ETOT  2  -52.807931027485     -2.162E-02 4.004E-05 0.000E+00
 ETOT  3  -52.807944710732     -1.368E-05 2.120E-07 0.000E+00
 ETOT  4  -52.807944753625     -4.289E-08 7.666E-10 0.000E+00
 ETOT  5  -52.807944753807     -1.816E-10 4.785E-12 0.000E+00
 ETOT  6  -52.807944753808     -8.242E-13 1.928E-14 0.000E+00
 ETOT  7  -52.807944753808      0.000E+00 2.355E-16 0.000E+00
 ETOT  8  -52.807944753807      3.553E-14 2.050E-18 0.000E+00
 ETOT  9  -52.807944753807      7.105E-15 1.353E-19 0.000E+00
 ETOT 10  -52.807944753807     -2.842E-14 9.878E-21 0.000E+00

 At SCF step   10   max residual=  9.88E-21 < tolwfr=  1.00E-20 =>converged.

 ----iterations are completed or convergence reached----

 dfpt_looppert: DFPT cycle converged with prtwf=-1. Will skip output of the 1st-order WFK file.
 dfpt_looppert : ek2=    4.4938359585E+01
          f-sum rule ratio=    1.3766415359E+00
 prteigrs : about to open file /scratch/users/j/a/jabreu/flow_simple2/flow/w239/t1/tmpdata/tmp_1WF1_EIG
 Expectation of eigenvalue derivatives (hartree) for nkpt=   2  k points:
  (in case of degenerate eigenvalues, averaged derivative)
 kpt#   1, nband= 22, wtk=  0.50000, kpt=  0.0000  0.0000  0.0000 (reduced coord)
   0.00000    0.00000    0.00000    0.00000    0.00000   -0.00000    0.00000    0.00000
   0.00000   -0.00000    0.00000    0.00000    0.00000   -0.00000    0.00000    0.00000
   0.00000   -0.00000   -0.00000    0.00000    0.00108   -0.00468
 prteigrs : prtvol=0 or 1, do not print more k-points.

 Eight components of 2nd-order total energy (hartree) are
 1,2,3: 0th-order hamiltonian combined with 1st-order wavefunctions
     kin0=   3.79298481E+01 eigvalue=   6.39263230E+00  local=  -1.53754663E+01
 4,5,6: 1st-order hamiltonian combined with 1st and 0th-order wfs
     kin1=  -6.18640124E+01  Hartree=   0.00000000E+00     xc=   0.00000000E+00
 7,8,9: eventually, occupation + non-local contributions
    edocc=   1.93325572E+01     enl0=   4.52837348E+00   enl1=  -4.37518771E+01
 1-9 gives the relaxation energy (to be shifted if some occ is /=2.0)
   erelax=  -5.28079448E+01
  No Ewald or frozen-wf contrib.: the relaxation energy is the total one
 2DEtotal=   -0.5280794475E+02 Ha. Also 2DEtotal=   -0.143697725555E+04 eV
    (  non-var. 2DEtotal :   -5.2807944754E+01 Ha)

 CALCULATION OF EFFECTIVE MASSES
 NOTE : Additional infos (eff. mass eigenvalues, eigenvectors and, if degenerate, average mass) are available in stdout.

 COMMENTS:
 - At k-point ( 0.000, 0.000, 0.000), bands    11 through    13
   are DEGENERATE (effective mass tensor is therefore not defined).
   See Section IIIB Eqs. (67)-(70) and Appendix E of PRB 93 205147 (2016).
 - Angular average effective mass for Frohlich model is to be averaged over degenerate bands. See later.
 - Associated theta integrals calculated with ntheta=   1000 points.

 K-point ( 0.000, 0.000, 0.000) | band =    11
 Transport equivalent effective mass tensor:
             -0.1985550457             -0.0000025759              0.0000000038
             -0.0000025759             -0.1985574931             -0.0000000552
              0.0000000038             -0.0000000552             -0.1985563505
 Transport equivalent effective mass tensor eigenvalues:
             -0.1985591219             -0.1985563501             -0.1985534173
 Angular average effective mass 1/(<1/m>)=  -0.1911114916
 Angular average effective mass for Frohlich model (<m**0.5>)**2=  -0.1916227365
 Effective masses along directions: (cart. coord. / red. coord. -> eff. mass)
    1:   1.000000  0.000000  0.000000 /   0.948683  0.316228  0.000000 ->  -0.1971030220
    2:   0.000000  1.000000  0.000000 /   0.000000  1.000000  0.000000 ->  -0.2113442682
    3:   0.000000  0.000000  1.000000 /   0.408248  0.408248  0.816497 ->  -0.1989557705
    4:   0.577350  0.577350  0.577350 /   0.585539  0.688047  0.428644 ->  -0.1978453063
    5:   0.000000  0.707107  0.707107 /   0.289489  0.762222  0.578977 ->  -0.1837314503
    6:   0.707107  0.000000  0.707107 /   0.731423  0.422287  0.535439 ->  -0.1980134134
    7:   0.707107  0.707107  0.000000 /   0.616798  0.787122  0.000000 ->  -0.1716133242

[...]

 K-point ( 0.000, 0.000, 0.000) | band =    13
 Transport equivalent effective mass tensor:
             -1.4250152722              0.0001078403              0.0000516977
              0.0001078403             -1.4249298087              0.0000367318
              0.0000516977              0.0000367318             -1.4250534129
 Transport equivalent effective mass tensor eigenvalues:
             -1.4251025905             -1.4250560555             -1.4248398477
 Angular average effective mass 1/(<1/m>)=  -1.0496129352
 Angular average effective mass for Frohlich model (<m**0.5>)**2=  -1.0652169744
 Effective masses along directions: (cart. coord. / red. coord. -> eff. mass)
    1:   1.000000  0.000000  0.000000 /   0.948683  0.316228  0.000000 ->  -0.8992296632
    2:   0.000000  1.000000  0.000000 /   0.000000  1.000000  0.000000 ->  -0.7109323504
    3:   0.000000  0.000000  1.000000 /   0.408248  0.408248  0.816497 ->  -1.2233131577
    4:   0.577350  0.577350  0.577350 /   0.585539  0.688047  0.428644 ->  -0.9667642340
    5:   0.000000  0.707107  0.707107 /   0.289489  0.762222  0.578977 ->  -1.1929371249
    6:   0.707107  0.000000  0.707107 /   0.731423  0.422287  0.535439 ->  -1.0822137741
    7:   0.707107  0.707107  0.000000 /   0.616798  0.787122  0.000000 ->  -1.1866250728

 Angular average effective mass for Frohlich model, averaged over degenerate bands.
 Value of     (<<m**0.5>>)**2 =     6.078953E-01
 Absolute Value of <<m**0.5>> =     7.796764E-01

 K-point ( 0.500,-0.000, 0.500) | band =    14
 Effective mass tensor:
              0.4372446873             -0.2321981282              0.2843836259
             -0.2321981282              0.6014325457             -0.4021784373
              0.2843836259             -0.4021784373              0.7656221753
 Effective mass tensor eigenvalues:
              0.2730554732              0.2730556884              1.2581882467
 Angular average effective mass 1/(<1/m>)=   0.3694895376
 Angular average effective mass for Frohlich model (<m**0.5>)**2=   0.4114492073
 Effective masses along directions: (cart. coord. / red. coord. -> eff. mass)
    1:   1.000000  0.000000  0.000000 /   0.948683  0.316228  0.000000 ->   0.3140361612
    2:   0.000000  1.000000  0.000000 /   0.000000  1.000000  0.000000 ->   0.3694892705
    3:   0.000000  0.000000  1.000000 /   0.408248  0.408248  0.816497 ->   0.4487273891
    4:   0.577350  0.577350  0.577350 /   0.585539  0.688047  0.428644 ->   0.2953689597
    5:   0.000000  0.707107  0.707107 /   0.289489  0.762222  0.578977 ->   0.2748674011
    6:   0.707107  0.000000  0.707107 /   0.731423  0.422287  0.535439 ->   0.5322916025
    7:   0.707107  0.707107  0.000000 /   0.616798  0.787122  0.000000 ->   0.2761468491

 END OF EFFECTIVE MASSES SECTION

 ---- first-order wavefunction calculations are completed ----

 Total localisation tensor (bohr^2) in cartesian coordinates
  WARNING : still subject to testing - especially symmetries.
      direction              matrix element
   alpha     beta       real part   imaginary part
     1        1       2.9242104765    0.0000000000
     1        2       0.8270909822    0.0000000000
     1        3       2.0259521853    0.0000000000
     2        1       0.8270909822    0.0000000000
     2        2       2.3393665687    0.0000000000
     2        3       1.4325636036    0.0000000000
     3        1       2.0259521853    0.0000000000
     3        2       1.4325636036    0.0000000000
     3        3       5.2635730849    0.0000000000

 respfn : d/dk was computed, but no 2DTE, so no DDB output.

== END DATASET(S) ==============================================================

 -outvars: echo values of variables after computation  --------
            acell      1.0000000000E+00  1.0000000000E+00  1.0000000000E+00 Bohr
              amu      8.76200000E+01  7.89600000E+01
             ecut      4.30000000E+01 Hartree
           etotal     -5.2807944754E+01
            fcart      0.0000000000E+00  0.0000000000E+00  0.0000000000E+00
                       0.0000000000E+00  0.0000000000E+00  0.0000000000E+00
-          fftalg         512
           irdden           1
           irdwfk           1
           istwfk        1    1
              ixc     -116133
              kpt      0.00000000E+00  0.00000000E+00  0.00000000E+00
                       5.00000000E-01 -2.46519033E-32  5.00000000E-01
           kptopt           0
P           mkmem           2
P          mkqmem           2
P          mk1mem           2
            natom           2
            nband          22
           nbdbuf           4
            ngfft          50      50      50
             nkpt           2
            nstep         100
             nsym          48
           ntypat           2
              occ      2.000000  2.000000  2.000000  2.000000  2.000000  2.000000
                       2.000000  2.000000  2.000000  2.000000  2.000000  2.000000
                       2.000000  0.000000  0.000000  0.000000  0.000000  0.000000
                       0.000000  0.000000  0.000000  0.000000
        optdriver           1
            prtwf          -1
            rfdir           1       1       1
           rfelfd           2
            rprim      7.1688450565E+00  0.0000000000E+00  4.1389346232E+00
                       2.3896150188E+00  6.7588519370E+00  4.1389346232E+00
                       0.0000000000E+00  0.0000000000E+00  8.2778692463E+00
          spgroup         225
           strten      0.0000000000E+00  0.0000000000E+00  0.0000000000E+00
                       0.0000000000E+00  0.0000000000E+00  0.0000000000E+00
           symrel      1  0  0   0  1  0   0  0  1      -1  0  0   0 -1  0   0  0 -1
                       0 -1  1   0 -1  0   1 -1  0       0  1 -1   0  1  0  -1  1  0
                      -1  0  0  -1  0  1  -1  1  0       1  0  0   1  0 -1   1 -1  0
                       0  1 -1   1  0 -1   0  0 -1       0 -1  1  -1  0  1   0  0  1
                      -1  0  0  -1  1  0  -1  0  1       1  0  0   1 -1  0   1  0 -1
                       0 -1  1   1 -1  0   0 -1  0       0  1 -1  -1  1  0   0  1  0
                       1  0  0   0  0  1   0  1  0      -1  0  0   0  0 -1   0 -1  0
                       0  1 -1   0  0 -1   1  0 -1       0 -1  1   0  0  1  -1  0  1
                      -1  0  1  -1  1  0  -1  0  0       1  0 -1   1 -1  0   1  0  0
                       0 -1  0   1 -1  0   0 -1  1       0  1  0  -1  1  0   0  1 -1
                       1  0 -1   0  0 -1   0  1 -1      -1  0  1   0  0  1   0 -1  1
                       0  1  0   0  0  1   1  0  0       0 -1  0   0  0 -1  -1  0  0
                       1  0 -1   0  1 -1   0  0 -1      -1  0  1   0 -1  1   0  0  1
                       0 -1  0   0 -1  1   1 -1  0       0  1  0   0  1 -1  -1  1  0
                      -1  0  1  -1  0  0  -1  1  0       1  0 -1   1  0  0   1 -1  0
                       0  1  0   1  0  0   0  0  1       0 -1  0  -1  0  0   0  0 -1
                       0  0 -1   0  1 -1   1  0 -1       0  0  1   0 -1  1  -1  0  1
                       1 -1  0   0 -1  1   0 -1  0      -1  1  0   0  1 -1   0  1  0
                       0  0  1   1  0  0   0  1  0       0  0 -1  -1  0  0   0 -1  0
                      -1  1  0  -1  0  0  -1  0  1       1 -1  0   1  0  0   1  0 -1
                       0  0  1   0  1  0   1  0  0       0  0 -1   0 -1  0  -1  0  0
                       1 -1  0   0 -1  0   0 -1  1      -1  1  0   0  1  0   0  1 -1
                       0  0 -1   1  0 -1   0  1 -1       0  0  1  -1  0  1   0 -1  1
                      -1  1  0  -1  0  1  -1  0  0       1 -1  0   1  0 -1   1  0  0
           tolwfr      1.00000000E-20
            typat      1  2
           useylm           1
              wtk        0.50000    0.50000
           xangst      0.0000000000E+00  0.0000000000E+00  0.0000000000E+00
                       2.5290596105E+00  1.7883152006E+00  4.3804597409E+00
            xcart      0.0000000000E+00  0.0000000000E+00  0.0000000000E+00
                       4.7792300377E+00  3.3794259685E+00  8.2778692464E+00
             xred      0.0000000000E+00  0.0000000000E+00  0.0000000000E+00
                       5.0000000000E-01  5.0000000000E-01  5.0000000000E-01
            znucl       38.00000   34.00000

- Timing analysis has been suppressed with timopt=0

 Suggested references for the acknowledgment of ABINIT usage.

 Calculation completed.
.Delivered  14 WARNINGs and   9 COMMENTs to log file.