.Version 9.5.1 of ABINIT

 ABINIT is a project of the Universite Catholique de Louvain,
 Corning Inc. and other collaborators, see ~abinit/doc/developers/contributors.txt .
 acknowledgments of the ABINIT effort.

.Starting date : Tue 27 Apr 2021.
- ( at 18h45 )

- input  file    -> /scratch/users/j/a/jabreu/flow_simple_4atoms/flow/w252/t1/run.abi
- output file    -> /scratch/users/j/a/jabreu/flow_simple_4atoms/flow/w252/t1/run.abo
- root for input  files -> /scratch/users/j/a/jabreu/flow_simple_4atoms/flow/w252/t1/indata/in
- root for output files -> /scratch/users/j/a/jabreu/flow_simple_4atoms/flow/w252/t1/outdata/out

 Symmetries : space group R-3 m (#166); Bravais hR (rhombohedral)
     intxc =       0      iscf =       7    lmnmax =      18     lnmax =       6
     mgfft =      75  mpssoang =       3    mqgrid =    3001     natom =       4
  nloc_mem =       1    nspden =       1   nspinor =       1    nsppol =       1
      nsym =      12    n1xccc =    2501    ntypat =       3    occopt =       1
   xclevel =       2
-    mband =          31        mffmem =           1         mkmem =           2
-   mkqmem =           2        mk1mem =           2           mpw =        5561
      nfft =      421875          nkpt =           2
  Rough estimation (10% accuracy) of disk space for files :

------------- Echo of variables that govern the present computation ------------
-
- outvars: echo of selected default values
-   iomode0 =  0 , fftalg0 =512 , wfoptalg0 =  0
-
- outvars: echo of global parameters not present in the input file
-  max_nthreads =    0
-
 -outvars: echo values of preprocessed input variables --------
            acell      1.0000000000E+00  1.0000000000E+00  1.0000000000E+00 Bohr
              amu      1.14820000E+02  1.07868200E+02  1.59994000E+01
             ecut      4.40000000E+01 Hartree
-          fftalg         512
           irdden           1
           irdwfk           1
           istwfk        0    1
              ixc     -116133
              kpt      5.66967905E-01  4.33032095E-01  0.00000000E+00
                       0.00000000E+00  0.00000000E+00  0.00000000E+00
           kptopt           0
P           mkmem           2
P          mkqmem           2
P          mk1mem           2
            natom           4
            nband          31
           nbdbuf           4
            ngfft          75      75      75
             nkpt           2
            nstep         100
             nsym          12
           ntypat           3
              occ      2.000000  2.000000  2.000000  2.000000  2.000000  2.000000
                       2.000000  2.000000  2.000000  2.000000  2.000000  2.000000
                       2.000000  2.000000  2.000000  2.000000  2.000000  2.000000
                       2.000000  2.000000  2.000000  2.000000  0.000000  0.000000
                       0.000000  0.000000  0.000000  0.000000  0.000000  0.000000
                       0.000000
        optdriver           1
            prtwf          -1
            rfdir           1       1       1
           rfelfd           2
            rprim      6.0109677148E+00  0.0000000000E+00  1.0830550216E+01
                       2.8040287496E+00  5.3168746121E+00  1.0830550216E+01
                       0.0000000000E+00  0.0000000000E+00  1.2386789368E+01
          spgroup         166
           symrel      1  0  0   0  1  0   0  0  1      -1  0  0   0 -1  0   0  0 -1
                       0  1  0   1  0  0   0  0  1       0 -1  0  -1  0  0   0  0 -1
                       0  0  1   1  0  0   0  1  0       0  0 -1  -1  0  0   0 -1  0
                       1  0  0   0  0  1   0  1  0      -1  0  0   0  0 -1   0 -1  0
                       0  1  0   0  0  1   1  0  0       0 -1  0   0  0 -1  -1  0  0
                       0  0  1   0  1  0   1  0  0       0  0 -1   0 -1  0  -1  0  0
           tolwfr      1.00000000E-20
            typat      1  2  3  3
           useylm           1
              wtk        0.50000    0.50000
           xangst      2.3323476114E+00  1.4067844328E+00  9.0086836416E+00
                       0.0000000000E+00  0.0000000000E+00  0.0000000000E+00
                       4.1538178020E+00  2.5054268035E+00  1.6044105218E+01
                       5.1087742080E-01  3.0814206217E-01  1.9732620649E+00
            xcart      4.4074982322E+00  2.6584373060E+00  1.7023944900E+01
                       0.0000000000E+00  0.0000000000E+00  0.0000000000E+00
                       7.8495780516E+00  4.7345705046E+00  3.0318964910E+01
                       9.6541841278E-01  5.8230410752E-01  3.7289248910E+00
             xred      5.0000000000E-01  5.0000000000E-01  5.0000000000E-01
                       0.0000000000E+00  0.0000000000E+00  0.0000000000E+00
                       8.9048000000E-01  8.9048000000E-01  8.9048000000E-01
                       1.0952000000E-01  1.0952000000E-01  1.0952000000E-01
            znucl       49.00000   47.00000    8.00000

 chkinp: Checking input parameters for consistency.

== DATASET  1 ==================================================================
-   mpi_nproc: 1, omp_nthreads: -1 (-1 if OMP is not activated)

--- !DatasetInfo
iteration_state: {dtset: 1, }
dimensions: {natom: 4, nkpt: 2, mband: 31, nsppol: 1, nspinor: 1, nspden: 1, mpw: 5561, }
cutoff_energies: {ecut:  44.0, pawecutdg:  -1.0, }
electrons: {nelect:   4.40000000E+01, charge:   0.00000000E+00, occopt:   1.00000000E+00, tsmear:   1.00000000E-02, }
meta: {optdriver: 1, rfelfd: 2, }
...

 Real(R)+Recip(G) space primitive vectors, cartesian coordinates (Bohr,Bohr^-1):
 R(1)=  6.0109677  0.0000000 10.8305502  G(1)=  0.1663626 -0.0877368  0.0000000
 R(2)=  2.8040287  5.3168746 10.8305502  G(2)=  0.0000000  0.1880804  0.0000000
 R(3)=  0.0000000  0.0000000 12.3867894  G(3)= -0.1454613 -0.0877368  0.0807312
 Unit cell volume ucvol=  3.9587636E+02 bohr^3
 Angles (23,13,12)=  2.90303246E+01  2.90303246E+01  2.90303246E+01 degrees

 getcut: wavevector=  0.0000  0.0000  0.0000  ngfft=  75  75  75
         ecut(hartree)=     44.000   => boxcut(ratio)=   2.00122

--- Pseudopotential description ------------------------------------------------
- pspini: atom type   1  psp file is /scratch/users/j/a/jabreu/pseudos/PBEsol/In.psp8
- pspatm: opening atomic psp file    /scratch/users/j/a/jabreu/pseudos/PBEsol/In.psp8
- In    ONCVPSP-3.3.0  r_core=   2.10853   2.37566   1.87143
- 49.00000  13.00000    180112                znucl, zion, pspdat
    8 -116133    2    4       600   0.00000   pspcod,pspxc,lmax,lloc,mmax,r2well
    5.99000000000000    5.00000000000000    0.00000000000000   rchrg,fchrg,qchrg
     nproj     2     2     2
     extension_switch     1
  pspatm : epsatm=   25.17984752
         --- l  ekb(1:nproj) -->
             0   12.999887    1.931740
             1    5.981707    1.012544
             2   -4.048011   -1.239028
 pspatm: atomic psp has been read  and splines computed

- pspini: atom type   2  psp file is /scratch/users/j/a/jabreu/pseudos/PBEsol/Ag.psp8
- pspatm: opening atomic psp file    /scratch/users/j/a/jabreu/pseudos/PBEsol/Ag.psp8
- Ag    ONCVPSP-3.3.0  r_core=   1.41384   1.46535   1.61207
- 47.00000  19.00000    180112                znucl, zion, pspdat
    8 -116133    2    4       600   0.00000   pspcod,pspxc,lmax,lloc,mmax,r2well
    5.99000000000000    7.00000000000000    0.00000000000000   rchrg,fchrg,qchrg
     nproj     2     2     2
     extension_switch     1
  pspatm : epsatm=   27.64581383
         --- l  ekb(1:nproj) -->
             0    9.559407   -0.398585
             1    3.418858   -0.136622
             2   -1.644397   -0.401551
 pspatm: atomic psp has been read  and splines computed

- pspini: atom type   3  psp file is /scratch/users/j/a/jabreu/pseudos/PBEsol/O.psp8
- pspatm: opening atomic psp file    /scratch/users/j/a/jabreu/pseudos/PBEsol/O.psp8
- O     ONCVPSP-3.3.0  r_core=   1.35509   1.45563   1.26150
-  8.00000   6.00000    180112                znucl, zion, pspdat
    8 -116133    2    4       600   0.00000   pspcod,pspxc,lmax,lloc,mmax,r2well
    5.99000000000000    4.00000000000000    0.00000000000000   rchrg,fchrg,qchrg
     nproj     2     2     1
     extension_switch     1
  pspatm : epsatm=    6.22910522
         --- l  ekb(1:nproj) -->
             0    6.050032    0.820363
             1   -4.739617   -1.153841
             2   -1.335834
 pspatm: atomic psp has been read  and splines computed

   2.87249036E+03                                ecore*ucvol(ha*bohr**3)

-inwffil : will read wavefunctions from disk file /scratch/users/j/a/jabreu/flow_simple_4atoms/flow/w252/t1/indata/in_WFK

 ==>  initialize data related to q vector <==

 The list of irreducible perturbations for this q vector is:
    1)    idir= 1    ipert=   5
    2)    idir= 2    ipert=   5
    3)    idir= 3    ipert=   5

 Perturbation wavevector (in red.coord.)   0.000000  0.000000  0.000000
 Perturbation : derivative vs k along direction   1

 dfpt_looppert : COMMENT -
  In a d/dk calculation, iscf is set to -3 automatically.
 The set of symmetries contains only one element for this perturbation.
 symkpt : not enough symmetry to change the number of k points.

[...]

 Initialisation of the first-order wave-functions :
  ireadwf=   0

--- !BeginCycle
iteration_state: {dtset: 1, }
solver: {iscf: 7, nstep: 100, nline: 4, wfoptalg: 0, }
tolerances: {tolwfr: 1.00E-20, }
...

     iter   2DEtotal(Ha)        deltaE(Ha) residm    vres2
-ETOT  1  -91.444851188884     -9.144E+01 1.206E-01 0.000E+00
 ETOT  2  -91.510663121167     -6.581E-02 1.281E-03 0.000E+00
 ETOT  3  -91.510903003044     -2.399E-04 5.007E-05 0.000E+00
 ETOT  4  -91.510905102506     -2.099E-06 1.745E-06 0.000E+00
 ETOT  5  -91.510905126497     -2.399E-08 1.239E-07 0.000E+00
 ETOT  6  -91.510905126818     -3.218E-10 6.979E-09 0.000E+00
 ETOT  7  -91.510905126823     -4.974E-12 5.444E-10 0.000E+00
 ETOT  8  -91.510905126824     -1.705E-13 3.102E-11 0.000E+00
 ETOT  9  -91.510905126823      1.137E-13 2.457E-12 0.000E+00
 ETOT 10  -91.510905126824     -8.527E-14 1.413E-13 0.000E+00
 ETOT 11  -91.510905126823      4.263E-14 1.129E-14 0.000E+00
 ETOT 12  -91.510905126823      1.421E-14 6.633E-16 0.000E+00
 ETOT 13  -91.510905126823      2.842E-14 5.356E-17 0.000E+00
 ETOT 14  -91.510905126823      0.000E+00 3.284E-18 0.000E+00
 ETOT 15  -91.510905126823     -2.842E-14 2.712E-19 0.000E+00
 ETOT 16  -91.510905126823      0.000E+00 1.791E-20 0.000E+00
 ETOT 17  -91.510905126823      0.000E+00 9.726E-21 0.000E+00

 At SCF step   17   max residual=  9.73E-21 < tolwfr=  1.00E-20 =>converged.

 ----iterations are completed or convergence reached----

 dfpt_looppert: DFPT cycle converged with prtwf=-1. Will skip output of the 1st-order WFK file.
 dfpt_looppert : ek2=    1.2289368644E+02
          f-sum rule ratio=    1.1163603988E+00
 prteigrs : about to open file /scratch/users/j/a/jabreu/flow_simple_4atoms/flow/w252/t1/tmpdata/tmp_1WF1_EIG
 Expectation of eigenvalue derivatives (hartree) for nkpt=   2  k points:
  (in case of degenerate eigenvalues, averaged derivative)
 kpt#   1, nband= 31, wtk=  0.50000, kpt=  0.5670  0.4330  0.0000 (reduced coord)
   0.00003    0.00005    0.00069   -0.00130    0.02638   -0.02677    0.02949    0.03899
  -0.00170    0.00942   -0.03768    0.03010    0.08341   -0.15357   -0.02845   -0.13841
   0.08279    0.05284    0.06753   -0.06845   -0.10021    0.00002    0.22101    0.12949
  -0.12741    0.29396   -0.55127   -0.02688   -0.16253   -0.05181    0.31878
 prteigrs : prtvol=0 or 1, do not print more k-points.

 Eight components of 2nd-order total energy (hartree) are
 1,2,3: 0th-order hamiltonian combined with 1st-order wavefunctions
     kin0=   1.09922529E+02 eigvalue=   1.95427349E+00  local=  -4.97358088E+01
 4,5,6: 1st-order hamiltonian combined with 1st and 0th-order wfs
     kin1=  -1.37193645E+02  Hartree=   0.00000000E+00     xc=   0.00000000E+00
 7,8,9: eventually, occupation + non-local contributions
    edocc=   2.17229600E+01     enl0=   7.64695145E+00   enl1=  -4.58281655E+01
 1-9 gives the relaxation energy (to be shifted if some occ is /=2.0)
   erelax=  -9.15109051E+01
  No Ewald or frozen-wf contrib.: the relaxation energy is the total one
 2DEtotal=   -0.9151090513E+02 Ha. Also 2DEtotal=   -0.249013836678E+04 eV
    (  non-var. 2DEtotal :   -9.1510905127E+01 Ha)

 Perturbation wavevector (in red.coord.)   0.000000  0.000000  0.000000
 Perturbation : derivative vs k along direction   2
 The set of symmetries contains only one element for this perturbation.
 symkpt : not enough symmetry to change the number of k points.

[...]

 Perturbation wavevector (in red.coord.)   0.000000  0.000000  0.000000
 Perturbation : derivative vs k along direction   3
 The set of symmetries contains only one element for this perturbation.
 symkpt : not enough symmetry to change the number of k points.

-inwffil : will read wavefunctions from disk file /scratch/users/j/a/jabreu/flow_simple_4atoms/flow/w252/t1/indata/in_WFK

 Initialisation of the first-order wave-functions :
  ireadwf=   0

--- !BeginCycle
iteration_state: {dtset: 1, }
solver: {iscf: 7, nstep: 100, nline: 4, wfoptalg: 0, }
tolerances: {tolwfr: 1.00E-20, }
...

     iter   2DEtotal(Ha)        deltaE(Ha) residm    vres2
-ETOT  1  -91.759642594124     -9.176E+01 6.044E-02 0.000E+00
 ETOT  2  -91.815423039349     -5.578E-02 9.109E-04 0.000E+00
 ETOT  3  -91.815510246354     -8.721E-05 4.378E-05 0.000E+00
 ETOT  4  -91.815510776940     -5.306E-07 1.427E-06 0.000E+00
 ETOT  5  -91.815510782301     -5.361E-09 9.508E-08 0.000E+00
 ETOT  6  -91.815510782370     -6.958E-11 3.440E-09 0.000E+00
 ETOT  7  -91.815510782371     -1.080E-12 2.412E-10 0.000E+00
 ETOT  8  -91.815510782371     -7.105E-14 8.958E-12 0.000E+00
 ETOT  9  -91.815510782371     -1.421E-14 6.267E-13 0.000E+00
 ETOT 10  -91.815510782371      0.000E+00 2.400E-14 0.000E+00
 ETOT 11  -91.815510782371      2.842E-14 1.645E-15 0.000E+00
 ETOT 12  -91.815510782371     -5.684E-14 6.508E-17 0.000E+00
 ETOT 13  -91.815510782371      1.421E-14 4.351E-18 0.000E+00
 ETOT 14  -91.815510782371     -1.421E-14 2.248E-19 0.000E+00
 ETOT 15  -91.815510782371      0.000E+00 1.882E-20 0.000E+00
 ETOT 16  -91.815510782371      5.684E-14 9.955E-21 0.000E+00

 At SCF step   16   max residual=  9.96E-21 < tolwfr=  1.00E-20 =>converged.

 ----iterations are completed or convergence reached----

 dfpt_looppert: DFPT cycle converged with prtwf=-1. Will skip output of the 1st-order WFK file.
 dfpt_looppert : ek2=    1.2289368644E+02
          f-sum rule ratio=    1.1187046087E+00
 prteigrs : about to open file /scratch/users/j/a/jabreu/flow_simple_4atoms/flow/w252/t1/tmpdata/tmp_1WF1_EIG
 Expectation of eigenvalue derivatives (hartree) for nkpt=   2  k points:
  (in case of degenerate eigenvalues, averaged derivative)
 kpt#   1, nband= 31, wtk=  0.50000, kpt=  0.5670  0.4330  0.0000 (reduced coord)
   0.00000    0.00000   -0.00000    0.00000   -0.00000   -0.00000    0.00000    0.00000
   0.00000   -0.00000   -0.00000    0.00000    0.00000    0.00000   -0.00000    0.00000
  -0.00000    0.00000   -0.00000    0.00000    0.00000   -0.00000   -0.00000    0.00000
  -0.00000   -0.00000    0.00000    0.00000    0.00000    0.00000   -0.00121
 prteigrs : prtvol=0 or 1, do not print more k-points.

 Eight components of 2nd-order total energy (hartree) are
 1,2,3: 0th-order hamiltonian combined with 1st-order wavefunctions
     kin0=   1.08921822E+02 eigvalue=   1.90763359E+00  local=  -4.90032898E+01
 4,5,6: 1st-order hamiltonian combined with 1st and 0th-order wfs
     kin1=  -1.37481733E+02  Hartree=   0.00000000E+00     xc=   0.00000000E+00
 7,8,9: eventually, occupation + non-local contributions
    edocc=   2.23779391E+01     enl0=   7.61140544E+00   enl1=  -4.61492882E+01
 1-9 gives the relaxation energy (to be shifted if some occ is /=2.0)
   erelax=  -9.18155108E+01
  No Ewald or frozen-wf contrib.: the relaxation energy is the total one
 2DEtotal=   -0.9181551078E+02 Ha. Also 2DEtotal=   -0.249842710820E+04 eV
    (  non-var. 2DEtotal :   -9.1815510782E+01 Ha)

 CALCULATION OF EFFECTIVE MASSES
 NOTE : Additional infos (eff. mass eigenvalues, eigenvectors and, if degenerate, average mass) are available in stdout.

 K-point ( 0.567, 0.433, 0.000) | band =    22
 Effective mass tensor:
             -6.5353656542             10.1426042566              0.0986117461
             10.1426042566            -17.2336368176              0.0596606253
              0.0986117461              0.0596606253             -2.0397336537
 Effective mass tensor eigenvalues:
            -23.3512214559             -2.0478826185             -0.4096320511
 Angular average effective mass 1/(<1/m>)=  -1.0093028197
 Angular average effective mass for Frohlich model (<m**0.5>)**2=  -1.6453297521
 Effective masses along directions: (cart. coord. / red. coord. -> eff. mass)
    1:   1.000000  0.000000  0.000000 /   0.906246  0.422751  0.000000 ->  -0.5573168483
    2:   0.000000  1.000000  0.000000 /   0.000000  1.000000  0.000000 ->  -1.4705580231
    3:   0.000000  0.000000  1.000000 /   0.549814  0.549814  0.628816 ->  -2.0079379468
    4:   0.577350  0.577350  0.577350 /   0.596847  0.671621  0.438976 ->  -0.5492077930
    5:   0.000000  0.707107  0.707107 /   0.469797  0.700427  0.537302 ->  -1.5151934368
    6:   0.707107  0.000000  0.707107 /   0.674757  0.546271  0.496278 ->  -0.7912558855
    7:   0.707107  0.707107  0.000000 /   0.594939  0.803771  0.000000 ->  -0.4359985372

 K-point ( 0.000, 0.000, 0.000) | band =    23
 Effective mass tensor:
              0.3180935520             -0.0022080294             -0.0141395904
             -0.0022080294              0.3204224965             -0.0085284733
             -0.0141395904             -0.0085284733              0.2671401658
 Effective mass tensor eigenvalues:
              0.2621476312              0.3217542831              0.3217543000
 Angular average effective mass 1/(<1/m>)=   0.2990857627
 Angular average effective mass for Frohlich model (<m**0.5>)**2=   0.2999523868
 Effective masses along directions: (cart. coord. / red. coord. -> eff. mass)
    1:   1.000000  0.000000  0.000000 /   0.906246  0.422751  0.000000 ->   0.3173230593
    2:   0.000000  1.000000  0.000000 /   0.000000  1.000000  0.000000 ->   0.3201279374
    3:   0.000000  0.000000  1.000000 /   0.549814  0.549814  0.628816 ->   0.2662793836
    4:   0.577350  0.577350  0.577350 /   0.596847  0.671621  0.438976 ->   0.2824747545
    5:   0.000000  0.707107  0.707107 /   0.469797  0.700427  0.537302 ->   0.2824288945
    6:   0.707107  0.000000  0.707107 /   0.674757  0.546271  0.496278 ->   0.2761634471
    7:   0.707107  0.707107  0.000000 /   0.594939  0.803771  0.000000 ->   0.3160821302

 END OF EFFECTIVE MASSES SECTION

 ---- first-order wavefunction calculations are completed ----

 Total localisation tensor (bohr^2) in cartesian coordinates
  WARNING : still subject to testing - especially symmetries.
      direction              matrix element
   alpha     beta       real part   imaginary part
     1        1       1.5818310633    0.0000000000
     1        2       0.5360465432    0.0000000000
     1        3       3.4327032102    0.0000000000
     2        1       0.5360465432    0.0000000000
     2        2       1.0164276157    0.0000000000
     2        3       2.0704777029    0.0000000000
     3        1       3.4327032102    0.0000000000
     3        2       2.0704777029    0.0000000000
     3        3      14.4054630895    0.0000000000

 respfn : d/dk was computed, but no 2DTE, so no DDB output.

== END DATASET(S) ==============================================================

 -outvars: echo values of variables after computation  --------
            acell      1.0000000000E+00  1.0000000000E+00  1.0000000000E+00 Bohr
              amu      1.14820000E+02  1.07868200E+02  1.59994000E+01
             ecut      4.40000000E+01 Hartree
           etotal     -9.1815510782E+01
            fcart      0.0000000000E+00  0.0000000000E+00  0.0000000000E+00
                       0.0000000000E+00  0.0000000000E+00  0.0000000000E+00
                       0.0000000000E+00  0.0000000000E+00  0.0000000000E+00
                       0.0000000000E+00  0.0000000000E+00  0.0000000000E+00
-          fftalg         512
           irdden           1
           irdwfk           1
           istwfk        0    1
              ixc     -116133
              kpt      5.66967905E-01  4.33032095E-01  0.00000000E+00
                       0.00000000E+00  0.00000000E+00  0.00000000E+00
           kptopt           0
P           mkmem           2
P          mkqmem           2
P          mk1mem           2
            natom           4
            nband          31
           nbdbuf           4
            ngfft          75      75      75
             nkpt           2
            nstep         100
             nsym          12
           ntypat           3
              occ      2.000000  2.000000  2.000000  2.000000  2.000000  2.000000
                       2.000000  2.000000  2.000000  2.000000  2.000000  2.000000
                       2.000000  2.000000  2.000000  2.000000  2.000000  2.000000
                       2.000000  2.000000  2.000000  2.000000  0.000000  0.000000
                       0.000000  0.000000  0.000000  0.000000  0.000000  0.000000
                       0.000000
        optdriver           1
            prtwf          -1
            rfdir           1       1       1
           rfelfd           2
            rprim      6.0109677148E+00  0.0000000000E+00  1.0830550216E+01
                       2.8040287496E+00  5.3168746121E+00  1.0830550216E+01
                       0.0000000000E+00  0.0000000000E+00  1.2386789368E+01
          spgroup         166
           strten      0.0000000000E+00  0.0000000000E+00  0.0000000000E+00
                       0.0000000000E+00  0.0000000000E+00  0.0000000000E+00
           symrel      1  0  0   0  1  0   0  0  1      -1  0  0   0 -1  0   0  0 -1
                       0  1  0   1  0  0   0  0  1       0 -1  0  -1  0  0   0  0 -1
                       0  0  1   1  0  0   0  1  0       0  0 -1  -1  0  0   0 -1  0
                       1  0  0   0  0  1   0  1  0      -1  0  0   0  0 -1   0 -1  0
                       0  1  0   0  0  1   1  0  0       0 -1  0   0  0 -1  -1  0  0
                       0  0  1   0  1  0   1  0  0       0  0 -1   0 -1  0  -1  0  0
           tolwfr      1.00000000E-20
            typat      1  2  3  3
           useylm           1
              wtk        0.50000    0.50000
           xangst      2.3323476114E+00  1.4067844328E+00  9.0086836416E+00
                       0.0000000000E+00  0.0000000000E+00  0.0000000000E+00
                       4.1538178020E+00  2.5054268035E+00  1.6044105218E+01
                       5.1087742080E-01  3.0814206217E-01  1.9732620649E+00
            xcart      4.4074982322E+00  2.6584373060E+00  1.7023944900E+01
                       0.0000000000E+00  0.0000000000E+00  0.0000000000E+00
                       7.8495780516E+00  4.7345705046E+00  3.0318964910E+01
                       9.6541841278E-01  5.8230410752E-01  3.7289248910E+00
             xred      5.0000000000E-01  5.0000000000E-01  5.0000000000E-01
                       0.0000000000E+00  0.0000000000E+00  0.0000000000E+00
                       8.9048000000E-01  8.9048000000E-01  8.9048000000E-01
                       1.0952000000E-01  1.0952000000E-01  1.0952000000E-01
            znucl       49.00000   47.00000    8.00000

- Timing analysis has been suppressed with timopt=0

 Suggested references for the acknowledgment of ABINIT usage.

 Calculation completed.
.Delivered  14 WARNINGs and   9 COMMENTs to log file.