.Version 9.7.2 of ABINIT

 ABINIT is a project of the Universite Catholique de Louvain,
 Corning Inc. and other collaborators, see ~abinit/doc/developers/contributors.txt .
 acknowledgments of the ABINIT effort.

.Starting date : Wed  1 Dec 2021.
- ( at 21h52 )

- input  file    -> /scratch/users/j/a/jabreu/flow_simple_remain_atoms/flow/w257/t1/run.abi
- output file    -> /scratch/users/j/a/jabreu/flow_simple_remain_atoms/flow/w257/t1/run.abo
- root for input  files -> /scratch/users/j/a/jabreu/flow_simple_remain_atoms/flow/w257/t1/indata/in
- root for output files -> /scratch/users/j/a/jabreu/flow_simple_remain_atoms/flow/w257/t1/outdata/out

 Symmetries : space group P-3 m 1 (#164); Bravais hP (primitive hexag.)
     intxc =       0      iscf =       7    lmnmax =      18     lnmax =       6
     mgfft =      90  mpssoang =       3    mqgrid =    4188     natom =       5
  nloc_mem =       1    nspden =       1   nspinor =       1    nsppol =       1
      nsym =      12    n1xccc =    2501    ntypat =       3    occopt =       1
   xclevel =       2
-    mband =          39        mffmem =           1         mkmem =           1
-   mkqmem =           1        mk1mem =           1           mpw =       12947
      nfft =      262440          nkpt =           1
  Rough estimation (10% accuracy) of disk space for files :

------------- Echo of variables that govern the present computation ------------
-
- outvars: echo of selected default values
-   iomode0 =  0 , fftalg0 =512 , wfoptalg0 =  0
-
- outvars: echo of global parameters not present in the input file
-  max_nthreads =    0
-
 -outvars: echo values of preprocessed input variables --------
            acell      1.0000000000E+00  1.0000000000E+00  1.0000000000E+00 Bohr
              amu      4.00780000E+01  2.43050000E+01  2.08980370E+02
             ecut      4.20000000E+01 Hartree
-          fftalg         512
           irdden           1
           irdwfk           1
           istwfk        1
              ixc     -116133
           kptopt           0
P           mkmem           1
P          mkqmem           1
P          mk1mem           1
            natom           5
            nband          39
           nbdbuf           4
            ngfft          54      54      90
             nkpt           1
            nstep        2000
             nsym          12
           ntypat           3
              occ      2.000000  2.000000  2.000000  2.000000  2.000000  2.000000
                       2.000000  2.000000  2.000000  2.000000  2.000000  2.000000
                       2.000000  2.000000  2.000000  2.000000  2.000000  2.000000
                       2.000000  2.000000  2.000000  2.000000  2.000000  2.000000
                       2.000000  2.000000  2.000000  2.000000  2.000000  2.000000
                       0.000000  0.000000  0.000000  0.000000  0.000000  0.000000
                       0.000000  0.000000  0.000000
        optdriver           1
            prtwf          -1
            rfdir           1       1       1
           rfelfd           2
            rprim      8.9498213310E+00  0.0000000000E+00  0.0000000000E+00
                      -4.4749106655E+00  7.7507726319E+00  0.0000000000E+00
                       0.0000000000E+00  0.0000000000E+00  1.4353950177E+01
          spgroup         164
           symrel      1  0  0   0  1  0   0  0  1      -1  0  0   0 -1  0   0  0 -1
                      -1  0  0   1  1  0   0  0  1       1  0  0  -1 -1  0   0  0 -1
                       0  1  0  -1 -1  0   0  0  1       0 -1  0   1  1  0   0  0 -1
                       0 -1  0  -1  0  0   0  0  1       0  1  0   1  0  0   0  0 -1
                      -1 -1  0   1  0  0   0  0  1       1  1  0  -1  0  0   0  0 -1
                       1  1  0   0 -1  0   0  0  1      -1 -1  0   0  1  0   0  0 -1
           tolwfr      1.00000000E-20
            typat      1  2  2  3  3
           useylm           1
           xangst      0.0000000000E+00  0.0000000000E+00  0.0000000000E+00
                       2.3680207347E+00  1.3671774086E+00  4.7799504645E+00
                       0.0000000000E+00  2.7343548172E+00  2.8158328222E+00
                       0.0000000000E+00  2.7343548172E+00  5.7951193050E+00
                       2.3680207347E+00  1.3671774086E+00  1.8006639818E+00
            xcart      0.0000000000E+00  0.0000000000E+00  0.0000000000E+00
                       4.4749106655E+00  2.5835908773E+00  9.0327973068E+00
                       0.0000000000E+00  5.1671817546E+00  5.3211528700E+00
                       0.0000000000E+00  5.1671817546E+00  1.0951188394E+01
                       4.4749106655E+00  2.5835908773E+00  3.4027617829E+00
             xred      0.0000000000E+00  0.0000000000E+00  0.0000000000E+00
                       6.6666666667E-01  3.3333333333E-01  6.2929000000E-01
                       3.3333333333E-01  6.6666666667E-01  3.7071000000E-01
                       3.3333333333E-01  6.6666666667E-01  7.6293900000E-01
                       6.6666666667E-01  3.3333333333E-01  2.3706100000E-01
            znucl       20.00000   12.00000   83.00000

 chkinp: Checking input parameters for consistency.

== DATASET  1 ==================================================================
-   mpi_nproc: 1, omp_nthreads: -1 (-1 if OMP is not activated)

--- !DatasetInfo
iteration_state: {dtset: 1, }
dimensions: {natom: 5, nkpt: 1, mband: 39, nsppol: 1, nspinor: 1, nspden: 1, mpw: 12947, }
cutoff_energies: {ecut:  42.0, pawecutdg:  -1.0, }
electrons: {nelect:   6.00000000E+01, charge:   0.00000000E+00, occopt:   1.00000000E+00, tsmear:   1.00000000E-02, }
meta: {optdriver: 1, rfelfd: 2, }
...

 Real(R)+Recip(G) space primitive vectors, cartesian coordinates (Bohr,Bohr^-1):
 R(1)=  8.9498213  0.0000000  0.0000000  G(1)=  0.1117341  0.0645097  0.0000000
 R(2)= -4.4749107  7.7507726  0.0000000  G(2)=  0.0000000  0.1290194  0.0000000
 R(3)=  0.0000000  0.0000000 14.3539502  G(3)=  0.0000000  0.0000000  0.0696672
 Unit cell volume ucvol=  9.9570525E+02 bohr^3
 Angles (23,13,12)=  9.00000000E+01  9.00000000E+01  1.20000000E+02 degrees

 getcut: wavevector=  0.0000  0.0000  0.0000  ngfft=  54  54  90
         ecut(hartree)=     42.000   => boxcut(ratio)=   2.06866

--- Pseudopotential description ------------------------------------------------
- pspini: atom type   1  psp file is /scratch/users/j/a/jabreu/pseudos/PBEsol/Ca.psp8
- pspatm: opening atomic psp file    /scratch/users/j/a/jabreu/pseudos/PBEsol/Ca.psp8
- Ca    ONCVPSP-3.3.0  r_core=   1.45885   1.45885   1.85192
- 20.00000  10.00000    180112                znucl, zion, pspdat
    8 -116133    2    4       400   0.00000   pspcod,pspxc,lmax,lloc,mmax,r2well
    3.99000000000000    6.00000000000000    0.00000000000000   rchrg,fchrg,qchrg
     nproj     2     2     2
     extension_switch     1
  pspatm : epsatm=   12.46045226
         --- l  ekb(1:nproj) -->
             0   10.054847    0.973777
             1    2.998958    0.458102
             2   -3.447298   -1.091650
 pspatm: atomic psp has been read  and splines computed

- pspini: atom type   2  psp file is /scratch/users/j/a/jabreu/pseudos/PBEsol/Mg.psp8
- pspatm: opening atomic psp file    /scratch/users/j/a/jabreu/pseudos/PBEsol/Mg.psp8
- Mg    ONCVPSP-3.3.0  r_core=   1.16056   1.56380
- 12.00000  10.00000    180112                znucl, zion, pspdat
    8 -116133    1    4       400   0.00000   pspcod,pspxc,lmax,lloc,mmax,r2well
    3.99000000000000    0.00000000000000    0.00000000000000   rchrg,fchrg,qchrg
     nproj     2     2
     extension_switch     1
  pspatm : epsatm=    9.18164846
         --- l  ekb(1:nproj) -->
             0    2.230603   -0.826587
             1   -6.503151   -2.501445
 pspatm: atomic psp has been read  and splines computed

- pspini: atom type   3  psp file is /scratch/users/j/a/jabreu/pseudos/PBEsol/Bi.psp8
- pspatm: opening atomic psp file    /scratch/users/j/a/jabreu/pseudos/PBEsol/Bi.psp8
- Bi    ONCVPSP-3.3.0  r_core=   2.42776   2.51622   2.10397
- 83.00000  15.00000    180112                znucl, zion, pspdat
    8 -116133    2    4       600   0.00000   pspcod,pspxc,lmax,lloc,mmax,r2well
    5.99000000000000    6.00000000000000    0.00000000000000   rchrg,fchrg,qchrg
     nproj     2     2     2
     extension_switch     1
  pspatm : epsatm=   42.90078186
         --- l  ekb(1:nproj) -->
             0    6.017688    0.961606
             1    4.379371    0.528498
             2   -3.458170   -0.753782
 pspatm: atomic psp has been read  and splines computed

   6.99751877E+03                                ecore*ucvol(ha*bohr**3)

 ==>  initialize data related to q vector <==

 The list of irreducible perturbations for this q vector is:
    1)    idir= 1    ipert=   6
    2)    idir= 2    ipert=   6
    3)    idir= 3    ipert=   6

 Perturbation wavevector (in red.coord.)   0.000000  0.000000  0.000000
 Perturbation : derivative vs k along direction   1

 dfpt_looppert : COMMENT -
  In a d/dk calculation, iscf is set to -3 automatically.
 The set of symmetries contains only one element for this perturbation.
 symkpt : not enough symmetry to change the number of k points.

 Initialisation of the first-order wave-functions :
  ireadwf=   0

--- !BeginCycle
iteration_state: {dtset: 1, }
solver: {iscf: 7, nstep: 2000, nline: 4, wfoptalg: 0, }
tolerances: {tolwfr: 1.00E-20, }
...

     iter   2DEtotal(Ha)        deltaE(Ha) residm    vres2
-ETOT  1  -111.01054605635     -1.110E+02 7.296E-02 0.000E+00
 ETOT  2  -111.05786819658     -4.732E-02 1.648E-03 0.000E+00
 ETOT  3  -111.05795940124     -9.120E-05 7.763E-05 0.000E+00
 ETOT  4  -111.05795990296     -5.017E-07 2.287E-06 0.000E+00
 ETOT  5  -111.05795990664     -3.682E-09 1.430E-07 0.000E+00
 ETOT  6  -111.05795990667     -2.966E-11 5.220E-09 0.000E+00
 ETOT  7  -111.05795990667     -1.421E-13 3.614E-10 0.000E+00
 ETOT  8  -111.05795990667     -2.416E-13 1.324E-11 0.000E+00
 ETOT  9  -111.05795990667      4.974E-13 1.010E-12 0.000E+00
 ETOT 10  -111.05795990667     -1.279E-13 3.581E-14 0.000E+00
 ETOT 11  -111.05795990667     -1.563E-13 2.962E-15 0.000E+00
 ETOT 12  -111.05795990667      1.421E-14 1.005E-16 0.000E+00
 ETOT 13  -111.05795990667     -2.842E-14 8.846E-18 0.000E+00
 ETOT 14  -111.05795990667     -2.842E-14 2.882E-19 0.000E+00
 ETOT 15  -111.05795990667      0.000E+00 2.656E-20 0.000E+00
 ETOT 16  -111.05795990667      2.842E-14 9.595E-21 0.000E+00

 At SCF step   16   max residual=  9.60E-21 < tolwfr=  1.00E-20 =>converged.

 ----iterations are completed or convergence reached----

 dfpt_looppert: DFPT cycle converged with prtwf=-1. Will skip output of the 1st-order WFK file.
 dfpt_looppert : ek2=    7.8858949707E+01
          f-sum rule ratio=    2.0021466425E+00
 prteigrs : about to open file /scratch/users/j/a/jabreu/flow_simple_remain_atoms/flow/w257/t1/tmpdata/tmp_1WF1_EIG
 Expectation of eigenvalue derivatives (hartree) for nkpt=   1  k points:
  (in case of degenerate eigenvalues, averaged derivative)
 kpt#   1, nband= 39, wtk=  1.00000, kpt=  0.0000  0.0000  0.0000 (reduced coord)
   0.00000    0.00000   -0.00000   -0.00000    0.00000    0.00000   -0.00000    0.00000
   0.00000   -0.00000   -0.00000    0.00000    0.00000    0.00000   -0.00000    0.00000
  -0.00000   -0.00000   -0.00000   -0.00000   -0.00000   -0.00000    0.00000   -0.00000
  -0.00000   -0.00000   -0.00000    0.00000    0.00000   -0.00000   -0.00000   -0.00000
   0.00000   -0.00000   -0.00000    0.00000    0.00000    0.00000    0.00000

 Eight components of 2nd-order total energy (hartree) are
 1,2,3: 0th-order hamiltonian combined with 1st-order wavefunctions
     kin0=   8.34609989E+01 eigvalue=   1.13792023E+01  local=  -4.55356805E+01
 4,5,6: 1st-order hamiltonian combined with 1st and 0th-order wfs
     kin1=  -1.57887181E+02  Hartree=   0.00000000E+00     xc=   0.00000000E+00
 7,8,9: eventually, occupation + non-local contributions
    edocc=   5.59251488E+01     enl0=   5.82829038E+00   enl1=  -6.42287384E+01
 1-9 gives the relaxation energy (to be shifted if some occ is /=2.0)
   erelax=  -1.11057960E+02
  No Ewald or frozen-wf contrib.: the relaxation energy is the total one
 2DEtotal=   -0.1110579599E+03 Ha. Also 2DEtotal=   -0.302204077773E+04 eV
    (  non-var. 2DEtotal :   -1.1105795991E+02 Ha)

 Perturbation wavevector (in red.coord.)   0.000000  0.000000  0.000000
 Perturbation : derivative vs k along direction   2
 The set of symmetries contains only one element for this perturbation.
 symkpt : not enough symmetry to change the number of k points.

[...]

 Perturbation wavevector (in red.coord.)   0.000000  0.000000  0.000000
 Perturbation : derivative vs k along direction   3
 The set of symmetries contains only one element for this perturbation.
 symkpt : not enough symmetry to change the number of k points.

 Initialisation of the first-order wave-functions :
  ireadwf=   0

--- !BeginCycle
iteration_state: {dtset: 1, }
solver: {iscf: 7, nstep: 2000, nline: 4, wfoptalg: 0, }
tolerances: {tolwfr: 1.00E-20, }
...

     iter   2DEtotal(Ha)        deltaE(Ha) residm    vres2
-ETOT  1  -31.622869736936     -3.162E+01 2.443E-02 0.000E+00
 ETOT  2  -31.633463467420     -1.059E-02 1.125E-04 0.000E+00
 ETOT  3  -31.633482038954     -1.857E-05 1.041E-06 0.000E+00
 ETOT  4  -31.633482127157     -8.820E-08 2.962E-08 0.000E+00
 ETOT  5  -31.633482127694     -5.368E-10 6.875E-10 0.000E+00
 ETOT  6  -31.633482127697     -3.261E-12 2.301E-11 0.000E+00
 ETOT  7  -31.633482127697     -8.527E-14 5.477E-13 0.000E+00
 ETOT  8  -31.633482127697      3.055E-13 2.002E-14 0.000E+00
 ETOT  9  -31.633482127697     -1.492E-13 4.589E-16 0.000E+00
 ETOT 10  -31.633482127697      3.553E-15 1.824E-17 0.000E+00
 ETOT 11  -31.633482127697     -7.105E-14 3.999E-19 0.000E+00
 ETOT 12  -31.633482127697     -1.066E-14 1.697E-20 0.000E+00
 ETOT 13  -31.633482127697     -1.421E-14 9.857E-21 0.000E+00

 At SCF step   13   max residual=  9.86E-21 < tolwfr=  1.00E-20 =>converged.

 ----iterations are completed or convergence reached----

 dfpt_looppert: DFPT cycle converged with prtwf=-1. Will skip output of the 1st-order WFK file.
 dfpt_looppert : ek2=    2.2993131012E+01
          f-sum rule ratio=    1.9395073424E+00
 prteigrs : about to open file /scratch/users/j/a/jabreu/flow_simple_remain_atoms/flow/w257/t1/tmpdata/tmp_1WF1_EIG
 Expectation of eigenvalue derivatives (hartree) for nkpt=   1  k points:
  (in case of degenerate eigenvalues, averaged derivative)
 kpt#   1, nband= 39, wtk=  1.00000, kpt=  0.0000  0.0000  0.0000 (reduced coord)
   0.00000   -0.00000   -0.00000   -0.00000   -0.00000   -0.00000    0.00000    0.00000
  -0.00000    0.00000    0.00000   -0.00000    0.00000    0.00000    0.00000   -0.00000
   0.00000    0.00000   -0.00000   -0.00000   -0.00000   -0.00000   -0.00000    0.00000
  -0.00000    0.00000    0.00000    0.00000    0.00000    0.00000   -0.00000   -0.00000
  -0.00000    0.00000    0.00000    0.00000    0.00000   -0.00000   -0.00000

 Eight components of 2nd-order total energy (hartree) are
 1,2,3: 0th-order hamiltonian combined with 1st-order wavefunctions
     kin0=   2.62947666E+01 eigvalue=   3.09654928E+00  local=  -1.43808516E+01
 4,5,6: 1st-order hamiltonian combined with 1st and 0th-order wfs
     kin1=  -4.45953464E+01  Hartree=   0.00000000E+00     xc=   0.00000000E+00
 7,8,9: eventually, occupation + non-local contributions
    edocc=   1.52583969E+01     enl0=   1.36462091E+00   enl1=  -1.86716178E+01
 1-9 gives the relaxation energy (to be shifted if some occ is /=2.0)
   erelax=  -3.16334821E+01
  No Ewald or frozen-wf contrib.: the relaxation energy is the total one
 2DEtotal=   -0.3163348213E+02 Ha. Also 2DEtotal=   -0.860790825005E+03 eV
    (  non-var. 2DEtotal :   -3.1633482128E+01 Ha)

 CALCULATION OF EFFECTIVE MASSES
 NOTE : Additional infos (eff. mass eigenvalues, eigenvectors and, if degenerate, average mass) are available in stdout.

 K-point ( 0.000, 0.000, 0.000) | band =    30
 Effective mass tensor:
             -1.8359964947             -0.0000000010             -0.0000000003
             -0.0000000010             -1.8359964954              0.0000000006
             -0.0000000003              0.0000000006             -0.0301901939
 Effective mass tensor eigenvalues:
             -1.8359964960             -1.8359964940             -0.0301901939
 Angular average effective mass 1/(<1/m>)=  -0.0876868263
 Angular average effective mass for Frohlich model (<m**0.5>)**2=  -0.2309372381
 Effective masses along directions: (cart. coord. / red. coord. -> eff. mass)
    1:   1.000000  0.000000  0.000000 /   0.894427 -0.447214  0.000000 ->  -1.8359964947
    2:   0.000000  1.000000  0.000000 /   0.000000  1.000000  0.000000 ->  -1.8359964954
    3:   0.000000  0.000000  1.000000 /   0.000000  0.000000  1.000000 ->  -0.0301901939
    4:   0.577350  0.577350  0.577350 /   0.519438  0.190128  0.833088 ->  -0.0876868263
    5:   0.000000  0.707107  0.707107 /   0.000000  0.475132  0.879915 ->  -0.0594035853
    6:   0.707107  0.000000  0.707107 /   0.511494 -0.255747  0.820346 ->  -0.0594035854
    7:   0.707107  0.707107  0.000000 /   0.939071  0.343724  0.000000 ->  -1.8359964960

 K-point ( 0.000, 0.000, 0.000) | band =    31
 Effective mass tensor:
              0.0404921265              0.0000000000             -0.0000000000
              0.0000000000              0.0404921266             -0.0000000000
             -0.0000000000             -0.0000000000              0.0344562449
 Effective mass tensor eigenvalues:
              0.0344562449              0.0404921265              0.0404921266
 Angular average effective mass 1/(<1/m>)=   0.0382581652
 Angular average effective mass for Frohlich model (<m**0.5>)**2=   0.0383264806
 Effective masses along directions: (cart. coord. / red. coord. -> eff. mass)
    1:   1.000000  0.000000  0.000000 /   0.894427 -0.447214  0.000000 ->   0.0404921265
    2:   0.000000  1.000000  0.000000 /   0.000000  1.000000  0.000000 ->   0.0404921266
    3:   0.000000  0.000000  1.000000 /   0.000000  0.000000  1.000000 ->   0.0344562449
    4:   0.577350  0.577350  0.577350 /   0.519438  0.190128  0.833088 ->   0.0382581652
    5:   0.000000  0.707107  0.707107 /   0.000000  0.475132  0.879915 ->   0.0372311393
    6:   0.707107  0.000000  0.707107 /   0.511494 -0.255747  0.820346 ->   0.0372311393
    7:   0.707107  0.707107  0.000000 /   0.939071  0.343724  0.000000 ->   0.0404921266

 END OF EFFECTIVE MASSES SECTION

 ---- first-order wavefunction calculations are completed ----

 Total localisation tensor (bohr^2) in cartesian coordinates
  WARNING : still subject to testing - especially symmetries.
      direction              matrix element
   alpha     beta       real part   imaginary part
     1        1      34.9522600842    0.0000000000
     1        2     -12.1078180578    0.0000000000
     1        3       0.0000000000    0.0000000000
     2        1     -12.1078180578    0.0000000000
     2        2      20.9713560447    0.0000000000
     2        3       0.0000000000    0.0000000000
     3        1       0.0000000000    0.0000000000
     3        2       0.0000000000    0.0000000000
     3        3      30.1517739688    0.0000000000

 respfn : d/dk was computed, but no 2DTE, so no DDB output.

== END DATASET(S) ==============================================================

 -outvars: echo values of variables after computation  --------
            acell      1.0000000000E+00  1.0000000000E+00  1.0000000000E+00 Bohr
              amu      4.00780000E+01  2.43050000E+01  2.08980370E+02
             ecut      4.20000000E+01 Hartree
           etotal     -3.1633482128E+01
            fcart      0.0000000000E+00  0.0000000000E+00  0.0000000000E+00
                       0.0000000000E+00  0.0000000000E+00  0.0000000000E+00
                       0.0000000000E+00  0.0000000000E+00  0.0000000000E+00
                       0.0000000000E+00  0.0000000000E+00  0.0000000000E+00
                       0.0000000000E+00  0.0000000000E+00  0.0000000000E+00
-          fftalg         512
           irdden           1
           irdwfk           1
           istwfk        1
              ixc     -116133
           kptopt           0
P           mkmem           1
P          mkqmem           1
P          mk1mem           1
            natom           5
            nband          39
           nbdbuf           4
            ngfft          54      54      90
             nkpt           1
            nstep        2000
             nsym          12
           ntypat           3
              occ      2.000000  2.000000  2.000000  2.000000  2.000000  2.000000
                       2.000000  2.000000  2.000000  2.000000  2.000000  2.000000
                       2.000000  2.000000  2.000000  2.000000  2.000000  2.000000
                       2.000000  2.000000  2.000000  2.000000  2.000000  2.000000
                       2.000000  2.000000  2.000000  2.000000  2.000000  2.000000
                       0.000000  0.000000  0.000000  0.000000  0.000000  0.000000
                       0.000000  0.000000  0.000000
        optdriver           1
            prtwf          -1
            rfdir           1       1       1
           rfelfd           2
            rprim      8.9498213310E+00  0.0000000000E+00  0.0000000000E+00
                      -4.4749106655E+00  7.7507726319E+00  0.0000000000E+00
                       0.0000000000E+00  0.0000000000E+00  1.4353950177E+01
          spgroup         164
           strten      0.0000000000E+00  0.0000000000E+00  0.0000000000E+00
                       0.0000000000E+00  0.0000000000E+00  0.0000000000E+00
           symrel      1  0  0   0  1  0   0  0  1      -1  0  0   0 -1  0   0  0 -1
                      -1  0  0   1  1  0   0  0  1       1  0  0  -1 -1  0   0  0 -1
                       0  1  0  -1 -1  0   0  0  1       0 -1  0   1  1  0   0  0 -1
                       0 -1  0  -1  0  0   0  0  1       0  1  0   1  0  0   0  0 -1
                      -1 -1  0   1  0  0   0  0  1       1  1  0  -1  0  0   0  0 -1
                       1  1  0   0 -1  0   0  0  1      -1 -1  0   0  1  0   0  0 -1
           tolwfr      1.00000000E-20
            typat      1  2  2  3  3
           useylm           1
           xangst      0.0000000000E+00  0.0000000000E+00  0.0000000000E+00
                       2.3680207347E+00  1.3671774086E+00  4.7799504645E+00
                       0.0000000000E+00  2.7343548172E+00  2.8158328222E+00
                       0.0000000000E+00  2.7343548172E+00  5.7951193050E+00
                       2.3680207347E+00  1.3671774086E+00  1.8006639818E+00
            xcart      0.0000000000E+00  0.0000000000E+00  0.0000000000E+00
                       4.4749106655E+00  2.5835908773E+00  9.0327973068E+00
                       0.0000000000E+00  5.1671817546E+00  5.3211528700E+00
                       0.0000000000E+00  5.1671817546E+00  1.0951188394E+01
                       4.4749106655E+00  2.5835908773E+00  3.4027617829E+00
             xred      0.0000000000E+00  0.0000000000E+00  0.0000000000E+00
                       6.6666666667E-01  3.3333333333E-01  6.2929000000E-01
                       3.3333333333E-01  6.6666666667E-01  3.7071000000E-01
                       3.3333333333E-01  6.6666666667E-01  7.6293900000E-01
                       6.6666666667E-01  3.3333333333E-01  2.3706100000E-01
            znucl       20.00000   12.00000   83.00000

- Timing analysis has been suppressed with timopt=0

 Suggested references for the acknowledgment of ABINIT usage.

 Calculation completed.
.Delivered   2 WARNINGs and   5 COMMENTs to log file.