.Version 9.5.1 of ABINIT

 ABINIT is a project of the Universite Catholique de Louvain,
 Corning Inc. and other collaborators, see ~abinit/doc/developers/contributors.txt .
 acknowledgments of the ABINIT effort.

.Starting date : Sat  1 May 2021.
- ( at 04h37 )

- input  file    -> /scratch/users/j/a/jabreu/flow_simple_6atoms/flow/w140/t1/run.abi
- output file    -> /scratch/users/j/a/jabreu/flow_simple_6atoms/flow/w140/t1/run.abo
- root for input  files -> /scratch/users/j/a/jabreu/flow_simple_6atoms/flow/w140/t1/indata/in
- root for output files -> /scratch/users/j/a/jabreu/flow_simple_6atoms/flow/w140/t1/outdata/out

 Symmetries : space group P4_2/n m c (#137); Bravais tP (primitive tetrag.)
     intxc =       0      iscf =       7    lmnmax =      18     lnmax =       6
     mgfft =      60  mpssoang =       3    mqgrid =    3001     natom =       6
  nloc_mem =       1    nspden =       1   nspinor =       1    nsppol =       1
      nsym =      16    n1xccc =    2501    ntypat =       2    occopt =       1
   xclevel =       2
-    mband =          33        mffmem =           1         mkmem =           2
-   mkqmem =           2        mk1mem =           2           mpw =        6244
      nfft =      121500          nkpt =           2
  Rough estimation (10% accuracy) of disk space for files :

------------- Echo of variables that govern the present computation ------------
-
- outvars: echo of selected default values
-   iomode0 =  0 , fftalg0 =512 , wfoptalg0 =  0
-
- outvars: echo of global parameters not present in the input file
-  max_nthreads =    0
-
 -outvars: echo values of preprocessed input variables --------
            acell      1.0000000000E+00  1.0000000000E+00  1.0000000000E+00 Bohr
              amu      9.12240000E+01  1.59994000E+01
             ecut      4.40000000E+01 Hartree
-          fftalg         512
           irdden           1
           irdwfk           1
           istwfk        0    1
              ixc     -116133
              kpt      2.10526316E-01  2.10526316E-01  0.00000000E+00
                       0.00000000E+00  0.00000000E+00  0.00000000E+00
           kptopt           0
P           mkmem           2
P          mkqmem           2
P          mk1mem           2
            natom           6
            nband          33
           nbdbuf           4
            ngfft          45      45      60
             nkpt           2
            nstep        1000
             nsym          16
           ntypat           2
              occ      2.000000  2.000000  2.000000  2.000000  2.000000  2.000000
                       2.000000  2.000000  2.000000  2.000000  2.000000  2.000000
                       2.000000  2.000000  2.000000  2.000000  2.000000  2.000000
                       2.000000  2.000000  2.000000  2.000000  2.000000  2.000000
                       0.000000  0.000000  0.000000  0.000000  0.000000  0.000000
                       0.000000  0.000000  0.000000
        optdriver           1
            prtwf          -1
            rfdir           1       1       1
           rfelfd           2
            rprim      6.7708363213E+00  0.0000000000E+00  0.0000000000E+00
                       0.0000000000E+00  6.7708363213E+00  0.0000000000E+00
                       0.0000000000E+00  0.0000000000E+00  9.7787593709E+00
          spgroup         137
           symrel      1  0  0   0  1  0   0  0  1      -1  0  0   0 -1  0   0  0 -1
                      -1  0  0   0  1  0   0  0 -1       1  0  0   0 -1  0   0  0  1
                      -1  0  0   0 -1  0   0  0  1       1  0  0   0  1  0   0  0 -1
                       1  0  0   0 -1  0   0  0 -1      -1  0  0   0  1  0   0  0  1
                       0  1  0   1  0  0   0  0  1       0 -1  0  -1  0  0   0  0 -1
                       0 -1  0   1  0  0   0  0 -1       0  1  0  -1  0  0   0  0  1
                       0 -1  0  -1  0  0   0  0  1       0  1  0   1  0  0   0  0 -1
                       0  1  0  -1  0  0   0  0 -1       0 -1  0   1  0  0   0  0  1
            tnons      0.0000000  0.0000000  0.0000000     0.5000000  0.5000000  0.5000000
                       0.5000000  0.5000000  0.5000000     0.0000000  0.0000000  0.0000000
                       0.0000000  0.0000000  0.0000000     0.5000000  0.5000000  0.5000000
                       0.5000000  0.5000000  0.5000000     0.0000000  0.0000000  0.0000000
                       0.5000000  0.5000000  0.5000000     0.0000000  0.0000000  0.0000000
                       0.0000000  0.0000000  0.0000000     0.5000000  0.5000000  0.5000000
                       0.5000000  0.5000000  0.5000000     0.0000000  0.0000000  0.0000000
                       0.0000000  0.0000000  0.0000000     0.5000000  0.5000000  0.5000000
           tolwfr      1.00000000E-20
            typat      1  1  2  2  2  2
           useylm           1
              wtk        0.50000    0.50000
           xangst      0.0000000000E+00  0.0000000000E+00  0.0000000000E+00
                       1.7914861322E+00  1.7914861322E+00  2.5873482937E+00
                       0.0000000000E+00  1.7914861322E+00  1.5446417566E+00
                       0.0000000000E+00  1.7914861322E+00  4.1319900503E+00
                       1.7914861322E+00  0.0000000000E+00  3.6300548307E+00
                       1.7914861322E+00  0.0000000000E+00  1.0427065371E+00
            xcart      0.0000000000E+00  0.0000000000E+00  0.0000000000E+00
                       3.3854181607E+00  3.3854181607E+00  4.8893796854E+00
                       0.0000000000E+00  3.3854181607E+00  2.9189498935E+00
                       0.0000000000E+00  3.3854181607E+00  7.8083295789E+00
                       3.3854181607E+00  0.0000000000E+00  6.8598094774E+00
                       3.3854181607E+00  0.0000000000E+00  1.9704297920E+00
             xred      0.0000000000E+00  0.0000000000E+00  0.0000000000E+00
                       5.0000000000E-01  5.0000000000E-01  5.0000000000E-01
                       0.0000000000E+00  5.0000000000E-01  2.9849900000E-01
                       0.0000000000E+00  5.0000000000E-01  7.9849900000E-01
                       5.0000000000E-01  0.0000000000E+00  7.0150100000E-01
                       5.0000000000E-01  0.0000000000E+00  2.0150100000E-01
            znucl       40.00000    8.00000

 chkinp: Checking input parameters for consistency.

== DATASET  1 ==================================================================
-   mpi_nproc: 1, omp_nthreads: -1 (-1 if OMP is not activated)

--- !DatasetInfo
iteration_state: {dtset: 1, }
dimensions: {natom: 6, nkpt: 2, mband: 33, nsppol: 1, nspinor: 1, nspden: 1, mpw: 6244, }
cutoff_energies: {ecut:  44.0, pawecutdg:  -1.0, }
electrons: {nelect:   4.80000000E+01, charge:   0.00000000E+00, occopt:   1.00000000E+00, tsmear:   1.00000000E-02, }
meta: {optdriver: 1, rfelfd: 2, }
...

 Real(R)+Recip(G) space primitive vectors, cartesian coordinates (Bohr,Bohr^-1):
 R(1)=  6.7708363  0.0000000  0.0000000  G(1)=  0.1476922  0.0000000  0.0000000
 R(2)=  0.0000000  6.7708363  0.0000000  G(2)=  0.0000000  0.1476922  0.0000000
 R(3)=  0.0000000  0.0000000  9.7787594  G(3)=  0.0000000  0.0000000  0.1022625
 Unit cell volume ucvol=  4.4829964E+02 bohr^3
 Angles (23,13,12)=  9.00000000E+01  9.00000000E+01  9.00000000E+01 degrees

 getcut: wavevector=  0.0000  0.0000  0.0000  ngfft=  45  45  60
         ecut(hartree)=     44.000   => boxcut(ratio)=   2.05483

--- Pseudopotential description ------------------------------------------------
- pspini: atom type   1  psp file is /scratch/users/j/a/jabreu/pseudos/PBEsol/Zr.psp8
- pspatm: opening atomic psp file    /scratch/users/j/a/jabreu/pseudos/PBEsol/Zr.psp8
- Zr    ONCVPSP-3.3.0  r_core=   1.56507   1.56507   1.51006
- 40.00000  12.00000    180112                znucl, zion, pspdat
    8 -116133    2    4       600   0.00000   pspcod,pspxc,lmax,lloc,mmax,r2well
    5.99000000000000    5.00000000000000    0.00000000000000   rchrg,fchrg,qchrg
     nproj     2     2     2
     extension_switch     1
  pspatm : epsatm=   18.88750170
         --- l  ekb(1:nproj) -->
             0   10.584966    0.890424
             1    5.814585    0.741293
             2    1.525459    0.487901
 pspatm: atomic psp has been read  and splines computed

- pspini: atom type   2  psp file is /scratch/users/j/a/jabreu/pseudos/PBEsol/O.psp8
- pspatm: opening atomic psp file    /scratch/users/j/a/jabreu/pseudos/PBEsol/O.psp8
- O     ONCVPSP-3.3.0  r_core=   1.35509   1.45563   1.26150
-  8.00000   6.00000    180112                znucl, zion, pspdat
    8 -116133    2    4       600   0.00000   pspcod,pspxc,lmax,lloc,mmax,r2well
    5.99000000000000    4.00000000000000    0.00000000000000   rchrg,fchrg,qchrg
     nproj     2     2     1
     extension_switch     1
  pspatm : epsatm=    6.22910522
         --- l  ekb(1:nproj) -->
             0    6.050032    0.820363
             1   -4.739617   -1.153841
             2   -1.335834
 pspatm: atomic psp has been read  and splines computed

   3.00918836E+03                                ecore*ucvol(ha*bohr**3)

-inwffil : will read wavefunctions from disk file /scratch/users/j/a/jabreu/flow_simple_6atoms/flow/w140/t1/indata/in_WFK

 ==>  initialize data related to q vector <==

 The list of irreducible perturbations for this q vector is:
    1)    idir= 1    ipert=   7
    2)    idir= 2    ipert=   7
    3)    idir= 3    ipert=   7

 Perturbation wavevector (in red.coord.)   0.000000  0.000000  0.000000
 Perturbation : derivative vs k along direction   1

 dfpt_looppert : COMMENT -
  In a d/dk calculation, iscf is set to -3 automatically.
 The set of symmetries contains only one element for this perturbation.
 symkpt : not enough symmetry to change the number of k points.

[...]

 Initialisation of the first-order wave-functions :
  ireadwf=   0

--- !BeginCycle
iteration_state: {dtset: 1, }
solver: {iscf: 7, nstep: 1000, nline: 4, wfoptalg: 0, }
tolerances: {tolwfr: 1.00E-20, }
...

     iter   2DEtotal(Ha)        deltaE(Ha) residm    vres2
-ETOT  1  -42.327368873260     -4.233E+01 6.455E-02 0.000E+00
 ETOT  2  -42.402356421497     -7.499E-02 9.196E-03 0.000E+00
 ETOT  3  -42.403240744649     -8.843E-04 4.620E-04 0.000E+00
 ETOT  4  -42.403254877561     -1.413E-05 9.259E-05 0.000E+00
 ETOT  5  -42.403255145402     -2.678E-07 2.391E-05 0.000E+00
 ETOT  6  -42.403255150891     -5.490E-09 4.763E-06 0.000E+00
 ETOT  7  -42.403255151012     -1.209E-10 1.363E-06 0.000E+00
 ETOT  8  -42.403255151015     -2.771E-12 2.687E-07 0.000E+00
 ETOT  9  -42.403255151015     -5.684E-14 8.170E-08 0.000E+00
 ETOT 10  -42.403255151015     -1.421E-14 1.635E-08 0.000E+00
 ETOT 11  -42.403255151015      1.421E-14 5.214E-09 0.000E+00
 ETOT 12  -42.403255151015     -1.421E-14 1.057E-09 0.000E+00
 ETOT 13  -42.403255151015     -7.105E-15 3.464E-10 0.000E+00
 ETOT 14  -42.403255151015      2.132E-14 7.038E-11 0.000E+00
 ETOT 15  -42.403255151015     -2.842E-14 2.349E-11 0.000E+00
 ETOT 16  -42.403255151015      7.105E-15 4.750E-12 0.000E+00
 ETOT 17  -42.403255151015     -7.105E-15 1.612E-12 0.000E+00
 ETOT 18  -42.403255151015      0.000E+00 3.231E-13 0.000E+00
[...]
 ETOT 21  -42.403255151015      0.000E+00 7.793E-15 0.000E+00
 ETOT 22  -42.403255151015      0.000E+00 1.523E-15 0.000E+00
 ETOT 23  -42.403255151015      0.000E+00 5.476E-16 0.000E+00
 ETOT 24  -42.403255151015      7.105E-15 1.055E-16 0.000E+00
 ETOT 25  -42.403255151015     -7.105E-15 3.872E-17 0.000E+00
 ETOT 26  -42.403255151015      0.000E+00 7.359E-18 0.000E+00
 ETOT 27  -42.403255151015      0.000E+00 2.757E-18 0.000E+00
 ETOT 28  -42.403255151015      0.000E+00 5.182E-19 0.000E+00
 ETOT 29  -42.403255151015      0.000E+00 1.977E-19 0.000E+00
 ETOT 30  -42.403255151015      2.132E-14 3.688E-20 0.000E+00
 ETOT 31  -42.403255151015     -1.421E-14 1.429E-20 0.000E+00
 ETOT 32  -42.403255151015     -7.105E-15 9.889E-21 0.000E+00

 At SCF step   32   max residual=  9.89E-21 < tolwfr=  1.00E-20 =>converged.

 ----iterations are completed or convergence reached----

 dfpt_looppert: DFPT cycle converged with prtwf=-1. Will skip output of the 1st-order WFK file.
 dfpt_looppert : ek2=    8.2669695740E+01
          f-sum rule ratio=    1.0242135476E+00
 prteigrs : about to open file /scratch/users/j/a/jabreu/flow_simple_6atoms/flow/w140/t1/tmpdata/tmp_1WF1_EIG
 Expectation of eigenvalue derivatives (hartree) for nkpt=   2  k points:
  (in case of degenerate eigenvalues, averaged derivative)
 kpt#   1, nband= 33, wtk=  0.50000, kpt=  0.2105  0.2105  0.0000 (reduced coord)
   0.00367    0.00039    0.02824   -0.03551   -0.04564   -0.00637   -0.01282   -0.00851
   0.11984    0.05262   -0.02856   -0.04740    0.11871    0.08097    0.08653   -0.16159
  -0.25710    0.23325    0.05570   -0.07763   -0.00805    0.01891   -0.01292    0.00154
   0.02970    0.04863    0.03924   -0.02248   -0.11278    0.06162   -0.04190   -0.16372
   0.23218
 prteigrs : prtvol=0 or 1, do not print more k-points.

 Eight components of 2nd-order total energy (hartree) are
 1,2,3: 0th-order hamiltonian combined with 1st-order wavefunctions
     kin0=   5.39635250E+01 eigvalue=  -2.79292162E+00  local=  -2.34947549E+01
 4,5,6: 1st-order hamiltonian combined with 1st and 0th-order wfs
     kin1=  -8.46714224E+01  Hartree=   0.00000000E+00     xc=   0.00000000E+00
 7,8,9: eventually, occupation + non-local contributions
    edocc=   1.51831353E+01     enl0=  -4.55728729E-01   enl1=  -1.35087949E-01
 1-9 gives the relaxation energy (to be shifted if some occ is /=2.0)
   erelax=  -4.24032552E+01
  No Ewald or frozen-wf contrib.: the relaxation energy is the total one
 2DEtotal=   -0.4240325515E+02 Ha. Also 2DEtotal=   -0.115385125283E+04 eV
    (  non-var. 2DEtotal :   -4.2403255151E+01 Ha)

 Perturbation wavevector (in red.coord.)   0.000000  0.000000  0.000000
 Perturbation : derivative vs k along direction   2
 The set of symmetries contains only one element for this perturbation.
 symkpt : not enough symmetry to change the number of k points.

[...]

 Perturbation wavevector (in red.coord.)   0.000000  0.000000  0.000000
 Perturbation : derivative vs k along direction   3
 The set of symmetries contains only one element for this perturbation.
 symkpt : not enough symmetry to change the number of k points.

-inwffil : will read wavefunctions from disk file /scratch/users/j/a/jabreu/flow_simple_6atoms/flow/w140/t1/indata/in_WFK

 Initialisation of the first-order wave-functions :
  ireadwf=   0

--- !BeginCycle
iteration_state: {dtset: 1, }
solver: {iscf: 7, nstep: 1000, nline: 4, wfoptalg: 0, }
tolerances: {tolwfr: 1.00E-20, }
...

     iter   2DEtotal(Ha)        deltaE(Ha) residm    vres2
-ETOT  1  -21.582337865918     -2.158E+01 4.180E-02 0.000E+00
 ETOT  2  -21.597849465616     -1.551E-02 4.225E-03 0.000E+00
 ETOT  3  -21.597959371143     -1.099E-04 1.316E-03 0.000E+00
 ETOT  4  -21.597961242293     -1.871E-06 1.316E-04 0.000E+00
 ETOT  5  -21.597961282902     -4.061E-08 9.056E-05 0.000E+00
 ETOT  6  -21.597961283894     -9.924E-10 1.019E-05 0.000E+00
 ETOT  7  -21.597961283920     -2.596E-11 7.542E-06 0.000E+00
 ETOT  8  -21.597961283921     -7.141E-13 9.022E-07 0.000E+00
 ETOT  9  -21.597961283921     -1.776E-14 6.572E-07 0.000E+00
 ETOT 10  -21.597961283921      3.553E-15 8.218E-08 0.000E+00
 ETOT 11  -21.597961283921     -1.066E-14 5.865E-08 0.000E+00
 ETOT 12  -21.597961283921     -3.553E-15 7.499E-09 0.000E+00
 ETOT 13  -21.597961283921      3.553E-15 5.293E-09 0.000E+00
 ETOT 14  -21.597961283921      0.000E+00 6.835E-10 0.000E+00
 ETOT 15  -21.597961283921      0.000E+00 4.804E-10 0.000E+00
 ETOT 16  -21.597961283921      3.553E-15 6.231E-11 0.000E+00
 ETOT 17  -21.597961283921      3.553E-15 4.374E-11 0.000E+00
 ETOT 18  -21.597961283921      0.000E+00 5.687E-12 0.000E+00
 ETOT 19  -21.597961283921     -7.105E-15 3.991E-12 0.000E+00
 ETOT 20  -21.597961283921      0.000E+00 5.201E-13 0.000E+00
 ETOT 21  -21.597961283921     -3.553E-15 3.648E-13 0.000E+00
 ETOT 22  -21.597961283921      7.105E-15 4.766E-14 0.000E+00
 ETOT 23  -21.597961283921     -3.553E-15 3.339E-14 0.000E+00
 ETOT 24  -21.597961283921     -7.105E-15 4.375E-15 0.000E+00
 ETOT 25  -21.597961283921      3.553E-15 3.061E-15 0.000E+00
 ETOT 26  -21.597961283921     -1.066E-14 4.023E-16 0.000E+00
 ETOT 27  -21.597961283921      1.421E-14 2.808E-16 0.000E+00
 ETOT 28  -21.597961283921      0.000E+00 3.704E-17 0.000E+00
 ETOT 29  -21.597961283921      0.000E+00 2.579E-17 0.000E+00
 ETOT 30  -21.597961283921     -3.553E-15 3.414E-18 0.000E+00
 ETOT 31  -21.597961283921      0.000E+00 2.370E-18 0.000E+00
 ETOT 32  -21.597961283921      7.105E-15 3.149E-19 0.000E+00
 ETOT 33  -21.597961283921     -7.105E-15 2.180E-19 0.000E+00
 ETOT 34  -21.597961283921      1.066E-14 2.907E-20 0.000E+00
 ETOT 35  -21.597961283921     -1.066E-14 2.007E-20 0.000E+00
 ETOT 36  -21.597961283921      0.000E+00 9.899E-21 0.000E+00

 At SCF step   36   max residual=  9.90E-21 < tolwfr=  1.00E-20 =>converged.

 ----iterations are completed or convergence reached----

 dfpt_looppert: DFPT cycle converged with prtwf=-1. Will skip output of the 1st-order WFK file.
 dfpt_looppert : ek2=    3.9633593513E+01
          f-sum rule ratio=    1.1039228641E+00
 prteigrs : about to open file /scratch/users/j/a/jabreu/flow_simple_6atoms/flow/w140/t1/tmpdata/tmp_1WF1_EIG
 Expectation of eigenvalue derivatives (hartree) for nkpt=   2  k points:
  (in case of degenerate eigenvalues, averaged derivative)
 kpt#   1, nband= 33, wtk=  0.50000, kpt=  0.2105  0.2105  0.0000 (reduced coord)
  -0.00000   -0.00000   -0.00000    0.00000    0.00000    0.00000    0.00000   -0.00000
   0.00000    0.00000    0.00000   -0.00000   -0.00000   -0.00000   -0.00000    0.00000
  -0.00000    0.00000    0.00000   -0.00000    0.00000    0.00000    0.00000    0.00000
  -0.00000    0.00000    0.00000   -0.00000   -0.00000    0.00000    0.00000   -0.00000
   0.00000
 prteigrs : prtvol=0 or 1, do not print more k-points.

 Eight components of 2nd-order total energy (hartree) are
 1,2,3: 0th-order hamiltonian combined with 1st-order wavefunctions
     kin0=   2.37783131E+01 eigvalue=  -1.27729445E+00  local=  -9.71232236E+00
 4,5,6: 1st-order hamiltonian combined with 1st and 0th-order wfs
     kin1=  -4.37524301E+01  Hartree=   0.00000000E+00     xc=   0.00000000E+00
 7,8,9: eventually, occupation + non-local contributions
    edocc=   9.15257979E+00     enl0=  -3.43314832E-01   enl1=   5.56507498E-01
 1-9 gives the relaxation energy (to be shifted if some occ is /=2.0)
   erelax=  -2.15979613E+01
  No Ewald or frozen-wf contrib.: the relaxation energy is the total one
 2DEtotal=   -0.2159796128E+02 Ha. Also 2DEtotal=   -0.587710415090E+03 eV
    (  non-var. 2DEtotal :   -2.1597961284E+01 Ha)

 CALCULATION OF EFFECTIVE MASSES
 NOTE : Additional infos (eff. mass eigenvalues, eigenvectors and, if degenerate, average mass) are available in stdout.

 K-point ( 0.211, 0.211, 0.000) | band =    24
 Effective mass tensor:
             -8.6326638291              6.1822435066              0.0005316209
              6.1822435066             -8.6387215847             -0.0005464888
              0.0005316209             -0.0005464888             -0.6726485431
 Effective mass tensor eigenvalues:
            -14.8179369965             -2.4534484584             -0.6726485019
 Angular average effective mass 1/(<1/m>)=  -1.5292578306
 Angular average effective mass for Frohlich model (<m**0.5>)**2=  -2.1502012889
 Effective masses along directions: (cart. coord. / red. coord. -> eff. mass)
    1:   1.000000  0.000000  0.000000 /   1.000000  0.000000  0.000000 ->  -4.2083824521
    2:   0.000000  1.000000  0.000000 /   0.000000  1.000000  0.000000 ->  -4.2113355676
    3:   0.000000  0.000000  1.000000 /   0.000000  0.000000  1.000000 ->  -0.6726485038
    4:   0.577350  0.577350  0.577350 /   0.494719  0.494719  0.714497 ->  -1.3033154280
    5:   0.000000  0.707107  0.707107 /   0.000000  0.569263  0.822156 ->  -1.1600942334
    6:   0.707107  0.000000  0.707107 /   0.569263  0.000000  0.822156 ->  -1.1598365976
    7:   0.707107  0.707107  0.000000 /   0.707107  0.707107  0.000000 ->  -2.4534485810

 K-point ( 0.000, 0.000, 0.000) | band =    25
 Effective mass tensor:
              0.5739733026             -0.0000000003             -0.0000000003
             -0.0000000003              0.5739733046             -0.0000000007
             -0.0000000003             -0.0000000007              2.1123756657
 Effective mass tensor eigenvalues:
              0.5739733025              0.5739733047              2.1123756657
 Angular average effective mass 1/(<1/m>)=   0.7579809209
 Angular average effective mass for Frohlich model (<m**0.5>)**2=   0.8239231380
 Effective masses along directions: (cart. coord. / red. coord. -> eff. mass)
    1:   1.000000  0.000000  0.000000 /   1.000000  0.000000  0.000000 ->   0.5739733026
    2:   0.000000  1.000000  0.000000 /   0.000000  1.000000  0.000000 ->   0.5739733046
    3:   0.000000  0.000000  1.000000 /   0.000000  0.000000  1.000000 ->   2.1123756657
    4:   0.577350  0.577350  0.577350 /   0.494719  0.494719  0.714497 ->   0.7579809202
    5:   0.000000  0.707107  0.707107 /   0.000000  0.569263  0.822156 ->   0.9026729247
    6:   0.707107  0.000000  0.707107 /   0.569263  0.000000  0.822156 ->   0.9026729223
    7:   0.707107  0.707107  0.000000 /   0.707107  0.707107  0.000000 ->   0.5739733033

 END OF EFFECTIVE MASSES SECTION

 ---- first-order wavefunction calculations are completed ----

 Total localisation tensor (bohr^2) in cartesian coordinates
  WARNING : still subject to testing - especially symmetries.
      direction              matrix element
   alpha     beta       real part   imaginary part
     1        1       0.7997741615    0.0000000000
     1        2       0.0000000000    0.0000000000
     1        3       0.0000000000    0.0000000000
     2        1       0.0000000000    0.0000000000
     2        2       0.7997525562    0.0000000000
     2        3       0.0000000000    0.0000000000
     3        1       0.0000000000    0.0000000000
     3        2       0.0000000000    0.0000000000
     3        3       0.8648749424    0.0000000000

 respfn : d/dk was computed, but no 2DTE, so no DDB output.

== END DATASET(S) ==============================================================

 -outvars: echo values of variables after computation  --------
            acell      1.0000000000E+00  1.0000000000E+00  1.0000000000E+00 Bohr
              amu      9.12240000E+01  1.59994000E+01
             ecut      4.40000000E+01 Hartree
           etotal     -2.1597961284E+01
            fcart      0.0000000000E+00  0.0000000000E+00  0.0000000000E+00
                       0.0000000000E+00  0.0000000000E+00  0.0000000000E+00
                       0.0000000000E+00  0.0000000000E+00  0.0000000000E+00
                       0.0000000000E+00  0.0000000000E+00  0.0000000000E+00
                       0.0000000000E+00  0.0000000000E+00  0.0000000000E+00
                       0.0000000000E+00  0.0000000000E+00  0.0000000000E+00
-          fftalg         512
           irdden           1
           irdwfk           1
           istwfk        0    1
              ixc     -116133
              kpt      2.10526316E-01  2.10526316E-01  0.00000000E+00
                       0.00000000E+00  0.00000000E+00  0.00000000E+00
           kptopt           0
P           mkmem           2
P          mkqmem           2
P          mk1mem           2
            natom           6
            nband          33
           nbdbuf           4
            ngfft          45      45      60
             nkpt           2
            nstep        1000
             nsym          16
           ntypat           2
              occ      2.000000  2.000000  2.000000  2.000000  2.000000  2.000000
                       2.000000  2.000000  2.000000  2.000000  2.000000  2.000000
                       2.000000  2.000000  2.000000  2.000000  2.000000  2.000000
                       2.000000  2.000000  2.000000  2.000000  2.000000  2.000000
                       0.000000  0.000000  0.000000  0.000000  0.000000  0.000000
                       0.000000  0.000000  0.000000
        optdriver           1
            prtwf          -1
            rfdir           1       1       1
           rfelfd           2
            rprim      6.7708363213E+00  0.0000000000E+00  0.0000000000E+00
                       0.0000000000E+00  6.7708363213E+00  0.0000000000E+00
                       0.0000000000E+00  0.0000000000E+00  9.7787593709E+00
          spgroup         137
           strten      0.0000000000E+00  0.0000000000E+00  0.0000000000E+00
                       0.0000000000E+00  0.0000000000E+00  0.0000000000E+00
           symrel      1  0  0   0  1  0   0  0  1      -1  0  0   0 -1  0   0  0 -1
                      -1  0  0   0  1  0   0  0 -1       1  0  0   0 -1  0   0  0  1
                      -1  0  0   0 -1  0   0  0  1       1  0  0   0  1  0   0  0 -1
                       1  0  0   0 -1  0   0  0 -1      -1  0  0   0  1  0   0  0  1
                       0  1  0   1  0  0   0  0  1       0 -1  0  -1  0  0   0  0 -1
                       0 -1  0   1  0  0   0  0 -1       0  1  0  -1  0  0   0  0  1
                       0 -1  0  -1  0  0   0  0  1       0  1  0   1  0  0   0  0 -1
                       0  1  0  -1  0  0   0  0 -1       0 -1  0   1  0  0   0  0  1
            tnons      0.0000000  0.0000000  0.0000000     0.5000000  0.5000000  0.5000000
                       0.5000000  0.5000000  0.5000000     0.0000000  0.0000000  0.0000000
                       0.0000000  0.0000000  0.0000000     0.5000000  0.5000000  0.5000000
                       0.5000000  0.5000000  0.5000000     0.0000000  0.0000000  0.0000000
                       0.5000000  0.5000000  0.5000000     0.0000000  0.0000000  0.0000000
                       0.0000000  0.0000000  0.0000000     0.5000000  0.5000000  0.5000000
                       0.5000000  0.5000000  0.5000000     0.0000000  0.0000000  0.0000000
                       0.0000000  0.0000000  0.0000000     0.5000000  0.5000000  0.5000000
           tolwfr      1.00000000E-20
            typat      1  1  2  2  2  2
           useylm           1
              wtk        0.50000    0.50000
           xangst      0.0000000000E+00  0.0000000000E+00  0.0000000000E+00
                       1.7914861322E+00  1.7914861322E+00  2.5873482937E+00
                       0.0000000000E+00  1.7914861322E+00  1.5446417566E+00
                       0.0000000000E+00  1.7914861322E+00  4.1319900503E+00
                       1.7914861322E+00  0.0000000000E+00  3.6300548307E+00
                       1.7914861322E+00  0.0000000000E+00  1.0427065371E+00
            xcart      0.0000000000E+00  0.0000000000E+00  0.0000000000E+00
                       3.3854181607E+00  3.3854181607E+00  4.8893796854E+00
                       0.0000000000E+00  3.3854181607E+00  2.9189498935E+00
                       0.0000000000E+00  3.3854181607E+00  7.8083295789E+00
                       3.3854181607E+00  0.0000000000E+00  6.8598094774E+00
                       3.3854181607E+00  0.0000000000E+00  1.9704297920E+00
             xred      0.0000000000E+00  0.0000000000E+00  0.0000000000E+00
                       5.0000000000E-01  5.0000000000E-01  5.0000000000E-01
                       0.0000000000E+00  5.0000000000E-01  2.9849900000E-01
                       0.0000000000E+00  5.0000000000E-01  7.9849900000E-01
                       5.0000000000E-01  0.0000000000E+00  7.0150100000E-01
                       5.0000000000E-01  0.0000000000E+00  2.0150100000E-01
            znucl       40.00000    8.00000

- Timing analysis has been suppressed with timopt=0

 Suggested references for the acknowledgment of ABINIT usage.

 Calculation completed.
.Delivered  14 WARNINGs and   9 COMMENTs to log file.