.Version 9.5.2 of ABINIT

 ABINIT is a project of the Universite Catholique de Louvain,
 Corning Inc. and other collaborators, see ~abinit/doc/developers/contributors.txt .
 acknowledgments of the ABINIT effort.

.Starting date : Mon 24 May 2021.
- ( at 11h13 )

- input  file    -> /scratch/users/j/a/jabreu/flow_simple_10atoms/flow/w303/t1/run.abi
- output file    -> /scratch/users/j/a/jabreu/flow_simple_10atoms/flow/w303/t1/run.abo
- root for input  files -> /scratch/users/j/a/jabreu/flow_simple_10atoms/flow/w303/t1/indata/in
- root for output files -> /scratch/users/j/a/jabreu/flow_simple_10atoms/flow/w303/t1/outdata/out

 Symmetries : space group P6_3/m m c (#194); Bravais hP (primitive hexag.)
     intxc =       0      iscf =       7    lmnmax =      32     lnmax =       8
     mgfft =      80  mpssoang =       4    mqgrid =    3439     natom =      10
  nloc_mem =       1    nspden =       1   nspinor =       1    nsppol =       1
      nsym =      24    n1xccc =    2501    ntypat =       3    occopt =       1
   xclevel =       2
-    mband =          49        mffmem =           1         mkmem =           1
-   mkqmem =           1        mk1mem =           1           mpw =       24261
      nfft =      460800          nkpt =           1
  Rough estimation (10% accuracy) of disk space for files :

------------- Echo of variables that govern the present computation ------------
-
- outvars: echo of selected default values
-   iomode0 =  0 , fftalg0 =512 , wfoptalg0 =  0
-
- outvars: echo of global parameters not present in the input file
-  max_nthreads =    0
-
 -outvars: echo values of preprocessed input variables --------
            acell      1.0000000000E+00  1.0000000000E+00  1.0000000000E+00 Bohr
              amu      1.32905430E+02  2.43050000E+01  3.54527000E+01
             ecut      4.20000000E+01 Hartree
-          fftalg         512
           irdden           1
           irdwfk           1
           istwfk        1
              ixc     -116133
           kptopt           0
P           mkmem           1
P          mkqmem           1
P          mk1mem           1
            natom          10
            nband          49
           nbdbuf           4
            ngfft          80      80      72
             nkpt           1
            nstep        2000
             nsym          24
           ntypat           3
              occ      2.000000  2.000000  2.000000  2.000000  2.000000  2.000000
                       2.000000  2.000000  2.000000  2.000000  2.000000  2.000000
                       2.000000  2.000000  2.000000  2.000000  2.000000  2.000000
                       2.000000  2.000000  2.000000  2.000000  2.000000  2.000000
                       2.000000  2.000000  2.000000  2.000000  2.000000  2.000000
                       2.000000  2.000000  2.000000  2.000000  2.000000  2.000000
                       2.000000  2.000000  2.000000  2.000000  0.000000  0.000000
                       0.000000  0.000000  0.000000  0.000000  0.000000  0.000000
                       0.000000
        optdriver           1
            prtwf          -1
            rfdir           1       1       1
           rfelfd           2
            rprim      1.3610329454E+01  0.0000000000E+00  0.0000000000E+00
                      -6.8051647271E+00  1.1786891061E+01  0.0000000000E+00
                       0.0000000000E+00  0.0000000000E+00  1.1628005427E+01
          spgroup         194
           symrel      1  0  0   0  1  0   0  0  1      -1  0  0   0 -1  0   0  0 -1
                       0  1  0   1  0  0   0  0  1       0 -1  0  -1  0  0   0  0 -1
                       1  1  0  -1  0  0   0  0  1      -1 -1  0   1  0  0   0  0 -1
                      -1  0  0   1  1  0   0  0  1       1  0  0  -1 -1  0   0  0 -1
                       0  1  0  -1 -1  0   0  0  1       0 -1  0   1  1  0   0  0 -1
                      -1 -1  0   0  1  0   0  0  1       1  1  0   0 -1  0   0  0 -1
                      -1  0  0   0 -1  0   0  0  1       1  0  0   0  1  0   0  0 -1
                       0 -1  0  -1  0  0   0  0  1       0  1  0   1  0  0   0  0 -1
                      -1 -1  0   1  0  0   0  0  1       1  1  0  -1  0  0   0  0 -1
                       1  0  0  -1 -1  0   0  0  1      -1  0  0   1  1  0   0  0 -1
                       0 -1  0   1  1  0   0  0  1       0  1  0  -1 -1  0   0  0 -1
                       1  1  0   0 -1  0   0  0  1      -1 -1  0   0  1  0   0  0 -1
            tnons      0.0000000  0.0000000  0.0000000    -0.0000000 -0.0000000  0.0000000
                      -0.0000000  0.0000000  0.5000000    -0.0000000 -0.0000000  0.5000000
                      -0.0000000  0.0000000  0.5000000    -0.0000000 -0.0000000  0.5000000
                      -0.0000000  0.0000000  0.0000000    -0.0000000 -0.0000000  0.0000000
                      -0.0000000  0.0000000  0.0000000    -0.0000000 -0.0000000  0.0000000
                      -0.0000000 -0.0000000  0.5000000     0.0000000  0.0000000  0.5000000
                      -0.0000000 -0.0000000  0.5000000     0.0000000  0.0000000  0.5000000
                      -0.0000000 -0.0000000  0.0000000    -0.0000000  0.0000000  0.0000000
                      -0.0000000 -0.0000000  0.0000000    -0.0000000  0.0000000  0.0000000
                      -0.0000000 -0.0000000  0.5000000    -0.0000000  0.0000000  0.5000000
                      -0.0000000 -0.0000000  0.5000000    -0.0000000  0.0000000  0.5000000
                       0.0000000  0.0000000  0.0000000    -0.0000000 -0.0000000  0.0000000
           tolwfr      1.00000000E-20
            typat      1  1  2  2  3  3  3  3  3  3
           useylm           1
           xangst      3.6011380742E+00  2.0791180366E+00  1.5383188633E+00
                      -1.7639711750E-11  4.1582360731E+00  4.6149565898E+00
                      -2.6653776033E-16  0.0000000000E+00  0.0000000000E+00
                      -2.6653776033E-16  0.0000000000E+00  3.0766377266E+00
                      -8.3221218751E-12  1.9618807287E+00  1.5383188633E+00
                       1.9020995240E+00  5.2564137453E+00  1.5383188633E+00
                       3.6011380742E+00  4.2754733810E+00  4.6149565898E+00
                      -1.9020995240E+00  5.2564137453E+00  1.5383188633E+00
                       5.5032375982E+00  9.8094036436E-01  4.6149565898E+00
                       1.6990385503E+00  9.8094036436E-01  4.6149565898E+00
            xcart      6.8051647270E+00  3.9289636870E+00  2.9070013566E+00
                      -3.3334224270E-11  7.8579273741E+00  8.7210040700E+00
                      -5.0368337109E-16  0.0000000000E+00  0.0000000000E+00
                      -5.0368337109E-16  0.0000000000E+00  5.8140027133E+00
                      -1.5726531188E-11  3.7074172826E+00  2.9070013566E+00
                       3.5944471778E+00  9.9331824198E+00  2.9070013566E+00
                       6.8051647270E+00  8.0794737785E+00  8.7210040700E+00
                      -3.5944471779E+00  9.9331824198E+00  2.9070013566E+00
                       1.0399611905E+01  1.8537086413E+00  8.7210040700E+00
                       3.2107175492E+00  1.8537086413E+00  8.7210040700E+00
             xred      6.6666666667E-01  3.3333333333E-01  2.5000000000E-01
                       3.3333333333E-01  6.6666666667E-01  7.5000000000E-01
                      -3.7007434154E-17  0.0000000000E+00  0.0000000000E+00
                      -3.7007434154E-17  0.0000000000E+00  5.0000000000E-01
                       1.5726866667E-01  3.1453733333E-01  2.5000000000E-01
                       6.8546266667E-01  8.4273133333E-01  2.5000000000E-01
                       8.4273133333E-01  6.8546266667E-01  7.5000000000E-01
                       1.5726866667E-01  8.4273133333E-01  2.5000000000E-01
                       8.4273133333E-01  1.5726866667E-01  7.5000000000E-01
                       3.1453733333E-01  1.5726866667E-01  7.5000000000E-01
            znucl       55.00000   12.00000   17.00000

 chkinp: Checking input parameters for consistency.

== DATASET  1 ==================================================================
-   mpi_nproc: 1, omp_nthreads: -1 (-1 if OMP is not activated)

--- !DatasetInfo
iteration_state: {dtset: 1, }
dimensions: {natom: 10, nkpt: 1, mband: 49, nsppol: 1, nspinor: 1, nspden: 1, mpw: 24261, }
cutoff_energies: {ecut:  42.0, pawecutdg:  -1.0, }
electrons: {nelect:   8.00000000E+01, charge:   0.00000000E+00, occopt:   1.00000000E+00, tsmear:   1.00000000E-02, }
meta: {optdriver: 1, rfelfd: 2, }
...

 Real(R)+Recip(G) space primitive vectors, cartesian coordinates (Bohr,Bohr^-1):
 R(1)= 13.6103295  0.0000000  0.0000000  G(1)=  0.0734736  0.0424200  0.0000000
 R(2)= -6.8051647 11.7868911  0.0000000  G(2)=  0.0000000  0.0848400  0.0000000
 R(3)=  0.0000000  0.0000000 11.6280054  G(3)=  0.0000000  0.0000000  0.0859993
 Unit cell volume ucvol=  1.8654050E+03 bohr^3
 Angles (23,13,12)=  9.00000000E+01  9.00000000E+01  1.20000000E+02 degrees

 getcut: wavevector=  0.0000  0.0000  0.0000  ngfft=  80  80  72
         ecut(hartree)=     42.000   => boxcut(ratio)=   2.01480

--- Pseudopotential description ------------------------------------------------
- pspini: atom type   1  psp file is /scratch/users/j/a/jabreu/pseudos/PBEsol/Cs.psp8
- pspatm: opening atomic psp file    /scratch/users/j/a/jabreu/pseudos/PBEsol/Cs.psp8
- Cs    ONCVPSP-3.3.0  r_core=   2.27353   1.85623   2.01788   1.90105
- 55.00000   9.00000    180112                znucl, zion, pspdat
    8 -116133    3    4       600   0.00000   pspcod,pspxc,lmax,lloc,mmax,r2well
    5.99000000000000    5.00000000000000    0.00000000000000   rchrg,fchrg,qchrg
     nproj     2     2     2     2
     extension_switch     1
  pspatm : epsatm=   22.12462445
         --- l  ekb(1:nproj) -->
             0    6.214110    0.767882
             1    6.311966    0.793598
             2    3.769790    0.913105
             3   -9.247129   -2.432478
 pspatm: atomic psp has been read  and splines computed

- pspini: atom type   2  psp file is /scratch/users/j/a/jabreu/pseudos/PBEsol/Mg.psp8
- pspatm: opening atomic psp file    /scratch/users/j/a/jabreu/pseudos/PBEsol/Mg.psp8
- Mg    ONCVPSP-3.3.0  r_core=   1.16056   1.56380
- 12.00000  10.00000    180112                znucl, zion, pspdat
    8 -116133    1    4       400   0.00000   pspcod,pspxc,lmax,lloc,mmax,r2well
    3.99000000000000    0.00000000000000    0.00000000000000   rchrg,fchrg,qchrg
     nproj     2     2
     extension_switch     1
  pspatm : epsatm=    9.18164846
         --- l  ekb(1:nproj) -->
             0    2.230603   -0.826587
             1   -6.503151   -2.501445
 pspatm: atomic psp has been read  and splines computed

- pspini: atom type   3  psp file is /scratch/users/j/a/jabreu/pseudos/PBEsol/Cl.psp8
- pspatm: opening atomic psp file    /scratch/users/j/a/jabreu/pseudos/PBEsol/Cl.psp8
- Cl    ONCVPSP-3.3.0  r_core=   1.56009   1.35202   1.75774
- 17.00000   7.00000    180112                znucl, zion, pspdat
    8 -116133    2    4       600   0.00000   pspcod,pspxc,lmax,lloc,mmax,r2well
[...]
   0.00000   -0.00000   -0.00000   -0.00000   -0.00000    0.00000    0.00000    0.00000
   0.00000    0.00000   -0.00000   -0.00000   -0.00000    0.00000    0.00000   -0.00000
   0.00000   -0.00000    0.00000    0.00000    0.00000    0.00000    0.00000    0.00000
   0.00000

 Eight components of 2nd-order total energy (hartree) are
 1,2,3: 0th-order hamiltonian combined with 1st-order wavefunctions
     kin0=   3.06008685E+01 eigvalue=   2.67288703E+00  local=  -1.64820523E+01
 4,5,6: 1st-order hamiltonian combined with 1st and 0th-order wfs
     kin1=  -5.05090789E+01  Hartree=   0.00000000E+00     xc=   0.00000000E+00
 7,8,9: eventually, occupation + non-local contributions
    edocc=   7.34505902E+00     enl0=   2.04162313E+00   enl1=  -1.84769176E+00
 1-9 gives the relaxation energy (to be shifted if some occ is /=2.0)
   erelax=  -2.61783853E+01
  No Ewald or frozen-wf contrib.: the relaxation energy is the total one
 2DEtotal=   -0.2617838534E+02 Ha. Also 2DEtotal=   -0.712350092409E+03 eV
    (  non-var. 2DEtotal :   -2.6178385343E+01 Ha)

 Perturbation wavevector (in red.coord.)   0.000000  0.000000  0.000000
 Perturbation : derivative vs k along direction   2
 The set of symmetries contains only one element for this perturbation.
 symkpt : not enough symmetry to change the number of k points.

[...]

 Perturbation wavevector (in red.coord.)   0.000000  0.000000  0.000000
 Perturbation : derivative vs k along direction   3
 The set of symmetries contains only one element for this perturbation.
 symkpt : not enough symmetry to change the number of k points.

 Initialisation of the first-order wave-functions :
  ireadwf=   0

--- !BeginCycle
iteration_state: {dtset: 1, }
solver: {iscf: 7, nstep: 2000, nline: 4, wfoptalg: 0, }
tolerances: {tolwfr: 1.00E-20, }
...

     iter   2DEtotal(Ha)        deltaE(Ha) residm    vres2
-ETOT  1  -24.249583235688     -2.425E+01 1.972E-01 0.000E+00
 ETOT  2  -24.266202261605     -1.662E-02 1.324E-02 0.000E+00
 ETOT  3  -24.266415064543     -2.128E-04 2.729E-03 0.000E+00
 ETOT  4  -24.266422260255     -7.196E-06 3.363E-04 0.000E+00
 ETOT  5  -24.266422536694     -2.764E-07 8.607E-05 0.000E+00
 ETOT  6  -24.266422549328     -1.263E-08 1.150E-05 0.000E+00
 ETOT  7  -24.266422549972     -6.446E-10 3.187E-06 0.000E+00
 ETOT  8  -24.266422550009     -3.705E-11 4.228E-07 0.000E+00
 ETOT  9  -24.266422550012     -2.363E-12 1.169E-07 0.000E+00
 ETOT 10  -24.266422550012     -8.527E-14 1.550E-08 0.000E+00
 ETOT 11  -24.266422550012     -3.197E-14 4.285E-09 0.000E+00
 ETOT 12  -24.266422550012      1.776E-14 5.670E-10 0.000E+00
 ETOT 13  -24.266422550012     -7.105E-15 1.573E-10 0.000E+00
 ETOT 14  -24.266422550012      3.553E-15 2.073E-11 0.000E+00
 ETOT 15  -24.266422550012      2.132E-14 5.783E-12 0.000E+00
 ETOT 16  -24.266422550012     -2.487E-14 7.575E-13 0.000E+00
 ETOT 17  -24.266422550012      0.000E+00 2.129E-13 0.000E+00
 ETOT 18  -24.266422550012      3.553E-15 2.769E-14 0.000E+00
 ETOT 19  -24.266422550012     -3.553E-15 7.848E-15 0.000E+00
 ETOT 20  -24.266422550012     -3.553E-15 1.013E-15 0.000E+00
 ETOT 21  -24.266422550012      7.105E-15 2.897E-16 0.000E+00
 ETOT 22  -24.266422550012     -3.553E-15 3.711E-17 0.000E+00
 ETOT 23  -24.266422550012      3.553E-15 1.070E-17 0.000E+00
 ETOT 24  -24.266422550012     -7.105E-15 1.360E-18 0.000E+00
 ETOT 25  -24.266422550012      0.000E+00 3.960E-19 0.000E+00
 ETOT 26  -24.266422550012      0.000E+00 4.993E-20 0.000E+00
 ETOT 27  -24.266422550012      3.553E-15 1.466E-20 0.000E+00
 ETOT 28  -24.266422550012     -7.105E-15 9.885E-21 0.000E+00

 At SCF step   28   max residual=  9.88E-21 < tolwfr=  1.00E-20 =>converged.

 ----iterations are completed or convergence reached----

 dfpt_looppert: DFPT cycle converged with prtwf=-1. Will skip output of the 1st-order WFK file.
 dfpt_looppert : ek2=    4.6716389187E+01
          f-sum rule ratio=    9.9389943464E-01
 prteigrs : about to open file /scratch/users/j/a/jabreu/flow_simple_10atoms/flow/w303/t1/tmpdata/tmp_1WF1_EIG
 Expectation of eigenvalue derivatives (hartree) for nkpt=   1  k points:
  (in case of degenerate eigenvalues, averaged derivative)
 kpt#   1, nband= 49, wtk=  1.00000, kpt=  0.0000  0.0000  0.0000 (reduced coord)
  -0.00000   -0.00000   -0.00000   -0.00000   -0.00000    0.00000   -0.00000   -0.00000
   0.00000   -0.00000    0.00000    0.00000   -0.00000   -0.00000    0.00000    0.00000
   0.00000    0.00000   -0.00000   -0.00000   -0.00000    0.00000    0.00000   -0.00000
  -0.00000    0.00000    0.00000   -0.00000   -0.00000   -0.00000   -0.00000   -0.00000
  -0.00000   -0.00000    0.00000   -0.00000   -0.00000    0.00000    0.00000   -0.00000
  -0.00000   -0.00000    0.00000   -0.00000   -0.00000    0.00000   -0.00000   -0.00000
   0.00000

 Eight components of 2nd-order total energy (hartree) are
 1,2,3: 0th-order hamiltonian combined with 1st-order wavefunctions
     kin0=   3.32652086E+01 eigvalue=   2.88494080E+00  local=  -1.83928808E+01
 4,5,6: 1st-order hamiltonian combined with 1st and 0th-order wfs
     kin1=  -4.64313928E+01  Hartree=   0.00000000E+00     xc=   0.00000000E+00
 7,8,9: eventually, occupation + non-local contributions
    edocc=   4.18633022E+00     enl0=   2.32282379E+00   enl1=  -2.10145230E+00
 1-9 gives the relaxation energy (to be shifted if some occ is /=2.0)
   erelax=  -2.42664226E+01
  No Ewald or frozen-wf contrib.: the relaxation energy is the total one
 2DEtotal=   -0.2426642255E+02 Ha. Also 2DEtotal=   -0.660322938917E+03 eV
    (  non-var. 2DEtotal :   -2.4266422550E+01 Ha)

 CALCULATION OF EFFECTIVE MASSES
 NOTE : Additional infos (eff. mass eigenvalues, eigenvectors and, if degenerate, average mass) are available in stdout.

 K-point ( 0.000, 0.000, 0.000) | band =    40
 Effective mass tensor:
             -1.6449316772             -0.0000000005              0.0000000000
             -0.0000000005             -1.6449316782              0.0000000000
              0.0000000000              0.0000000000             -2.5600526737
 Effective mass tensor eigenvalues:
             -2.5600526737             -1.6449316784             -1.6449316770
 Angular average effective mass 1/(<1/m>)=  -1.8674450963
 Angular average effective mass for Frohlich model (<m**0.5>)**2=  -1.8898960070
 Effective masses along directions: (cart. coord. / red. coord. -> eff. mass)
    1:   1.000000  0.000000  0.000000 /   0.894427 -0.447214  0.000000 ->  -1.6449316772
    2:   0.000000  1.000000  0.000000 /   0.000000  1.000000  0.000000 ->  -1.6449316782
    3:   0.000000  0.000000  1.000000 /   0.000000  0.000000  1.000000 ->  -2.5600526737
    4:   0.577350  0.577350  0.577350 /   0.732470  0.268103  0.625787 ->  -1.8674450967
    5:   0.000000  0.707107  0.707107 /   0.000000  0.711889  0.702292 ->  -2.0029143457
    6:   0.707107  0.000000  0.707107 /   0.710684 -0.355342  0.607174 ->  -2.0029143449
    7:   0.707107  0.707107  0.000000 /   0.939071  0.343724  0.000000 ->  -1.6449316782

 K-point ( 0.000, 0.000, 0.000) | band =    41
 Effective mass tensor:
              0.3750708883              0.0000000000             -0.0000000000
              0.0000000000              0.3750708883              0.0000000000
             -0.0000000000              0.0000000000              0.3326901431
 Effective mass tensor eigenvalues:
              0.3326901431              0.3750708883              0.3750708883
 Angular average effective mass 1/(<1/m>)=   0.3597931087
 Angular average effective mass for Frohlich model (<m**0.5>)**2=   0.3601451367
 Effective masses along directions: (cart. coord. / red. coord. -> eff. mass)
    1:   1.000000  0.000000  0.000000 /   0.894427 -0.447214  0.000000 ->   0.3750708883
    2:   0.000000  1.000000  0.000000 /   0.000000  1.000000  0.000000 ->   0.3750708883
    3:   0.000000  0.000000  1.000000 /   0.000000  0.000000  1.000000 ->   0.3326901431
    4:   0.577350  0.577350  0.577350 /   0.732470  0.268103  0.625787 ->   0.3597931087
    5:   0.000000  0.707107  0.707107 /   0.000000  0.711889  0.702292 ->   0.3526116358
    6:   0.707107  0.000000  0.707107 /   0.710684 -0.355342  0.607174 ->   0.3526116358
    7:   0.707107  0.707107  0.000000 /   0.939071  0.343724  0.000000 ->   0.3750708883

 END OF EFFECTIVE MASSES SECTION

 ---- first-order wavefunction calculations are completed ----

 Total localisation tensor (bohr^2) in cartesian coordinates
  WARNING : still subject to testing - especially symmetries.
      direction              matrix element
   alpha     beta       real part   imaginary part
     1        1       1.7877048516    0.0000000000
     1        2      -0.6192791264    0.0000000000
     1        3       0.0000000000    0.0000000000
     2        1      -0.6192791264    0.0000000000
     2        2       1.0726229109    0.0000000000
     2        3       0.0000000000    0.0000000000
     3        1       0.0000000000    0.0000000000
     3        2       0.0000000000    0.0000000000
     3        3       0.8369584604    0.0000000000

 respfn : d/dk was computed, but no 2DTE, so no DDB output.

== END DATASET(S) ==============================================================

 -outvars: echo values of variables after computation  --------
            acell      1.0000000000E+00  1.0000000000E+00  1.0000000000E+00 Bohr
              amu      1.32905430E+02  2.43050000E+01  3.54527000E+01
             ecut      4.20000000E+01 Hartree
           etotal     -2.4266422550E+01
            fcart      0.0000000000E+00  0.0000000000E+00  0.0000000000E+00
                       0.0000000000E+00  0.0000000000E+00  0.0000000000E+00
                       0.0000000000E+00  0.0000000000E+00  0.0000000000E+00
                       0.0000000000E+00  0.0000000000E+00  0.0000000000E+00
                       0.0000000000E+00  0.0000000000E+00  0.0000000000E+00
                       0.0000000000E+00  0.0000000000E+00  0.0000000000E+00
                       0.0000000000E+00  0.0000000000E+00  0.0000000000E+00
                       0.0000000000E+00  0.0000000000E+00  0.0000000000E+00
                       0.0000000000E+00  0.0000000000E+00  0.0000000000E+00
                       0.0000000000E+00  0.0000000000E+00  0.0000000000E+00
-          fftalg         512
           irdden           1
           irdwfk           1
           istwfk        1
              ixc     -116133
           kptopt           0
P           mkmem           1
P          mkqmem           1
P          mk1mem           1
            natom          10
            nband          49
           nbdbuf           4
            ngfft          80      80      72
             nkpt           1
            nstep        2000
             nsym          24
           ntypat           3
              occ      2.000000  2.000000  2.000000  2.000000  2.000000  2.000000
                       2.000000  2.000000  2.000000  2.000000  2.000000  2.000000
                       2.000000  2.000000  2.000000  2.000000  2.000000  2.000000
                       2.000000  2.000000  2.000000  2.000000  2.000000  2.000000
                       2.000000  2.000000  2.000000  2.000000  2.000000  2.000000
                       2.000000  2.000000  2.000000  2.000000  2.000000  2.000000
                       2.000000  2.000000  2.000000  2.000000  0.000000  0.000000
                       0.000000  0.000000  0.000000  0.000000  0.000000  0.000000
                       0.000000
        optdriver           1
            prtwf          -1
            rfdir           1       1       1
           rfelfd           2
            rprim      1.3610329454E+01  0.0000000000E+00  0.0000000000E+00
                      -6.8051647271E+00  1.1786891061E+01  0.0000000000E+00
                       0.0000000000E+00  0.0000000000E+00  1.1628005427E+01
          spgroup         194
           strten      0.0000000000E+00  0.0000000000E+00  0.0000000000E+00
                       0.0000000000E+00  0.0000000000E+00  0.0000000000E+00
           symrel      1  0  0   0  1  0   0  0  1      -1  0  0   0 -1  0   0  0 -1
                       0  1  0   1  0  0   0  0  1       0 -1  0  -1  0  0   0  0 -1
                       1  1  0  -1  0  0   0  0  1      -1 -1  0   1  0  0   0  0 -1
                      -1  0  0   1  1  0   0  0  1       1  0  0  -1 -1  0   0  0 -1
                       0  1  0  -1 -1  0   0  0  1       0 -1  0   1  1  0   0  0 -1
                      -1 -1  0   0  1  0   0  0  1       1  1  0   0 -1  0   0  0 -1
                      -1  0  0   0 -1  0   0  0  1       1  0  0   0  1  0   0  0 -1
                       0 -1  0  -1  0  0   0  0  1       0  1  0   1  0  0   0  0 -1
                      -1 -1  0   1  0  0   0  0  1       1  1  0  -1  0  0   0  0 -1
                       1  0  0  -1 -1  0   0  0  1      -1  0  0   1  1  0   0  0 -1
                       0 -1  0   1  1  0   0  0  1       0  1  0  -1 -1  0   0  0 -1
                       1  1  0   0 -1  0   0  0  1      -1 -1  0   0  1  0   0  0 -1
            tnons      0.0000000  0.0000000  0.0000000    -0.0000000 -0.0000000  0.0000000
                      -0.0000000  0.0000000  0.5000000    -0.0000000 -0.0000000  0.5000000
                      -0.0000000  0.0000000  0.5000000    -0.0000000 -0.0000000  0.5000000
                      -0.0000000  0.0000000  0.0000000    -0.0000000 -0.0000000  0.0000000
                      -0.0000000  0.0000000  0.0000000    -0.0000000 -0.0000000  0.0000000
                      -0.0000000 -0.0000000  0.5000000     0.0000000  0.0000000  0.5000000
                      -0.0000000 -0.0000000  0.5000000     0.0000000  0.0000000  0.5000000
                      -0.0000000 -0.0000000  0.0000000    -0.0000000  0.0000000  0.0000000
                      -0.0000000 -0.0000000  0.0000000    -0.0000000  0.0000000  0.0000000
                      -0.0000000 -0.0000000  0.5000000    -0.0000000  0.0000000  0.5000000
                      -0.0000000 -0.0000000  0.5000000    -0.0000000  0.0000000  0.5000000
                       0.0000000  0.0000000  0.0000000    -0.0000000 -0.0000000  0.0000000
           tolwfr      1.00000000E-20
            typat      1  1  2  2  3  3  3  3  3  3
           useylm           1
           xangst      3.6011380742E+00  2.0791180366E+00  1.5383188633E+00
                      -1.7639711750E-11  4.1582360731E+00  4.6149565898E+00
                      -2.6653776033E-16  0.0000000000E+00  0.0000000000E+00
                      -2.6653776033E-16  0.0000000000E+00  3.0766377266E+00
                      -8.3221218751E-12  1.9618807287E+00  1.5383188633E+00
                       1.9020995240E+00  5.2564137453E+00  1.5383188633E+00
                       3.6011380742E+00  4.2754733810E+00  4.6149565898E+00
                      -1.9020995240E+00  5.2564137453E+00  1.5383188633E+00
                       5.5032375982E+00  9.8094036436E-01  4.6149565898E+00
                       1.6990385503E+00  9.8094036436E-01  4.6149565898E+00
            xcart      6.8051647270E+00  3.9289636870E+00  2.9070013566E+00
                      -3.3334224270E-11  7.8579273741E+00  8.7210040700E+00
                      -5.0368337109E-16  0.0000000000E+00  0.0000000000E+00
                      -5.0368337109E-16  0.0000000000E+00  5.8140027133E+00
                      -1.5726531188E-11  3.7074172826E+00  2.9070013566E+00
                       3.5944471778E+00  9.9331824198E+00  2.9070013566E+00
                       6.8051647270E+00  8.0794737785E+00  8.7210040700E+00
                      -3.5944471779E+00  9.9331824198E+00  2.9070013566E+00
                       1.0399611905E+01  1.8537086413E+00  8.7210040700E+00
                       3.2107175492E+00  1.8537086413E+00  8.7210040700E+00
             xred      6.6666666667E-01  3.3333333333E-01  2.5000000000E-01
                       3.3333333333E-01  6.6666666667E-01  7.5000000000E-01
                      -3.7007434154E-17  0.0000000000E+00  0.0000000000E+00
                      -3.7007434154E-17  0.0000000000E+00  5.0000000000E-01
                       1.5726866667E-01  3.1453733333E-01  2.5000000000E-01
                       6.8546266667E-01  8.4273133333E-01  2.5000000000E-01
                       8.4273133333E-01  6.8546266667E-01  7.5000000000E-01
                       1.5726866667E-01  8.4273133333E-01  2.5000000000E-01
                       8.4273133333E-01  1.5726866667E-01  7.5000000000E-01
                       3.1453733333E-01  1.5726866667E-01  7.5000000000E-01
            znucl       55.00000   12.00000   17.00000

- Timing analysis has been suppressed with timopt=0

 Suggested references for the acknowledgment of ABINIT usage.

 Calculation completed.
.Delivered   2 WARNINGs and   5 COMMENTs to log file.