.Version 9.5.1 of ABINIT

 ABINIT is a project of the Universite Catholique de Louvain,
 Corning Inc. and other collaborators, see ~abinit/doc/developers/contributors.txt .
 acknowledgments of the ABINIT effort.

.Starting date : Tue  4 May 2021.
- ( at 19h48 )

- input  file    -> /scratch/users/j/a/jabreu/flow_simple_6atoms/flow/w224/t1/run.abi
- output file    -> /scratch/users/j/a/jabreu/flow_simple_6atoms/flow/w224/t1/run.abo
- root for input  files -> /scratch/users/j/a/jabreu/flow_simple_6atoms/flow/w224/t1/indata/in
- root for output files -> /scratch/users/j/a/jabreu/flow_simple_6atoms/flow/w224/t1/outdata/out

 Symmetries : space group P4/n m m (#129); Bravais tP (primitive tetrag.)
     intxc =       0      iscf =       7    lmnmax =      18     lnmax =       6
     mgfft =      80  mpssoang =       3    mqgrid =    3774     natom =       6
  nloc_mem =       1    nspden =       1   nspinor =       1    nsppol =       1
      nsym =      16    n1xccc =    2501    ntypat =       3    occopt =       1
   xclevel =       2
-    mband =          27        mffmem =           1         mkmem =           2
-   mkqmem =           2        mk1mem =           2           mpw =       10646
      nfft =      184320          nkpt =           2
  Rough estimation (10% accuracy) of disk space for files :

------------- Echo of variables that govern the present computation ------------
-
- outvars: echo of selected default values
-   iomode0 =  0 , fftalg0 =512 , wfoptalg0 =  0
-
- outvars: echo of global parameters not present in the input file
-  max_nthreads =    0
-
 -outvars: echo values of preprocessed input variables --------
            acell      1.0000000000E+00  1.0000000000E+00  1.0000000000E+00 Bohr
              amu      1.37327000E+02  1.00794000E+00  3.54527000E+01
             ecut      3.90000000E+01 Hartree
-          fftalg         512
           irdden           1
           irdwfk           1
           istwfk        1    1
              ixc     -116133
              kpt      0.00000000E+00  0.00000000E+00  5.00000000E-01
                       1.87373144E-17  1.87373144E-17  5.00000000E-01
           kptopt           0
P           mkmem           2
P          mkqmem           2
P          mk1mem           2
            natom           6
            nband          27
           nbdbuf           4
            ngfft          48      48      80
             nkpt           2
            nstep        1000
             nsym          16
           ntypat           3
              occ      2.000000  2.000000  2.000000  2.000000  2.000000  2.000000
                       2.000000  2.000000  2.000000  2.000000  2.000000  2.000000
                       2.000000  2.000000  2.000000  2.000000  2.000000  2.000000
                       0.000000  0.000000  0.000000  0.000000  0.000000  0.000000
                       0.000000  0.000000  0.000000
        optdriver           1
            prtwf          -1
            rfdir           1       1       1
           rfelfd           2
            rprim      8.2152670418E+00  0.0000000000E+00  0.0000000000E+00
                       0.0000000000E+00  8.2152670418E+00  0.0000000000E+00
                       0.0000000000E+00  0.0000000000E+00  1.3423482519E+01
          spgroup         129
           symrel      1  0  0   0  1  0   0  0  1      -1  0  0   0 -1  0   0  0 -1
                      -1  0  0   0  1  0   0  0 -1       1  0  0   0 -1  0   0  0  1
                      -1  0  0   0 -1  0   0  0  1       1  0  0   0  1  0   0  0 -1
                       1  0  0   0 -1  0   0  0 -1      -1  0  0   0  1  0   0  0  1
                       0  1  0   1  0  0   0  0  1       0 -1  0  -1  0  0   0  0 -1
                       0 -1  0   1  0  0   0  0 -1       0  1  0  -1  0  0   0  0  1
                       0 -1  0  -1  0  0   0  0  1       0  1  0   1  0  0   0  0 -1
                       0  1  0  -1  0  0   0  0 -1       0 -1  0   1  0  0   0  0  1
            tnons      0.0000000  0.0000000  0.0000000     0.5000000  0.5000000  0.0000000
                       0.5000000  0.5000000  0.0000000     0.0000000 -0.0000000  0.0000000
                       0.0000000 -0.0000000  0.0000000     0.5000000  0.5000000  0.0000000
                       0.5000000  0.5000000  0.0000000     0.0000000  0.0000000  0.0000000
                       0.5000000  0.5000000  0.0000000    -0.0000000  0.0000000  0.0000000
                       0.0000000  0.0000000  0.0000000     0.5000000  0.5000000  0.0000000
                       0.5000000  0.5000000  0.0000000     0.0000000  0.0000000  0.0000000
                      -0.0000000  0.0000000  0.0000000     0.5000000  0.5000000  0.0000000
           tolwfr      1.00000000E-20
            typat      1  1  2  2  3  3
           useylm           1
              wtk        0.50000    0.50000
           xangst      0.0000000000E+00  2.1736660405E+00  5.6223276918E+00
                       2.1736660405E+00  0.0000000000E+00  1.4810733172E+00
                       2.1736660405E+00  2.1736660405E+00  0.0000000000E+00
                       0.0000000000E+00  0.0000000000E+00  0.0000000000E+00
                       2.1736660405E+00  0.0000000000E+00  4.6638728971E+00
                       0.0000000000E+00  2.1736660405E+00  2.4395281119E+00
            xcart      0.0000000000E+00  4.1076335209E+00  1.0624659567E+01
                       4.1076335209E+00  0.0000000000E+00  2.7988229522E+00
                       4.1076335209E+00  4.1076335209E+00  0.0000000000E+00
                       0.0000000000E+00  0.0000000000E+00  0.0000000000E+00
                       4.1076335209E+00  0.0000000000E+00  8.8134424940E+00
                       0.0000000000E+00  4.1076335209E+00  4.6100400250E+00
             xred      0.0000000000E+00  5.0000000000E-01  7.9149800000E-01
                       5.0000000000E-01  0.0000000000E+00  2.0850200000E-01
                       5.0000000000E-01  5.0000000000E-01  0.0000000000E+00
                       0.0000000000E+00  0.0000000000E+00  0.0000000000E+00
                       5.0000000000E-01  0.0000000000E+00  6.5656900000E-01
                       0.0000000000E+00  5.0000000000E-01  3.4343100000E-01
            znucl       56.00000    1.00000   17.00000

 chkinp: Checking input parameters for consistency.

== DATASET  1 ==================================================================
-   mpi_nproc: 1, omp_nthreads: -1 (-1 if OMP is not activated)

--- !DatasetInfo
iteration_state: {dtset: 1, }
dimensions: {natom: 6, nkpt: 2, mband: 27, nsppol: 1, nspinor: 1, nspden: 1, mpw: 10646, }
cutoff_energies: {ecut:  39.0, pawecutdg:  -1.0, }
electrons: {nelect:   3.60000000E+01, charge:   0.00000000E+00, occopt:   1.00000000E+00, tsmear:   1.00000000E-02, }
meta: {optdriver: 1, rfelfd: 2, }
...

 Real(R)+Recip(G) space primitive vectors, cartesian coordinates (Bohr,Bohr^-1):
 R(1)=  8.2152670  0.0000000  0.0000000  G(1)=  0.1217246  0.0000000  0.0000000
 R(2)=  0.0000000  8.2152670  0.0000000  G(2)=  0.0000000  0.1217246  0.0000000
 R(3)=  0.0000000  0.0000000 13.4234825  G(3)=  0.0000000  0.0000000  0.0744963
 Unit cell volume ucvol=  9.0595906E+02 bohr^3
 Angles (23,13,12)=  9.00000000E+01  9.00000000E+01  9.00000000E+01 degrees

 getcut: wavevector=  0.0000  0.0000  0.0000  ngfft=  48  48  80
         ecut(hartree)=     39.000   => boxcut(ratio)=   2.07837

--- Pseudopotential description ------------------------------------------------
- pspini: atom type   1  psp file is /scratch/users/j/a/jabreu/pseudos/PBEsol/Ba.psp8
- pspatm: opening atomic psp file    /scratch/users/j/a/jabreu/pseudos/PBEsol/Ba.psp8
- Ba    ONCVPSP-3.3.0  r_core=   2.15444   1.91218   2.15444
- 56.00000  10.00000    180112                znucl, zion, pspdat
    8 -116133    2    4       600   0.00000   pspcod,pspxc,lmax,lloc,mmax,r2well
    5.99000000000000    5.00000000000000    0.00000000000000   rchrg,fchrg,qchrg
     nproj     2     2     2
     extension_switch     1
  pspatm : epsatm=   26.37418029
         --- l  ekb(1:nproj) -->
             0    6.652372    0.677024
             1    5.027722    0.408462
             2    2.543237    0.416854
 pspatm: atomic psp has been read  and splines computed

- pspini: atom type   2  psp file is /scratch/users/j/a/jabreu/pseudos/PBEsol/H.psp8
- pspatm: opening atomic psp file    /scratch/users/j/a/jabreu/pseudos/PBEsol/H.psp8
- H     ONCVPSP-3.3.0  r_core=   1.00957   0.70586
-  1.00000   1.00000    180112                znucl, zion, pspdat
    8 -116133    1    4       300   0.00000   pspcod,pspxc,lmax,lloc,mmax,r2well
    2.99000000000000    0.00000000000000    0.00000000000000   rchrg,fchrg,qchrg
     nproj     2     1
     extension_switch     1
  pspatm : epsatm=    0.35627032
         --- l  ekb(1:nproj) -->
             0   -1.674911   -0.523609
             1   -0.494138
 pspatm: atomic psp has been read  and splines computed

- pspini: atom type   3  psp file is /scratch/users/j/a/jabreu/pseudos/PBEsol/Cl.psp8
- pspatm: opening atomic psp file    /scratch/users/j/a/jabreu/pseudos/PBEsol/Cl.psp8
- Cl    ONCVPSP-3.3.0  r_core=   1.56009   1.35202   1.75774
- 17.00000   7.00000    180112                znucl, zion, pspdat
    8 -116133    2    4       600   0.00000   pspcod,pspxc,lmax,lloc,mmax,r2well
    5.99000000000000    8.00000000000000    0.00000000000000   rchrg,fchrg,qchrg
     nproj     2     2     2
     extension_switch     1
  pspatm : epsatm=    8.95520722
         --- l  ekb(1:nproj) -->
             0    8.193503    0.707970
             1    3.869736    1.114731
             2   -2.915303   -0.810552
 pspatm: atomic psp has been read  and splines computed

   2.56936736E+03                                ecore*ucvol(ha*bohr**3)

-inwffil : will read wavefunctions from disk file /scratch/users/j/a/jabreu/flow_simple_6atoms/flow/w224/t1/indata/in_WFK

 ==>  initialize data related to q vector <==

 The list of irreducible perturbations for this q vector is:
    1)    idir= 1    ipert=   7
    2)    idir= 2    ipert=   7
    3)    idir= 3    ipert=   7

 Perturbation wavevector (in red.coord.)   0.000000  0.000000  0.000000
 Perturbation : derivative vs k along direction   1

 dfpt_looppert : COMMENT -
  In a d/dk calculation, iscf is set to -3 automatically.
 The set of symmetries contains only one element for this perturbation.
 symkpt : not enough symmetry to change the number of k points.

[...]

 Initialisation of the first-order wave-functions :
  ireadwf=   0

--- !BeginCycle
iteration_state: {dtset: 1, }
solver: {iscf: 7, nstep: 1000, nline: 4, wfoptalg: 0, }
tolerances: {tolwfr: 1.00E-20, }
...

     iter   2DEtotal(Ha)        deltaE(Ha) residm    vres2
-ETOT  1  -24.108439618966     -2.411E+01 9.580E-02 0.000E+00
 ETOT  2  -24.118821082546     -1.038E-02 5.793E-03 0.000E+00
 ETOT  3  -24.118837171561     -1.609E-05 3.512E-04 0.000E+00
 ETOT  4  -24.118837212356     -4.080E-08 8.342E-05 0.000E+00
 ETOT  5  -24.118837212481     -1.251E-10 4.477E-06 0.000E+00
 ETOT  6  -24.118837212482     -3.837E-13 8.644E-07 0.000E+00
 ETOT  7  -24.118837212482     -3.553E-14 6.691E-08 0.000E+00
 ETOT  8  -24.118837212482      0.000E+00 1.152E-08 0.000E+00
 ETOT  9  -24.118837212482     -2.842E-14 1.009E-09 0.000E+00
 ETOT 10  -24.118837212482      0.000E+00 1.978E-10 0.000E+00
 ETOT 11  -24.118837212482     -3.553E-15 1.781E-11 0.000E+00
 ETOT 12  -24.118837212482      3.553E-15 3.873E-12 0.000E+00
 ETOT 13  -24.118837212482      0.000E+00 3.472E-13 0.000E+00
 ETOT 14  -24.118837212482      0.000E+00 7.817E-14 0.000E+00
 ETOT 15  -24.118837212482      7.105E-15 6.960E-15 0.000E+00
 ETOT 16  -24.118837212482      0.000E+00 1.589E-15 0.000E+00
 ETOT 17  -24.118837212482     -7.105E-15 1.408E-16 0.000E+00
 ETOT 18  -24.118837212482      0.000E+00 3.241E-17 0.000E+00
 ETOT 19  -24.118837212482      1.066E-14 2.860E-18 0.000E+00
 ETOT 20  -24.118837212482      3.553E-15 6.622E-19 0.000E+00
 ETOT 21  -24.118837212482      3.553E-15 5.824E-20 0.000E+00
 ETOT 22  -24.118837212482     -1.066E-14 1.355E-20 0.000E+00
 ETOT 23  -24.118837212482      0.000E+00 9.573E-21 0.000E+00

 At SCF step   23   max residual=  9.57E-21 < tolwfr=  1.00E-20 =>converged.

 ----iterations are completed or convergence reached----

 dfpt_looppert: DFPT cycle converged with prtwf=-1. Will skip output of the 1st-order WFK file.
 dfpt_looppert : ek2=    4.2116169336E+01
          f-sum rule ratio=    1.1215993516E+00
 prteigrs : about to open file /scratch/users/j/a/jabreu/flow_simple_6atoms/flow/w224/t1/tmpdata/tmp_1WF1_EIG
 Expectation of eigenvalue derivatives (hartree) for nkpt=   2  k points:
  (in case of degenerate eigenvalues, averaged derivative)
 kpt#   1, nband= 27, wtk=  0.50000, kpt=  0.0000  0.0000  0.5000 (reduced coord)
  -0.00000    0.00000   -0.00000   -0.00000   -0.00000   -0.00000   -0.00000    0.00000
   0.00000   -0.00000   -0.00000   -0.00000   -0.00000   -0.00000   -0.00000   -0.00000
  -0.00000    0.00000   -0.00000    0.00000    0.00000    0.00000    0.00000   -0.00000
  -0.00000   -0.00000   -0.00000
 prteigrs : prtvol=0 or 1, do not print more k-points.

 Eight components of 2nd-order total energy (hartree) are
 1,2,3: 0th-order hamiltonian combined with 1st-order wavefunctions
     kin0=   1.92196373E+01 eigvalue=   2.11051528E-01  local=  -1.10720704E+01
 4,5,6: 1st-order hamiltonian combined with 1st and 0th-order wfs
     kin1=  -4.72374682E+01  Hartree=   0.00000000E+00     xc=   0.00000000E+00
 7,8,9: eventually, occupation + non-local contributions
    edocc=   1.31814309E+01     enl0=   2.57878780E+00   enl1=  -1.00020621E+00
 1-9 gives the relaxation energy (to be shifted if some occ is /=2.0)
   erelax=  -2.41188372E+01
  No Ewald or frozen-wf contrib.: the relaxation energy is the total one
 2DEtotal=   -0.2411883721E+02 Ha. Also 2DEtotal=   -0.656306937646E+03 eV
    (  non-var. 2DEtotal :   -2.4118837212E+01 Ha)

 Perturbation wavevector (in red.coord.)   0.000000  0.000000  0.000000
 Perturbation : derivative vs k along direction   2
 The set of symmetries contains only one element for this perturbation.
 symkpt : not enough symmetry to change the number of k points.

[...]

 Perturbation wavevector (in red.coord.)   0.000000  0.000000  0.000000
 Perturbation : derivative vs k along direction   3
 The set of symmetries contains only one element for this perturbation.
 symkpt : not enough symmetry to change the number of k points.

-inwffil : will read wavefunctions from disk file /scratch/users/j/a/jabreu/flow_simple_6atoms/flow/w224/t1/indata/in_WFK

 Initialisation of the first-order wave-functions :
  ireadwf=   0

--- !BeginCycle
iteration_state: {dtset: 1, }
solver: {iscf: 7, nstep: 1000, nline: 4, wfoptalg: 0, }
tolerances: {tolwfr: 1.00E-20, }
...

     iter   2DEtotal(Ha)        deltaE(Ha) residm    vres2
-ETOT  1  -8.2962957821407     -8.296E+00 2.834E-02 0.000E+00
 ETOT  2  -8.3013079390748     -5.012E-03 1.238E-04 0.000E+00
 ETOT  3  -8.3013200083712     -1.207E-05 2.601E-06 0.000E+00
 ETOT  4  -8.3013200493499     -4.098E-08 8.320E-08 0.000E+00
 ETOT  5  -8.3013200495058     -1.559E-10 2.973E-09 0.000E+00
 ETOT  6  -8.3013200495064     -6.217E-13 9.967E-11 0.000E+00
 ETOT  7  -8.3013200495064     -1.421E-14 4.757E-12 0.000E+00
 ETOT  8  -8.3013200495064      2.309E-14 1.600E-13 0.000E+00
 ETOT  9  -8.3013200495064     -1.776E-14 8.022E-15 0.000E+00
 ETOT 10  -8.3013200495064     -1.776E-15 2.757E-16 0.000E+00
 ETOT 11  -8.3013200495064      1.776E-15 1.388E-17 0.000E+00
 ETOT 12  -8.3013200495064      0.000E+00 4.823E-19 0.000E+00
 ETOT 13  -8.3013200495064      0.000E+00 2.421E-20 0.000E+00
 ETOT 14  -8.3013200495064     -1.776E-15 9.870E-21 0.000E+00

 At SCF step   14   max residual=  9.87E-21 < tolwfr=  1.00E-20 =>converged.

 ----iterations are completed or convergence reached----

 dfpt_looppert: DFPT cycle converged with prtwf=-1. Will skip output of the 1st-order WFK file.
 dfpt_looppert : ek2=    1.5774726201E+01
          f-sum rule ratio=    1.0218860249E+00
 prteigrs : about to open file /scratch/users/j/a/jabreu/flow_simple_6atoms/flow/w224/t1/tmpdata/tmp_1WF1_EIG
 Expectation of eigenvalue derivatives (hartree) for nkpt=   2  k points:
  (in case of degenerate eigenvalues, averaged derivative)
 kpt#   1, nband= 27, wtk=  0.50000, kpt=  0.0000  0.0000  0.5000 (reduced coord)
   0.00000   -0.00000    0.00000    0.00000    0.00000    0.00000    0.00000    0.00000
   0.00000    0.00000   -0.00000   -0.00000   -0.00000   -0.00000   -0.00000   -0.00000
   0.00000   -0.00000    0.00000   -0.00000   -0.00000   -0.00000   -0.00000    0.00000
   0.00000   -0.00000    0.00001
 prteigrs : prtvol=0 or 1, do not print more k-points.

 Eight components of 2nd-order total energy (hartree) are
 1,2,3: 0th-order hamiltonian combined with 1st-order wavefunctions
     kin0=   9.50538579E+00 eigvalue=   2.14889033E-01  local=  -5.43501616E+00
 4,5,6: 1st-order hamiltonian combined with 1st and 0th-order wfs
     kin1=  -1.61199723E+01  Hartree=   0.00000000E+00     xc=   0.00000000E+00
 7,8,9: eventually, occupation + non-local contributions
    edocc=   2.84882430E+00     enl0=   1.16723708E+00   enl1=  -4.82667847E-01
 1-9 gives the relaxation energy (to be shifted if some occ is /=2.0)
   erelax=  -8.30132005E+00
  No Ewald or frozen-wf contrib.: the relaxation energy is the total one
 2DEtotal=   -0.8301320050E+01 Ha. Also 2DEtotal=   -0.225890406412E+03 eV
    (  non-var. 2DEtotal :   -8.3013200493E+00 Ha)

 CALCULATION OF EFFECTIVE MASSES
 NOTE : Additional infos (eff. mass eigenvalues, eigenvectors and, if degenerate, average mass) are available in stdout.

 K-point ( 0.000, 0.000, 0.500) | band =    18
 Effective mass tensor:
            -15.9291214680             -0.0000008995              0.0000543918
             -0.0000008995            -15.9291252599             -0.0000254056
              0.0000543918             -0.0000254056             -0.4224969386
 Effective mass tensor eigenvalues:
            -15.9291254625            -15.9291212656             -0.4224969383
 Angular average effective mass 1/(<1/m>)=  -1.2036411375
 Angular average effective mass for Frohlich model (<m**0.5>)**2=  -2.7153968358
 Effective masses along directions: (cart. coord. / red. coord. -> eff. mass)
    1:   1.000000  0.000000  0.000000 /   1.000000  0.000000  0.000000 -> -15.9291214610
    2:   0.000000  1.000000  0.000000 /   0.000000  1.000000  0.000000 -> -15.9291252584
    3:   0.000000  0.000000  1.000000 /   0.000000  0.000000  1.000000 ->  -0.4224969384
    4:   0.577350  0.577350  0.577350 /   0.462752  0.462752  0.756122 ->  -1.2036369811
    5:   0.000000  0.707107  0.707107 /   0.000000  0.522006  0.852942 ->  -0.8231632904
    6:   0.707107  0.000000  0.707107 /   0.522006  0.000000  0.852942 ->  -0.8231552511
    7:   0.707107  0.707107  0.000000 /   0.707107  0.707107  0.000000 -> -15.9291242625

 K-point ( 0.000, 0.000, 0.500) | band =    19
 Effective mass tensor:
              0.4561119464              0.0000000005             -0.0000000000
              0.0000000005              0.4561119453              0.0000000001
             -0.0000000000              0.0000000001              0.7476150369
 Effective mass tensor eigenvalues:
              0.4561119451              0.4561119465              0.7476150369
 Angular average effective mass 1/(<1/m>)=   0.5242486644
 Angular average effective mass for Frohlich model (<m**0.5>)**2=   0.5320355098
 Effective masses along directions: (cart. coord. / red. coord. -> eff. mass)
    1:   1.000000  0.000000  0.000000 /   1.000000  0.000000  0.000000 ->   0.4561119464
    2:   0.000000  1.000000  0.000000 /   0.000000  1.000000  0.000000 ->   0.4561119453
    3:   0.000000  0.000000  1.000000 /   0.000000  0.000000  1.000000 ->   0.7476150369
    4:   0.577350  0.577350  0.577350 /   0.462752  0.462752  0.756122 ->   0.5242486649
    5:   0.000000  0.707107  0.707107 /   0.000000  0.522006  0.852942 ->   0.5665672597
    6:   0.707107  0.000000  0.707107 /   0.522006  0.000000  0.852942 ->   0.5665672604
    7:   0.707107  0.707107  0.000000 /   0.707107  0.707107  0.000000 ->   0.4561119463

 END OF EFFECTIVE MASSES SECTION

 ---- first-order wavefunction calculations are completed ----

 Total localisation tensor (bohr^2) in cartesian coordinates
  WARNING : still subject to testing - especially symmetries.
      direction              matrix element
   alpha     beta       real part   imaginary part
     1        1       1.3255847179    0.0000000000
     1        2       0.0000000000    0.0000000000
     1        3       0.0000000000    0.0000000000
     2        1       0.0000000000    0.0000000000
     2        2       1.3255846173    0.0000000000
     2        3       0.0000000000    0.0000000000
     3        1       0.0000000000    0.0000000000
     3        2       0.0000000000    0.0000000000
     3        3       1.2351049254    0.0000000000

 respfn : d/dk was computed, but no 2DTE, so no DDB output.

== END DATASET(S) ==============================================================

 -outvars: echo values of variables after computation  --------
            acell      1.0000000000E+00  1.0000000000E+00  1.0000000000E+00 Bohr
              amu      1.37327000E+02  1.00794000E+00  3.54527000E+01
             ecut      3.90000000E+01 Hartree
           etotal     -8.3013200495E+00
            fcart      0.0000000000E+00  0.0000000000E+00  0.0000000000E+00
                       0.0000000000E+00  0.0000000000E+00  0.0000000000E+00
                       0.0000000000E+00  0.0000000000E+00  0.0000000000E+00
                       0.0000000000E+00  0.0000000000E+00  0.0000000000E+00
                       0.0000000000E+00  0.0000000000E+00  0.0000000000E+00
                       0.0000000000E+00  0.0000000000E+00  0.0000000000E+00
-          fftalg         512
           irdden           1
           irdwfk           1
           istwfk        1    1
              ixc     -116133
              kpt      0.00000000E+00  0.00000000E+00  5.00000000E-01
                       1.87373144E-17  1.87373144E-17  5.00000000E-01
           kptopt           0
P           mkmem           2
P          mkqmem           2
P          mk1mem           2
            natom           6
            nband          27
           nbdbuf           4
            ngfft          48      48      80
             nkpt           2
            nstep        1000
             nsym          16
           ntypat           3
              occ      2.000000  2.000000  2.000000  2.000000  2.000000  2.000000
                       2.000000  2.000000  2.000000  2.000000  2.000000  2.000000
                       2.000000  2.000000  2.000000  2.000000  2.000000  2.000000
                       0.000000  0.000000  0.000000  0.000000  0.000000  0.000000
                       0.000000  0.000000  0.000000
        optdriver           1
            prtwf          -1
            rfdir           1       1       1
           rfelfd           2
            rprim      8.2152670418E+00  0.0000000000E+00  0.0000000000E+00
                       0.0000000000E+00  8.2152670418E+00  0.0000000000E+00
                       0.0000000000E+00  0.0000000000E+00  1.3423482519E+01
          spgroup         129
           strten      0.0000000000E+00  0.0000000000E+00  0.0000000000E+00
                       0.0000000000E+00  0.0000000000E+00  0.0000000000E+00
           symrel      1  0  0   0  1  0   0  0  1      -1  0  0   0 -1  0   0  0 -1
                      -1  0  0   0  1  0   0  0 -1       1  0  0   0 -1  0   0  0  1
                      -1  0  0   0 -1  0   0  0  1       1  0  0   0  1  0   0  0 -1
                       1  0  0   0 -1  0   0  0 -1      -1  0  0   0  1  0   0  0  1
                       0  1  0   1  0  0   0  0  1       0 -1  0  -1  0  0   0  0 -1
                       0 -1  0   1  0  0   0  0 -1       0  1  0  -1  0  0   0  0  1
                       0 -1  0  -1  0  0   0  0  1       0  1  0   1  0  0   0  0 -1
                       0  1  0  -1  0  0   0  0 -1       0 -1  0   1  0  0   0  0  1
            tnons      0.0000000  0.0000000  0.0000000     0.5000000  0.5000000  0.0000000
                       0.5000000  0.5000000  0.0000000     0.0000000 -0.0000000  0.0000000
                       0.0000000 -0.0000000  0.0000000     0.5000000  0.5000000  0.0000000
                       0.5000000  0.5000000  0.0000000     0.0000000  0.0000000  0.0000000
                       0.5000000  0.5000000  0.0000000    -0.0000000  0.0000000  0.0000000
                       0.0000000  0.0000000  0.0000000     0.5000000  0.5000000  0.0000000
                       0.5000000  0.5000000  0.0000000     0.0000000  0.0000000  0.0000000
                      -0.0000000  0.0000000  0.0000000     0.5000000  0.5000000  0.0000000
           tolwfr      1.00000000E-20
            typat      1  1  2  2  3  3
           useylm           1
              wtk        0.50000    0.50000
           xangst      0.0000000000E+00  2.1736660405E+00  5.6223276918E+00
                       2.1736660405E+00  0.0000000000E+00  1.4810733172E+00
                       2.1736660405E+00  2.1736660405E+00  0.0000000000E+00
                       0.0000000000E+00  0.0000000000E+00  0.0000000000E+00
                       2.1736660405E+00  0.0000000000E+00  4.6638728971E+00
                       0.0000000000E+00  2.1736660405E+00  2.4395281119E+00
            xcart      0.0000000000E+00  4.1076335209E+00  1.0624659567E+01
                       4.1076335209E+00  0.0000000000E+00  2.7988229522E+00
                       4.1076335209E+00  4.1076335209E+00  0.0000000000E+00
                       0.0000000000E+00  0.0000000000E+00  0.0000000000E+00
                       4.1076335209E+00  0.0000000000E+00  8.8134424940E+00
                       0.0000000000E+00  4.1076335209E+00  4.6100400250E+00
             xred      0.0000000000E+00  5.0000000000E-01  7.9149800000E-01
                       5.0000000000E-01  0.0000000000E+00  2.0850200000E-01
                       5.0000000000E-01  5.0000000000E-01  0.0000000000E+00
                       0.0000000000E+00  0.0000000000E+00  0.0000000000E+00
                       5.0000000000E-01  0.0000000000E+00  6.5656900000E-01
                       0.0000000000E+00  5.0000000000E-01  3.4343100000E-01
            znucl       56.00000    1.00000   17.00000

- Timing analysis has been suppressed with timopt=0

 Suggested references for the acknowledgment of ABINIT usage.

 Calculation completed.
.Delivered  14 WARNINGs and   9 COMMENTs to log file.