.Version 9.5.2 of ABINIT

 ABINIT is a project of the Universite Catholique de Louvain,
 Corning Inc. and other collaborators, see ~abinit/doc/developers/contributors.txt .
 acknowledgments of the ABINIT effort.

.Starting date : Wed 26 May 2021.
- ( at 02h38 )

- input  file    -> /scratch/users/j/a/jabreu/flow_simple_11atoms/flow/w248/t1/run.abi
- output file    -> /scratch/users/j/a/jabreu/flow_simple_11atoms/flow/w248/t1/run.abo
- root for input  files -> /scratch/users/j/a/jabreu/flow_simple_11atoms/flow/w248/t1/indata/in
- root for output files -> /scratch/users/j/a/jabreu/flow_simple_11atoms/flow/w248/t1/outdata/out

 Symmetries : space group Pc a 2_1 (# 29); Bravais oP (primitive ortho.)
     intxc =       0      iscf =       7    lmnmax =      32     lnmax =       8
     mgfft =      72  mpssoang =       4    mqgrid =    3380     natom =      12
  nloc_mem =       1    nspden =       1   nspinor =       1    nsppol =       1
      nsym =       4    n1xccc =    2501    ntypat =       3    occopt =       1
   xclevel =       2
-    mband =         105        mffmem =           1         mkmem =           2
-   mkqmem =           2        mk1mem =           2           mpw =       19860
      nfft =      373248          nkpt =           2
  Rough estimation (10% accuracy) of disk space for files :

------------- Echo of variables that govern the present computation ------------
-
- outvars: echo of selected default values
-   iomode0 =  0 , fftalg0 =512 , wfoptalg0 =  0
-
- outvars: echo of global parameters not present in the input file
-  max_nthreads =    0
-
 -outvars: echo values of preprocessed input variables --------
            acell      1.0000000000E+00  1.0000000000E+00  1.0000000000E+00 Bohr
              amu      7.26100000E+01  1.95080000E+02  7.89600000E+01
             ecut      4.30000000E+01 Hartree
-          fftalg         512
           irdden           1
           irdwfk           1
              ixc     -116133
              kpt      0.00000000E+00  4.37500000E-01  5.00000000E-01
                       4.06250000E-01  5.00000000E-01  5.00000000E-01
           kptopt           0
P           mkmem           2
P          mkqmem           2
P          mk1mem           2
            natom          12
            nband         105
           nbdbuf           4
            ngfft          72      72      72
             nkpt           2
            nstep        2000
             nsym           4
           ntypat           3
              occ      2.000000  2.000000  2.000000  2.000000  2.000000  2.000000
                       2.000000  2.000000  2.000000  2.000000  2.000000  2.000000
                       2.000000  2.000000  2.000000  2.000000  2.000000  2.000000
                       2.000000  2.000000  2.000000  2.000000  2.000000  2.000000
                       2.000000  2.000000  2.000000  2.000000  2.000000  2.000000
                       2.000000  2.000000  2.000000  2.000000  2.000000  2.000000
                       2.000000  2.000000  2.000000  2.000000  2.000000  2.000000
                       2.000000  2.000000  2.000000  2.000000  2.000000  2.000000
                       2.000000  2.000000  2.000000  2.000000  2.000000  2.000000
                       2.000000  2.000000  2.000000  2.000000  2.000000  2.000000
                       2.000000  2.000000  2.000000  2.000000  2.000000  2.000000
                       2.000000  2.000000  2.000000  2.000000  2.000000  2.000000
                       2.000000  2.000000  2.000000  2.000000  2.000000  2.000000
                       2.000000  2.000000  2.000000  2.000000  2.000000  2.000000
                       2.000000  2.000000  2.000000  2.000000  2.000000  2.000000
                       2.000000  2.000000  2.000000  2.000000  2.000000  2.000000
                       0.000000  0.000000  0.000000  0.000000  0.000000  0.000000
                       0.000000  0.000000  0.000000
        optdriver           1
            prtwf          -1
            rfdir           1       1       1
           rfelfd           2
            rprim      1.1325460690E+01  0.0000000000E+00  0.0000000000E+00
                       0.0000000000E+00  1.1371878581E+01  0.0000000000E+00
                       0.0000000000E+00  0.0000000000E+00  1.1449975765E+01
          spgroup          29
           symrel      1  0  0   0  1  0   0  0  1       1  0  0   0 -1  0   0  0  1
                       1  0  0   0  1  0   0  0 -1       1  0  0   0 -1  0   0  0 -1
            tnons      0.0000000  0.0000000  0.0000000     0.5000000  0.5000000  0.0000000
                       0.0000000  0.5000000 -0.0000000     0.5000000  0.0000000 -0.0000000
           tolwfr      1.00000000E-20
            typat      1  1  1  1  2  2  2  2  3  3  3  3
           useylm           1
              wtk        0.50000    0.50000
           xangst      5.2747197672E+00  5.2963023280E+00  2.2763124086E+00
                       5.2747197672E+00  2.2874328462E+00  3.7827538050E+00
                       2.2781319303E+00  3.7303061175E+00  2.2763124086E+00
                       2.2781319303E+00  7.2143663566E-01  3.7827538050E+00
                       1.5839963306E-02  3.0536414597E+00  1.5569921858E+00
                       3.0124278002E+00  2.9640975040E+00  4.5020740277E+00
                       3.0124278002E+00  5.9729669858E+00  1.5569921858E+00
                       1.5839963306E-02  4.4771977890E-02  4.5020740277E+00
                       6.9122890952E-01  3.7135467145E+00  5.2351846851E+00
                       6.9122890952E-01  7.0467723265E-01  8.2388152839E-01
                       3.6878167464E+00  5.3130617311E+00  5.2351846851E+00
                       3.6878167464E+00  2.3041922492E+00  8.2388152839E-01
            xcart      9.9677757878E+00  1.0008560917E+01  4.3016070451E+00
                       9.9677757878E+00  4.3226216267E+00  7.1483687195E+00
                       4.3050454429E+00  7.0492569539E+00  4.3016070451E+00
                       4.3050454429E+00  1.3633176636E+00  7.1483687195E+00
                       2.9933192603E-02  5.7705460669E+00  2.9422888223E+00
                       5.6926635375E+00  5.6013325137E+00  8.5076869423E+00
                       5.6926635375E+00  1.1287271804E+01  2.9422888223E+00
                       2.9933192603E-02  8.4606776640E-02  8.5076869423E+00
                       1.3062333341E+00  7.0175862721E+00  9.8930653100E+00
                       1.3062333341E+00  1.3316469818E+00  1.5569104546E+00
                       6.9689636790E+00  1.0040231599E+01  9.8930653100E+00
                       6.9689636790E+00  4.3542923085E+00  1.5569104546E+00
             xred      8.8012100000E-01  8.8011500000E-01  3.7568700000E-01
                       8.8012100000E-01  3.8011500000E-01  6.2431300000E-01
                       3.8012100000E-01  6.1988500000E-01  3.7568700000E-01
                       3.8012100000E-01  1.1988500000E-01  6.2431300000E-01
                       2.6430000000E-03  5.0744000000E-01  2.5696900000E-01
                       5.0264300000E-01  4.9256000000E-01  7.4303100000E-01
                       5.0264300000E-01  9.9256000000E-01  2.5696900000E-01
                       2.6430000000E-03  7.4400000000E-03  7.4303100000E-01
                       1.1533600000E-01  6.1710000000E-01  8.6402500000E-01
                       1.1533600000E-01  1.1710000000E-01  1.3597500000E-01
                       6.1533600000E-01  8.8290000000E-01  8.6402500000E-01
                       6.1533600000E-01  3.8290000000E-01  1.3597500000E-01
            znucl       32.00000   78.00000   34.00000

 chkinp: Checking input parameters for consistency.

== DATASET  1 ==================================================================
-   mpi_nproc: 1, omp_nthreads: -1 (-1 if OMP is not activated)

--- !DatasetInfo
iteration_state: {dtset: 1, }
dimensions: {natom: 12, nkpt: 2, mband: 105, nsppol: 1, nspinor: 1, nspden: 1, mpw: 19860, }
cutoff_energies: {ecut:  43.0, pawecutdg:  -1.0, }
electrons: {nelect:   1.92000000E+02, charge:   0.00000000E+00, occopt:   1.00000000E+00, tsmear:   1.00000000E-02, }
meta: {optdriver: 1, rfelfd: 2, }
...

 Real(R)+Recip(G) space primitive vectors, cartesian coordinates (Bohr,Bohr^-1):
 R(1)= 11.3254607  0.0000000  0.0000000  G(1)=  0.0882966  0.0000000  0.0000000
 R(2)=  0.0000000 11.3718786  0.0000000  G(2)=  0.0000000  0.0879362  0.0000000
 R(3)=  0.0000000  0.0000000 11.4499758  G(3)=  0.0000000  0.0000000  0.0873364
 Unit cell volume ucvol=  1.4746626E+03 bohr^3
 Angles (23,13,12)=  9.00000000E+01  9.00000000E+01  9.00000000E+01 degrees

 getcut: wavevector=  0.0000  0.0000  0.0000  ngfft=  72  72  72
         ecut(hartree)=     43.000   => boxcut(ratio)=   2.13024

--- Pseudopotential description ------------------------------------------------
- pspini: atom type   1  psp file is /scratch/users/j/a/jabreu/pseudos/PBEsol/Ge.psp8
- pspatm: opening atomic psp file    /scratch/users/j/a/jabreu/pseudos/PBEsol/Ge.psp8
- Ge    ONCVPSP-3.3.0  r_core=   1.91022   1.82122   1.91022
- 32.00000  14.00000    180112                znucl, zion, pspdat
    8 -116133    2    4       600   0.00000   pspcod,pspxc,lmax,lloc,mmax,r2well
    5.99000000000000    5.00000000000000    0.00000000000000   rchrg,fchrg,qchrg
     nproj     2     2     2
     extension_switch     1
  pspatm : epsatm=   30.86751540
         --- l  ekb(1:nproj) -->
             0    6.339734    0.583066
             1    3.813259    0.738801
             2   -9.332373   -3.602819
 pspatm: atomic psp has been read  and splines computed

- pspini: atom type   2  psp file is /scratch/users/j/a/jabreu/pseudos/PBEsol/Pt.psp8
- pspatm: opening atomic psp file    /scratch/users/j/a/jabreu/pseudos/PBEsol/Pt.psp8
- Pt    ONCVPSP-3.3.0  r_core=   1.45722   1.45722   1.45722   1.91724
- 78.00000  18.00000    180112                znucl, zion, pspdat
    8 -116133    3    4       500   0.00000   pspcod,pspxc,lmax,lloc,mmax,r2well
    4.99000000000000    5.00000000000000    0.00000000000000   rchrg,fchrg,qchrg
     nproj     2     2     2     2
     extension_switch     1
  pspatm : epsatm=   26.54019552
         --- l  ekb(1:nproj) -->
             0   18.149684    1.747248
             1    8.048135    1.208190
             2    2.365973    0.348456
             3    3.491561    0.381218
 pspatm: atomic psp has been read  and splines computed

- pspini: atom type   3  psp file is /scratch/users/j/a/jabreu/pseudos/PBEsol/Se.psp8
- pspatm: opening atomic psp file    /scratch/users/j/a/jabreu/pseudos/PBEsol/Se.psp8
- Se    ONCVPSP-3.3.0  r_core=   1.81943   1.50330   1.90835
- 34.00000  16.00000    180112                znucl, zion, pspdat
    8 -116133    2    4       600   0.00000   pspcod,pspxc,lmax,lloc,mmax,r2well
    5.99000000000000    5.00000000000000    0.00000000000000   rchrg,fchrg,qchrg
     nproj     2     2     2
     extension_switch     1
  pspatm : epsatm=   29.17862020
         --- l  ekb(1:nproj) -->
             0    8.973804    1.019550
             1    6.849857    1.297308
             2   -9.203962   -3.731027
 pspatm: atomic psp has been read  and splines computed

[...]
 ETOT 40  -122.51039360793      1.421E-14 6.860E-17 0.000E+00
 ETOT 41  -122.51039360793     -2.842E-14 3.521E-17 0.000E+00
 ETOT 42  -122.51039360793      4.263E-14 1.388E-17 0.000E+00
 ETOT 43  -122.51039360793     -4.263E-14 7.148E-18 0.000E+00
 ETOT 44  -122.51039360793     -1.421E-14 2.810E-18 0.000E+00
 ETOT 45  -122.51039360793      2.842E-14 1.451E-18 0.000E+00
 ETOT 46  -122.51039360793      2.842E-14 5.693E-19 0.000E+00
 ETOT 47  -122.51039360793      1.421E-14 2.946E-19 0.000E+00
 ETOT 48  -122.51039360793      0.000E+00 1.154E-19 0.000E+00
 ETOT 49  -122.51039360793     -2.842E-14 5.983E-20 0.000E+00
 ETOT 50  -122.51039360793     -2.842E-14 2.340E-20 0.000E+00
 ETOT 51  -122.51039360793      5.684E-14 9.986E-21 0.000E+00

 At SCF step   51   max residual=  9.99E-21 < tolwfr=  1.00E-20 =>converged.

 ----iterations are completed or convergence reached----

 dfpt_looppert: DFPT cycle converged with prtwf=-1. Will skip output of the 1st-order WFK file.
 dfpt_looppert : ek2=    1.1563300879E+02
          f-sum rule ratio=    1.0916983538E+00
 prteigrs : about to open file /scratch/users/j/a/jabreu/flow_simple_11atoms/flow/w248/t1/tmpdata/tmp_1WF1_EIG
 Expectation of eigenvalue derivatives (hartree) for nkpt=   2  k points:
  (in case of degenerate eigenvalues, averaged derivative)
 kpt#   1, nband=105, wtk=  0.50000, kpt=  0.0000  0.4375  0.5000 (reduced coord)
   0.00000   -0.00000   -0.00000    0.00000   -0.00000    0.00000    0.00000   -0.00000
  -0.00000    0.00000   -0.00000    0.00000    0.00000   -0.00000    0.00000   -0.00000
  -0.00000    0.00000    0.00000    0.00000    0.00000   -0.00000    0.00000    0.00000
   0.00000    0.00000   -0.00000    0.00000   -0.00000    0.00000   -0.00000   -0.00000
  -0.00000    0.00000    0.00000    0.00000   -0.00000    0.00000   -0.00000    0.00000
   0.00000    0.00000    0.00000   -0.00000    0.00000    0.00000   -0.00000    0.00000
  -0.00000    0.00000    0.00000   -0.00000    0.00000   -0.00000   -0.00000   -0.00000
   0.00000    0.00000    0.00000   -0.00000   -0.00000    0.00000   -0.00000    0.00000
  -0.00000   -0.00000    0.00000    0.00000    0.00000   -0.00000   -0.00000    0.00000
   0.00000    0.00000   -0.00000   -0.00000    0.00000    0.00000    0.00000   -0.00000
   0.00000   -0.00000    0.00000   -0.00000    0.00000   -0.00000   -0.00000   -0.00000
   0.00000    0.00000   -0.00000   -0.00000   -0.00000   -0.00000    0.00000   -0.00000
   0.00000    0.00000    0.00000   -0.00000    0.00000    0.00000   -0.00000    0.00000
   0.00741
 prteigrs : prtvol=0 or 1, do not print more k-points.

 Eight components of 2nd-order total energy (hartree) are
 1,2,3: 0th-order hamiltonian combined with 1st-order wavefunctions
     kin0=   1.57593318E+02 eigvalue=   5.20594246E+00  local=  -6.99588871E+01
 4,5,6: 1st-order hamiltonian combined with 1st and 0th-order wfs
     kin1=  -1.26236365E+02  Hartree=   0.00000000E+00     xc=   0.00000000E+00
 7,8,9: eventually, occupation + non-local contributions
    edocc=   1.53464291E+01     enl0=   1.43235907E+01   enl1=  -1.18784422E+02
 1-9 gives the relaxation energy (to be shifted if some occ is /=2.0)
   erelax=  -1.22510394E+02
  No Ewald or frozen-wf contrib.: the relaxation energy is the total one
 2DEtotal=   -0.1225103936E+03 Ha. Also 2DEtotal=   -0.333367734731E+04 eV
    (  non-var. 2DEtotal :   -1.2251039361E+02 Ha)

 CALCULATION OF EFFECTIVE MASSES
 NOTE : Additional infos (eff. mass eigenvalues, eigenvectors and, if degenerate, average mass) are available in stdout.

--- !WARNING
src_file: m_efmas.F90
src_line: 0
message: |
    Effective masses calculations require given k-point(s) to be band extrema for given bands, but max abs gradient of band(s) was found to be greater than 1e-5. Abinit will continue anyway.
...

--- !WARNING
src_file: m_efmas.F90
src_line: 0
message: |
    Effective masses calculations require given k-point(s) to be band extrema for given bands, but max abs gradient of band(s) was found to be greater than 1e-5. Abinit will continue anyway.
...

--- !WARNING
src_file: m_efmas.F90
src_line: 0
message: |

    Band(s)    96,
    are not band extrema, but saddle points;
    the transport equivalent formalism breaks down in these conditions.
    The associated tensor(s) will therefore not be printed.
...

 K-point ( 0.000, 0.438, 0.500) | band =    96
 Effective mass tensor:
     *** SADDLE POINT: TRANSPORT EQV. EFF. MASS NOT DEFINED (see WARNING above) ***
 Angular average effective mass 1/(<1/m>)=   0.8626154832
 Angular average effective mass for Frohlich model (<m**0.5>)**2=   0.6614759034
 Effective masses along directions: (cart. coord. / red. coord. -> eff. mass)
    1:   1.000000  0.000000  0.000000 /   1.000000  0.000000  0.000000 ->  -0.6009994178
    2:   0.000000  1.000000  0.000000 /   0.000000  1.000000  0.000000 ->  -0.2071453934
    3:   0.000000  0.000000  1.000000 /   0.000000  0.000000  1.000000 ->   0.1003087761
    4:   0.577350  0.577350  0.577350 /   0.574454  0.576809  0.580770 ->   0.8625308054
    5:   0.000000  0.707107  0.707107 /   0.000000  0.704683  0.709522 ->   0.3891479062
    6:   0.707107  0.000000  0.707107 /   0.703230  0.000000  0.710962 ->   0.2407437851
    7:   0.707107  0.707107  0.000000 /   0.705659  0.708551  0.000000 ->  -0.3081146881

 COMMENTS:
 - At k-point ( 0.406, 0.500, 0.500), bands    97 through    98
   are DEGENERATE (effective mass tensor is therefore not defined).
   See Section IIIB Eqs. (67)-(70) and Appendix E of PRB 93 205147 (2016).
 - Angular average effective mass for Frohlich model is to be averaged over degenerate bands. See later.
 - Associated theta integrals calculated with ntheta=   1000 points.

 K-point ( 0.406, 0.500, 0.500) | band =    97
 Transport equivalent effective mass tensor:
              0.3093432962             -0.0000015634             -0.0000014730
             -0.0000015634              0.6962061931              0.0000109733
             -0.0000014730              0.0000109733              0.3864739005
 Transport equivalent effective mass tensor eigenvalues:
              0.6962061935              0.3864739001              0.3093432961
 Angular average effective mass 1/(<1/m>)=   0.2731302824
 Angular average effective mass for Frohlich model (<m**0.5>)**2=   0.2933046805
 Effective masses along directions: (cart. coord. / red. coord. -> eff. mass)
    1:   1.000000  0.000000  0.000000 /   1.000000  0.000000  0.000000 ->   0.1606093614
    2:   0.000000  1.000000  0.000000 /   0.000000  1.000000  0.000000 ->   0.3015581871
    3:   0.000000  0.000000  1.000000 /   0.000000  0.000000  1.000000 ->   0.1718042035
    4:   0.577350  0.577350  0.577350 /   0.574454  0.576809  0.580770 ->   0.3281634892
    5:   0.000000  0.707107  0.707107 /   0.000000  0.704683  0.709522 ->   0.4970183335
    6:   0.707107  0.000000  0.707107 /   0.703230  0.000000  0.710962 ->   0.2346687419
    7:   0.707107  0.707107  0.000000 /   0.705659  0.708551  0.000000 ->   0.2182883018

 K-point ( 0.406, 0.500, 0.500) | band =    98
 Transport equivalent effective mass tensor:
              0.1684467344             -0.0000002725             -0.0000004095
             -0.0000002725              0.2599957272             -0.0000000798
             -0.0000004095             -0.0000000798              0.1252416908
 Transport equivalent effective mass tensor eigenvalues:
              0.2599957272              0.1684467344              0.1252416908
 Angular average effective mass 1/(<1/m>)=   0.1519569567
 Angular average effective mass for Frohlich model (<m**0.5>)**2=   0.1554761184
 Effective masses along directions: (cart. coord. / red. coord. -> eff. mass)
    1:   1.000000  0.000000  0.000000 /   1.000000  0.000000  0.000000 ->   0.1606088645
    2:   0.000000  1.000000  0.000000 /   0.000000  1.000000  0.000000 ->   0.3015528307
    3:   0.000000  0.000000  1.000000 /   0.000000  0.000000  1.000000 ->   0.1717991362
    4:   0.577350  0.577350  0.577350 /   0.574454  0.576809  0.580770 ->   0.1389886229
    5:   0.000000  0.707107  0.707107 /   0.000000  0.704683  0.709522 ->   0.1403554626
    6:   0.707107  0.000000  0.707107 /   0.703230  0.000000  0.710962 ->   0.1284406772
    7:   0.707107  0.707107  0.000000 /   0.705659  0.708551  0.000000 ->   0.2015576674

 Angular average effective mass for Frohlich model, averaged over degenerate bands.
 Value of     (<<m**0.5>>)**2 =     2.189682E-01
 Absolute Value of <<m**0.5>> =     4.679404E-01

 END OF EFFECTIVE MASSES SECTION

 ---- first-order wavefunction calculations are completed ----

 Total localisation tensor (bohr^2) in cartesian coordinates
  WARNING : still subject to testing - especially symmetries.
      direction              matrix element
   alpha     beta       real part   imaginary part
     1        1       1.4379492473    0.0000000000
     1        2       0.0000000000    0.0000000000
     1        3       0.0000000000    0.0000000000
     2        1       0.0000000000    0.0000000000
     2        2       1.6234999906    0.0000000000
     2        3       0.0000000000    0.0000000000
     3        1       0.0000000000    0.0000000000
     3        2       0.0000000000    0.0000000000
     3        3       1.8077397795    0.0000000000

 respfn : d/dk was computed, but no 2DTE, so no DDB output.

== END DATASET(S) ==============================================================

 -outvars: echo values of variables after computation  --------
            acell      1.0000000000E+00  1.0000000000E+00  1.0000000000E+00 Bohr
              amu      7.26100000E+01  1.95080000E+02  7.89600000E+01
             ecut      4.30000000E+01 Hartree
           etotal     -1.2251039361E+02
            fcart      0.0000000000E+00  0.0000000000E+00  0.0000000000E+00
                       0.0000000000E+00  0.0000000000E+00  0.0000000000E+00
                       0.0000000000E+00  0.0000000000E+00  0.0000000000E+00
                       0.0000000000E+00  0.0000000000E+00  0.0000000000E+00
                       0.0000000000E+00  0.0000000000E+00  0.0000000000E+00
                       0.0000000000E+00  0.0000000000E+00  0.0000000000E+00
                       0.0000000000E+00  0.0000000000E+00  0.0000000000E+00
                       0.0000000000E+00  0.0000000000E+00  0.0000000000E+00
                       0.0000000000E+00  0.0000000000E+00  0.0000000000E+00
                       0.0000000000E+00  0.0000000000E+00  0.0000000000E+00
                       0.0000000000E+00  0.0000000000E+00  0.0000000000E+00
                       0.0000000000E+00  0.0000000000E+00  0.0000000000E+00
-          fftalg         512
           irdden           1
           irdwfk           1
              ixc     -116133
              kpt      0.00000000E+00  4.37500000E-01  5.00000000E-01
                       4.06250000E-01  5.00000000E-01  5.00000000E-01
           kptopt           0
P           mkmem           2
P          mkqmem           2
P          mk1mem           2
            natom          12
            nband         105
           nbdbuf           4
            ngfft          72      72      72
             nkpt           2
            nstep        2000
             nsym           4
           ntypat           3
              occ      2.000000  2.000000  2.000000  2.000000  2.000000  2.000000
                       2.000000  2.000000  2.000000  2.000000  2.000000  2.000000
                       2.000000  2.000000  2.000000  2.000000  2.000000  2.000000
                       2.000000  2.000000  2.000000  2.000000  2.000000  2.000000
                       2.000000  2.000000  2.000000  2.000000  2.000000  2.000000
                       2.000000  2.000000  2.000000  2.000000  2.000000  2.000000
                       2.000000  2.000000  2.000000  2.000000  2.000000  2.000000
                       2.000000  2.000000  2.000000  2.000000  2.000000  2.000000
                       2.000000  2.000000  2.000000  2.000000  2.000000  2.000000
                       2.000000  2.000000  2.000000  2.000000  2.000000  2.000000
                       2.000000  2.000000  2.000000  2.000000  2.000000  2.000000
                       2.000000  2.000000  2.000000  2.000000  2.000000  2.000000
                       2.000000  2.000000  2.000000  2.000000  2.000000  2.000000
                       2.000000  2.000000  2.000000  2.000000  2.000000  2.000000
                       2.000000  2.000000  2.000000  2.000000  2.000000  2.000000
                       2.000000  2.000000  2.000000  2.000000  2.000000  2.000000
                       0.000000  0.000000  0.000000  0.000000  0.000000  0.000000
                       0.000000  0.000000  0.000000
        optdriver           1
            prtwf          -1
            rfdir           1       1       1
           rfelfd           2
            rprim      1.1325460690E+01  0.0000000000E+00  0.0000000000E+00
                       0.0000000000E+00  1.1371878581E+01  0.0000000000E+00
                       0.0000000000E+00  0.0000000000E+00  1.1449975765E+01
          spgroup          29
           strten      0.0000000000E+00  0.0000000000E+00  0.0000000000E+00
                       0.0000000000E+00  0.0000000000E+00  0.0000000000E+00
           symrel      1  0  0   0  1  0   0  0  1       1  0  0   0 -1  0   0  0  1
                       1  0  0   0  1  0   0  0 -1       1  0  0   0 -1  0   0  0 -1
            tnons      0.0000000  0.0000000  0.0000000     0.5000000  0.5000000  0.0000000
                       0.0000000  0.5000000 -0.0000000     0.5000000  0.0000000 -0.0000000
           tolwfr      1.00000000E-20
            typat      1  1  1  1  2  2  2  2  3  3  3  3
           useylm           1
              wtk        0.50000    0.50000
           xangst      5.2747197672E+00  5.2963023280E+00  2.2763124086E+00
                       5.2747197672E+00  2.2874328462E+00  3.7827538050E+00
                       2.2781319303E+00  3.7303061175E+00  2.2763124086E+00
                       2.2781319303E+00  7.2143663566E-01  3.7827538050E+00
                       1.5839963306E-02  3.0536414597E+00  1.5569921858E+00
                       3.0124278002E+00  2.9640975040E+00  4.5020740277E+00
                       3.0124278002E+00  5.9729669858E+00  1.5569921858E+00
                       1.5839963306E-02  4.4771977890E-02  4.5020740277E+00
                       6.9122890952E-01  3.7135467145E+00  5.2351846851E+00
                       6.9122890952E-01  7.0467723265E-01  8.2388152839E-01
                       3.6878167464E+00  5.3130617311E+00  5.2351846851E+00
                       3.6878167464E+00  2.3041922492E+00  8.2388152839E-01
            xcart      9.9677757878E+00  1.0008560917E+01  4.3016070451E+00
                       9.9677757878E+00  4.3226216267E+00  7.1483687195E+00
                       4.3050454429E+00  7.0492569539E+00  4.3016070451E+00
                       4.3050454429E+00  1.3633176636E+00  7.1483687195E+00
                       2.9933192603E-02  5.7705460669E+00  2.9422888223E+00
                       5.6926635375E+00  5.6013325137E+00  8.5076869423E+00
                       5.6926635375E+00  1.1287271804E+01  2.9422888223E+00
                       2.9933192603E-02  8.4606776640E-02  8.5076869423E+00
                       1.3062333341E+00  7.0175862721E+00  9.8930653100E+00
                       1.3062333341E+00  1.3316469818E+00  1.5569104546E+00
                       6.9689636790E+00  1.0040231599E+01  9.8930653100E+00
                       6.9689636790E+00  4.3542923085E+00  1.5569104546E+00
             xred      8.8012100000E-01  8.8011500000E-01  3.7568700000E-01
                       8.8012100000E-01  3.8011500000E-01  6.2431300000E-01
                       3.8012100000E-01  6.1988500000E-01  3.7568700000E-01
                       3.8012100000E-01  1.1988500000E-01  6.2431300000E-01
                       2.6430000000E-03  5.0744000000E-01  2.5696900000E-01
                       5.0264300000E-01  4.9256000000E-01  7.4303100000E-01
                       5.0264300000E-01  9.9256000000E-01  2.5696900000E-01
                       2.6430000000E-03  7.4400000000E-03  7.4303100000E-01
                       1.1533600000E-01  6.1710000000E-01  8.6402500000E-01
                       1.1533600000E-01  1.1710000000E-01  1.3597500000E-01
                       6.1533600000E-01  8.8290000000E-01  8.6402500000E-01
                       6.1533600000E-01  3.8290000000E-01  1.3597500000E-01
            znucl       32.00000   78.00000   34.00000

- Timing analysis has been suppressed with timopt=0

 Suggested references for the acknowledgment of ABINIT usage.

 Calculation completed.
.Delivered   7 WARNINGs and   5 COMMENTs to log file.