.Version 9.5.1 of ABINIT

 ABINIT is a project of the Universite Catholique de Louvain,
 Corning Inc. and other collaborators, see ~abinit/doc/developers/contributors.txt .
 acknowledgments of the ABINIT effort.

.Starting date : Mon 26 Apr 2021.
- ( at 00h46 )

- input  file    -> /scratch/users/j/a/jabreu/flow_simple/flow/w94/t1/run.abi
- output file    -> /scratch/users/j/a/jabreu/flow_simple/flow/w94/t1/run.abo
- root for input  files -> /scratch/users/j/a/jabreu/flow_simple/flow/w94/t1/indata/in
- root for output files -> /scratch/users/j/a/jabreu/flow_simple/flow/w94/t1/outdata/out

 Symmetries : space group F-4 3 m (#216); Bravais cF (face-center cubic)
     intxc =       0      iscf =       7    lmnmax =      25     lnmax =       7
     mgfft =      50  mpssoang =       4    mqgrid =    3001     natom =       3
  nloc_mem =       1    nspden =       1   nspinor =       1    nsppol =       1
      nsym =      24    n1xccc =    2501    ntypat =       3    occopt =       1
   xclevel =       2
-    mband =          31        mffmem =           1         mkmem =           2
-   mkqmem =           2        mk1mem =           2           mpw =        5218
      nfft =      125000          nkpt =           2
  Rough estimation (10% accuracy) of disk space for files :

------------- Echo of variables that govern the present computation ------------
-
- outvars: echo of selected default values
-   iomode0 =  0 , fftalg0 =512 , wfoptalg0 =  0
-
- outvars: echo of global parameters not present in the input file
-  max_nthreads =    0
-
 -outvars: echo values of preprocessed input variables --------
            acell      1.0000000000E+00  1.0000000000E+00  1.0000000000E+00 Bohr
              amu      4.49559100E+01  1.18710000E+02  1.96966540E+02
             ecut      3.90000000E+01 Hartree
-          fftalg         512
           irdden           1
           irdwfk           1
           istwfk        1    1
              ixc     -116133
              kpt      0.00000000E+00  0.00000000E+00  0.00000000E+00
                       5.00000000E-01  0.00000000E+00  5.00000000E-01
           kptopt           0
P           mkmem           2
P          mkqmem           2
P          mk1mem           2
            natom           3
            nband          31
           nbdbuf           4
            ngfft          50      50      50
             nkpt           2
            nstep         100
             nsym          24
           ntypat           3
              occ      2.000000  2.000000  2.000000  2.000000  2.000000  2.000000
                       2.000000  2.000000  2.000000  2.000000  2.000000  2.000000
                       2.000000  2.000000  2.000000  2.000000  2.000000  2.000000
                       2.000000  2.000000  2.000000  2.000000  0.000000  0.000000
                       0.000000  0.000000  0.000000  0.000000  0.000000  0.000000
                       0.000000
        optdriver           1
            prtwf          -1
            rfdir           1       1       1
           rfelfd           2
            rprim      7.4319732994E+00  0.0000000000E+00  4.2908517850E+00
                       2.4773244331E+00  7.0069316235E+00  4.2908517850E+00
                       0.0000000000E+00  0.0000000000E+00  8.5817035701E+00
          spgroup         216
           symrel      1  0  0   0  1  0   0  0  1       0 -1  1   0 -1  0   1 -1  0
                      -1  0  0  -1  0  1  -1  1  0       0  1 -1   1  0 -1   0  0 -1
                      -1  0  0  -1  1  0  -1  0  1       0 -1  1   1 -1  0   0 -1  0
                       1  0  0   0  0  1   0  1  0       0  1 -1   0  0 -1   1  0 -1
                      -1  0  1  -1  1  0  -1  0  0       0 -1  0   1 -1  0   0 -1  1
                       1  0 -1   0  0 -1   0  1 -1       0  1  0   0  0  1   1  0  0
                       1  0 -1   0  1 -1   0  0 -1       0 -1  0   0 -1  1   1 -1  0
                      -1  0  1  -1  0  0  -1  1  0       0  1  0   1  0  0   0  0  1
                       0  0 -1   0  1 -1   1  0 -1       1 -1  0   0 -1  1   0 -1  0
                       0  0  1   1  0  0   0  1  0      -1  1  0  -1  0  0  -1  0  1
                       0  0  1   0  1  0   1  0  0       1 -1  0   0 -1  0   0 -1  1
                       0  0 -1   1  0 -1   0  1 -1      -1  1  0  -1  0  1  -1  0  0
           tolwfr      1.00000000E-20
            typat      1  2  3
           useylm           1
              wtk        0.50000    0.50000
           xangst      2.6218872566E+00  1.8539542587E+00  4.5412419401E+00
                       0.0000000000E+00  0.0000000000E+00  0.0000000000E+00
                       3.9328308849E+00  2.7809313880E+00  6.8118629102E+00
            xcart      4.9546488663E+00  3.5034658117E+00  8.5817035701E+00
                       0.0000000000E+00  0.0000000000E+00  0.0000000000E+00
                       7.4319732994E+00  5.2551987176E+00  1.2872555355E+01
             xred      5.0000000000E-01  5.0000000000E-01  5.0000000000E-01
                       0.0000000000E+00  0.0000000000E+00  0.0000000000E+00
                       7.5000000000E-01  7.5000000000E-01  7.5000000000E-01
            znucl       21.00000   50.00000   79.00000

 chkinp: Checking input parameters for consistency.

== DATASET  1 ==================================================================
-   mpi_nproc: 1, omp_nthreads: -1 (-1 if OMP is not activated)

--- !DatasetInfo
iteration_state: {dtset: 1, }
dimensions: {natom: 3, nkpt: 2, mband: 31, nsppol: 1, nspinor: 1, nspden: 1, mpw: 5218, }
cutoff_energies: {ecut:  39.0, pawecutdg:  -1.0, }
electrons: {nelect:   4.40000000E+01, charge:   0.00000000E+00, occopt:   1.00000000E+00, tsmear:   1.00000000E-02, }
meta: {optdriver: 1, rfelfd: 2, }
...

 Real(R)+Recip(G) space primitive vectors, cartesian coordinates (Bohr,Bohr^-1):
 R(1)=  7.4319733  0.0000000  4.2908518  G(1)=  0.1345538 -0.0475719  0.0000000
 R(2)=  2.4773244  7.0069316  4.2908518  G(2)=  0.0000000  0.1427158  0.0000000
 R(3)=  0.0000000  0.0000000  8.5817036  G(3)= -0.0672769 -0.0475719  0.1165270
 Unit cell volume ucvol=  4.4689503E+02 bohr^3
 Angles (23,13,12)=  6.00000000E+01  6.00000000E+01  6.00000000E+01 degrees

 getcut: wavevector=  0.0000  0.0000  0.0000  ngfft=  50  50  50
         ecut(hartree)=     39.000   => boxcut(ratio)=   2.07335

--- Pseudopotential description ------------------------------------------------
- pspini: atom type   1  psp file is /scratch/users/j/a/jabreu/pseudos/PBEsol/Sc.psp8
- pspatm: opening atomic psp file    /scratch/users/j/a/jabreu/pseudos/PBEsol/Sc.psp8
- Sc    ONCVPSP-3.3.0  r_core=   1.35663   1.35663   1.66161
- 21.00000  11.00000    180112                znucl, zion, pspdat
    8 -116133    2    4       600   0.00000   pspcod,pspxc,lmax,lloc,mmax,r2well
    5.99000000000000    5.00000000000000    0.00000000000000   rchrg,fchrg,qchrg
     nproj     2     2     2
     extension_switch     1
  pspatm : epsatm=   13.58981094
         --- l  ekb(1:nproj) -->
             0   10.810997    0.948773
             1    2.871172    0.364831
             2   -4.789751   -1.321945
 pspatm: atomic psp has been read  and splines computed

- pspini: atom type   2  psp file is /scratch/users/j/a/jabreu/pseudos/PBEsol/Sn.psp8
- pspatm: opening atomic psp file    /scratch/users/j/a/jabreu/pseudos/PBEsol/Sn.psp8
- Sn    ONCVPSP-3.3.0  r_core=   2.27326   2.62311   1.85601
- 50.00000  14.00000    180112                znucl, zion, pspdat
    8 -116133    2    4       600   0.00000   pspcod,pspxc,lmax,lloc,mmax,r2well
    5.99000000000000    6.50000000000000    0.00000000000000   rchrg,fchrg,qchrg
     nproj     2     2     2
     extension_switch     1
  pspatm : epsatm=   32.44586081
         --- l  ekb(1:nproj) -->
             0    5.587869    0.749373
             1    4.197111    0.728791
             2   -5.271877   -1.523486
 pspatm: atomic psp has been read  and splines computed

- pspini: atom type   3  psp file is /scratch/users/j/a/jabreu/pseudos/PBEsol/Au.psp8
- pspatm: opening atomic psp file    /scratch/users/j/a/jabreu/pseudos/PBEsol/Au.psp8
- Au    ONCVPSP-3.3.0  r_core=   1.45604   1.56407   1.56407   1.60183
- 79.00000  19.00000    180112                znucl, zion, pspdat
    8 -116133    3    4       500   0.00000   pspcod,pspxc,lmax,lloc,mmax,r2well
    4.99000000000000    5.00000000000000    0.00000000000000   rchrg,fchrg,qchrg
     nproj     2     2     2     1
     extension_switch     1
  pspatm : epsatm=   32.21965837
         --- l  ekb(1:nproj) -->
             0    9.413866   -0.196587
             1    2.474292   -1.517497
             2    1.503483    0.298081
             3    1.177996
 pspatm: atomic psp has been read  and splines computed

   3.44323452E+03                                ecore*ucvol(ha*bohr**3)

-inwffil : will read wavefunctions from disk file /scratch/users/j/a/jabreu/flow_simple/flow/w94/t1/indata/in_WFK

 ==>  initialize data related to q vector <==

 The list of irreducible perturbations for this q vector is:
    1)    idir= 1    ipert=   4
    2)    idir= 2    ipert=   4
    3)    idir= 3    ipert=   4

 Perturbation wavevector (in red.coord.)   0.000000  0.000000  0.000000
 Perturbation : derivative vs k along direction   1

 dfpt_looppert : COMMENT -
  In a d/dk calculation, iscf is set to -3 automatically.
 The set of symmetries contains only one element for this perturbation.
 symkpt : not enough symmetry to change the number of k points.

[...]

 Initialisation of the first-order wave-functions :
  ireadwf=   0

--- !BeginCycle
iteration_state: {dtset: 1, }
solver: {iscf: 7, nstep: 100, nline: 4, wfoptalg: 0, }
tolerances: {tolwfr: 1.00E-20, }
...

     iter   2DEtotal(Ha)        deltaE(Ha) residm    vres2
-ETOT  1  -58.727564756172     -5.873E+01 5.241E-02 0.000E+00
 ETOT  2  -58.765805356910     -3.824E-02 7.191E-03 0.000E+00
 ETOT  3  -58.766022970079     -2.176E-04 1.613E-04 0.000E+00
 ETOT  4  -58.766027725737     -4.756E-06 2.750E-05 0.000E+00
 ETOT  5  -58.766027885417     -1.597E-07 8.185E-07 0.000E+00
 ETOT  6  -58.766027891955     -6.538E-09 1.533E-07 0.000E+00
 ETOT  7  -58.766027892247     -2.920E-10 5.052E-09 0.000E+00
 ETOT  8  -58.766027892260     -1.361E-11 9.363E-10 0.000E+00
 ETOT  9  -58.766027892261     -6.111E-13 3.186E-11 0.000E+00
 ETOT 10  -58.766027892261     -1.350E-13 5.904E-12 0.000E+00
 ETOT 11  -58.766027892261      7.105E-15 2.029E-13 0.000E+00
 ETOT 12  -58.766027892261      2.132E-14 3.779E-14 0.000E+00
 ETOT 13  -58.766027892261     -4.263E-14 1.301E-15 0.000E+00
 ETOT 14  -58.766027892261      3.553E-14 2.438E-16 0.000E+00
 ETOT 15  -58.766027892261      2.132E-14 8.390E-18 0.000E+00
 ETOT 16  -58.766027892261      0.000E+00 1.581E-18 0.000E+00
 ETOT 17  -58.766027892261     -7.105E-15 7.273E-20 0.000E+00
 ETOT 18  -58.766027892261      7.105E-15 1.082E-20 0.000E+00
 ETOT 19  -58.766027892261     -7.105E-15 9.533E-21 0.000E+00

 At SCF step   19   max residual=  9.53E-21 < tolwfr=  1.00E-20 =>converged.

 ----iterations are completed or convergence reached----

 dfpt_looppert: DFPT cycle converged with prtwf=-1. Will skip output of the 1st-order WFK file.
 dfpt_looppert : ek2=    7.0759808662E+01
          f-sum rule ratio=    1.2173401612E+00
 prteigrs : about to open file /scratch/users/j/a/jabreu/flow_simple/flow/w94/t1/tmpdata/tmp_1WF1_EIG
 Expectation of eigenvalue derivatives (hartree) for nkpt=   2  k points:
  (in case of degenerate eigenvalues, averaged derivative)
 kpt#   1, nband= 31, wtk=  0.50000, kpt=  0.0000  0.0000  0.0000 (reduced coord)
   0.00000    0.00000    0.00000    0.00000   -0.00000    0.00000    0.00000    0.00000
   0.00000    0.00000    0.00000    0.00000    0.00000    0.00000    0.00000    0.00000
   0.00000   -0.00000   -0.00000   -0.00000   -0.00000   -0.00000   -0.00000   -0.00000
  -0.00000    0.00000    0.00000    0.00000    0.00000    0.00000    0.00000
 prteigrs : prtvol=0 or 1, do not print more k-points.

 Eight components of 2nd-order total energy (hartree) are
 1,2,3: 0th-order hamiltonian combined with 1st-order wavefunctions
     kin0=   5.64741771E+01 eigvalue=   2.35314660E+00  local=  -2.69500258E+01
 4,5,6: 1st-order hamiltonian combined with 1st and 0th-order wfs
     kin1=  -8.61387569E+01  Hartree=   0.00000000E+00     xc=   0.00000000E+00
 7,8,9: eventually, occupation + non-local contributions
    edocc=   2.16794624E+01     enl0=   5.20926757E+00   enl1=  -3.13932989E+01
 1-9 gives the relaxation energy (to be shifted if some occ is /=2.0)
   erelax=  -5.87660279E+01
  No Ewald or frozen-wf contrib.: the relaxation energy is the total one
 2DEtotal=   -0.5876602789E+02 Ha. Also 2DEtotal=   -0.159910494290E+04 eV
    (  non-var. 2DEtotal :   -5.8766027892E+01 Ha)

 Perturbation wavevector (in red.coord.)   0.000000  0.000000  0.000000
 Perturbation : derivative vs k along direction   2
 The set of symmetries contains only one element for this perturbation.
 symkpt : not enough symmetry to change the number of k points.

[...]

 Perturbation wavevector (in red.coord.)   0.000000  0.000000  0.000000
 Perturbation : derivative vs k along direction   3
 The set of symmetries contains only one element for this perturbation.
 symkpt : not enough symmetry to change the number of k points.

-inwffil : will read wavefunctions from disk file /scratch/users/j/a/jabreu/flow_simple/flow/w94/t1/indata/in_WFK

 Initialisation of the first-order wave-functions :
  ireadwf=   0

--- !BeginCycle
iteration_state: {dtset: 1, }
solver: {iscf: 7, nstep: 100, nline: 4, wfoptalg: 0, }
tolerances: {tolwfr: 1.00E-20, }
...

     iter   2DEtotal(Ha)        deltaE(Ha) residm    vres2
-ETOT  1  -58.729321894628     -5.873E+01 3.330E-01 0.000E+00
 ETOT  2  -58.765756572814     -3.643E-02 6.657E-03 0.000E+00
 ETOT  3  -58.765986672750     -2.301E-04 1.088E-03 0.000E+00
 ETOT  4  -58.765991896770     -5.224E-06 2.280E-05 0.000E+00
 ETOT  5  -58.765992100282     -2.035E-07 5.178E-06 0.000E+00
 ETOT  6  -58.765992109778     -9.497E-09 1.014E-07 0.000E+00
 ETOT  7  -58.765992110285     -5.066E-10 2.494E-08 0.000E+00
 ETOT  8  -58.765992110313     -2.783E-11 4.943E-10 0.000E+00
 ETOT  9  -58.765992110314     -1.542E-12 1.236E-10 0.000E+00
 ETOT 10  -58.765992110314     -9.237E-14 2.496E-12 0.000E+00
 ETOT 11  -58.765992110314      7.105E-15 6.187E-13 0.000E+00
 ETOT 12  -58.765992110314      1.421E-14 1.281E-14 0.000E+00
 ETOT 13  -58.765992110314     -2.132E-14 3.118E-15 0.000E+00
 ETOT 14  -58.765992110314      7.105E-15 7.148E-17 0.000E+00
 ETOT 15  -58.765992110314      1.421E-14 1.582E-17 0.000E+00
 ETOT 16  -58.765992110314     -1.421E-14 8.334E-19 0.000E+00
 ETOT 17  -58.765992110314      7.105E-15 8.069E-20 0.000E+00
 ETOT 18  -58.765992110314      7.105E-15 9.944E-21 0.000E+00

 At SCF step   18   max residual=  9.94E-21 < tolwfr=  1.00E-20 =>converged.

 ----iterations are completed or convergence reached----

 dfpt_looppert: DFPT cycle converged with prtwf=-1. Will skip output of the 1st-order WFK file.
 dfpt_looppert : ek2=    7.0759808661E+01
          f-sum rule ratio=    1.2173394818E+00
 prteigrs : about to open file /scratch/users/j/a/jabreu/flow_simple/flow/w94/t1/tmpdata/tmp_1WF1_EIG
 Expectation of eigenvalue derivatives (hartree) for nkpt=   2  k points:
  (in case of degenerate eigenvalues, averaged derivative)
 kpt#   1, nband= 31, wtk=  0.50000, kpt=  0.0000  0.0000  0.0000 (reduced coord)
   0.00000   -0.00000   -0.00000   -0.00000   -0.00000   -0.00000   -0.00000   -0.00000
  -0.00000   -0.00000    0.00000    0.00000    0.00000    0.00000    0.00000    0.00000
   0.00000   -0.00000   -0.00000    0.00000    0.00000    0.00000    0.00000    0.00000
   0.00000    0.00000    0.00000    0.00000   -0.00000   -0.00000   -0.00000
 prteigrs : prtvol=0 or 1, do not print more k-points.

 Eight components of 2nd-order total energy (hartree) are
 1,2,3: 0th-order hamiltonian combined with 1st-order wavefunctions
     kin0=   5.64200190E+01 eigvalue=   2.41518825E+00  local=  -2.69010755E+01
 4,5,6: 1st-order hamiltonian combined with 1st and 0th-order wfs
     kin1=  -8.61387088E+01  Hartree=   0.00000000E+00     xc=   0.00000000E+00
 7,8,9: eventually, occupation + non-local contributions
    edocc=   2.15884004E+01     enl0=   5.24346003E+00   enl1=  -3.13932754E+01
 1-9 gives the relaxation energy (to be shifted if some occ is /=2.0)
   erelax=  -5.87659921E+01
  No Ewald or frozen-wf contrib.: the relaxation energy is the total one
 2DEtotal=   -0.5876599211E+02 Ha. Also 2DEtotal=   -0.159910396923E+04 eV
    (  non-var. 2DEtotal :   -5.8765992110E+01 Ha)

 CALCULATION OF EFFECTIVE MASSES
 NOTE : Additional infos (eff. mass eigenvalues, eigenvectors and, if degenerate, average mass) are available in stdout.

 COMMENTS:
 - At k-point ( 0.000, 0.000, 0.000), bands    20 through    22
   are DEGENERATE (effective mass tensor is therefore not defined).
   See Section IIIB Eqs. (67)-(70) and Appendix E of PRB 93 205147 (2016).
 - Angular average effective mass for Frohlich model is to be averaged over degenerate bands. See later.
 - Associated theta integrals calculated with ntheta=   1000 points.

 K-point ( 0.000, 0.000, 0.000) | band =    20
 Transport equivalent effective mass tensor:
             -0.1635370739             -0.0000000000             -0.0000000000
             -0.0000000000             -0.1635370739              0.0000000000
             -0.0000000000              0.0000000000             -0.1635370739
 Transport equivalent effective mass tensor eigenvalues:
             -0.1635370739             -0.1635370739             -0.1635370739
 Angular average effective mass 1/(<1/m>)=  -0.1492138240
 Angular average effective mass for Frohlich model (<m**0.5>)**2=  -0.1501247739
 Effective masses along directions: (cart. coord. / red. coord. -> eff. mass)
    1:   1.000000  0.000000  0.000000 /   0.948683  0.316228  0.000000 ->  -0.1412927255
    2:   0.000000  1.000000  0.000000 /   0.000000  1.000000  0.000000 ->  -0.1323049591
    3:   0.000000  0.000000  1.000000 /   0.408248  0.408248  0.816497 ->  -0.1435037784
    4:   0.577350  0.577350  0.577350 /   0.585539  0.688047  0.428644 ->  -0.1412901998
    5:   0.000000  0.707107  0.707107 /   0.289489  0.762222  0.578977 ->  -0.1567745243
    6:   0.707107  0.000000  0.707107 /   0.731423  0.422287  0.535439 ->  -0.1423695323
    7:   0.707107  0.707107  0.000000 /   0.616798  0.787122  0.000000 ->  -0.1824177979

[...]

 K-point ( 0.000, 0.000, 0.000) | band =    22
 Transport equivalent effective mass tensor:
            -58.3105913172              0.0000447614              0.0000000957
              0.0000447614            -58.3105736438              0.0000000735
              0.0000000957              0.0000000735            -58.3105024717
 Transport equivalent effective mass tensor eigenvalues:
            -58.3106281058            -58.3105368556            -58.3105024713
 Angular average effective mass 1/(<1/m>)=  -1.5197304342
 Angular average effective mass for Frohlich model (<m**0.5>)**2=  -2.1133991833
 Effective masses along directions: (cart. coord. / red. coord. -> eff. mass)
    1:   1.000000  0.000000  0.000000 /   0.948683  0.316228  0.000000 ->  -1.7018597354
    2:   0.000000  1.000000  0.000000 /   0.000000  1.000000  0.000000 ->  -1.4354615372
    3:   0.000000  0.000000  1.000000 /   0.408248  0.408248  0.816497 ->  -9.3631189002
    4:   0.577350  0.577350  0.577350 /   0.585539  0.688047  0.428644 ->  -2.1666130950
    5:   0.000000  0.707107  0.707107 /   0.289489  0.762222  0.578977 ->  -1.3419328603
    6:   0.707107  0.000000  0.707107 /   0.731423  0.422287  0.535439 ->  -3.4016244699
    7:   0.707107  0.707107  0.000000 /   0.616798  0.787122  0.000000 ->  -0.6082952553

 Angular average effective mass for Frohlich model, averaged over degenerate bands.
 Value of     (<<m**0.5>>)**2 =     7.778512E-01
 Absolute Value of <<m**0.5>> =     8.819587E-01

 K-point ( 0.500, 0.000, 0.500) | band =    23
 Effective mass tensor:
              0.7628215430             -0.5827933848              0.7137732177
             -0.5827933848              1.1749186542             -1.0094277304
              0.7137732177             -1.0094277304              1.5870158154
 Effective mass tensor eigenvalues:
              0.3507243692              0.3507243742              2.8233072692
 Angular average effective mass 1/(<1/m>)=   0.4953210163
 Angular average effective mass for Frohlich model (<m**0.5>)**2=   0.5869170239
 Effective masses along directions: (cart. coord. / red. coord. -> eff. mass)
    1:   1.000000  0.000000  0.000000 /   0.948683  0.316228  0.000000 ->   0.4106662763
    2:   0.000000  1.000000  0.000000 /   0.000000  1.000000  0.000000 ->   0.4953210118
    3:   0.000000  0.000000  1.000000 /   0.408248  0.408248  0.816497 ->   0.6239400053
    4:   0.577350  0.577350  0.577350 /   0.585539  0.688047  0.428644 ->   0.3830949311
    5:   0.000000  0.707107  0.707107 /   0.289489  0.762222  0.578977 ->   0.3533293280
    6:   0.707107  0.000000  0.707107 /   0.731423  0.422287  0.535439 ->   0.7703820536
    7:   0.707107  0.707107  0.000000 /   0.616798  0.787122  0.000000 ->   0.3551716938

 END OF EFFECTIVE MASSES SECTION

 ---- first-order wavefunction calculations are completed ----

 Total localisation tensor (bohr^2) in cartesian coordinates
  WARNING : still subject to testing - especially symmetries.
      direction              matrix element
   alpha     beta       real part   imaginary part
     1        1       3.2944881907    0.0000000000
     1        2       0.9318215487    0.0000000000
     1        3       2.2824881980    0.0000000000
     2        1       0.9318215487    0.0000000000
     2        2       2.6355893439    0.0000000000
     2        3       1.6139622660    0.0000000000
     3        1       2.2824881980    0.0000000000
     3        2       1.6139622660    0.0000000000
     3        3       5.9300768899    0.0000000000

 respfn : d/dk was computed, but no 2DTE, so no DDB output.

== END DATASET(S) ==============================================================

 -outvars: echo values of variables after computation  --------
            acell      1.0000000000E+00  1.0000000000E+00  1.0000000000E+00 Bohr
              amu      4.49559100E+01  1.18710000E+02  1.96966540E+02
             ecut      3.90000000E+01 Hartree
           etotal     -5.8765992110E+01
            fcart      0.0000000000E+00  0.0000000000E+00  0.0000000000E+00
                       0.0000000000E+00  0.0000000000E+00  0.0000000000E+00
                       0.0000000000E+00  0.0000000000E+00  0.0000000000E+00
-          fftalg         512
           irdden           1
           irdwfk           1
           istwfk        1    1
              ixc     -116133
              kpt      0.00000000E+00  0.00000000E+00  0.00000000E+00
                       5.00000000E-01  0.00000000E+00  5.00000000E-01
           kptopt           0
P           mkmem           2
P          mkqmem           2
P          mk1mem           2
            natom           3
            nband          31
           nbdbuf           4
            ngfft          50      50      50
             nkpt           2
            nstep         100
             nsym          24
           ntypat           3
              occ      2.000000  2.000000  2.000000  2.000000  2.000000  2.000000
                       2.000000  2.000000  2.000000  2.000000  2.000000  2.000000
                       2.000000  2.000000  2.000000  2.000000  2.000000  2.000000
                       2.000000  2.000000  2.000000  2.000000  0.000000  0.000000
                       0.000000  0.000000  0.000000  0.000000  0.000000  0.000000
                       0.000000
        optdriver           1
            prtwf          -1
            rfdir           1       1       1
           rfelfd           2
            rprim      7.4319732994E+00  0.0000000000E+00  4.2908517850E+00
                       2.4773244331E+00  7.0069316235E+00  4.2908517850E+00
                       0.0000000000E+00  0.0000000000E+00  8.5817035701E+00
          spgroup         216
           strten      0.0000000000E+00  0.0000000000E+00  0.0000000000E+00
                       0.0000000000E+00  0.0000000000E+00  0.0000000000E+00
           symrel      1  0  0   0  1  0   0  0  1       0 -1  1   0 -1  0   1 -1  0
                      -1  0  0  -1  0  1  -1  1  0       0  1 -1   1  0 -1   0  0 -1
                      -1  0  0  -1  1  0  -1  0  1       0 -1  1   1 -1  0   0 -1  0
                       1  0  0   0  0  1   0  1  0       0  1 -1   0  0 -1   1  0 -1
                      -1  0  1  -1  1  0  -1  0  0       0 -1  0   1 -1  0   0 -1  1
                       1  0 -1   0  0 -1   0  1 -1       0  1  0   0  0  1   1  0  0
                       1  0 -1   0  1 -1   0  0 -1       0 -1  0   0 -1  1   1 -1  0
                      -1  0  1  -1  0  0  -1  1  0       0  1  0   1  0  0   0  0  1
                       0  0 -1   0  1 -1   1  0 -1       1 -1  0   0 -1  1   0 -1  0
                       0  0  1   1  0  0   0  1  0      -1  1  0  -1  0  0  -1  0  1
                       0  0  1   0  1  0   1  0  0       1 -1  0   0 -1  0   0 -1  1
                       0  0 -1   1  0 -1   0  1 -1      -1  1  0  -1  0  1  -1  0  0
           tolwfr      1.00000000E-20
            typat      1  2  3
           useylm           1
              wtk        0.50000    0.50000
           xangst      2.6218872566E+00  1.8539542587E+00  4.5412419401E+00
                       0.0000000000E+00  0.0000000000E+00  0.0000000000E+00
                       3.9328308849E+00  2.7809313880E+00  6.8118629102E+00
            xcart      4.9546488663E+00  3.5034658117E+00  8.5817035701E+00
                       0.0000000000E+00  0.0000000000E+00  0.0000000000E+00
                       7.4319732994E+00  5.2551987176E+00  1.2872555355E+01
             xred      5.0000000000E-01  5.0000000000E-01  5.0000000000E-01
                       0.0000000000E+00  0.0000000000E+00  0.0000000000E+00
                       7.5000000000E-01  7.5000000000E-01  7.5000000000E-01
            znucl       21.00000   50.00000   79.00000

- Timing analysis has been suppressed with timopt=0

 Suggested references for the acknowledgment of ABINIT usage.

 Calculation completed.
.Delivered  14 WARNINGs and   9 COMMENTs to log file.