.Version 9.5.1 of ABINIT

 ABINIT is a project of the Universite Catholique de Louvain,
 Corning Inc. and other collaborators, see ~abinit/doc/developers/contributors.txt .
 acknowledgments of the ABINIT effort.

.Starting date : Tue  4 May 2021.
- ( at 19h31 )

- input  file    -> /scratch/users/j/a/jabreu/flow_simple_6atoms/flow/w205/t1/run.abi
- output file    -> /scratch/users/j/a/jabreu/flow_simple_6atoms/flow/w205/t1/run.abo
- root for input  files -> /scratch/users/j/a/jabreu/flow_simple_6atoms/flow/w205/t1/indata/in
- root for output files -> /scratch/users/j/a/jabreu/flow_simple_6atoms/flow/w205/t1/outdata/out

 Symmetries : space group P4/n m m (#129); Bravais tP (primitive tetrag.)
     intxc =       0      iscf =       7    lmnmax =      18     lnmax =       6
     mgfft =      80  mpssoang =       3    mqgrid =    3714     natom =       6
  nloc_mem =       1    nspden =       1   nspinor =       1    nsppol =       1
      nsym =      16    n1xccc =    2501    ntypat =       3    occopt =       1
   xclevel =       2
-    mband =          33        mffmem =           1         mkmem =           1
-   mkqmem =           1        mk1mem =           1           mpw =        9265
      nfft =      162000          nkpt =           1
  Rough estimation (10% accuracy) of disk space for files :

------------- Echo of variables that govern the present computation ------------
-
- outvars: echo of selected default values
-   iomode0 =  0 , fftalg0 =512 , wfoptalg0 =  0
-
- outvars: echo of global parameters not present in the input file
-  max_nthreads =    0
-
 -outvars: echo values of preprocessed input variables --------
            acell      1.0000000000E+00  1.0000000000E+00  1.0000000000E+00 Bohr
              amu      8.89058500E+01  3.54527000E+01  1.59994000E+01
             ecut      4.40000000E+01 Hartree
-          fftalg         512
           irdden           1
           irdwfk           1
           istwfk        1
              ixc     -116133
           kptopt           0
P           mkmem           1
P          mkqmem           1
P          mk1mem           1
            natom           6
            nband          33
           nbdbuf           4
            ngfft          45      45      80
             nkpt           1
            nstep        1000
             nsym          16
           ntypat           3
              occ      2.000000  2.000000  2.000000  2.000000  2.000000  2.000000
                       2.000000  2.000000  2.000000  2.000000  2.000000  2.000000
                       2.000000  2.000000  2.000000  2.000000  2.000000  2.000000
                       2.000000  2.000000  2.000000  2.000000  2.000000  2.000000
                       0.000000  0.000000  0.000000  0.000000  0.000000  0.000000
                       0.000000  0.000000  0.000000
        optdriver           1
            prtwf          -1
            rfdir           1       1       1
           rfelfd           2
            rprim      7.2965765351E+00  0.0000000000E+00  0.0000000000E+00
                       0.0000000000E+00  7.2965765351E+00  0.0000000000E+00
                       0.0000000000E+00  0.0000000000E+00  1.2436697130E+01
          spgroup         129
           symrel      1  0  0   0  1  0   0  0  1      -1  0  0   0 -1  0   0  0 -1
                      -1  0  0   0  1  0   0  0 -1       1  0  0   0 -1  0   0  0  1
                      -1  0  0   0 -1  0   0  0  1       1  0  0   0  1  0   0  0 -1
                       1  0  0   0 -1  0   0  0 -1      -1  0  0   0  1  0   0  0  1
                       0  1  0   1  0  0   0  0  1       0 -1  0  -1  0  0   0  0 -1
                       0 -1  0   1  0  0   0  0 -1       0  1  0  -1  0  0   0  0  1
                       0 -1  0  -1  0  0   0  0  1       0  1  0   1  0  0   0  0 -1
                       0  1  0  -1  0  0   0  0 -1       0 -1  0   1  0  0   0  0  1
            tnons      0.0000000  0.0000000  0.0000000     0.5000000  0.5000000  0.0000000
                       0.5000000  0.5000000  0.0000000     0.0000000 -0.0000000  0.0000000
                       0.0000000 -0.0000000  0.0000000     0.5000000  0.5000000  0.0000000
                       0.5000000  0.5000000  0.0000000     0.0000000  0.0000000  0.0000000
                       0.5000000  0.5000000  0.0000000    -0.0000000  0.0000000  0.0000000
                       0.0000000  0.0000000  0.0000000     0.5000000  0.5000000  0.0000000
                       0.5000000  0.5000000  0.0000000     0.0000000  0.0000000  0.0000000
                      -0.0000000  0.0000000  0.0000000     0.5000000  0.5000000  0.0000000
           tolwfr      1.00000000E-20
            typat      1  1  2  2  3  3
           useylm           1
           xangst      0.0000000000E+00  1.9305910016E+00  1.1094615064E+00
                       1.9305910016E+00  0.0000000000E+00  5.4717551648E+00
                       0.0000000000E+00  1.9305910016E+00  4.1278904642E+00
                       1.9305910016E+00  0.0000000000E+00  2.4533262070E+00
                       1.9305910016E+00  1.9305910016E+00  0.0000000000E+00
                       0.0000000000E+00  0.0000000000E+00  0.0000000000E+00
            xcart      0.0000000000E+00  3.6482882675E+00  2.0965784021E+00
                       3.6482882675E+00  0.0000000000E+00  1.0340118728E+01
                       0.0000000000E+00  3.6482882675E+00  7.8005824838E+00
                       3.6482882675E+00  0.0000000000E+00  4.6361146460E+00
                       3.6482882675E+00  3.6482882675E+00  0.0000000000E+00
                       0.0000000000E+00  0.0000000000E+00  0.0000000000E+00
             xred      0.0000000000E+00  5.0000000000E-01  1.6858000000E-01
                       5.0000000000E-01  0.0000000000E+00  8.3142000000E-01
                       0.0000000000E+00  5.0000000000E-01  6.2722300000E-01
                       5.0000000000E-01  0.0000000000E+00  3.7277700000E-01
                       5.0000000000E-01  5.0000000000E-01  0.0000000000E+00
                       0.0000000000E+00  0.0000000000E+00  0.0000000000E+00
            znucl       39.00000   17.00000    8.00000

 chkinp: Checking input parameters for consistency.

== DATASET  1 ==================================================================
-   mpi_nproc: 1, omp_nthreads: -1 (-1 if OMP is not activated)

--- !DatasetInfo
iteration_state: {dtset: 1, }
dimensions: {natom: 6, nkpt: 1, mband: 33, nsppol: 1, nspinor: 1, nspden: 1, mpw: 9265, }
cutoff_energies: {ecut:  44.0, pawecutdg:  -1.0, }
electrons: {nelect:   4.80000000E+01, charge:   0.00000000E+00, occopt:   1.00000000E+00, tsmear:   1.00000000E-02, }
meta: {optdriver: 1, rfelfd: 2, }
...

 Real(R)+Recip(G) space primitive vectors, cartesian coordinates (Bohr,Bohr^-1):
 R(1)=  7.2965765  0.0000000  0.0000000  G(1)=  0.1370506  0.0000000  0.0000000
 R(2)=  0.0000000  7.2965765  0.0000000  G(2)=  0.0000000  0.1370506  0.0000000
 R(3)=  0.0000000  0.0000000 12.4366971  G(3)=  0.0000000  0.0000000  0.0804072
 Unit cell volume ucvol=  6.6213012E+02 bohr^3
 Angles (23,13,12)=  9.00000000E+01  9.00000000E+01  9.00000000E+01 degrees

 getcut: wavevector=  0.0000  0.0000  0.0000  ngfft=  45  45  80
         ecut(hartree)=     44.000   => boxcut(ratio)=   2.01949

--- Pseudopotential description ------------------------------------------------
- pspini: atom type   1  psp file is /scratch/users/j/a/jabreu/pseudos/PBEsol/Y.psp8
- pspatm: opening atomic psp file    /scratch/users/j/a/jabreu/pseudos/PBEsol/Y.psp8
- Y     ONCVPSP-3.3.0  r_core=   1.60520   1.51226   1.56736
- 39.00000  11.00000    180112                znucl, zion, pspdat
    8 -116133    2    4       600   0.00000   pspcod,pspxc,lmax,lloc,mmax,r2well
    5.99000000000000    4.00000000000000    0.00000000000000   rchrg,fchrg,qchrg
     nproj     2     2     2
     extension_switch     1
  pspatm : epsatm=   18.54790046
         --- l  ekb(1:nproj) -->
             0   10.130768    0.866504
             1    5.598307    0.427135
             2    1.217602    0.315447
 pspatm: atomic psp has been read  and splines computed

- pspini: atom type   2  psp file is /scratch/users/j/a/jabreu/pseudos/PBEsol/Cl.psp8
- pspatm: opening atomic psp file    /scratch/users/j/a/jabreu/pseudos/PBEsol/Cl.psp8
- Cl    ONCVPSP-3.3.0  r_core=   1.56009   1.35202   1.75774
- 17.00000   7.00000    180112                znucl, zion, pspdat
    8 -116133    2    4       600   0.00000   pspcod,pspxc,lmax,lloc,mmax,r2well
    5.99000000000000    8.00000000000000    0.00000000000000   rchrg,fchrg,qchrg
     nproj     2     2     2
     extension_switch     1
  pspatm : epsatm=    8.95520722
         --- l  ekb(1:nproj) -->
             0    8.193503    0.707970
             1    3.869736    1.114731
             2   -2.915303   -0.810552
 pspatm: atomic psp has been read  and splines computed

- pspini: atom type   3  psp file is /scratch/users/j/a/jabreu/pseudos/PBEsol/O.psp8
- pspatm: opening atomic psp file    /scratch/users/j/a/jabreu/pseudos/PBEsol/O.psp8
- O     ONCVPSP-3.3.0  r_core=   1.35509   1.45563   1.26150
-  8.00000   6.00000    180112                znucl, zion, pspdat
    8 -116133    2    4       600   0.00000   pspcod,pspxc,lmax,lloc,mmax,r2well
    5.99000000000000    4.00000000000000    0.00000000000000   rchrg,fchrg,qchrg
     nproj     2     2     1
     extension_switch     1
  pspatm : epsatm=    6.22910522
         --- l  ekb(1:nproj) -->
             0    6.050032    0.820363
             1   -4.739617   -1.153841
             2   -1.335834
 pspatm: atomic psp has been read  and splines computed

   3.23829244E+03                                ecore*ucvol(ha*bohr**3)

-inwffil : will read wavefunctions from disk file /scratch/users/j/a/jabreu/flow_simple_6atoms/flow/w205/t1/indata/in_WFK

 ==>  initialize data related to q vector <==

 The list of irreducible perturbations for this q vector is:
    1)    idir= 1    ipert=   7
    2)    idir= 2    ipert=   7
    3)    idir= 3    ipert=   7

 Perturbation wavevector (in red.coord.)   0.000000  0.000000  0.000000
 Perturbation : derivative vs k along direction   1

 dfpt_looppert : COMMENT -
  In a d/dk calculation, iscf is set to -3 automatically.
 The set of symmetries contains only one element for this perturbation.
 symkpt : not enough symmetry to change the number of k points.

[...]

 Initialisation of the first-order wave-functions :
  ireadwf=   0

--- !BeginCycle
iteration_state: {dtset: 1, }
solver: {iscf: 7, nstep: 1000, nline: 4, wfoptalg: 0, }
tolerances: {tolwfr: 1.00E-20, }
...

     iter   2DEtotal(Ha)        deltaE(Ha) residm    vres2
-ETOT  1  -37.856879255011     -3.786E+01 4.102E-02 0.000E+00
 ETOT  2  -37.879502819468     -2.262E-02 2.221E-04 0.000E+00
 ETOT  3  -37.879547787622     -4.497E-05 2.382E-06 0.000E+00
 ETOT  4  -37.879547936631     -1.490E-07 8.522E-08 0.000E+00
 ETOT  5  -37.879547937219     -5.877E-10 6.912E-09 0.000E+00
 ETOT  6  -37.879547937222     -2.743E-12 3.525E-10 0.000E+00
 ETOT  7  -37.879547937222      7.105E-15 2.305E-11 0.000E+00
 ETOT  8  -37.879547937222     -7.105E-15 1.408E-12 0.000E+00
[...]
 ETOT 13  -37.879547937222     -7.105E-15 3.651E-18 0.000E+00
 ETOT 14  -37.879547937222      2.842E-14 2.664E-19 0.000E+00
 ETOT 15  -37.879547937222      0.000E+00 2.161E-20 0.000E+00
 ETOT 16  -37.879547937222      0.000E+00 9.417E-21 0.000E+00

 At SCF step   16   max residual=  9.42E-21 < tolwfr=  1.00E-20 =>converged.

 ----iterations are completed or convergence reached----

 dfpt_looppert: DFPT cycle converged with prtwf=-1. Will skip output of the 1st-order WFK file.
 dfpt_looppert : ek2=    7.1185687757E+01
          f-sum rule ratio=    1.0952712375E+00
 prteigrs : about to open file /scratch/users/j/a/jabreu/flow_simple_6atoms/flow/w205/t1/tmpdata/tmp_1WF1_EIG
 Expectation of eigenvalue derivatives (hartree) for nkpt=   1  k points:
  (in case of degenerate eigenvalues, averaged derivative)
 kpt#   1, nband= 33, wtk=  1.00000, kpt=  0.0000  0.0000  0.0000 (reduced coord)
  -0.00000   -0.00000   -0.00000   -0.00000   -0.00000    0.00000    0.00000    0.00000
   0.00000   -0.00000    0.00000    0.00000    0.00000   -0.00000   -0.00000    0.00000
   0.00000    0.00000    0.00000    0.00000    0.00000   -0.00000    0.00000    0.00000
   0.00000   -0.00000   -0.00000    0.00000   -0.00000    0.00000    0.00000    0.00000
   0.00000

 Eight components of 2nd-order total energy (hartree) are
 1,2,3: 0th-order hamiltonian combined with 1st-order wavefunctions
     kin0=   4.47311381E+01 eigvalue=  -1.74498485E+00  local=  -2.22843930E+01
 4,5,6: 1st-order hamiltonian combined with 1st and 0th-order wfs
     kin1=  -7.79676363E+01  Hartree=   0.00000000E+00     xc=   0.00000000E+00
 7,8,9: eventually, occupation + non-local contributions
    edocc=   1.53646885E+01     enl0=   1.81309919E+00   enl1=   2.20854045E+00
 1-9 gives the relaxation energy (to be shifted if some occ is /=2.0)
   erelax=  -3.78795479E+01
  No Ewald or frozen-wf contrib.: the relaxation energy is the total one
 2DEtotal=   -0.3787954794E+02 Ha. Also 2DEtotal=   -0.103075491936E+04 eV
    (  non-var. 2DEtotal :   -3.7879547937E+01 Ha)

 Perturbation wavevector (in red.coord.)   0.000000  0.000000  0.000000
 Perturbation : derivative vs k along direction   2
 The set of symmetries contains only one element for this perturbation.
 symkpt : not enough symmetry to change the number of k points.

[...]

 Perturbation wavevector (in red.coord.)   0.000000  0.000000  0.000000
 Perturbation : derivative vs k along direction   3
 The set of symmetries contains only one element for this perturbation.
 symkpt : not enough symmetry to change the number of k points.

-inwffil : will read wavefunctions from disk file /scratch/users/j/a/jabreu/flow_simple_6atoms/flow/w205/t1/indata/in_WFK

 Initialisation of the first-order wave-functions :
  ireadwf=   0

--- !BeginCycle
iteration_state: {dtset: 1, }
solver: {iscf: 7, nstep: 1000, nline: 4, wfoptalg: 0, }
tolerances: {tolwfr: 1.00E-20, }
...

     iter   2DEtotal(Ha)        deltaE(Ha) residm    vres2
-ETOT  1  -12.222218325023     -1.222E+01 5.724E-03 0.000E+00
 ETOT  2  -12.231258402869     -9.040E-03 2.013E-03 0.000E+00
 ETOT  3  -12.231280451882     -2.205E-05 2.452E-06 0.000E+00
 ETOT  4  -12.231280546117     -9.424E-08 9.998E-07 0.000E+00
 ETOT  5  -12.231280546635     -5.177E-10 7.530E-09 0.000E+00
 ETOT  6  -12.231280546639     -3.565E-12 2.239E-09 0.000E+00
 ETOT  7  -12.231280546639     -3.197E-14 2.327E-11 0.000E+00
 ETOT  8  -12.231280546639     -1.066E-14 1.143E-11 0.000E+00
 ETOT  9  -12.231280546639     -1.776E-15 1.259E-13 0.000E+00
 ETOT 10  -12.231280546639     -1.776E-15 6.192E-14 0.000E+00
 ETOT 11  -12.231280546639      0.000E+00 6.992E-16 0.000E+00
 ETOT 12  -12.231280546639      0.000E+00 3.396E-16 0.000E+00
 ETOT 13  -12.231280546639      1.776E-15 3.961E-18 0.000E+00
 ETOT 14  -12.231280546639     -1.776E-15 1.911E-18 0.000E+00
 ETOT 15  -12.231280546639      3.553E-15 2.270E-20 0.000E+00
 ETOT 16  -12.231280546639     -1.776E-15 1.087E-20 0.000E+00
 ETOT 17  -12.231280546639      0.000E+00 9.634E-21 0.000E+00

 At SCF step   17   max residual=  9.63E-21 < tolwfr=  1.00E-20 =>converged.

 ----iterations are completed or convergence reached----

 dfpt_looppert: DFPT cycle converged with prtwf=-1. Will skip output of the 1st-order WFK file.
 dfpt_looppert : ek2=    2.4503089907E+01
          f-sum rule ratio=    1.0224563808E+00
 prteigrs : about to open file /scratch/users/j/a/jabreu/flow_simple_6atoms/flow/w205/t1/tmpdata/tmp_1WF1_EIG
 Expectation of eigenvalue derivatives (hartree) for nkpt=   1  k points:
  (in case of degenerate eigenvalues, averaged derivative)
 kpt#   1, nband= 33, wtk=  1.00000, kpt=  0.0000  0.0000  0.0000 (reduced coord)
   0.00000    0.00000   -0.00000   -0.00000   -0.00000    0.00000    0.00000    0.00000
  -0.00000   -0.00000    0.00000   -0.00000   -0.00000    0.00000    0.00000   -0.00000
  -0.00000    0.00000    0.00000   -0.00000   -0.00000   -0.00000   -0.00000   -0.00000
   0.00000    0.00000    0.00000   -0.00000    0.00000   -0.00000    0.00000    0.00000
  -0.00000

 Eight components of 2nd-order total energy (hartree) are
 1,2,3: 0th-order hamiltonian combined with 1st-order wavefunctions
     kin0=   1.40095603E+01 eigvalue=  -5.15577973E-01  local=  -6.36141533E+00
 4,5,6: 1st-order hamiltonian combined with 1st and 0th-order wfs
     kin1=  -2.50533406E+01  Hartree=   0.00000000E+00     xc=   0.00000000E+00
 7,8,9: eventually, occupation + non-local contributions
    edocc=   4.80879368E+00     enl0=   2.89919844E-01   enl1=   5.90779531E-01
 1-9 gives the relaxation energy (to be shifted if some occ is /=2.0)
   erelax=  -1.22312805E+01
  No Ewald or frozen-wf contrib.: the relaxation energy is the total one
 2DEtotal=   -0.1223128055E+02 Ha. Also 2DEtotal=   -0.332830070054E+03 eV
    (  non-var. 2DEtotal :   -1.2231280546E+01 Ha)

 CALCULATION OF EFFECTIVE MASSES
 NOTE : Additional infos (eff. mass eigenvalues, eigenvectors and, if degenerate, average mass) are available in stdout.

 COMMENTS:
 - At k-point ( 0.000, 0.000, 0.000), bands    23 through    24
   are DEGENERATE (effective mass tensor is therefore not defined).
   See Section IIIB Eqs. (67)-(70) and Appendix E of PRB 93 205147 (2016).
 - Angular average effective mass for Frohlich model is to be averaged over degenerate bands. See later.
 - Associated theta integrals calculated with ntheta=   1000 points.

 K-point ( 0.000, 0.000, 0.000) | band =    23
 Transport equivalent effective mass tensor:
             -0.4403790813             -0.0000000000             -0.0000000001
             -0.0000000000             -0.4403790812             -0.0000000000
             -0.0000000001             -0.0000000000             -2.2665573909
 Transport equivalent effective mass tensor eigenvalues:
             -2.2665573909             -0.4403790813             -0.4403790812
 Angular average effective mass 1/(<1/m>)=  -0.5733399694
 Angular average effective mass for Frohlich model (<m**0.5>)**2=  -0.6473261370
 Effective masses along directions: (cart. coord. / red. coord. -> eff. mass)
    1:   1.000000  0.000000  0.000000 /   1.000000  0.000000  0.000000 ->  -0.4921744890
    2:   0.000000  1.000000  0.000000 /   0.000000  1.000000  0.000000 ->  -0.4921744890
    3:   0.000000  0.000000  1.000000 /   0.000000  0.000000  1.000000 ->  -2.1036797813
    4:   0.577350  0.577350  0.577350 /   0.451516  0.451516  0.769589 ->  -0.5155551534
    5:   0.000000  0.707107  0.707107 /   0.000000  0.506034  0.862513 ->  -0.7977162148
    6:   0.707107  0.000000  0.707107 /   0.506034  0.000000  0.862513 ->  -0.7977162150
    7:   0.707107  0.707107  0.000000 /   0.707107  0.707107  0.000000 ->  -0.3742786338

 K-point ( 0.000, 0.000, 0.000) | band =    24
 Transport equivalent effective mass tensor:
            -11.2156069840              0.0000000004             -0.0000000004
              0.0000000004            -11.2156069821             -0.0000000005
             -0.0000000004             -0.0000000005            -18.0524286980
 Transport equivalent effective mass tensor eigenvalues:
            -18.0524286980            -11.2156069841            -11.2156069820
 Angular average effective mass 1/(<1/m>)=  -2.3573857965
 Angular average effective mass for Frohlich model (<m**0.5>)**2=  -2.7446649742
 Effective masses along directions: (cart. coord. / red. coord. -> eff. mass)
    1:   1.000000  0.000000  0.000000 /   1.000000  0.000000  0.000000 ->  -1.3415803254
    2:   0.000000  1.000000  0.000000 /   0.000000  1.000000  0.000000 ->  -1.3415803253
    3:   0.000000  0.000000  1.000000 /   0.000000  0.000000  1.000000 ->  -2.1036797816
    4:   0.577350  0.577350  0.577350 /   0.451516  0.451516  0.769589 ->  -4.3723898419
    5:   0.000000  0.707107  0.707107 /   0.000000  0.506034  0.862513 ->  -1.6383409775
    6:   0.707107  0.000000  0.707107 /   0.506034  0.000000  0.862513 ->  -1.6383409776
    7:   0.707107  0.707107  0.000000 /   0.707107  0.707107  0.000000 ->  -9.4891914071

 Angular average effective mass for Frohlich model, averaged over degenerate bands.
 Value of     (<<m**0.5>>)**2 =     1.514461E+00
 Absolute Value of <<m**0.5>> =     1.230634E+00

 K-point ( 0.000, 0.000, 0.000) | band =    25
 Effective mass tensor:
              0.4583467571              0.0000000000             -0.0000000005
              0.0000000000              0.4583467571             -0.0000000001
             -0.0000000005             -0.0000000001              0.6922642769
 Effective mass tensor eigenvalues:
              0.4583467571              0.4583467571              0.6922642769
 Angular average effective mass 1/(<1/m>)=   0.5165250484
 Angular average effective mass for Frohlich model (<m**0.5>)**2=   0.5219527808
 Effective masses along directions: (cart. coord. / red. coord. -> eff. mass)
    1:   1.000000  0.000000  0.000000 /   1.000000  0.000000  0.000000 ->   0.4583467571
    2:   0.000000  1.000000  0.000000 /   0.000000  1.000000  0.000000 ->   0.4583467571
    3:   0.000000  0.000000  1.000000 /   0.000000  0.000000  1.000000 ->   0.6922642769
    4:   0.577350  0.577350  0.577350 /   0.451516  0.451516  0.769589 ->   0.5165250481
    5:   0.000000  0.707107  0.707107 /   0.000000  0.506034  0.862513 ->   0.5515279742
    6:   0.707107  0.000000  0.707107 /   0.506034  0.000000  0.862513 ->   0.5515279738
    7:   0.707107  0.707107  0.000000 /   0.707107  0.707107  0.000000 ->   0.4583467571

 END OF EFFECTIVE MASSES SECTION

 ---- first-order wavefunction calculations are completed ----

 Total localisation tensor (bohr^2) in cartesian coordinates
  WARNING : still subject to testing - especially symmetries.
      direction              matrix element
   alpha     beta       real part   imaginary part
     1        1       1.0085654195    0.0000000000
     1        2       0.0000000000    0.0000000000
     1        3       0.0000000000    0.0000000000
     2        1       0.0000000000    0.0000000000
     2        2       1.0085654194    0.0000000000
     2        3       0.0000000000    0.0000000000
     3        1       0.0000000000    0.0000000000
     3        2       0.0000000000    0.0000000000
     3        3       0.8506190963    0.0000000000

 respfn : d/dk was computed, but no 2DTE, so no DDB output.

== END DATASET(S) ==============================================================

 -outvars: echo values of variables after computation  --------
            acell      1.0000000000E+00  1.0000000000E+00  1.0000000000E+00 Bohr
              amu      8.89058500E+01  3.54527000E+01  1.59994000E+01
             ecut      4.40000000E+01 Hartree
           etotal     -1.2231280547E+01
            fcart      0.0000000000E+00  0.0000000000E+00  0.0000000000E+00
                       0.0000000000E+00  0.0000000000E+00  0.0000000000E+00
                       0.0000000000E+00  0.0000000000E+00  0.0000000000E+00
                       0.0000000000E+00  0.0000000000E+00  0.0000000000E+00
                       0.0000000000E+00  0.0000000000E+00  0.0000000000E+00
                       0.0000000000E+00  0.0000000000E+00  0.0000000000E+00
-          fftalg         512
           irdden           1
           irdwfk           1
           istwfk        1
              ixc     -116133
           kptopt           0
P           mkmem           1
P          mkqmem           1
P          mk1mem           1
            natom           6
            nband          33
           nbdbuf           4
            ngfft          45      45      80
             nkpt           1
            nstep        1000
             nsym          16
           ntypat           3
              occ      2.000000  2.000000  2.000000  2.000000  2.000000  2.000000
                       2.000000  2.000000  2.000000  2.000000  2.000000  2.000000
                       2.000000  2.000000  2.000000  2.000000  2.000000  2.000000
                       2.000000  2.000000  2.000000  2.000000  2.000000  2.000000
                       0.000000  0.000000  0.000000  0.000000  0.000000  0.000000
                       0.000000  0.000000  0.000000
        optdriver           1
            prtwf          -1
            rfdir           1       1       1
           rfelfd           2
            rprim      7.2965765351E+00  0.0000000000E+00  0.0000000000E+00
                       0.0000000000E+00  7.2965765351E+00  0.0000000000E+00
                       0.0000000000E+00  0.0000000000E+00  1.2436697130E+01
          spgroup         129
           strten      0.0000000000E+00  0.0000000000E+00  0.0000000000E+00
                       0.0000000000E+00  0.0000000000E+00  0.0000000000E+00
           symrel      1  0  0   0  1  0   0  0  1      -1  0  0   0 -1  0   0  0 -1
                      -1  0  0   0  1  0   0  0 -1       1  0  0   0 -1  0   0  0  1
                      -1  0  0   0 -1  0   0  0  1       1  0  0   0  1  0   0  0 -1
                       1  0  0   0 -1  0   0  0 -1      -1  0  0   0  1  0   0  0  1
                       0  1  0   1  0  0   0  0  1       0 -1  0  -1  0  0   0  0 -1
                       0 -1  0   1  0  0   0  0 -1       0  1  0  -1  0  0   0  0  1
                       0 -1  0  -1  0  0   0  0  1       0  1  0   1  0  0   0  0 -1
                       0  1  0  -1  0  0   0  0 -1       0 -1  0   1  0  0   0  0  1
            tnons      0.0000000  0.0000000  0.0000000     0.5000000  0.5000000  0.0000000
                       0.5000000  0.5000000  0.0000000     0.0000000 -0.0000000  0.0000000
                       0.0000000 -0.0000000  0.0000000     0.5000000  0.5000000  0.0000000
                       0.5000000  0.5000000  0.0000000     0.0000000  0.0000000  0.0000000
                       0.5000000  0.5000000  0.0000000    -0.0000000  0.0000000  0.0000000
                       0.0000000  0.0000000  0.0000000     0.5000000  0.5000000  0.0000000
                       0.5000000  0.5000000  0.0000000     0.0000000  0.0000000  0.0000000
                      -0.0000000  0.0000000  0.0000000     0.5000000  0.5000000  0.0000000
           tolwfr      1.00000000E-20
            typat      1  1  2  2  3  3
           useylm           1
           xangst      0.0000000000E+00  1.9305910016E+00  1.1094615064E+00
                       1.9305910016E+00  0.0000000000E+00  5.4717551648E+00
                       0.0000000000E+00  1.9305910016E+00  4.1278904642E+00
                       1.9305910016E+00  0.0000000000E+00  2.4533262070E+00
                       1.9305910016E+00  1.9305910016E+00  0.0000000000E+00
                       0.0000000000E+00  0.0000000000E+00  0.0000000000E+00
            xcart      0.0000000000E+00  3.6482882675E+00  2.0965784021E+00
                       3.6482882675E+00  0.0000000000E+00  1.0340118728E+01
                       0.0000000000E+00  3.6482882675E+00  7.8005824838E+00
                       3.6482882675E+00  0.0000000000E+00  4.6361146460E+00
                       3.6482882675E+00  3.6482882675E+00  0.0000000000E+00
                       0.0000000000E+00  0.0000000000E+00  0.0000000000E+00
             xred      0.0000000000E+00  5.0000000000E-01  1.6858000000E-01
                       5.0000000000E-01  0.0000000000E+00  8.3142000000E-01
                       0.0000000000E+00  5.0000000000E-01  6.2722300000E-01
                       5.0000000000E-01  0.0000000000E+00  3.7277700000E-01
                       5.0000000000E-01  5.0000000000E-01  0.0000000000E+00
                       0.0000000000E+00  0.0000000000E+00  0.0000000000E+00
            znucl       39.00000   17.00000    8.00000

- Timing analysis has been suppressed with timopt=0

 Suggested references for the acknowledgment of ABINIT usage.

 Calculation completed.
.Delivered   6 WARNINGs and   5 COMMENTs to log file.