.Version 9.5.1 of ABINIT

 ABINIT is a project of the Universite Catholique de Louvain,
 Corning Inc. and other collaborators, see ~abinit/doc/developers/contributors.txt .
 acknowledgments of the ABINIT effort.

.Starting date : Tue 27 Apr 2021.
- ( at 18h45 )

- input  file    -> /scratch/users/j/a/jabreu/flow_simple_4atoms/flow/w254/t1/run.abi
- output file    -> /scratch/users/j/a/jabreu/flow_simple_4atoms/flow/w254/t1/run.abo
- root for input  files -> /scratch/users/j/a/jabreu/flow_simple_4atoms/flow/w254/t1/indata/in
- root for output files -> /scratch/users/j/a/jabreu/flow_simple_4atoms/flow/w254/t1/outdata/out

 Symmetries : space group Fm -3 m (#225); Bravais cF (face-center cubic)
     intxc =       0      iscf =       7    lmnmax =      18     lnmax =       6
     mgfft =      54  mpssoang =       3    mqgrid =    3001     natom =       4
  nloc_mem =       1    nspden =       1   nspinor =       1    nsppol =       1
      nsym =      48    n1xccc =    2501    ntypat =       2    occopt =       1
   xclevel =       2
-    mband =          21        mffmem =           1         mkmem =           2
-   mkqmem =           2        mk1mem =           2           mpw =        5999
      nfft =      157464          nkpt =           2
  Rough estimation (10% accuracy) of disk space for files :

------------- Echo of variables that govern the present computation ------------
-
- outvars: echo of selected default values
-   iomode0 =  0 , fftalg0 =512 , wfoptalg0 =  0
-
- outvars: echo of global parameters not present in the input file
-  max_nthreads =    0
-
 -outvars: echo values of preprocessed input variables --------
            acell      1.0000000000E+00  1.0000000000E+00  1.0000000000E+00 Bohr
              amu      6.94100000E+00  1.21753000E+02
             ecut      4.20000000E+01 Hartree
-          fftalg         512
           irdden           1
           irdwfk           1
           istwfk        0    1
              ixc     -116133
              kpt      7.25806452E-02  7.25806452E-02  1.45161290E-01
                       5.00000000E-01  0.00000000E+00  5.00000000E-01
           kptopt           0
P           mkmem           2
P          mkqmem           2
P          mk1mem           2
            natom           4
            nband          21
           nbdbuf           4
            ngfft          54      54      54
             nkpt           2
            nstep         100
             nsym          48
           ntypat           2
              occ      2.000000  2.000000  2.000000  2.000000  2.000000  2.000000
                       2.000000  2.000000  2.000000  2.000000  2.000000  2.000000
                       0.000000  0.000000  0.000000  0.000000  0.000000  0.000000
                       0.000000  0.000000  0.000000
        optdriver           1
            prtwf          -1
            rfdir           1       1       1
           rfelfd           2
            rprim      7.5093777514E+00  0.0000000000E+00  4.3355412662E+00
                       2.5031259171E+00  7.0799092406E+00  4.3355412662E+00
                       0.0000000000E+00  0.0000000000E+00  8.6710825324E+00
          spgroup         225
           symrel      1  0  0   0  1  0   0  0  1      -1  0  0   0 -1  0   0  0 -1
                       0 -1  1   0 -1  0   1 -1  0       0  1 -1   0  1  0  -1  1  0
                      -1  0  0  -1  0  1  -1  1  0       1  0  0   1  0 -1   1 -1  0
                       0  1 -1   1  0 -1   0  0 -1       0 -1  1  -1  0  1   0  0  1
                      -1  0  0  -1  1  0  -1  0  1       1  0  0   1 -1  0   1  0 -1
                       0 -1  1   1 -1  0   0 -1  0       0  1 -1  -1  1  0   0  1  0
                       1  0  0   0  0  1   0  1  0      -1  0  0   0  0 -1   0 -1  0
                       0  1 -1   0  0 -1   1  0 -1       0 -1  1   0  0  1  -1  0  1
                      -1  0  1  -1  1  0  -1  0  0       1  0 -1   1 -1  0   1  0  0
                       0 -1  0   1 -1  0   0 -1  1       0  1  0  -1  1  0   0  1 -1
                       1  0 -1   0  0 -1   0  1 -1      -1  0  1   0  0  1   0 -1  1
                       0  1  0   0  0  1   1  0  0       0 -1  0   0  0 -1  -1  0  0
                       1  0 -1   0  1 -1   0  0 -1      -1  0  1   0 -1  1   0  0  1
                       0 -1  0   0 -1  1   1 -1  0       0  1  0   0  1 -1  -1  1  0
                      -1  0  1  -1  0  0  -1  1  0       1  0 -1   1  0  0   1 -1  0
                       0  1  0   1  0  0   0  0  1       0 -1  0  -1  0  0   0  0 -1
                       0  0 -1   0  1 -1   1  0 -1       0  0  1   0 -1  1  -1  0  1
                       1 -1  0   0 -1  1   0 -1  0      -1  1  0   0  1 -1   0  1  0
                       0  0  1   1  0  0   0  1  0       0  0 -1  -1  0  0   0 -1  0
                      -1  1  0  -1  0  0  -1  0  1       1 -1  0   1  0  0   1  0 -1
                       0  0  1   0  1  0   1  0  0       0  0 -1   0 -1  0  -1  0  0
                       1 -1  0   0 -1  0   0 -1  1      -1  1  0   0  1  0   0  1 -1
                       0  0 -1   1  0 -1   0  1 -1       0  0  1  -1  0  1   0 -1  1
                      -1  1  0  -1  0  1  -1  0  0       1 -1  0   1  0 -1   1  0  0
           tolwfr      1.00000000E-20
            typat      1  1  1  2
           useylm           1
              wtk        0.50000    0.50000
           xangst      2.6491943711E+00  1.8732633045E+00  4.5885392499E+00
                       1.3245971856E+00  9.3663165225E-01  2.2942696250E+00
                       3.9737915567E+00  2.8098949568E+00  6.8828088749E+00
                       0.0000000000E+00  0.0000000000E+00  0.0000000000E+00
            xcart      5.0062518343E+00  3.5399546203E+00  8.6710825324E+00
                       2.5031259171E+00  1.7699773102E+00  4.3355412662E+00
                       7.5093777514E+00  5.3099319305E+00  1.3006623799E+01
                       0.0000000000E+00  0.0000000000E+00  0.0000000000E+00
             xred      5.0000000000E-01  5.0000000000E-01  5.0000000000E-01
                       2.5000000000E-01  2.5000000000E-01  2.5000000000E-01
                       7.5000000000E-01  7.5000000000E-01  7.5000000000E-01
                       0.0000000000E+00  0.0000000000E+00  0.0000000000E+00
            znucl        3.00000   51.00000

 chkinp: Checking input parameters for consistency.

== DATASET  1 ==================================================================
-   mpi_nproc: 1, omp_nthreads: -1 (-1 if OMP is not activated)

--- !DatasetInfo
iteration_state: {dtset: 1, }
dimensions: {natom: 4, nkpt: 2, mband: 21, nsppol: 1, nspinor: 1, nspden: 1, mpw: 5999, }
cutoff_energies: {ecut:  42.0, pawecutdg:  -1.0, }
electrons: {nelect:   2.40000000E+01, charge:   0.00000000E+00, occopt:   1.00000000E+00, tsmear:   1.00000000E-02, }
meta: {optdriver: 1, rfelfd: 2, }
...

 Real(R)+Recip(G) space primitive vectors, cartesian coordinates (Bohr,Bohr^-1):
 R(1)=  7.5093778  0.0000000  4.3355413  G(1)=  0.1331668 -0.0470816  0.0000000
 R(2)=  2.5031259  7.0799092  4.3355413  G(2)=  0.0000000  0.1412447  0.0000000
 R(3)=  0.0000000  0.0000000  8.6710825  G(3)= -0.0665834 -0.0470816  0.1153259
 Unit cell volume ucvol=  4.6100428E+02 bohr^3
 Angles (23,13,12)=  6.00000000E+01  6.00000000E+01  6.00000000E+01 degrees

 getcut: wavevector=  0.0000  0.0000  0.0000  ngfft=  54  54  54
         ecut(hartree)=     42.000   => boxcut(ratio)=   2.13540

--- Pseudopotential description ------------------------------------------------
- pspini: atom type   1  psp file is /scratch/users/j/a/jabreu/pseudos/PBEsol/Li.psp8
- pspatm: opening atomic psp file    /scratch/users/j/a/jabreu/pseudos/PBEsol/Li.psp8
- Li    ONCVPSP-3.3.0  r_core=   1.40824   1.10935
-  3.00000   3.00000    180112                znucl, zion, pspdat
    8 -116133    1    4       400   0.00000   pspcod,pspxc,lmax,lloc,mmax,r2well
    3.99000000000000    0.00000000000000    0.00000000000000   rchrg,fchrg,qchrg
     nproj     2     2
     extension_switch     1
  pspatm : epsatm=    2.60859637
         --- l  ekb(1:nproj) -->
             0   -4.855856   -1.482423
             1   -2.171544   -0.427615
 pspatm: atomic psp has been read  and splines computed

- pspini: atom type   2  psp file is /scratch/users/j/a/jabreu/pseudos/PBEsol/Sb.psp8
- pspatm: opening atomic psp file    /scratch/users/j/a/jabreu/pseudos/PBEsol/Sb.psp8
- Sb    ONCVPSP-3.3.0  r_core=   1.81962   2.12485   1.81962
- 51.00000  15.00000    180112                znucl, zion, pspdat
    8 -116133    2    4       600   0.00000   pspcod,pspxc,lmax,lloc,mmax,r2well
    5.99000000000000    5.00000000000000    0.00000000000000   rchrg,fchrg,qchrg
     nproj     2     2     2
     extension_switch     1
  pspatm : epsatm=   26.35641246
         --- l  ekb(1:nproj) -->
             0    9.727814    1.485032
             1    5.505335    0.704623
             2   -4.710637   -1.436443
 pspatm: atomic psp has been read  and splines computed

   8.20372838E+02                                ecore*ucvol(ha*bohr**3)

-inwffil : will read wavefunctions from disk file /scratch/users/j/a/jabreu/flow_simple_4atoms/flow/w254/t1/indata/in_WFK

 ==>  initialize data related to q vector <==

 The list of irreducible perturbations for this q vector is:
    1)    idir= 1    ipert=   5
    2)    idir= 2    ipert=   5
    3)    idir= 3    ipert=   5

 Perturbation wavevector (in red.coord.)   0.000000  0.000000  0.000000
 Perturbation : derivative vs k along direction   1

 dfpt_looppert : COMMENT -
  In a d/dk calculation, iscf is set to -3 automatically.
 The set of symmetries contains only one element for this perturbation.
 symkpt : not enough symmetry to change the number of k points.

[...]

 Initialisation of the first-order wave-functions :
  ireadwf=   0

--- !BeginCycle
iteration_state: {dtset: 1, }
solver: {iscf: 7, nstep: 100, nline: 4, wfoptalg: 0, }
tolerances: {tolwfr: 1.00E-20, }
...

     iter   2DEtotal(Ha)        deltaE(Ha) residm    vres2
-ETOT  1  -39.351879374150     -3.935E+01 4.120E-01 0.000E+00
 ETOT  2  -39.368526762091     -1.665E-02 7.117E-04 0.000E+00
 ETOT  3  -39.368530712069     -3.950E-06 3.673E-05 0.000E+00
 ETOT  4  -39.368530713656     -1.587E-09 8.182E-07 0.000E+00
 ETOT  5  -39.368530713657     -1.044E-12 3.963E-08 0.000E+00
 ETOT  6  -39.368530713657     -2.842E-14 1.629E-09 0.000E+00
 ETOT  7  -39.368530713657      4.263E-14 9.786E-11 0.000E+00
 ETOT  8  -39.368530713657      1.421E-14 4.413E-12 0.000E+00
 ETOT  9  -39.368530713657     -1.421E-14 2.645E-13 0.000E+00
 ETOT 10  -39.368530713657      1.421E-14 1.237E-14 0.000E+00
 ETOT 11  -39.368530713657     -7.105E-15 7.351E-16 0.000E+00
 ETOT 12  -39.368530713657      7.105E-15 3.565E-17 0.000E+00
 ETOT 13  -39.368530713657     -7.105E-15 2.109E-18 0.000E+00
 ETOT 14  -39.368530713657      7.105E-15 1.066E-19 0.000E+00
 ETOT 15  -39.368530713657      0.000E+00 7.388E-21 0.000E+00

 At SCF step   15   max residual=  7.39E-21 < tolwfr=  1.00E-20 =>converged.

 ----iterations are completed or convergence reached----

 dfpt_looppert: DFPT cycle converged with prtwf=-1. Will skip output of the 1st-order WFK file.
 dfpt_looppert : ek2=    3.7804682352E+01
          f-sum rule ratio=    1.3039010197E+00
 prteigrs : about to open file /scratch/users/j/a/jabreu/flow_simple_4atoms/flow/w254/t1/tmpdata/tmp_1WF1_EIG
 Expectation of eigenvalue derivatives (hartree) for nkpt=   2  k points:
  (in case of degenerate eigenvalues, averaged derivative)
 kpt#   1, nband= 21, wtk=  0.50000, kpt=  0.0726  0.0726  0.1452 (reduced coord)
  -0.00000    0.00000   -0.00000   -0.00000    0.00000    0.00000    0.00000   -0.00000
   0.00000   -0.00000    0.00000   -0.00000   -0.00000    0.00000    0.00000    0.00000
   0.00000   -0.00000   -0.00000    0.00000   -0.00002
 prteigrs : prtvol=0 or 1, do not print more k-points.

 Eight components of 2nd-order total energy (hartree) are
 1,2,3: 0th-order hamiltonian combined with 1st-order wavefunctions
     kin0=   3.14918638E+01 eigvalue=   6.88054005E+00  local=  -1.76190905E+01
 4,5,6: 1st-order hamiltonian combined with 1st and 0th-order wfs
     kin1=  -4.92935639E+01  Hartree=   0.00000000E+00     xc=   0.00000000E+00
 7,8,9: eventually, occupation + non-local contributions
    edocc=   1.37244911E+01     enl0=   4.89072622E+00   enl1=  -2.94434976E+01
 1-9 gives the relaxation energy (to be shifted if some occ is /=2.0)
   erelax=  -3.93685307E+01
  No Ewald or frozen-wf contrib.: the relaxation energy is the total one
 2DEtotal=   -0.3936853071E+02 Ha. Also 2DEtotal=   -0.107127220125E+04 eV
    (  non-var. 2DEtotal :   -3.9368530714E+01 Ha)

 Perturbation wavevector (in red.coord.)   0.000000  0.000000  0.000000
 Perturbation : derivative vs k along direction   2
 The set of symmetries contains only one element for this perturbation.
 symkpt : not enough symmetry to change the number of k points.

[...]

 Perturbation wavevector (in red.coord.)   0.000000  0.000000  0.000000
 Perturbation : derivative vs k along direction   3
 The set of symmetries contains only one element for this perturbation.
 symkpt : not enough symmetry to change the number of k points.

-inwffil : will read wavefunctions from disk file /scratch/users/j/a/jabreu/flow_simple_4atoms/flow/w254/t1/indata/in_WFK

 Initialisation of the first-order wave-functions :
  ireadwf=   0

--- !BeginCycle
iteration_state: {dtset: 1, }
solver: {iscf: 7, nstep: 100, nline: 4, wfoptalg: 0, }
tolerances: {tolwfr: 1.00E-20, }
...

     iter   2DEtotal(Ha)        deltaE(Ha) residm    vres2
-ETOT  1  -35.287504117889     -3.529E+01 4.120E-01 0.000E+00
 ETOT  2  -35.304089759727     -1.659E-02 7.116E-04 0.000E+00
 ETOT  3  -35.304093418392     -3.659E-06 3.673E-05 0.000E+00
 ETOT  4  -35.304093420801     -2.409E-09 8.181E-07 0.000E+00
 ETOT  5  -35.304093420804     -2.871E-12 3.962E-08 0.000E+00
 ETOT  6  -35.304093420804      7.105E-15 1.630E-09 0.000E+00
 ETOT  7  -35.304093420804      0.000E+00 9.785E-11 0.000E+00
 ETOT  8  -35.304093420804     -7.105E-15 4.414E-12 0.000E+00
 ETOT  9  -35.304093420804      0.000E+00 2.645E-13 0.000E+00
 ETOT 10  -35.304093420804      7.105E-15 1.238E-14 0.000E+00
 ETOT 11  -35.304093420804      0.000E+00 7.352E-16 0.000E+00
 ETOT 12  -35.304093420804      0.000E+00 3.567E-17 0.000E+00
 ETOT 13  -35.304093420804      7.105E-15 2.109E-18 0.000E+00
 ETOT 14  -35.304093420804     -7.105E-15 1.067E-19 0.000E+00
 ETOT 15  -35.304093420804     -7.105E-15 8.498E-21 0.000E+00

 At SCF step   15   max residual=  8.50E-21 < tolwfr=  1.00E-20 =>converged.

 ----iterations are completed or convergence reached----

 dfpt_looppert: DFPT cycle converged with prtwf=-1. Will skip output of the 1st-order WFK file.
 dfpt_looppert : ek2=    3.7804682353E+01
          f-sum rule ratio=    1.1061287536E+00
 prteigrs : about to open file /scratch/users/j/a/jabreu/flow_simple_4atoms/flow/w254/t1/tmpdata/tmp_1WF1_EIG
 Expectation of eigenvalue derivatives (hartree) for nkpt=   2  k points:
  (in case of degenerate eigenvalues, averaged derivative)
 kpt#   1, nband= 21, wtk=  0.50000, kpt=  0.0726  0.0726  0.1452 (reduced coord)
   0.00003    0.00016   -0.00018    0.00008    0.00010    0.00014   -0.00002    0.00003
   0.03712   -0.31085   -0.18460   -0.00085    0.03082    0.07166    0.18554    0.28130
  -0.28455    0.05238    0.14929    0.25972    0.50692
 prteigrs : prtvol=0 or 1, do not print more k-points.

 Eight components of 2nd-order total energy (hartree) are
 1,2,3: 0th-order hamiltonian combined with 1st-order wavefunctions
     kin0=   3.15602438E+01 eigvalue=   6.88927867E+00  local=  -1.76386759E+01
 4,5,6: 1st-order hamiltonian combined with 1st and 0th-order wfs
     kin1=  -4.18168462E+01  Hartree=   0.00000000E+00     xc=   0.00000000E+00
 7,8,9: eventually, occupation + non-local contributions
    edocc=   9.63304815E+00     enl0=   4.86019866E+00   enl1=  -2.87913407E+01
 1-9 gives the relaxation energy (to be shifted if some occ is /=2.0)
   erelax=  -3.53040934E+01
  No Ewald or frozen-wf contrib.: the relaxation energy is the total one
 2DEtotal=   -0.3530409342E+02 Ha. Also 2DEtotal=   -0.960673237903E+03 eV
    (  non-var. 2DEtotal :   -3.5304093421E+01 Ha)

 CALCULATION OF EFFECTIVE MASSES
 NOTE : Additional infos (eff. mass eigenvalues, eigenvectors and, if degenerate, average mass) are available in stdout.

 K-point ( 0.073, 0.073, 0.145) | band =    12
 Effective mass tensor:
             -0.2710414701             -0.1006131054             -0.0000011591
             -0.1006131054             -0.1998972610              0.0000006446
             -0.0000011591              0.0000006446             -3.1717595278
 Effective mass tensor eigenvalues:
             -3.1717595278             -0.3421856792             -0.1287530519
 Angular average effective mass 1/(<1/m>)=  -0.2726162788
 Angular average effective mass for Frohlich model (<m**0.5>)**2=  -0.3738148959
 Effective masses along directions: (cart. coord. / red. coord. -> eff. mass)
    1:   1.000000  0.000000  0.000000 /   0.948683  0.316228  0.000000 ->  -0.2204004712
    2:   0.000000  1.000000  0.000000 /   0.000000  1.000000  0.000000 ->  -0.1625487439
    3:   0.000000  0.000000  1.000000 /   0.408248  0.408248  0.816497 ->  -3.1717595278
    4:   0.577350  0.577350  0.577350 /   0.585539  0.688047  0.428644 ->  -0.4660469926
    5:   0.000000  0.707107  0.707107 /   0.289489  0.762222  0.578977 ->  -0.3092486673
    6:   0.707107  0.000000  0.707107 /   0.731423  0.422287  0.535439 ->  -0.4121609277
    7:   0.707107  0.707107  0.000000 /   0.616798  0.787122  0.000000 ->  -0.3266993350

 K-point ( 0.500, 0.000, 0.500) | band =    13
 Effective mass tensor:
              0.3688717353             -0.1231489102              0.1508260022
             -0.1231489102              0.4559511478             -0.2133001537
              0.1508260022             -0.2133001537              0.5430305670
 Effective mass tensor eigenvalues:
              0.2817922932              0.2817923026              0.8042688541
 Angular average effective mass 1/(<1/m>)=   0.3596781004
 Angular average effective mass for Frohlich model (<m**0.5>)**2=   0.3811294984
 Effective masses along directions: (cart. coord. / red. coord. -> eff. mass)
    1:   1.000000  0.000000  0.000000 /   0.948683  0.316228  0.000000 ->   0.3160068488
    2:   0.000000  1.000000  0.000000 /   0.000000  1.000000  0.000000 ->   0.3596781020
    3:   0.000000  0.000000  1.000000 /   0.408248  0.408248  0.816497 ->   0.4173554381
    4:   0.577350  0.577350  0.577350 /   0.585539  0.688047  0.428644 ->   0.3006356071
    5:   0.000000  0.707107  0.707107 /   0.289489  0.762222  0.578977 ->   0.2833418460
    6:   0.707107  0.000000  0.707107 /   0.731423  0.422287  0.535439 ->   0.4728652961
    7:   0.707107  0.707107  0.000000 /   0.616798  0.787122  0.000000 ->   0.2844341899

 END OF EFFECTIVE MASSES SECTION

 ---- first-order wavefunction calculations are completed ----

 Total localisation tensor (bohr^2) in cartesian coordinates
  WARNING : still subject to testing - especially symmetries.
      direction              matrix element
   alpha     beta       real part   imaginary part
     1        1       3.6698482084    0.0000000000
     1        2       1.0379904997    0.0000000000
     1        3       2.5425456981    0.0000000000
     2        1       1.0379904997    0.0000000000
     2        2       2.9358804847    0.0000000000
     2        3       1.7978522833    0.0000000000
     3        1       2.5425456981    0.0000000000
     3        2       1.7978522833    0.0000000000
     3        3       4.8044198447    0.0000000000

 respfn : d/dk was computed, but no 2DTE, so no DDB output.

== END DATASET(S) ==============================================================

 -outvars: echo values of variables after computation  --------
            acell      1.0000000000E+00  1.0000000000E+00  1.0000000000E+00 Bohr
              amu      6.94100000E+00  1.21753000E+02
             ecut      4.20000000E+01 Hartree
           etotal     -3.5304093421E+01
            fcart      0.0000000000E+00  0.0000000000E+00  0.0000000000E+00
                       0.0000000000E+00  0.0000000000E+00  0.0000000000E+00
                       0.0000000000E+00  0.0000000000E+00  0.0000000000E+00
                       0.0000000000E+00  0.0000000000E+00  0.0000000000E+00
-          fftalg         512
           irdden           1
           irdwfk           1
           istwfk        0    1
              ixc     -116133
              kpt      7.25806452E-02  7.25806452E-02  1.45161290E-01
                       5.00000000E-01  0.00000000E+00  5.00000000E-01
           kptopt           0
P           mkmem           2
P          mkqmem           2
P          mk1mem           2
            natom           4
            nband          21
           nbdbuf           4
            ngfft          54      54      54
             nkpt           2
            nstep         100
             nsym          48
           ntypat           2
              occ      2.000000  2.000000  2.000000  2.000000  2.000000  2.000000
                       2.000000  2.000000  2.000000  2.000000  2.000000  2.000000
                       0.000000  0.000000  0.000000  0.000000  0.000000  0.000000
                       0.000000  0.000000  0.000000
        optdriver           1
            prtwf          -1
            rfdir           1       1       1
           rfelfd           2
            rprim      7.5093777514E+00  0.0000000000E+00  4.3355412662E+00
                       2.5031259171E+00  7.0799092406E+00  4.3355412662E+00
                       0.0000000000E+00  0.0000000000E+00  8.6710825324E+00
          spgroup         225
           strten      0.0000000000E+00  0.0000000000E+00  0.0000000000E+00
                       0.0000000000E+00  0.0000000000E+00  0.0000000000E+00
           symrel      1  0  0   0  1  0   0  0  1      -1  0  0   0 -1  0   0  0 -1
                       0 -1  1   0 -1  0   1 -1  0       0  1 -1   0  1  0  -1  1  0
                      -1  0  0  -1  0  1  -1  1  0       1  0  0   1  0 -1   1 -1  0
                       0  1 -1   1  0 -1   0  0 -1       0 -1  1  -1  0  1   0  0  1
                      -1  0  0  -1  1  0  -1  0  1       1  0  0   1 -1  0   1  0 -1
                       0 -1  1   1 -1  0   0 -1  0       0  1 -1  -1  1  0   0  1  0
                       1  0  0   0  0  1   0  1  0      -1  0  0   0  0 -1   0 -1  0
                       0  1 -1   0  0 -1   1  0 -1       0 -1  1   0  0  1  -1  0  1
                      -1  0  1  -1  1  0  -1  0  0       1  0 -1   1 -1  0   1  0  0
                       0 -1  0   1 -1  0   0 -1  1       0  1  0  -1  1  0   0  1 -1
                       1  0 -1   0  0 -1   0  1 -1      -1  0  1   0  0  1   0 -1  1
                       0  1  0   0  0  1   1  0  0       0 -1  0   0  0 -1  -1  0  0
                       1  0 -1   0  1 -1   0  0 -1      -1  0  1   0 -1  1   0  0  1
                       0 -1  0   0 -1  1   1 -1  0       0  1  0   0  1 -1  -1  1  0
                      -1  0  1  -1  0  0  -1  1  0       1  0 -1   1  0  0   1 -1  0
                       0  1  0   1  0  0   0  0  1       0 -1  0  -1  0  0   0  0 -1
                       0  0 -1   0  1 -1   1  0 -1       0  0  1   0 -1  1  -1  0  1
                       1 -1  0   0 -1  1   0 -1  0      -1  1  0   0  1 -1   0  1  0
                       0  0  1   1  0  0   0  1  0       0  0 -1  -1  0  0   0 -1  0
                      -1  1  0  -1  0  0  -1  0  1       1 -1  0   1  0  0   1  0 -1
                       0  0  1   0  1  0   1  0  0       0  0 -1   0 -1  0  -1  0  0
                       1 -1  0   0 -1  0   0 -1  1      -1  1  0   0  1  0   0  1 -1
                       0  0 -1   1  0 -1   0  1 -1       0  0  1  -1  0  1   0 -1  1
                      -1  1  0  -1  0  1  -1  0  0       1 -1  0   1  0 -1   1  0  0
           tolwfr      1.00000000E-20
            typat      1  1  1  2
           useylm           1
              wtk        0.50000    0.50000
           xangst      2.6491943711E+00  1.8732633045E+00  4.5885392499E+00
                       1.3245971856E+00  9.3663165225E-01  2.2942696250E+00
                       3.9737915567E+00  2.8098949568E+00  6.8828088749E+00
                       0.0000000000E+00  0.0000000000E+00  0.0000000000E+00
            xcart      5.0062518343E+00  3.5399546203E+00  8.6710825324E+00
                       2.5031259171E+00  1.7699773102E+00  4.3355412662E+00
                       7.5093777514E+00  5.3099319305E+00  1.3006623799E+01
                       0.0000000000E+00  0.0000000000E+00  0.0000000000E+00
             xred      5.0000000000E-01  5.0000000000E-01  5.0000000000E-01
                       2.5000000000E-01  2.5000000000E-01  2.5000000000E-01
                       7.5000000000E-01  7.5000000000E-01  7.5000000000E-01
                       0.0000000000E+00  0.0000000000E+00  0.0000000000E+00
            znucl        3.00000   51.00000

- Timing analysis has been suppressed with timopt=0

 Suggested references for the acknowledgment of ABINIT usage.

 Calculation completed.
.Delivered  14 WARNINGs and   9 COMMENTs to log file.