.Version 9.5.1 of ABINIT

 ABINIT is a project of the Universite Catholique de Louvain,
 Corning Inc. and other collaborators, see ~abinit/doc/developers/contributors.txt .
 acknowledgments of the ABINIT effort.

.Starting date : Wed 19 May 2021.
- ( at 15h34 )

- input  file    -> /scratch/users/j/a/jabreu/flow_simple_9atoms/flow/w201/t1/run.abi
- output file    -> /scratch/users/j/a/jabreu/flow_simple_9atoms/flow/w201/t1/run.abo
- root for input  files -> /scratch/users/j/a/jabreu/flow_simple_9atoms/flow/w201/t1/indata/in
- root for output files -> /scratch/users/j/a/jabreu/flow_simple_9atoms/flow/w201/t1/outdata/out

 Symmetries : space group Fm -3 m (#225); Bravais cF (face-center cubic)
     intxc =       0      iscf =       7    lmnmax =      18     lnmax =       6
     mgfft =      80  mpssoang =       3    mqgrid =    3214     natom =       9
  nloc_mem =       1    nspden =       1   nspinor =       1    nsppol =       1
      nsym =      48    n1xccc =    2501    ntypat =       3    occopt =       1
   xclevel =       2
-    mband =          47        mffmem =           1         mkmem =           2
-   mkqmem =           2        mk1mem =           2           mpw =       22548
      nfft =      512000          nkpt =           2
  Rough estimation (10% accuracy) of disk space for files :

------------- Echo of variables that govern the present computation ------------
-
- outvars: echo of selected default values
-   iomode0 =  0 , fftalg0 =512 , wfoptalg0 =  0
-
- outvars: echo of global parameters not present in the input file
-  max_nthreads =    0
-
 -outvars: echo values of preprocessed input variables --------
            acell      1.0000000000E+00  1.0000000000E+00  1.0000000000E+00 Bohr
              amu      8.54678000E+01  7.89600000E+01  3.54527000E+01
             ecut      4.30000000E+01 Hartree
-          fftalg         512
           irdden           1
           irdwfk           1
           istwfk        0    1
              ixc     -116133
              kpt      5.00000000E-01  2.50000000E-01  7.50000000E-01
                       5.00000000E-01  5.00000000E-01  5.00000000E-01
           kptopt           0
P           mkmem           2
P          mkqmem           2
P          mk1mem           2
            natom           9
            nband          47
           nbdbuf           4
            ngfft          80      80      80
             nkpt           2
            nstep        2000
             nsym          48
           ntypat           3
              occ      2.000000  2.000000  2.000000  2.000000  2.000000  2.000000
                       2.000000  2.000000  2.000000  2.000000  2.000000  2.000000
                       2.000000  2.000000  2.000000  2.000000  2.000000  2.000000
                       2.000000  2.000000  2.000000  2.000000  2.000000  2.000000
                       2.000000  2.000000  2.000000  2.000000  2.000000  2.000000
                       2.000000  2.000000  2.000000  2.000000  2.000000  2.000000
                       2.000000  2.000000  0.000000  0.000000  0.000000  0.000000
                       0.000000  0.000000  0.000000  0.000000  0.000000
        optdriver           1
            prtwf          -1
            rfdir           1       1       1
           rfelfd           2
            rprim      1.1548181793E+01  0.0000000000E+00  6.6673458670E+00
                       3.8493939311E+00  1.0887730209E+01  6.6673458670E+00
                       0.0000000000E+00  0.0000000000E+00  1.3334691734E+01
          spgroup         225
           symrel      1  0  0   0  1  0   0  0  1      -1  0  0   0 -1  0   0  0 -1
                       0 -1  1   0 -1  0   1 -1  0       0  1 -1   0  1  0  -1  1  0
                      -1  0  0  -1  0  1  -1  1  0       1  0  0   1  0 -1   1 -1  0
                       0  1 -1   1  0 -1   0  0 -1       0 -1  1  -1  0  1   0  0  1
                      -1  0  0  -1  1  0  -1  0  1       1  0  0   1 -1  0   1  0 -1
                       0 -1  1   1 -1  0   0 -1  0       0  1 -1  -1  1  0   0  1  0
                       1  0  0   0  0  1   0  1  0      -1  0  0   0  0 -1   0 -1  0
                       0  1 -1   0  0 -1   1  0 -1       0 -1  1   0  0  1  -1  0  1
                      -1  0  1  -1  1  0  -1  0  0       1  0 -1   1 -1  0   1  0  0
                       0 -1  0   1 -1  0   0 -1  1       0  1  0  -1  1  0   0  1 -1
                       1  0 -1   0  0 -1   0  1 -1      -1  0  1   0  0  1   0 -1  1
                       0  1  0   0  0  1   1  0  0       0 -1  0   0  0 -1  -1  0  0
                       1  0 -1   0  1 -1   0  0 -1      -1  0  1   0 -1  1   0  0  1
                       0 -1  0   0 -1  1   1 -1  0       0  1  0   0  1 -1  -1  1  0
                      -1  0  1  -1  0  0  -1  1  0       1  0 -1   1  0  0   1 -1  0
                       0  1  0   1  0  0   0  0  1       0 -1  0  -1  0  0   0  0 -1
                       0  0 -1   0  1 -1   1  0 -1       0  0  1   0 -1  1  -1  0  1
                       1 -1  0   0 -1  1   0 -1  0      -1  1  0   0  1 -1   0  1  0
                       0  0  1   1  0  0   0  1  0       0  0 -1  -1  0  0   0 -1  0
                      -1  1  0  -1  0  0  -1  0  1       1 -1  0   1  0  0   1  0 -1
                       0  0  1   0  1  0   1  0  0       0  0 -1   0 -1  0  -1  0  0
                       1 -1  0   0 -1  0   0 -1  1      -1  1  0   0  1  0   0  1 -1
                       0  0 -1   1  0 -1   0  1 -1       0  0  1  -1  0  1   0 -1  1
                      -1  1  0  -1  0  1  -1  0  0       1 -1  0   1  0 -1   1  0  0
           tolwfr      1.00000000E-20
            typat      1  1  2  3  3  3  3  3  3
           useylm           1
              wtk        0.50000    0.50000
           xangst      2.0370115352E+00  1.4403846699E+00  3.5282074746E+00
                       6.1110346056E+00  4.3211540097E+00  1.0584622424E+01
                       0.0000000000E+00  0.0000000000E+00  0.0000000000E+00
                       5.1297246686E+00  1.3877818218E+00  8.8849437550E+00
                       1.9626198739E+00  1.3877818218E+00  7.0564149492E+00
                       6.1854262669E+00  4.3737568579E+00  7.0564149492E+00
                       3.0183214722E+00  4.3737568579E+00  5.2278861434E+00
                       3.0183214722E+00  4.3737568579E+00  8.8849437550E+00
                       5.1297246686E+00  1.3877818218E+00  5.2278861434E+00
            xcart      3.8493939311E+00  2.7219325521E+00  6.6673458670E+00
                       1.1548181793E+01  8.1657976564E+00  2.0002037601E+01
                       0.0000000000E+00  0.0000000000E+00  0.0000000000E+00
                       9.6937747609E+00  2.6225275753E+00  1.6790110403E+01
                       3.7088140647E+00  2.6225275753E+00  1.3334691734E+01
                       1.1688761660E+01  8.2652026332E+00  1.3334691734E+01
                       5.7038009634E+00  8.2652026332E+00  9.8792730649E+00
                       5.7038009634E+00  8.2652026332E+00  1.6790110403E+01
                       9.6937747609E+00  2.6225275753E+00  9.8792730649E+00
             xred      2.5000000000E-01  2.5000000000E-01  2.5000000000E-01
                       7.5000000000E-01  7.5000000000E-01  7.5000000000E-01
                       0.0000000000E+00  0.0000000000E+00  0.0000000000E+00
                       7.5913000000E-01  2.4087000000E-01  7.5913000000E-01
                       2.4087000000E-01  2.4087000000E-01  7.5913000000E-01
                       7.5913000000E-01  7.5913000000E-01  2.4087000000E-01
                       2.4087000000E-01  7.5913000000E-01  2.4087000000E-01
                       2.4087000000E-01  7.5913000000E-01  7.5913000000E-01
                       7.5913000000E-01  2.4087000000E-01  2.4087000000E-01
            znucl       37.00000   34.00000   17.00000

 chkinp: Checking input parameters for consistency.

== DATASET  1 ==================================================================
-   mpi_nproc: 1, omp_nthreads: -1 (-1 if OMP is not activated)

--- !DatasetInfo
iteration_state: {dtset: 1, }
dimensions: {natom: 9, nkpt: 2, mband: 47, nsppol: 1, nspinor: 1, nspden: 1, mpw: 22548, }
cutoff_energies: {ecut:  43.0, pawecutdg:  -1.0, }
electrons: {nelect:   7.60000000E+01, charge:   0.00000000E+00, occopt:   1.00000000E+00, tsmear:   1.00000000E-02, }
meta: {optdriver: 1, rfelfd: 2, }
...

 Real(R)+Recip(G) space primitive vectors, cartesian coordinates (Bohr,Bohr^-1):
 R(1)= 11.5481818  0.0000000  6.6673459  G(1)=  0.0865937 -0.0306155  0.0000000
 R(2)=  3.8493939 10.8877302  6.6673459  G(2)=  0.0000000  0.0918465  0.0000000
 R(3)=  0.0000000  0.0000000 13.3346917  G(3)= -0.0432969 -0.0306155  0.0749924
 Unit cell volume ucvol=  1.6766173E+03 bohr^3
 Angles (23,13,12)=  6.00000000E+01  6.00000000E+01  6.00000000E+01 degrees

 getcut: wavevector=  0.0000  0.0000  0.0000  ngfft=  80  80  80
         ecut(hartree)=     43.000   => boxcut(ratio)=   2.03239

--- Pseudopotential description ------------------------------------------------
- pspini: atom type   1  psp file is /scratch/users/j/a/jabreu/pseudos/PBEsol/Rb.psp8
- pspatm: opening atomic psp file    /scratch/users/j/a/jabreu/pseudos/PBEsol/Rb.psp8
- Rb    ONCVPSP-3.3.0  r_core=   1.71227   1.75361   1.90633
- 37.00000   9.00000    180112                znucl, zion, pspdat
    8 -116133    2    4       600   0.00000   pspcod,pspxc,lmax,lloc,mmax,r2well
    5.99000000000000    7.00000000000000    0.00000000000000   rchrg,fchrg,qchrg
     nproj     2     2     2
     extension_switch     1
  pspatm : epsatm=   34.48400912
         --- l  ekb(1:nproj) -->
             0    8.196957   -0.477221
             1    3.231347   -0.378736
             2   -1.047201    0.996637
 pspatm: atomic psp has been read  and splines computed

- pspini: atom type   2  psp file is /scratch/users/j/a/jabreu/pseudos/PBEsol/Se.psp8
- pspatm: opening atomic psp file    /scratch/users/j/a/jabreu/pseudos/PBEsol/Se.psp8
- Se    ONCVPSP-3.3.0  r_core=   1.81943   1.50330   1.90835
- 34.00000  16.00000    180112                znucl, zion, pspdat
    8 -116133    2    4       600   0.00000   pspcod,pspxc,lmax,lloc,mmax,r2well
    5.99000000000000    5.00000000000000    0.00000000000000   rchrg,fchrg,qchrg
     nproj     2     2     2
     extension_switch     1
  pspatm : epsatm=   29.17862020
         --- l  ekb(1:nproj) -->
             0    8.973804    1.019550
             1    6.849857    1.297308
             2   -9.203962   -3.731027
 pspatm: atomic psp has been read  and splines computed

- pspini: atom type   3  psp file is /scratch/users/j/a/jabreu/pseudos/PBEsol/Cl.psp8
- pspatm: opening atomic psp file    /scratch/users/j/a/jabreu/pseudos/PBEsol/Cl.psp8
- Cl    ONCVPSP-3.3.0  r_core=   1.56009   1.35202   1.75774
- 17.00000   7.00000    180112                znucl, zion, pspdat
    8 -116133    2    4       600   0.00000   pspcod,pspxc,lmax,lloc,mmax,r2well
    5.99000000000000    8.00000000000000    0.00000000000000   rchrg,fchrg,qchrg
     nproj     2     2     2
     extension_switch     1
  pspatm : epsatm=    8.95520722
         --- l  ekb(1:nproj) -->
[...]
 7,8,9: eventually, occupation + non-local contributions
    edocc=   6.75809393E+00     enl0=   1.99564582E+00   enl1=  -1.48954549E+01
 1-9 gives the relaxation energy (to be shifted if some occ is /=2.0)
   erelax=  -3.29321225E+01
  No Ewald or frozen-wf contrib.: the relaxation energy is the total one
 2DEtotal=   -0.3293212248E+02 Ha. Also 2DEtotal=   -0.896128626177E+03 eV
    (  non-var. 2DEtotal :   -3.2932122481E+01 Ha)

 Perturbation wavevector (in red.coord.)   0.000000  0.000000  0.000000
 Perturbation : derivative vs k along direction   2
 The set of symmetries contains only one element for this perturbation.
 symkpt : not enough symmetry to change the number of k points.

[...]

 Perturbation wavevector (in red.coord.)   0.000000  0.000000  0.000000
 Perturbation : derivative vs k along direction   3
 The set of symmetries contains only one element for this perturbation.
 symkpt : not enough symmetry to change the number of k points.

-inwffil : will read wavefunctions from disk file /scratch/users/j/a/jabreu/flow_simple_9atoms/flow/w201/t1/indata/in_WFK

 Initialisation of the first-order wave-functions :
  ireadwf=   0

--- !BeginCycle
iteration_state: {dtset: 1, }
solver: {iscf: 7, nstep: 2000, nline: 4, wfoptalg: 0, }
tolerances: {tolwfr: 1.00E-20, }
...

     iter   2DEtotal(Ha)        deltaE(Ha) residm    vres2
-ETOT  1  -32.884755813899     -3.288E+01 1.896E-01 0.000E+00
 ETOT  2  -32.931794071125     -4.704E-02 3.428E-02 0.000E+00
 ETOT  3  -32.932119783246     -3.257E-04 6.585E-03 0.000E+00
 ETOT  4  -32.932123148401     -3.365E-06 1.808E-03 0.000E+00
 ETOT  5  -32.932123189095     -4.069E-08 4.859E-04 0.000E+00
 ETOT  6  -32.932123189631     -5.361E-10 1.980E-04 0.000E+00
 ETOT  7  -32.932123189639     -7.475E-12 4.459E-05 0.000E+00
 ETOT  8  -32.932123189639     -1.066E-13 1.858E-05 0.000E+00
 ETOT  9  -32.932123189639      7.105E-15 4.264E-06 0.000E+00
 ETOT 10  -32.932123189639     -1.421E-14 1.790E-06 0.000E+00
 ETOT 11  -32.932123189639      7.105E-15 4.152E-07 0.000E+00
 ETOT 12  -32.932123189639     -7.105E-15 1.750E-07 0.000E+00
 ETOT 13  -32.932123189639     -7.105E-15 4.088E-08 0.000E+00
 ETOT 14  -32.932123189639      0.000E+00 1.729E-08 0.000E+00
 ETOT 15  -32.932123189639      1.421E-14 4.058E-09 0.000E+00
 ETOT 16  -32.932123189639      0.000E+00 1.721E-09 0.000E+00
 ETOT 17  -32.932123189639     -1.421E-14 4.051E-10 0.000E+00
 ETOT 18  -32.932123189639      0.000E+00 1.721E-10 0.000E+00
 ETOT 19  -32.932123189639      7.105E-15 4.062E-11 0.000E+00
 ETOT 20  -32.932123189639      0.000E+00 1.727E-11 0.000E+00
 ETOT 21  -32.932123189639      0.000E+00 4.085E-12 0.000E+00
 ETOT 22  -32.932123189639      7.105E-15 1.738E-12 0.000E+00
 ETOT 23  -32.932123189639      0.000E+00 4.117E-13 0.000E+00
 ETOT 24  -32.932123189639      0.000E+00 1.751E-13 0.000E+00
 ETOT 25  -32.932123189639      0.000E+00 4.157E-14 0.000E+00
 ETOT 26  -32.932123189639      0.000E+00 1.766E-14 0.000E+00
 ETOT 27  -32.932123189639      0.000E+00 4.203E-15 0.000E+00
 ETOT 28  -32.932123189639     -7.105E-15 1.784E-15 0.000E+00
 ETOT 29  -32.932123189639      0.000E+00 4.253E-16 0.000E+00
 ETOT 30  -32.932123189639      7.105E-15 1.802E-16 0.000E+00
 ETOT 31  -32.932123189639     -1.421E-14 4.308E-17 0.000E+00
 ETOT 32  -32.932123189639      0.000E+00 1.822E-17 0.000E+00
 ETOT 33  -32.932123189639      0.000E+00 4.367E-18 0.000E+00
 ETOT 34  -32.932123189639      0.000E+00 1.844E-18 0.000E+00
 ETOT 35  -32.932123189639      0.000E+00 4.429E-19 0.000E+00
 ETOT 36  -32.932123189639      0.000E+00 1.866E-19 0.000E+00
 ETOT 37  -32.932123189639      1.421E-14 4.494E-20 0.000E+00
 ETOT 38  -32.932123189639     -1.421E-14 1.889E-20 0.000E+00
 ETOT 39  -32.932123189639      0.000E+00 9.984E-21 0.000E+00

 At SCF step   39   max residual=  9.98E-21 < tolwfr=  1.00E-20 =>converged.

 ----iterations are completed or convergence reached----

 dfpt_looppert: DFPT cycle converged with prtwf=-1. Will skip output of the 1st-order WFK file.
 dfpt_looppert : ek2=    5.0620755563E+01
          f-sum rule ratio=    1.0068753469E+00
 prteigrs : about to open file /scratch/users/j/a/jabreu/flow_simple_9atoms/flow/w201/t1/tmpdata/tmp_1WF1_EIG
 Expectation of eigenvalue derivatives (hartree) for nkpt=   2  k points:
  (in case of degenerate eigenvalues, averaged derivative)
 kpt#   1, nband= 47, wtk=  0.50000, kpt=  0.5000  0.2500  0.7500 (reduced coord)
  -0.00000   -0.00000   -0.00000    0.00000    0.00000   -0.00000   -0.00000    0.00000
  -0.00000    0.00000    0.00000    0.00000   -0.00000    0.00000   -0.00000   -0.00000
  -0.00000   -0.00000    0.00000    0.00000   -0.00000    0.00000    0.00000    0.00000
   0.00000   -0.00000   -0.00000   -0.00000   -0.00000   -0.00000    0.00000    0.00000
  -0.00000   -0.00000    0.00000   -0.00000   -0.00000    0.00000   -0.00000    0.00000
   0.00000    0.00000    0.00000   -0.00000   -0.00000   -0.00000   -0.00000
 prteigrs : prtvol=0 or 1, do not print more k-points.

 Eight components of 2nd-order total energy (hartree) are
 1,2,3: 0th-order hamiltonian combined with 1st-order wavefunctions
     kin0=   3.83935242E+01 eigvalue=   5.15657021E+00  local=  -1.93717129E+01
 4,5,6: 1st-order hamiltonian combined with 1st and 0th-order wfs
     kin1=  -5.09687908E+01  Hartree=   0.00000000E+00     xc=   0.00000000E+00
 7,8,9: eventually, occupation + non-local contributions
    edocc=   6.75809589E+00     enl0=   1.99564573E+00   enl1=  -1.48954556E+01
 1-9 gives the relaxation energy (to be shifted if some occ is /=2.0)
   erelax=  -3.29321232E+01
  No Ewald or frozen-wf contrib.: the relaxation energy is the total one
 2DEtotal=   -0.3293212319E+02 Ha. Also 2DEtotal=   -0.896128645438E+03 eV
    (  non-var. 2DEtotal :   -3.2932123189E+01 Ha)

 CALCULATION OF EFFECTIVE MASSES
 NOTE : Additional infos (eff. mass eigenvalues, eigenvectors and, if degenerate, average mass) are available in stdout.

 K-point ( 0.500, 0.250, 0.750) | band =    38
 Effective mass tensor:
             -2.9642186550              2.1183506226              2.5944390011
              2.1183506226             -4.4621187127             -3.6690908401
              2.5944390011             -3.6690908401             -5.9600186764
 Effective mass tensor eigenvalues:
            -10.4537189268             -1.4663185774             -1.4663185399
 Angular average effective mass 1/(<1/m>)=  -2.0553297068
 Angular average effective mass for Frohlich model (<m**0.5>)**2=  -2.4027214342
 Effective masses along directions: (cart. coord. / red. coord. -> eff. mass)
    1:   1.000000  0.000000  0.000000 /   0.948683  0.316228  0.000000 ->  -1.7115667995
    2:   0.000000  1.000000  0.000000 /   0.000000  1.000000  0.000000 ->  -2.0553296950
    3:   0.000000  0.000000  1.000000 /   0.408248  0.408248  0.816497 ->  -2.5718848542
    4:   0.577350  0.577350  0.577350 /   0.585539  0.688047  0.428644 ->  -1.8799377361
    5:   0.000000  0.707107  0.707107 /   0.289489  0.762222  0.578977 ->  -5.0424662888
    6:   0.707107  0.000000  0.707107 /   0.731423  0.422287  0.535439 ->  -1.5248643661
    7:   0.707107  0.707107  0.000000 /   0.616798  0.787122  0.000000 ->  -1.4845671903

 K-point ( 0.500, 0.500, 0.500) | band =    39
 Effective mass tensor:
              0.5260416893              0.0450076636              0.1102458104
              0.0450076636              0.4942164651              0.0779555600
              0.1102458104              0.0779555600              0.6533425859
 Effective mass tensor eigenvalues:
              0.4623912410              0.4623912411              0.7488182583
 Angular average effective mass 1/(<1/m>)=   0.5299623984
 Angular average effective mass for Frohlich model (<m**0.5>)**2=   0.5374721412
 Effective masses along directions: (cart. coord. / red. coord. -> eff. mass)
    1:   1.000000  0.000000  0.000000 /   0.948683  0.316228  0.000000 ->   0.5053462797
    2:   0.000000  1.000000  0.000000 /   0.000000  1.000000  0.000000 ->   0.4829154361
    3:   0.000000  0.000000  1.000000 /   0.408248  0.408248  0.816497 ->   0.6206623756
    4:   0.577350  0.577350  0.577350 /   0.585539  0.688047  0.428644 ->   0.6954567974
    5:   0.000000  0.707107  0.707107 /   0.289489  0.762222  0.578977 ->   0.6188790680
    6:   0.707107  0.000000  0.707107 /   0.731423  0.422287  0.535439 ->   0.6772272051
    7:   0.707107  0.707107  0.000000 /   0.616798  0.787122  0.000000 ->   0.5277570198

 END OF EFFECTIVE MASSES SECTION

 ---- first-order wavefunction calculations are completed ----

 Total localisation tensor (bohr^2) in cartesian coordinates
  WARNING : still subject to testing - especially symmetries.
      direction              matrix element
   alpha     beta       real part   imaginary part
     1        1       1.2755073779    0.0000000000
     1        2       0.3607680014    0.0000000000
     1        3       0.8836974478    0.0000000000
     2        1       0.3607680014    0.0000000000
     2        2       1.0204060008    0.0000000000
     2        3       0.6248685081    0.0000000000
     3        1       0.8836974478    0.0000000000
     3        2       0.6248685081    0.0000000000
     3        3       2.2959134261    0.0000000000

 respfn : d/dk was computed, but no 2DTE, so no DDB output.

== END DATASET(S) ==============================================================

 -outvars: echo values of variables after computation  --------
            acell      1.0000000000E+00  1.0000000000E+00  1.0000000000E+00 Bohr
              amu      8.54678000E+01  7.89600000E+01  3.54527000E+01
             ecut      4.30000000E+01 Hartree
           etotal     -3.2932123190E+01
            fcart      0.0000000000E+00  0.0000000000E+00  0.0000000000E+00
                       0.0000000000E+00  0.0000000000E+00  0.0000000000E+00
                       0.0000000000E+00  0.0000000000E+00  0.0000000000E+00
                       0.0000000000E+00  0.0000000000E+00  0.0000000000E+00
                       0.0000000000E+00  0.0000000000E+00  0.0000000000E+00
                       0.0000000000E+00  0.0000000000E+00  0.0000000000E+00
                       0.0000000000E+00  0.0000000000E+00  0.0000000000E+00
                       0.0000000000E+00  0.0000000000E+00  0.0000000000E+00
                       0.0000000000E+00  0.0000000000E+00  0.0000000000E+00
-          fftalg         512
           irdden           1
           irdwfk           1
           istwfk        0    1
              ixc     -116133
              kpt      5.00000000E-01  2.50000000E-01  7.50000000E-01
                       5.00000000E-01  5.00000000E-01  5.00000000E-01
           kptopt           0
P           mkmem           2
P          mkqmem           2
P          mk1mem           2
            natom           9
            nband          47
           nbdbuf           4
            ngfft          80      80      80
             nkpt           2
            nstep        2000
             nsym          48
           ntypat           3
              occ      2.000000  2.000000  2.000000  2.000000  2.000000  2.000000
                       2.000000  2.000000  2.000000  2.000000  2.000000  2.000000
                       2.000000  2.000000  2.000000  2.000000  2.000000  2.000000
                       2.000000  2.000000  2.000000  2.000000  2.000000  2.000000
                       2.000000  2.000000  2.000000  2.000000  2.000000  2.000000
                       2.000000  2.000000  2.000000  2.000000  2.000000  2.000000
                       2.000000  2.000000  0.000000  0.000000  0.000000  0.000000
                       0.000000  0.000000  0.000000  0.000000  0.000000
        optdriver           1
            prtwf          -1
            rfdir           1       1       1
           rfelfd           2
            rprim      1.1548181793E+01  0.0000000000E+00  6.6673458670E+00
                       3.8493939311E+00  1.0887730209E+01  6.6673458670E+00
                       0.0000000000E+00  0.0000000000E+00  1.3334691734E+01
          spgroup         225
           strten      0.0000000000E+00  0.0000000000E+00  0.0000000000E+00
                       0.0000000000E+00  0.0000000000E+00  0.0000000000E+00
           symrel      1  0  0   0  1  0   0  0  1      -1  0  0   0 -1  0   0  0 -1
                       0 -1  1   0 -1  0   1 -1  0       0  1 -1   0  1  0  -1  1  0
                      -1  0  0  -1  0  1  -1  1  0       1  0  0   1  0 -1   1 -1  0
                       0  1 -1   1  0 -1   0  0 -1       0 -1  1  -1  0  1   0  0  1
                      -1  0  0  -1  1  0  -1  0  1       1  0  0   1 -1  0   1  0 -1
                       0 -1  1   1 -1  0   0 -1  0       0  1 -1  -1  1  0   0  1  0
                       1  0  0   0  0  1   0  1  0      -1  0  0   0  0 -1   0 -1  0
                       0  1 -1   0  0 -1   1  0 -1       0 -1  1   0  0  1  -1  0  1
                      -1  0  1  -1  1  0  -1  0  0       1  0 -1   1 -1  0   1  0  0
                       0 -1  0   1 -1  0   0 -1  1       0  1  0  -1  1  0   0  1 -1
                       1  0 -1   0  0 -1   0  1 -1      -1  0  1   0  0  1   0 -1  1
                       0  1  0   0  0  1   1  0  0       0 -1  0   0  0 -1  -1  0  0
                       1  0 -1   0  1 -1   0  0 -1      -1  0  1   0 -1  1   0  0  1
                       0 -1  0   0 -1  1   1 -1  0       0  1  0   0  1 -1  -1  1  0
                      -1  0  1  -1  0  0  -1  1  0       1  0 -1   1  0  0   1 -1  0
                       0  1  0   1  0  0   0  0  1       0 -1  0  -1  0  0   0  0 -1
                       0  0 -1   0  1 -1   1  0 -1       0  0  1   0 -1  1  -1  0  1
                       1 -1  0   0 -1  1   0 -1  0      -1  1  0   0  1 -1   0  1  0
                       0  0  1   1  0  0   0  1  0       0  0 -1  -1  0  0   0 -1  0
                      -1  1  0  -1  0  0  -1  0  1       1 -1  0   1  0  0   1  0 -1
                       0  0  1   0  1  0   1  0  0       0  0 -1   0 -1  0  -1  0  0
                       1 -1  0   0 -1  0   0 -1  1      -1  1  0   0  1  0   0  1 -1
                       0  0 -1   1  0 -1   0  1 -1       0  0  1  -1  0  1   0 -1  1
                      -1  1  0  -1  0  1  -1  0  0       1 -1  0   1  0 -1   1  0  0
           tolwfr      1.00000000E-20
            typat      1  1  2  3  3  3  3  3  3
           useylm           1
              wtk        0.50000    0.50000
           xangst      2.0370115352E+00  1.4403846699E+00  3.5282074746E+00
                       6.1110346056E+00  4.3211540097E+00  1.0584622424E+01
                       0.0000000000E+00  0.0000000000E+00  0.0000000000E+00
                       5.1297246686E+00  1.3877818218E+00  8.8849437550E+00
                       1.9626198739E+00  1.3877818218E+00  7.0564149492E+00
                       6.1854262669E+00  4.3737568579E+00  7.0564149492E+00
                       3.0183214722E+00  4.3737568579E+00  5.2278861434E+00
                       3.0183214722E+00  4.3737568579E+00  8.8849437550E+00
                       5.1297246686E+00  1.3877818218E+00  5.2278861434E+00
            xcart      3.8493939311E+00  2.7219325521E+00  6.6673458670E+00
                       1.1548181793E+01  8.1657976564E+00  2.0002037601E+01
                       0.0000000000E+00  0.0000000000E+00  0.0000000000E+00
                       9.6937747609E+00  2.6225275753E+00  1.6790110403E+01
                       3.7088140647E+00  2.6225275753E+00  1.3334691734E+01
                       1.1688761660E+01  8.2652026332E+00  1.3334691734E+01
                       5.7038009634E+00  8.2652026332E+00  9.8792730649E+00
                       5.7038009634E+00  8.2652026332E+00  1.6790110403E+01
                       9.6937747609E+00  2.6225275753E+00  9.8792730649E+00
             xred      2.5000000000E-01  2.5000000000E-01  2.5000000000E-01
                       7.5000000000E-01  7.5000000000E-01  7.5000000000E-01
                       0.0000000000E+00  0.0000000000E+00  0.0000000000E+00
                       7.5913000000E-01  2.4087000000E-01  7.5913000000E-01
                       2.4087000000E-01  2.4087000000E-01  7.5913000000E-01
                       7.5913000000E-01  7.5913000000E-01  2.4087000000E-01
                       2.4087000000E-01  7.5913000000E-01  2.4087000000E-01
                       2.4087000000E-01  7.5913000000E-01  7.5913000000E-01
                       7.5913000000E-01  2.4087000000E-01  2.4087000000E-01
            znucl       37.00000   34.00000   17.00000

- Timing analysis has been suppressed with timopt=0

 Suggested references for the acknowledgment of ABINIT usage.

 Calculation completed.
.Delivered  14 WARNINGs and  11 COMMENTs to log file.