.Version 9.5.1 of ABINIT

 ABINIT is a project of the Universite Catholique de Louvain,
 Corning Inc. and other collaborators, see ~abinit/doc/developers/contributors.txt .
 acknowledgments of the ABINIT effort.

.Starting date : Wed  5 May 2021.
- ( at 19h37 )

- input  file    -> /scratch/users/j/a/jabreu/flow_simple_7atoms/flow/w114/t1/run.abi
- output file    -> /scratch/users/j/a/jabreu/flow_simple_7atoms/flow/w114/t1/run.abo
- root for input  files -> /scratch/users/j/a/jabreu/flow_simple_7atoms/flow/w114/t1/indata/in
- root for output files -> /scratch/users/j/a/jabreu/flow_simple_7atoms/flow/w114/t1/outdata/out

 Symmetries : space group P4/m m m (#123); Bravais tP (primitive tetrag.)
     intxc =       0      iscf =       7    lmnmax =      32     lnmax =       8
     mgfft =      90  mpssoang =       4    mqgrid =    4032     natom =       7
  nloc_mem =       1    nspden =       1   nspinor =       1    nsppol =       1
      nsym =      16    n1xccc =    2501    ntypat =       3    occopt =       1
   xclevel =       2
-    mband =          41        mffmem =           1         mkmem =           2
-   mkqmem =           2        mk1mem =           2           mpw =       20288
      nfft =      388800          nkpt =           2
  Rough estimation (10% accuracy) of disk space for files :

------------- Echo of variables that govern the present computation ------------
-
- outvars: echo of selected default values
-   iomode0 =  0 , fftalg0 =512 , wfoptalg0 =  0
-
- outvars: echo of global parameters not present in the input file
-  max_nthreads =    0
-
 -outvars: echo values of preprocessed input variables --------
            acell      1.0000000000E+00  1.0000000000E+00  1.0000000000E+00 Bohr
              amu      3.90983000E+01  1.95080000E+02  7.99040000E+01
             ecut      4.20000000E+01 Hartree
-          fftalg         512
           irdden           1
           irdwfk           1
           istwfk        1    1
              ixc     -116133
              kpt      0.00000000E+00  5.00000000E-01  0.00000000E+00
                       5.00000000E-01  5.00000000E-01  0.00000000E+00
           kptopt           0
P           mkmem           2
P          mkqmem           2
P          mk1mem           2
            natom           7
            nband          41
           nbdbuf           4
            ngfft          90      90      48
             nkpt           2
            nstep        2000
             nsym          16
           ntypat           3
              occ      2.000000  2.000000  2.000000  2.000000  2.000000  2.000000
                       2.000000  2.000000  2.000000  2.000000  2.000000  2.000000
                       2.000000  2.000000  2.000000  2.000000  2.000000  2.000000
                       2.000000  2.000000  2.000000  2.000000  2.000000  2.000000
                       2.000000  2.000000  2.000000  2.000000  2.000000  2.000000
                       2.000000  2.000000  0.000000  0.000000  0.000000  0.000000
                       0.000000  0.000000  0.000000  0.000000  0.000000
        optdriver           1
            prtwf          -1
            rfdir           1       1       1
           rfelfd           2
            rprim      1.3818900889E+01  0.0000000000E+00  0.0000000000E+00
                       0.0000000000E+00  1.3818900889E+01  0.0000000000E+00
                       0.0000000000E+00  0.0000000000E+00  8.1832265842E+00
          spgroup         123
           symrel      1  0  0   0  1  0   0  0  1      -1  0  0   0 -1  0   0  0 -1
                      -1  0  0   0  1  0   0  0 -1       1  0  0   0 -1  0   0  0  1
                      -1  0  0   0 -1  0   0  0  1       1  0  0   0  1  0   0  0 -1
                       1  0  0   0 -1  0   0  0 -1      -1  0  0   0  1  0   0  0  1
                       0  1  0   1  0  0   0  0  1       0 -1  0  -1  0  0   0  0 -1
                       0 -1  0   1  0  0   0  0 -1       0  1  0  -1  0  0   0  0  1
                       0 -1  0  -1  0  0   0  0  1       0  1  0   1  0  0   0  0 -1
                       0  1  0  -1  0  0   0  0 -1       0 -1  0   1  0  0   0  0  1
           tolwfr      1.00000000E-20
            typat      1  1  2  3  3  3  3
           useylm           1
              wtk        0.50000    0.50000
           xangst      0.0000000000E+00  3.6563236990E+00  2.1651885005E+00
                       3.6563236990E+00  0.0000000000E+00  2.1651885005E+00
                       0.0000000000E+00  0.0000000000E+00  0.0000000000E+00
                       5.5931076130E+00  5.5931076130E+00  0.0000000000E+00
                       1.7195397851E+00  1.7195397851E+00  0.0000000000E+00
                       5.5931076130E+00  1.7195397851E+00  0.0000000000E+00
                       1.7195397851E+00  5.5931076130E+00  0.0000000000E+00
            xcart      0.0000000000E+00  6.9094504443E+00  4.0916132921E+00
                       6.9094504443E+00  0.0000000000E+00  4.0916132921E+00
                       0.0000000000E+00  0.0000000000E+00  0.0000000000E+00
                       1.0569441620E+01  1.0569441620E+01  0.0000000000E+00
                       3.2494592684E+00  3.2494592684E+00  0.0000000000E+00
                       1.0569441620E+01  3.2494592684E+00  0.0000000000E+00
                       3.2494592684E+00  1.0569441620E+01  0.0000000000E+00
             xred      0.0000000000E+00  5.0000000000E-01  5.0000000000E-01
                       5.0000000000E-01  0.0000000000E+00  5.0000000000E-01
                       0.0000000000E+00  0.0000000000E+00  0.0000000000E+00
                       7.6485400000E-01  7.6485400000E-01  0.0000000000E+00
                       2.3514600000E-01  2.3514600000E-01  0.0000000000E+00
                       7.6485400000E-01  2.3514600000E-01  0.0000000000E+00
                       2.3514600000E-01  7.6485400000E-01  0.0000000000E+00
            znucl       19.00000   78.00000   35.00000

 chkinp: Checking input parameters for consistency.

== DATASET  1 ==================================================================
-   mpi_nproc: 1, omp_nthreads: -1 (-1 if OMP is not activated)

--- !DatasetInfo
iteration_state: {dtset: 1, }
dimensions: {natom: 7, nkpt: 2, mband: 41, nsppol: 1, nspinor: 1, nspden: 1, mpw: 20288, }
cutoff_energies: {ecut:  42.0, pawecutdg:  -1.0, }
electrons: {nelect:   6.40000000E+01, charge:   0.00000000E+00, occopt:   1.00000000E+00, tsmear:   1.00000000E-02, }
meta: {optdriver: 1, rfelfd: 2, }
...

 Real(R)+Recip(G) space primitive vectors, cartesian coordinates (Bohr,Bohr^-1):
 R(1)= 13.8189009  0.0000000  0.0000000  G(1)=  0.0723647  0.0000000  0.0000000
 R(2)=  0.0000000 13.8189009  0.0000000  G(2)=  0.0000000  0.0723647  0.0000000
 R(3)=  0.0000000  0.0000000  8.1832266  G(3)=  0.0000000  0.0000000  0.1222012
 Unit cell volume ucvol=  1.5626855E+03 bohr^3
 Angles (23,13,12)=  9.00000000E+01  9.00000000E+01  9.00000000E+01 degrees

 getcut: wavevector=  0.0000  0.0000  0.0000  ngfft=  90  90  48
         ecut(hartree)=     42.000   => boxcut(ratio)=   2.01061

--- Pseudopotential description ------------------------------------------------
- pspini: atom type   1  psp file is /scratch/users/j/a/jabreu/pseudos/PBEsol/K.psp8
- pspatm: opening atomic psp file    /scratch/users/j/a/jabreu/pseudos/PBEsol/K.psp8
- K     ONCVPSP-3.3.0  r_core=   1.36296   1.46408   1.61068
- 19.00000   9.00000    180112                znucl, zion, pspdat
    8 -116133    2    4       400   0.00000   pspcod,pspxc,lmax,lloc,mmax,r2well
    3.99000000000000    5.00000000000000    0.00000000000000   rchrg,fchrg,qchrg
     nproj     2     2     2
     extension_switch     1
  pspatm : epsatm=    8.32487830
         --- l  ekb(1:nproj) -->
             0   10.921326    0.816676
             1    4.431000    0.560368
             2   -3.384038   -1.043186
 pspatm: atomic psp has been read  and splines computed

- pspini: atom type   2  psp file is /scratch/users/j/a/jabreu/pseudos/PBEsol/Pt.psp8
- pspatm: opening atomic psp file    /scratch/users/j/a/jabreu/pseudos/PBEsol/Pt.psp8
- Pt    ONCVPSP-3.3.0  r_core=   1.45722   1.45722   1.45722   1.91724
- 78.00000  18.00000    180112                znucl, zion, pspdat
    8 -116133    3    4       500   0.00000   pspcod,pspxc,lmax,lloc,mmax,r2well
    4.99000000000000    5.00000000000000    0.00000000000000   rchrg,fchrg,qchrg
     nproj     2     2     2     2
     extension_switch     1
  pspatm : epsatm=   26.54019552
         --- l  ekb(1:nproj) -->
             0   18.149684    1.747248
             1    8.048135    1.208190
             2    2.365973    0.348456
             3    3.491561    0.381218
 pspatm: atomic psp has been read  and splines computed

- pspini: atom type   3  psp file is /scratch/users/j/a/jabreu/pseudos/PBEsol/Br.psp8
- pspatm: opening atomic psp file    /scratch/users/j/a/jabreu/pseudos/PBEsol/Br.psp8
- Br    ONCVPSP-3.3.0  r_core=   1.81012   1.51356   1.92136
- 35.00000   7.00000    180112                znucl, zion, pspdat
    8 -116133    2    4       600   0.00000   pspcod,pspxc,lmax,lloc,mmax,r2well
    5.99000000000000    8.00000000000000    0.00000000000000   rchrg,fchrg,qchrg
     nproj     2     2     2
     extension_switch     1
  pspatm : epsatm=   10.94933070
         --- l  ekb(1:nproj) -->
             0    8.508690    0.897946
             1    5.393311    0.892021
             2    2.527513    0.394763
 pspatm: atomic psp has been read  and splines computed

   5.56718559E+03                                ecore*ucvol(ha*bohr**3)

-inwffil : will read wavefunctions from disk file /scratch/users/j/a/jabreu/flow_simple_7atoms/flow/w114/t1/indata/in_WFK

 ==>  initialize data related to q vector <==

 The list of irreducible perturbations for this q vector is:
    1)    idir= 1    ipert=   8
    2)    idir= 2    ipert=   8
    3)    idir= 3    ipert=   8

 Perturbation wavevector (in red.coord.)   0.000000  0.000000  0.000000
 Perturbation : derivative vs k along direction   1

 dfpt_looppert : COMMENT -
  In a d/dk calculation, iscf is set to -3 automatically.
 The set of symmetries contains only one element for this perturbation.
 symkpt : not enough symmetry to change the number of k points.

[...]

 Initialisation of the first-order wave-functions :
  ireadwf=   0

--- !BeginCycle
iteration_state: {dtset: 1, }
solver: {iscf: 7, nstep: 2000, nline: 4, wfoptalg: 0, }
tolerances: {tolwfr: 1.00E-20, }
...

     iter   2DEtotal(Ha)        deltaE(Ha) residm    vres2
-ETOT  1  -13.397767421332     -1.340E+01 4.691E-02 0.000E+00
 ETOT  2  -13.422448912025     -2.468E-02 8.083E-03 0.000E+00
 ETOT  3  -13.422679964110     -2.311E-04 5.970E-04 0.000E+00
 ETOT  4  -13.422684243982     -4.280E-06 9.710E-05 0.000E+00
 ETOT  5  -13.422684362763     -1.188E-07 1.489E-05 0.000E+00
 ETOT  6  -13.422684366830     -4.067E-09 3.825E-06 0.000E+00
 ETOT  7  -13.422684366985     -1.554E-10 6.098E-07 0.000E+00
 ETOT  8  -13.422684366992     -6.741E-12 2.429E-07 0.000E+00
 ETOT  9  -13.422684366992     -3.251E-13 2.780E-08 0.000E+00
 ETOT 10  -13.422684366992      8.882E-15 9.799E-09 0.000E+00
 ETOT 11  -13.422684366992     -1.066E-14 1.323E-09 0.000E+00
 ETOT 12  -13.422684366992      2.132E-14 4.458E-10 0.000E+00
 ETOT 13  -13.422684366992     -1.066E-14 6.586E-11 0.000E+00
 ETOT 14  -13.422684366992     -7.105E-15 2.114E-11 0.000E+00
 ETOT 15  -13.422684366992      3.553E-15 3.415E-12 0.000E+00
 ETOT 16  -13.422684366992      0.000E+00 1.031E-12 0.000E+00
 ETOT 17  -13.422684366992     -1.776E-15 1.782E-13 0.000E+00
 ETOT 18  -13.422684366992      1.776E-15 5.209E-14 0.000E+00
 ETOT 19  -13.422684366992     -3.553E-15 9.063E-15 0.000E+00
 ETOT 20  -13.422684366992      3.553E-15 2.717E-15 0.000E+00
 ETOT 21  -13.422684366992     -3.553E-15 4.542E-16 0.000E+00
 ETOT 22  -13.422684366992      0.000E+00 1.429E-16 0.000E+00
 ETOT 23  -13.422684366992      0.000E+00 2.279E-17 0.000E+00
 ETOT 24  -13.422684366992      3.553E-15 7.514E-18 0.000E+00
 ETOT 25  -13.422684366992      0.000E+00 1.152E-18 0.000E+00
 ETOT 26  -13.422684366992      0.000E+00 3.950E-19 0.000E+00
 ETOT 27  -13.422684366992      0.000E+00 5.882E-20 0.000E+00
 ETOT 28  -13.422684366992     -1.776E-15 2.079E-20 0.000E+00
 ETOT 29  -13.422684366992      1.776E-15 9.925E-21 0.000E+00

 At SCF step   29   max residual=  9.93E-21 < tolwfr=  1.00E-20 =>converged.

 ----iterations are completed or convergence reached----

 dfpt_looppert: DFPT cycle converged with prtwf=-1. Will skip output of the 1st-order WFK file.
 dfpt_looppert : ek2=    2.6462002269E+01
          f-sum rule ratio=    1.0027740428E+00
 prteigrs : about to open file /scratch/users/j/a/jabreu/flow_simple_7atoms/flow/w114/t1/tmpdata/tmp_1WF1_EIG
 Expectation of eigenvalue derivatives (hartree) for nkpt=   2  k points:
  (in case of degenerate eigenvalues, averaged derivative)
 kpt#   1, nband= 41, wtk=  0.50000, kpt=  0.0000  0.5000  0.0000 (reduced coord)
   0.00000    0.00000    0.00000    0.00000   -0.00000   -0.00000   -0.00000    0.00000
   0.00000   -0.00000    0.00000    0.00000    0.00000    0.00000    0.00000    0.00000
  -0.00000   -0.00000   -0.00000    0.00000    0.00000   -0.00000    0.00000   -0.00000
   0.00000    0.00000   -0.00000    0.00000    0.00000   -0.00000    0.00000   -0.00000
   0.00000    0.00000   -0.00000   -0.00000   -0.00000   -0.00000    0.00000   -0.00000
   0.00000
 prteigrs : prtvol=0 or 1, do not print more k-points.

 Eight components of 2nd-order total energy (hartree) are
 1,2,3: 0th-order hamiltonian combined with 1st-order wavefunctions
     kin0=   1.88694740E+01 eigvalue=   1.05720678E+00  local=  -1.17220585E+01
 4,5,6: 1st-order hamiltonian combined with 1st and 0th-order wfs
     kin1=  -2.65354090E+01  Hartree=   0.00000000E+00     xc=   0.00000000E+00
 7,8,9: eventually, occupation + non-local contributions
    edocc=   3.41230085E+00     enl0=   1.80576125E+00   enl1=  -3.09959739E-01
 1-9 gives the relaxation energy (to be shifted if some occ is /=2.0)
   erelax=  -1.34226844E+01
  No Ewald or frozen-wf contrib.: the relaxation energy is the total one
 2DEtotal=   -0.1342268437E+02 Ha. Also 2DEtotal=   -0.365249816742E+03 eV
    (  non-var. 2DEtotal :   -1.3422684367E+01 Ha)

 Perturbation wavevector (in red.coord.)   0.000000  0.000000  0.000000
 Perturbation : derivative vs k along direction   2
 The set of symmetries contains only one element for this perturbation.
 symkpt : not enough symmetry to change the number of k points.

[...]

 Perturbation wavevector (in red.coord.)   0.000000  0.000000  0.000000
 Perturbation : derivative vs k along direction   3
 The set of symmetries contains only one element for this perturbation.
 symkpt : not enough symmetry to change the number of k points.

-inwffil : will read wavefunctions from disk file /scratch/users/j/a/jabreu/flow_simple_7atoms/flow/w114/t1/indata/in_WFK

 Initialisation of the first-order wave-functions :
  ireadwf=   0

--- !BeginCycle
iteration_state: {dtset: 1, }
solver: {iscf: 7, nstep: 2000, nline: 4, wfoptalg: 0, }
tolerances: {tolwfr: 1.00E-20, }
...

     iter   2DEtotal(Ha)        deltaE(Ha) residm    vres2
-ETOT  1  -41.719225798563     -4.172E+01 9.558E-02 0.000E+00
 ETOT  2  -41.787834155616     -6.861E-02 1.490E-03 0.000E+00
 ETOT  3  -41.788491078023     -6.569E-04 4.001E-04 0.000E+00
 ETOT  4  -41.788504528118     -1.345E-05 2.734E-05 0.000E+00
 ETOT  5  -41.788504907413     -3.793E-07 5.037E-06 0.000E+00
 ETOT  6  -41.788504919696     -1.228E-08 7.577E-07 0.000E+00
 ETOT  7  -41.788504920136     -4.401E-10 9.944E-08 0.000E+00
 ETOT  8  -41.788504920155     -1.839E-11 1.241E-08 0.000E+00
 ETOT  9  -41.788504920156     -9.805E-13 2.995E-09 0.000E+00
 ETOT 10  -41.788504920155      7.816E-14 4.436E-10 0.000E+00
 ETOT 11  -41.788504920156     -4.263E-14 1.078E-10 0.000E+00
 ETOT 12  -41.788504920155      7.105E-15 7.174E-12 0.000E+00
 ETOT 13  -41.788504920155      1.421E-14 2.241E-12 0.000E+00
 ETOT 14  -41.788504920155      1.421E-14 1.969E-13 0.000E+00
 ETOT 15  -41.788504920155     -1.421E-14 6.741E-14 0.000E+00
 ETOT 16  -41.788504920155      7.105E-15 6.138E-15 0.000E+00
 ETOT 17  -41.788504920155     -1.421E-14 2.089E-15 0.000E+00
 ETOT 18  -41.788504920155      3.553E-14 1.982E-16 0.000E+00
 ETOT 19  -41.788504920155     -2.842E-14 6.592E-17 0.000E+00
 ETOT 20  -41.788504920155      0.000E+00 6.628E-18 0.000E+00
 ETOT 21  -41.788504920155      1.421E-14 2.142E-18 0.000E+00
 ETOT 22  -41.788504920155      0.000E+00 2.277E-19 0.000E+00
 ETOT 23  -41.788504920155      0.000E+00 7.258E-20 0.000E+00
 ETOT 24  -41.788504920155     -2.132E-14 9.993E-21 0.000E+00

 At SCF step   24   max residual=  9.99E-21 < tolwfr=  1.00E-20 =>converged.

 ----iterations are completed or convergence reached----

 dfpt_looppert: DFPT cycle converged with prtwf=-1. Will skip output of the 1st-order WFK file.
 dfpt_looppert : ek2=    7.5460652025E+01
          f-sum rule ratio=    1.0946212332E+00
 prteigrs : about to open file /scratch/users/j/a/jabreu/flow_simple_7atoms/flow/w114/t1/tmpdata/tmp_1WF1_EIG
 Expectation of eigenvalue derivatives (hartree) for nkpt=   2  k points:
  (in case of degenerate eigenvalues, averaged derivative)
 kpt#   1, nband= 41, wtk=  0.50000, kpt=  0.0000  0.5000  0.0000 (reduced coord)
  -0.00000    0.00000   -0.00000    0.00000   -0.00000   -0.00000   -0.00000   -0.00000
  -0.00000   -0.00000    0.00000    0.00000    0.00000   -0.00000    0.00000   -0.00000
  -0.00000   -0.00000   -0.00000   -0.00000    0.00000   -0.00000    0.00000   -0.00000
  -0.00000   -0.00000    0.00000    0.00000    0.00000   -0.00000   -0.00000    0.00000
   0.00000   -0.00000   -0.00000    0.00000    0.00000    0.00000   -0.00000   -0.00000
   0.00000
 prteigrs : prtvol=0 or 1, do not print more k-points.

 Eight components of 2nd-order total energy (hartree) are
 1,2,3: 0th-order hamiltonian combined with 1st-order wavefunctions
     kin0=   5.34506134E+01 eigvalue=   3.05112396E+00  local=  -3.19432210E+01
 4,5,6: 1st-order hamiltonian combined with 1st and 0th-order wfs
     kin1=  -8.26008320E+01  Hartree=   0.00000000E+00     xc=   0.00000000E+00
 7,8,9: eventually, occupation + non-local contributions
    edocc=   1.25294614E+01     enl0=   4.70052718E+00   enl1=  -9.76177862E-01
 1-9 gives the relaxation energy (to be shifted if some occ is /=2.0)
   erelax=  -4.17885049E+01
  No Ewald or frozen-wf contrib.: the relaxation energy is the total one
 2DEtotal=   -0.4178850492E+02 Ha. Also 2DEtotal=   -0.113712304832E+04 eV
    (  non-var. 2DEtotal :   -4.1788504920E+01 Ha)

 CALCULATION OF EFFECTIVE MASSES
 NOTE : Additional infos (eff. mass eigenvalues, eigenvectors and, if degenerate, average mass) are available in stdout.

 K-point ( 0.000, 0.500, 0.000) | band =    32
 Effective mass tensor:
             -7.1581751056              0.0000000001             -0.0000000002
              0.0000000001             -3.4120677430             -0.0000000001
             -0.0000000002             -0.0000000001             -2.0943611703
 Effective mass tensor eigenvalues:
             -7.1581751056             -3.4120677430             -2.0943611703
 Angular average effective mass 1/(<1/m>)=  -3.2957964377
 Angular average effective mass for Frohlich model (<m**0.5>)**2=  -3.5301772609
 Effective masses along directions: (cart. coord. / red. coord. -> eff. mass)
    1:   1.000000  0.000000  0.000000 /   1.000000  0.000000  0.000000 ->  -7.1581751056
    2:   0.000000  1.000000  0.000000 /   0.000000  1.000000  0.000000 ->  -3.4120677430
    3:   0.000000  0.000000  1.000000 /   0.000000  0.000000  1.000000 ->  -2.0943611703
    4:   0.577350  0.577350  0.577350 /   0.652235  0.652235  0.386238 ->  -3.2957964378
    5:   0.000000  0.707107  0.707107 /   0.000000  0.860449  0.509537 ->  -2.5955486955
    6:   0.707107  0.000000  0.707107 /   0.860449  0.000000  0.509537 ->  -3.2405825915
    7:   0.707107  0.707107  0.000000 /   0.707107  0.707107  0.000000 ->  -4.6213088433

 K-point ( 0.500, 0.500, 0.000) | band =    33
 Effective mass tensor:
              0.4730414497             -0.0000007123              0.0000001870
             -0.0000007123              0.4730427937              0.0000008967
              0.0000001870              0.0000008967              4.5492600085
 Effective mass tensor eigenvalues:
              0.4730411424              0.4730431010              4.5492600085
 Angular average effective mass 1/(<1/m>)=   0.6744954195
 Angular average effective mass for Frohlich model (<m**0.5>)**2=   0.8149902345
 Effective masses along directions: (cart. coord. / red. coord. -> eff. mass)
    1:   1.000000  0.000000  0.000000 /   1.000000  0.000000  0.000000 ->   0.4730414497
    2:   0.000000  1.000000  0.000000 /   0.000000  1.000000  0.000000 ->   0.4730427937
    3:   0.000000  0.000000  1.000000 /   0.000000  0.000000  1.000000 ->   4.5492600085
    4:   0.577350  0.577350  0.577350 /   0.652235  0.652235  0.386238 ->   0.6744946067
    5:   0.000000  0.707107  0.707107 /   0.000000  0.860449  0.509537 ->   0.8569755815
    6:   0.707107  0.000000  0.707107 /   0.860449  0.000000  0.509537 ->   0.8569731338
    7:   0.707107  0.707107  0.000000 /   0.707107  0.707107  0.000000 ->   0.4730414094

 END OF EFFECTIVE MASSES SECTION

 ---- first-order wavefunction calculations are completed ----

 Total localisation tensor (bohr^2) in cartesian coordinates
  WARNING : still subject to testing - especially symmetries.
      direction              matrix element
   alpha     beta       real part   imaginary part
     1        1       1.0069230722    0.0000000000
     1        2       0.0000000000    0.0000000000
     1        3       0.0000000000    0.0000000000
     2        1       0.0000000000    0.0000000000
     2        2       0.9545404050    0.0000000000
     2        3       0.0000000000    0.0000000000
     3        1       0.0000000000    0.0000000000
     3        2       0.0000000000    0.0000000000
     3        3       1.0557115586    0.0000000000

 respfn : d/dk was computed, but no 2DTE, so no DDB output.

== END DATASET(S) ==============================================================

 -outvars: echo values of variables after computation  --------
            acell      1.0000000000E+00  1.0000000000E+00  1.0000000000E+00 Bohr
              amu      3.90983000E+01  1.95080000E+02  7.99040000E+01
             ecut      4.20000000E+01 Hartree
           etotal     -4.1788504920E+01
            fcart      0.0000000000E+00  0.0000000000E+00  0.0000000000E+00
                       0.0000000000E+00  0.0000000000E+00  0.0000000000E+00
                       0.0000000000E+00  0.0000000000E+00  0.0000000000E+00
                       0.0000000000E+00  0.0000000000E+00  0.0000000000E+00
                       0.0000000000E+00  0.0000000000E+00  0.0000000000E+00
                       0.0000000000E+00  0.0000000000E+00  0.0000000000E+00
                       0.0000000000E+00  0.0000000000E+00  0.0000000000E+00
-          fftalg         512
           irdden           1
           irdwfk           1
           istwfk        1    1
              ixc     -116133
              kpt      0.00000000E+00  5.00000000E-01  0.00000000E+00
                       5.00000000E-01  5.00000000E-01  0.00000000E+00
           kptopt           0
P           mkmem           2
P          mkqmem           2
P          mk1mem           2
            natom           7
            nband          41
           nbdbuf           4
            ngfft          90      90      48
             nkpt           2
            nstep        2000
             nsym          16
           ntypat           3
              occ      2.000000  2.000000  2.000000  2.000000  2.000000  2.000000
                       2.000000  2.000000  2.000000  2.000000  2.000000  2.000000
                       2.000000  2.000000  2.000000  2.000000  2.000000  2.000000
                       2.000000  2.000000  2.000000  2.000000  2.000000  2.000000
                       2.000000  2.000000  2.000000  2.000000  2.000000  2.000000
                       2.000000  2.000000  0.000000  0.000000  0.000000  0.000000
                       0.000000  0.000000  0.000000  0.000000  0.000000
        optdriver           1
            prtwf          -1
            rfdir           1       1       1
           rfelfd           2
            rprim      1.3818900889E+01  0.0000000000E+00  0.0000000000E+00
                       0.0000000000E+00  1.3818900889E+01  0.0000000000E+00
                       0.0000000000E+00  0.0000000000E+00  8.1832265842E+00
          spgroup         123
           strten      0.0000000000E+00  0.0000000000E+00  0.0000000000E+00
                       0.0000000000E+00  0.0000000000E+00  0.0000000000E+00
           symrel      1  0  0   0  1  0   0  0  1      -1  0  0   0 -1  0   0  0 -1
                      -1  0  0   0  1  0   0  0 -1       1  0  0   0 -1  0   0  0  1
                      -1  0  0   0 -1  0   0  0  1       1  0  0   0  1  0   0  0 -1
                       1  0  0   0 -1  0   0  0 -1      -1  0  0   0  1  0   0  0  1
                       0  1  0   1  0  0   0  0  1       0 -1  0  -1  0  0   0  0 -1
                       0 -1  0   1  0  0   0  0 -1       0  1  0  -1  0  0   0  0  1
                       0 -1  0  -1  0  0   0  0  1       0  1  0   1  0  0   0  0 -1
                       0  1  0  -1  0  0   0  0 -1       0 -1  0   1  0  0   0  0  1
           tolwfr      1.00000000E-20
            typat      1  1  2  3  3  3  3
           useylm           1
              wtk        0.50000    0.50000
           xangst      0.0000000000E+00  3.6563236990E+00  2.1651885005E+00
                       3.6563236990E+00  0.0000000000E+00  2.1651885005E+00
                       0.0000000000E+00  0.0000000000E+00  0.0000000000E+00
                       5.5931076130E+00  5.5931076130E+00  0.0000000000E+00
                       1.7195397851E+00  1.7195397851E+00  0.0000000000E+00
                       5.5931076130E+00  1.7195397851E+00  0.0000000000E+00
                       1.7195397851E+00  5.5931076130E+00  0.0000000000E+00
            xcart      0.0000000000E+00  6.9094504443E+00  4.0916132921E+00
                       6.9094504443E+00  0.0000000000E+00  4.0916132921E+00
                       0.0000000000E+00  0.0000000000E+00  0.0000000000E+00
                       1.0569441620E+01  1.0569441620E+01  0.0000000000E+00
                       3.2494592684E+00  3.2494592684E+00  0.0000000000E+00
                       1.0569441620E+01  3.2494592684E+00  0.0000000000E+00
                       3.2494592684E+00  1.0569441620E+01  0.0000000000E+00
             xred      0.0000000000E+00  5.0000000000E-01  5.0000000000E-01
                       5.0000000000E-01  0.0000000000E+00  5.0000000000E-01
                       0.0000000000E+00  0.0000000000E+00  0.0000000000E+00
                       7.6485400000E-01  7.6485400000E-01  0.0000000000E+00
                       2.3514600000E-01  2.3514600000E-01  0.0000000000E+00
                       7.6485400000E-01  2.3514600000E-01  0.0000000000E+00
                       2.3514600000E-01  7.6485400000E-01  0.0000000000E+00
            znucl       19.00000   78.00000   35.00000

- Timing analysis has been suppressed with timopt=0

 Suggested references for the acknowledgment of ABINIT usage.

 Calculation completed.
.Delivered  14 WARNINGs and   9 COMMENTs to log file.