.Version 9.5.2 of ABINIT

 ABINIT is a project of the Universite Catholique de Louvain,
 Corning Inc. and other collaborators, see ~abinit/doc/developers/contributors.txt .
 acknowledgments of the ABINIT effort.

.Starting date : Tue 25 May 2021.
- ( at 11h17 )

- input  file    -> /scratch/users/j/a/jabreu/flow_simple_10atoms/flow/w429/t1/run.abi
- output file    -> /scratch/users/j/a/jabreu/flow_simple_10atoms/flow/w429/t1/run.abo
- root for input  files -> /scratch/users/j/a/jabreu/flow_simple_10atoms/flow/w429/t1/indata/in
- root for output files -> /scratch/users/j/a/jabreu/flow_simple_10atoms/flow/w429/t1/outdata/out

 Symmetries : space group I4/m m m (#139); Bravais tI (body-center tetrag.)
     intxc =       0      iscf =       7    lmnmax =      32     lnmax =       8
     mgfft =      90  mpssoang =       4    mqgrid =    3529     natom =      10
  nloc_mem =       1    nspden =       1   nspinor =       1    nsppol =       1
      nsym =      16    n1xccc =    2501    ntypat =       3    occopt =       1
   xclevel =       2
-    mband =          58        mffmem =           1         mkmem =           2
-   mkqmem =           2        mk1mem =           2           mpw =       29897
      nfft =      729000          nkpt =           2
  Rough estimation (10% accuracy) of disk space for files :

------------- Echo of variables that govern the present computation ------------
-
- outvars: echo of selected default values
-   iomode0 =  0 , fftalg0 =512 , wfoptalg0 =  0
-
- outvars: echo of global parameters not present in the input file
-  max_nthreads =    0
-
 -outvars: echo values of preprocessed input variables --------
            acell      1.0000000000E+00  1.0000000000E+00  1.0000000000E+00 Bohr
              amu      1.32905430E+02  1.96966540E+02  1.26904470E+02
             ecut      3.80000000E+01 Hartree
-          fftalg         512
           irdden           1
           irdwfk           1
              ixc     -116133
              kpt     -2.15772025E-01  2.15772025E-01  2.15772025E-01
                      -2.37349228E-01  2.37349228E-01  2.37349228E-01
           kptopt           0
P           mkmem           2
P          mkqmem           2
P          mk1mem           2
            natom          10
            nband          58
           nbdbuf           4
            ngfft          90      90      90
             nkpt           2
            nstep        2000
             nsym          16
           ntypat           3
              occ      2.000000  2.000000  2.000000  2.000000  2.000000  2.000000
                       2.000000  2.000000  2.000000  2.000000  2.000000  2.000000
                       2.000000  2.000000  2.000000  2.000000  2.000000  2.000000
                       2.000000  2.000000  2.000000  2.000000  2.000000  2.000000
                       2.000000  2.000000  2.000000  2.000000  2.000000  2.000000
                       2.000000  2.000000  2.000000  2.000000  2.000000  2.000000
                       2.000000  2.000000  2.000000  2.000000  2.000000  2.000000
                       2.000000  2.000000  2.000000  2.000000  2.000000  2.000000
                       2.000000  0.000000  0.000000  0.000000  0.000000  0.000000
                       0.000000  0.000000  0.000000  0.000000
        optdriver           1
            prtwf          -1
            rfdir           1       1       1
           rfelfd           2
            rprim      1.3412051391E+01  0.0000000000E+00 -8.0991350049E+00
                      -4.2711050846E+00  1.2713802888E+01 -8.0991350049E+00
                       0.0000000000E+00  0.0000000000E+00  1.5667772986E+01
          spgroup         139
           symrel      1  0  0   0  1  0   0  0  1      -1  0  0   0 -1  0   0  0 -1
                       0  0  1  -1 -1 -1   1  0  0       0  0 -1   1  1  1  -1  0  0
                       0  1  0   1  0  0  -1 -1 -1       0 -1  0  -1  0  0   1  1  1
                      -1 -1 -1   0  0  1   0  1  0       1  1  1   0  0 -1   0 -1  0
                       0  1  0   1  0  0   0  0  1       0 -1  0  -1  0  0   0  0 -1
                       0  0  1  -1 -1 -1   0  1  0       0  0 -1   1  1  1   0 -1  0
                       1  0  0   0  1  0  -1 -1 -1      -1  0  0   0 -1  0   1  1  1
                      -1 -1 -1   0  0  1   1  0  0       1  1  1   0  0 -1  -1  0  0
           tolwfr      1.00000000E-20
            typat      1  1  2  2  3  3  3  3  3  3
           useylm           1
              wtk        0.50000    0.50000
           xangst      7.9209379494E-02  5.0458910422E+00 -1.4036346700E-01
                       4.7579710710E+00  1.6819636807E+00 -1.4036346700E-01
                       2.4185902253E+00  3.3639273615E+00 -4.2858776539E+00
                       0.0000000000E+00  0.0000000000E+00  0.0000000000E+00
                      -8.2572842275E-02  5.1622089226E+00 -4.2858776539E+00
                       3.4801433354E+00  4.8404021754E+00 -6.1670093585E+00
                       4.9197532928E+00  1.5656458004E+00 -4.2858776539E+00
                       1.3570371151E+00  1.8874525476E+00 -2.4047459493E+00
                       3.7115153507E+00  5.1622089226E+00 -2.1448121924E+00
                       1.1256650998E+00  1.5656458004E+00  1.8640852583E+00
            xcart      1.4968403440E-01  9.5353521662E+00 -2.6524851170E-01
                       8.9912622724E+00  3.1784507221E+00 -2.6524851170E-01
                       4.5704731534E+00  6.3569014442E+00 -8.0991350049E+00
                       0.0000000000E+00  0.0000000000E+00  0.0000000000E+00
                      -1.5604005791E-01  9.7551611044E+00 -8.0991350049E+00
                       6.5765178071E+00  9.1470344846E+00 -1.1653958746E+01
                       9.2969863647E+00  2.9586417839E+00 -8.0991350049E+00
                       2.5644284997E+00  3.5667684037E+00 -4.5443112634E+00
                       7.0137475508E+00  9.7551611044E+00 -4.0531076500E+00
                       2.1271987560E+00  2.9586417839E+00  3.5226106266E+00
             xred      2.5000000000E-01  7.5000000000E-01  5.0000000000E-01
                       7.5000000000E-01  2.5000000000E-01  5.0000000000E-01
                       5.0000000000E-01  5.0000000000E-01  5.5511151231E-17
                       0.0000000000E+00  0.0000000000E+00  0.0000000000E+00
                       2.3271100000E-01  7.6728900000E-01  4.7704895589E-17
                       7.1945700000E-01  7.1945700000E-01  5.5511151231E-17
                       7.6728900000E-01  2.3271100000E-01  5.5511151231E-17
                       2.8054300000E-01  2.8054300000E-01  1.3877787808E-17
                       7.6728900000E-01  7.6728900000E-01  5.3457800000E-01
                       2.3271100000E-01  2.3271100000E-01  4.6542200000E-01
            znucl       55.00000   79.00000   53.00000

 chkinp: Checking input parameters for consistency.

== DATASET  1 ==================================================================
-   mpi_nproc: 1, omp_nthreads: -1 (-1 if OMP is not activated)

--- !DatasetInfo
iteration_state: {dtset: 1, }
dimensions: {natom: 10, nkpt: 2, mband: 58, nsppol: 1, nspinor: 1, nspden: 1, mpw: 29897, }
cutoff_energies: {ecut:  38.0, pawecutdg:  -1.0, }
electrons: {nelect:   9.80000000E+01, charge:   0.00000000E+00, occopt:   1.00000000E+00, tsmear:   1.00000000E-02, }
meta: {optdriver: 1, rfelfd: 2, }
...

 Real(R)+Recip(G) space primitive vectors, cartesian coordinates (Bohr,Bohr^-1):
 R(1)= 13.4120514  0.0000000 -8.0991350  G(1)=  0.0745598  0.0250478  0.0000000
 R(2)= -4.2711051 12.7138029 -8.0991350  G(2)=  0.0000000  0.0786547  0.0000000
 R(3)=  0.0000000  0.0000000 15.6677730  G(3)=  0.0385422  0.0536069  0.0638253
 Unit cell volume ucvol=  2.6716401E+03 bohr^3
 Angles (23,13,12)=  1.21126517E+02  1.21126517E+02  8.80596444E+01 degrees

 getcut: wavevector=  0.0000  0.0000  0.0000  ngfft=  90  90  90
         ecut(hartree)=     38.000   => boxcut(ratio)=   2.07018

--- Pseudopotential description ------------------------------------------------
- pspini: atom type   1  psp file is /scratch/users/j/a/jabreu/pseudos/PBEsol/Cs.psp8
- pspatm: opening atomic psp file    /scratch/users/j/a/jabreu/pseudos/PBEsol/Cs.psp8
- Cs    ONCVPSP-3.3.0  r_core=   2.27353   1.85623   2.01788   1.90105
- 55.00000   9.00000    180112                znucl, zion, pspdat
    8 -116133    3    4       600   0.00000   pspcod,pspxc,lmax,lloc,mmax,r2well
    5.99000000000000    5.00000000000000    0.00000000000000   rchrg,fchrg,qchrg
     nproj     2     2     2     2
     extension_switch     1
  pspatm : epsatm=   22.12462445
         --- l  ekb(1:nproj) -->
             0    6.214110    0.767882
             1    6.311966    0.793598
             2    3.769790    0.913105
             3   -9.247129   -2.432478
 pspatm: atomic psp has been read  and splines computed

- pspini: atom type   2  psp file is /scratch/users/j/a/jabreu/pseudos/PBEsol/Au.psp8
- pspatm: opening atomic psp file    /scratch/users/j/a/jabreu/pseudos/PBEsol/Au.psp8
- Au    ONCVPSP-3.3.0  r_core=   1.45604   1.56407   1.56407   1.60183
- 79.00000  19.00000    180112                znucl, zion, pspdat
    8 -116133    3    4       500   0.00000   pspcod,pspxc,lmax,lloc,mmax,r2well
    4.99000000000000    5.00000000000000    0.00000000000000   rchrg,fchrg,qchrg
     nproj     2     2     2     1
     extension_switch     1
  pspatm : epsatm=   32.21965837
         --- l  ekb(1:nproj) -->
             0    9.413866   -0.196587
             1    2.474292   -1.517497
             2    1.503483    0.298081
             3    1.177996
 pspatm: atomic psp has been read  and splines computed

- pspini: atom type   3  psp file is /scratch/users/j/a/jabreu/pseudos/PBEsol/I.psp8
- pspatm: opening atomic psp file    /scratch/users/j/a/jabreu/pseudos/PBEsol/I.psp8
- I     ONCVPSP-3.3.0  r_core=   2.02042   2.17032   2.27639
- 53.00000   7.00000    180112                znucl, zion, pspdat
    8 -116133    2    4       600   0.00000   pspcod,pspxc,lmax,lloc,mmax,r2well
    5.99000000000000    4.00000000000000    0.00000000000000   rchrg,fchrg,qchrg
     nproj     2     2     2
     extension_switch     1
  pspatm : epsatm=   18.14229533
         --- l  ekb(1:nproj) -->
             0    6.015861    0.935228
             1    4.063749    0.754139
             2    4.149534    0.722940
 pspatm: atomic psp has been read  and splines computed

   2.13191491E+04                                ecore*ucvol(ha*bohr**3)

 ==>  initialize data related to q vector <==

 The list of irreducible perturbations for this q vector is:
    1)    idir= 1    ipert=  11
    2)    idir= 2    ipert=  11
    3)    idir= 3    ipert=  11

 Perturbation wavevector (in red.coord.)   0.000000  0.000000  0.000000
 Perturbation : derivative vs k along direction   1

 dfpt_looppert : COMMENT -
  In a d/dk calculation, iscf is set to -3 automatically.
 The set of symmetries contains only one element for this perturbation.
 symkpt : not enough symmetry to change the number of k points.

 Initialisation of the first-order wave-functions :
  ireadwf=   0

--- !BeginCycle
iteration_state: {dtset: 1, }
[...]
 ETOT 25  -34.879787048351      0.000E+00 1.404E-20 0.000E+00
 ETOT 26  -34.879787048351      7.105E-15 9.986E-21 0.000E+00

 At SCF step   26   max residual=  9.99E-21 < tolwfr=  1.00E-20 =>converged.

 ----iterations are completed or convergence reached----

 dfpt_looppert: DFPT cycle converged with prtwf=-1. Will skip output of the 1st-order WFK file.
 dfpt_looppert : ek2=    4.7870157918E+01
          f-sum rule ratio=    1.3142131991E+00
 prteigrs : about to open file /scratch/users/j/a/jabreu/flow_simple_10atoms/flow/w429/t1/tmpdata/tmp_1WF1_EIG
 Expectation of eigenvalue derivatives (hartree) for nkpt=   2  k points:
  (in case of degenerate eigenvalues, averaged derivative)
 kpt#   1, nband= 58, wtk=  0.50000, kpt= -0.2158  0.2158  0.2158 (reduced coord)
  -0.00000   -0.00000   -0.00000   -0.00000   -0.00000   -0.00000    0.00000    0.00000
  -0.00000   -0.00000   -0.00000    0.00000   -0.00000    0.00000    0.00000   -0.00000
   0.00000   -0.00000    0.00000    0.00000   -0.00000    0.00000   -0.00000    0.00000
   0.00000    0.00000    0.00000    0.00000   -0.00000   -0.00000   -0.00000    0.00000
  -0.00000   -0.00000    0.00000   -0.00000    0.00000    0.00000   -0.00000   -0.00000
   0.00000    0.00000   -0.00000    0.00000    0.00000   -0.00000    0.00000   -0.00000
  -0.00000    0.00000   -0.00000    0.00000   -0.00000    0.00000    0.00000    0.00000
   0.00000   -0.00000
 prteigrs : prtvol=0 or 1, do not print more k-points.

 Eight components of 2nd-order total energy (hartree) are
 1,2,3: 0th-order hamiltonian combined with 1st-order wavefunctions
     kin0=   3.63306099E+01 eigvalue=   7.68034412E-01  local=  -2.20174303E+01
 4,5,6: 1st-order hamiltonian combined with 1st and 0th-order wfs
     kin1=  -6.29115934E+01  Hartree=   0.00000000E+00     xc=   0.00000000E+00
 7,8,9: eventually, occupation + non-local contributions
    edocc=   1.45655366E+01     enl0=   5.23303642E+00   enl1=  -6.84798072E+00
 1-9 gives the relaxation energy (to be shifted if some occ is /=2.0)
   erelax=  -3.48797870E+01
  No Ewald or frozen-wf contrib.: the relaxation energy is the total one
 2DEtotal=   -0.3487978705E+02 Ha. Also 2DEtotal=   -0.949127274328E+03 eV
    (  non-var. 2DEtotal :   -3.4879787048E+01 Ha)

 Perturbation wavevector (in red.coord.)   0.000000  0.000000  0.000000
 Perturbation : derivative vs k along direction   2
 The set of symmetries contains only one element for this perturbation.
 symkpt : not enough symmetry to change the number of k points.

[...]

 Perturbation wavevector (in red.coord.)   0.000000  0.000000  0.000000
 Perturbation : derivative vs k along direction   3
 The set of symmetries contains only one element for this perturbation.
 symkpt : not enough symmetry to change the number of k points.

 Initialisation of the first-order wave-functions :
  ireadwf=   0

--- !BeginCycle
iteration_state: {dtset: 1, }
solver: {iscf: 7, nstep: 2000, nline: 4, wfoptalg: 0, }
tolerances: {tolwfr: 1.00E-20, }
...

     iter   2DEtotal(Ha)        deltaE(Ha) residm    vres2
-ETOT  1  -45.922550963386     -4.592E+01 1.872E-02 0.000E+00
 ETOT  2  -45.946666435703     -2.412E-02 1.878E-03 0.000E+00
 ETOT  3  -45.947244589534     -5.782E-04 1.041E-04 0.000E+00
 ETOT  4  -45.947291325129     -4.674E-05 1.729E-05 0.000E+00
 ETOT  5  -45.947295820982     -4.496E-06 1.799E-06 0.000E+00
 ETOT  6  -45.947296296055     -4.751E-07 4.729E-07 0.000E+00
 ETOT  7  -45.947296348419     -5.236E-08 6.127E-08 0.000E+00
 ETOT  8  -45.947296354359     -5.940E-09 1.558E-08 0.000E+00
 ETOT  9  -45.947296355052     -6.928E-10 2.230E-09 0.000E+00
 ETOT 10  -45.947296355133     -8.164E-11 5.833E-10 0.000E+00
 ETOT 11  -45.947296355143     -1.001E-11 8.192E-11 0.000E+00
 ETOT 12  -45.947296355145     -1.279E-12 2.193E-11 0.000E+00
 ETOT 13  -45.947296355145     -2.132E-13 3.034E-12 0.000E+00
 ETOT 14  -45.947296355145      7.105E-15 8.279E-13 0.000E+00
 ETOT 15  -45.947296355145      2.842E-14 1.131E-13 0.000E+00
 ETOT 16  -45.947296355145     -6.395E-14 3.135E-14 0.000E+00
 ETOT 17  -45.947296355145      7.816E-14 4.238E-15 0.000E+00
 ETOT 18  -45.947296355145     -1.421E-14 1.190E-15 0.000E+00
 ETOT 19  -45.947296355145      2.132E-14 1.594E-16 0.000E+00
 ETOT 20  -45.947296355145     -4.974E-14 4.524E-17 0.000E+00
 ETOT 21  -45.947296355145     -4.263E-14 6.013E-18 0.000E+00
 ETOT 22  -45.947296355145      0.000E+00 1.722E-18 0.000E+00
 ETOT 23  -45.947296355145      0.000E+00 2.274E-19 0.000E+00
 ETOT 24  -45.947296355145     -1.421E-14 6.562E-20 0.000E+00
 ETOT 25  -45.947296355145      0.000E+00 9.988E-21 0.000E+00

 At SCF step   25   max residual=  9.99E-21 < tolwfr=  1.00E-20 =>converged.

 ----iterations are completed or convergence reached----

 dfpt_looppert: DFPT cycle converged with prtwf=-1. Will skip output of the 1st-order WFK file.
 dfpt_looppert : ek2=    6.5251545860E+01
          f-sum rule ratio=    1.2690275876E+00
 prteigrs : about to open file /scratch/users/j/a/jabreu/flow_simple_10atoms/flow/w429/t1/tmpdata/tmp_1WF1_EIG
 Expectation of eigenvalue derivatives (hartree) for nkpt=   2  k points:
  (in case of degenerate eigenvalues, averaged derivative)
 kpt#   1, nband= 58, wtk=  0.50000, kpt= -0.2158  0.2158  0.2158 (reduced coord)
   0.00000    0.00000   -0.00000   -0.00000    0.00000    0.00000   -0.00000   -0.00000
   0.00018   -0.00015    0.02018   -0.02500    0.00250   -0.00320   -0.00109   -0.00008
   0.00463    0.00587   -0.00014    0.00501    0.00406    0.00107    0.05849    0.00401
  -0.01556    0.00089   -0.04509    0.01000    0.01238   -0.01659   -0.01473   -0.01316
  -0.00500    0.02795    0.00816    0.08771   -0.03600   -0.03271   -0.00758   -0.01830
  -0.00139   -0.06075    0.00553   -0.00802   -0.02530   -0.04163   -0.03001    0.01345
  -0.01191   -0.05017    0.08388   -0.06596    0.11219    0.11414    0.09673    0.07946
   0.08097    0.06951
 prteigrs : prtvol=0 or 1, do not print more k-points.

 Eight components of 2nd-order total energy (hartree) are
 1,2,3: 0th-order hamiltonian combined with 1st-order wavefunctions
     kin0=   5.00667685E+01 eigvalue=   1.13699484E+00  local=  -3.06391772E+01
 4,5,6: 1st-order hamiltonian combined with 1st and 0th-order wfs
     kin1=  -8.28060118E+01  Hartree=   0.00000000E+00     xc=   0.00000000E+00
 7,8,9: eventually, occupation + non-local contributions
    edocc=   1.78701213E+01     enl0=   7.51258894E+00   enl1=  -9.08858088E+00
 1-9 gives the relaxation energy (to be shifted if some occ is /=2.0)
   erelax=  -4.59472964E+01
  No Ewald or frozen-wf contrib.: the relaxation energy is the total one
 2DEtotal=   -0.4594729636E+02 Ha. Also 2DEtotal=   -0.125028951845E+04 eV
    (  non-var. 2DEtotal :   -4.5947296355E+01 Ha)

 CALCULATION OF EFFECTIVE MASSES
 NOTE : Additional infos (eff. mass eigenvalues, eigenvectors and, if degenerate, average mass) are available in stdout.

 K-point (-0.216, 0.216, 0.216) | band =    49
 Effective mass tensor:
             -0.5865363382             -0.6867012000              0.9514555729
             -0.6867012000             -1.1835720761              1.2168730766
              0.9514555729              1.2168730766             -1.7356472253
 Effective mass tensor eigenvalues:
             -3.2276762366             -0.2284648656             -0.0496145373
 Angular average effective mass 1/(<1/m>)=  -0.1207620374
 Angular average effective mass for Frohlich model (<m**0.5>)**2=  -0.1963910998
 Effective masses along directions: (cart. coord. / red. coord. -> eff. mass)
    1:   1.000000  0.000000  0.000000 /   0.952851 -0.303438  0.000000 ->  -0.0637965805
    2:   0.000000  1.000000  0.000000 /   0.000000  1.000000  0.000000 ->  -0.3244832651
    3:   0.000000  0.000000  1.000000 /  -0.417309 -0.417309  0.807284 ->  -0.1643223439
    4:   0.577350  0.577350  0.577350 /   0.321068  0.020762  0.946829 ->  -0.0711578564
    5:   0.000000  0.707107  0.707107 /  -0.444250  0.253122  0.859402 ->  -0.1604129996
    6:   0.707107  0.000000  0.707107 /   0.257192 -0.598828  0.758457 ->  -0.0531349141
    7:   0.707107  0.707107  0.000000 /   0.846288  0.532726  0.000000 ->  -0.1183839776

 K-point (-0.237, 0.237, 0.237) | band =    50
 Effective mass tensor:
              0.9015103942              1.1390460633             -1.5068295368
              1.1390460633              1.7653541633             -2.0184533923
             -1.5068295368             -2.0184533923              2.7213683562
 Effective mass tensor eigenvalues:
              0.0511820067              0.1810973820              5.1559535250
 Angular average effective mass 1/(<1/m>)=   0.1187932608
 Angular average effective mass for Frohlich model (<m**0.5>)**2=   0.1913493340
 Effective masses along directions: (cart. coord. / red. coord. -> eff. mass)
    1:   1.000000  0.000000  0.000000 /   0.952851 -0.303438  0.000000 ->   0.0654637418
    2:   0.000000  1.000000  0.000000 /   0.000000  1.000000  0.000000 ->   0.2614246820
    3:   0.000000  0.000000  1.000000 /  -0.417309 -0.417309  0.807284 ->   0.1625188400
    4:   0.577350  0.577350  0.577350 /   0.321068  0.020762  0.946829 ->   0.0710154580
    5:   0.000000  0.707107  0.707107 /  -0.444250  0.253122  0.859402 ->   0.1398430638
    6:   0.707107  0.000000  0.707107 /   0.257192 -0.598828  0.758457 ->   0.0547412943
    7:   0.707107  0.707107  0.000000 /   0.846288  0.532726  0.000000 ->   0.1200404848

 END OF EFFECTIVE MASSES SECTION

 ---- first-order wavefunction calculations are completed ----

 Total localisation tensor (bohr^2) in cartesian coordinates
  WARNING : still subject to testing - especially symmetries.
      direction              matrix element
   alpha     beta       real part   imaginary part
     1        1      12.4750135852    0.0000000000
     1        2      -0.7868170468    0.0000000000
     1        3      -6.8724381302    0.0000000000
     2        1      -0.7868170468    0.0000000000
     2        2       2.3421191106    0.0000000000
     2        3      -1.4920114022    0.0000000000
     3        1      -6.8724381302    0.0000000000
     3        2      -1.4920114022    0.0000000000
     3        3      24.3527997570    0.0000000000

 respfn : d/dk was computed, but no 2DTE, so no DDB output.

== END DATASET(S) ==============================================================

 -outvars: echo values of variables after computation  --------
            acell      1.0000000000E+00  1.0000000000E+00  1.0000000000E+00 Bohr
              amu      1.32905430E+02  1.96966540E+02  1.26904470E+02
             ecut      3.80000000E+01 Hartree
           etotal     -4.5947296355E+01
            fcart      0.0000000000E+00  0.0000000000E+00  0.0000000000E+00
                       0.0000000000E+00  0.0000000000E+00  0.0000000000E+00
                       0.0000000000E+00  0.0000000000E+00  0.0000000000E+00
                       0.0000000000E+00  0.0000000000E+00  0.0000000000E+00
                       0.0000000000E+00  0.0000000000E+00  0.0000000000E+00
                       0.0000000000E+00  0.0000000000E+00  0.0000000000E+00
                       0.0000000000E+00  0.0000000000E+00  0.0000000000E+00
                       0.0000000000E+00  0.0000000000E+00  0.0000000000E+00
                       0.0000000000E+00  0.0000000000E+00  0.0000000000E+00
                       0.0000000000E+00  0.0000000000E+00  0.0000000000E+00
-          fftalg         512
           irdden           1
           irdwfk           1
              ixc     -116133
              kpt     -2.15772025E-01  2.15772025E-01  2.15772025E-01
                      -2.37349228E-01  2.37349228E-01  2.37349228E-01
           kptopt           0
P           mkmem           2
P          mkqmem           2
P          mk1mem           2
            natom          10
            nband          58
           nbdbuf           4
            ngfft          90      90      90
             nkpt           2
            nstep        2000
             nsym          16
           ntypat           3
              occ      2.000000  2.000000  2.000000  2.000000  2.000000  2.000000
                       2.000000  2.000000  2.000000  2.000000  2.000000  2.000000
                       2.000000  2.000000  2.000000  2.000000  2.000000  2.000000
                       2.000000  2.000000  2.000000  2.000000  2.000000  2.000000
                       2.000000  2.000000  2.000000  2.000000  2.000000  2.000000
                       2.000000  2.000000  2.000000  2.000000  2.000000  2.000000
                       2.000000  2.000000  2.000000  2.000000  2.000000  2.000000
                       2.000000  2.000000  2.000000  2.000000  2.000000  2.000000
                       2.000000  0.000000  0.000000  0.000000  0.000000  0.000000
                       0.000000  0.000000  0.000000  0.000000
        optdriver           1
            prtwf          -1
            rfdir           1       1       1
           rfelfd           2
            rprim      1.3412051391E+01  0.0000000000E+00 -8.0991350049E+00
                      -4.2711050846E+00  1.2713802888E+01 -8.0991350049E+00
                       0.0000000000E+00  0.0000000000E+00  1.5667772986E+01
          spgroup         139
           strten      0.0000000000E+00  0.0000000000E+00  0.0000000000E+00
                       0.0000000000E+00  0.0000000000E+00  0.0000000000E+00
           symrel      1  0  0   0  1  0   0  0  1      -1  0  0   0 -1  0   0  0 -1
                       0  0  1  -1 -1 -1   1  0  0       0  0 -1   1  1  1  -1  0  0
                       0  1  0   1  0  0  -1 -1 -1       0 -1  0  -1  0  0   1  1  1
                      -1 -1 -1   0  0  1   0  1  0       1  1  1   0  0 -1   0 -1  0
                       0  1  0   1  0  0   0  0  1       0 -1  0  -1  0  0   0  0 -1
                       0  0  1  -1 -1 -1   0  1  0       0  0 -1   1  1  1   0 -1  0
                       1  0  0   0  1  0  -1 -1 -1      -1  0  0   0 -1  0   1  1  1
                      -1 -1 -1   0  0  1   1  0  0       1  1  1   0  0 -1  -1  0  0
           tolwfr      1.00000000E-20
            typat      1  1  2  2  3  3  3  3  3  3
           useylm           1
              wtk        0.50000    0.50000
           xangst      7.9209379494E-02  5.0458910422E+00 -1.4036346700E-01
                       4.7579710710E+00  1.6819636807E+00 -1.4036346700E-01
                       2.4185902253E+00  3.3639273615E+00 -4.2858776539E+00
                       0.0000000000E+00  0.0000000000E+00  0.0000000000E+00
                      -8.2572842275E-02  5.1622089226E+00 -4.2858776539E+00
                       3.4801433354E+00  4.8404021754E+00 -6.1670093585E+00
                       4.9197532928E+00  1.5656458004E+00 -4.2858776539E+00
                       1.3570371151E+00  1.8874525476E+00 -2.4047459493E+00
                       3.7115153507E+00  5.1622089226E+00 -2.1448121924E+00
                       1.1256650998E+00  1.5656458004E+00  1.8640852583E+00
            xcart      1.4968403440E-01  9.5353521662E+00 -2.6524851170E-01
                       8.9912622724E+00  3.1784507221E+00 -2.6524851170E-01
                       4.5704731534E+00  6.3569014442E+00 -8.0991350049E+00
                       0.0000000000E+00  0.0000000000E+00  0.0000000000E+00
                      -1.5604005791E-01  9.7551611044E+00 -8.0991350049E+00
                       6.5765178071E+00  9.1470344846E+00 -1.1653958746E+01
                       9.2969863647E+00  2.9586417839E+00 -8.0991350049E+00
                       2.5644284997E+00  3.5667684037E+00 -4.5443112634E+00
                       7.0137475508E+00  9.7551611044E+00 -4.0531076500E+00
                       2.1271987560E+00  2.9586417839E+00  3.5226106266E+00
             xred      2.5000000000E-01  7.5000000000E-01  5.0000000000E-01
                       7.5000000000E-01  2.5000000000E-01  5.0000000000E-01
                       5.0000000000E-01  5.0000000000E-01  5.5511151231E-17
                       0.0000000000E+00  0.0000000000E+00  0.0000000000E+00
                       2.3271100000E-01  7.6728900000E-01  4.7704895589E-17
                       7.1945700000E-01  7.1945700000E-01  5.5511151231E-17
                       7.6728900000E-01  2.3271100000E-01  5.5511151231E-17
                       2.8054300000E-01  2.8054300000E-01  1.3877787808E-17
                       7.6728900000E-01  7.6728900000E-01  5.3457800000E-01
                       2.3271100000E-01  2.3271100000E-01  4.6542200000E-01
            znucl       55.00000   79.00000   53.00000

- Timing analysis has been suppressed with timopt=0

 Suggested references for the acknowledgment of ABINIT usage.

 Calculation completed.
.Delivered   2 WARNINGs and   7 COMMENTs to log file.