.Version 9.5.1 of ABINIT

 ABINIT is a project of the Universite Catholique de Louvain,
 Corning Inc. and other collaborators, see ~abinit/doc/developers/contributors.txt .
 acknowledgments of the ABINIT effort.

.Starting date : Wed 19 May 2021.
- ( at 01h20 )

- input  file    -> /scratch/users/j/a/jabreu/flow_simple_8atoms/flow/w414/t1/run.abi
- output file    -> /scratch/users/j/a/jabreu/flow_simple_8atoms/flow/w414/t1/run.abo
- root for input  files -> /scratch/users/j/a/jabreu/flow_simple_8atoms/flow/w414/t1/indata/in
- root for output files -> /scratch/users/j/a/jabreu/flow_simple_8atoms/flow/w414/t1/outdata/out

 Symmetries : space group I-4 2 d (#122); Bravais tI (body-center tetrag.)
     intxc =       0      iscf =       7    lmnmax =      18     lnmax =       6
     mgfft =      90  mpssoang =       3    mqgrid =    3090     natom =       8
  nloc_mem =       1    nspden =       1   nspinor =       1    nsppol =       1
      nsym =       8    n1xccc =    2501    ntypat =       3    occopt =       1
   xclevel =       2
-    mband =          73        mffmem =           1         mkmem =           1
-   mkqmem =           1        mk1mem =           1           mpw =       21563
      nfft =      729000          nkpt =           1
  Rough estimation (10% accuracy) of disk space for files :

------------- Echo of variables that govern the present computation ------------
-
- outvars: echo of selected default values
-   iomode0 =  0 , fftalg0 =512 , wfoptalg0 =  0
-
- outvars: echo of global parameters not present in the input file
-  max_nthreads =    0
-
 -outvars: echo values of preprocessed input variables --------
            acell      1.0000000000E+00  1.0000000000E+00  1.0000000000E+00 Bohr
              amu      6.97230000E+01  6.35460000E+01  1.27600000E+02
             ecut      4.60000000E+01 Hartree
-          fftalg         512
           irdden           1
           irdwfk           1
           istwfk        1
              ixc     -116133
           kptopt           0
P           mkmem           1
P          mkqmem           1
P          mk1mem           1
            natom           8
            nband          73
           nbdbuf           4
            ngfft          90      90      90
             nkpt           1
            nstep        2000
             nsym           8
           ntypat           3
              occ      2.000000  2.000000  2.000000  2.000000  2.000000  2.000000
                       2.000000  2.000000  2.000000  2.000000  2.000000  2.000000
                       2.000000  2.000000  2.000000  2.000000  2.000000  2.000000
                       2.000000  2.000000  2.000000  2.000000  2.000000  2.000000
                       2.000000  2.000000  2.000000  2.000000  2.000000  2.000000
                       2.000000  2.000000  2.000000  2.000000  2.000000  2.000000
                       2.000000  2.000000  2.000000  2.000000  2.000000  2.000000
                       2.000000  2.000000  2.000000  2.000000  2.000000  2.000000
                       2.000000  2.000000  2.000000  2.000000  2.000000  2.000000
                       2.000000  2.000000  2.000000  2.000000  2.000000  2.000000
                       2.000000  2.000000  2.000000  2.000000  0.000000  0.000000
                       0.000000  0.000000  0.000000  0.000000  0.000000  0.000000
                       0.000000
        optdriver           1
            prtwf          -1
            rfdir           1       1       1
           rfelfd           2
            rprim      1.0329983417E+01  0.0000000000E+00 -9.2272795878E+00
                      -2.0696199045E+00  1.0120535107E+01 -9.2272795878E+00
                       0.0000000000E+00  0.0000000000E+00  1.3851037722E+01
          spgroup         122
           symrel      1  0  0   0  1  0   0  0  1       0  0  1  -1 -1 -1   1  0  0
                       0  1  0   1  0  0  -1 -1 -1      -1 -1 -1   0  0  1   0  1  0
                       0  1  0   1  0  0   0  0  1       0  0  1  -1 -1 -1   0  1  0
                       1  0  0   0  1  0  -1 -1 -1      -1 -1 -1   0  0  1   1  0  0
            tnons      0.0000000  0.0000000  0.0000000    -0.2500000  0.2500000  0.5000000
                      -0.0000000  0.0000000  0.0000000    -0.2500000  0.2500000  0.5000000
                      -0.2500000  0.2500000  0.5000000     0.0000000  0.0000000  0.0000000
                      -0.2500000  0.2500000  0.5000000    -0.0000000  0.0000000  0.0000000
           tolwfr      1.00000000E-20
            typat      1  1  2  2  3  3  3  3
           useylm           1
           xangst      5.4520118440E-01  4.0166673879E+00 -1.2180393162E+00
                       2.1855980527E+00  2.6777782586E+00 -4.8828660552E+00
                       3.8259949210E+00  1.3388891293E+00 -1.2180393162E+00
                       0.0000000000E+00  0.0000000000E+00  0.0000000000E+00
                       3.8086566935E+00  4.7650367889E+00 -4.8441305513E+00
                       3.3601536236E+00  6.6944456464E-01 -3.6260912351E+00
                      -8.1756544573E-02  3.3472228232E+00  3.6314456303E+00
                       1.6553384383E+00  1.9294088575E+00 -3.3381108633E-02
            xcart      1.0302809258E+00  7.5904013299E+00 -2.3017607267E+00
                       4.1301817562E+00  5.0602675533E+00 -9.2272795878E+00
                       7.2300825865E+00  2.5301337767E+00 -2.3017607267E+00
                       0.0000000000E+00  0.0000000000E+00  0.0000000000E+00
                       7.1973180848E+00  9.0046145441E+00 -9.1540800939E+00
                       6.3497701131E+00  1.2650668883E+00 -6.8523193672E+00
                      -1.5449747881E-01  6.3253344416E+00  6.8624377078E+00
                       3.1281363057E+00  3.6460543391E+00 -6.3081153328E-02
             xred      2.5000000000E-01  7.5000000000E-01  5.0000000000E-01
                       5.0000000000E-01  5.0000000000E-01  0.0000000000E+00
                       7.5000000000E-01  2.5000000000E-01  5.0000000000E-01
                       0.0000000000E+00  0.0000000000E+00  0.0000000000E+00
                       8.7500000000E-01  8.8973700000E-01  5.1473700000E-01
                       6.3973700000E-01  1.2500000000E-01  1.4737000000E-02
                       1.1026300000E-01  6.2500000000E-01  9.8526300000E-01
                       3.7500000000E-01  3.6026300000E-01  4.8526300000E-01
            znucl       31.00000   29.00000   52.00000

 chkinp: Checking input parameters for consistency.

== DATASET  1 ==================================================================
-   mpi_nproc: 1, omp_nthreads: -1 (-1 if OMP is not activated)

--- !DatasetInfo
iteration_state: {dtset: 1, }
dimensions: {natom: 8, nkpt: 1, mband: 73, nsppol: 1, nspinor: 1, nspden: 1, mpw: 21563, }
cutoff_energies: {ecut:  46.0, pawecutdg:  -1.0, }
electrons: {nelect:   1.28000000E+02, charge:   0.00000000E+00, occopt:   1.00000000E+00, tsmear:   1.00000000E-02, }
meta: {optdriver: 1, rfelfd: 2, }
...

 Real(R)+Recip(G) space primitive vectors, cartesian coordinates (Bohr,Bohr^-1):
 R(1)= 10.3299834  0.0000000 -9.2272796  G(1)=  0.0968056  0.0197965  0.0000000
 R(2)= -2.0696199 10.1205351 -9.2272796  G(2)=  0.0000000  0.0988090  0.0000000
 R(3)=  0.0000000  0.0000000 13.8510377  G(3)=  0.0644899  0.0790125  0.0721968
 Unit cell volume ucvol=  1.4480562E+03 bohr^3
 Angles (23,13,12)=  1.31772889E+02  1.31772889E+02  7.05879608E+01 degrees

 getcut: wavevector=  0.0000  0.0000  0.0000  ngfft=  90  90  90
         ecut(hartree)=     46.000   => boxcut(ratio)=   2.12822

--- Pseudopotential description ------------------------------------------------
- pspini: atom type   1  psp file is /scratch/users/j/a/jabreu/pseudos/PBEsol/Ga.psp8
- pspatm: opening atomic psp file    /scratch/users/j/a/jabreu/pseudos/PBEsol/Ga.psp8
- Ga    ONCVPSP-3.3.0  r_core=   1.66857   1.75011   1.90252
- 31.00000  13.00000    180112                znucl, zion, pspdat
    8 -116133    2    4       600   0.00000   pspcod,pspxc,lmax,lloc,mmax,r2well
    5.99000000000000    5.00000000000000    0.00000000000000   rchrg,fchrg,qchrg
     nproj     2     2     2
     extension_switch     1
  pspatm : epsatm=   24.50969055
         --- l  ekb(1:nproj) -->
             0    7.053021    1.156713
             1    6.846070    1.293139
             2   -8.368667   -2.819170
 pspatm: atomic psp has been read  and splines computed

- pspini: atom type   2  psp file is /scratch/users/j/a/jabreu/pseudos/PBEsol/Cu.psp8
- pspatm: opening atomic psp file    /scratch/users/j/a/jabreu/pseudos/PBEsol/Cu.psp8
- Cu    ONCVPSP-3.3.0  r_core=   1.26204   1.45626   1.76249
- 29.00000  19.00000    180112                znucl, zion, pspdat
    8 -116133    2    4       600   0.00000   pspcod,pspxc,lmax,lloc,mmax,r2well
    5.99000000000000    3.50000000000000    0.00000000000000   rchrg,fchrg,qchrg
     nproj     2     2     2
     extension_switch     1
  pspatm : epsatm=   21.63488701
         --- l  ekb(1:nproj) -->
             0    5.008230   -0.401634
             1   -3.496700   -0.765945
             2   -6.895851   -2.521180
 pspatm: atomic psp has been read  and splines computed

- pspini: atom type   3  psp file is /scratch/users/j/a/jabreu/pseudos/PBEsol/Te.psp8
- pspatm: opening atomic psp file    /scratch/users/j/a/jabreu/pseudos/PBEsol/Te.psp8
- Te    ONCVPSP-3.3.0  r_core=   2.26547   1.91704   1.80604
- 52.00000  16.00000    180112                znucl, zion, pspdat
    8 -116133    2    4       600   0.00000   pspcod,pspxc,lmax,lloc,mmax,r2well
    5.99000000000000    5.00000000000000    0.00000000000000   rchrg,fchrg,qchrg
     nproj     2     2     2
     extension_switch     1
  pspatm : epsatm=   36.82679836
         --- l  ekb(1:nproj) -->
             0    6.345999    0.785432
             1    5.709019    1.070069
             2   -6.035173   -1.870937
 pspatm: atomic psp has been read  and splines computed

   3.06683326E+04                                ecore*ucvol(ha*bohr**3)

-inwffil : will read wavefunctions from disk file /scratch/users/j/a/jabreu/flow_simple_8atoms/flow/w414/t1/indata/in_WFK

 ==>  initialize data related to q vector <==

 The list of irreducible perturbations for this q vector is:
    1)    idir= 1    ipert=   9
    2)    idir= 2    ipert=   9
    3)    idir= 3    ipert=   9

 Perturbation wavevector (in red.coord.)   0.000000  0.000000  0.000000
 Perturbation : derivative vs k along direction   1

 dfpt_looppert : COMMENT -
  In a d/dk calculation, iscf is set to -3 automatically.
 The set of symmetries contains only one element for this perturbation.
 symkpt : not enough symmetry to change the number of k points.

[...]

 Initialisation of the first-order wave-functions :
  ireadwf=   0

--- !BeginCycle
iteration_state: {dtset: 1, }
solver: {iscf: 7, nstep: 2000, nline: 4, wfoptalg: 0, }
tolerances: {tolwfr: 1.00E-20, }
...

     iter   2DEtotal(Ha)        deltaE(Ha) residm    vres2
-ETOT  1  -125.23000071448     -1.252E+02 7.995E-02 0.000E+00
 ETOT  2  -125.46994652553     -2.399E-01 1.235E-02 0.000E+00
 ETOT  3  -125.47840410931     -8.458E-03 5.340E-04 0.000E+00
[...]
 ETOT 22  -125.47898638983      0.000E+00 1.964E-18 0.000E+00
 ETOT 23  -125.47898638983      2.842E-14 1.079E-19 0.000E+00
 ETOT 24  -125.47898638983     -2.842E-14 5.650E-20 0.000E+00
 ETOT 25  -125.47898638983      2.842E-14 9.923E-21 0.000E+00

 At SCF step   25   max residual=  9.92E-21 < tolwfr=  1.00E-20 =>converged.

 ----iterations are completed or convergence reached----

 dfpt_looppert: DFPT cycle converged with prtwf=-1. Will skip output of the 1st-order WFK file.
 dfpt_looppert : ek2=    9.8671731793E+01
          f-sum rule ratio=    1.4677483179E+00
 prteigrs : about to open file /scratch/users/j/a/jabreu/flow_simple_8atoms/flow/w414/t1/tmpdata/tmp_1WF1_EIG
 Expectation of eigenvalue derivatives (hartree) for nkpt=   1  k points:
  (in case of degenerate eigenvalues, averaged derivative)
 kpt#   1, nband= 73, wtk=  1.00000, kpt=  0.0000  0.0000  0.0000 (reduced coord)
  -0.00000    0.00000    0.00000   -0.00000   -0.00000   -0.00000   -0.00000   -0.00000
   0.00000    0.00000    0.00000    0.00000    0.00000    0.00000   -0.00000   -0.00000
  -0.00000   -0.00000    0.00000    0.00000   -0.00000    0.00000    0.00000    0.00000
   0.00000    0.00000   -0.00000   -0.00000    0.00000    0.00000    0.00000    0.00000
   0.00000    0.00000   -0.00000   -0.00000   -0.00000    0.00000   -0.00000    0.00000
  -0.00000   -0.00000    0.00000   -0.00000   -0.00000   -0.00000    0.00000    0.00000
   0.00000   -0.00000   -0.00000    0.00000    0.00000   -0.00000    0.00000   -0.00000
   0.00000   -0.00000    0.00000    0.00000    0.00000   -0.00000   -0.00000    0.00000
  -0.00000   -0.00000    0.00000   -0.00000   -0.00000    0.00000    0.00000   -0.02325
   0.02226

 Eight components of 2nd-order total energy (hartree) are
 1,2,3: 0th-order hamiltonian combined with 1st-order wavefunctions
     kin0=   1.22676281E+02 eigvalue=   1.31671740E+01  local=  -5.62781913E+01
 4,5,6: 1st-order hamiltonian combined with 1st and 0th-order wfs
     kin1=  -1.44825268E+02  Hartree=   0.00000000E+00     xc=   0.00000000E+00
 7,8,9: eventually, occupation + non-local contributions
    edocc=   3.48365886E+01     enl0=   1.10771338E+01   enl1=  -1.06132704E+02
 1-9 gives the relaxation energy (to be shifted if some occ is /=2.0)
   erelax=  -1.25478986E+02
  No Ewald or frozen-wf contrib.: the relaxation energy is the total one
 2DEtotal=   -0.1254789864E+03 Ha. Also 2DEtotal=   -0.341445686502E+04 eV
    (  non-var. 2DEtotal :   -1.2547898639E+02 Ha)

 Perturbation wavevector (in red.coord.)   0.000000  0.000000  0.000000
 Perturbation : derivative vs k along direction   2
 The set of symmetries contains only one element for this perturbation.
 symkpt : not enough symmetry to change the number of k points.

[...]

 Perturbation wavevector (in red.coord.)   0.000000  0.000000  0.000000
 Perturbation : derivative vs k along direction   3
 The set of symmetries contains only one element for this perturbation.
 symkpt : not enough symmetry to change the number of k points.

-inwffil : will read wavefunctions from disk file /scratch/users/j/a/jabreu/flow_simple_8atoms/flow/w414/t1/indata/in_WFK

 Initialisation of the first-order wave-functions :
  ireadwf=   0

--- !BeginCycle
iteration_state: {dtset: 1, }
solver: {iscf: 7, nstep: 2000, nline: 4, wfoptalg: 0, }
tolerances: {tolwfr: 1.00E-20, }
...

     iter   2DEtotal(Ha)        deltaE(Ha) residm    vres2
-ETOT  1  -200.92505105807     -2.009E+02 1.480E-01 0.000E+00
 ETOT  2  -201.26181146322     -3.368E-01 6.953E-03 0.000E+00
 ETOT  3  -201.27207931225     -1.027E-02 1.733E-03 0.000E+00
 ETOT  4  -201.27268567521     -6.064E-04 1.611E-04 0.000E+00
 ETOT  5  -201.27272910351     -4.343E-05 5.298E-05 0.000E+00
 ETOT  6  -201.27273255080     -3.447E-06 4.350E-06 0.000E+00
 ETOT  7  -201.27273284165     -2.909E-07 1.741E-06 0.000E+00
 ETOT  8  -201.27273286715     -2.550E-08 1.273E-07 0.000E+00
 ETOT  9  -201.27273286945     -2.302E-09 5.702E-08 0.000E+00
 ETOT 10  -201.27273286966     -2.130E-10 3.967E-09 0.000E+00
 ETOT 11  -201.27273286968     -1.967E-11 1.850E-09 0.000E+00
 ETOT 12  -201.27273286969     -2.046E-12 1.266E-10 0.000E+00
 ETOT 13  -201.27273286969     -3.411E-13 5.973E-11 0.000E+00
 ETOT 14  -201.27273286969     -8.527E-14 4.080E-12 0.000E+00
 ETOT 15  -201.27273286969      0.000E+00 1.926E-12 0.000E+00
 ETOT 16  -201.27273286969      2.274E-13 1.320E-13 0.000E+00
 ETOT 17  -201.27273286969     -1.421E-13 6.213E-14 0.000E+00
 ETOT 18  -201.27273286969     -8.527E-14 4.286E-15 0.000E+00
 ETOT 19  -201.27273286969      3.695E-13 2.008E-15 0.000E+00
 ETOT 20  -201.27273286969      8.527E-14 1.395E-16 0.000E+00
 ETOT 21  -201.27273286969      0.000E+00 6.504E-17 0.000E+00
 ETOT 22  -201.27273286969      2.842E-14 4.547E-18 0.000E+00
 ETOT 23  -201.27273286969      0.000E+00 2.111E-18 0.000E+00
 ETOT 24  -201.27273286969     -2.842E-14 1.485E-19 0.000E+00
 ETOT 25  -201.27273286969      0.000E+00 6.866E-20 0.000E+00
 ETOT 26  -201.27273286969     -5.684E-14 9.689E-21 0.000E+00

 At SCF step   26   max residual=  9.69E-21 < tolwfr=  1.00E-20 =>converged.

 ----iterations are completed or convergence reached----

 dfpt_looppert: DFPT cycle converged with prtwf=-1. Will skip output of the 1st-order WFK file.
 dfpt_looppert : ek2=    1.5780555306E+02
          f-sum rule ratio=    1.4769615536E+00
 prteigrs : about to open file /scratch/users/j/a/jabreu/flow_simple_8atoms/flow/w414/t1/tmpdata/tmp_1WF1_EIG
 Expectation of eigenvalue derivatives (hartree) for nkpt=   1  k points:
  (in case of degenerate eigenvalues, averaged derivative)
 kpt#   1, nband= 73, wtk=  1.00000, kpt=  0.0000  0.0000  0.0000 (reduced coord)
  -0.00000    0.00000   -0.00000    0.00000   -0.00000   -0.00000   -0.00000   -0.00000
   0.00000    0.00000    0.00000   -0.00000   -0.00000    0.00000   -0.00000   -0.00000
  -0.00000   -0.00000    0.00000    0.00000   -0.00000   -0.00000    0.00000    0.00000
   0.00000    0.00000    0.00000    0.00000    0.00000    0.00000    0.00000    0.00000
   0.00000    0.00000    0.00000    0.00000   -0.00000   -0.00000   -0.00000   -0.00000
   0.00000    0.00000    0.00000    0.00000   -0.00000   -0.00000    0.00000    0.00000
   0.00000    0.00000    0.00000   -0.00000   -0.00000    0.00000   -0.00000    0.00000
  -0.00000    0.00000   -0.00000   -0.00000    0.00000    0.00000    0.00000   -0.00000
  -0.00000    0.00000   -0.00000    0.00000    0.00000   -0.00000   -0.00000   -0.03472
   0.02284

 Eight components of 2nd-order total energy (hartree) are
 1,2,3: 0th-order hamiltonian combined with 1st-order wavefunctions
     kin0=   1.95187316E+02 eigvalue=   2.10941228E+01  local=  -8.93419998E+01
 4,5,6: 1st-order hamiltonian combined with 1st and 0th-order wfs
     kin1=  -2.33072735E+02  Hartree=   0.00000000E+00     xc=   0.00000000E+00
 7,8,9: eventually, occupation + non-local contributions
    edocc=   5.66764637E+01     enl0=   1.76568304E+01   enl1=  -1.69472731E+02
 1-9 gives the relaxation energy (to be shifted if some occ is /=2.0)
   erelax=  -2.01272733E+02
  No Ewald or frozen-wf contrib.: the relaxation energy is the total one
 2DEtotal=   -0.2012727329E+03 Ha. Also 2DEtotal=   -0.547690959467E+04 eV
    (  non-var. 2DEtotal :   -2.0127273287E+02 Ha)

 CALCULATION OF EFFECTIVE MASSES
 NOTE : Additional infos (eff. mass eigenvalues, eigenvectors and, if degenerate, average mass) are available in stdout.

 K-point ( 0.000, 0.000, 0.000) | band =    64
 Effective mass tensor:
             -0.3370369688              0.0575947161             -0.1050214845
              0.0575947161             -0.3134926670             -0.1286738086
             -0.1050214845             -0.1286738086             -0.1494286022
 Effective mass tensor eigenvalues:
             -0.3840588138             -0.3840467947             -0.0318526297
 Angular average effective mass 1/(<1/m>)=  -0.0819622877
 Angular average effective mass for Frohlich model (<m**0.5>)**2=  -0.1275834665
 Effective masses along directions: (cart. coord. / red. coord. -> eff. mass)
    1:   1.000000  0.000000  0.000000 /   0.980514 -0.196447  0.000000 ->  -0.1551169042
    2:   0.000000  1.000000  0.000000 /   0.000000  1.000000  0.000000 ->  -0.1194442154
    3:   0.000000  0.000000  1.000000 /  -0.484884 -0.484884  0.727857 ->  -0.0459066430
    4:   0.577350  0.577350  0.577350 /   0.079078 -0.084360  0.993293 ->  -0.3840395169
    5:   0.000000  0.707107  0.707107 /  -0.553623  0.053594  0.831041 ->  -0.2193251972
    6:   0.707107  0.000000  0.707107 /   0.061577 -0.630839  0.773467 ->  -0.1808355809
    7:   0.707107  0.707107  0.000000 /   0.788742  0.614725  0.000000 ->  -0.0825244361

 K-point ( 0.000, 0.000, 0.000) | band =    65
 Effective mass tensor:
              0.0327536964             -0.0002029136              0.0003697540
             -0.0002029136              0.0326707562              0.0004530530
              0.0003697540              0.0004530530              0.0320929978
 Effective mass tensor eigenvalues:
              0.0316790291              0.0329190829              0.0329193384
 Angular average effective mass 1/(<1/m>)=   0.0324951667
 Angular average effective mass for Frohlich model (<m**0.5>)**2=   0.0324983827
 Effective masses along directions: (cart. coord. / red. coord. -> eff. mass)
    1:   1.000000  0.000000  0.000000 /   0.980514 -0.196447  0.000000 ->   0.0327481101
    2:   0.000000  1.000000  0.000000 /   0.000000  1.000000  0.000000 ->   0.0326630378
    3:   0.000000  0.000000  1.000000 /  -0.484884 -0.484884  0.727857 ->   0.0320824771
    4:   0.577350  0.577350  0.577350 /   0.079078 -0.084360  0.993293 ->   0.0329190789
    5:   0.000000  0.707107  0.707107 /  -0.553623  0.053594  0.831041 ->   0.0328318646
    6:   0.707107  0.000000  0.707107 /   0.061577 -0.630839  0.773467 ->   0.0327886863
    7:   0.707107  0.707107  0.000000 /   0.788742  0.614725  0.000000 ->   0.0324987101

 END OF EFFECTIVE MASSES SECTION

 ---- first-order wavefunction calculations are completed ----

 Total localisation tensor (bohr^2) in cartesian coordinates
  WARNING : still subject to testing - especially symmetries.
      direction              matrix element
   alpha     beta       real part   imaginary part
     1        1      21.8010792145    0.0000000000
     1        2      -4.1141554232    0.0000000000
     1        3     -14.9713048199    0.0000000000
     2        1      -4.1141554232    0.0000000000
     2        2      20.1184064301    0.0000000000
     2        3     -18.3427219051    0.0000000000
     3        1     -14.9713048199    0.0000000000
     3        2     -18.3427219051    0.0000000000
     3        3      92.1903287028    0.0000000000

 respfn : d/dk was computed, but no 2DTE, so no DDB output.

== END DATASET(S) ==============================================================

 -outvars: echo values of variables after computation  --------
            acell      1.0000000000E+00  1.0000000000E+00  1.0000000000E+00 Bohr
              amu      6.97230000E+01  6.35460000E+01  1.27600000E+02
             ecut      4.60000000E+01 Hartree
           etotal     -2.0127273287E+02
            fcart      0.0000000000E+00  0.0000000000E+00  0.0000000000E+00
                       0.0000000000E+00  0.0000000000E+00  0.0000000000E+00
                       0.0000000000E+00  0.0000000000E+00  0.0000000000E+00
                       0.0000000000E+00  0.0000000000E+00  0.0000000000E+00
                       0.0000000000E+00  0.0000000000E+00  0.0000000000E+00
                       0.0000000000E+00  0.0000000000E+00  0.0000000000E+00
                       0.0000000000E+00  0.0000000000E+00  0.0000000000E+00
                       0.0000000000E+00  0.0000000000E+00  0.0000000000E+00
-          fftalg         512
           irdden           1
           irdwfk           1
           istwfk        1
              ixc     -116133
           kptopt           0
P           mkmem           1
P          mkqmem           1
P          mk1mem           1
            natom           8
            nband          73
           nbdbuf           4
            ngfft          90      90      90
             nkpt           1
            nstep        2000
             nsym           8
           ntypat           3
              occ      2.000000  2.000000  2.000000  2.000000  2.000000  2.000000
                       2.000000  2.000000  2.000000  2.000000  2.000000  2.000000
                       2.000000  2.000000  2.000000  2.000000  2.000000  2.000000
                       2.000000  2.000000  2.000000  2.000000  2.000000  2.000000
                       2.000000  2.000000  2.000000  2.000000  2.000000  2.000000
                       2.000000  2.000000  2.000000  2.000000  2.000000  2.000000
                       2.000000  2.000000  2.000000  2.000000  2.000000  2.000000
                       2.000000  2.000000  2.000000  2.000000  2.000000  2.000000
                       2.000000  2.000000  2.000000  2.000000  2.000000  2.000000
                       2.000000  2.000000  2.000000  2.000000  2.000000  2.000000
                       2.000000  2.000000  2.000000  2.000000  0.000000  0.000000
                       0.000000  0.000000  0.000000  0.000000  0.000000  0.000000
                       0.000000
        optdriver           1
            prtwf          -1
            rfdir           1       1       1
           rfelfd           2
            rprim      1.0329983417E+01  0.0000000000E+00 -9.2272795878E+00
                      -2.0696199045E+00  1.0120535107E+01 -9.2272795878E+00
                       0.0000000000E+00  0.0000000000E+00  1.3851037722E+01
          spgroup         122
           strten      0.0000000000E+00  0.0000000000E+00  0.0000000000E+00
                       0.0000000000E+00  0.0000000000E+00  0.0000000000E+00
           symrel      1  0  0   0  1  0   0  0  1       0  0  1  -1 -1 -1   1  0  0
                       0  1  0   1  0  0  -1 -1 -1      -1 -1 -1   0  0  1   0  1  0
                       0  1  0   1  0  0   0  0  1       0  0  1  -1 -1 -1   0  1  0
                       1  0  0   0  1  0  -1 -1 -1      -1 -1 -1   0  0  1   1  0  0
            tnons      0.0000000  0.0000000  0.0000000    -0.2500000  0.2500000  0.5000000
                      -0.0000000  0.0000000  0.0000000    -0.2500000  0.2500000  0.5000000
                      -0.2500000  0.2500000  0.5000000     0.0000000  0.0000000  0.0000000
                      -0.2500000  0.2500000  0.5000000    -0.0000000  0.0000000  0.0000000
           tolwfr      1.00000000E-20
            typat      1  1  2  2  3  3  3  3
           useylm           1
           xangst      5.4520118440E-01  4.0166673879E+00 -1.2180393162E+00
                       2.1855980527E+00  2.6777782586E+00 -4.8828660552E+00
                       3.8259949210E+00  1.3388891293E+00 -1.2180393162E+00
                       0.0000000000E+00  0.0000000000E+00  0.0000000000E+00
                       3.8086566935E+00  4.7650367889E+00 -4.8441305513E+00
                       3.3601536236E+00  6.6944456464E-01 -3.6260912351E+00
                      -8.1756544573E-02  3.3472228232E+00  3.6314456303E+00
                       1.6553384383E+00  1.9294088575E+00 -3.3381108633E-02
            xcart      1.0302809258E+00  7.5904013299E+00 -2.3017607267E+00
                       4.1301817562E+00  5.0602675533E+00 -9.2272795878E+00
                       7.2300825865E+00  2.5301337767E+00 -2.3017607267E+00
                       0.0000000000E+00  0.0000000000E+00  0.0000000000E+00
                       7.1973180848E+00  9.0046145441E+00 -9.1540800939E+00
                       6.3497701131E+00  1.2650668883E+00 -6.8523193672E+00
                      -1.5449747881E-01  6.3253344416E+00  6.8624377078E+00
                       3.1281363057E+00  3.6460543391E+00 -6.3081153328E-02
             xred      2.5000000000E-01  7.5000000000E-01  5.0000000000E-01
                       5.0000000000E-01  5.0000000000E-01  0.0000000000E+00
                       7.5000000000E-01  2.5000000000E-01  5.0000000000E-01
                       0.0000000000E+00  0.0000000000E+00  0.0000000000E+00
                       8.7500000000E-01  8.8973700000E-01  5.1473700000E-01
                       6.3973700000E-01  1.2500000000E-01  1.4737000000E-02
                       1.1026300000E-01  6.2500000000E-01  9.8526300000E-01
                       3.7500000000E-01  3.6026300000E-01  4.8526300000E-01
            znucl       31.00000   29.00000   52.00000

- Timing analysis has been suppressed with timopt=0

 Suggested references for the acknowledgment of ABINIT usage.

 Calculation completed.
.Delivered   6 WARNINGs and   5 COMMENTs to log file.