.Version 9.5.2 of ABINIT

 ABINIT is a project of the Universite Catholique de Louvain,
 Corning Inc. and other collaborators, see ~abinit/doc/developers/contributors.txt .
 acknowledgments of the ABINIT effort.

.Starting date : Mon 31 May 2021.
- ( at 22h17 )

- input  file    -> /scratch/users/j/a/jabreu/flow_simple_11atoms/flow/w355/t1/run.abi
- output file    -> /scratch/users/j/a/jabreu/flow_simple_11atoms/flow/w355/t1/run.abo
- root for input  files -> /scratch/users/j/a/jabreu/flow_simple_11atoms/flow/w355/t1/indata/in
- root for output files -> /scratch/users/j/a/jabreu/flow_simple_11atoms/flow/w355/t1/outdata/out

 Symmetries : space group I4/m c m (#140); Bravais tI (body-center tetrag.)
     intxc =       0      iscf =       7    lmnmax =      25     lnmax =       7
     mgfft =      90  mpssoang =       4    mqgrid =    3045     natom =      12
  nloc_mem =       1    nspden =       1   nspinor =       1    nsppol =       1
      nsym =      16    n1xccc =    2501    ntypat =       3    occopt =       1
   xclevel =       2
-    mband =          65        mffmem =           1         mkmem =           2
-   mkqmem =           2        mk1mem =           2           mpw =       20212
      nfft =      729000          nkpt =           2
  Rough estimation (10% accuracy) of disk space for files :

------------- Echo of variables that govern the present computation ------------
-
- outvars: echo of selected default values
-   iomode0 =  0 , fftalg0 =512 , wfoptalg0 =  0
-
- outvars: echo of global parameters not present in the input file
-  max_nthreads =    0
-
 -outvars: echo values of preprocessed input variables --------
            acell      1.0000000000E+00  1.0000000000E+00  1.0000000000E+00 Bohr
              amu      8.54678000E+01  1.96966540E+02  1.89984032E+01
             ecut      4.20000000E+01 Hartree
-          fftalg         512
           irdden           1
           irdwfk           1
           istwfk        0    1
              ixc     -116133
              kpt      5.00000000E-01  5.00000000E-01 -5.00000000E-01
                       0.00000000E+00  0.00000000E+00  5.00000000E-01
           kptopt           0
P           mkmem           2
P          mkqmem           2
P          mk1mem           2
            natom          12
            nband          65
           nbdbuf           4
            ngfft          90      90      90
             nkpt           2
            nstep        2000
             nsym          16
           ntypat           3
              occ      2.000000  2.000000  2.000000  2.000000  2.000000  2.000000
                       2.000000  2.000000  2.000000  2.000000  2.000000  2.000000
                       2.000000  2.000000  2.000000  2.000000  2.000000  2.000000
                       2.000000  2.000000  2.000000  2.000000  2.000000  2.000000
                       2.000000  2.000000  2.000000  2.000000  2.000000  2.000000
                       2.000000  2.000000  2.000000  2.000000  2.000000  2.000000
                       2.000000  2.000000  2.000000  2.000000  2.000000  2.000000
                       2.000000  2.000000  2.000000  2.000000  2.000000  2.000000
                       2.000000  2.000000  2.000000  2.000000  2.000000  2.000000
                       2.000000  2.000000  0.000000  0.000000  0.000000  0.000000
                       0.000000  0.000000  0.000000  0.000000  0.000000
        optdriver           1
            prtwf          -1
            rfdir           1       1       1
           rfelfd           2
            rprim      1.0700324951E+01  0.0000000000E+00 -8.8619631836E+00
                      -2.3660111600E+00  1.0435465742E+01 -8.8619631836E+00
                       0.0000000000E+00  0.0000000000E+00  1.3893572094E+01
          spgroup         140
           symrel      1  0  0   0  1  0   0  0  1      -1  0  0   0 -1  0   0  0 -1
                      -1 -1 -1   0  0  1   0  1  0       1  1  1   0  0 -1   0 -1  0
                       0  1  0   1  0  0  -1 -1 -1       0 -1  0  -1  0  0   1  1  1
                       0  0  1  -1 -1 -1   1  0  0       0  0 -1   1  1  1  -1  0  0
                       0  1  0   1  0  0   0  0  1       0 -1  0  -1  0  0   0  0 -1
                      -1 -1 -1   0  0  1   1  0  0       1  1  1   0  0 -1  -1  0  0
                       1  0  0   0  1  0  -1 -1 -1      -1  0  0   0 -1  0   1  1  1
                       0  0  1  -1 -1 -1   0  1  0       0  0 -1   1  1  1   0 -1  0
            tnons      0.0000000  0.0000000  0.0000000     0.0000000  0.0000000 -0.0000000
                       0.5000000  0.5000000 -0.0000000     0.5000000  0.5000000  0.0000000
                       0.0000000  0.0000000 -0.0000000     0.0000000  0.0000000  0.0000000
                       0.5000000  0.5000000 -0.0000000     0.5000000  0.5000000  0.0000000
                       0.5000000  0.5000000  0.0000000     0.5000000  0.5000000 -0.0000000
                       0.0000000  0.0000000  0.0000000     0.0000000  0.0000000 -0.0000000
                       0.5000000  0.5000000 -0.0000000     0.5000000  0.5000000  0.0000000
                       0.0000000  0.0000000  0.0000000     0.0000000  0.0000000 -0.0000000
           tolwfr      1.00000000E-20
            typat      1  1  2  2  3  3  3  3  3  3  3  3
           useylm           1
              wtk        0.50000    0.50000
           xangst      1.1025822268E+00  1.3805526579E+00 -2.3447744701E+00
                       3.3077466805E+00  4.1416579736E+00 -7.0343234102E+00
                       2.8311840443E+00  0.0000000000E+00  1.3313063789E+00
                      -6.2601959057E-01  2.7611053157E+00  1.3313063789E+00
                       4.0231107141E+00  1.4924216008E+00  1.0771559983E+00
                       3.0073325808E+00  2.2055709262E-01  3.2373310639E+00
                       3.8721819327E-01  4.0297890306E+00 -3.1040921807E+00
                       3.4560417782E+00  2.9816624084E+00 -2.2781550285E+00
                       1.4029963266E+00  5.3016535389E+00 -5.2642672463E+00
                       4.4718199115E+00  4.2535269166E+00 -4.4383300940E+00
                       9.5428712919E-01  2.5405482231E+00  2.5121884609E-01
                      -6.1491004098E-02  1.2686837149E+00  2.4113939117E+00
            xcart      2.0835784477E+00  2.6088664354E+00 -4.4309815918E+00
                       6.2507353432E+00  7.8265993062E+00 -1.3292944775E+01
                       5.3501624754E+00  0.0000000000E+00  2.5158044551E+00
                      -1.1830055800E+00  5.2177328708E+00  2.5158044550E+00
                       7.6025774520E+00  2.8202681004E+00  2.0355298392E+00
                       5.6830349683E+00  4.1679250172E-01  6.1176691123E+00
                       7.3173633895E-01  7.6151976412E+00 -5.8658841127E+00
                       6.5309724646E+00  5.6345253725E+00 -4.3050890920E+00
                       2.6512788226E+00  1.0018673240E+01 -9.9480233858E+00
                       8.4505149483E+00  8.0380009712E+00 -8.3872283651E+00
                       1.8033413263E+00  4.8009403691E+00  4.7473481853E-01
                      -1.1620115738E-01  2.3974647704E+00  4.5568740916E+00
             xred      2.5000000000E-01  2.5000000000E-01 -2.7755575616E-17
                       7.5000000000E-01  7.5000000000E-01  0.0000000000E+00
                       5.0000000000E-01  0.0000000000E+00  5.0000000000E-01
                       1.3877787808E-17  5.0000000000E-01  5.0000000000E-01
                       7.7025800000E-01  2.7025800000E-01  8.1019800000E-01
                       5.3994000000E-01  3.9940000000E-02  8.1019800000E-01
                       2.2974200000E-01  7.2974200000E-01  1.8980200000E-01
                       7.2974200000E-01  5.3994000000E-01  5.0000000000E-01
                       4.6006000000E-01  9.6006000000E-01  1.8980200000E-01
                       9.6006000000E-01  7.7025800000E-01  5.0000000000E-01
                       2.7025800000E-01  4.6006000000E-01  5.0000000000E-01
                       3.9940000000E-02  2.2974200000E-01  5.0000000000E-01
            znucl       37.00000   79.00000    9.00000

 chkinp: Checking input parameters for consistency.

== DATASET  1 ==================================================================
-   mpi_nproc: 1, omp_nthreads: -1 (-1 if OMP is not activated)

--- !DatasetInfo
iteration_state: {dtset: 1, }
dimensions: {natom: 12, nkpt: 2, mband: 65, nsppol: 1, nspinor: 1, nspden: 1, mpw: 20212, }
cutoff_energies: {ecut:  42.0, pawecutdg:  -1.0, }
electrons: {nelect:   1.12000000E+02, charge:   0.00000000E+00, occopt:   1.00000000E+00, tsmear:   1.00000000E-02, }
meta: {optdriver: 1, rfelfd: 2, }
...

 Real(R)+Recip(G) space primitive vectors, cartesian coordinates (Bohr,Bohr^-1):
 R(1)= 10.7003250  0.0000000 -8.8619632  G(1)=  0.0934551  0.0211889  0.0000000
 R(2)= -2.3660112 10.4354657 -8.8619632  G(2)=  0.0000000  0.0958271  0.0000000
 R(3)=  0.0000000  0.0000000 13.8935721  G(3)=  0.0596100  0.0746382  0.0719757
 Unit cell volume ucvol=  1.5513962E+03 bohr^3
 Angles (23,13,12)=  1.29631408E+02  1.29631408E+02  7.39967103E+01 degrees

 getcut: wavevector=  0.0000  0.0000  0.0000  ngfft=  90  90  90
         ecut(hartree)=     42.000   => boxcut(ratio)=   2.22065

 getcut : COMMENT -
  Note that boxcut > 2.2 ; recall that boxcut=Gcut(box)/Gcut(sphere) = 2
  is sufficient for exact treatment of convolution.
  Such a large boxcut is a waste : you could raise ecut
  e.g. ecut=   51.778419 Hartrees makes boxcut=2

--- Pseudopotential description ------------------------------------------------
- pspini: atom type   1  psp file is /scratch/users/j/a/jabreu/pseudos/PBEsol/Rb.psp8
- pspatm: opening atomic psp file    /scratch/users/j/a/jabreu/pseudos/PBEsol/Rb.psp8
- Rb    ONCVPSP-3.3.0  r_core=   1.71227   1.75361   1.90633
- 37.00000   9.00000    180112                znucl, zion, pspdat
    8 -116133    2    4       600   0.00000   pspcod,pspxc,lmax,lloc,mmax,r2well
    5.99000000000000    7.00000000000000    0.00000000000000   rchrg,fchrg,qchrg
     nproj     2     2     2
     extension_switch     1
  pspatm : epsatm=   34.48400912
         --- l  ekb(1:nproj) -->
             0    8.196957   -0.477221
             1    3.231347   -0.378736
             2   -1.047201    0.996637
 pspatm: atomic psp has been read  and splines computed

- pspini: atom type   2  psp file is /scratch/users/j/a/jabreu/pseudos/PBEsol/Au.psp8
- pspatm: opening atomic psp file    /scratch/users/j/a/jabreu/pseudos/PBEsol/Au.psp8
- Au    ONCVPSP-3.3.0  r_core=   1.45604   1.56407   1.56407   1.60183
- 79.00000  19.00000    180112                znucl, zion, pspdat
    8 -116133    3    4       500   0.00000   pspcod,pspxc,lmax,lloc,mmax,r2well
    4.99000000000000    5.00000000000000    0.00000000000000   rchrg,fchrg,qchrg
     nproj     2     2     2     1
     extension_switch     1
  pspatm : epsatm=   32.21965837
         --- l  ekb(1:nproj) -->
             0    9.413866   -0.196587
             1    2.474292   -1.517497
             2    1.503483    0.298081
             3    1.177996
 pspatm: atomic psp has been read  and splines computed

[...]
   0.00000   -0.00000    0.00000   -0.00000   -0.00000   -0.00000   -0.00000   -0.00000
   0.00000   -0.00000    0.00000    0.00000    0.00000    0.00000    0.00000    0.00000
  -0.00000    0.00000   -0.00000   -0.00000   -0.00000   -0.00000   -0.00000    0.00000
  -0.00000   -0.00000   -0.00000    0.00000    0.00000    0.00000    0.00000   -0.00000
   0.00035
 prteigrs : prtvol=0 or 1, do not print more k-points.

 Eight components of 2nd-order total energy (hartree) are
 1,2,3: 0th-order hamiltonian combined with 1st-order wavefunctions
     kin0=   6.39841238E+01 eigvalue=   5.25395155E+00  local=  -3.15663634E+01
 4,5,6: 1st-order hamiltonian combined with 1st and 0th-order wfs
     kin1=  -8.10200154E+01  Hartree=   0.00000000E+00     xc=   0.00000000E+00
 7,8,9: eventually, occupation + non-local contributions
    edocc=   4.46298374E+00     enl0=   3.47317459E-01   enl1=  -3.94401100E+00
 1-9 gives the relaxation energy (to be shifted if some occ is /=2.0)
   erelax=  -4.24820132E+01
  No Ewald or frozen-wf contrib.: the relaxation energy is the total one
 2DEtotal=   -0.4248201322E+02 Ha. Also 2DEtotal=   -0.115599436896E+04 eV
    (  non-var. 2DEtotal :   -4.2482013223E+01 Ha)

 Perturbation wavevector (in red.coord.)   0.000000  0.000000  0.000000
 Perturbation : derivative vs k along direction   2
 The set of symmetries contains only one element for this perturbation.
 symkpt : not enough symmetry to change the number of k points.

[...]

 Perturbation wavevector (in red.coord.)   0.000000  0.000000  0.000000
 Perturbation : derivative vs k along direction   3
 The set of symmetries contains only one element for this perturbation.
 symkpt : not enough symmetry to change the number of k points.

 Initialisation of the first-order wave-functions :
  ireadwf=   0

--- !BeginCycle
iteration_state: {dtset: 1, }
solver: {iscf: 7, nstep: 2000, nline: 4, wfoptalg: 0, }
tolerances: {tolwfr: 1.00E-20, }
...

     iter   2DEtotal(Ha)        deltaE(Ha) residm    vres2
-ETOT  1  -66.104589039953     -6.610E+01 5.869E-02 0.000E+00
 ETOT  2  -66.172299393187     -6.771E-02 3.028E-03 0.000E+00
 ETOT  3  -66.172675254642     -3.759E-04 6.259E-05 0.000E+00
 ETOT  4  -66.172680264897     -5.010E-06 5.354E-06 0.000E+00
 ETOT  5  -66.172680350869     -8.597E-08 2.235E-07 0.000E+00
 ETOT  6  -66.172680352504     -1.635E-09 1.881E-08 0.000E+00
 ETOT  7  -66.172680352537     -3.318E-11 1.002E-09 0.000E+00
 ETOT  8  -66.172680352538     -7.105E-13 8.742E-11 0.000E+00
 ETOT  9  -66.172680352538     -1.421E-14 5.611E-12 0.000E+00
 ETOT 10  -66.172680352538      2.842E-14 4.692E-13 0.000E+00
 ETOT 11  -66.172680352538      0.000E+00 3.152E-14 0.000E+00
 ETOT 12  -66.172680352538     -4.263E-14 2.558E-15 0.000E+00
 ETOT 13  -66.172680352538      1.421E-14 1.764E-16 0.000E+00
 ETOT 14  -66.172680352538      0.000E+00 1.409E-17 0.000E+00
 ETOT 15  -66.172680352538      0.000E+00 9.882E-19 0.000E+00
 ETOT 16  -66.172680352538      0.000E+00 8.536E-20 0.000E+00
 ETOT 17  -66.172680352538      0.000E+00 9.992E-21 0.000E+00

 At SCF step   17   max residual=  9.99E-21 < tolwfr=  1.00E-20 =>converged.

 ----iterations are completed or convergence reached----

 dfpt_looppert: DFPT cycle converged with prtwf=-1. Will skip output of the 1st-order WFK file.
 dfpt_looppert : ek2=    1.2649896106E+02
          f-sum rule ratio=    9.9727119412E-01
 prteigrs : about to open file /scratch/users/j/a/jabreu/flow_simple_11atoms/flow/w355/t1/tmpdata/tmp_1WF1_EIG
 Expectation of eigenvalue derivatives (hartree) for nkpt=   2  k points:
  (in case of degenerate eigenvalues, averaged derivative)
 kpt#   1, nband= 65, wtk=  0.50000, kpt=  0.5000  0.5000 -0.5000 (reduced coord)
  -0.00000   -0.00000   -0.00000   -0.00000    0.00000   -0.00000    0.00000    0.00000
   0.00000    0.00000    0.00000    0.00000   -0.00000   -0.00000    0.00000    0.00000
  -0.00000    0.00000   -0.00000   -0.00000   -0.00000   -0.00000   -0.00000   -0.00000
  -0.00000   -0.00000   -0.00000   -0.00000    0.00000    0.00000    0.00000    0.00000
   0.00000   -0.00000   -0.00000    0.00000   -0.00000   -0.00000   -0.00000   -0.00000
   0.00000   -0.00000    0.00000    0.00000    0.00000    0.00000   -0.00000   -0.00000
  -0.00000    0.00000    0.00000    0.00000    0.00000    0.00000   -0.00000    0.00000
  -0.00000   -0.00000   -0.00000   -0.00000   -0.00000    0.00000    0.00000   -0.00000
   0.00000
 prteigrs : prtvol=0 or 1, do not print more k-points.

 Eight components of 2nd-order total energy (hartree) are
 1,2,3: 0th-order hamiltonian combined with 1st-order wavefunctions
     kin0=   9.99145179E+01 eigvalue=   8.27894617E+00  local=  -4.92162780E+01
 4,5,6: 1st-order hamiltonian combined with 1st and 0th-order wfs
     kin1=  -1.26153770E+02  Hartree=   0.00000000E+00     xc=   0.00000000E+00
 7,8,9: eventually, occupation + non-local contributions
    edocc=   6.56121236E+00     enl0=   6.34281951E-01   enl1=  -6.19159075E+00
 1-9 gives the relaxation energy (to be shifted if some occ is /=2.0)
   erelax=  -6.61726804E+01
  No Ewald or frozen-wf contrib.: the relaxation energy is the total one
 2DEtotal=   -0.6617268035E+02 Ha. Also 2DEtotal=   -0.180065020612E+04 eV
    (  non-var. 2DEtotal :   -6.6172680352E+01 Ha)

 CALCULATION OF EFFECTIVE MASSES
 NOTE : Additional infos (eff. mass eigenvalues, eigenvectors and, if degenerate, average mass) are available in stdout.

 K-point ( 0.500, 0.500,-0.500) | band =    56
 Effective mass tensor:
             -3.9922472445             -0.1042773598              0.1771078567
             -0.1042773598             -4.0395324185              0.2217582681
              0.1771078567              0.2217582681             -4.2856072687
 Effective mass tensor eigenvalues:
             -4.4994551032             -3.9089659873             -3.9089658412
 Angular average effective mass 1/(<1/m>)=  -4.0877871309
 Angular average effective mass for Frohlich model (<m**0.5>)**2=  -4.0930475877
 Effective masses along directions: (cart. coord. / red. coord. -> eff. mass)
    1:   1.000000  0.000000  0.000000 /   0.976415 -0.215901  0.000000 ->  -3.9826821859
    2:   0.000000  1.000000  0.000000 /   0.000000  1.000000  0.000000 ->  -4.0257873902
    3:   0.000000  0.000000  1.000000 /  -0.473624 -0.473624  0.742536 ->  -4.2660711155
    4:   0.577350  0.577350  0.577350 /   0.130965 -0.056458  0.989778 ->  -3.9093458014
    5:   0.000000  0.707107  0.707107 /  -0.535330  0.095052  0.839278 ->  -3.9368295021
    6:   0.707107  0.000000  0.707107 /   0.102372 -0.625246  0.773684 ->  -3.9554289224
    7:   0.707107  0.707107  0.000000 /   0.798414  0.602109  0.000000 ->  -4.1014868458

 K-point ( 0.000, 0.000, 0.500) | band =    57
 Effective mass tensor:
              4.6692820560             -0.8937682773              0.7969851365
             -0.8937682773              4.2639914849              0.9979333264
              0.7969851365              0.9979333264              2.8176034190
 Effective mass tensor eigenvalues:
              1.8552758487              4.5125109348              5.3830901765
 Angular average effective mass 1/(<1/m>)=   3.1699859940
 Angular average effective mass for Frohlich model (<m**0.5>)**2=   3.4064885388
 Effective masses along directions: (cart. coord. / red. coord. -> eff. mass)
    1:   1.000000  0.000000  0.000000 /   0.976415 -0.215901  0.000000 ->   4.0901686599
    2:   0.000000  1.000000  0.000000 /   0.000000  1.000000  0.000000 ->   3.5993112653
    3:   0.000000  0.000000  1.000000 /  -0.473624 -0.473624  0.742536 ->   2.3581746898
    4:   0.577350  0.577350  0.577350 /   0.130965 -0.056458  0.989778 ->   4.5137471535
    5:   0.000000  0.707107  0.707107 /  -0.535330  0.095052  0.839278 ->   4.3150959551
    6:   0.707107  0.000000  0.707107 /   0.102372 -0.625246  0.773684 ->   4.1827818253
    7:   0.707107  0.707107  0.000000 /   0.798414  0.602109  0.000000 ->   2.9878712956

 END OF EFFECTIVE MASSES SECTION

 ---- first-order wavefunction calculations are completed ----

 Total localisation tensor (bohr^2) in cartesian coordinates
  WARNING : still subject to testing - especially symmetries.
      direction              matrix element
   alpha     beta       real part   imaginary part
     1        1       0.5705426172    0.0000000000
     1        2      -0.1172980648    0.0000000000
     1        3      -0.3508839151    0.0000000000
     2        1      -0.1172980648    0.0000000000
     2        2       0.5173517173    0.0000000000
     2        3      -0.4393432919    0.0000000000
     3        1      -0.3508839151    0.0000000000
     3        2      -0.4393432919    0.0000000000
     3        3       2.1495745737    0.0000000000

 respfn : d/dk was computed, but no 2DTE, so no DDB output.

== END DATASET(S) ==============================================================

 -outvars: echo values of variables after computation  --------
            acell      1.0000000000E+00  1.0000000000E+00  1.0000000000E+00 Bohr
              amu      8.54678000E+01  1.96966540E+02  1.89984032E+01
             ecut      4.20000000E+01 Hartree
           etotal     -6.6172680353E+01
            fcart      0.0000000000E+00  0.0000000000E+00  0.0000000000E+00
                       0.0000000000E+00  0.0000000000E+00  0.0000000000E+00
                       0.0000000000E+00  0.0000000000E+00  0.0000000000E+00
                       0.0000000000E+00  0.0000000000E+00  0.0000000000E+00
                       0.0000000000E+00  0.0000000000E+00  0.0000000000E+00
                       0.0000000000E+00  0.0000000000E+00  0.0000000000E+00
                       0.0000000000E+00  0.0000000000E+00  0.0000000000E+00
                       0.0000000000E+00  0.0000000000E+00  0.0000000000E+00
                       0.0000000000E+00  0.0000000000E+00  0.0000000000E+00
                       0.0000000000E+00  0.0000000000E+00  0.0000000000E+00
                       0.0000000000E+00  0.0000000000E+00  0.0000000000E+00
                       0.0000000000E+00  0.0000000000E+00  0.0000000000E+00
-          fftalg         512
           irdden           1
           irdwfk           1
           istwfk        0    1
              ixc     -116133
              kpt      5.00000000E-01  5.00000000E-01 -5.00000000E-01
                       0.00000000E+00  0.00000000E+00  5.00000000E-01
           kptopt           0
P           mkmem           2
P          mkqmem           2
P          mk1mem           2
            natom          12
            nband          65
           nbdbuf           4
            ngfft          90      90      90
             nkpt           2
            nstep        2000
             nsym          16
           ntypat           3
              occ      2.000000  2.000000  2.000000  2.000000  2.000000  2.000000
                       2.000000  2.000000  2.000000  2.000000  2.000000  2.000000
                       2.000000  2.000000  2.000000  2.000000  2.000000  2.000000
                       2.000000  2.000000  2.000000  2.000000  2.000000  2.000000
                       2.000000  2.000000  2.000000  2.000000  2.000000  2.000000
                       2.000000  2.000000  2.000000  2.000000  2.000000  2.000000
                       2.000000  2.000000  2.000000  2.000000  2.000000  2.000000
                       2.000000  2.000000  2.000000  2.000000  2.000000  2.000000
                       2.000000  2.000000  2.000000  2.000000  2.000000  2.000000
                       2.000000  2.000000  0.000000  0.000000  0.000000  0.000000
                       0.000000  0.000000  0.000000  0.000000  0.000000
        optdriver           1
            prtwf          -1
            rfdir           1       1       1
           rfelfd           2
            rprim      1.0700324951E+01  0.0000000000E+00 -8.8619631836E+00
                      -2.3660111600E+00  1.0435465742E+01 -8.8619631836E+00
                       0.0000000000E+00  0.0000000000E+00  1.3893572094E+01
          spgroup         140
           strten      0.0000000000E+00  0.0000000000E+00  0.0000000000E+00
                       0.0000000000E+00  0.0000000000E+00  0.0000000000E+00
           symrel      1  0  0   0  1  0   0  0  1      -1  0  0   0 -1  0   0  0 -1
                      -1 -1 -1   0  0  1   0  1  0       1  1  1   0  0 -1   0 -1  0
                       0  1  0   1  0  0  -1 -1 -1       0 -1  0  -1  0  0   1  1  1
                       0  0  1  -1 -1 -1   1  0  0       0  0 -1   1  1  1  -1  0  0
                       0  1  0   1  0  0   0  0  1       0 -1  0  -1  0  0   0  0 -1
                      -1 -1 -1   0  0  1   1  0  0       1  1  1   0  0 -1  -1  0  0
                       1  0  0   0  1  0  -1 -1 -1      -1  0  0   0 -1  0   1  1  1
                       0  0  1  -1 -1 -1   0  1  0       0  0 -1   1  1  1   0 -1  0
            tnons      0.0000000  0.0000000  0.0000000     0.0000000  0.0000000 -0.0000000
                       0.5000000  0.5000000 -0.0000000     0.5000000  0.5000000  0.0000000
                       0.0000000  0.0000000 -0.0000000     0.0000000  0.0000000  0.0000000
                       0.5000000  0.5000000 -0.0000000     0.5000000  0.5000000  0.0000000
                       0.5000000  0.5000000  0.0000000     0.5000000  0.5000000 -0.0000000
                       0.0000000  0.0000000  0.0000000     0.0000000  0.0000000 -0.0000000
                       0.5000000  0.5000000 -0.0000000     0.5000000  0.5000000  0.0000000
                       0.0000000  0.0000000  0.0000000     0.0000000  0.0000000 -0.0000000
           tolwfr      1.00000000E-20
            typat      1  1  2  2  3  3  3  3  3  3  3  3
           useylm           1
              wtk        0.50000    0.50000
           xangst      1.1025822268E+00  1.3805526579E+00 -2.3447744701E+00
                       3.3077466805E+00  4.1416579736E+00 -7.0343234102E+00
                       2.8311840443E+00  0.0000000000E+00  1.3313063789E+00
                      -6.2601959057E-01  2.7611053157E+00  1.3313063789E+00
                       4.0231107141E+00  1.4924216008E+00  1.0771559983E+00
                       3.0073325808E+00  2.2055709262E-01  3.2373310639E+00
                       3.8721819327E-01  4.0297890306E+00 -3.1040921807E+00
                       3.4560417782E+00  2.9816624084E+00 -2.2781550285E+00
                       1.4029963266E+00  5.3016535389E+00 -5.2642672463E+00
                       4.4718199115E+00  4.2535269166E+00 -4.4383300940E+00
                       9.5428712919E-01  2.5405482231E+00  2.5121884609E-01
                      -6.1491004098E-02  1.2686837149E+00  2.4113939117E+00
            xcart      2.0835784477E+00  2.6088664354E+00 -4.4309815918E+00
                       6.2507353432E+00  7.8265993062E+00 -1.3292944775E+01
                       5.3501624754E+00  0.0000000000E+00  2.5158044551E+00
                      -1.1830055800E+00  5.2177328708E+00  2.5158044550E+00
                       7.6025774520E+00  2.8202681004E+00  2.0355298392E+00
                       5.6830349683E+00  4.1679250172E-01  6.1176691123E+00
                       7.3173633895E-01  7.6151976412E+00 -5.8658841127E+00
                       6.5309724646E+00  5.6345253725E+00 -4.3050890920E+00
                       2.6512788226E+00  1.0018673240E+01 -9.9480233858E+00
                       8.4505149483E+00  8.0380009712E+00 -8.3872283651E+00
                       1.8033413263E+00  4.8009403691E+00  4.7473481853E-01
                      -1.1620115738E-01  2.3974647704E+00  4.5568740916E+00
             xred      2.5000000000E-01  2.5000000000E-01 -2.7755575616E-17
                       7.5000000000E-01  7.5000000000E-01  0.0000000000E+00
                       5.0000000000E-01  0.0000000000E+00  5.0000000000E-01
                       1.3877787808E-17  5.0000000000E-01  5.0000000000E-01
                       7.7025800000E-01  2.7025800000E-01  8.1019800000E-01
                       5.3994000000E-01  3.9940000000E-02  8.1019800000E-01
                       2.2974200000E-01  7.2974200000E-01  1.8980200000E-01
                       7.2974200000E-01  5.3994000000E-01  5.0000000000E-01
                       4.6006000000E-01  9.6006000000E-01  1.8980200000E-01
                       9.6006000000E-01  7.7025800000E-01  5.0000000000E-01
                       2.7025800000E-01  4.6006000000E-01  5.0000000000E-01
                       3.9940000000E-02  2.2974200000E-01  5.0000000000E-01
            znucl       37.00000   79.00000    9.00000

- Timing analysis has been suppressed with timopt=0

 Suggested references for the acknowledgment of ABINIT usage.

 Calculation completed.
.Delivered   2 WARNINGs and  11 COMMENTs to log file.