.Version 9.5.2 of ABINIT

 ABINIT is a project of the Universite Catholique de Louvain,
 Corning Inc. and other collaborators, see ~abinit/doc/developers/contributors.txt .
 acknowledgments of the ABINIT effort.

.Starting date : Mon 24 May 2021.
- ( at 22h49 )

- input  file    -> /scratch/users/j/a/jabreu/flow_simple_10atoms/flow/w444/t1/run.abi
- output file    -> /scratch/users/j/a/jabreu/flow_simple_10atoms/flow/w444/t1/run.abo
- root for input  files -> /scratch/users/j/a/jabreu/flow_simple_10atoms/flow/w444/t1/indata/in
- root for output files -> /scratch/users/j/a/jabreu/flow_simple_10atoms/flow/w444/t1/outdata/out

 Symmetries : space group Cc (#  9); Bravais mC (1-face-center monocl.)
     intxc =       0      iscf =       7    lmnmax =      18     lnmax =       6
     mgfft =      72  mpssoang =       3    mqgrid =    3224     natom =      10
  nloc_mem =       1    nspden =       1   nspinor =       1    nsppol =       1
      nsym =       2    n1xccc =    2501    ntypat =       2    occopt =       1
   xclevel =       2
-    mband =          53        mffmem =           1         mkmem =           1
-   mkqmem =           1        mk1mem =           1           mpw =       17277
      nfft =      373248          nkpt =           1
  Rough estimation (10% accuracy) of disk space for files :

------------- Echo of variables that govern the present computation ------------
-
- outvars: echo of selected default values
-   iomode0 =  0 , fftalg0 =512 , wfoptalg0 =  0
-
- outvars: echo of global parameters not present in the input file
-  max_nthreads =    0
-
 -outvars: echo values of preprocessed input variables --------
            acell      1.0000000000E+00  1.0000000000E+00  1.0000000000E+00 Bohr
              amu      6.97230000E+01  3.20660000E+01
             ecut      4.00000000E+01 Hartree
-          fftalg         512
           irdden           1
           irdwfk           1
           istwfk        1
              ixc     -116133
           kptopt           0
P           mkmem           1
P          mkqmem           1
P          mk1mem           1
            natom          10
            nband          53
           nbdbuf           4
            ngfft          72      72      72
             nkpt           1
            nstep        2000
             nsym           2
           ntypat           2
              occ      2.000000  2.000000  2.000000  2.000000  2.000000  2.000000
                       2.000000  2.000000  2.000000  2.000000  2.000000  2.000000
                       2.000000  2.000000  2.000000  2.000000  2.000000  2.000000
                       2.000000  2.000000  2.000000  2.000000  2.000000  2.000000
                       2.000000  2.000000  2.000000  2.000000  2.000000  2.000000
                       2.000000  2.000000  2.000000  2.000000  2.000000  2.000000
                       2.000000  2.000000  2.000000  2.000000  2.000000  2.000000
                       2.000000  2.000000  0.000000  0.000000  0.000000  0.000000
                       0.000000  0.000000  0.000000  0.000000  0.000000
        optdriver           1
            prtwf          -1
            rfdir           1       1       1
           rfelfd           2
            rprim      1.1958931543E+01  0.0000000000E+00  1.9372375163E+00
                      -6.5622266191E+00  9.9976609994E+00  1.9372375163E+00
                       0.0000000000E+00  0.0000000000E+00  1.1962393050E+01
          spgroup           9
           symrel      1  0  0   0  1  0   0  0  1       0  1  0   1  0  0   0  0  1
            tnons      0.0000000  0.0000000  0.0000000    -0.0000000  0.0000000  0.5000000
           tolwfr      1.00000000E-20
            typat      1  1  1  1  2  2  2  2  2  2
           useylm           1
           xangst     -2.4618814838E+00  5.1834697967E+00  1.1756194003E+00
                       4.1195805280E+00  1.8441056833E+00  7.5469871745E+00
                       5.6842869103E+00  7.8619456507E-01  4.3407322814E+00
                      -7.1886668976E-01  4.4558837710E+00  4.3818742934E+00
                       2.8170868369E+00  3.2458168851E+00  2.3273476821E+00
                      -1.3301821689E-01  1.6118829690E+00  1.2075623311E+00
                       1.4205244939E+00  7.7328566129E-01  4.3726752123E+00
                      -3.6497477370E-01  5.0409798353E+00  2.1702495900E+00
                       1.1676807918E+00  4.1361609092E+00  5.4924605633E+00
                       4.4145293818E+00  2.4610190211E+00  5.3353624712E+00
            xcart     -4.6522817759E+00  9.7953383338E+00  2.2215987030E+00
                       7.7848789804E+00  3.4848547016E+00  1.4261738888E+01
                       1.0741745521E+01  1.4856924152E+00  8.2027952281E+00
                      -1.3584611697E+00  8.4204000072E+00  8.2805423632E+00
                       5.3235226144E+00  6.1337049904E+00  4.3980497352E+00
                      -2.5136800061E-01  3.0460173697E+00  2.2819620942E+00
                       2.6844022586E+00  1.4612981223E+00  8.2631586192E+00
                      -6.8970236771E-01  9.5260713301E+00  4.1011773651E+00
                       2.2065969072E+00  7.8162113600E+00  1.0379246260E+01
                       8.3422515372E+00  4.6506519577E+00  1.0082373890E+01
             xred      1.4860400000E-01  9.7976300000E-01  2.9830000000E-03
                       8.4223700000E-01  3.4856700000E-01  9.9937100000E-01
                       9.7976300000E-01  1.4860400000E-01  5.0298300000E-01
                       3.4856700000E-01  8.4223700000E-01  4.9937100000E-01
                       7.8180400000E-01  6.1351400000E-01  1.4169300000E-01
                       1.4616400000E-01  3.0467300000E-01  1.1775100000E-01
                       3.0467300000E-01  1.4616400000E-01  6.1775100000E-01
                       4.6517400000E-01  9.5283000000E-01  1.1320200000E-01
                       6.1351400000E-01  7.8180400000E-01  6.4169300000E-01
                       9.5283000000E-01  4.6517400000E-01  6.1320200000E-01
            znucl       31.00000   16.00000

 chkinp: Checking input parameters for consistency.

== DATASET  1 ==================================================================
-   mpi_nproc: 1, omp_nthreads: -1 (-1 if OMP is not activated)

--- !DatasetInfo
iteration_state: {dtset: 1, }
dimensions: {natom: 10, nkpt: 1, mband: 53, nsppol: 1, nspinor: 1, nspden: 1, mpw: 17277, }
cutoff_energies: {ecut:  40.0, pawecutdg:  -1.0, }
electrons: {nelect:   8.80000000E+01, charge:   0.00000000E+00, occopt:   1.00000000E+00, tsmear:   1.00000000E-02, }
meta: {optdriver: 1, rfelfd: 2, }
...

 Real(R)+Recip(G) space primitive vectors, cartesian coordinates (Bohr,Bohr^-1):
 R(1)= 11.9589315  0.0000000  1.9372375  G(1)=  0.0836195  0.0548859  0.0000000
 R(2)= -6.5622266  9.9976610  1.9372375  G(2)=  0.0000000  0.1000234  0.0000000
 R(3)=  0.0000000  0.0000000 11.9623931  G(3)= -0.0135417 -0.0250866  0.0835953
 Unit cell volume ucvol=  1.4302398E+03 bohr^3
 Angles (23,13,12)=  8.07985375E+01  8.07985375E+01  1.20605835E+02 degrees

 getcut: wavevector=  0.0000  0.0000  0.0000  ngfft=  72  72  72
         ecut(hartree)=     40.000   => boxcut(ratio)=   2.08763

--- Pseudopotential description ------------------------------------------------
- pspini: atom type   1  psp file is /scratch/users/j/a/jabreu/pseudos/PBEsol/Ga.psp8
- pspatm: opening atomic psp file    /scratch/users/j/a/jabreu/pseudos/PBEsol/Ga.psp8
- Ga    ONCVPSP-3.3.0  r_core=   1.66857   1.75011   1.90252
- 31.00000  13.00000    180112                znucl, zion, pspdat
    8 -116133    2    4       600   0.00000   pspcod,pspxc,lmax,lloc,mmax,r2well
    5.99000000000000    5.00000000000000    0.00000000000000   rchrg,fchrg,qchrg
     nproj     2     2     2
     extension_switch     1
  pspatm : epsatm=   24.50969055
         --- l  ekb(1:nproj) -->
             0    7.053021    1.156713
             1    6.846070    1.293139
             2   -8.368667   -2.819170
 pspatm: atomic psp has been read  and splines computed

- pspini: atom type   2  psp file is /scratch/users/j/a/jabreu/pseudos/PBEsol/S.psp8
- pspatm: opening atomic psp file    /scratch/users/j/a/jabreu/pseudos/PBEsol/S.psp8
- S     ONCVPSP-3.3.0  r_core=   1.45376   1.45376   1.61851
- 16.00000   6.00000    180112                znucl, zion, pspdat
    8 -116133    2    4       600   0.00000   pspcod,pspxc,lmax,lloc,mmax,r2well
    5.99000000000000    6.00000000000000    0.00000000000000   rchrg,fchrg,qchrg
     nproj     2     2     2
     extension_switch     1
  pspatm : epsatm=    8.71840985
         --- l  ekb(1:nproj) -->
             0    6.834532    0.579453
             1    3.282851    0.896984
             2   -3.496974   -0.974265
 pspatm: atomic psp has been read  and splines computed

   1.32307315E+04                                ecore*ucvol(ha*bohr**3)

 ==>  initialize data related to q vector <==

 The list of irreducible perturbations for this q vector is:
    1)    idir= 1    ipert=  11
    2)    idir= 2    ipert=  11
    3)    idir= 3    ipert=  11

 Perturbation wavevector (in red.coord.)   0.000000  0.000000  0.000000
 Perturbation : derivative vs k along direction   1

 dfpt_looppert : COMMENT -
  In a d/dk calculation, iscf is set to -3 automatically.
 The set of symmetries contains only one element for this perturbation.
 symkpt : not enough symmetry to change the number of k points.

 Initialisation of the first-order wave-functions :
  ireadwf=   0

--- !BeginCycle
iteration_state: {dtset: 1, }
solver: {iscf: 7, nstep: 2000, nline: 4, wfoptalg: 0, }
tolerances: {tolwfr: 1.00E-20, }
...

     iter   2DEtotal(Ha)        deltaE(Ha) residm    vres2
-ETOT  1  -70.147086394564     -7.015E+01 6.858E-02 0.000E+00
 ETOT  2  -70.260210345124     -1.131E-01 1.529E-02 0.000E+00
 ETOT  3  -70.261051194152     -8.408E-04 1.511E-03 0.000E+00
 ETOT  4  -70.261061153470     -9.959E-06 5.762E-04 0.000E+00
 ETOT  5  -70.261061293016     -1.395E-07 6.665E-05 0.000E+00
 ETOT  6  -70.261061295174     -2.158E-09 2.908E-05 0.000E+00
 ETOT  7  -70.261061295210     -3.523E-11 3.331E-06 0.000E+00
 ETOT  8  -70.261061295210     -5.826E-13 1.556E-06 0.000E+00
 ETOT  9  -70.261061295210     -5.684E-14 1.761E-07 0.000E+00
 ETOT 10  -70.261061295210      2.842E-14 8.581E-08 0.000E+00
 ETOT 11  -70.261061295210     -1.421E-14 9.636E-09 0.000E+00
 ETOT 12  -70.261061295210      7.105E-14 4.812E-09 0.000E+00
 ETOT 13  -70.261061295210     -1.421E-14 5.378E-10 0.000E+00
 ETOT 14  -70.261061295210      1.421E-14 2.727E-10 0.000E+00
 ETOT 15  -70.261061295210      0.000E+00 3.038E-11 0.000E+00
 ETOT 16  -70.261061295210      2.842E-14 1.556E-11 0.000E+00
 ETOT 17  -70.261061295210     -2.842E-14 1.729E-12 0.000E+00
 ETOT 18  -70.261061295210      0.000E+00 8.921E-13 0.000E+00
 ETOT 19  -70.261061295210     -1.421E-14 9.893E-14 0.000E+00
 ETOT 20  -70.261061295210      1.421E-14 5.131E-14 0.000E+00
 ETOT 21  -70.261061295210      0.000E+00 5.679E-15 0.000E+00
 ETOT 22  -70.261061295210      0.000E+00 2.958E-15 0.000E+00
 ETOT 23  -70.261061295210      0.000E+00 3.268E-16 0.000E+00
 ETOT 24  -70.261061295210     -2.842E-14 1.708E-16 0.000E+00
 ETOT 25  -70.261061295210      2.842E-14 1.884E-17 0.000E+00
 ETOT 26  -70.261061295210      0.000E+00 9.880E-18 0.000E+00
 ETOT 27  -70.261061295210     -2.842E-14 1.087E-18 0.000E+00
 ETOT 28  -70.261061295210      4.263E-14 5.719E-19 0.000E+00
 ETOT 29  -70.261061295210     -1.421E-14 6.283E-20 0.000E+00
 ETOT 30  -70.261061295210      0.000E+00 3.313E-20 0.000E+00
 ETOT 31  -70.261061295210      2.842E-14 9.633E-21 0.000E+00

 At SCF step   31   max residual=  9.63E-21 < tolwfr=  1.00E-20 =>converged.

 ----iterations are completed or convergence reached----

 dfpt_looppert: DFPT cycle converged with prtwf=-1. Will skip output of the 1st-order WFK file.
 dfpt_looppert : ek2=    6.9514530086E+01
          f-sum rule ratio=    1.1552102438E+00
 prteigrs : about to open file /scratch/users/j/a/jabreu/flow_simple_10atoms/flow/w444/t1/tmpdata/tmp_1WF1_EIG
 Expectation of eigenvalue derivatives (hartree) for nkpt=   1  k points:
  (in case of degenerate eigenvalues, averaged derivative)
 kpt#   1, nband= 53, wtk=  1.00000, kpt=  0.0000  0.0000  0.0000 (reduced coord)
  -0.00000   -0.00000    0.00000    0.00000   -0.00000   -0.00000    0.00000   -0.00000
   0.00000   -0.00000    0.00000   -0.00000    0.00000   -0.00000    0.00000   -0.00000
  -0.00000    0.00000    0.00000    0.00000    0.00000   -0.00000    0.00000    0.00000
   0.00000    0.00000   -0.00000    0.00000   -0.00000   -0.00000    0.00000   -0.00000
  -0.00000    0.00000    0.00000   -0.00000    0.00000    0.00000   -0.00000   -0.00000
  -0.00000    0.00000   -0.00000   -0.00000   -0.00000    0.00000   -0.00000   -0.00000
  -0.00000    0.00000    0.00000   -0.00000    0.00000

 Eight components of 2nd-order total energy (hartree) are
 1,2,3: 0th-order hamiltonian combined with 1st-order wavefunctions
     kin0=   8.18574890E+01 eigvalue=   2.63602692E+00  local=  -3.61319893E+01
 4,5,6: 1st-order hamiltonian combined with 1st and 0th-order wfs
     kin1=  -8.03038972E+01  Hartree=   0.00000000E+00     xc=   0.00000000E+00
 7,8,9: eventually, occupation + non-local contributions
    edocc=   1.26352609E+01     enl0=   9.26427383E+00   enl1=  -6.02182253E+01
 1-9 gives the relaxation energy (to be shifted if some occ is /=2.0)
   erelax=  -7.02610613E+01
  No Ewald or frozen-wf contrib.: the relaxation energy is the total one
 2DEtotal=   -0.7026106130E+02 Ha. Also 2DEtotal=   -0.191190070931E+04 eV
    (  non-var. 2DEtotal :   -7.0261061295E+01 Ha)

 Perturbation wavevector (in red.coord.)   0.000000  0.000000  0.000000
 Perturbation : derivative vs k along direction   2
 The set of symmetries contains only one element for this perturbation.
 symkpt : not enough symmetry to change the number of k points.

[...]

 Perturbation wavevector (in red.coord.)   0.000000  0.000000  0.000000
 Perturbation : derivative vs k along direction   3
 The set of symmetries contains only one element for this perturbation.
 symkpt : not enough symmetry to change the number of k points.

 Initialisation of the first-order wave-functions :
  ireadwf=   0

--- !BeginCycle
iteration_state: {dtset: 1, }
solver: {iscf: 7, nstep: 2000, nline: 4, wfoptalg: 0, }
tolerances: {tolwfr: 1.00E-20, }
...

     iter   2DEtotal(Ha)        deltaE(Ha) residm    vres2
-ETOT  1  -53.900318683509     -5.390E+01 1.010E-01 0.000E+00
 ETOT  2  -53.975659346305     -7.534E-02 1.082E-02 0.000E+00
 ETOT  3  -53.976152975033     -4.936E-04 1.877E-03 0.000E+00
 ETOT  4  -53.976158247391     -5.272E-06 4.943E-04 0.000E+00
 ETOT  5  -53.976158316474     -6.908E-08 1.037E-04 0.000E+00
 ETOT  6  -53.976158317512     -1.038E-09 2.915E-05 0.000E+00
 ETOT  7  -53.976158317529     -1.693E-11 6.191E-06 0.000E+00
 ETOT  8  -53.976158317529     -2.842E-13 1.762E-06 0.000E+00
 ETOT  9  -53.976158317529      2.132E-14 3.761E-07 0.000E+00
 ETOT 10  -53.976158317529      7.105E-15 1.077E-07 0.000E+00
 ETOT 11  -53.976158317529     -7.105E-15 2.309E-08 0.000E+00
 ETOT 12  -53.976158317529      2.132E-14 6.630E-09 0.000E+00
 ETOT 13  -53.976158317529      0.000E+00 1.432E-09 0.000E+00
 ETOT 14  -53.976158317529      0.000E+00 4.109E-10 0.000E+00
 ETOT 15  -53.976158317529     -7.105E-15 8.964E-11 0.000E+00
 ETOT 16  -53.976158317529     -7.105E-15 2.562E-11 0.000E+00
 ETOT 17  -53.976158317529      0.000E+00 5.666E-12 0.000E+00
 ETOT 18  -53.976158317529      7.105E-15 1.607E-12 0.000E+00
 ETOT 19  -53.976158317529     -2.132E-14 3.610E-13 0.000E+00
 ETOT 20  -53.976158317529      1.421E-14 1.013E-13 0.000E+00
 ETOT 21  -53.976158317529     -7.105E-15 2.317E-14 0.000E+00
 ETOT 22  -53.976158317529     -7.105E-15 6.429E-15 0.000E+00
 ETOT 23  -53.976158317529      0.000E+00 1.495E-15 0.000E+00
 ETOT 24  -53.976158317529      7.105E-15 4.099E-16 0.000E+00
 ETOT 25  -53.976158317529      7.105E-15 9.685E-17 0.000E+00
 ETOT 26  -53.976158317529      0.000E+00 2.626E-17 0.000E+00
 ETOT 27  -53.976158317529     -1.421E-14 6.291E-18 0.000E+00
 ETOT 28  -53.976158317529      7.105E-15 1.688E-18 0.000E+00
 ETOT 29  -53.976158317529      7.105E-15 4.094E-19 0.000E+00
 ETOT 30  -53.976158317529      7.105E-15 1.088E-19 0.000E+00
 ETOT 31  -53.976158317529      0.000E+00 2.667E-20 0.000E+00
 ETOT 32  -53.976158317529      0.000E+00 9.498E-21 0.000E+00

 At SCF step   32   max residual=  9.50E-21 < tolwfr=  1.00E-20 =>converged.

 ----iterations are completed or convergence reached----

 dfpt_looppert: DFPT cycle converged with prtwf=-1. Will skip output of the 1st-order WFK file.
 dfpt_looppert : ek2=    5.4202169411E+01
          f-sum rule ratio=    1.1249890452E+00
 prteigrs : about to open file /scratch/users/j/a/jabreu/flow_simple_10atoms/flow/w444/t1/tmpdata/tmp_1WF1_EIG
 Expectation of eigenvalue derivatives (hartree) for nkpt=   1  k points:
  (in case of degenerate eigenvalues, averaged derivative)
 kpt#   1, nband= 53, wtk=  1.00000, kpt=  0.0000  0.0000  0.0000 (reduced coord)
   0.00000    0.00000   -0.00000    0.00000    0.00000    0.00000   -0.00000    0.00000
   0.00000    0.00000   -0.00000    0.00000   -0.00000    0.00000    0.00000    0.00000
   0.00000   -0.00000    0.00000    0.00000   -0.00000   -0.00000   -0.00000   -0.00000
   0.00000    0.00000    0.00000    0.00000    0.00000   -0.00000    0.00000   -0.00000
   0.00000   -0.00000   -0.00000   -0.00000   -0.00000    0.00000    0.00000   -0.00000
   0.00000   -0.00000    0.00000   -0.00000    0.00000    0.00000    0.00000   -0.00000
  -0.00000    0.00000   -0.00000    0.00000   -0.00000

 Eight components of 2nd-order total energy (hartree) are
 1,2,3: 0th-order hamiltonian combined with 1st-order wavefunctions
     kin0=   5.82133791E+01 eigvalue=   2.48167034E+00  local=  -2.45999464E+01
 4,5,6: 1st-order hamiltonian combined with 1st and 0th-order wfs
     kin1=  -6.09768468E+01  Hartree=   0.00000000E+00     xc=   0.00000000E+00
 7,8,9: eventually, occupation + non-local contributions
    edocc=   1.07512065E+01     enl0=   7.12984873E+00   enl1=  -4.69754698E+01
 1-9 gives the relaxation energy (to be shifted if some occ is /=2.0)
   erelax=  -5.39761583E+01
  No Ewald or frozen-wf contrib.: the relaxation energy is the total one
 2DEtotal=   -0.5397615832E+02 Ha. Also 2DEtotal=   -0.146876596327E+04 eV
    (  non-var. 2DEtotal :   -5.3976158317E+01 Ha)

 CALCULATION OF EFFECTIVE MASSES
 NOTE : Additional infos (eff. mass eigenvalues, eigenvectors and, if degenerate, average mass) are available in stdout.

 K-point ( 0.000, 0.000, 0.000) | band =    44
 Effective mass tensor:
             -1.9702780008             -0.6321101210             -0.1413948689
             -0.6321101210             -2.8000768085             -0.2619411236
             -0.1413948689             -0.2619411236             -0.2365575175
 Effective mass tensor eigenvalues:
             -3.1714791128             -1.6290658253             -0.2063673887
 Angular average effective mass 1/(<1/m>)=  -0.5194907837
 Angular average effective mass for Frohlich model (<m**0.5>)**2=  -0.7836710785
 Effective masses along directions: (cart. coord. / red. coord. -> eff. mass)
    1:   1.000000  0.000000  0.000000 /   0.876686 -0.481064  0.000000 ->  -1.7956685782
    2:   0.000000  1.000000  0.000000 /   0.000000  1.000000  0.000000 ->  -2.3901081190
    3:   0.000000  0.000000  1.000000 /   0.157857  0.157857  0.974763 ->  -0.2083507331
    4:   0.577350  0.577350  0.577350 /   0.727291  0.281192  0.626082 ->  -0.6926246251
    5:   0.000000  0.707107  0.707107 /   0.113897  0.701697  0.703313 ->  -0.4527400590
    6:   0.707107  0.000000  0.707107 /   0.734853 -0.244577  0.632592 ->  -0.4061392412
    7:   0.707107  0.707107  0.000000 /   0.961128  0.276103  0.000000 ->  -2.6168729795

 K-point ( 0.000, 0.000, 0.000) | band =    45
 Effective mass tensor:
              0.2445396816             -0.0114673586              0.0083254841
             -0.0114673586              0.2294858589              0.0154234623
              0.0083254841              0.0154234623              0.2018784442
 Effective mass tensor eigenvalues:
              0.1920475882              0.2331266766              0.2507297199
 Angular average effective mass 1/(<1/m>)=   0.2224708196
 Angular average effective mass for Frohlich model (<m**0.5>)**2=   0.2233400738
 Effective masses along directions: (cart. coord. / red. coord. -> eff. mass)
    1:   1.000000  0.000000  0.000000 /   0.876686 -0.481064  0.000000 ->   0.2435546908
    2:   0.000000  1.000000  0.000000 /   0.000000  1.000000  0.000000 ->   0.2277076124
    3:   0.000000  0.000000  1.000000 /   0.157857  0.157857  0.974763 ->   0.2005027047
    4:   0.577350  0.577350  0.577350 /   0.727291  0.281192  0.626082 ->   0.2332932894
    5:   0.000000  0.707107  0.707107 /   0.113897  0.701697  0.703313 ->   0.2301476463
    6:   0.707107  0.000000  0.707107 /   0.734853 -0.244577  0.632592 ->   0.2293207958
    7:   0.707107  0.707107  0.000000 /   0.961128  0.276103  0.000000 ->   0.2238943740

 END OF EFFECTIVE MASSES SECTION

 ---- first-order wavefunction calculations are completed ----

 Total localisation tensor (bohr^2) in cartesian coordinates
  WARNING : still subject to testing - especially symmetries.
      direction              matrix element
   alpha     beta       real part   imaginary part
     1        1       3.2634917465    0.0000000000
     1        2      -1.1506286110    0.0000000000
     1        3       0.1833567522    0.0000000000
     2        1      -1.1506286110    0.0000000000
     2        2       1.7530017564    0.0000000000
     2        3       0.3396775275    0.0000000000
     3        1       0.1833567522    0.0000000000
     3        2       0.3396775275    0.0000000000
     3        3       2.0613283201    0.0000000000

 respfn : d/dk was computed, but no 2DTE, so no DDB output.

== END DATASET(S) ==============================================================

 -outvars: echo values of variables after computation  --------
            acell      1.0000000000E+00  1.0000000000E+00  1.0000000000E+00 Bohr
              amu      6.97230000E+01  3.20660000E+01
             ecut      4.00000000E+01 Hartree
           etotal     -5.3976158318E+01
            fcart      0.0000000000E+00  0.0000000000E+00  0.0000000000E+00
                       0.0000000000E+00  0.0000000000E+00  0.0000000000E+00
                       0.0000000000E+00  0.0000000000E+00  0.0000000000E+00
                       0.0000000000E+00  0.0000000000E+00  0.0000000000E+00
                       0.0000000000E+00  0.0000000000E+00  0.0000000000E+00
                       0.0000000000E+00  0.0000000000E+00  0.0000000000E+00
                       0.0000000000E+00  0.0000000000E+00  0.0000000000E+00
                       0.0000000000E+00  0.0000000000E+00  0.0000000000E+00
                       0.0000000000E+00  0.0000000000E+00  0.0000000000E+00
                       0.0000000000E+00  0.0000000000E+00  0.0000000000E+00
-          fftalg         512
           irdden           1
           irdwfk           1
           istwfk        1
              ixc     -116133
           kptopt           0
P           mkmem           1
P          mkqmem           1
P          mk1mem           1
            natom          10
            nband          53
           nbdbuf           4
            ngfft          72      72      72
             nkpt           1
            nstep        2000
             nsym           2
           ntypat           2
              occ      2.000000  2.000000  2.000000  2.000000  2.000000  2.000000
                       2.000000  2.000000  2.000000  2.000000  2.000000  2.000000
                       2.000000  2.000000  2.000000  2.000000  2.000000  2.000000
                       2.000000  2.000000  2.000000  2.000000  2.000000  2.000000
                       2.000000  2.000000  2.000000  2.000000  2.000000  2.000000
                       2.000000  2.000000  2.000000  2.000000  2.000000  2.000000
                       2.000000  2.000000  2.000000  2.000000  2.000000  2.000000
                       2.000000  2.000000  0.000000  0.000000  0.000000  0.000000
                       0.000000  0.000000  0.000000  0.000000  0.000000
        optdriver           1
            prtwf          -1
            rfdir           1       1       1
           rfelfd           2
            rprim      1.1958931543E+01  0.0000000000E+00  1.9372375163E+00
                      -6.5622266191E+00  9.9976609994E+00  1.9372375163E+00
                       0.0000000000E+00  0.0000000000E+00  1.1962393050E+01
          spgroup           9
           strten      0.0000000000E+00  0.0000000000E+00  0.0000000000E+00
                       0.0000000000E+00  0.0000000000E+00  0.0000000000E+00
           symrel      1  0  0   0  1  0   0  0  1       0  1  0   1  0  0   0  0  1
            tnons      0.0000000  0.0000000  0.0000000    -0.0000000  0.0000000  0.5000000
           tolwfr      1.00000000E-20
            typat      1  1  1  1  2  2  2  2  2  2
           useylm           1
           xangst     -2.4618814838E+00  5.1834697967E+00  1.1756194003E+00
                       4.1195805280E+00  1.8441056833E+00  7.5469871745E+00
                       5.6842869103E+00  7.8619456507E-01  4.3407322814E+00
                      -7.1886668976E-01  4.4558837710E+00  4.3818742934E+00
                       2.8170868369E+00  3.2458168851E+00  2.3273476821E+00
                      -1.3301821689E-01  1.6118829690E+00  1.2075623311E+00
                       1.4205244939E+00  7.7328566129E-01  4.3726752123E+00
                      -3.6497477370E-01  5.0409798353E+00  2.1702495900E+00
                       1.1676807918E+00  4.1361609092E+00  5.4924605633E+00
                       4.4145293818E+00  2.4610190211E+00  5.3353624712E+00
            xcart     -4.6522817759E+00  9.7953383338E+00  2.2215987030E+00
                       7.7848789804E+00  3.4848547016E+00  1.4261738888E+01
                       1.0741745521E+01  1.4856924152E+00  8.2027952281E+00
                      -1.3584611697E+00  8.4204000072E+00  8.2805423632E+00
                       5.3235226144E+00  6.1337049904E+00  4.3980497352E+00
                      -2.5136800061E-01  3.0460173697E+00  2.2819620942E+00
                       2.6844022586E+00  1.4612981223E+00  8.2631586192E+00
                      -6.8970236771E-01  9.5260713301E+00  4.1011773651E+00
                       2.2065969072E+00  7.8162113600E+00  1.0379246260E+01
                       8.3422515372E+00  4.6506519577E+00  1.0082373890E+01
             xred      1.4860400000E-01  9.7976300000E-01  2.9830000000E-03
                       8.4223700000E-01  3.4856700000E-01  9.9937100000E-01
                       9.7976300000E-01  1.4860400000E-01  5.0298300000E-01
                       3.4856700000E-01  8.4223700000E-01  4.9937100000E-01
                       7.8180400000E-01  6.1351400000E-01  1.4169300000E-01
                       1.4616400000E-01  3.0467300000E-01  1.1775100000E-01
                       3.0467300000E-01  1.4616400000E-01  6.1775100000E-01
                       4.6517400000E-01  9.5283000000E-01  1.1320200000E-01
                       6.1351400000E-01  7.8180400000E-01  6.4169300000E-01
                       9.5283000000E-01  4.6517400000E-01  6.1320200000E-01
            znucl       31.00000   16.00000

- Timing analysis has been suppressed with timopt=0

 Suggested references for the acknowledgment of ABINIT usage.

 Calculation completed.
.Delivered   2 WARNINGs and   5 COMMENTs to log file.