.Version 9.5.1 of ABINIT

 ABINIT is a project of the Universite Catholique de Louvain,
 Corning Inc. and other collaborators, see ~abinit/doc/developers/contributors.txt .
 acknowledgments of the ABINIT effort.

.Starting date : Wed 19 May 2021.
- ( at 01h35 )

- input  file    -> /scratch/users/j/a/jabreu/flow_simple_8atoms/flow/w442/t1/run.abi
- output file    -> /scratch/users/j/a/jabreu/flow_simple_8atoms/flow/w442/t1/run.abo
- root for input  files -> /scratch/users/j/a/jabreu/flow_simple_8atoms/flow/w442/t1/indata/in
- root for output files -> /scratch/users/j/a/jabreu/flow_simple_8atoms/flow/w442/t1/outdata/out

 Symmetries : space group P6_3/m m c (#194); Bravais hP (primitive hexag.)
     intxc =       0      iscf =       7    lmnmax =      18     lnmax =       6
     mgfft =     135  mpssoang =       3    mqgrid =    6499     natom =       8
  nloc_mem =       1    nspden =       1   nspinor =       1    nsppol =       1
      nsym =      24    n1xccc =    2501    ntypat =       3    occopt =       1
   xclevel =       2
-    mband =          43        mffmem =           1         mkmem =           2
-   mkqmem =           2        mk1mem =           2           mpw =        7967
      nfft =      174960          nkpt =           2
  Rough estimation (10% accuracy) of disk space for files :

------------- Echo of variables that govern the present computation ------------
-
- outvars: echo of selected default values
-   iomode0 =  0 , fftalg0 =512 , wfoptalg0 =  0
-
- outvars: echo of global parameters not present in the input file
-  max_nthreads =    0
-
 -outvars: echo values of preprocessed input variables --------
            acell      1.0000000000E+00  1.0000000000E+00  1.0000000000E+00 Bohr
              amu      2.69815390E+01  6.35460000E+01  1.59994000E+01
             ecut      4.60000000E+01 Hartree
-          fftalg         512
           irdden           1
           irdwfk           1
           istwfk        0    1
              ixc     -116133
              kpt      5.00000000E-01  0.00000000E+00  3.33333333E-01
                       0.00000000E+00  0.00000000E+00  0.00000000E+00
           kptopt           0
P           mkmem           2
P          mkqmem           2
P          mk1mem           2
            natom           8
            nband          43
           nbdbuf           4
            ngfft          36      36     135
             nkpt           2
            nstep        2000
             nsym          24
           ntypat           3
              occ      2.000000  2.000000  2.000000  2.000000  2.000000  2.000000
                       2.000000  2.000000  2.000000  2.000000  2.000000  2.000000
                       2.000000  2.000000  2.000000  2.000000  2.000000  2.000000
                       2.000000  2.000000  2.000000  2.000000  2.000000  2.000000
                       2.000000  2.000000  2.000000  2.000000  2.000000  2.000000
                       2.000000  2.000000  2.000000  2.000000  0.000000  0.000000
                       0.000000  0.000000  0.000000  0.000000  0.000000  0.000000
                       0.000000
        optdriver           1
            prtwf          -1
            rfdir           1       1       1
           rfelfd           2
            rprim      5.3777747064E+00  0.0000000000E+00  0.0000000000E+00
                      -2.6888873532E+00  4.6572895116E+00  0.0000000000E+00
                       0.0000000000E+00  0.0000000000E+00  2.1284231913E+01
          spgroup         194
           symrel      1  0  0   0  1  0   0  0  1      -1  0  0   0 -1  0   0  0 -1
                       0  1  0   1  0  0   0  0  1       0 -1  0  -1  0  0   0  0 -1
                       1  1  0  -1  0  0   0  0  1      -1 -1  0   1  0  0   0  0 -1
                      -1  0  0   1  1  0   0  0  1       1  0  0  -1 -1  0   0  0 -1
                       0  1  0  -1 -1  0   0  0  1       0 -1  0   1  1  0   0  0 -1
                      -1 -1  0   0  1  0   0  0  1       1  1  0   0 -1  0   0  0 -1
                      -1  0  0   0 -1  0   0  0  1       1  0  0   0  1  0   0  0 -1
                       0 -1  0  -1  0  0   0  0  1       0  1  0   1  0  0   0  0 -1
                      -1 -1  0   1  0  0   0  0  1       1  1  0  -1  0  0   0  0 -1
                       1  0  0  -1 -1  0   0  0  1      -1  0  0   1  1  0   0  0 -1
                       0 -1  0   1  1  0   0  0  1       0  1  0  -1 -1  0   0  0 -1
                       1  1  0   0 -1  0   0  0  1      -1 -1  0   0  1  0   0  0 -1
            tnons      0.0000000  0.0000000  0.0000000     0.0000000  0.0000000  0.0000000
                       0.0000000  0.0000000  0.5000000     0.0000000  0.0000000  0.5000000
                       0.0000000  0.0000000  0.5000000     0.0000000  0.0000000  0.5000000
                       0.0000000  0.0000000  0.0000000     0.0000000  0.0000000  0.0000000
                       0.0000000  0.0000000  0.0000000     0.0000000  0.0000000  0.0000000
                       0.0000000  0.0000000  0.5000000     0.0000000  0.0000000  0.5000000
                       0.0000000  0.0000000  0.5000000     0.0000000  0.0000000  0.5000000
                       0.0000000  0.0000000  0.0000000     0.0000000  0.0000000  0.0000000
                       0.0000000  0.0000000  0.0000000     0.0000000  0.0000000  0.0000000
                       0.0000000  0.0000000  0.5000000     0.0000000  0.0000000  0.5000000
                       0.0000000  0.0000000  0.5000000     0.0000000  0.0000000  0.5000000
                       0.0000000  0.0000000  0.0000000     0.0000000  0.0000000  0.0000000
           tolwfr      1.00000000E-20
            typat      1  1  2  2  3  3  3  3
           useylm           1
              wtk        0.50000    0.50000
           xangst      0.0000000000E+00  0.0000000000E+00  0.0000000000E+00
                       0.0000000000E+00  0.0000000000E+00  5.6315652154E+00
                       1.4228979038E+00  8.2151048778E-01  8.4473478231E+00
                       0.0000000000E+00  1.6430209756E+00  2.8157826077E+00
                       0.0000000000E+00  1.6430209756E+00  4.6672047248E+00
                       1.4228979038E+00  8.2151048778E-01  1.0298769940E+01
                       0.0000000000E+00  1.6430209756E+00  9.6436049061E-01
                       1.4228979038E+00  8.2151048778E-01  6.5959257060E+00
            xcart      0.0000000000E+00  0.0000000000E+00  0.0000000000E+00
                       0.0000000000E+00  0.0000000000E+00  1.0642115957E+01
                       2.6888873532E+00  1.5524298372E+00  1.5963173935E+01
                       0.0000000000E+00  3.1048596744E+00  5.3210579783E+00
                       0.0000000000E+00  3.1048596744E+00  8.8197387359E+00
                       2.6888873532E+00  1.5524298372E+00  1.9461854692E+01
                       0.0000000000E+00  3.1048596744E+00  1.8223772206E+00
                       2.6888873532E+00  1.5524298372E+00  1.2464493177E+01
             xred      0.0000000000E+00  0.0000000000E+00  0.0000000000E+00
                       0.0000000000E+00  0.0000000000E+00  5.0000000000E-01
                       6.6666666667E-01  3.3333333333E-01  7.5000000000E-01
                       3.3333333333E-01  6.6666666667E-01  2.5000000000E-01
                       3.3333333333E-01  6.6666666667E-01  4.1437900000E-01
                       6.6666666667E-01  3.3333333333E-01  9.1437900000E-01
                       3.3333333333E-01  6.6666666667E-01  8.5621000000E-02
                       6.6666666667E-01  3.3333333333E-01  5.8562100000E-01
            znucl       13.00000   29.00000    8.00000

 chkinp: Checking input parameters for consistency.

== DATASET  1 ==================================================================
-   mpi_nproc: 1, omp_nthreads: -1 (-1 if OMP is not activated)

--- !DatasetInfo
iteration_state: {dtset: 1, }
dimensions: {natom: 8, nkpt: 2, mband: 43, nsppol: 1, nspinor: 1, nspden: 1, mpw: 7967, }
cutoff_energies: {ecut:  46.0, pawecutdg:  -1.0, }
electrons: {nelect:   6.80000000E+01, charge:   0.00000000E+00, occopt:   1.00000000E+00, tsmear:   1.00000000E-02, }
meta: {optdriver: 1, rfelfd: 2, }
...

 Real(R)+Recip(G) space primitive vectors, cartesian coordinates (Bohr,Bohr^-1):
 R(1)=  5.3777747  0.0000000  0.0000000  G(1)=  0.1859505  0.1073586  0.0000000
 R(2)= -2.6888874  4.6572895  0.0000000  G(2)=  0.0000000  0.2147172  0.0000000
 R(3)=  0.0000000  0.0000000 21.2842319  G(3)=  0.0000000  0.0000000  0.0469831
 Unit cell volume ucvol=  5.3308176E+02 bohr^3
 Angles (23,13,12)=  9.00000000E+01  9.00000000E+01  1.20000000E+02 degrees

 getcut: wavevector=  0.0000  0.0000  0.0000  ngfft=  36  36 135
         ecut(hartree)=     46.000   => boxcut(ratio)=   2.06207

--- Pseudopotential description ------------------------------------------------
- pspini: atom type   1  psp file is /scratch/users/j/a/jabreu/pseudos/PBEsol/Al.psp8
- pspatm: opening atomic psp file    /scratch/users/j/a/jabreu/pseudos/PBEsol/Al.psp8
- Al    ONCVPSP-3.3.0  r_core=   1.76802   1.76802   1.70587
- 13.00000   3.00000    180112                znucl, zion, pspdat
    8 -116133    2    4       600   0.00000   pspcod,pspxc,lmax,lloc,mmax,r2well
    5.99000000000000    5.00000000000000    0.00000000000000   rchrg,fchrg,qchrg
     nproj     2     2     2
     extension_switch     1
  pspatm : epsatm=    0.68509324
         --- l  ekb(1:nproj) -->
             0    5.834965    0.726662
             1    6.225605    0.924840
             2   -2.432733   -0.548689
 pspatm: atomic psp has been read  and splines computed

- pspini: atom type   2  psp file is /scratch/users/j/a/jabreu/pseudos/PBEsol/Cu.psp8
- pspatm: opening atomic psp file    /scratch/users/j/a/jabreu/pseudos/PBEsol/Cu.psp8
- Cu    ONCVPSP-3.3.0  r_core=   1.26204   1.45626   1.76249
- 29.00000  19.00000    180112                znucl, zion, pspdat
    8 -116133    2    4       600   0.00000   pspcod,pspxc,lmax,lloc,mmax,r2well
    5.99000000000000    3.50000000000000    0.00000000000000   rchrg,fchrg,qchrg
     nproj     2     2     2
     extension_switch     1
  pspatm : epsatm=   21.63488701
         --- l  ekb(1:nproj) -->
             0    5.008230   -0.401634
             1   -3.496700   -0.765945
             2   -6.895851   -2.521180
 pspatm: atomic psp has been read  and splines computed

- pspini: atom type   3  psp file is /scratch/users/j/a/jabreu/pseudos/PBEsol/O.psp8
- pspatm: opening atomic psp file    /scratch/users/j/a/jabreu/pseudos/PBEsol/O.psp8
- O     ONCVPSP-3.3.0  r_core=   1.35509   1.45563   1.26150
-  8.00000   6.00000    180112                znucl, zion, pspdat
    8 -116133    2    4       600   0.00000   pspcod,pspxc,lmax,lloc,mmax,r2well
    5.99000000000000    4.00000000000000    0.00000000000000   rchrg,fchrg,qchrg
     nproj     2     2     1
     extension_switch     1
  pspatm : epsatm=    6.22910522
         --- l  ekb(1:nproj) -->
             0    6.050032    0.820363
             1   -4.739617   -1.153841
             2   -1.335834
 pspatm: atomic psp has been read  and splines computed

[...]
 ETOT 19  -149.52434128778      0.000E+00 1.000E-20 0.000E+00

 At SCF step   19   max residual=  1.00E-20 < tolwfr=  1.00E-20 =>converged.

 ----iterations are completed or convergence reached----

 dfpt_looppert: DFPT cycle converged with prtwf=-1. Will skip output of the 1st-order WFK file.
 dfpt_looppert : ek2=    2.4753246880E+02
          f-sum rule ratio=    1.1328770867E+00
 prteigrs : about to open file /scratch/users/j/a/jabreu/flow_simple_8atoms/flow/w442/t1/tmpdata/tmp_1WF1_EIG
 Expectation of eigenvalue derivatives (hartree) for nkpt=   2  k points:
  (in case of degenerate eigenvalues, averaged derivative)
 kpt#   1, nband= 43, wtk=  0.50000, kpt=  0.5000  0.0000  0.3333 (reduced coord)
   0.00000    0.00000   -0.00000   -0.00000   -0.00000    0.00000    0.00000   -0.00000
  -0.00000    0.00000   -0.00000    0.00000   -0.00000    0.00000   -0.00000    0.00000
  -0.00000    0.00000   -0.00000    0.00000   -0.00000    0.00000   -0.00000    0.00000
   0.00000    0.00000    0.00000   -0.00000   -0.00000    0.00000    0.00000   -0.00000
   0.00000   -0.00000    0.00000   -0.00000    0.00000   -0.00000    0.00000   -0.00000
   0.00000   -0.00000   -0.00002
 prteigrs : prtvol=0 or 1, do not print more k-points.

 Eight components of 2nd-order total energy (hartree) are
 1,2,3: 0th-order hamiltonian combined with 1st-order wavefunctions
     kin0=   1.99791665E+02 eigvalue=  -6.68881264E+00  local=  -6.88696824E+01
 4,5,6: 1st-order hamiltonian combined with 1st and 0th-order wfs
     kin1=  -2.80423862E+02  Hartree=   0.00000000E+00     xc=   0.00000000E+00
 7,8,9: eventually, occupation + non-local contributions
    edocc=   3.17090764E+01     enl0=  -6.41790539E+00   enl1=  -1.86248205E+01
 1-9 gives the relaxation energy (to be shifted if some occ is /=2.0)
   erelax=  -1.49524341E+02
  No Ewald or frozen-wf contrib.: the relaxation energy is the total one
 2DEtotal=   -0.1495243413E+03 Ha. Also 2DEtotal=   -0.406876424720E+04 eV
    (  non-var. 2DEtotal :   -1.4952434129E+02 Ha)

 Perturbation wavevector (in red.coord.)   0.000000  0.000000  0.000000
 Perturbation : derivative vs k along direction   2
 The set of symmetries contains only one element for this perturbation.
 symkpt : not enough symmetry to change the number of k points.

[...]

 Perturbation wavevector (in red.coord.)   0.000000  0.000000  0.000000
 Perturbation : derivative vs k along direction   3
 The set of symmetries contains only one element for this perturbation.
 symkpt : not enough symmetry to change the number of k points.

-inwffil : will read wavefunctions from disk file /scratch/users/j/a/jabreu/flow_simple_8atoms/flow/w442/t1/indata/in_WFK

 Initialisation of the first-order wave-functions :
  ireadwf=   0

--- !BeginCycle
iteration_state: {dtset: 1, }
solver: {iscf: 7, nstep: 2000, nline: 4, wfoptalg: 0, }
tolerances: {tolwfr: 1.00E-20, }
...

     iter   2DEtotal(Ha)        deltaE(Ha) residm    vres2
-ETOT  1  -6.5384844769897     -6.538E+00 9.914E-03 0.000E+00
 ETOT  2  -6.5503793135696     -1.189E-02 7.309E-04 0.000E+00
 ETOT  3  -6.5505415223488     -1.622E-04 2.041E-05 0.000E+00
 ETOT  4  -6.5505452651827     -3.743E-06 3.897E-06 0.000E+00
 ETOT  5  -6.5505453753797     -1.102E-07 1.698E-07 0.000E+00
 ETOT  6  -6.5505453791450     -3.765E-09 3.748E-08 0.000E+00
 ETOT  7  -6.5505453792867     -1.417E-10 1.686E-09 0.000E+00
 ETOT  8  -6.5505453792924     -5.654E-12 4.044E-10 0.000E+00
 ETOT  9  -6.5505453792926     -2.274E-13 1.804E-11 0.000E+00
 ETOT 10  -6.5505453792926     -1.510E-14 4.483E-12 0.000E+00
 ETOT 11  -6.5505453792926      8.882E-16 1.973E-13 0.000E+00
 ETOT 12  -6.5505453792926     -1.776E-15 5.014E-14 0.000E+00
 ETOT 13  -6.5505453792926     -2.665E-15 2.182E-15 0.000E+00
 ETOT 14  -6.5505453792926      2.665E-15 5.624E-16 0.000E+00
 ETOT 15  -6.5505453792926      0.000E+00 2.422E-17 0.000E+00
 ETOT 16  -6.5505453792926     -2.665E-15 6.313E-18 0.000E+00
 ETOT 17  -6.5505453792926      1.776E-15 2.696E-19 0.000E+00
 ETOT 18  -6.5505453792926      0.000E+00 7.086E-20 0.000E+00
 ETOT 19  -6.5505453792926     -8.882E-16 9.994E-21 0.000E+00

 At SCF step   19   max residual=  9.99E-21 < tolwfr=  1.00E-20 =>converged.

 ----iterations are completed or convergence reached----

 dfpt_looppert: DFPT cycle converged with prtwf=-1. Will skip output of the 1st-order WFK file.
 dfpt_looppert : ek2=    1.1851755416E+01
          f-sum rule ratio=    1.0079425919E+00
 prteigrs : about to open file /scratch/users/j/a/jabreu/flow_simple_8atoms/flow/w442/t1/tmpdata/tmp_1WF1_EIG
 Expectation of eigenvalue derivatives (hartree) for nkpt=   2  k points:
  (in case of degenerate eigenvalues, averaged derivative)
 kpt#   1, nband= 43, wtk=  0.50000, kpt=  0.5000  0.0000  0.3333 (reduced coord)
   0.00000    0.00000   -0.00000   -0.00000   -0.00000    0.00000    0.00000   -0.00000
   0.00542   -0.00699    0.00818   -0.00661    0.00247   -0.00610    0.02076   -0.01524
  -0.00298   -0.01635    0.00965   -0.01291    0.04269   -0.01921    0.02408   -0.02274
   0.00068   -0.00035    0.00376   -0.01991    0.01610   -0.01422    0.00000   -0.00000
   0.00943   -0.00021    0.01908   -0.01599    0.02716   -0.04690    0.01391   -0.03121
   0.12359   -0.11272    0.02443
 prteigrs : prtvol=0 or 1, do not print more k-points.

 Eight components of 2nd-order total energy (hartree) are
 1,2,3: 0th-order hamiltonian combined with 1st-order wavefunctions
     kin0=   9.76992424E+00 eigvalue=  -3.46385477E-01  local=  -3.52641756E+00
 4,5,6: 1st-order hamiltonian combined with 1st and 0th-order wfs
     kin1=  -1.19458891E+01  Hartree=   0.00000000E+00     xc=   0.00000000E+00
 7,8,9: eventually, occupation + non-local contributions
    edocc=   1.10351769E+00     enl0=  -4.50093516E-01   enl1=  -1.15520169E+00
 1-9 gives the relaxation energy (to be shifted if some occ is /=2.0)
   erelax=  -6.55054538E+00
  No Ewald or frozen-wf contrib.: the relaxation energy is the total one
 2DEtotal=   -0.6550545379E+01 Ha. Also 2DEtotal=   -0.178249404808E+03 eV
    (  non-var. 2DEtotal :   -6.5505453792E+00 Ha)

 CALCULATION OF EFFECTIVE MASSES
 NOTE : Additional infos (eff. mass eigenvalues, eigenvectors and, if degenerate, average mass) are available in stdout.

--- !WARNING
src_file: m_efmas.F90
src_line: 0
message: |

    Band(s)    34,
    are not band extrema, but saddle points;
    the transport equivalent formalism breaks down in these conditions.
    The associated tensor(s) will therefore not be printed.
...

 K-point ( 0.500, 0.000, 0.333) | band =    34
 Effective mass tensor:
     *** SADDLE POINT: TRANSPORT EQV. EFF. MASS NOT DEFINED (see WARNING above) ***
 Angular average effective mass 1/(<1/m>)=  -4.7435115462
 Angular average effective mass for Frohlich model (<m**0.5>)**2=  -9.6774098460
 Effective masses along directions: (cart. coord. / red. coord. -> eff. mass)
    1:   1.000000  0.000000  0.000000 /   0.894427 -0.447214  0.000000 ->  -3.9334466422
    2:   0.000000  1.000000  0.000000 /   0.000000  1.000000  0.000000 -> -16.3845079032
    3:   0.000000  0.000000  1.000000 /   0.000000  0.000000  1.000000 ->  -3.1527875910
    4:   0.577350  0.577350  0.577350 /   0.243988  0.089306  0.965658 ->  -3.1021410017
    5:   0.000000  0.707107  0.707107 /   0.000000  0.213757  0.976887 ->  -5.2880001588
    6:   0.707107  0.000000  0.707107 /   0.243149 -0.121575  0.962340 ->  -3.5000980648
    7:   0.707107  0.707107  0.000000 /   0.939071  0.343724  0.000000 ->  -3.0774461852

 K-point ( 0.000, 0.000, 0.000) | band =    35
 Effective mass tensor:
              1.1351600034              0.0000019542             -0.0000010867
              0.0000019542              1.1351131586              0.0000003936
             -0.0000010867              0.0000003936              0.3927091958
 Effective mass tensor eigenvalues:
              0.3927091958              1.1351130772              1.1351600848
 Angular average effective mass 1/(<1/m>)=   0.6963277492
 Angular average effective mass for Frohlich model (<m**0.5>)**2=   0.7576882414
 Effective masses along directions: (cart. coord. / red. coord. -> eff. mass)
    1:   1.000000  0.000000  0.000000 /   0.894427 -0.447214  0.000000 ->   1.1351600034
    2:   0.000000  1.000000  0.000000 /   0.000000  1.000000  0.000000 ->   1.1351131586
    3:   0.000000  0.000000  1.000000 /   0.000000  0.000000  1.000000 ->   0.3927091958
    4:   0.577350  0.577350  0.577350 /   0.243988  0.089306  0.965658 ->   0.6963277369
    5:   0.000000  0.707107  0.707107 /   0.000000  0.213757  0.976887 ->   0.5835359118
    6:   0.707107  0.000000  0.707107 /   0.243149 -0.121575  0.962340 ->   0.5835409708
    7:   0.707107  0.707107  0.000000 /   0.939071  0.343724  0.000000 ->   1.1351385347

 END OF EFFECTIVE MASSES SECTION

 ---- first-order wavefunction calculations are completed ----

 Total localisation tensor (bohr^2) in cartesian coordinates
  WARNING : still subject to testing - especially symmetries.
      direction              matrix element
   alpha     beta       real part   imaginary part
     1        1       1.4676508828    0.0000000000
     1        2      -0.4403614778    0.0000000000
     1        3       0.0000000000    0.0000000000
     2        1      -0.4403614778    0.0000000000
     2        2       0.7627284532    0.0000000000
     2        3       0.0000000000    0.0000000000
     3        1       0.0000000000    0.0000000000
     3        2       0.0000000000    0.0000000000
     3        3       0.5204675806    0.0000000000

 respfn : d/dk was computed, but no 2DTE, so no DDB output.

== END DATASET(S) ==============================================================

 -outvars: echo values of variables after computation  --------
            acell      1.0000000000E+00  1.0000000000E+00  1.0000000000E+00 Bohr
              amu      2.69815390E+01  6.35460000E+01  1.59994000E+01
             ecut      4.60000000E+01 Hartree
           etotal     -6.5505453793E+00
            fcart      0.0000000000E+00  0.0000000000E+00  0.0000000000E+00
                       0.0000000000E+00  0.0000000000E+00  0.0000000000E+00
                       0.0000000000E+00  0.0000000000E+00  0.0000000000E+00
                       0.0000000000E+00  0.0000000000E+00  0.0000000000E+00
                       0.0000000000E+00  0.0000000000E+00  0.0000000000E+00
                       0.0000000000E+00  0.0000000000E+00  0.0000000000E+00
                       0.0000000000E+00  0.0000000000E+00  0.0000000000E+00
                       0.0000000000E+00  0.0000000000E+00  0.0000000000E+00
-          fftalg         512
           irdden           1
           irdwfk           1
           istwfk        0    1
              ixc     -116133
              kpt      5.00000000E-01  0.00000000E+00  3.33333333E-01
                       0.00000000E+00  0.00000000E+00  0.00000000E+00
           kptopt           0
P           mkmem           2
P          mkqmem           2
P          mk1mem           2
            natom           8
            nband          43
           nbdbuf           4
            ngfft          36      36     135
             nkpt           2
            nstep        2000
             nsym          24
           ntypat           3
              occ      2.000000  2.000000  2.000000  2.000000  2.000000  2.000000
                       2.000000  2.000000  2.000000  2.000000  2.000000  2.000000
                       2.000000  2.000000  2.000000  2.000000  2.000000  2.000000
                       2.000000  2.000000  2.000000  2.000000  2.000000  2.000000
                       2.000000  2.000000  2.000000  2.000000  2.000000  2.000000
                       2.000000  2.000000  2.000000  2.000000  0.000000  0.000000
                       0.000000  0.000000  0.000000  0.000000  0.000000  0.000000
                       0.000000
        optdriver           1
            prtwf          -1
            rfdir           1       1       1
           rfelfd           2
            rprim      5.3777747064E+00  0.0000000000E+00  0.0000000000E+00
                      -2.6888873532E+00  4.6572895116E+00  0.0000000000E+00
                       0.0000000000E+00  0.0000000000E+00  2.1284231913E+01
          spgroup         194
           strten      0.0000000000E+00  0.0000000000E+00  0.0000000000E+00
                       0.0000000000E+00  0.0000000000E+00  0.0000000000E+00
           symrel      1  0  0   0  1  0   0  0  1      -1  0  0   0 -1  0   0  0 -1
                       0  1  0   1  0  0   0  0  1       0 -1  0  -1  0  0   0  0 -1
                       1  1  0  -1  0  0   0  0  1      -1 -1  0   1  0  0   0  0 -1
                      -1  0  0   1  1  0   0  0  1       1  0  0  -1 -1  0   0  0 -1
                       0  1  0  -1 -1  0   0  0  1       0 -1  0   1  1  0   0  0 -1
                      -1 -1  0   0  1  0   0  0  1       1  1  0   0 -1  0   0  0 -1
                      -1  0  0   0 -1  0   0  0  1       1  0  0   0  1  0   0  0 -1
                       0 -1  0  -1  0  0   0  0  1       0  1  0   1  0  0   0  0 -1
                      -1 -1  0   1  0  0   0  0  1       1  1  0  -1  0  0   0  0 -1
                       1  0  0  -1 -1  0   0  0  1      -1  0  0   1  1  0   0  0 -1
                       0 -1  0   1  1  0   0  0  1       0  1  0  -1 -1  0   0  0 -1
                       1  1  0   0 -1  0   0  0  1      -1 -1  0   0  1  0   0  0 -1
            tnons      0.0000000  0.0000000  0.0000000     0.0000000  0.0000000  0.0000000
                       0.0000000  0.0000000  0.5000000     0.0000000  0.0000000  0.5000000
                       0.0000000  0.0000000  0.5000000     0.0000000  0.0000000  0.5000000
                       0.0000000  0.0000000  0.0000000     0.0000000  0.0000000  0.0000000
                       0.0000000  0.0000000  0.0000000     0.0000000  0.0000000  0.0000000
                       0.0000000  0.0000000  0.5000000     0.0000000  0.0000000  0.5000000
                       0.0000000  0.0000000  0.5000000     0.0000000  0.0000000  0.5000000
                       0.0000000  0.0000000  0.0000000     0.0000000  0.0000000  0.0000000
                       0.0000000  0.0000000  0.0000000     0.0000000  0.0000000  0.0000000
                       0.0000000  0.0000000  0.5000000     0.0000000  0.0000000  0.5000000
                       0.0000000  0.0000000  0.5000000     0.0000000  0.0000000  0.5000000
                       0.0000000  0.0000000  0.0000000     0.0000000  0.0000000  0.0000000
           tolwfr      1.00000000E-20
            typat      1  1  2  2  3  3  3  3
           useylm           1
              wtk        0.50000    0.50000
           xangst      0.0000000000E+00  0.0000000000E+00  0.0000000000E+00
                       0.0000000000E+00  0.0000000000E+00  5.6315652154E+00
                       1.4228979038E+00  8.2151048778E-01  8.4473478231E+00
                       0.0000000000E+00  1.6430209756E+00  2.8157826077E+00
                       0.0000000000E+00  1.6430209756E+00  4.6672047248E+00
                       1.4228979038E+00  8.2151048778E-01  1.0298769940E+01
                       0.0000000000E+00  1.6430209756E+00  9.6436049061E-01
                       1.4228979038E+00  8.2151048778E-01  6.5959257060E+00
            xcart      0.0000000000E+00  0.0000000000E+00  0.0000000000E+00
                       0.0000000000E+00  0.0000000000E+00  1.0642115957E+01
                       2.6888873532E+00  1.5524298372E+00  1.5963173935E+01
                       0.0000000000E+00  3.1048596744E+00  5.3210579783E+00
                       0.0000000000E+00  3.1048596744E+00  8.8197387359E+00
                       2.6888873532E+00  1.5524298372E+00  1.9461854692E+01
                       0.0000000000E+00  3.1048596744E+00  1.8223772206E+00
                       2.6888873532E+00  1.5524298372E+00  1.2464493177E+01
             xred      0.0000000000E+00  0.0000000000E+00  0.0000000000E+00
                       0.0000000000E+00  0.0000000000E+00  5.0000000000E-01
                       6.6666666667E-01  3.3333333333E-01  7.5000000000E-01
                       3.3333333333E-01  6.6666666667E-01  2.5000000000E-01
                       3.3333333333E-01  6.6666666667E-01  4.1437900000E-01
                       6.6666666667E-01  3.3333333333E-01  9.1437900000E-01
                       3.3333333333E-01  6.6666666667E-01  8.5621000000E-02
                       6.6666666667E-01  3.3333333333E-01  5.8562100000E-01
            znucl       13.00000   29.00000    8.00000

- Timing analysis has been suppressed with timopt=0

 Suggested references for the acknowledgment of ABINIT usage.

 Calculation completed.
.Delivered  15 WARNINGs and   9 COMMENTs to log file.