.Version 9.5.1 of ABINIT

 ABINIT is a project of the Universite Catholique de Louvain,
 Corning Inc. and other collaborators, see ~abinit/doc/developers/contributors.txt .
 acknowledgments of the ABINIT effort.

.Starting date : Sun 25 Apr 2021.
- ( at 18h04 )

- input  file    -> /scratch/users/j/a/jabreu/flow_simple2/flow/w255/t1/run.abi
- output file    -> /scratch/users/j/a/jabreu/flow_simple2/flow/w255/t1/run.abo
- root for input  files -> /scratch/users/j/a/jabreu/flow_simple2/flow/w255/t1/indata/in
- root for output files -> /scratch/users/j/a/jabreu/flow_simple2/flow/w255/t1/outdata/out

 Symmetries : space group Fm -3 m (#225); Bravais cF (face-center cubic)
     intxc =       0      iscf =       7    lmnmax =      18     lnmax =       6
     mgfft =      48  mpssoang =       3    mqgrid =    3001     natom =       2
  nloc_mem =       1    nspden =       1   nspinor =       1    nsppol =       1
      nsym =      48    n1xccc =    2501    ntypat =       2    occopt =       1
   xclevel =       2
-    mband =          22        mffmem =           1         mkmem =           2
-   mkqmem =           2        mk1mem =           2           mpw =        4626
      nfft =      110592          nkpt =           2
  Rough estimation (10% accuracy) of disk space for files :

------------- Echo of variables that govern the present computation ------------
-
- outvars: echo of selected default values
-   iomode0 =  0 , fftalg0 =512 , wfoptalg0 =  0
-
- outvars: echo of global parameters not present in the input file
-  max_nthreads =    0
-
 -outvars: echo values of preprocessed input variables --------
            acell      1.0000000000E+00  1.0000000000E+00  1.0000000000E+00 Bohr
              amu      1.12411000E+02  3.20660000E+01
             ecut      5.10000000E+01 Hartree
-          fftalg         512
           irdden           1
           irdwfk           1
           istwfk        1    1
              ixc     -116133
              kpt      5.00000000E-01  5.00000000E-01  5.00000000E-01
                       5.00000000E-01  6.16297582E-33  5.00000000E-01
           kptopt           0
P           mkmem           2
P          mkqmem           2
P          mk1mem           2
            natom           2
            nband          22
           nbdbuf           4
            ngfft          48      48      48
             nkpt           2
            nstep         100
             nsym          48
           ntypat           2
              occ      2.000000  2.000000  2.000000  2.000000  2.000000  2.000000
                       2.000000  2.000000  2.000000  2.000000  2.000000  2.000000
                       2.000000  0.000000  0.000000  0.000000  0.000000  0.000000
                       0.000000  0.000000  0.000000  0.000000
        optdriver           1
            prtwf          -1
            rfdir           1       1       1
           rfelfd           2
            rprim      6.2469266974E+00  0.0000000000E+00  3.6066648103E+00
                       2.0823088991E+00  5.8896589724E+00  3.6066648103E+00
                       0.0000000000E+00  0.0000000000E+00  7.2133296207E+00
          spgroup         225
           symrel      1  0  0   0  1  0   0  0  1      -1  0  0   0 -1  0   0  0 -1
                       0 -1  1   0 -1  0   1 -1  0       0  1 -1   0  1  0  -1  1  0
                      -1  0  0  -1  0  1  -1  1  0       1  0  0   1  0 -1   1 -1  0
                       0  1 -1   1  0 -1   0  0 -1       0 -1  1  -1  0  1   0  0  1
                      -1  0  0  -1  1  0  -1  0  1       1  0  0   1 -1  0   1  0 -1
                       0 -1  1   1 -1  0   0 -1  0       0  1 -1  -1  1  0   0  1  0
                       1  0  0   0  0  1   0  1  0      -1  0  0   0  0 -1   0 -1  0
                       0  1 -1   0  0 -1   1  0 -1       0 -1  1   0  0  1  -1  0  1
                      -1  0  1  -1  1  0  -1  0  0       1  0 -1   1 -1  0   1  0  0
                       0 -1  0   1 -1  0   0 -1  1       0  1  0  -1  1  0   0  1 -1
                       1  0 -1   0  0 -1   0  1 -1      -1  0  1   0  0  1   0 -1  1
                       0  1  0   0  0  1   1  0  0       0 -1  0   0  0 -1  -1  0  0
                       1  0 -1   0  1 -1   0  0 -1      -1  0  1   0 -1  1   0  0  1
                       0 -1  0   0 -1  1   1 -1  0       0  1  0   0  1 -1  -1  1  0
                      -1  0  1  -1  0  0  -1  1  0       1  0 -1   1  0  0   1 -1  0
                       0  1  0   1  0  0   0  0  1       0 -1  0  -1  0  0   0  0 -1
                       0  0 -1   0  1 -1   1  0 -1       0  0  1   0 -1  1  -1  0  1
                       1 -1  0   0 -1  1   0 -1  0      -1  1  0   0  1 -1   0  1  0
                       0  0  1   1  0  0   0  1  0       0  0 -1  -1  0  0   0 -1  0
                      -1  1  0  -1  0  0  -1  0  1       1 -1  0   1  0  0   1  0 -1
                       0  0  1   0  1  0   1  0  0       0  0 -1   0 -1  0  -1  0  0
                       1 -1  0   0 -1  0   0 -1  1      -1  1  0   0  1  0   0  1 -1
                       0  0 -1   1  0 -1   0  1 -1       0  0  1  -1  0  1   0 -1  1
                      -1  1  0  -1  0  1  -1  0  0       1 -1  0   1  0 -1   1  0  0
           tolwfr      1.00000000E-20
            typat      1  2
           useylm           1
              wtk        0.50000    0.50000
           xangst      2.2038208213E+00  1.5583366473E+00  3.8171296333E+00
                       0.0000000000E+00  0.0000000000E+00  0.0000000000E+00
            xcart      4.1646177983E+00  2.9448294862E+00  7.2133296207E+00
                       0.0000000000E+00  0.0000000000E+00  0.0000000000E+00
             xred      5.0000000000E-01  5.0000000000E-01  5.0000000000E-01
                       0.0000000000E+00  0.0000000000E+00  0.0000000000E+00
            znucl       48.00000   16.00000

 chkinp: Checking input parameters for consistency.

== DATASET  1 ==================================================================
-   mpi_nproc: 1, omp_nthreads: -1 (-1 if OMP is not activated)

--- !DatasetInfo
iteration_state: {dtset: 1, }
dimensions: {natom: 2, nkpt: 2, mband: 22, nsppol: 1, nspinor: 1, nspden: 1, mpw: 4626, }
cutoff_energies: {ecut:  51.0, pawecutdg:  -1.0, }
electrons: {nelect:   2.60000000E+01, charge:   0.00000000E+00, occopt:   1.00000000E+00, tsmear:   1.00000000E-02, }
meta: {optdriver: 1, rfelfd: 2, }
...

 Real(R)+Recip(G) space primitive vectors, cartesian coordinates (Bohr,Bohr^-1):
 R(1)=  6.2469267  0.0000000  3.6066648  G(1)=  0.1600787 -0.0565964  0.0000000
 R(2)=  2.0823089  5.8896590  3.6066648  G(2)=  0.0000000  0.1697891  0.0000000
 R(3)=  0.0000000  0.0000000  7.2133296  G(3)= -0.0800394 -0.0565964  0.1386322
 Unit cell volume ucvol=  2.6539476E+02 bohr^3
 Angles (23,13,12)=  6.00000000E+01  6.00000000E+01  6.00000000E+01 degrees

 getcut: wavevector=  0.0000  0.0000  0.0000  ngfft=  48  48  48
         ecut(hartree)=     51.000   => boxcut(ratio)=   2.06993

--- Pseudopotential description ------------------------------------------------
- pspini: atom type   1  psp file is /scratch/users/j/a/jabreu/pseudos/PBEsol/Cd.psp8
- pspatm: opening atomic psp file    /scratch/users/j/a/jabreu/pseudos/PBEsol/Cd.psp8
- Cd    ONCVPSP-3.3.0  r_core=   1.25838   1.30423   1.35174
- 48.00000  20.00000    180112                znucl, zion, pspdat
    8 -116133    2    4       600   0.00000   pspcod,pspxc,lmax,lloc,mmax,r2well
    5.99000000000000    6.00000000000000    0.00000000000000   rchrg,fchrg,qchrg
     nproj     2     2     2
     extension_switch     1
  pspatm : epsatm=   23.26728021
         --- l  ekb(1:nproj) -->
             0   63.701523    3.700425
             1    8.703569    1.290373
             2    0.983656   -0.721725
 pspatm: atomic psp has been read  and splines computed

- pspini: atom type   2  psp file is /scratch/users/j/a/jabreu/pseudos/PBEsol/S.psp8
- pspatm: opening atomic psp file    /scratch/users/j/a/jabreu/pseudos/PBEsol/S.psp8
- S     ONCVPSP-3.3.0  r_core=   1.45376   1.45376   1.61851
- 16.00000   6.00000    180112                znucl, zion, pspdat
    8 -116133    2    4       600   0.00000   pspcod,pspxc,lmax,lloc,mmax,r2well
    5.99000000000000    6.00000000000000    0.00000000000000   rchrg,fchrg,qchrg
     nproj     2     2     2
     extension_switch     1
  pspatm : epsatm=    8.71840985
         --- l  ekb(1:nproj) -->
             0    6.834532    0.579453
             1    3.282851    0.896984
             2   -3.496974   -0.974265
 pspatm: atomic psp has been read  and splines computed

   8.31627942E+02                                ecore*ucvol(ha*bohr**3)

-inwffil : will read wavefunctions from disk file /scratch/users/j/a/jabreu/flow_simple2/flow/w255/t1/indata/in_WFK

 ==>  initialize data related to q vector <==

 The list of irreducible perturbations for this q vector is:
    1)    idir= 1    ipert=   3
    2)    idir= 2    ipert=   3
    3)    idir= 3    ipert=   3

 Perturbation wavevector (in red.coord.)   0.000000  0.000000  0.000000
 Perturbation : derivative vs k along direction   1

 dfpt_looppert : COMMENT -
  In a d/dk calculation, iscf is set to -3 automatically.
 The set of symmetries contains only one element for this perturbation.
 symkpt : not enough symmetry to change the number of k points.

[...]

 Initialisation of the first-order wave-functions :
  ireadwf=   0

--- !BeginCycle
iteration_state: {dtset: 1, }
solver: {iscf: 7, nstep: 100, nline: 4, wfoptalg: 0, }
tolerances: {tolwfr: 1.00E-20, }
...

     iter   2DEtotal(Ha)        deltaE(Ha) residm    vres2
-ETOT  1  -37.665908039711     -3.767E+01 1.592E-01 0.000E+00
 ETOT  2  -37.677320870581     -1.141E-02 1.003E-02 0.000E+00
 ETOT  3  -37.677345258941     -2.439E-05 6.995E-05 0.000E+00
 ETOT  4  -37.677345433464     -1.745E-07 6.497E-06 0.000E+00
 ETOT  5  -37.677345435113     -1.648E-09 5.497E-08 0.000E+00
 ETOT  6  -37.677345435129     -1.670E-11 6.169E-09 0.000E+00
 ETOT  7  -37.677345435129     -1.492E-13 5.422E-11 0.000E+00
 ETOT  8  -37.677345435129      1.421E-14 6.249E-12 0.000E+00
 ETOT  9  -37.677345435129     -7.105E-15 5.577E-14 0.000E+00
 ETOT 10  -37.677345435129      7.105E-15 6.489E-15 0.000E+00
 ETOT 11  -37.677345435129     -4.974E-14 6.309E-17 0.000E+00
 ETOT 12  -37.677345435129      0.000E+00 7.778E-18 0.000E+00
 ETOT 13  -37.677345435129      7.105E-15 1.338E-19 0.000E+00
 ETOT 14  -37.677345435129      1.421E-14 9.343E-21 0.000E+00

 At SCF step   14   max residual=  9.34E-21 < tolwfr=  1.00E-20 =>converged.

 ----iterations are completed or convergence reached----

 dfpt_looppert: DFPT cycle converged with prtwf=-1. Will skip output of the 1st-order WFK file.
 dfpt_looppert : ek2=    5.9181065918E+01
          f-sum rule ratio=    1.2859897083E+00
 prteigrs : about to open file /scratch/users/j/a/jabreu/flow_simple2/flow/w255/t1/tmpdata/tmp_1WF1_EIG
 Expectation of eigenvalue derivatives (hartree) for nkpt=   2  k points:
  (in case of degenerate eigenvalues, averaged derivative)
 kpt#   1, nband= 22, wtk=  0.50000, kpt=  0.5000  0.5000  0.5000 (reduced coord)
   0.00000   -0.00000    0.00000    0.00000   -0.00000    0.00000    0.00000    0.00000
  -0.00000   -0.00000   -0.00000    0.00000    0.00000    0.00000   -0.00000   -0.00000
  -0.00000   -0.00000   -0.00000   -0.00000    0.00000    0.00000
 prteigrs : prtvol=0 or 1, do not print more k-points.

 Eight components of 2nd-order total energy (hartree) are
 1,2,3: 0th-order hamiltonian combined with 1st-order wavefunctions
     kin0=   3.55292474E+01 eigvalue=   5.28861395E-01  local=  -1.83492358E+01
 4,5,6: 1st-order hamiltonian combined with 1st and 0th-order wfs
     kin1=  -7.61062417E+01  Hartree=   0.00000000E+00     xc=   0.00000000E+00
 7,8,9: eventually, occupation + non-local contributions
    edocc=   1.83574014E+01     enl0=   1.61107111E+00   enl1=   7.51550827E-01
 1-9 gives the relaxation energy (to be shifted if some occ is /=2.0)
   erelax=  -3.76773454E+01
  No Ewald or frozen-wf contrib.: the relaxation energy is the total one
 2DEtotal=   -0.3767734544E+02 Ha. Also 2DEtotal=   -0.102525270946E+04 eV
    (  non-var. 2DEtotal :   -3.7677345435E+01 Ha)

 Perturbation wavevector (in red.coord.)   0.000000  0.000000  0.000000
 Perturbation : derivative vs k along direction   2
 The set of symmetries contains only one element for this perturbation.
 symkpt : not enough symmetry to change the number of k points.

[...]

 Perturbation wavevector (in red.coord.)   0.000000  0.000000  0.000000
 Perturbation : derivative vs k along direction   3
 The set of symmetries contains only one element for this perturbation.
 symkpt : not enough symmetry to change the number of k points.

-inwffil : will read wavefunctions from disk file /scratch/users/j/a/jabreu/flow_simple2/flow/w255/t1/indata/in_WFK

 Initialisation of the first-order wave-functions :
  ireadwf=   0

--- !BeginCycle
iteration_state: {dtset: 1, }
solver: {iscf: 7, nstep: 100, nline: 4, wfoptalg: 0, }
tolerances: {tolwfr: 1.00E-20, }
...

     iter   2DEtotal(Ha)        deltaE(Ha) residm    vres2
-ETOT  1  -37.665531583487     -3.767E+01 1.591E-01 0.000E+00
 ETOT  2  -37.677272764679     -1.174E-02 1.003E-02 0.000E+00
 ETOT  3  -37.677299001555     -2.624E-05 6.994E-05 0.000E+00
 ETOT  4  -37.677299176290     -1.747E-07 6.497E-06 0.000E+00
 ETOT  5  -37.677299177936     -1.646E-09 5.496E-08 0.000E+00
 ETOT  6  -37.677299177952     -1.662E-11 6.168E-09 0.000E+00
 ETOT  7  -37.677299177952     -2.061E-13 5.420E-11 0.000E+00
 ETOT  8  -37.677299177952      5.684E-14 6.249E-12 0.000E+00
 ETOT  9  -37.677299177952     -3.553E-14 5.575E-14 0.000E+00
 ETOT 10  -37.677299177952     -2.842E-14 6.487E-15 0.000E+00
 ETOT 11  -37.677299177952      0.000E+00 6.291E-17 0.000E+00
 ETOT 12  -37.677299177952      0.000E+00 7.761E-18 0.000E+00
 ETOT 13  -37.677299177952      7.105E-15 1.335E-19 0.000E+00
 ETOT 14  -37.677299177952      7.105E-15 9.711E-21 0.000E+00

 At SCF step   14   max residual=  9.71E-21 < tolwfr=  1.00E-20 =>converged.

 ----iterations are completed or convergence reached----

 dfpt_looppert: DFPT cycle converged with prtwf=-1. Will skip output of the 1st-order WFK file.
 dfpt_looppert : ek2=    5.9181065918E+01
          f-sum rule ratio=    1.2859874733E+00
 prteigrs : about to open file /scratch/users/j/a/jabreu/flow_simple2/flow/w255/t1/tmpdata/tmp_1WF1_EIG
 Expectation of eigenvalue derivatives (hartree) for nkpt=   2  k points:
  (in case of degenerate eigenvalues, averaged derivative)
 kpt#   1, nband= 22, wtk=  0.50000, kpt=  0.5000  0.5000  0.5000 (reduced coord)
   0.00000    0.00000   -0.00000   -0.00000   -0.00000   -0.00000   -0.00000    0.00000
  -0.00000   -0.00000   -0.00000    0.00000    0.00000   -0.00000   -0.00000   -0.00000
   0.00000    0.00000    0.00000    0.00000   -0.00001   -0.00000
 prteigrs : prtvol=0 or 1, do not print more k-points.

 Eight components of 2nd-order total energy (hartree) are
 1,2,3: 0th-order hamiltonian combined with 1st-order wavefunctions
     kin0=   3.55408531E+01 eigvalue=   5.36190092E-01  local=  -1.83602551E+01
 4,5,6: 1st-order hamiltonian combined with 1st and 0th-order wfs
     kin1=  -7.61061094E+01  Hartree=   0.00000000E+00     xc=   0.00000000E+00
 7,8,9: eventually, occupation + non-local contributions
    edocc=   1.83419729E+01     enl0=   1.61853821E+00   enl1=   7.51511073E-01
 1-9 gives the relaxation energy (to be shifted if some occ is /=2.0)
   erelax=  -3.76772992E+01
  No Ewald or frozen-wf contrib.: the relaxation energy is the total one
 2DEtotal=   -0.3767729918E+02 Ha. Also 2DEtotal=   -0.102525145074E+04 eV
    (  non-var. 2DEtotal :   -3.7677299178E+01 Ha)

 CALCULATION OF EFFECTIVE MASSES
 NOTE : Additional infos (eff. mass eigenvalues, eigenvectors and, if degenerate, average mass) are available in stdout.

 COMMENTS:
 - At k-point ( 0.500, 0.500, 0.500), bands    12 through    13
   are DEGENERATE (effective mass tensor is therefore not defined).
   See Section IIIB Eqs. (67)-(70) and Appendix E of PRB 93 205147 (2016).
 - Angular average effective mass for Frohlich model is to be averaged over degenerate bands. See later.
 - Associated theta integrals calculated with ntheta=   1000 points.

 K-point ( 0.500, 0.500, 0.500) | band =    12
 Transport equivalent effective mass tensor:
             -0.4579696194             -0.1719980161             -0.4213062896
             -0.1719980161             -0.3363479491             -0.2979084431
             -0.4213062896             -0.2979084431             -0.9444428938
 Transport equivalent effective mass tensor eigenvalues:
             -1.3093079281             -0.2147272482             -0.2147252859
 Angular average effective mass 1/(<1/m>)=  -0.2388204705
 Angular average effective mass for Frohlich model (<m**0.5>)**2=  -0.2731344515
 Effective masses along directions: (cart. coord. / red. coord. -> eff. mass)
    1:   1.000000  0.000000  0.000000 /   0.948683  0.316228  0.000000 ->  -0.2313894569
    2:   0.000000  1.000000  0.000000 /   0.000000  1.000000  0.000000 ->  -0.2225366770
    3:   0.000000  0.000000  1.000000 /   0.408248  0.408248  0.816497 ->  -0.5172496819
    4:   0.577350  0.577350  0.577350 /   0.585539  0.688047  0.428644 ->  -0.5484985119
    5:   0.000000  0.707107  0.707107 /   0.289489  0.762222  0.578977 ->  -0.3275808522
    6:   0.707107  0.000000  0.707107 /   0.731423  0.422287  0.535439 ->  -0.5395508858
    7:   0.707107  0.707107  0.000000 /   0.616798  0.787122  0.000000 ->  -0.2038920523

 K-point ( 0.500, 0.500, 0.500) | band =    13
 Transport equivalent effective mass tensor:
           -212.2906236634            -74.9929614910           -183.6946299972
            -74.9929614910           -159.2625756499           -129.8916950206
           -183.6946299972           -129.8916950206           -424.4030651668
 Transport equivalent effective mass tensor eigenvalues:
           -583.4872020674           -106.2345501180           -106.2345122948
 Angular average effective mass 1/(<1/m>)=  -0.8931497304
 Angular average effective mass for Frohlich model (<m**0.5>)**2=  -1.5364733118
 Effective masses along directions: (cart. coord. / red. coord. -> eff. mass)
    1:   1.000000  0.000000  0.000000 /   0.948683  0.316228  0.000000 ->  -0.6059121214
    2:   0.000000  1.000000  0.000000 /   0.000000  1.000000  0.000000 ->  -0.4664778263
    3:   0.000000  0.000000  1.000000 /   0.408248  0.408248  0.816497 ->  -0.7257705632
    4:   0.577350  0.577350  0.577350 /   0.585539  0.688047  0.428644 ->  -4.2758821157
    5:   0.000000  0.707107  0.707107 /   0.289489  0.762222  0.578977 ->  -3.4238562820
    6:   0.707107  0.000000  0.707107 /   0.731423  0.422287  0.535439 ->  -2.0670949521
    7:   0.707107  0.707107  0.000000 /   0.616798  0.787122  0.000000 ->  -2.1767916363

 Angular average effective mass for Frohlich model, averaged over degenerate bands.
 Value of     (<<m**0.5>>)**2 =     7.763093E-01
 Absolute Value of <<m**0.5>> =     8.810841E-01

 K-point ( 0.500, 0.000, 0.500) | band =    14
 Effective mass tensor:
              0.2072558222             -0.0563432667              0.0690061245
             -0.0563432667              0.2470965266             -0.0975893982
              0.0690061245             -0.0975893982              0.2869372324
 Effective mass tensor eigenvalues:
              0.1674151154              0.1674151185              0.4064593472
 Angular average effective mass 1/(<1/m>)=   0.2082375565
 Angular average effective mass for Frohlich model (<m**0.5>)**2=   0.2174356642
 Effective masses along directions: (cart. coord. / red. coord. -> eff. mass)
    1:   1.000000  0.000000  0.000000 /   0.948683  0.316228  0.000000 ->   0.1856082353
    2:   0.000000  1.000000  0.000000 /   0.000000  1.000000  0.000000 ->   0.2082375556
    3:   0.000000  0.000000  1.000000 /   0.408248  0.408248  0.816497 ->   0.2371509579
    4:   0.577350  0.577350  0.577350 /   0.585539  0.688047  0.428644 ->   0.1774862137
    5:   0.000000  0.707107  0.707107 /   0.289489  0.762222  0.578977 ->   0.1682481068
    6:   0.707107  0.000000  0.707107 /   0.731423  0.422287  0.535439 ->   0.2639832428
    7:   0.707107  0.707107  0.000000 /   0.616798  0.787122  0.000000 ->   0.1688347956

 END OF EFFECTIVE MASSES SECTION

 ---- first-order wavefunction calculations are completed ----

 Total localisation tensor (bohr^2) in cartesian coordinates
  WARNING : still subject to testing - especially symmetries.
      direction              matrix element
   alpha     beta       real part   imaginary part
     1        1       2.5609333916    0.0000000000
     1        2       0.7243423501    0.0000000000
     1        3       1.7742671092    0.0000000000
     2        1       0.7243423501    0.0000000000
     2        2       2.0487495506    0.0000000000
     2        3       1.2545977524    0.0000000000
     3        1       1.7742671092    0.0000000000
     3        2       1.2545977524    0.0000000000
     3        3       4.6096800531    0.0000000000

 respfn : d/dk was computed, but no 2DTE, so no DDB output.

== END DATASET(S) ==============================================================

 -outvars: echo values of variables after computation  --------
            acell      1.0000000000E+00  1.0000000000E+00  1.0000000000E+00 Bohr
              amu      1.12411000E+02  3.20660000E+01
             ecut      5.10000000E+01 Hartree
           etotal     -3.7677299178E+01
            fcart      0.0000000000E+00  0.0000000000E+00  0.0000000000E+00
                       0.0000000000E+00  0.0000000000E+00  0.0000000000E+00
-          fftalg         512
           irdden           1
           irdwfk           1
           istwfk        1    1
              ixc     -116133
              kpt      5.00000000E-01  5.00000000E-01  5.00000000E-01
                       5.00000000E-01  6.16297582E-33  5.00000000E-01
           kptopt           0
P           mkmem           2
P          mkqmem           2
P          mk1mem           2
            natom           2
            nband          22
           nbdbuf           4
            ngfft          48      48      48
             nkpt           2
            nstep         100
             nsym          48
           ntypat           2
              occ      2.000000  2.000000  2.000000  2.000000  2.000000  2.000000
                       2.000000  2.000000  2.000000  2.000000  2.000000  2.000000
                       2.000000  0.000000  0.000000  0.000000  0.000000  0.000000
                       0.000000  0.000000  0.000000  0.000000
        optdriver           1
            prtwf          -1
            rfdir           1       1       1
           rfelfd           2
            rprim      6.2469266974E+00  0.0000000000E+00  3.6066648103E+00
                       2.0823088991E+00  5.8896589724E+00  3.6066648103E+00
                       0.0000000000E+00  0.0000000000E+00  7.2133296207E+00
          spgroup         225
           strten      0.0000000000E+00  0.0000000000E+00  0.0000000000E+00
                       0.0000000000E+00  0.0000000000E+00  0.0000000000E+00
           symrel      1  0  0   0  1  0   0  0  1      -1  0  0   0 -1  0   0  0 -1
                       0 -1  1   0 -1  0   1 -1  0       0  1 -1   0  1  0  -1  1  0
                      -1  0  0  -1  0  1  -1  1  0       1  0  0   1  0 -1   1 -1  0
                       0  1 -1   1  0 -1   0  0 -1       0 -1  1  -1  0  1   0  0  1
                      -1  0  0  -1  1  0  -1  0  1       1  0  0   1 -1  0   1  0 -1
                       0 -1  1   1 -1  0   0 -1  0       0  1 -1  -1  1  0   0  1  0
                       1  0  0   0  0  1   0  1  0      -1  0  0   0  0 -1   0 -1  0
                       0  1 -1   0  0 -1   1  0 -1       0 -1  1   0  0  1  -1  0  1
                      -1  0  1  -1  1  0  -1  0  0       1  0 -1   1 -1  0   1  0  0
                       0 -1  0   1 -1  0   0 -1  1       0  1  0  -1  1  0   0  1 -1
                       1  0 -1   0  0 -1   0  1 -1      -1  0  1   0  0  1   0 -1  1
                       0  1  0   0  0  1   1  0  0       0 -1  0   0  0 -1  -1  0  0
                       1  0 -1   0  1 -1   0  0 -1      -1  0  1   0 -1  1   0  0  1
                       0 -1  0   0 -1  1   1 -1  0       0  1  0   0  1 -1  -1  1  0
                      -1  0  1  -1  0  0  -1  1  0       1  0 -1   1  0  0   1 -1  0
                       0  1  0   1  0  0   0  0  1       0 -1  0  -1  0  0   0  0 -1
                       0  0 -1   0  1 -1   1  0 -1       0  0  1   0 -1  1  -1  0  1
                       1 -1  0   0 -1  1   0 -1  0      -1  1  0   0  1 -1   0  1  0
                       0  0  1   1  0  0   0  1  0       0  0 -1  -1  0  0   0 -1  0
                      -1  1  0  -1  0  0  -1  0  1       1 -1  0   1  0  0   1  0 -1
                       0  0  1   0  1  0   1  0  0       0  0 -1   0 -1  0  -1  0  0
                       1 -1  0   0 -1  0   0 -1  1      -1  1  0   0  1  0   0  1 -1
                       0  0 -1   1  0 -1   0  1 -1       0  0  1  -1  0  1   0 -1  1
                      -1  1  0  -1  0  1  -1  0  0       1 -1  0   1  0 -1   1  0  0
           tolwfr      1.00000000E-20
            typat      1  2
           useylm           1
              wtk        0.50000    0.50000
           xangst      2.2038208213E+00  1.5583366473E+00  3.8171296333E+00
                       0.0000000000E+00  0.0000000000E+00  0.0000000000E+00
            xcart      4.1646177983E+00  2.9448294862E+00  7.2133296207E+00
                       0.0000000000E+00  0.0000000000E+00  0.0000000000E+00
             xred      5.0000000000E-01  5.0000000000E-01  5.0000000000E-01
                       0.0000000000E+00  0.0000000000E+00  0.0000000000E+00
            znucl       48.00000   16.00000

- Timing analysis has been suppressed with timopt=0

 Suggested references for the acknowledgment of ABINIT usage.

 Calculation completed.
.Delivered  14 WARNINGs and   9 COMMENTs to log file.