.Version 9.5.2 of ABINIT

 ABINIT is a project of the Universite Catholique de Louvain,
 Corning Inc. and other collaborators, see ~abinit/doc/developers/contributors.txt .
 acknowledgments of the ABINIT effort.

.Starting date : Mon 31 May 2021.
- ( at 21h57 )

- input  file    -> /scratch/users/j/a/jabreu/flow_simple_11atoms/flow/w308/t1/run.abi
- output file    -> /scratch/users/j/a/jabreu/flow_simple_11atoms/flow/w308/t1/run.abo
- root for input  files -> /scratch/users/j/a/jabreu/flow_simple_11atoms/flow/w308/t1/indata/in
- root for output files -> /scratch/users/j/a/jabreu/flow_simple_11atoms/flow/w308/t1/outdata/out

 Symmetries : space group Cm c m (# 63); Bravais oC (1-face-center ortho.)
     intxc =       0      iscf =       7    lmnmax =      32     lnmax =       8
     mgfft =      90  mpssoang =       4    mqgrid =    4006     natom =      12
  nloc_mem =       1    nspden =       1   nspinor =       1    nsppol =       1
      nsym =       8    n1xccc =    2501    ntypat =       3    occopt =       1
   xclevel =       2
-    mband =          57        mffmem =           1         mkmem =           1
-   mkqmem =           1        mk1mem =           1           mpw =       31546
      nfft =      583200          nkpt =           1
  Rough estimation (10% accuracy) of disk space for files :

------------- Echo of variables that govern the present computation ------------
-
- outvars: echo of selected default values
-   iomode0 =  0 , fftalg0 =512 , wfoptalg0 =  0
-
- outvars: echo of global parameters not present in the input file
-  max_nthreads =    0
-
 -outvars: echo values of preprocessed input variables --------
            acell      1.0000000000E+00  1.0000000000E+00  1.0000000000E+00 Bohr
              amu      1.32905430E+02  4.78800000E+01  3.20660000E+01
             ecut      4.20000000E+01 Hartree
-          fftalg         512
           irdden           1
           irdwfk           1
              ixc     -116133
              kpt     -5.00000000E-01  5.00000000E-01  0.00000000E+00
           kptopt           0
P           mkmem           1
P          mkqmem           1
P          mk1mem           1
            natom          12
            nband          57
           nbdbuf           4
            ngfft          90      90      72
             nkpt           1
            nstep        2000
             nsym           8
           ntypat           3
              occ      2.000000  2.000000  2.000000  2.000000  2.000000  2.000000
                       2.000000  2.000000  2.000000  2.000000  2.000000  2.000000
                       2.000000  2.000000  2.000000  2.000000  2.000000  2.000000
                       2.000000  2.000000  2.000000  2.000000  2.000000  2.000000
                       2.000000  2.000000  2.000000  2.000000  2.000000  2.000000
                       2.000000  2.000000  2.000000  2.000000  2.000000  2.000000
                       2.000000  2.000000  2.000000  2.000000  2.000000  2.000000
                       2.000000  2.000000  2.000000  2.000000  2.000000  2.000000
                       0.000000  0.000000  0.000000  0.000000  0.000000  0.000000
                       0.000000  0.000000  0.000000
        optdriver           1
            prtwf          -1
            rfdir           1       1       1
           rfelfd           2
            rprim      1.4492406366E+01  0.0000000000E+00  0.0000000000E+00
                      -4.6368770415E+00  1.3730594072E+01  0.0000000000E+00
                       0.0000000000E+00  0.0000000000E+00  1.2187040782E+01
          spgroup          63
           symrel      1  0  0   0  1  0   0  0  1      -1  0  0   0 -1  0   0  0 -1
                       0 -1  0  -1  0  0   0  0 -1       0  1  0   1  0  0   0  0  1
                      -1  0  0   0 -1  0   0  0  1       1  0  0   0  1  0   0  0 -1
                       0  1  0   1  0  0   0  0 -1       0 -1  0  -1  0  0   0  0  1
            tnons      0.0000000  0.0000000  0.0000000     0.0000000 -0.0000000  0.0000000
                       0.0000000 -0.0000000  0.0000000     0.0000000  0.0000000  0.0000000
                       0.0000000 -0.0000000  0.5000000     0.0000000  0.0000000  0.5000000
                       0.0000000  0.0000000  0.5000000     0.0000000 -0.0000000  0.5000000
           tolwfr      1.00000000E-20
            typat      1  1  1  1  2  2  3  3  3  3  3  3
           useylm           1
           xangst     -7.2960395626E-01  2.2998735825E+00  1.6122760555E+00
                       5.9449254533E+00  4.9660438610E+00  4.8368281664E+00
                       2.8029053993E+00  7.2213192422E+00  4.8368281664E+00
                       2.4124160977E+00  4.4598201268E-02  1.6122760555E+00
                       2.1978929385E+00  3.0620755882E+00  4.8368281664E+00
                       3.0174285586E+00  4.2038418553E+00  1.6122760555E+00
                       1.3001213987E+00  4.5714827461E+00  3.2245521109E+00
                       3.9152000984E+00  2.6944346974E+00  0.0000000000E+00
                       9.0203157549E-01  1.2566985492E+00  4.8368281664E+00
                       4.3132899216E+00  6.0092188943E+00  1.6122760555E+00
                       1.3001213987E+00  4.5714827461E+00  0.0000000000E+00
                       3.9152000984E+00  2.6944346974E+00  3.2245521109E+00
            xcart     -1.3787516628E+00  4.3461312111E+00  3.0467601954E+00
                       1.1234280987E+01  9.3844628612E+00  9.1402805863E+00
                       5.2967235811E+00  1.3646315686E+01  9.1402805863E+00
                       4.5588057433E+00  8.4278386416E-02  3.0467601954E+00
                       4.1534157232E+00  5.7864842599E+00  9.1402805863E+00
                       5.7021136012E+00  7.9441098124E+00  3.0467601954E+00
                       2.4568733830E+00  8.6388504113E+00  6.0935203909E+00
                       7.3986559414E+00  5.0917436610E+00  0.0000000000E+00
                       1.7045926409E+00  2.3748160896E+00  9.1402805863E+00
                       8.1509366835E+00  1.1355777983E+01  3.0467601954E+00
                       2.4568733830E+00  8.6388504113E+00  0.0000000000E+00
                       7.3986559414E+00  5.0917436610E+00  6.0935203909E+00
             xred      6.1380000000E-03  3.1652900000E-01  2.5000000000E-01
                       9.9386200000E-01  6.8347100000E-01  7.5000000000E-01
                       6.8347100000E-01  9.9386200000E-01  7.5000000000E-01
                       3.1652900000E-01  6.1380000000E-03  2.5000000000E-01
                       4.2143000000E-01  4.2143000000E-01  7.5000000000E-01
                       5.7857000000E-01  5.7857000000E-01  2.5000000000E-01
                       3.7083200000E-01  6.2916800000E-01  5.0000000000E-01
                       6.2916800000E-01  3.7083200000E-01  0.0000000000E+00
                       1.7295800000E-01  1.7295800000E-01  7.5000000000E-01
                       8.2704200000E-01  8.2704200000E-01  2.5000000000E-01
                       3.7083200000E-01  6.2916800000E-01  0.0000000000E+00
                       6.2916800000E-01  3.7083200000E-01  5.0000000000E-01
            znucl       55.00000   22.00000   16.00000

 chkinp: Checking input parameters for consistency.

== DATASET  1 ==================================================================
-   mpi_nproc: 1, omp_nthreads: -1 (-1 if OMP is not activated)

--- !DatasetInfo
iteration_state: {dtset: 1, }
dimensions: {natom: 12, nkpt: 1, mband: 57, nsppol: 1, nspinor: 1, nspden: 1, mpw: 31546, }
cutoff_energies: {ecut:  42.0, pawecutdg:  -1.0, }
electrons: {nelect:   9.60000000E+01, charge:   0.00000000E+00, occopt:   1.00000000E+00, tsmear:   1.00000000E-02, }
meta: {optdriver: 1, rfelfd: 2, }
...

 Real(R)+Recip(G) space primitive vectors, cartesian coordinates (Bohr,Bohr^-1):
 R(1)= 14.4924064  0.0000000  0.0000000  G(1)=  0.0690017  0.0233021  0.0000000
 R(2)= -4.6368770 13.7305941  0.0000000  G(2)=  0.0000000  0.0728301  0.0000000
 R(3)=  0.0000000  0.0000000 12.1870408  G(3)=  0.0000000  0.0000000  0.0820544
 Unit cell volume ucvol=  2.4250913E+03 bohr^3
 Angles (23,13,12)=  9.00000000E+01  9.00000000E+01  1.08660033E+02 degrees

 getcut: wavevector=  0.0000  0.0000  0.0000  ngfft=  90  90  72
         ecut(hartree)=     42.000   => boxcut(ratio)=   2.02509

--- Pseudopotential description ------------------------------------------------
- pspini: atom type   1  psp file is /scratch/users/j/a/jabreu/pseudos/PBEsol/Cs.psp8
- pspatm: opening atomic psp file    /scratch/users/j/a/jabreu/pseudos/PBEsol/Cs.psp8
- Cs    ONCVPSP-3.3.0  r_core=   2.27353   1.85623   2.01788   1.90105
- 55.00000   9.00000    180112                znucl, zion, pspdat
    8 -116133    3    4       600   0.00000   pspcod,pspxc,lmax,lloc,mmax,r2well
    5.99000000000000    5.00000000000000    0.00000000000000   rchrg,fchrg,qchrg
     nproj     2     2     2     2
     extension_switch     1
  pspatm : epsatm=   22.12462445
         --- l  ekb(1:nproj) -->
             0    6.214110    0.767882
             1    6.311966    0.793598
             2    3.769790    0.913105
             3   -9.247129   -2.432478
 pspatm: atomic psp has been read  and splines computed

- pspini: atom type   2  psp file is /scratch/users/j/a/jabreu/pseudos/PBEsol/Ti.psp8
- pspatm: opening atomic psp file    /scratch/users/j/a/jabreu/pseudos/PBEsol/Ti.psp8
- Ti    ONCVPSP-3.3.0  r_core=   1.35825   1.31050   1.66360
- 22.00000  12.00000    180112                znucl, zion, pspdat
    8 -116133    2    4       600   0.00000   pspcod,pspxc,lmax,lloc,mmax,r2well
    5.99000000000000    2.50000000000000    0.00000000000000   rchrg,fchrg,qchrg
     nproj     2     2     2
     extension_switch     1
  pspatm : epsatm=   14.76919902
         --- l  ekb(1:nproj) -->
             0   11.321950    1.254474
             1    1.946894   -0.084268
             2   -5.237105   -1.488377
 pspatm: atomic psp has been read  and splines computed

- pspini: atom type   3  psp file is /scratch/users/j/a/jabreu/pseudos/PBEsol/S.psp8
- pspatm: opening atomic psp file    /scratch/users/j/a/jabreu/pseudos/PBEsol/S.psp8
- S     ONCVPSP-3.3.0  r_core=   1.45376   1.45376   1.61851
- 16.00000   6.00000    180112                znucl, zion, pspdat
    8 -116133    2    4       600   0.00000   pspcod,pspxc,lmax,lloc,mmax,r2well
    5.99000000000000    6.00000000000000    0.00000000000000   rchrg,fchrg,qchrg
     nproj     2     2     2
     extension_switch     1
  pspatm : epsatm=    8.71840985
         --- l  ekb(1:nproj) -->
             0    6.834532    0.579453
             1    3.282851    0.896984
             2   -3.496974   -0.974265
 pspatm: atomic psp has been read  and splines computed

   1.63533461E+04                                ecore*ucvol(ha*bohr**3)

 ==>  initialize data related to q vector <==

 The list of irreducible perturbations for this q vector is:
    1)    idir= 1    ipert=  13
    2)    idir= 2    ipert=  13
    3)    idir= 3    ipert=  13

 Perturbation wavevector (in red.coord.)   0.000000  0.000000  0.000000
 Perturbation : derivative vs k along direction   1

 dfpt_looppert : COMMENT -
[...]
    edocc=   3.58973445E+00     enl0=   3.31474756E+00   enl1=  -2.32840633E-01
 1-9 gives the relaxation energy (to be shifted if some occ is /=2.0)
   erelax=  -2.03824998E+01
  No Ewald or frozen-wf contrib.: the relaxation energy is the total one
 2DEtotal=   -0.2038249977E+02 Ha. Also 2DEtotal=   -0.554636025161E+03 eV
    (  non-var. 2DEtotal :   -2.0382499766E+01 Ha)

 Perturbation wavevector (in red.coord.)   0.000000  0.000000  0.000000
 Perturbation : derivative vs k along direction   2
 The set of symmetries contains only one element for this perturbation.
 symkpt : not enough symmetry to change the number of k points.

[...]

 Perturbation wavevector (in red.coord.)   0.000000  0.000000  0.000000
 Perturbation : derivative vs k along direction   3
 The set of symmetries contains only one element for this perturbation.
 symkpt : not enough symmetry to change the number of k points.

 Initialisation of the first-order wave-functions :
  ireadwf=   0

--- !BeginCycle
iteration_state: {dtset: 1, }
solver: {iscf: 7, nstep: 2000, nline: 4, wfoptalg: 0, }
tolerances: {tolwfr: 1.00E-20, }
...

     iter   2DEtotal(Ha)        deltaE(Ha) residm    vres2
-ETOT  1  -28.597057275324     -2.860E+01 4.452E-02 0.000E+00
 ETOT  2  -28.690841173515     -9.378E-02 1.448E-02 0.000E+00
 ETOT  3  -28.694578732344     -3.738E-03 3.485E-03 0.000E+00
 ETOT  4  -28.694810543679     -2.318E-04 1.334E-03 0.000E+00
 ETOT  5  -28.694826630834     -1.609E-05 3.299E-04 0.000E+00
 ETOT  6  -28.694827815444     -1.185E-06 1.281E-04 0.000E+00
 ETOT  7  -28.694827906104     -9.066E-08 3.668E-05 0.000E+00
 ETOT  8  -28.694827913267     -7.163E-09 1.637E-05 0.000E+00
 ETOT  9  -28.694827913851     -5.841E-10 4.755E-06 0.000E+00
 ETOT 10  -28.694827913900     -4.908E-11 2.240E-06 0.000E+00
 ETOT 11  -28.694827913904     -4.349E-12 6.316E-07 0.000E+00
 ETOT 12  -28.694827913905     -3.340E-13 3.099E-07 0.000E+00
 ETOT 13  -28.694827913905     -6.750E-14 8.489E-08 0.000E+00
 ETOT 14  -28.694827913905     -3.197E-14 4.308E-08 0.000E+00
 ETOT 15  -28.694827913905     -5.684E-14 1.152E-08 0.000E+00
 ETOT 16  -28.694827913905      2.842E-14 6.010E-09 0.000E+00
 ETOT 17  -28.694827913905      7.461E-14 1.578E-09 0.000E+00
 ETOT 18  -28.694827913905      7.105E-15 8.418E-10 0.000E+00
 ETOT 19  -28.694827913905      3.553E-15 2.182E-10 0.000E+00
 ETOT 20  -28.694827913905      2.842E-14 1.188E-10 0.000E+00
 ETOT 21  -28.694827913905     -2.487E-14 3.059E-11 0.000E+00
 ETOT 22  -28.694827913905      0.000E+00 1.699E-11 0.000E+00
 ETOT 23  -28.694827913905      7.105E-15 4.380E-12 0.000E+00
 ETOT 24  -28.694827913905     -7.105E-15 2.488E-12 0.000E+00
 ETOT 25  -28.694827913905      3.553E-15 6.481E-13 0.000E+00
 ETOT 26  -28.694827913905      0.000E+00 3.779E-13 0.000E+00
 ETOT 27  -28.694827913905      1.421E-14 1.006E-13 0.000E+00
 ETOT 28  -28.694827913905     -1.421E-14 6.053E-14 0.000E+00
 ETOT 29  -28.694827913905      3.553E-15 1.664E-14 0.000E+00
 ETOT 30  -28.694827913905     -3.553E-15 1.036E-14 0.000E+00
 ETOT 31  -28.694827913905      7.105E-15 2.953E-15 0.000E+00
 ETOT 32  -28.694827913905      0.000E+00 1.905E-15 0.000E+00
 ETOT 33  -28.694827913905      0.000E+00 5.610E-16 0.000E+00
 ETOT 34  -28.694827913905     -1.066E-14 3.731E-16 0.000E+00
 ETOT 35  -28.694827913905      1.421E-14 1.125E-16 0.000E+00
 ETOT 36  -28.694827913905     -1.421E-14 7.664E-17 0.000E+00
 ETOT 37  -28.694827913905      1.066E-14 2.344E-17 0.000E+00
 ETOT 38  -28.694827913905      3.553E-15 1.624E-17 0.000E+00
 ETOT 39  -28.694827913905     -3.553E-15 4.998E-18 0.000E+00
 ETOT 40  -28.694827913905     -1.421E-14 3.505E-18 0.000E+00
 ETOT 41  -28.694827913905      1.421E-14 1.081E-18 0.000E+00
 ETOT 42  -28.694827913905     -7.105E-15 7.644E-19 0.000E+00
 ETOT 43  -28.694827913905      7.105E-15 2.355E-19 0.000E+00
 ETOT 44  -28.694827913905     -7.105E-15 1.676E-19 0.000E+00
 ETOT 45  -28.694827913905      3.553E-15 5.155E-20 0.000E+00
 ETOT 46  -28.694827913905      0.000E+00 3.683E-20 0.000E+00
 ETOT 47  -28.694827913905      1.066E-14 1.131E-20 0.000E+00
 ETOT 48  -28.694827913905     -1.421E-14 9.735E-21 0.000E+00

 At SCF step   48   max residual=  9.74E-21 < tolwfr=  1.00E-20 =>converged.

 ----iterations are completed or convergence reached----

 dfpt_looppert: DFPT cycle converged with prtwf=-1. Will skip output of the 1st-order WFK file.
 dfpt_looppert : ek2=    5.1034567259E+01
          f-sum rule ratio=    1.1182353005E+00
 prteigrs : about to open file /scratch/users/j/a/jabreu/flow_simple_11atoms/flow/w308/t1/tmpdata/tmp_1WF1_EIG
 Expectation of eigenvalue derivatives (hartree) for nkpt=   1  k points:
  (in case of degenerate eigenvalues, averaged derivative)
 kpt#   1, nband= 57, wtk=  1.00000, kpt= -0.5000  0.5000  0.0000 (reduced coord)
  -0.00000   -0.00000   -0.00000    0.00000    0.00000   -0.00000    0.00000    0.00000
   0.00000    0.00000    0.00000   -0.00000    0.00000   -0.00000    0.00000   -0.00000
   0.00000    0.00000    0.00000   -0.00000   -0.00000   -0.00000   -0.00000    0.00000
   0.00000   -0.00000   -0.00000   -0.00000   -0.00000   -0.00000    0.00000    0.00000
  -0.00000   -0.00000   -0.00000   -0.00000    0.00000   -0.00000   -0.00000   -0.00000
   0.00000   -0.00000    0.00000    0.00000    0.00000    0.00000   -0.00000    0.00000
   0.00000    0.00000    0.00000    0.00000   -0.00000    0.00000    0.00000    0.00000
   0.00000

 Eight components of 2nd-order total energy (hartree) are
 1,2,3: 0th-order hamiltonian combined with 1st-order wavefunctions
     kin0=   5.47414902E+01 eigvalue=  -4.66499999E-02  local=  -3.63247115E+01
 4,5,6: 1st-order hamiltonian combined with 1st and 0th-order wfs
     kin1=  -5.70686547E+01  Hartree=   0.00000000E+00     xc=   0.00000000E+00
 7,8,9: eventually, occupation + non-local contributions
    edocc=   6.13465553E+00     enl0=   4.19004366E+00   enl1=  -3.21001172E-01
 1-9 gives the relaxation energy (to be shifted if some occ is /=2.0)
   erelax=  -2.86948279E+01
  No Ewald or frozen-wf contrib.: the relaxation energy is the total one
 2DEtotal=   -0.2869482791E+02 Ha. Also 2DEtotal=   -0.780825977162E+03 eV
    (  non-var. 2DEtotal :   -2.8694827914E+01 Ha)

 CALCULATION OF EFFECTIVE MASSES
 NOTE : Additional infos (eff. mass eigenvalues, eigenvectors and, if degenerate, average mass) are available in stdout.

 K-point (-0.500, 0.500, 0.000) | band =    48
 Effective mass tensor:
            -14.6522305725              8.6126062656              0.0000310645
              8.6126062656             -8.8352076045             -0.0000200986
              0.0000310645             -0.0000200986             -0.1987209456
 Effective mass tensor eigenvalues:
            -20.8341770385             -2.6532611386             -0.1987209455
 Angular average effective mass 1/(<1/m>)=  -0.5497450649
 Angular average effective mass for Frohlich model (<m**0.5>)**2=  -1.1581029032
 Effective masses along directions: (cart. coord. / red. coord. -> eff. mass)
    1:   1.000000  0.000000  0.000000 /   0.952437 -0.304734  0.000000 ->  -6.2566172476
    2:   0.000000  1.000000  0.000000 /   0.000000  1.000000  0.000000 ->  -3.7727028671
    3:   0.000000  0.000000  1.000000 /   0.000000  0.000000  1.000000 ->  -0.1987209455
    4:   0.577350  0.577350  0.577350 /   0.689919  0.432912  0.580171 ->  -0.5200481868
    5:   0.000000  0.707107  0.707107 /   0.000000  0.747894  0.663818 ->  -0.3775551593
    6:   0.707107  0.000000  0.707107 /   0.743392 -0.237850  0.625137 ->  -0.3852056821
    7:   0.707107  0.707107  0.000000 /   0.847052  0.531510  0.000000 ->  -2.7155447424

 K-point (-0.500, 0.500, 0.000) | band =    49
 Effective mass tensor:
              4.4076101336              1.4953193824              0.0000011959
              1.4953193824              5.4179918639              0.0000016669
              0.0000011959              0.0000016669              0.2834481148
 Effective mass tensor eigenvalues:
              0.2834481148              3.3344481023              6.4911538952
 Angular average effective mass 1/(<1/m>)=   0.7534019756
 Angular average effective mass for Frohlich model (<m**0.5>)**2=   1.2869623576
 Effective masses along directions: (cart. coord. / red. coord. -> eff. mass)
    1:   1.000000  0.000000  0.000000 /   0.952437 -0.304734  0.000000 ->   3.9949147824
    2:   0.000000  1.000000  0.000000 /   0.000000  1.000000  0.000000 ->   4.9106919922
    3:   0.000000  0.000000  1.000000 /   0.000000  0.000000  1.000000 ->   0.2834481148
    4:   0.577350  0.577350  0.577350 /   0.689919  0.432912  0.580171 ->   0.7804850498
    5:   0.000000  0.707107  0.707107 /   0.000000  0.747894  0.663818 ->   0.5359605382
    6:   0.707107  0.000000  0.707107 /   0.743392 -0.237850  0.625137 ->   0.5293386656
    7:   0.707107  0.707107  0.000000 /   0.847052  0.531510  0.000000 ->   6.3334402983

 END OF EFFECTIVE MASSES SECTION

 ---- first-order wavefunction calculations are completed ----

 Total localisation tensor (bohr^2) in cartesian coordinates
  WARNING : still subject to testing - especially symmetries.
      direction              matrix element
   alpha     beta       real part   imaginary part
     1        1       1.5633195758    0.0000000000
     1        2      -0.4298866498    0.0000000000
     1        3       0.0000000000    0.0000000000
     2        1      -0.4298866498    0.0000000000
     2        2       1.2729686451    0.0000000000
     2        3       0.0000000000    0.0000000000
     3        1       0.0000000000    0.0000000000
     3        2       0.0000000000    0.0000000000
     3        3       2.2312215234    0.0000000000

 respfn : d/dk was computed, but no 2DTE, so no DDB output.

== END DATASET(S) ==============================================================

 -outvars: echo values of variables after computation  --------
            acell      1.0000000000E+00  1.0000000000E+00  1.0000000000E+00 Bohr
              amu      1.32905430E+02  4.78800000E+01  3.20660000E+01
             ecut      4.20000000E+01 Hartree
           etotal     -2.8694827914E+01
            fcart      0.0000000000E+00  0.0000000000E+00  0.0000000000E+00
                       0.0000000000E+00  0.0000000000E+00  0.0000000000E+00
                       0.0000000000E+00  0.0000000000E+00  0.0000000000E+00
                       0.0000000000E+00  0.0000000000E+00  0.0000000000E+00
                       0.0000000000E+00  0.0000000000E+00  0.0000000000E+00
                       0.0000000000E+00  0.0000000000E+00  0.0000000000E+00
                       0.0000000000E+00  0.0000000000E+00  0.0000000000E+00
                       0.0000000000E+00  0.0000000000E+00  0.0000000000E+00
                       0.0000000000E+00  0.0000000000E+00  0.0000000000E+00
                       0.0000000000E+00  0.0000000000E+00  0.0000000000E+00
                       0.0000000000E+00  0.0000000000E+00  0.0000000000E+00
                       0.0000000000E+00  0.0000000000E+00  0.0000000000E+00
-          fftalg         512
           irdden           1
           irdwfk           1
              ixc     -116133
              kpt     -5.00000000E-01  5.00000000E-01  0.00000000E+00
           kptopt           0
P           mkmem           1
P          mkqmem           1
P          mk1mem           1
            natom          12
            nband          57
           nbdbuf           4
            ngfft          90      90      72
             nkpt           1
            nstep        2000
             nsym           8
           ntypat           3
              occ      2.000000  2.000000  2.000000  2.000000  2.000000  2.000000
                       2.000000  2.000000  2.000000  2.000000  2.000000  2.000000
                       2.000000  2.000000  2.000000  2.000000  2.000000  2.000000
                       2.000000  2.000000  2.000000  2.000000  2.000000  2.000000
                       2.000000  2.000000  2.000000  2.000000  2.000000  2.000000
                       2.000000  2.000000  2.000000  2.000000  2.000000  2.000000
                       2.000000  2.000000  2.000000  2.000000  2.000000  2.000000
                       2.000000  2.000000  2.000000  2.000000  2.000000  2.000000
                       0.000000  0.000000  0.000000  0.000000  0.000000  0.000000
                       0.000000  0.000000  0.000000
        optdriver           1
            prtwf          -1
            rfdir           1       1       1
           rfelfd           2
            rprim      1.4492406366E+01  0.0000000000E+00  0.0000000000E+00
                      -4.6368770415E+00  1.3730594072E+01  0.0000000000E+00
                       0.0000000000E+00  0.0000000000E+00  1.2187040782E+01
          spgroup          63
           strten      0.0000000000E+00  0.0000000000E+00  0.0000000000E+00
                       0.0000000000E+00  0.0000000000E+00  0.0000000000E+00
           symrel      1  0  0   0  1  0   0  0  1      -1  0  0   0 -1  0   0  0 -1
                       0 -1  0  -1  0  0   0  0 -1       0  1  0   1  0  0   0  0  1
                      -1  0  0   0 -1  0   0  0  1       1  0  0   0  1  0   0  0 -1
                       0  1  0   1  0  0   0  0 -1       0 -1  0  -1  0  0   0  0  1
            tnons      0.0000000  0.0000000  0.0000000     0.0000000 -0.0000000  0.0000000
                       0.0000000 -0.0000000  0.0000000     0.0000000  0.0000000  0.0000000
                       0.0000000 -0.0000000  0.5000000     0.0000000  0.0000000  0.5000000
                       0.0000000  0.0000000  0.5000000     0.0000000 -0.0000000  0.5000000
           tolwfr      1.00000000E-20
            typat      1  1  1  1  2  2  3  3  3  3  3  3
           useylm           1
           xangst     -7.2960395626E-01  2.2998735825E+00  1.6122760555E+00
                       5.9449254533E+00  4.9660438610E+00  4.8368281664E+00
                       2.8029053993E+00  7.2213192422E+00  4.8368281664E+00
                       2.4124160977E+00  4.4598201268E-02  1.6122760555E+00
                       2.1978929385E+00  3.0620755882E+00  4.8368281664E+00
                       3.0174285586E+00  4.2038418553E+00  1.6122760555E+00
                       1.3001213987E+00  4.5714827461E+00  3.2245521109E+00
                       3.9152000984E+00  2.6944346974E+00  0.0000000000E+00
                       9.0203157549E-01  1.2566985492E+00  4.8368281664E+00
                       4.3132899216E+00  6.0092188943E+00  1.6122760555E+00
                       1.3001213987E+00  4.5714827461E+00  0.0000000000E+00
                       3.9152000984E+00  2.6944346974E+00  3.2245521109E+00
            xcart     -1.3787516628E+00  4.3461312111E+00  3.0467601954E+00
                       1.1234280987E+01  9.3844628612E+00  9.1402805863E+00
                       5.2967235811E+00  1.3646315686E+01  9.1402805863E+00
                       4.5588057433E+00  8.4278386416E-02  3.0467601954E+00
                       4.1534157232E+00  5.7864842599E+00  9.1402805863E+00
                       5.7021136012E+00  7.9441098124E+00  3.0467601954E+00
                       2.4568733830E+00  8.6388504113E+00  6.0935203909E+00
                       7.3986559414E+00  5.0917436610E+00  0.0000000000E+00
                       1.7045926409E+00  2.3748160896E+00  9.1402805863E+00
                       8.1509366835E+00  1.1355777983E+01  3.0467601954E+00
                       2.4568733830E+00  8.6388504113E+00  0.0000000000E+00
                       7.3986559414E+00  5.0917436610E+00  6.0935203909E+00
             xred      6.1380000000E-03  3.1652900000E-01  2.5000000000E-01
                       9.9386200000E-01  6.8347100000E-01  7.5000000000E-01
                       6.8347100000E-01  9.9386200000E-01  7.5000000000E-01
                       3.1652900000E-01  6.1380000000E-03  2.5000000000E-01
                       4.2143000000E-01  4.2143000000E-01  7.5000000000E-01
                       5.7857000000E-01  5.7857000000E-01  2.5000000000E-01
                       3.7083200000E-01  6.2916800000E-01  5.0000000000E-01
                       6.2916800000E-01  3.7083200000E-01  0.0000000000E+00
                       1.7295800000E-01  1.7295800000E-01  7.5000000000E-01
                       8.2704200000E-01  8.2704200000E-01  2.5000000000E-01
                       3.7083200000E-01  6.2916800000E-01  0.0000000000E+00
                       6.2916800000E-01  3.7083200000E-01  5.0000000000E-01
            znucl       55.00000   22.00000   16.00000

- Timing analysis has been suppressed with timopt=0

 Suggested references for the acknowledgment of ABINIT usage.

 Calculation completed.
.Delivered   2 WARNINGs and   5 COMMENTs to log file.