.Version 9.5.1 of ABINIT

 ABINIT is a project of the Universite Catholique de Louvain,
 Corning Inc. and other collaborators, see ~abinit/doc/developers/contributors.txt .
 acknowledgments of the ABINIT effort.

.Starting date : Tue 11 May 2021.
- ( at 21h21 )

- input  file    -> /scratch/users/j/a/jabreu/flow_simple_8atoms/flow/w293/t1/run.abi
- output file    -> /scratch/users/j/a/jabreu/flow_simple_8atoms/flow/w293/t1/run.abo
- root for input  files -> /scratch/users/j/a/jabreu/flow_simple_8atoms/flow/w293/t1/indata/in
- root for output files -> /scratch/users/j/a/jabreu/flow_simple_8atoms/flow/w293/t1/outdata/out

 Symmetries : space group P6_3/m m c (#194); Bravais hP (primitive hexag.)
     intxc =       0      iscf =       7    lmnmax =      18     lnmax =       6
     mgfft =     135  mpssoang =       3    mqgrid =    6508     natom =       8
  nloc_mem =       1    nspden =       1   nspinor =       1    nsppol =       1
      nsym =      24    n1xccc =    2501    ntypat =       3    occopt =       1
   xclevel =       2
-    mband =          51        mffmem =           1         mkmem =           1
-   mkqmem =           1        mk1mem =           1           mpw =       10074
      nfft =      216000          nkpt =           1
  Rough estimation (10% accuracy) of disk space for files :

------------- Echo of variables that govern the present computation ------------
-
- outvars: echo of selected default values
-   iomode0 =  0 , fftalg0 =512 , wfoptalg0 =  0
-
- outvars: echo of global parameters not present in the input file
-  max_nthreads =    0
-
 -outvars: echo values of preprocessed input variables --------
            acell      1.0000000000E+00  1.0000000000E+00  1.0000000000E+00 Bohr
              amu      4.49559100E+01  6.35460000E+01  1.59994000E+01
             ecut      4.60000000E+01 Hartree
-          fftalg         512
           irdden           1
           irdwfk           1
           istwfk        1
              ixc     -116133
              kpt      5.00000000E-01 -5.55111512E-17  0.00000000E+00
           kptopt           0
P           mkmem           1
P          mkqmem           1
P          mk1mem           1
            natom           8
            nband          51
           nbdbuf           4
            ngfft          40      40     135
             nkpt           1
            nstep        2000
             nsym          24
           ntypat           3
              occ      2.000000  2.000000  2.000000  2.000000  2.000000  2.000000
                       2.000000  2.000000  2.000000  2.000000  2.000000  2.000000
                       2.000000  2.000000  2.000000  2.000000  2.000000  2.000000
                       2.000000  2.000000  2.000000  2.000000  2.000000  2.000000
                       2.000000  2.000000  2.000000  2.000000  2.000000  2.000000
                       2.000000  2.000000  2.000000  2.000000  2.000000  2.000000
                       2.000000  2.000000  2.000000  2.000000  2.000000  2.000000
                       0.000000  0.000000  0.000000  0.000000  0.000000  0.000000
                       0.000000  0.000000  0.000000
        optdriver           1
            prtwf          -1
            rfdir           1       1       1
           rfelfd           2
            rprim      6.0491029735E+00  0.0000000000E+00  0.0000000000E+00
                      -3.0245514868E+00  5.2386768452E+00  0.0000000000E+00
                       0.0000000000E+00  0.0000000000E+00  2.1315775127E+01
          spgroup         194
           symrel      1  0  0   0  1  0   0  0  1      -1  0  0   0 -1  0   0  0 -1
                       0  1  0   1  0  0   0  0  1       0 -1  0  -1  0  0   0  0 -1
                       1  1  0  -1  0  0   0  0  1      -1 -1  0   1  0  0   0  0 -1
                      -1  0  0   1  1  0   0  0  1       1  0  0  -1 -1  0   0  0 -1
                       0  1  0  -1 -1  0   0  0  1       0 -1  0   1  1  0   0  0 -1
                      -1 -1  0   0  1  0   0  0  1       1  1  0   0 -1  0   0  0 -1
                      -1  0  0   0 -1  0   0  0  1       1  0  0   0  1  0   0  0 -1
                       0 -1  0  -1  0  0   0  0  1       0  1  0   1  0  0   0  0 -1
                      -1 -1  0   1  0  0   0  0  1       1  1  0  -1  0  0   0  0 -1
                       1  0  0  -1 -1  0   0  0  1      -1  0  0   1  1  0   0  0 -1
                       0 -1  0   1  1  0   0  0  1       0  1  0  -1 -1  0   0  0 -1
                       1  1  0   0 -1  0   0  0  1      -1 -1  0   0  1  0   0  0 -1
            tnons      0.0000000  0.0000000  0.0000000     0.0000000  0.0000000 -0.0000000
                       0.0000000  0.0000000  0.5000000     0.0000000  0.0000000  0.5000000
                       0.0000000  0.0000000  0.5000000     0.0000000  0.0000000  0.5000000
                       0.0000000  0.0000000  0.0000000     0.0000000  0.0000000 -0.0000000
                       0.0000000  0.0000000  0.0000000     0.0000000  0.0000000 -0.0000000
                       0.0000000  0.0000000  0.5000000     0.0000000  0.0000000  0.5000000
                       0.0000000  0.0000000  0.5000000     0.0000000  0.0000000  0.5000000
                       0.0000000  0.0000000  0.0000000     0.0000000  0.0000000 -0.0000000
                       0.0000000  0.0000000  0.0000000     0.0000000  0.0000000 -0.0000000
                       0.0000000  0.0000000  0.5000000     0.0000000  0.0000000  0.5000000
                       0.0000000  0.0000000  0.5000000     0.0000000  0.0000000  0.5000000
                       0.0000000  0.0000000  0.0000000     0.0000000  0.0000000 -0.0000000
           tolwfr      1.00000000E-20
            typat      1  1  2  2  3  3  3  3
           useylm           1
           xangst      0.0000000000E+00  0.0000000000E+00 -1.5653898151E-16
                       0.0000000000E+00  0.0000000000E+00  5.6399111903E+00
                       1.6005237130E+00  9.2406279655E-01  8.4598667855E+00
                      -1.7639006744E-11  1.8481255931E+00  2.8199555952E+00
                      -1.7639006744E-11  1.8481255931E+00  4.6314837897E+00
                       1.6005237130E+00  9.2406279655E-01  1.0271394980E+01
                      -1.7639006744E-11  1.8481255931E+00  1.0084274007E+00
                       1.6005237130E+00  9.2406279655E-01  6.6483385910E+00
            xcart      0.0000000000E+00  0.0000000000E+00 -2.9581580417E-16
                       0.0000000000E+00  0.0000000000E+00  1.0657887564E+01
                       3.0245514867E+00  1.7462256151E+00  1.5986831345E+01
                      -3.3332892002E-11  3.4924512301E+00  5.3289437818E+00
                      -3.3332892002E-11  3.4924512301E+00  8.7522359514E+00
                       3.0245514867E+00  1.7462256151E+00  1.9410123515E+01
                      -3.3332892002E-11  3.4924512301E+00  1.9056516121E+00
                       3.0245514867E+00  1.7462256151E+00  1.2563539176E+01
             xred      0.0000000000E+00  0.0000000000E+00 -1.3877787808E-17
                       0.0000000000E+00  0.0000000000E+00  5.0000000000E-01
                       6.6666666667E-01  3.3333333333E-01  7.5000000000E-01
                       3.3333333333E-01  6.6666666667E-01  2.5000000000E-01
                       3.3333333333E-01  6.6666666667E-01  4.1059900000E-01
                       6.6666666667E-01  3.3333333333E-01  9.1059900000E-01
                       3.3333333333E-01  6.6666666667E-01  8.9401000000E-02
                       6.6666666667E-01  3.3333333333E-01  5.8940100000E-01
            znucl       21.00000   29.00000    8.00000

 chkinp: Checking input parameters for consistency.

== DATASET  1 ==================================================================
-   mpi_nproc: 1, omp_nthreads: -1 (-1 if OMP is not activated)

--- !DatasetInfo
iteration_state: {dtset: 1, }
dimensions: {natom: 8, nkpt: 1, mband: 51, nsppol: 1, nspinor: 1, nspden: 1, mpw: 10074, }
cutoff_energies: {ecut:  46.0, pawecutdg:  -1.0, }
electrons: {nelect:   8.40000000E+01, charge:   0.00000000E+00, occopt:   1.00000000E+00, tsmear:   1.00000000E-02, }
meta: {optdriver: 1, rfelfd: 2, }
...

 Real(R)+Recip(G) space primitive vectors, cartesian coordinates (Bohr,Bohr^-1):
 R(1)=  6.0491030  0.0000000  0.0000000  G(1)=  0.1653138  0.0954439  0.0000000
 R(2)= -3.0245515  5.2386768  0.0000000  G(2)=  0.0000000  0.1908879  0.0000000
 R(3)=  0.0000000  0.0000000 21.3157751  G(3)=  0.0000000  0.0000000  0.0469136
 Unit cell volume ucvol=  6.7548190E+02 bohr^3
 Angles (23,13,12)=  9.00000000E+01  9.00000000E+01  1.20000000E+02 degrees

 getcut: wavevector=  0.0000  0.0000  0.0000  ngfft=  40  40 135
         ecut(hartree)=     46.000   => boxcut(ratio)=   2.05902

--- Pseudopotential description ------------------------------------------------
- pspini: atom type   1  psp file is /scratch/users/j/a/jabreu/pseudos/PBEsol/Sc.psp8
- pspatm: opening atomic psp file    /scratch/users/j/a/jabreu/pseudos/PBEsol/Sc.psp8
- Sc    ONCVPSP-3.3.0  r_core=   1.35663   1.35663   1.66161
- 21.00000  11.00000    180112                znucl, zion, pspdat
    8 -116133    2    4       600   0.00000   pspcod,pspxc,lmax,lloc,mmax,r2well
    5.99000000000000    5.00000000000000    0.00000000000000   rchrg,fchrg,qchrg
     nproj     2     2     2
     extension_switch     1
  pspatm : epsatm=   13.58981094
         --- l  ekb(1:nproj) -->
             0   10.810997    0.948773
             1    2.871172    0.364831
             2   -4.789751   -1.321945
 pspatm: atomic psp has been read  and splines computed

- pspini: atom type   2  psp file is /scratch/users/j/a/jabreu/pseudos/PBEsol/Cu.psp8
- pspatm: opening atomic psp file    /scratch/users/j/a/jabreu/pseudos/PBEsol/Cu.psp8
- Cu    ONCVPSP-3.3.0  r_core=   1.26204   1.45626   1.76249
- 29.00000  19.00000    180112                znucl, zion, pspdat
    8 -116133    2    4       600   0.00000   pspcod,pspxc,lmax,lloc,mmax,r2well
    5.99000000000000    3.50000000000000    0.00000000000000   rchrg,fchrg,qchrg
     nproj     2     2     2
     extension_switch     1
  pspatm : epsatm=   21.63488701
         --- l  ekb(1:nproj) -->
             0    5.008230   -0.401634
             1   -3.496700   -0.765945
             2   -6.895851   -2.521180
 pspatm: atomic psp has been read  and splines computed

- pspini: atom type   3  psp file is /scratch/users/j/a/jabreu/pseudos/PBEsol/O.psp8
- pspatm: opening atomic psp file    /scratch/users/j/a/jabreu/pseudos/PBEsol/O.psp8
- O     ONCVPSP-3.3.0  r_core=   1.35509   1.45563   1.26150
-  8.00000   6.00000    180112                znucl, zion, pspdat
    8 -116133    2    4       600   0.00000   pspcod,pspxc,lmax,lloc,mmax,r2well
    5.99000000000000    4.00000000000000    0.00000000000000   rchrg,fchrg,qchrg
     nproj     2     2     1
     extension_switch     1
  pspatm : epsatm=    6.22910522
         --- l  ekb(1:nproj) -->
             0    6.050032    0.820363
             1   -4.739617   -1.153841
             2   -1.335834
 pspatm: atomic psp has been read  and splines computed

   8.01072861E+03                                ecore*ucvol(ha*bohr**3)

[...]
   0.00000   -0.00000   -0.00000    0.00000    0.00000   -0.00000   -0.00000    0.00000
   0.00000   -0.00000    0.00003

 Eight components of 2nd-order total energy (hartree) are
 1,2,3: 0th-order hamiltonian combined with 1st-order wavefunctions
     kin0=   2.17428141E+02 eigvalue=  -1.29713350E+00  local=  -9.52449660E+01
 4,5,6: 1st-order hamiltonian combined with 1st and 0th-order wfs
     kin1=  -2.61669005E+02  Hartree=   0.00000000E+00     xc=   0.00000000E+00
 7,8,9: eventually, occupation + non-local contributions
    edocc=   2.94533500E+01     enl0=  -1.50778125E+01   enl1=  -8.85415280E+00
 1-9 gives the relaxation energy (to be shifted if some occ is /=2.0)
   erelax=  -1.35261579E+02
  No Ewald or frozen-wf contrib.: the relaxation energy is the total one
 2DEtotal=   -0.1352615791E+03 Ha. Also 2DEtotal=   -0.368065475168E+04 eV
    (  non-var. 2DEtotal :   -1.3526157915E+02 Ha)

 Perturbation wavevector (in red.coord.)   0.000000  0.000000  0.000000
 Perturbation : derivative vs k along direction   2
 The set of symmetries contains only one element for this perturbation.
 symkpt : not enough symmetry to change the number of k points.

[...]

 Perturbation wavevector (in red.coord.)   0.000000  0.000000  0.000000
 Perturbation : derivative vs k along direction   3
 The set of symmetries contains only one element for this perturbation.
 symkpt : not enough symmetry to change the number of k points.

-inwffil : will read wavefunctions from disk file /scratch/users/j/a/jabreu/flow_simple_8atoms/flow/w293/t1/indata/in_WFK

 Initialisation of the first-order wave-functions :
  ireadwf=   0

--- !BeginCycle
iteration_state: {dtset: 1, }
solver: {iscf: 7, nstep: 2000, nline: 4, wfoptalg: 0, }
tolerances: {tolwfr: 1.00E-20, }
...

     iter   2DEtotal(Ha)        deltaE(Ha) residm    vres2
-ETOT  1  -7.6829475522074     -7.683E+00 1.119E-02 0.000E+00
 ETOT  2  -7.7289395999297     -4.599E-02 1.440E-03 0.000E+00
 ETOT  3  -7.7310067435804     -2.067E-03 5.675E-05 0.000E+00
 ETOT  4  -7.7311544941999     -1.478E-04 1.077E-05 0.000E+00
 ETOT  5  -7.7311683051919     -1.381E-05 4.178E-06 0.000E+00
 ETOT  6  -7.7311697614080     -1.456E-06 8.415E-07 0.000E+00
 ETOT  7  -7.7311699421078     -1.807E-07 3.591E-07 0.000E+00
 ETOT  8  -7.7311699657138     -2.361E-08 7.663E-08 0.000E+00
 ETOT  9  -7.7311699689334     -3.220E-09 3.718E-08 0.000E+00
 ETOT 10  -7.7311699693885     -4.551E-10 7.763E-09 0.000E+00
 ETOT 11  -7.7311699694547     -6.617E-11 4.007E-09 0.000E+00
 ETOT 12  -7.7311699694645     -9.829E-12 8.055E-10 0.000E+00
 ETOT 13  -7.7311699694660     -1.481E-12 4.318E-10 0.000E+00
 ETOT 14  -7.7311699694662     -2.149E-13 8.477E-11 0.000E+00
 ETOT 15  -7.7311699694663     -4.974E-14 4.650E-11 0.000E+00
 ETOT 16  -7.7311699694663      6.217E-15 9.054E-12 0.000E+00
 ETOT 17  -7.7311699694663      2.665E-15 5.037E-12 0.000E+00
 ETOT 18  -7.7311699694663     -1.776E-15 9.814E-13 0.000E+00
 ETOT 19  -7.7311699694663     -1.155E-14 5.509E-13 0.000E+00
 ETOT 20  -7.7311699694663     -3.553E-15 1.077E-13 0.000E+00
 ETOT 21  -7.7311699694663      1.776E-15 6.080E-14 0.000E+00
 ETOT 22  -7.7311699694663      6.217E-15 1.194E-14 0.000E+00
 ETOT 23  -7.7311699694663     -2.665E-15 6.763E-15 0.000E+00
 ETOT 24  -7.7311699694663     -1.776E-15 1.334E-15 0.000E+00
 ETOT 25  -7.7311699694663      0.000E+00 7.565E-16 0.000E+00
 ETOT 26  -7.7311699694663      8.882E-16 1.496E-16 0.000E+00
 ETOT 27  -7.7311699694663      0.000E+00 8.498E-17 0.000E+00
 ETOT 28  -7.7311699694663     -8.882E-16 1.685E-17 0.000E+00
 ETOT 29  -7.7311699694663      0.000E+00 9.576E-18 0.000E+00
 ETOT 30  -7.7311699694663      0.000E+00 1.902E-18 0.000E+00
 ETOT 31  -7.7311699694663      8.882E-16 1.082E-18 0.000E+00
 ETOT 32  -7.7311699694663     -8.882E-16 2.152E-19 0.000E+00
 ETOT 33  -7.7311699694663      0.000E+00 1.224E-19 0.000E+00
 ETOT 34  -7.7311699694663     -1.776E-15 2.438E-20 0.000E+00
 ETOT 35  -7.7311699694663      1.776E-15 1.387E-20 0.000E+00
 ETOT 36  -7.7311699694663      0.000E+00 9.784E-21 0.000E+00

 At SCF step   36   max residual=  9.78E-21 < tolwfr=  1.00E-20 =>converged.

 ----iterations are completed or convergence reached----

 dfpt_looppert: DFPT cycle converged with prtwf=-1. Will skip output of the 1st-order WFK file.
 dfpt_looppert : ek2=    1.4597105891E+01
          f-sum rule ratio=    1.0025583493E+00
 prteigrs : about to open file /scratch/users/j/a/jabreu/flow_simple_8atoms/flow/w293/t1/tmpdata/tmp_1WF1_EIG
 Expectation of eigenvalue derivatives (hartree) for nkpt=   1  k points:
  (in case of degenerate eigenvalues, averaged derivative)
 kpt#   1, nband= 51, wtk=  1.00000, kpt=  0.5000  0.0000  0.0000 (reduced coord)
  -0.00000   -0.00000   -0.00000    0.00000   -0.00000   -0.00000    0.00000    0.00000
  -0.00000    0.00000    0.00000   -0.00000    0.00000    0.00000    0.00000    0.00000
  -0.00000   -0.00000   -0.00000    0.00000   -0.00000    0.00000    0.00000   -0.00000
   0.00000   -0.00000    0.00000   -0.00000    0.00000   -0.00000    0.00000    0.00000
  -0.00000   -0.00000   -0.00000   -0.00000   -0.00000    0.00000   -0.00000    0.00000
  -0.00000   -0.00000    0.00000   -0.00000    0.00000   -0.00000   -0.00000    0.00000
   0.00000   -0.00000    0.00000

 Eight components of 2nd-order total energy (hartree) are
 1,2,3: 0th-order hamiltonian combined with 1st-order wavefunctions
     kin0=   1.40853820E+01 eigvalue=  -1.51014903E-01  local=  -6.40211974E+00
 4,5,6: 1st-order hamiltonian combined with 1st and 0th-order wfs
     kin1=  -1.46344504E+01  Hartree=   0.00000000E+00     xc=   0.00000000E+00
 7,8,9: eventually, occupation + non-local contributions
    edocc=   1.05875459E+00     enl0=  -8.59832015E-01   enl1=  -8.27889551E-01
 1-9 gives the relaxation energy (to be shifted if some occ is /=2.0)
   erelax=  -7.73116997E+00
  No Ewald or frozen-wf contrib.: the relaxation energy is the total one
 2DEtotal=   -0.7731169969E+01 Ha. Also 2DEtotal=   -0.210375833726E+03 eV
    (  non-var. 2DEtotal :   -7.7311699693E+00 Ha)

 CALCULATION OF EFFECTIVE MASSES
 NOTE : Additional infos (eff. mass eigenvalues, eigenvectors and, if degenerate, average mass) are available in stdout.

 K-point ( 0.500,-0.000, 0.000) | band =    42
 Effective mass tensor:
             -4.6232383892              6.7917769290              0.0000255327
              6.7917769290            -12.4657065441              0.0000148985
              0.0000255327              0.0000148985            -41.9052352108
 Effective mass tensor eigenvalues:
            -41.9052352108            -16.3869408627             -0.7020040706
 Angular average effective mass 1/(<1/m>)=  -1.9875700891
 Angular average effective mass for Frohlich model (<m**0.5>)**2=  -4.4054017237
 Effective masses along directions: (cart. coord. / red. coord. -> eff. mass)
    1:   1.000000  0.000000  0.000000 /   0.894427 -0.447214  0.000000 ->  -0.9228276913
    2:   0.000000  1.000000  0.000000 /   0.000000  1.000000  0.000000 ->  -2.4882340519
    3:   0.000000  0.000000  1.000000 /   0.000000  0.000000  1.000000 -> -41.9052352096
    4:   0.577350  0.577350  0.577350 /   0.271652  0.099432  0.957245 ->  -1.1151660822
    5:   0.000000  0.707107  0.707107 /   0.000000  0.238663  0.971102 ->  -4.6975282063
    6:   0.707107  0.000000  0.707107 /   0.270497 -0.135248  0.953173 ->  -1.8058837161
    7:   0.707107  0.707107  0.000000 /   0.939071  0.343724  0.000000 ->  -0.7500985993

 K-point ( 0.500,-0.000, 0.000) | band =    43
 Effective mass tensor:
              0.9432473656             -0.0700267221              0.0000012701
             -0.0700267221              1.0241072570              0.0000007333
              0.0000012701              0.0000007333              0.9883921221
 Effective mass tensor eigenvalues:
              0.9028174181              0.9883921221              1.0645372045
 Angular average effective mass 1/(<1/m>)=   0.9807885696
 Angular average effective mass for Frohlich model (<m**0.5>)**2=   0.9821298927
 Effective masses along directions: (cart. coord. / red. coord. -> eff. mass)
    1:   1.000000  0.000000  0.000000 /   0.894427 -0.447214  0.000000 ->   0.9384590568
    2:   0.000000  1.000000  0.000000 /   0.000000  1.000000  0.000000 ->   1.0189084704
    3:   0.000000  0.000000  1.000000 /   0.000000  0.000000  1.000000 ->   0.9883921221
    4:   0.577350  0.577350  0.577350 /   0.271652  0.099432  0.957245 ->   0.9361883487
    5:   0.000000  0.707107  0.707107 /   0.000000  0.238663  0.971102 ->   1.0034191585
    6:   0.707107  0.000000  0.707107 /   0.270497 -0.135248  0.953173 ->   0.9627799177
    7:   0.707107  0.707107  0.000000 /   0.939071  0.343724  0.000000 ->   0.9120993182

 END OF EFFECTIVE MASSES SECTION

 ---- first-order wavefunction calculations are completed ----

 Total localisation tensor (bohr^2) in cartesian coordinates
  WARNING : still subject to testing - especially symmetries.
      direction              matrix element
   alpha     beta       real part   imaginary part
     1        1       1.4308546170    0.0000000000
     1        2      -0.3682614297    0.0000000000
     1        3       0.0000000000    0.0000000000
     2        1      -0.3682614297    0.0000000000
     2        2       0.6378475066    0.0000000000
     2        3       0.0000000000    0.0000000000
     3        1       0.0000000000    0.0000000000
     3        2       0.0000000000    0.0000000000
     3        3       0.5315880117    0.0000000000

 respfn : d/dk was computed, but no 2DTE, so no DDB output.

== END DATASET(S) ==============================================================

 -outvars: echo values of variables after computation  --------
            acell      1.0000000000E+00  1.0000000000E+00  1.0000000000E+00 Bohr
              amu      4.49559100E+01  6.35460000E+01  1.59994000E+01
             ecut      4.60000000E+01 Hartree
           etotal     -7.7311699695E+00
            fcart      0.0000000000E+00  0.0000000000E+00  0.0000000000E+00
                       0.0000000000E+00  0.0000000000E+00  0.0000000000E+00
                       0.0000000000E+00  0.0000000000E+00  0.0000000000E+00
                       0.0000000000E+00  0.0000000000E+00  0.0000000000E+00
                       0.0000000000E+00  0.0000000000E+00  0.0000000000E+00
                       0.0000000000E+00  0.0000000000E+00  0.0000000000E+00
                       0.0000000000E+00  0.0000000000E+00  0.0000000000E+00
                       0.0000000000E+00  0.0000000000E+00  0.0000000000E+00
-          fftalg         512
           irdden           1
           irdwfk           1
           istwfk        1
              ixc     -116133
              kpt      5.00000000E-01 -5.55111512E-17  0.00000000E+00
           kptopt           0
P           mkmem           1
P          mkqmem           1
P          mk1mem           1
            natom           8
            nband          51
           nbdbuf           4
            ngfft          40      40     135
             nkpt           1
            nstep        2000
             nsym          24
           ntypat           3
              occ      2.000000  2.000000  2.000000  2.000000  2.000000  2.000000
                       2.000000  2.000000  2.000000  2.000000  2.000000  2.000000
                       2.000000  2.000000  2.000000  2.000000  2.000000  2.000000
                       2.000000  2.000000  2.000000  2.000000  2.000000  2.000000
                       2.000000  2.000000  2.000000  2.000000  2.000000  2.000000
                       2.000000  2.000000  2.000000  2.000000  2.000000  2.000000
                       2.000000  2.000000  2.000000  2.000000  2.000000  2.000000
                       0.000000  0.000000  0.000000  0.000000  0.000000  0.000000
                       0.000000  0.000000  0.000000
        optdriver           1
            prtwf          -1
            rfdir           1       1       1
           rfelfd           2
            rprim      6.0491029735E+00  0.0000000000E+00  0.0000000000E+00
                      -3.0245514868E+00  5.2386768452E+00  0.0000000000E+00
                       0.0000000000E+00  0.0000000000E+00  2.1315775127E+01
          spgroup         194
           strten      0.0000000000E+00  0.0000000000E+00  0.0000000000E+00
                       0.0000000000E+00  0.0000000000E+00  0.0000000000E+00
           symrel      1  0  0   0  1  0   0  0  1      -1  0  0   0 -1  0   0  0 -1
                       0  1  0   1  0  0   0  0  1       0 -1  0  -1  0  0   0  0 -1
                       1  1  0  -1  0  0   0  0  1      -1 -1  0   1  0  0   0  0 -1
                      -1  0  0   1  1  0   0  0  1       1  0  0  -1 -1  0   0  0 -1
                       0  1  0  -1 -1  0   0  0  1       0 -1  0   1  1  0   0  0 -1
                      -1 -1  0   0  1  0   0  0  1       1  1  0   0 -1  0   0  0 -1
                      -1  0  0   0 -1  0   0  0  1       1  0  0   0  1  0   0  0 -1
                       0 -1  0  -1  0  0   0  0  1       0  1  0   1  0  0   0  0 -1
                      -1 -1  0   1  0  0   0  0  1       1  1  0  -1  0  0   0  0 -1
                       1  0  0  -1 -1  0   0  0  1      -1  0  0   1  1  0   0  0 -1
                       0 -1  0   1  1  0   0  0  1       0  1  0  -1 -1  0   0  0 -1
                       1  1  0   0 -1  0   0  0  1      -1 -1  0   0  1  0   0  0 -1
            tnons      0.0000000  0.0000000  0.0000000     0.0000000  0.0000000 -0.0000000
                       0.0000000  0.0000000  0.5000000     0.0000000  0.0000000  0.5000000
                       0.0000000  0.0000000  0.5000000     0.0000000  0.0000000  0.5000000
                       0.0000000  0.0000000  0.0000000     0.0000000  0.0000000 -0.0000000
                       0.0000000  0.0000000  0.0000000     0.0000000  0.0000000 -0.0000000
                       0.0000000  0.0000000  0.5000000     0.0000000  0.0000000  0.5000000
                       0.0000000  0.0000000  0.5000000     0.0000000  0.0000000  0.5000000
                       0.0000000  0.0000000  0.0000000     0.0000000  0.0000000 -0.0000000
                       0.0000000  0.0000000  0.0000000     0.0000000  0.0000000 -0.0000000
                       0.0000000  0.0000000  0.5000000     0.0000000  0.0000000  0.5000000
                       0.0000000  0.0000000  0.5000000     0.0000000  0.0000000  0.5000000
                       0.0000000  0.0000000  0.0000000     0.0000000  0.0000000 -0.0000000
           tolwfr      1.00000000E-20
            typat      1  1  2  2  3  3  3  3
           useylm           1
           xangst      0.0000000000E+00  0.0000000000E+00 -1.5653898151E-16
                       0.0000000000E+00  0.0000000000E+00  5.6399111903E+00
                       1.6005237130E+00  9.2406279655E-01  8.4598667855E+00
                      -1.7639006744E-11  1.8481255931E+00  2.8199555952E+00
                      -1.7639006744E-11  1.8481255931E+00  4.6314837897E+00
                       1.6005237130E+00  9.2406279655E-01  1.0271394980E+01
                      -1.7639006744E-11  1.8481255931E+00  1.0084274007E+00
                       1.6005237130E+00  9.2406279655E-01  6.6483385910E+00
            xcart      0.0000000000E+00  0.0000000000E+00 -2.9581580417E-16
                       0.0000000000E+00  0.0000000000E+00  1.0657887564E+01
                       3.0245514867E+00  1.7462256151E+00  1.5986831345E+01
                      -3.3332892002E-11  3.4924512301E+00  5.3289437818E+00
                      -3.3332892002E-11  3.4924512301E+00  8.7522359514E+00
                       3.0245514867E+00  1.7462256151E+00  1.9410123515E+01
                      -3.3332892002E-11  3.4924512301E+00  1.9056516121E+00
                       3.0245514867E+00  1.7462256151E+00  1.2563539176E+01
             xred      0.0000000000E+00  0.0000000000E+00 -1.3877787808E-17
                       0.0000000000E+00  0.0000000000E+00  5.0000000000E-01
                       6.6666666667E-01  3.3333333333E-01  7.5000000000E-01
                       3.3333333333E-01  6.6666666667E-01  2.5000000000E-01
                       3.3333333333E-01  6.6666666667E-01  4.1059900000E-01
                       6.6666666667E-01  3.3333333333E-01  9.1059900000E-01
                       3.3333333333E-01  6.6666666667E-01  8.9401000000E-02
                       6.6666666667E-01  3.3333333333E-01  5.8940100000E-01
            znucl       21.00000   29.00000    8.00000

- Timing analysis has been suppressed with timopt=0

 Suggested references for the acknowledgment of ABINIT usage.

 Calculation completed.
.Delivered   6 WARNINGs and   5 COMMENTs to log file.