.Version 9.5.1 of ABINIT

 ABINIT is a project of the Universite Catholique de Louvain,
 Corning Inc. and other collaborators, see ~abinit/doc/developers/contributors.txt .
 acknowledgments of the ABINIT effort.

.Starting date : Wed  5 May 2021.
- ( at 19h37 )

- input  file    -> /scratch/users/j/a/jabreu/flow_simple_7atoms/flow/w111/t1/run.abi
- output file    -> /scratch/users/j/a/jabreu/flow_simple_7atoms/flow/w111/t1/run.abo
- root for input  files -> /scratch/users/j/a/jabreu/flow_simple_7atoms/flow/w111/t1/indata/in
- root for output files -> /scratch/users/j/a/jabreu/flow_simple_7atoms/flow/w111/t1/outdata/out

 Symmetries : space group I-4 2 m (#121); Bravais tI (body-center tetrag.)
     intxc =       0      iscf =       7    lmnmax =      18     lnmax =       6
     mgfft =      80  mpssoang =       3    mqgrid =    3001     natom =       7
  nloc_mem =       1    nspden =       1   nspinor =       1    nsppol =       1
      nsym =       8    n1xccc =    2501    ntypat =       3    occopt =       1
   xclevel =       2
-    mband =          64        mffmem =           1         mkmem =           1
-   mkqmem =           1        mk1mem =           1           mpw =       16947
      nfft =      512000          nkpt =           1
  Rough estimation (10% accuracy) of disk space for files :

------------- Echo of variables that govern the present computation ------------
-
- outvars: echo of selected default values
-   iomode0 =  0 , fftalg0 =512 , wfoptalg0 =  0
-
- outvars: echo of global parameters not present in the input file
-  max_nthreads =    0
-
 -outvars: echo values of preprocessed input variables --------
            acell      1.0000000000E+00  1.0000000000E+00  1.0000000000E+00 Bohr
              amu      6.53900000E+01  1.14820000E+02  7.89600000E+01
             ecut      4.30000000E+01 Hartree
-          fftalg         512
           irdden           1
           irdwfk           1
           istwfk        1
              ixc     -116133
           kptopt           0
P           mkmem           1
P          mkqmem           1
P          mk1mem           1
            natom           7
            nband          64
           nbdbuf           4
            ngfft          80      80      80
             nkpt           1
            nstep        2000
             nsym           8
           ntypat           3
              occ      2.000000  2.000000  2.000000  2.000000  2.000000  2.000000
                       2.000000  2.000000  2.000000  2.000000  2.000000  2.000000
                       2.000000  2.000000  2.000000  2.000000  2.000000  2.000000
                       2.000000  2.000000  2.000000  2.000000  2.000000  2.000000
                       2.000000  2.000000  2.000000  2.000000  2.000000  2.000000
                       2.000000  2.000000  2.000000  2.000000  2.000000  2.000000
                       2.000000  2.000000  2.000000  2.000000  2.000000  2.000000
                       2.000000  2.000000  2.000000  2.000000  2.000000  2.000000
                       2.000000  2.000000  2.000000  2.000000  2.000000  2.000000
                       2.000000  0.000000  0.000000  0.000000  0.000000  0.000000
                       0.000000  0.000000  0.000000  0.000000
        optdriver           1
            prtwf          -1
            rfdir           1       1       1
           rfelfd           2
            rprim      9.8940243966E+00  0.0000000000E+00 -8.6425667052E+00
                      -2.0417991035E+00  9.6810523798E+00 -8.6425667052E+00
                       0.0000000000E+00  0.0000000000E+00  1.3137186838E+01
          spgroup         121
           symrel      1  0  0   0  1  0   0  0  1       0  0  1  -1 -1 -1   1  0  0
                       0  1  0   1  0  0  -1 -1 -1      -1 -1 -1   0  0  1   0  1  0
                       0  1  0   1  0  0   0  0  1       0  0  1  -1 -1 -1   0  1  0
                       1  0  0   0  1  0  -1 -1 -1      -1 -1 -1   0  0  1   1  0  0
           tolwfr      1.00000000E-20
            typat      1  2  2  3  3  3  3
           useylm           1
           xangst      2.0776093309E+00  2.5614961373E+00 -4.5734493241E+00
                       3.6566507714E+00  1.2807480686E+00 -1.0974993943E+00
                       4.9856789041E-01  3.8422442059E+00 -1.0974993943E+00
                      -3.1934835297E-02  3.3707124702E+00 -3.6022270522E+00
                       1.4212603403E+00  1.7522798043E+00  1.5074873926E-01
                       3.3047471069E+00  6.6435604190E-01 -3.6022270522E+00
                       3.6163647117E+00  4.4586362327E+00 -4.2881920717E+00
            xcart      3.9261126466E+00  4.8405261899E+00 -8.6425667052E+00
                       6.9100685216E+00  2.4202630950E+00 -2.0739732863E+00
                       9.4215677153E-01  7.2607892849E+00 -2.0739732863E+00
                      -6.0348092809E-02  6.3697234414E+00 -6.8072225971E+00
                       2.6857928068E+00  3.3113289384E+00  2.8487383208E-01
                       6.2450669704E+00  1.2554509739E+00 -6.8072225971E+00
                       6.8339389018E+00  8.4256014059E+00 -8.1035086208E+00
             xred      5.0000000000E-01  5.0000000000E-01  0.0000000000E+00
                       7.5000000000E-01  2.5000000000E-01  5.0000000000E-01
                       2.5000000000E-01  7.5000000000E-01  5.0000000000E-01
                       1.2968125000E-01  6.5795775000E-01  0.0000000000E+00
                       3.4204225000E-01  3.4204225000E-01  4.7172350000E-01
                       6.5795775000E-01  1.2968125000E-01  0.0000000000E+00
                       8.7031875000E-01  8.7031875000E-01  5.2827650000E-01
            znucl       30.00000   49.00000   34.00000

 chkinp: Checking input parameters for consistency.

== DATASET  1 ==================================================================
-   mpi_nproc: 1, omp_nthreads: -1 (-1 if OMP is not activated)

--- !DatasetInfo
iteration_state: {dtset: 1, }
dimensions: {natom: 7, nkpt: 1, mband: 64, nsppol: 1, nspinor: 1, nspden: 1, mpw: 16947, }
cutoff_energies: {ecut:  43.0, pawecutdg:  -1.0, }
electrons: {nelect:   1.10000000E+02, charge:   0.00000000E+00, occopt:   1.00000000E+00, tsmear:   1.00000000E-02, }
meta: {optdriver: 1, rfelfd: 2, }
...

 Real(R)+Recip(G) space primitive vectors, cartesian coordinates (Bohr,Bohr^-1):
 R(1)=  9.8940244  0.0000000 -8.6425667  G(1)=  0.1010711  0.0213166  0.0000000
 R(2)= -2.0417991  9.6810524 -8.6425667  G(2)=  0.0000000  0.1032946  0.0000000
 R(3)=  0.0000000  0.0000000 13.1371868  G(3)=  0.0664917  0.0819780  0.0761198
 Unit cell volume ucvol=  1.2583398E+03 bohr^3
 Angles (23,13,12)=  1.31137661E+02  1.31137661E+02  7.15944558E+01 degrees

 getcut: wavevector=  0.0000  0.0000  0.0000  ngfft=  80  80  80
         ecut(hartree)=     43.000   => boxcut(ratio)=   2.06323

--- Pseudopotential description ------------------------------------------------
- pspini: atom type   1  psp file is /scratch/users/j/a/jabreu/pseudos/PBEsol/Zn.psp8
- pspatm: opening atomic psp file    /scratch/users/j/a/jabreu/pseudos/PBEsol/Zn.psp8
- Zn    ONCVPSP-3.3.0  r_core=   1.35823   1.66358   1.85211
- 30.00000  20.00000    180112                znucl, zion, pspdat
    8 -116133    2    4       600   0.00000   pspcod,pspxc,lmax,lloc,mmax,r2well
    5.99000000000000    2.50000000000000    0.00000000000000   rchrg,fchrg,qchrg
     nproj     2     2     2
     extension_switch     1
  pspatm : epsatm=   26.57343589
         --- l  ekb(1:nproj) -->
             0    2.830835   -1.519107
             1   -4.626739   -1.324150
             2   -6.948510   -2.555500
 pspatm: atomic psp has been read  and splines computed

- pspini: atom type   2  psp file is /scratch/users/j/a/jabreu/pseudos/PBEsol/In.psp8
- pspatm: opening atomic psp file    /scratch/users/j/a/jabreu/pseudos/PBEsol/In.psp8
- In    ONCVPSP-3.3.0  r_core=   2.10853   2.37566   1.87143
- 49.00000  13.00000    180112                znucl, zion, pspdat
    8 -116133    2    4       600   0.00000   pspcod,pspxc,lmax,lloc,mmax,r2well
    5.99000000000000    5.00000000000000    0.00000000000000   rchrg,fchrg,qchrg
     nproj     2     2     2
     extension_switch     1
  pspatm : epsatm=   25.17984752
         --- l  ekb(1:nproj) -->
             0   12.999887    1.931740
             1    5.981707    1.012544
             2   -4.048011   -1.239028
 pspatm: atomic psp has been read  and splines computed

- pspini: atom type   3  psp file is /scratch/users/j/a/jabreu/pseudos/PBEsol/Se.psp8
- pspatm: opening atomic psp file    /scratch/users/j/a/jabreu/pseudos/PBEsol/Se.psp8
- Se    ONCVPSP-3.3.0  r_core=   1.81943   1.50330   1.90835
- 34.00000  16.00000    180112                znucl, zion, pspdat
    8 -116133    2    4       600   0.00000   pspcod,pspxc,lmax,lloc,mmax,r2well
    5.99000000000000    5.00000000000000    0.00000000000000   rchrg,fchrg,qchrg
     nproj     2     2     2
     extension_switch     1
  pspatm : epsatm=   29.17862020
         --- l  ekb(1:nproj) -->
             0    8.973804    1.019550
             1    6.849857    1.297308
             2   -9.203962   -3.731027
 pspatm: atomic psp has been read  and splines computed

   2.13012373E+04                                ecore*ucvol(ha*bohr**3)

-inwffil : will read wavefunctions from disk file /scratch/users/j/a/jabreu/flow_simple_7atoms/flow/w111/t1/indata/in_WFK

 ==>  initialize data related to q vector <==

 The list of irreducible perturbations for this q vector is:
    1)    idir= 1    ipert=   8
    2)    idir= 2    ipert=   8
    3)    idir= 3    ipert=   8

 Perturbation wavevector (in red.coord.)   0.000000  0.000000  0.000000
 Perturbation : derivative vs k along direction   1

 dfpt_looppert : COMMENT -
  In a d/dk calculation, iscf is set to -3 automatically.
 The set of symmetries contains only one element for this perturbation.
 symkpt : not enough symmetry to change the number of k points.

[...]

 Initialisation of the first-order wave-functions :
  ireadwf=   0

--- !BeginCycle
iteration_state: {dtset: 1, }
solver: {iscf: 7, nstep: 2000, nline: 4, wfoptalg: 0, }
tolerances: {tolwfr: 1.00E-20, }
...

     iter   2DEtotal(Ha)        deltaE(Ha) residm    vres2
-ETOT  1  -112.70210248580     -1.127E+02 3.946E-01 0.000E+00
 ETOT  2  -112.81692242727     -1.148E-01 3.383E-02 0.000E+00
 ETOT  3  -112.81828269653     -1.360E-03 4.212E-03 0.000E+00
 ETOT  4  -112.81832887416     -4.618E-05 3.586E-04 0.000E+00
 ETOT  5  -112.81833101129     -2.137E-06 6.506E-05 0.000E+00
 ETOT  6  -112.81833113283     -1.215E-07 5.865E-06 0.000E+00
 ETOT  7  -112.81833114034     -7.511E-09 1.103E-06 0.000E+00
 ETOT  8  -112.81833114083     -4.943E-10 1.021E-07 0.000E+00
 ETOT  9  -112.81833114087     -3.419E-11 1.946E-08 0.000E+00
 ETOT 10  -112.81833114087     -2.458E-12 1.813E-09 0.000E+00
 ETOT 11  -112.81833114087     -1.705E-13 3.492E-10 0.000E+00
 ETOT 12  -112.81833114087     -4.263E-14 3.252E-11 0.000E+00
 ETOT 13  -112.81833114087     -8.527E-14 6.327E-12 0.000E+00
 ETOT 14  -112.81833114087      8.527E-14 5.866E-13 0.000E+00
 ETOT 15  -112.81833114087     -7.105E-14 1.154E-13 0.000E+00
[...]
          f-sum rule ratio=    1.1685567576E+00
 prteigrs : about to open file /scratch/users/j/a/jabreu/flow_simple_7atoms/flow/w111/t1/tmpdata/tmp_1WF1_EIG
 Expectation of eigenvalue derivatives (hartree) for nkpt=   1  k points:
  (in case of degenerate eigenvalues, averaged derivative)
 kpt#   1, nband= 64, wtk=  1.00000, kpt=  0.0000  0.0000  0.0000 (reduced coord)
   0.00000    0.00000    0.00000    0.00000   -0.00000    0.00000    0.00000    0.00000
  -0.00000    0.00000   -0.00000   -0.00000    0.00000   -0.00000   -0.00000   -0.00000
  -0.00000    0.00000    0.00000    0.00000    0.00000    0.00000   -0.00000   -0.00000
  -0.00000   -0.00000    0.00000    0.00000    0.00000   -0.00000    0.00000   -0.00000
  -0.00000   -0.00000    0.00000    0.00000   -0.00000   -0.00000    0.00000    0.00000
  -0.00000    0.00000    0.00000    0.00000   -0.00000   -0.00000   -0.00000    0.00000
   0.00000   -0.00000   -0.00000    0.00000   -0.00000    0.00000    0.00000    0.00000
   0.00000    0.00000   -0.00000   -0.00000   -0.00000    0.00000    0.00000    0.00000

 Eight components of 2nd-order total energy (hartree) are
 1,2,3: 0th-order hamiltonian combined with 1st-order wavefunctions
     kin0=   1.17247869E+02 eigvalue=   1.63667558E+01  local=  -5.12531703E+01
 4,5,6: 1st-order hamiltonian combined with 1st and 0th-order wfs
     kin1=  -1.08289685E+02  Hartree=   0.00000000E+00     xc=   0.00000000E+00
 7,8,9: eventually, occupation + non-local contributions
    edocc=   1.81112144E+01     enl0=   1.23456620E+01   enl1=  -1.17346978E+02
 1-9 gives the relaxation energy (to be shifted if some occ is /=2.0)
   erelax=  -1.12818331E+02
  No Ewald or frozen-wf contrib.: the relaxation energy is the total one
 2DEtotal=   -0.1128183311E+03 Ha. Also 2DEtotal=   -0.306994291512E+04 eV
    (  non-var. 2DEtotal :   -1.1281833114E+02 Ha)

 Perturbation wavevector (in red.coord.)   0.000000  0.000000  0.000000
 Perturbation : derivative vs k along direction   2
 The set of symmetries contains only one element for this perturbation.
 symkpt : not enough symmetry to change the number of k points.

[...]

 Perturbation wavevector (in red.coord.)   0.000000  0.000000  0.000000
 Perturbation : derivative vs k along direction   3
 The set of symmetries contains only one element for this perturbation.
 symkpt : not enough symmetry to change the number of k points.

-inwffil : will read wavefunctions from disk file /scratch/users/j/a/jabreu/flow_simple_7atoms/flow/w111/t1/indata/in_WFK

 Initialisation of the first-order wave-functions :
  ireadwf=   0

--- !BeginCycle
iteration_state: {dtset: 1, }
solver: {iscf: 7, nstep: 2000, nline: 4, wfoptalg: 0, }
tolerances: {tolwfr: 1.00E-20, }
...

     iter   2DEtotal(Ha)        deltaE(Ha) residm    vres2
-ETOT  1  -180.83180887070     -1.808E+02 5.196E-01 0.000E+00
 ETOT  2  -180.98995135871     -1.581E-01 8.511E-03 0.000E+00
 ETOT  3  -180.99102885236     -1.077E-03 1.748E-03 0.000E+00
 ETOT  4  -180.99105887919     -3.003E-05 3.278E-05 0.000E+00
 ETOT  5  -180.99106007139     -1.192E-06 1.289E-05 0.000E+00
 ETOT  6  -180.99106012815     -5.676E-08 3.265E-07 0.000E+00
 ETOT  7  -180.99106013115     -3.003E-09 9.253E-08 0.000E+00
 ETOT  8  -180.99106013133     -1.748E-10 2.478E-09 0.000E+00
 ETOT  9  -180.99106013134     -1.108E-11 6.880E-10 0.000E+00
 ETOT 10  -180.99106013134     -6.537E-13 1.830E-11 0.000E+00
 ETOT 11  -180.99106013134     -1.421E-13 6.496E-12 0.000E+00
 ETOT 12  -180.99106013134      2.842E-14 1.827E-13 0.000E+00
 ETOT 13  -180.99106013134      5.684E-14 6.791E-14 0.000E+00
 ETOT 14  -180.99106013134     -1.137E-13 1.918E-15 0.000E+00
 ETOT 15  -180.99106013134      2.274E-13 7.190E-16 0.000E+00
 ETOT 16  -180.99106013134     -1.705E-13 2.024E-17 0.000E+00
 ETOT 17  -180.99106013134      8.527E-14 7.638E-18 0.000E+00
 ETOT 18  -180.99106013134      5.684E-14 2.142E-19 0.000E+00
 ETOT 19  -180.99106013134      0.000E+00 8.133E-20 0.000E+00
 ETOT 20  -180.99106013134      0.000E+00 9.828E-21 0.000E+00

 At SCF step   20   max residual=  9.83E-21 < tolwfr=  1.00E-20 =>converged.

 ----iterations are completed or convergence reached----

 dfpt_looppert: DFPT cycle converged with prtwf=-1. Will skip output of the 1st-order WFK file.
 dfpt_looppert : ek2=    1.4709132098E+02
          f-sum rule ratio=    1.1934700702E+00
 prteigrs : about to open file /scratch/users/j/a/jabreu/flow_simple_7atoms/flow/w111/t1/tmpdata/tmp_1WF1_EIG
 Expectation of eigenvalue derivatives (hartree) for nkpt=   1  k points:
  (in case of degenerate eigenvalues, averaged derivative)
 kpt#   1, nband= 64, wtk=  1.00000, kpt=  0.0000  0.0000  0.0000 (reduced coord)
   0.00000    0.00000    0.00000    0.00000   -0.00000    0.00000    0.00000    0.00000
  -0.00000    0.00000   -0.00000   -0.00000    0.00000    0.00000    0.00000    0.00000
  -0.00000   -0.00000   -0.00000    0.00000   -0.00000   -0.00000   -0.00000   -0.00000
  -0.00000   -0.00000   -0.00000   -0.00000   -0.00000   -0.00000    0.00000   -0.00000
   0.00000    0.00000    0.00000   -0.00000   -0.00000   -0.00000    0.00000    0.00000
  -0.00000   -0.00000   -0.00000    0.00000   -0.00000   -0.00000   -0.00000    0.00000
   0.00000   -0.00000   -0.00000    0.00000   -0.00000    0.00000    0.00000   -0.00000
   0.00000   -0.00000   -0.00000   -0.00000   -0.00000    0.00000    0.00000    0.00000

 Eight components of 2nd-order total energy (hartree) are
 1,2,3: 0th-order hamiltonian combined with 1st-order wavefunctions
     kin0=   1.85707297E+02 eigvalue=   2.60021664E+01  local=  -8.11626271E+01
 4,5,6: 1st-order hamiltonian combined with 1st and 0th-order wfs
     kin1=  -1.75549089E+02  Hartree=   0.00000000E+00     xc=   0.00000000E+00
 7,8,9: eventually, occupation + non-local contributions
    edocc=   3.07978271E+01     enl0=   1.96463968E+01   enl1=  -1.86433031E+02
 1-9 gives the relaxation energy (to be shifted if some occ is /=2.0)
   erelax=  -1.80991060E+02
  No Ewald or frozen-wf contrib.: the relaxation energy is the total one
 2DEtotal=   -0.1809910601E+03 Ha. Also 2DEtotal=   -0.492501721246E+04 eV
    (  non-var. 2DEtotal :   -1.8099106013E+02 Ha)

 CALCULATION OF EFFECTIVE MASSES
 NOTE : Additional infos (eff. mass eigenvalues, eigenvectors and, if degenerate, average mass) are available in stdout.

 COMMENTS:
 - At k-point ( 0.000, 0.000, 0.000), bands    54 through    55
   are DEGENERATE (effective mass tensor is therefore not defined).
   See Section IIIB Eqs. (67)-(70) and Appendix E of PRB 93 205147 (2016).
 - Angular average effective mass for Frohlich model is to be averaged over degenerate bands. See later.
 - Associated theta integrals calculated with ntheta=   1000 points.

 K-point ( 0.000, 0.000, 0.000) | band =    54
 Transport equivalent effective mass tensor:
             -0.1612193253             -0.0929614772              0.1659790061
             -0.0929614772             -0.2004317224              0.2046364369
              0.1659790061              0.2046364369             -0.4511891988
 Transport equivalent effective mass tensor eigenvalues:
             -0.6412022401             -0.0858190048             -0.0858190016
 Angular average effective mass 1/(<1/m>)=  -0.1200131102
 Angular average effective mass for Frohlich model (<m**0.5>)**2=  -0.1410644554
 Effective masses along directions: (cart. coord. / red. coord. -> eff. mass)
    1:   1.000000  0.000000  0.000000 /   0.979363 -0.202108  0.000000 ->  -0.0997738278
    2:   0.000000  1.000000  0.000000 /   0.000000  1.000000  0.000000 ->  -0.1088271738
    3:   0.000000  0.000000  1.000000 /  -0.481651 -0.481651  0.732137 ->  -0.1916223947
    4:   0.577350  0.577350  0.577350 /   0.094559 -0.075809  0.992629 ->  -0.0819564893
    5:   0.000000  0.707107  0.707107 /  -0.548408  0.065896  0.833611 ->  -0.0916578412
    6:   0.707107  0.000000  0.707107 /   0.073704 -0.629246  0.773703 ->  -0.0966739933
    7:   0.707107  0.707107  0.000000 /   0.791522  0.611140  0.000000 ->  -0.1165280623

 K-point ( 0.000, 0.000, 0.000) | band =    55
 Transport equivalent effective mass tensor:
             -4.0305424269              0.0916208583             -0.1635855684
              0.0916208583             -3.9918954178             -0.2016858437
             -0.1635855684             -0.2016858437             -3.7447529076
 Transport equivalent effective mass tensor eigenvalues:
             -4.1048554200             -4.1048552874             -3.5574800449
 Angular average effective mass 1/(<1/m>)=  -0.9589574599
 Angular average effective mass for Frohlich model (<m**0.5>)**2=  -1.0953330764
 Effective masses along directions: (cart. coord. / red. coord. -> eff. mass)
    1:   1.000000  0.000000  0.000000 /   0.979363 -0.202108  0.000000 ->  -0.8340613210
    2:   0.000000  1.000000  0.000000 /   0.000000  1.000000  0.000000 ->  -0.7283814790
    3:   0.000000  0.000000  1.000000 /  -0.481651 -0.481651  0.732137 ->  -0.8899488060
    4:   0.577350  0.577350  0.577350 /   0.094559 -0.075809  0.992629 ->  -3.4677186210
    5:   0.000000  0.707107  0.707107 /  -0.548408  0.065896  0.833611 ->  -1.0148909090
    6:   0.707107  0.000000  0.707107 /   0.073704 -0.629246  0.773703 ->  -0.8124482338
    7:   0.707107  0.707107  0.000000 /   0.791522  0.611140  0.000000 ->  -1.3408334875

 Angular average effective mass for Frohlich model, averaged over degenerate bands.
 Value of     (<<m**0.5>>)**2 =     5.056398E-01
 Absolute Value of <<m**0.5>> =     7.110835E-01

 K-point ( 0.000, 0.000, 0.000) | band =    56
 Effective mass tensor:
              0.0924444252              0.0095829834             -0.0171100359
              0.0095829834              0.0964866561             -0.0210950582
             -0.0171100359             -0.0210950582              0.1223361307
 Effective mass tensor eigenvalues:
              0.0846717426              0.0846717427              0.1419237266
 Angular average effective mass 1/(<1/m>)=   0.0978260785
 Angular average effective mass for Frohlich model (<m**0.5>)**2=   0.0994066230
 Effective masses along directions: (cart. coord. / red. coord. -> eff. mass)
    1:   1.000000  0.000000  0.000000 /   0.979363 -0.202108  0.000000 ->   0.0895776051
    2:   0.000000  1.000000  0.000000 /   0.000000  1.000000  0.000000 ->   0.0923606093
    3:   0.000000  0.000000  1.000000 /  -0.481651 -0.481651  0.732137 ->   0.1152599798
    4:   0.577350  0.577350  0.577350 /   0.094559 -0.075809  0.992629 ->   0.0846732864
    5:   0.000000  0.707107  0.707107 /  -0.548408  0.065896  0.833611 ->   0.0869034171
    6:   0.707107  0.000000  0.707107 /   0.073704 -0.629246  0.773703 ->   0.0881554431
    7:   0.707107  0.707107  0.000000 /   0.791522  0.611140  0.000000 ->   0.0980598026

 END OF EFFECTIVE MASSES SECTION

 ---- first-order wavefunction calculations are completed ----

 Total localisation tensor (bohr^2) in cartesian coordinates
  WARNING : still subject to testing - especially symmetries.
      direction              matrix element
   alpha     beta       real part   imaginary part
     1        1       3.9909957013    0.0000000000
     1        2      -0.7729625564    0.0000000000
     1        3      -2.6537399927    0.0000000000
     2        1      -0.7729625564    0.0000000000
     2        2       3.6649496922    0.0000000000
     2        3      -3.2718108470    0.0000000000
     3        1      -2.6537399927    0.0000000000
     3        2      -3.2718108470    0.0000000000
     3        3      17.7003670444    0.0000000000

 respfn : d/dk was computed, but no 2DTE, so no DDB output.

== END DATASET(S) ==============================================================

 -outvars: echo values of variables after computation  --------
            acell      1.0000000000E+00  1.0000000000E+00  1.0000000000E+00 Bohr
              amu      6.53900000E+01  1.14820000E+02  7.89600000E+01
             ecut      4.30000000E+01 Hartree
           etotal     -1.8099106013E+02
            fcart      0.0000000000E+00  0.0000000000E+00  0.0000000000E+00
                       0.0000000000E+00  0.0000000000E+00  0.0000000000E+00
                       0.0000000000E+00  0.0000000000E+00  0.0000000000E+00
                       0.0000000000E+00  0.0000000000E+00  0.0000000000E+00
                       0.0000000000E+00  0.0000000000E+00  0.0000000000E+00
                       0.0000000000E+00  0.0000000000E+00  0.0000000000E+00
                       0.0000000000E+00  0.0000000000E+00  0.0000000000E+00
-          fftalg         512
           irdden           1
           irdwfk           1
           istwfk        1
              ixc     -116133
           kptopt           0
P           mkmem           1
P          mkqmem           1
P          mk1mem           1
            natom           7
            nband          64
           nbdbuf           4
            ngfft          80      80      80
             nkpt           1
            nstep        2000
             nsym           8
           ntypat           3
              occ      2.000000  2.000000  2.000000  2.000000  2.000000  2.000000
                       2.000000  2.000000  2.000000  2.000000  2.000000  2.000000
                       2.000000  2.000000  2.000000  2.000000  2.000000  2.000000
                       2.000000  2.000000  2.000000  2.000000  2.000000  2.000000
                       2.000000  2.000000  2.000000  2.000000  2.000000  2.000000
                       2.000000  2.000000  2.000000  2.000000  2.000000  2.000000
                       2.000000  2.000000  2.000000  2.000000  2.000000  2.000000
                       2.000000  2.000000  2.000000  2.000000  2.000000  2.000000
                       2.000000  2.000000  2.000000  2.000000  2.000000  2.000000
                       2.000000  0.000000  0.000000  0.000000  0.000000  0.000000
                       0.000000  0.000000  0.000000  0.000000
        optdriver           1
            prtwf          -1
            rfdir           1       1       1
           rfelfd           2
            rprim      9.8940243966E+00  0.0000000000E+00 -8.6425667052E+00
                      -2.0417991035E+00  9.6810523798E+00 -8.6425667052E+00
                       0.0000000000E+00  0.0000000000E+00  1.3137186838E+01
          spgroup         121
           strten      0.0000000000E+00  0.0000000000E+00  0.0000000000E+00
                       0.0000000000E+00  0.0000000000E+00  0.0000000000E+00
           symrel      1  0  0   0  1  0   0  0  1       0  0  1  -1 -1 -1   1  0  0
                       0  1  0   1  0  0  -1 -1 -1      -1 -1 -1   0  0  1   0  1  0
                       0  1  0   1  0  0   0  0  1       0  0  1  -1 -1 -1   0  1  0
                       1  0  0   0  1  0  -1 -1 -1      -1 -1 -1   0  0  1   1  0  0
           tolwfr      1.00000000E-20
            typat      1  2  2  3  3  3  3
           useylm           1
           xangst      2.0776093309E+00  2.5614961373E+00 -4.5734493241E+00
                       3.6566507714E+00  1.2807480686E+00 -1.0974993943E+00
                       4.9856789041E-01  3.8422442059E+00 -1.0974993943E+00
                      -3.1934835297E-02  3.3707124702E+00 -3.6022270522E+00
                       1.4212603403E+00  1.7522798043E+00  1.5074873926E-01
                       3.3047471069E+00  6.6435604190E-01 -3.6022270522E+00
                       3.6163647117E+00  4.4586362327E+00 -4.2881920717E+00
            xcart      3.9261126466E+00  4.8405261899E+00 -8.6425667052E+00
                       6.9100685216E+00  2.4202630950E+00 -2.0739732863E+00
                       9.4215677153E-01  7.2607892849E+00 -2.0739732863E+00
                      -6.0348092809E-02  6.3697234414E+00 -6.8072225971E+00
                       2.6857928068E+00  3.3113289384E+00  2.8487383208E-01
                       6.2450669704E+00  1.2554509739E+00 -6.8072225971E+00
                       6.8339389018E+00  8.4256014059E+00 -8.1035086208E+00
             xred      5.0000000000E-01  5.0000000000E-01  0.0000000000E+00
                       7.5000000000E-01  2.5000000000E-01  5.0000000000E-01
                       2.5000000000E-01  7.5000000000E-01  5.0000000000E-01
                       1.2968125000E-01  6.5795775000E-01  0.0000000000E+00
                       3.4204225000E-01  3.4204225000E-01  4.7172350000E-01
                       6.5795775000E-01  1.2968125000E-01  0.0000000000E+00
                       8.7031875000E-01  8.7031875000E-01  5.2827650000E-01
            znucl       30.00000   49.00000   34.00000

- Timing analysis has been suppressed with timopt=0

 Suggested references for the acknowledgment of ABINIT usage.

 Calculation completed.
.Delivered   6 WARNINGs and   5 COMMENTs to log file.