.Version 9.5.1 of ABINIT

 ABINIT is a project of the Universite Catholique de Louvain,
 Corning Inc. and other collaborators, see ~abinit/doc/developers/contributors.txt .
 acknowledgments of the ABINIT effort.

.Starting date : Tue 27 Apr 2021.
- ( at 15h30 )

- input  file    -> /scratch/users/j/a/jabreu/flow_simple/flow/w133/t1/run.abi
- output file    -> /scratch/users/j/a/jabreu/flow_simple/flow/w133/t1/run.abo
- root for input  files -> /scratch/users/j/a/jabreu/flow_simple/flow/w133/t1/indata/in
- root for output files -> /scratch/users/j/a/jabreu/flow_simple/flow/w133/t1/outdata/out

 Symmetries : space group F-4 3 m (#216); Bravais cF (face-center cubic)
     intxc =       0      iscf =       7    lmnmax =      18     lnmax =       6
     mgfft =      54  mpssoang =       3    mqgrid =    3001     natom =       3
  nloc_mem =       1    nspden =       1   nspinor =       1    nsppol =       1
      nsym =      24    n1xccc =    2501    ntypat =       3    occopt =       1
   xclevel =       2
-    mband =          31        mffmem =           1         mkmem =           2
-   mkqmem =           2        mk1mem =           2           mpw =        6230
      nfft =      157464          nkpt =           2
  Rough estimation (10% accuracy) of disk space for files :

------------- Echo of variables that govern the present computation ------------
-
- outvars: echo of selected default values
-   iomode0 =  0 , fftalg0 =512 , wfoptalg0 =  0
-
- outvars: echo of global parameters not present in the input file
-  max_nthreads =    0
-
 -outvars: echo values of preprocessed input variables --------
            acell      1.0000000000E+00  1.0000000000E+00  1.0000000000E+00 Bohr
              amu      9.12240000E+01  5.89332000E+01  2.08980370E+02
             ecut      4.80000000E+01 Hartree
-          fftalg         512
           irdden           1
           irdwfk           1
           istwfk        1    1
              ixc     -116133
              kpt      5.00000000E-01  5.00000000E-01  5.00000000E-01
                       5.00000000E-01  0.00000000E+00  5.00000000E-01
           kptopt           0
P           mkmem           2
P          mkqmem           2
P          mk1mem           2
            natom           3
            nband          31
           nbdbuf           4
            ngfft          54      54      54
             nkpt           2
            nstep         100
             nsym          24
           ntypat           3
              occ      2.000000  2.000000  2.000000  2.000000  2.000000  2.000000
                       2.000000  2.000000  2.000000  2.000000  2.000000  2.000000
                       2.000000  2.000000  2.000000  2.000000  2.000000  2.000000
                       2.000000  2.000000  2.000000  2.000000  0.000000  0.000000
                       0.000000  0.000000  0.000000  0.000000  0.000000  0.000000
                       0.000000
        optdriver           1
            prtwf          -1
            rfdir           1       1       1
           rfelfd           2
            rprim      7.1107830971E+00  0.0000000000E+00  4.1054125352E+00
                       2.3702610324E+00  6.7041105966E+00  4.1054125352E+00
                       0.0000000000E+00  0.0000000000E+00  8.2108250705E+00
          spgroup         216
           symrel      1  0  0   0  1  0   0  0  1       0 -1  1   0 -1  0   1 -1  0
                      -1  0  0  -1  0  1  -1  1  0       0  1 -1   1  0 -1   0  0 -1
                      -1  0  0  -1  1  0  -1  0  1       0 -1  1   1 -1  0   0 -1  0
                       1  0  0   0  0  1   0  1  0       0  1 -1   0  0 -1   1  0 -1
                      -1  0  1  -1  1  0  -1  0  0       0 -1  0   1 -1  0   0 -1  1
                       1  0 -1   0  0 -1   0  1 -1       0  1  0   0  0  1   1  0  0
                       1  0 -1   0  1 -1   0  0 -1       0 -1  0   0 -1  1   1 -1  0
                      -1  0  1  -1  0  0  -1  1  0       0  1  0   1  0  0   0  0  1
                       0  0 -1   0  1 -1   1  0 -1       1 -1  0   0 -1  1   0 -1  0
                       0  0  1   1  0  0   0  1  0      -1  1  0  -1  0  0  -1  0  1
                       0  0  1   0  1  0   1  0  0       1 -1  0   0 -1  0   0 -1  1
                       0  0 -1   1  0 -1   0  1 -1      -1  1  0  -1  0  1  -1  0  0
           tolwfr      1.00000000E-20
            typat      1  2  3
           useylm           1
              wtk        0.50000    0.50000
           xangst      0.0000000000E+00  0.0000000000E+00  0.0000000000E+00
                       1.2542881167E+00  8.8691563290E-01  2.1724907455E+00
                       2.5085762335E+00  1.7738312658E+00  4.3449814910E+00
            xcart      0.0000000000E+00  0.0000000000E+00  0.0000000000E+00
                       2.3702610324E+00  1.6760276491E+00  4.1054125352E+00
                       4.7405220647E+00  3.3520552983E+00  8.2108250704E+00
             xred      0.0000000000E+00  0.0000000000E+00  0.0000000000E+00
                       2.5000000000E-01  2.5000000000E-01  2.5000000000E-01
                       5.0000000000E-01  5.0000000000E-01  5.0000000000E-01
            znucl       40.00000   27.00000   83.00000

 chkinp: Checking input parameters for consistency.

== DATASET  1 ==================================================================
-   mpi_nproc: 1, omp_nthreads: -1 (-1 if OMP is not activated)

--- !DatasetInfo
iteration_state: {dtset: 1, }
dimensions: {natom: 3, nkpt: 2, mband: 31, nsppol: 1, nspinor: 1, nspden: 1, mpw: 6230, }
cutoff_energies: {ecut:  48.0, pawecutdg:  -1.0, }
electrons: {nelect:   4.40000000E+01, charge:   0.00000000E+00, occopt:   1.00000000E+00, tsmear:   1.00000000E-02, }
meta: {optdriver: 1, rfelfd: 2, }
...

 Real(R)+Recip(G) space primitive vectors, cartesian coordinates (Bohr,Bohr^-1):
 R(1)=  7.1107831  0.0000000  4.1054125  G(1)=  0.1406315 -0.0497207  0.0000000
 R(2)=  2.3702610  6.7041106  4.1054125  G(2)=  0.0000000  0.1491622  0.0000000
 R(3)=  0.0000000  0.0000000  8.2108251  G(3)= -0.0703157 -0.0497207  0.1217904
 Unit cell volume ucvol=  3.9142215E+02 bohr^3
 Angles (23,13,12)=  6.00000000E+01  6.00000000E+01  6.00000000E+01 degrees

 getcut: wavevector=  0.0000  0.0000  0.0000  ngfft=  54  54  54
         ecut(hartree)=     48.000   => boxcut(ratio)=   2.10945

--- Pseudopotential description ------------------------------------------------
- pspini: atom type   1  psp file is /scratch/users/j/a/jabreu/pseudos/PBEsol/Zr.psp8
- pspatm: opening atomic psp file    /scratch/users/j/a/jabreu/pseudos/PBEsol/Zr.psp8
- Zr    ONCVPSP-3.3.0  r_core=   1.56507   1.56507   1.51006
- 40.00000  12.00000    180112                znucl, zion, pspdat
    8 -116133    2    4       600   0.00000   pspcod,pspxc,lmax,lloc,mmax,r2well
    5.99000000000000    5.00000000000000    0.00000000000000   rchrg,fchrg,qchrg
     nproj     2     2     2
     extension_switch     1
  pspatm : epsatm=   18.88750170
         --- l  ekb(1:nproj) -->
             0   10.584966    0.890424
             1    5.814585    0.741293
             2    1.525459    0.487901
 pspatm: atomic psp has been read  and splines computed

- pspini: atom type   2  psp file is /scratch/users/j/a/jabreu/pseudos/PBEsol/Co.psp8
- pspatm: opening atomic psp file    /scratch/users/j/a/jabreu/pseudos/PBEsol/Co.psp8
- Co    ONCVPSP-3.3.0  r_core=   1.26190   1.32357   1.66026
- 27.00000  17.00000    180112                znucl, zion, pspdat
    8 -116133    2    4       600   0.00000   pspcod,pspxc,lmax,lloc,mmax,r2well
    5.99000000000000    6.00000000000000    0.00000000000000   rchrg,fchrg,qchrg
     nproj     2     2     2
     extension_switch     1
  pspatm : epsatm=   18.79313233
         --- l  ekb(1:nproj) -->
             0    6.295970   -0.649806
             1   -2.108725   -0.098055
             2   -6.914380   -2.516418
 pspatm: atomic psp has been read  and splines computed

- pspini: atom type   3  psp file is /scratch/users/j/a/jabreu/pseudos/PBEsol/Bi.psp8
- pspatm: opening atomic psp file    /scratch/users/j/a/jabreu/pseudos/PBEsol/Bi.psp8
- Bi    ONCVPSP-3.3.0  r_core=   2.42776   2.51622   2.10397
- 83.00000  15.00000    180112                znucl, zion, pspdat
    8 -116133    2    4       600   0.00000   pspcod,pspxc,lmax,lloc,mmax,r2well
    5.99000000000000    6.00000000000000    0.00000000000000   rchrg,fchrg,qchrg
     nproj     2     2     2
     extension_switch     1
  pspatm : epsatm=   42.90078186
         --- l  ekb(1:nproj) -->
             0    6.017688    0.961606
             1    4.379371    0.528498
             2   -3.458170   -0.753782
 pspatm: atomic psp has been read  and splines computed

   3.54558230E+03                                ecore*ucvol(ha*bohr**3)

-inwffil : will read wavefunctions from disk file /scratch/users/j/a/jabreu/flow_simple/flow/w133/t1/indata/in_WFK

 ==>  initialize data related to q vector <==

 The list of irreducible perturbations for this q vector is:
    1)    idir= 1    ipert=   4
    2)    idir= 2    ipert=   4
    3)    idir= 3    ipert=   4

 Perturbation wavevector (in red.coord.)   0.000000  0.000000  0.000000
 Perturbation : derivative vs k along direction   1

 dfpt_looppert : COMMENT -
  In a d/dk calculation, iscf is set to -3 automatically.
 The set of symmetries contains only one element for this perturbation.
 symkpt : not enough symmetry to change the number of k points.

[...]

 Initialisation of the first-order wave-functions :
  ireadwf=   0

--- !BeginCycle
iteration_state: {dtset: 1, }
solver: {iscf: 7, nstep: 100, nline: 4, wfoptalg: 0, }
tolerances: {tolwfr: 1.00E-20, }
...

     iter   2DEtotal(Ha)        deltaE(Ha) residm    vres2
-ETOT  1  -58.317705142020     -5.832E+01 6.501E-02 0.000E+00
 ETOT  2  -58.369567671548     -5.186E-02 8.762E-04 0.000E+00
 ETOT  3  -58.369923386220     -3.557E-04 1.059E-05 0.000E+00
 ETOT  4  -58.369928583531     -5.197E-06 3.199E-07 0.000E+00
 ETOT  5  -58.369928677946     -9.442E-08 7.297E-09 0.000E+00
 ETOT  6  -58.369928679805     -1.859E-09 2.330E-10 0.000E+00
 ETOT  7  -58.369928679844     -3.872E-11 9.235E-12 0.000E+00
 ETOT  8  -58.369928679844     -8.100E-13 3.010E-13 0.000E+00
 ETOT  9  -58.369928679844     -7.105E-15 1.214E-14 0.000E+00
 ETOT 10  -58.369928679844      7.105E-15 4.001E-16 0.000E+00
 ETOT 11  -58.369928679844     -4.263E-14 1.635E-17 0.000E+00
 ETOT 12  -58.369928679844     -7.105E-15 5.443E-19 0.000E+00
 ETOT 13  -58.369928679844      0.000E+00 2.244E-20 0.000E+00
 ETOT 14  -58.369928679844      1.421E-14 9.827E-21 0.000E+00

 At SCF step   14   max residual=  9.83E-21 < tolwfr=  1.00E-20 =>converged.

 ----iterations are completed or convergence reached----

 dfpt_looppert: DFPT cycle converged with prtwf=-1. Will skip output of the 1st-order WFK file.
 dfpt_looppert : ek2=    7.7296542556E+01
          f-sum rule ratio=    1.0661552394E+00
 prteigrs : about to open file /scratch/users/j/a/jabreu/flow_simple/flow/w133/t1/tmpdata/tmp_1WF1_EIG
 Expectation of eigenvalue derivatives (hartree) for nkpt=   2  k points:
  (in case of degenerate eigenvalues, averaged derivative)
 kpt#   1, nband= 31, wtk=  0.50000, kpt=  0.5000  0.5000  0.5000 (reduced coord)
   0.00000   -0.00000   -0.00000   -0.00000    0.00000    0.00000   -0.00000   -0.00000
  -0.00000   -0.00000   -0.00000    0.00000    0.00000    0.00000    0.00000   -0.00000
  -0.00000   -0.00000   -0.00000    0.00000   -0.00000   -0.00000    0.00000    0.00000
   0.00000    0.00000    0.00000    0.00000    0.00000    0.00000    0.00000
 prteigrs : prtvol=0 or 1, do not print more k-points.

 Eight components of 2nd-order total energy (hartree) are
 1,2,3: 0th-order hamiltonian combined with 1st-order wavefunctions
     kin0=   5.74680882E+01 eigvalue=   2.01486099E+00  local=  -2.55282074E+01
 4,5,6: 1st-order hamiltonian combined with 1st and 0th-order wfs
     kin1=  -8.24101138E+01  Hartree=   0.00000000E+00     xc=   0.00000000E+00
 7,8,9: eventually, occupation + non-local contributions
    edocc=   1.89821137E+01     enl0=   5.43307318E+00   enl1=  -3.43297435E+01
 1-9 gives the relaxation energy (to be shifted if some occ is /=2.0)
   erelax=  -5.83699287E+01
  No Ewald or frozen-wf contrib.: the relaxation energy is the total one
 2DEtotal=   -0.5836992868E+02 Ha. Also 2DEtotal=   -0.158832653519E+04 eV
    (  non-var. 2DEtotal :   -5.8369928680E+01 Ha)

 Perturbation wavevector (in red.coord.)   0.000000  0.000000  0.000000
 Perturbation : derivative vs k along direction   2
 The set of symmetries contains only one element for this perturbation.
 symkpt : not enough symmetry to change the number of k points.

[...]

 Perturbation wavevector (in red.coord.)   0.000000  0.000000  0.000000
 Perturbation : derivative vs k along direction   3
 The set of symmetries contains only one element for this perturbation.
 symkpt : not enough symmetry to change the number of k points.

-inwffil : will read wavefunctions from disk file /scratch/users/j/a/jabreu/flow_simple/flow/w133/t1/indata/in_WFK

 Initialisation of the first-order wave-functions :
  ireadwf=   0

--- !BeginCycle
iteration_state: {dtset: 1, }
solver: {iscf: 7, nstep: 100, nline: 4, wfoptalg: 0, }
tolerances: {tolwfr: 1.00E-20, }
...

     iter   2DEtotal(Ha)        deltaE(Ha) residm    vres2
-ETOT  1  -58.316645168986     -5.832E+01 6.509E-02 0.000E+00
 ETOT  2  -58.369270543819     -5.263E-02 6.793E-04 0.000E+00
 ETOT  3  -58.369633617353     -3.631E-04 9.118E-06 0.000E+00
 ETOT  4  -58.369638935574     -5.318E-06 3.164E-07 0.000E+00
 ETOT  5  -58.369639031635     -9.606E-08 7.297E-09 0.000E+00
 ETOT  6  -58.369639033509     -1.875E-09 2.330E-10 0.000E+00
 ETOT  7  -58.369639033548     -3.883E-11 9.235E-12 0.000E+00
 ETOT  8  -58.369639033549     -8.100E-13 3.010E-13 0.000E+00
 ETOT  9  -58.369639033549     -2.132E-14 1.214E-14 0.000E+00
 ETOT 10  -58.369639033549      4.974E-14 4.001E-16 0.000E+00
 ETOT 11  -58.369639033549     -3.553E-14 1.635E-17 0.000E+00
 ETOT 12  -58.369639033549      2.132E-14 5.443E-19 0.000E+00
 ETOT 13  -58.369639033549     -7.105E-15 2.245E-20 0.000E+00
 ETOT 14  -58.369639033549      0.000E+00 9.593E-21 0.000E+00

 At SCF step   14   max residual=  9.59E-21 < tolwfr=  1.00E-20 =>converged.

 ----iterations are completed or convergence reached----

 dfpt_looppert: DFPT cycle converged with prtwf=-1. Will skip output of the 1st-order WFK file.
 dfpt_looppert : ek2=    7.7296542555E+01
          f-sum rule ratio=    1.0661504038E+00
 prteigrs : about to open file /scratch/users/j/a/jabreu/flow_simple/flow/w133/t1/tmpdata/tmp_1WF1_EIG
 Expectation of eigenvalue derivatives (hartree) for nkpt=   2  k points:
  (in case of degenerate eigenvalues, averaged derivative)
 kpt#   1, nband= 31, wtk=  0.50000, kpt=  0.5000  0.5000  0.5000 (reduced coord)
  -0.00000    0.00000   -0.00000   -0.00000   -0.00000    0.00000    0.00000    0.00000
   0.00000    0.00000    0.00000   -0.00000   -0.00000   -0.00000    0.00000    0.00000
   0.00000   -0.00000   -0.00000    0.00000    0.00000    0.00000   -0.00000   -0.00000
  -0.00000    0.00000    0.00000    0.00000    0.00000    0.00000    0.00000
 prteigrs : prtvol=0 or 1, do not print more k-points.

 Eight components of 2nd-order total energy (hartree) are
 1,2,3: 0th-order hamiltonian combined with 1st-order wavefunctions
     kin0=   5.75038130E+01 eigvalue=   2.02052675E+00  local=  -2.55533927E+01
 4,5,6: 1st-order hamiltonian combined with 1st and 0th-order wfs
     kin1=  -8.24097401E+01  Hartree=   0.00000000E+00     xc=   0.00000000E+00
 7,8,9: eventually, occupation + non-local contributions
    edocc=   1.89568475E+01     enl0=   5.44184444E+00   enl1=  -3.43295380E+01
 1-9 gives the relaxation energy (to be shifted if some occ is /=2.0)
   erelax=  -5.83696390E+01
  No Ewald or frozen-wf contrib.: the relaxation energy is the total one
 2DEtotal=   -0.5836963903E+02 Ha. Also 2DEtotal=   -0.158831865351E+04 eV
    (  non-var. 2DEtotal :   -5.8369639033E+01 Ha)

 CALCULATION OF EFFECTIVE MASSES
 NOTE : Additional infos (eff. mass eigenvalues, eigenvectors and, if degenerate, average mass) are available in stdout.

 COMMENTS:
 - At k-point ( 0.500, 0.500, 0.500), bands    21 through    22
   are DEGENERATE (effective mass tensor is therefore not defined).
   See Section IIIB Eqs. (67)-(70) and Appendix E of PRB 93 205147 (2016).
 - Angular average effective mass for Frohlich model is to be averaged over degenerate bands. See later.
 - Associated theta integrals calculated with ntheta=   1000 points.

 K-point ( 0.500, 0.500, 0.500) | band =    21
 Transport equivalent effective mass tensor:
             -1.0798622113             -0.2227905050             -0.5457193770
             -0.2227905050             -0.9223283319             -0.3858826486
             -0.5457193770             -0.3858826486             -1.7100069700
 Transport equivalent effective mass tensor eigenvalues:
             -2.1826141347             -0.7647928891             -0.7647904894
 Angular average effective mass 1/(<1/m>)=  -0.9440743573
 Angular average effective mass for Frohlich model (<m**0.5>)**2=  -1.0006469882
 Effective masses along directions: (cart. coord. / red. coord. -> eff. mass)
    1:   1.000000  0.000000  0.000000 /   0.948683  0.316228  0.000000 ->  -0.8332806859
    2:   0.000000  1.000000  0.000000 /   0.000000  1.000000  0.000000 ->  -0.7637807282
    3:   0.000000  0.000000  1.000000 /   0.408248  0.408248  0.816497 ->  -1.1899077703
    4:   0.577350  0.577350  0.577350 /   0.585539  0.688047  0.428644 ->  -1.7107050175
    5:   0.000000  0.707107  0.707107 /   0.289489  0.762222  0.578977 ->  -1.3158781964
    6:   0.707107  0.000000  0.707107 /   0.731423  0.422287  0.535439 ->  -1.5209670056
    7:   0.707107  0.707107  0.000000 /   0.616798  0.787122  0.000000 ->  -1.0067036727

 K-point ( 0.500, 0.500, 0.500) | band =    22
 Transport equivalent effective mass tensor:
             -1.7108201472             -0.1870516693             -0.4581864529
             -0.1870516693             -1.5785510596             -0.3239862245
             -0.4581864529             -0.3239862245             -2.2398839791
 Transport equivalent effective mass tensor eigenvalues:
             -2.6366853305             -1.4462870736             -1.4462827818
 Angular average effective mass 1/(<1/m>)=  -1.5828690584
 Angular average effective mass for Frohlich model (<m**0.5>)**2=  -1.6214416658
 Effective masses along directions: (cart. coord. / red. coord. -> eff. mass)
    1:   1.000000  0.000000  0.000000 /   0.948683  0.316228  0.000000 ->  -1.6050542485
    2:   0.000000  1.000000  0.000000 /   0.000000  1.000000  0.000000 ->  -1.5481411136
    3:   0.000000  0.000000  1.000000 /   0.408248  0.408248  0.816497 ->  -2.2012508520
    4:   0.577350  0.577350  0.577350 /   0.585539  0.688047  0.428644 ->  -2.1687757461
    5:   0.000000  0.707107  0.707107 /   0.289489  0.762222  0.578977 ->  -1.8470207426
    6:   0.707107  0.000000  0.707107 /   0.731423  0.422287  0.535439 ->  -2.2532819945
    7:   0.707107  0.707107  0.000000 /   0.616798  0.787122  0.000000 ->  -1.4104483841

 Angular average effective mass for Frohlich model, averaged over degenerate bands.
 Value of     (<<m**0.5>>)**2 =     1.292407E+00
 Absolute Value of <<m**0.5>> =     1.136841E+00

 K-point ( 0.500, 0.000, 0.500) | band =    23
 Effective mass tensor:
              2.2110717753             -1.4542699438              1.7810999125
             -1.4542699438              3.2394100977             -2.5188757676
              1.7810999125             -2.5188757676              4.2677229241
 Effective mass tensor eigenvalues:
              1.1827496976              1.1827569169              7.3526981825
 Angular average effective mass 1/(<1/m>)=   1.6420593220
 Angular average effective mass for Frohlich model (<m**0.5>)**2=   1.8904180812
 Effective masses along directions: (cart. coord. / red. coord. -> eff. mass)
    1:   1.000000  0.000000  0.000000 /   0.948683  0.316228  0.000000 ->   1.3750662934
    2:   0.000000  1.000000  0.000000 /   0.000000  1.000000  0.000000 ->   1.6420582000
    3:   0.000000  0.000000  1.000000 /   0.408248  0.408248  0.816497 ->   2.0377193562
    4:   0.577350  0.577350  0.577350 /   0.585539  0.688047  0.428644 ->   1.2869430348
    5:   0.000000  0.707107  0.707107 /   0.289489  0.762222  0.578977 ->   1.1911657150
    6:   0.707107  0.000000  0.707107 /   0.731423  0.422287  0.535439 ->   2.4741185923
    7:   0.707107  0.707107  0.000000 /   0.616798  0.787122  0.000000 ->   1.1971148288

 END OF EFFECTIVE MASSES SECTION

 ---- first-order wavefunction calculations are completed ----

 Total localisation tensor (bohr^2) in cartesian coordinates
  WARNING : still subject to testing - especially symmetries.
      direction              matrix element
   alpha     beta       real part   imaginary part
     1        1       1.6781212896    0.0000000000
     1        2       0.4746419594    0.0000000000
     1        3       1.1626355467    0.0000000000
     2        1       0.4746419594    0.0000000000
     2        2       1.3424901924    0.0000000000
     2        3       0.8221039890    0.0000000000
     3        1       1.1626355467    0.0000000000
     3        2       0.8221039890    0.0000000000
     3        3       3.0206029833    0.0000000000

 respfn : d/dk was computed, but no 2DTE, so no DDB output.

== END DATASET(S) ==============================================================

 -outvars: echo values of variables after computation  --------
            acell      1.0000000000E+00  1.0000000000E+00  1.0000000000E+00 Bohr
              amu      9.12240000E+01  5.89332000E+01  2.08980370E+02
             ecut      4.80000000E+01 Hartree
           etotal     -5.8369639034E+01
            fcart      0.0000000000E+00  0.0000000000E+00  0.0000000000E+00
                       0.0000000000E+00  0.0000000000E+00  0.0000000000E+00
                       0.0000000000E+00  0.0000000000E+00  0.0000000000E+00
-          fftalg         512
           irdden           1
           irdwfk           1
           istwfk        1    1
              ixc     -116133
              kpt      5.00000000E-01  5.00000000E-01  5.00000000E-01
                       5.00000000E-01  0.00000000E+00  5.00000000E-01
           kptopt           0
P           mkmem           2
P          mkqmem           2
P          mk1mem           2
            natom           3
            nband          31
           nbdbuf           4
            ngfft          54      54      54
             nkpt           2
            nstep         100
             nsym          24
           ntypat           3
              occ      2.000000  2.000000  2.000000  2.000000  2.000000  2.000000
                       2.000000  2.000000  2.000000  2.000000  2.000000  2.000000
                       2.000000  2.000000  2.000000  2.000000  2.000000  2.000000
                       2.000000  2.000000  2.000000  2.000000  0.000000  0.000000
                       0.000000  0.000000  0.000000  0.000000  0.000000  0.000000
                       0.000000
        optdriver           1
            prtwf          -1
            rfdir           1       1       1
           rfelfd           2
            rprim      7.1107830971E+00  0.0000000000E+00  4.1054125352E+00
                       2.3702610324E+00  6.7041105966E+00  4.1054125352E+00
                       0.0000000000E+00  0.0000000000E+00  8.2108250705E+00
          spgroup         216
           strten      0.0000000000E+00  0.0000000000E+00  0.0000000000E+00
                       0.0000000000E+00  0.0000000000E+00  0.0000000000E+00
           symrel      1  0  0   0  1  0   0  0  1       0 -1  1   0 -1  0   1 -1  0
                      -1  0  0  -1  0  1  -1  1  0       0  1 -1   1  0 -1   0  0 -1
                      -1  0  0  -1  1  0  -1  0  1       0 -1  1   1 -1  0   0 -1  0
                       1  0  0   0  0  1   0  1  0       0  1 -1   0  0 -1   1  0 -1
                      -1  0  1  -1  1  0  -1  0  0       0 -1  0   1 -1  0   0 -1  1
                       1  0 -1   0  0 -1   0  1 -1       0  1  0   0  0  1   1  0  0
                       1  0 -1   0  1 -1   0  0 -1       0 -1  0   0 -1  1   1 -1  0
                      -1  0  1  -1  0  0  -1  1  0       0  1  0   1  0  0   0  0  1
                       0  0 -1   0  1 -1   1  0 -1       1 -1  0   0 -1  1   0 -1  0
                       0  0  1   1  0  0   0  1  0      -1  1  0  -1  0  0  -1  0  1
                       0  0  1   0  1  0   1  0  0       1 -1  0   0 -1  0   0 -1  1
                       0  0 -1   1  0 -1   0  1 -1      -1  1  0  -1  0  1  -1  0  0
           tolwfr      1.00000000E-20
            typat      1  2  3
           useylm           1
              wtk        0.50000    0.50000
           xangst      0.0000000000E+00  0.0000000000E+00  0.0000000000E+00
                       1.2542881167E+00  8.8691563290E-01  2.1724907455E+00
                       2.5085762335E+00  1.7738312658E+00  4.3449814910E+00
            xcart      0.0000000000E+00  0.0000000000E+00  0.0000000000E+00
                       2.3702610324E+00  1.6760276491E+00  4.1054125352E+00
                       4.7405220647E+00  3.3520552983E+00  8.2108250704E+00
             xred      0.0000000000E+00  0.0000000000E+00  0.0000000000E+00
                       2.5000000000E-01  2.5000000000E-01  2.5000000000E-01
                       5.0000000000E-01  5.0000000000E-01  5.0000000000E-01
            znucl       40.00000   27.00000   83.00000

- Timing analysis has been suppressed with timopt=0

 Suggested references for the acknowledgment of ABINIT usage.

 Calculation completed.
.Delivered  14 WARNINGs and   9 COMMENTs to log file.