.Version 9.5.1 of ABINIT

 ABINIT is a project of the Universite Catholique de Louvain,
 Corning Inc. and other collaborators, see ~abinit/doc/developers/contributors.txt .
 acknowledgments of the ABINIT effort.

.Starting date : Wed  5 May 2021.
- ( at 20h10 )

- input  file    -> /scratch/users/j/a/jabreu/flow_simple_7atoms/flow/w195/t1/run.abi
- output file    -> /scratch/users/j/a/jabreu/flow_simple_7atoms/flow/w195/t1/run.abo
- root for input  files -> /scratch/users/j/a/jabreu/flow_simple_7atoms/flow/w195/t1/indata/in
- root for output files -> /scratch/users/j/a/jabreu/flow_simple_7atoms/flow/w195/t1/outdata/out

 Symmetries : space group I-4 (# 82); Bravais tI (body-center tetrag.)
     intxc =       0      iscf =       7    lmnmax =      18     lnmax =       6
     mgfft =      90  mpssoang =       3    mqgrid =    3076     natom =       7
  nloc_mem =       1    nspden =       1   nspinor =       1    nsppol =       1
      nsym =       4    n1xccc =    2501    ntypat =       3    occopt =       1
   xclevel =       2
-    mband =          54        mffmem =           1         mkmem =           1
-   mkqmem =           1        mk1mem =           1           mpw =       20777
      nfft =      729000          nkpt =           1
  Rough estimation (10% accuracy) of disk space for files :

------------- Echo of variables that govern the present computation ------------
-
- outvars: echo of selected default values
-   iomode0 =  0 , fftalg0 =512 , wfoptalg0 =  0
-
- outvars: echo of global parameters not present in the input file
-  max_nthreads =    0
-
 -outvars: echo values of preprocessed input variables --------
            acell      1.0000000000E+00  1.0000000000E+00  1.0000000000E+00 Bohr
              amu      2.69815390E+01  1.12411000E+02  7.89600000E+01
             ecut      5.10000000E+01 Hartree
-          fftalg         512
           irdden           1
           irdwfk           1
           istwfk        1
              ixc     -116133
           kptopt           0
P           mkmem           1
P          mkqmem           1
P          mk1mem           1
            natom           7
            nband          54
           nbdbuf           4
            ngfft          90      90      90
             nkpt           1
            nstep        2000
             nsym           4
           ntypat           3
              occ      2.000000  2.000000  2.000000  2.000000  2.000000  2.000000
                       2.000000  2.000000  2.000000  2.000000  2.000000  2.000000
                       2.000000  2.000000  2.000000  2.000000  2.000000  2.000000
                       2.000000  2.000000  2.000000  2.000000  2.000000  2.000000
                       2.000000  2.000000  2.000000  2.000000  2.000000  2.000000
                       2.000000  2.000000  2.000000  2.000000  2.000000  2.000000
                       2.000000  2.000000  2.000000  2.000000  2.000000  2.000000
                       2.000000  2.000000  2.000000  0.000000  0.000000  0.000000
                       0.000000  0.000000  0.000000  0.000000  0.000000  0.000000
        optdriver           1
            prtwf          -1
            rfdir           1       1       1
           rfelfd           2
            rprim      9.8112256643E+00  0.0000000000E+00 -8.0911686815E+00
                      -2.1811912803E+00  9.5656967145E+00 -8.0911686815E+00
                       0.0000000000E+00  0.0000000000E+00  1.2717199364E+01
          spgroup          82
           symrel      1  0  0   0  1  0   0  0  1       0  1  0   1  0  0  -1 -1 -1
                       0  0  1  -1 -1 -1   0  1  0      -1 -1 -1   0  0  1   1  0  0
           tolwfr      1.00000000E-20
            typat      1  1  2  3  3  3  3
           useylm           1
           xangst      4.3229171764E-01  3.7964615142E+00 -9.1683602682E-01
                       2.0188201484E+00  2.5309743428E+00 -4.2816620571E+00
                       0.0000000000E+00  0.0000000000E+00  0.0000000000E+00
                       2.9599280513E+00  6.8579027695E-01 -3.0601323370E+00
                      -4.3356752276E-02  2.9706855773E+00  3.6041057587E+00
                       3.4752013400E+00  4.4437898395E+00 -4.3327881726E+00
                       1.6835079545E+00  2.0236316774E+00  1.2147064369E-01
            xcart      8.1691295585E-01  7.1742725359E+00 -1.7325689994E+00
                       3.8150171920E+00  4.7828483572E+00 -8.0911686815E+00
                       0.0000000000E+00  0.0000000000E+00  0.0000000000E+00
                       5.5934533899E+00  1.2959558080E+00 -5.7828120474E+00
                      -8.1932387812E-02  5.6137821681E+00  6.8107728378E+00
                       6.5671787893E+00  8.3975457888E+00 -8.1877830380E+00
                       3.1813689766E+00  3.8241096641E+00  2.2954624977E-01
             xred      2.5000000000E-01  7.5000000000E-01  5.0000000000E-01
                       5.0000000000E-01  5.0000000000E-01  0.0000000000E+00
                       0.0000000000E+00  0.0000000000E+00  0.0000000000E+00
                       6.0022675000E-01  1.3547950000E-01  1.3360750000E-02
                       1.2211875000E-01  5.8686600000E-01  9.8663925000E-01
                       8.6452050000E-01  8.7788125000E-01  4.6474725000E-01
                       4.1313400000E-01  3.9977325000E-01  5.3525275000E-01
            znucl       13.00000   48.00000   34.00000

 chkinp: Checking input parameters for consistency.

== DATASET  1 ==================================================================
-   mpi_nproc: 1, omp_nthreads: -1 (-1 if OMP is not activated)

--- !DatasetInfo
iteration_state: {dtset: 1, }
dimensions: {natom: 7, nkpt: 1, mband: 54, nsppol: 1, nspinor: 1, nspden: 1, mpw: 20777, }
cutoff_energies: {ecut:  51.0, pawecutdg:  -1.0, }
electrons: {nelect:   9.00000000E+01, charge:   0.00000000E+00, occopt:   1.00000000E+00, tsmear:   1.00000000E-02, }
meta: {optdriver: 1, rfelfd: 2, }
...

 Real(R)+Recip(G) space primitive vectors, cartesian coordinates (Bohr,Bohr^-1):
 R(1)=  9.8112257  0.0000000 -8.0911687  G(1)=  0.1019241  0.0232410  0.0000000
 R(2)= -2.1811913  9.5656967 -8.0911687  G(2)=  0.0000000  0.1045402  0.0000000
 R(3)=  0.0000000  0.0000000 12.7171994  G(3)=  0.0648480  0.0812993  0.0786337
 Unit cell volume ucvol=  1.1935245E+03 bohr^3
 Angles (23,13,12)=  1.29511884E+02  1.29511884E+02  7.41883136E+01 degrees

 getcut: wavevector=  0.0000  0.0000  0.0000  ngfft=  90  90  90
         ecut(hartree)=     51.000   => boxcut(ratio)=   2.20173

 getcut : COMMENT -
  Note that boxcut > 2.2 ; recall that boxcut=Gcut(box)/Gcut(sphere) = 2
  is sufficient for exact treatment of convolution.
  Such a large boxcut is a waste : you could raise ecut
  e.g. ecut=   61.807071 Hartrees makes boxcut=2

--- Pseudopotential description ------------------------------------------------
- pspini: atom type   1  psp file is /scratch/users/j/a/jabreu/pseudos/PBEsol/Al.psp8
- pspatm: opening atomic psp file    /scratch/users/j/a/jabreu/pseudos/PBEsol/Al.psp8
- Al    ONCVPSP-3.3.0  r_core=   1.76802   1.76802   1.70587
- 13.00000   3.00000    180112                znucl, zion, pspdat
    8 -116133    2    4       600   0.00000   pspcod,pspxc,lmax,lloc,mmax,r2well
    5.99000000000000    5.00000000000000    0.00000000000000   rchrg,fchrg,qchrg
     nproj     2     2     2
     extension_switch     1
  pspatm : epsatm=    0.68509324
         --- l  ekb(1:nproj) -->
             0    5.834965    0.726662
             1    6.225605    0.924840
             2   -2.432733   -0.548689
 pspatm: atomic psp has been read  and splines computed

- pspini: atom type   2  psp file is /scratch/users/j/a/jabreu/pseudos/PBEsol/Cd.psp8
- pspatm: opening atomic psp file    /scratch/users/j/a/jabreu/pseudos/PBEsol/Cd.psp8
- Cd    ONCVPSP-3.3.0  r_core=   1.25838   1.30423   1.35174
- 48.00000  20.00000    180112                znucl, zion, pspdat
    8 -116133    2    4       600   0.00000   pspcod,pspxc,lmax,lloc,mmax,r2well
    5.99000000000000    6.00000000000000    0.00000000000000   rchrg,fchrg,qchrg
     nproj     2     2     2
     extension_switch     1
  pspatm : epsatm=   23.26728021
         --- l  ekb(1:nproj) -->
             0   63.701523    3.700425
             1    8.703569    1.290373
             2    0.983656   -0.721725
 pspatm: atomic psp has been read  and splines computed

- pspini: atom type   3  psp file is /scratch/users/j/a/jabreu/pseudos/PBEsol/Se.psp8
- pspatm: opening atomic psp file    /scratch/users/j/a/jabreu/pseudos/PBEsol/Se.psp8
- Se    ONCVPSP-3.3.0  r_core=   1.81943   1.50330   1.90835
- 34.00000  16.00000    180112                znucl, zion, pspdat
    8 -116133    2    4       600   0.00000   pspcod,pspxc,lmax,lloc,mmax,r2well
    5.99000000000000    5.00000000000000    0.00000000000000   rchrg,fchrg,qchrg
     nproj     2     2     2
     extension_switch     1
  pspatm : epsatm=   29.17862020
         --- l  ekb(1:nproj) -->
             0    8.973804    1.019550
             1    6.849857    1.297308
             2   -9.203962   -3.731027
 pspatm: atomic psp has been read  and splines computed

   1.27216753E+04                                ecore*ucvol(ha*bohr**3)

-inwffil : will read wavefunctions from disk file /scratch/users/j/a/jabreu/flow_simple_7atoms/flow/w195/t1/indata/in_WFK

 ==>  initialize data related to q vector <==

 The list of irreducible perturbations for this q vector is:
    1)    idir= 1    ipert=   8
    2)    idir= 2    ipert=   8
    3)    idir= 3    ipert=   8

 Perturbation wavevector (in red.coord.)   0.000000  0.000000  0.000000
 Perturbation : derivative vs k along direction   1

 dfpt_looppert : COMMENT -
  In a d/dk calculation, iscf is set to -3 automatically.
 The set of symmetries contains only one element for this perturbation.
 symkpt : not enough symmetry to change the number of k points.

[...]

 Initialisation of the first-order wave-functions :
  ireadwf=   0

--- !BeginCycle
iteration_state: {dtset: 1, }
solver: {iscf: 7, nstep: 2000, nline: 4, wfoptalg: 0, }
tolerances: {tolwfr: 1.00E-20, }
...

     iter   2DEtotal(Ha)        deltaE(Ha) residm    vres2
-ETOT  1  -86.105912641897     -8.611E+01 8.563E-01 0.000E+00
 ETOT  2  -86.225524869588     -1.196E-01 2.467E-02 0.000E+00
 ETOT  3  -86.226608405765     -1.084E-03 4.042E-03 0.000E+00
 ETOT  4  -86.226635030458     -2.662E-05 1.772E-04 0.000E+00
 ETOT  5  -86.226635860448     -8.300E-07 4.040E-05 0.000E+00
 ETOT  6  -86.226635889449     -2.900E-08 1.890E-06 0.000E+00
 ETOT  7  -86.226635890571     -1.123E-09 5.354E-07 0.000E+00
 ETOT  8  -86.226635890618     -4.627E-11 2.673E-08 0.000E+00
 ETOT  9  -86.226635890620     -1.918E-12 7.961E-09 0.000E+00
 ETOT 10  -86.226635890620     -2.274E-13 4.343E-10 0.000E+00
 ETOT 11  -86.226635890620      1.563E-13 1.305E-10 0.000E+00
 ETOT 12  -86.226635890620     -4.263E-14 7.660E-12 0.000E+00
 ETOT 13  -86.226635890620      0.000E+00 2.345E-12 0.000E+00
 ETOT 14  -86.226635890620      1.421E-14 1.379E-13 0.000E+00
 ETOT 15  -86.226635890620     -5.684E-14 4.286E-14 0.000E+00
 ETOT 16  -86.226635890620      1.421E-14 2.505E-15 0.000E+00
[...]
 ETOT 23  -86.226635890620      0.000E+00 9.594E-21 0.000E+00

 At SCF step   23   max residual=  9.59E-21 < tolwfr=  1.00E-20 =>converged.

 ----iterations are completed or convergence reached----

 dfpt_looppert: DFPT cycle converged with prtwf=-1. Will skip output of the 1st-order WFK file.
 dfpt_looppert : ek2=    7.7660293473E+01
          f-sum rule ratio=    1.0954860596E+00
 prteigrs : about to open file /scratch/users/j/a/jabreu/flow_simple_7atoms/flow/w195/t1/tmpdata/tmp_1WF1_EIG
 Expectation of eigenvalue derivatives (hartree) for nkpt=   1  k points:
  (in case of degenerate eigenvalues, averaged derivative)
 kpt#   1, nband= 54, wtk=  1.00000, kpt=  0.0000  0.0000  0.0000 (reduced coord)
   0.00000    0.00000    0.00000    0.00000    0.00000    0.00000    0.00000    0.00000
  -0.00000    0.00000   -0.00000   -0.00000    0.00000   -0.00000   -0.00000   -0.00000
  -0.00000    0.00000    0.00000    0.00000   -0.00000    0.00000    0.00000    0.00000
   0.00000    0.00000    0.00000    0.00000    0.00000    0.00000    0.00000    0.00000
  -0.00000    0.00000   -0.00000    0.00000   -0.00000   -0.00000   -0.00000    0.00000
  -0.00000   -0.00000    0.00000    0.00000    0.00000   -0.00000    0.00000    0.00000
   0.00000    0.00000   -0.00000   -0.00000   -0.00000   -0.00000

 Eight components of 2nd-order total energy (hartree) are
 1,2,3: 0th-order hamiltonian combined with 1st-order wavefunctions
     kin0=   9.01143185E+01 eigvalue=   1.36199420E+01  local=  -3.88346578E+01
 4,5,6: 1st-order hamiltonian combined with 1st and 0th-order wfs
     kin1=  -8.50757689E+01  Hartree=   0.00000000E+00     xc=   0.00000000E+00
 7,8,9: eventually, occupation + non-local contributions
    edocc=   1.29585186E+01     enl0=   8.36851461E+00   enl1=  -8.73775029E+01
 1-9 gives the relaxation energy (to be shifted if some occ is /=2.0)
   erelax=  -8.62266359E+01
  No Ewald or frozen-wf contrib.: the relaxation energy is the total one
 2DEtotal=   -0.8622663589E+02 Ha. Also 2DEtotal=   -0.234634608818E+04 eV
    (  non-var. 2DEtotal :   -8.6226635890E+01 Ha)

 Perturbation wavevector (in red.coord.)   0.000000  0.000000  0.000000
 Perturbation : derivative vs k along direction   2
 The set of symmetries contains only one element for this perturbation.
 symkpt : not enough symmetry to change the number of k points.

[...]

 Perturbation wavevector (in red.coord.)   0.000000  0.000000  0.000000
 Perturbation : derivative vs k along direction   3
 The set of symmetries contains only one element for this perturbation.
 symkpt : not enough symmetry to change the number of k points.

-inwffil : will read wavefunctions from disk file /scratch/users/j/a/jabreu/flow_simple_7atoms/flow/w195/t1/indata/in_WFK

 Initialisation of the first-order wave-functions :
  ireadwf=   0

--- !BeginCycle
iteration_state: {dtset: 1, }
solver: {iscf: 7, nstep: 2000, nline: 4, wfoptalg: 0, }
tolerances: {tolwfr: 1.00E-20, }
...

     iter   2DEtotal(Ha)        deltaE(Ha) residm    vres2
-ETOT  1  -135.08131822296     -1.351E+02 4.860E-01 0.000E+00
 ETOT  2  -135.23824762395     -1.569E-01 2.065E-02 0.000E+00
 ETOT  3  -135.23929423505     -1.047E-03 2.926E-03 0.000E+00
 ETOT  4  -135.23931798546     -2.375E-05 2.711E-04 0.000E+00
 ETOT  5  -135.23931874324     -7.578E-07 3.293E-05 0.000E+00
 ETOT  6  -135.23931877136     -2.812E-08 2.655E-06 0.000E+00
 ETOT  7  -135.23931877253     -1.170E-09 4.515E-07 0.000E+00
 ETOT  8  -135.23931877258     -5.272E-11 3.888E-08 0.000E+00
 ETOT  9  -135.23931877258     -2.530E-12 7.047E-09 0.000E+00
 ETOT 10  -135.23931877258     -2.842E-14 6.363E-10 0.000E+00
 ETOT 11  -135.23931877258     -1.137E-13 1.173E-10 0.000E+00
 ETOT 12  -135.23931877258      2.842E-14 1.110E-11 0.000E+00
 ETOT 13  -135.23931877258      5.684E-14 2.058E-12 0.000E+00
 ETOT 14  -135.23931877258      0.000E+00 2.008E-13 0.000E+00
 ETOT 15  -135.23931877258      0.000E+00 3.753E-14 0.000E+00
 ETOT 16  -135.23931877258     -2.842E-14 3.701E-15 0.000E+00
 ETOT 17  -135.23931877258      2.842E-14 6.974E-16 0.000E+00
 ETOT 18  -135.23931877258     -2.842E-14 6.886E-17 0.000E+00
 ETOT 19  -135.23931877258      2.842E-14 1.308E-17 0.000E+00
 ETOT 20  -135.23931877258      5.684E-14 1.288E-18 0.000E+00
 ETOT 21  -135.23931877258     -5.684E-14 2.465E-19 0.000E+00
 ETOT 22  -135.23931877258      2.842E-14 2.418E-20 0.000E+00
 ETOT 23  -135.23931877258     -2.842E-14 9.968E-21 0.000E+00

 At SCF step   23   max residual=  9.97E-21 < tolwfr=  1.00E-20 =>converged.

 ----iterations are completed or convergence reached----

 dfpt_looppert: DFPT cycle converged with prtwf=-1. Will skip output of the 1st-order WFK file.
 dfpt_looppert : ek2=    1.2079035376E+02
          f-sum rule ratio=    1.1138618719E+00
 prteigrs : about to open file /scratch/users/j/a/jabreu/flow_simple_7atoms/flow/w195/t1/tmpdata/tmp_1WF1_EIG
 Expectation of eigenvalue derivatives (hartree) for nkpt=   1  k points:
  (in case of degenerate eigenvalues, averaged derivative)
 kpt#   1, nband= 54, wtk=  1.00000, kpt=  0.0000  0.0000  0.0000 (reduced coord)
   0.00000    0.00000    0.00000    0.00000    0.00000    0.00000    0.00000    0.00000
   0.00000   -0.00000    0.00000    0.00000   -0.00000   -0.00000   -0.00000   -0.00000
  -0.00000    0.00000    0.00000    0.00000   -0.00000   -0.00000    0.00000    0.00000
   0.00000   -0.00000   -0.00000    0.00000    0.00000    0.00000    0.00000    0.00000
  -0.00000    0.00000   -0.00000   -0.00000   -0.00000   -0.00000   -0.00000   -0.00000
  -0.00000   -0.00000   -0.00000    0.00000    0.00000   -0.00000   -0.00000    0.00000
   0.00000    0.00000   -0.00000   -0.00000   -0.00000   -0.00000

 Eight components of 2nd-order total energy (hartree) are
 1,2,3: 0th-order hamiltonian combined with 1st-order wavefunctions
     kin0=   1.39938086E+02 eigvalue=   2.11659263E+01  local=  -6.02436664E+01
 4,5,6: 1st-order hamiltonian combined with 1st and 0th-order wfs
     kin1=  -1.34543770E+02  Hartree=   0.00000000E+00     xc=   0.00000000E+00
 7,8,9: eventually, occupation + non-local contributions
    edocc=   2.14279107E+01     enl0=   1.29510622E+01   enl1=  -1.35934868E+02
 1-9 gives the relaxation energy (to be shifted if some occ is /=2.0)
   erelax=  -1.35239319E+02
  No Ewald or frozen-wf contrib.: the relaxation energy is the total one
 2DEtotal=   -0.1352393188E+03 Ha. Also 2DEtotal=   -0.368004901609E+04 eV
    (  non-var. 2DEtotal :   -1.3523931877E+02 Ha)

 CALCULATION OF EFFECTIVE MASSES
 NOTE : Additional infos (eff. mass eigenvalues, eigenvectors and, if degenerate, average mass) are available in stdout.

 COMMENTS:
 - At k-point ( 0.000, 0.000, 0.000), bands    44 through    45
   are DEGENERATE (effective mass tensor is therefore not defined).
   See Section IIIB Eqs. (67)-(70) and Appendix E of PRB 93 205147 (2016).
 - Angular average effective mass for Frohlich model is to be averaged over degenerate bands. See later.
 - Associated theta integrals calculated with ntheta=   1000 points.

 K-point ( 0.000, 0.000, 0.000) | band =    44
 Transport equivalent effective mass tensor:
             -0.2518047141             -0.1083987482              0.1833787127
             -0.1083987482             -0.3012393589              0.2299000332
              0.1833787127              0.2299000332             -0.5542640003
 Transport equivalent effective mass tensor eigenvalues:
             -0.7766261792             -0.1653409471             -0.1653409470
 Angular average effective mass 1/(<1/m>)=  -0.2222875681
 Angular average effective mass for Frohlich model (<m**0.5>)**2=  -0.2481257485
 Effective masses along directions: (cart. coord. / red. coord. -> eff. mass)
    1:   1.000000  0.000000  0.000000 /   0.976168 -0.217018  0.000000 ->  -0.1913075321
    2:   0.000000  1.000000  0.000000 /   0.000000  1.000000  0.000000 ->  -0.2102276024
    3:   0.000000  0.000000  1.000000 /  -0.472965 -0.472965  0.743377 ->  -0.3156918850
    4:   0.577350  0.577350  0.577350 /   0.133831 -0.054983  0.989478 ->  -0.1561219307
    5:   0.000000  0.707107  0.707107 /  -0.534250  0.097361  0.839701 ->  -0.1740965359
    6:   0.707107  0.000000  0.707107 /   0.104639 -0.624916  0.773647 ->  -0.1841715734
    7:   0.707107  0.707107  0.000000 /   0.798979  0.601359  0.000000 ->  -0.2193373004

 K-point ( 0.000, 0.000, 0.000) | band =    45
 Transport equivalent effective mass tensor:
             -5.8268272806              0.3585405592             -0.6065448760
              0.3585405592             -5.6633168610             -0.7604191586
             -0.6065448760             -0.7604191586             -4.8264106002
 Transport equivalent effective mass tensor eigenvalues:
             -6.1128155272             -6.1128155233             -4.0909236912
 Angular average effective mass 1/(<1/m>)=  -1.2959047834
 Angular average effective mass for Frohlich model (<m**0.5>)**2=  -1.5154060738
 Effective masses along directions: (cart. coord. / red. coord. -> eff. mass)
    1:   1.000000  0.000000  0.000000 /   0.976168 -0.217018  0.000000 ->  -1.2353870396
    2:   0.000000  1.000000  0.000000 /   0.000000  1.000000  0.000000 ->  -1.0449955440
    3:   0.000000  0.000000  1.000000 /  -0.472965 -0.472965  0.743377 ->  -1.1197820570
    4:   0.577350  0.577350  0.577350 /   0.133831 -0.054983  0.989478 ->  -5.1827820373
    5:   0.000000  0.707107  0.707107 /  -0.534250  0.097361  0.839701 ->  -1.5499421228
    6:   0.707107  0.000000  0.707107 /   0.104639 -0.624916  0.773647 ->  -1.2240508267
    7:   0.707107  0.707107  0.000000 /   0.798979  0.601359  0.000000 ->  -1.6452488288

 Angular average effective mass for Frohlich model, averaged over degenerate bands.
 Value of     (<<m**0.5>>)**2 =     7.474817E-01
 Absolute Value of <<m**0.5>> =     8.645703E-01

 K-point ( 0.000, 0.000, 0.000) | band =    46
 Effective mass tensor:
              0.1683091228              0.0200519901             -0.0339220528
              0.0200519901              0.1774537209             -0.0425277336
             -0.0339220528             -0.0425277336              0.2242591256
 Effective mass tensor eigenvalues:
              0.1523147442              0.1523147443              0.2653924807
 Angular average effective mass 1/(<1/m>)=   0.1775283498
 Angular average effective mass for Frohlich model (<m**0.5>)**2=   0.1808178537
 Effective masses along directions: (cart. coord. / red. coord. -> eff. mass)
    1:   1.000000  0.000000  0.000000 /   0.976168 -0.217018  0.000000 ->   0.1620829809
    2:   0.000000  1.000000  0.000000 /   0.000000  1.000000  0.000000 ->   0.1682522300
    3:   0.000000  0.000000  1.000000 /  -0.472965 -0.472965  0.743377 ->   0.2089614111
    4:   0.577350  0.577350  0.577350 /   0.133831 -0.054983  0.989478 ->   0.1523687396
    5:   0.000000  0.707107  0.707107 /  -0.534250  0.097361  0.839701 ->   0.1558463108
    6:   0.707107  0.000000  0.707107 /   0.104639 -0.624916  0.773647 ->   0.1583080284
    7:   0.707107  0.707107  0.000000 /   0.798979  0.601359  0.000000 ->   0.1798394006

 END OF EFFECTIVE MASSES SECTION

 ---- first-order wavefunction calculations are completed ----

 Total localisation tensor (bohr^2) in cartesian coordinates
  WARNING : still subject to testing - especially symmetries.
      direction              matrix element
   alpha     beta       real part   imaginary part
     1        1       1.7013384529    0.0000000000
     1        2      -0.3514013379    0.0000000000
     1        3      -1.0397544817    0.0000000000
     2        1      -0.3514013379    0.0000000000
     2        2       1.5410838353    0.0000000000
     2        3      -1.3035296472    0.0000000000
     3        1      -1.0397544817    0.0000000000
     3        2      -1.3035296472    0.0000000000
     3        3       6.6794628948    0.0000000000

 respfn : d/dk was computed, but no 2DTE, so no DDB output.

== END DATASET(S) ==============================================================

 -outvars: echo values of variables after computation  --------
            acell      1.0000000000E+00  1.0000000000E+00  1.0000000000E+00 Bohr
              amu      2.69815390E+01  1.12411000E+02  7.89600000E+01
             ecut      5.10000000E+01 Hartree
           etotal     -1.3523931877E+02
            fcart      0.0000000000E+00  0.0000000000E+00  0.0000000000E+00
                       0.0000000000E+00  0.0000000000E+00  0.0000000000E+00
                       0.0000000000E+00  0.0000000000E+00  0.0000000000E+00
                       0.0000000000E+00  0.0000000000E+00  0.0000000000E+00
                       0.0000000000E+00  0.0000000000E+00  0.0000000000E+00
                       0.0000000000E+00  0.0000000000E+00  0.0000000000E+00
                       0.0000000000E+00  0.0000000000E+00  0.0000000000E+00
-          fftalg         512
           irdden           1
           irdwfk           1
           istwfk        1
              ixc     -116133
           kptopt           0
P           mkmem           1
P          mkqmem           1
P          mk1mem           1
            natom           7
            nband          54
           nbdbuf           4
            ngfft          90      90      90
             nkpt           1
            nstep        2000
             nsym           4
           ntypat           3
              occ      2.000000  2.000000  2.000000  2.000000  2.000000  2.000000
                       2.000000  2.000000  2.000000  2.000000  2.000000  2.000000
                       2.000000  2.000000  2.000000  2.000000  2.000000  2.000000
                       2.000000  2.000000  2.000000  2.000000  2.000000  2.000000
                       2.000000  2.000000  2.000000  2.000000  2.000000  2.000000
                       2.000000  2.000000  2.000000  2.000000  2.000000  2.000000
                       2.000000  2.000000  2.000000  2.000000  2.000000  2.000000
                       2.000000  2.000000  2.000000  0.000000  0.000000  0.000000
                       0.000000  0.000000  0.000000  0.000000  0.000000  0.000000
        optdriver           1
            prtwf          -1
            rfdir           1       1       1
           rfelfd           2
            rprim      9.8112256643E+00  0.0000000000E+00 -8.0911686815E+00
                      -2.1811912803E+00  9.5656967145E+00 -8.0911686815E+00
                       0.0000000000E+00  0.0000000000E+00  1.2717199364E+01
          spgroup          82
           strten      0.0000000000E+00  0.0000000000E+00  0.0000000000E+00
                       0.0000000000E+00  0.0000000000E+00  0.0000000000E+00
           symrel      1  0  0   0  1  0   0  0  1       0  1  0   1  0  0  -1 -1 -1
                       0  0  1  -1 -1 -1   0  1  0      -1 -1 -1   0  0  1   1  0  0
           tolwfr      1.00000000E-20
            typat      1  1  2  3  3  3  3
           useylm           1
           xangst      4.3229171764E-01  3.7964615142E+00 -9.1683602682E-01
                       2.0188201484E+00  2.5309743428E+00 -4.2816620571E+00
                       0.0000000000E+00  0.0000000000E+00  0.0000000000E+00
                       2.9599280513E+00  6.8579027695E-01 -3.0601323370E+00
                      -4.3356752276E-02  2.9706855773E+00  3.6041057587E+00
                       3.4752013400E+00  4.4437898395E+00 -4.3327881726E+00
                       1.6835079545E+00  2.0236316774E+00  1.2147064369E-01
            xcart      8.1691295585E-01  7.1742725359E+00 -1.7325689994E+00
                       3.8150171920E+00  4.7828483572E+00 -8.0911686815E+00
                       0.0000000000E+00  0.0000000000E+00  0.0000000000E+00
                       5.5934533899E+00  1.2959558080E+00 -5.7828120474E+00
                      -8.1932387812E-02  5.6137821681E+00  6.8107728378E+00
                       6.5671787893E+00  8.3975457888E+00 -8.1877830380E+00
                       3.1813689766E+00  3.8241096641E+00  2.2954624977E-01
             xred      2.5000000000E-01  7.5000000000E-01  5.0000000000E-01
                       5.0000000000E-01  5.0000000000E-01  0.0000000000E+00
                       0.0000000000E+00  0.0000000000E+00  0.0000000000E+00
                       6.0022675000E-01  1.3547950000E-01  1.3360750000E-02
                       1.2211875000E-01  5.8686600000E-01  9.8663925000E-01
                       8.6452050000E-01  8.7788125000E-01  4.6474725000E-01
                       4.1313400000E-01  3.9977325000E-01  5.3525275000E-01
            znucl       13.00000   48.00000   34.00000

- Timing analysis has been suppressed with timopt=0

 Suggested references for the acknowledgment of ABINIT usage.

 Calculation completed.
.Delivered   6 WARNINGs and  11 COMMENTs to log file.