.Version 9.5.1 of ABINIT

 ABINIT is a project of the Universite Catholique de Louvain,
 Corning Inc. and other collaborators, see ~abinit/doc/developers/contributors.txt .
 acknowledgments of the ABINIT effort.

.Starting date : Wed 19 May 2021.
- ( at 15h35 )

- input  file    -> /scratch/users/j/a/jabreu/flow_simple_9atoms/flow/w202/t1/run.abi
- output file    -> /scratch/users/j/a/jabreu/flow_simple_9atoms/flow/w202/t1/run.abo
- root for input  files -> /scratch/users/j/a/jabreu/flow_simple_9atoms/flow/w202/t1/indata/in
- root for output files -> /scratch/users/j/a/jabreu/flow_simple_9atoms/flow/w202/t1/outdata/out

 Symmetries : space group P-6 2 m (#189); Bravais hP (primitive hexag.)
     intxc =       0      iscf =       7    lmnmax =      18     lnmax =       6
     mgfft =     100  mpssoang =       3    mqgrid =    4187     natom =       9
  nloc_mem =       1    nspden =       1   nspinor =       1    nsppol =       1
      nsym =      12    n1xccc =    2501    ntypat =       3    occopt =       1
   xclevel =       2
-    mband =          60        mffmem =           1         mkmem =           1
-   mkqmem =           1        mk1mem =           1           mpw =       30473
      nfft =      600000          nkpt =           1
  Rough estimation (10% accuracy) of disk space for files :

------------- Echo of variables that govern the present computation ------------
-
- outvars: echo of selected default values
-   iomode0 =  0 , fftalg0 =512 , wfoptalg0 =  0
-
- outvars: echo of global parameters not present in the input file
-  max_nthreads =    0
-
 -outvars: echo values of preprocessed input variables --------
            acell      1.0000000000E+00  1.0000000000E+00  1.0000000000E+00 Bohr
              amu      1.37327000E+02  2.29897680E+01  2.08980370E+02
             ecut      4.40000000E+01 Hartree
-          fftalg         512
           irdden           1
           irdwfk           1
           istwfk        1
              ixc     -116133
           kptopt           0
P           mkmem           1
P          mkqmem           1
P          mk1mem           1
            natom           9
            nband          60
           nbdbuf           4
            ngfft         100     100      60
             nkpt           1
            nstep        2000
             nsym          12
           ntypat           3
              occ      2.000000  2.000000  2.000000  2.000000  2.000000  2.000000
                       2.000000  2.000000  2.000000  2.000000  2.000000  2.000000
                       2.000000  2.000000  2.000000  2.000000  2.000000  2.000000
                       2.000000  2.000000  2.000000  2.000000  2.000000  2.000000
                       2.000000  2.000000  2.000000  2.000000  2.000000  2.000000
                       2.000000  2.000000  2.000000  2.000000  2.000000  2.000000
                       2.000000  2.000000  2.000000  2.000000  2.000000  2.000000
                       2.000000  2.000000  2.000000  2.000000  2.000000  2.000000
                       2.000000  2.000000  2.000000  0.000000  0.000000  0.000000
                       0.000000  0.000000  0.000000  0.000000  0.000000  0.000000
        optdriver           1
            prtwf          -1
            rfdir           1       1       1
           rfelfd           2
            rprim      1.6188559812E+01  0.0000000000E+00  0.0000000000E+00
                      -8.0942799061E+00  1.4019704048E+01  0.0000000000E+00
                       0.0000000000E+00  0.0000000000E+00  9.6306800539E+00
          spgroup         189
           symrel      1  0  0   0  1  0   0  0  1       0  1  0   1  0  0   0  0  1
                      -1 -1  0   1  0  0   0  0 -1       1  0  0  -1 -1  0   0  0 -1
                       0  1  0  -1 -1  0   0  0  1      -1 -1  0   0  1  0   0  0  1
                       1  0  0   0  1  0   0  0 -1       0  1  0   1  0  0   0  0 -1
                      -1 -1  0   1  0  0   0  0  1       1  0  0  -1 -1  0   0  0  1
                       0  1  0  -1 -1  0   0  0 -1      -1 -1  0   0  1  0   0  0 -1
           tolwfr      1.00000000E-20
            typat      1  1  1  2  2  2  3  3  3
           useylm           1
           xangst     -2.4914506074E+00  4.3153190366E+00  0.0000000000E+00
                       4.9829012148E+00  0.0000000000E+00  0.0000000000E+00
                       1.7918578389E+00  3.1035888169E+00  0.0000000000E+00
                      -1.0307995941E+00  1.7853972695E+00  2.5481681939E+00
                       3.2525088522E+00  5.6335105840E+00  2.5481681939E+00
                       2.0615991883E+00  0.0000000000E+00  2.5481681939E+00
                       0.0000000000E+00  0.0000000000E+00  0.0000000000E+00
                       4.2833084463E+00  2.4729692845E+00  2.5481681939E+00
                       1.7638771742E-11  4.9459385690E+00  2.5481681939E+00
            xcart     -4.7081593216E+00  8.1547711551E+00  0.0000000000E+00
                       9.4163186432E+00  0.0000000000E+00  0.0000000000E+00
                       3.3861205846E+00  5.8649328930E+00  0.0000000000E+00
                      -1.9479289308E+00  3.3739118777E+00  4.8153400270E+00
                       6.1463509754E+00  1.0645792170E+01  4.8153400270E+00
                       3.8958578616E+00  0.0000000000E+00  4.8153400270E+00
                       0.0000000000E+00  0.0000000000E+00  0.0000000000E+00
                       8.0942799062E+00  4.6732346827E+00  4.8153400270E+00
                       3.3332447913E-11  9.3464693654E+00  4.8153400270E+00
             xred      0.0000000000E+00  5.8166500000E-01  0.0000000000E+00
                       5.8166500000E-01  0.0000000000E+00  0.0000000000E+00
                       4.1833500000E-01  4.1833500000E-01  0.0000000000E+00
                       0.0000000000E+00  2.4065500000E-01  5.0000000000E-01
                       7.5934500000E-01  7.5934500000E-01  5.0000000000E-01
                       2.4065500000E-01  0.0000000000E+00  5.0000000000E-01
                       0.0000000000E+00  0.0000000000E+00  0.0000000000E+00
                       6.6666666667E-01  3.3333333333E-01  5.0000000000E-01
                       3.3333333333E-01  6.6666666667E-01  5.0000000000E-01
            znucl       56.00000   11.00000   83.00000

 chkinp: Checking input parameters for consistency.

== DATASET  1 ==================================================================
-   mpi_nproc: 1, omp_nthreads: -1 (-1 if OMP is not activated)

--- !DatasetInfo
iteration_state: {dtset: 1, }
dimensions: {natom: 9, nkpt: 1, mband: 60, nsppol: 1, nspinor: 1, nspden: 1, mpw: 30473, }
cutoff_energies: {ecut:  44.0, pawecutdg:  -1.0, }
electrons: {nelect:   1.02000000E+02, charge:   0.00000000E+00, occopt:   1.00000000E+00, tsmear:   1.00000000E-02, }
meta: {optdriver: 1, rfelfd: 2, }
...

 Real(R)+Recip(G) space primitive vectors, cartesian coordinates (Bohr,Bohr^-1):
 R(1)= 16.1885598  0.0000000  0.0000000  G(1)=  0.0617720  0.0356641  0.0000000
 R(2)= -8.0942799 14.0197040  0.0000000  G(2)=  0.0000000  0.0713282  0.0000000
 R(3)=  0.0000000  0.0000000  9.6306801  G(3)=  0.0000000  0.0000000  0.1038348
 Unit cell volume ucvol=  2.1857678E+03 bohr^3
 Angles (23,13,12)=  9.00000000E+01  9.00000000E+01  1.20000000E+02 degrees

 getcut: wavevector=  0.0000  0.0000  0.0000  ngfft= 100 100  60
         ecut(hartree)=     44.000   => boxcut(ratio)=   2.06871

--- Pseudopotential description ------------------------------------------------
- pspini: atom type   1  psp file is /scratch/users/j/a/jabreu/pseudos/PBEsol/Ba.psp8
- pspatm: opening atomic psp file    /scratch/users/j/a/jabreu/pseudos/PBEsol/Ba.psp8
- Ba    ONCVPSP-3.3.0  r_core=   2.15444   1.91218   2.15444
- 56.00000  10.00000    180112                znucl, zion, pspdat
    8 -116133    2    4       600   0.00000   pspcod,pspxc,lmax,lloc,mmax,r2well
    5.99000000000000    5.00000000000000    0.00000000000000   rchrg,fchrg,qchrg
     nproj     2     2     2
     extension_switch     1
  pspatm : epsatm=   26.37418029
         --- l  ekb(1:nproj) -->
             0    6.652372    0.677024
             1    5.027722    0.408462
             2    2.543237    0.416854
 pspatm: atomic psp has been read  and splines computed

- pspini: atom type   2  psp file is /scratch/users/j/a/jabreu/pseudos/PBEsol/Na.psp8
- pspatm: opening atomic psp file    /scratch/users/j/a/jabreu/pseudos/PBEsol/Na.psp8
- Na    ONCVPSP-3.3.0  r_core=   1.20708   1.55069
- 11.00000   9.00000    180112                znucl, zion, pspdat
    8 -116133    1    4       400   0.00000   pspcod,pspxc,lmax,lloc,mmax,r2well
    3.99000000000000    0.00000000000000    0.00000000000000   rchrg,fchrg,qchrg
     nproj     2     2
     extension_switch     1
  pspatm : epsatm=    9.32878306
         --- l  ekb(1:nproj) -->
             0    2.657905   -0.678300
             1   -6.761319   -2.404728
 pspatm: atomic psp has been read  and splines computed

- pspini: atom type   3  psp file is /scratch/users/j/a/jabreu/pseudos/PBEsol/Bi.psp8
- pspatm: opening atomic psp file    /scratch/users/j/a/jabreu/pseudos/PBEsol/Bi.psp8
- Bi    ONCVPSP-3.3.0  r_core=   2.42776   2.51622   2.10397
- 83.00000  15.00000    180112                znucl, zion, pspdat
    8 -116133    2    4       600   0.00000   pspcod,pspxc,lmax,lloc,mmax,r2well
    5.99000000000000    6.00000000000000    0.00000000000000   rchrg,fchrg,qchrg
     nproj     2     2     2
     extension_switch     1
  pspatm : epsatm=   42.90078186
         --- l  ekb(1:nproj) -->
             0    6.017688    0.961606
             1    4.379371    0.528498
             2   -3.458170   -0.753782
 pspatm: atomic psp has been read  and splines computed

   2.40527460E+04                                ecore*ucvol(ha*bohr**3)

-inwffil : will read wavefunctions from disk file /scratch/users/j/a/jabreu/flow_simple_9atoms/flow/w202/t1/indata/in_WFK

 ==>  initialize data related to q vector <==

 The list of irreducible perturbations for this q vector is:
    1)    idir= 1    ipert=  10
    2)    idir= 2    ipert=  10
    3)    idir= 3    ipert=  10

 Perturbation wavevector (in red.coord.)   0.000000  0.000000  0.000000
 Perturbation : derivative vs k along direction   1

 dfpt_looppert : COMMENT -
  In a d/dk calculation, iscf is set to -3 automatically.
 The set of symmetries contains only one element for this perturbation.
 symkpt : not enough symmetry to change the number of k points.

[...]

 Initialisation of the first-order wave-functions :
  ireadwf=   0

--- !BeginCycle
iteration_state: {dtset: 1, }
solver: {iscf: 7, nstep: 2000, nline: 4, wfoptalg: 0, }
tolerances: {tolwfr: 1.00E-20, }
...

     iter   2DEtotal(Ha)        deltaE(Ha) residm    vres2
-ETOT  1  -39.181410468207     -3.918E+01 6.924E-03 0.000E+00
 ETOT  2  -39.207051510980     -2.564E-02 1.972E-04 0.000E+00
 ETOT  3  -39.207099686639     -4.818E-05 2.968E-06 0.000E+00
 ETOT  4  -39.207100083317     -3.967E-07 2.964E-07 0.000E+00
 ETOT  5  -39.207100088182     -4.865E-09 6.383E-09 0.000E+00
 ETOT  6  -39.207100088247     -6.516E-11 6.347E-10 0.000E+00
 ETOT  7  -39.207100088248     -9.379E-13 1.604E-11 0.000E+00
 ETOT  8  -39.207100088248     -7.105E-15 1.645E-12 0.000E+00
 ETOT  9  -39.207100088248     -1.137E-13 5.241E-14 0.000E+00
 ETOT 10  -39.207100088248      7.105E-14 5.287E-15 0.000E+00
 ETOT 11  -39.207100088248      3.553E-14 1.713E-16 0.000E+00
 ETOT 12  -39.207100088248     -7.105E-15 2.116E-17 0.000E+00
 ETOT 13  -39.207100088248      0.000E+00 1.546E-18 0.000E+00
 ETOT 14  -39.207100088248      0.000E+00 1.899E-19 0.000E+00
 ETOT 15  -39.207100088248      1.421E-14 1.401E-20 0.000E+00
 ETOT 16  -39.207100088248     -1.421E-14 9.833E-21 0.000E+00

 At SCF step   16   max residual=  9.83E-21 < tolwfr=  1.00E-20 =>converged.

 ----iterations are completed or convergence reached----

 dfpt_looppert: DFPT cycle converged with prtwf=-1. Will skip output of the 1st-order WFK file.
 dfpt_looppert : ek2=    4.0974363163E+01
          f-sum rule ratio=    1.2541775493E+00
 prteigrs : about to open file /scratch/users/j/a/jabreu/flow_simple_9atoms/flow/w202/t1/tmpdata/tmp_1WF1_EIG
 Expectation of eigenvalue derivatives (hartree) for nkpt=   1  k points:
  (in case of degenerate eigenvalues, averaged derivative)
 kpt#   1, nband= 60, wtk=  1.00000, kpt=  0.0000  0.0000  0.0000 (reduced coord)
   0.00000   -0.00000   -0.00000   -0.00000   -0.00000   -0.00000    0.00000    0.00000
   0.00000    0.00000    0.00000   -0.00000   -0.00000   -0.00000   -0.00000    0.00000
   0.00000   -0.00000    0.00000    0.00000   -0.00000   -0.00000   -0.00000   -0.00000
   0.00000    0.00000    0.00000    0.00000   -0.00000   -0.00000   -0.00000    0.00000
   0.00000   -0.00000   -0.00000    0.00000    0.00000   -0.00000   -0.00000    0.00000
   0.00000   -0.00000    0.00000    0.00000   -0.00000   -0.00000    0.00000   -0.00000
  -0.00000   -0.00000    0.00000   -0.00000    0.00000    0.00000    0.00000   -0.00000
  -0.00000   -0.00000   -0.00000   -0.00000

 Eight components of 2nd-order total energy (hartree) are
 1,2,3: 0th-order hamiltonian combined with 1st-order wavefunctions
     kin0=   4.36467750E+01 eigvalue=   4.85116088E+00  local=  -2.53043578E+01
 4,5,6: 1st-order hamiltonian combined with 1st and 0th-order wfs
     kin1=  -5.13891264E+01  Hartree=   0.00000000E+00     xc=   0.00000000E+00
 7,8,9: eventually, occupation + non-local contributions
    edocc=   1.03833738E+01     enl0=   5.63014816E+00   enl1=  -2.70250738E+01
 1-9 gives the relaxation energy (to be shifted if some occ is /=2.0)
   erelax=  -3.92071001E+01
  No Ewald or frozen-wf contrib.: the relaxation energy is the total one
 2DEtotal=   -0.3920710009E+02 Ha. Also 2DEtotal=   -0.106687945054E+04 eV
    (  non-var. 2DEtotal :   -3.9207100088E+01 Ha)

 Perturbation wavevector (in red.coord.)   0.000000  0.000000  0.000000
 Perturbation : derivative vs k along direction   2
 The set of symmetries contains only one element for this perturbation.
 symkpt : not enough symmetry to change the number of k points.

[...]

 Perturbation wavevector (in red.coord.)   0.000000  0.000000  0.000000
 Perturbation : derivative vs k along direction   3
 The set of symmetries contains only one element for this perturbation.
 symkpt : not enough symmetry to change the number of k points.

-inwffil : will read wavefunctions from disk file /scratch/users/j/a/jabreu/flow_simple_9atoms/flow/w202/t1/indata/in_WFK

 Initialisation of the first-order wave-functions :
  ireadwf=   0

--- !BeginCycle
iteration_state: {dtset: 1, }
solver: {iscf: 7, nstep: 2000, nline: 4, wfoptalg: 0, }
tolerances: {tolwfr: 1.00E-20, }
...

     iter   2DEtotal(Ha)        deltaE(Ha) residm    vres2
-ETOT  1  -95.257871555165     -9.526E+01 1.949E-02 0.000E+00
 ETOT  2  -95.308858737584     -5.099E-02 1.418E-04 0.000E+00
 ETOT  3  -95.308967463876     -1.087E-04 1.948E-06 0.000E+00
 ETOT  4  -95.308968125535     -6.617E-07 9.296E-08 0.000E+00
 ETOT  5  -95.308968130359     -4.824E-09 8.658E-10 0.000E+00
 ETOT  6  -95.308968130397     -3.766E-11 5.750E-11 0.000E+00
 ETOT  7  -95.308968130397     -5.969E-13 9.017E-13 0.000E+00
 ETOT  8  -95.308968130397      4.263E-14 6.293E-14 0.000E+00
 ETOT  9  -95.308968130397     -7.105E-14 1.297E-15 0.000E+00
 ETOT 10  -95.308968130397     -8.527E-14 1.609E-16 0.000E+00
 ETOT 11  -95.308968130397      8.527E-14 1.182E-17 0.000E+00
 ETOT 12  -95.308968130397      0.000E+00 1.769E-18 0.000E+00
 ETOT 13  -95.308968130397      1.421E-14 1.803E-19 0.000E+00
 ETOT 14  -95.308968130397     -1.421E-14 2.700E-20 0.000E+00
 ETOT 15  -95.308968130397      0.000E+00 9.260E-21 0.000E+00

 At SCF step   15   max residual=  9.26E-21 < tolwfr=  1.00E-20 =>converged.

 ----iterations are completed or convergence reached----

 dfpt_looppert: DFPT cycle converged with prtwf=-1. Will skip output of the 1st-order WFK file.
 dfpt_looppert : ek2=    8.6831238155E+01
          f-sum rule ratio=    1.5037036864E+00
 prteigrs : about to open file /scratch/users/j/a/jabreu/flow_simple_9atoms/flow/w202/t1/tmpdata/tmp_1WF1_EIG
 Expectation of eigenvalue derivatives (hartree) for nkpt=   1  k points:
  (in case of degenerate eigenvalues, averaged derivative)
 kpt#   1, nband= 60, wtk=  1.00000, kpt=  0.0000  0.0000  0.0000 (reduced coord)
  -0.00000   -0.00000   -0.00000   -0.00000   -0.00000   -0.00000    0.00000    0.00000
  -0.00000   -0.00000   -0.00000    0.00000    0.00000   -0.00000   -0.00000    0.00000
   0.00000    0.00000   -0.00000   -0.00000   -0.00000   -0.00000    0.00000    0.00000
  -0.00000   -0.00000    0.00000    0.00000   -0.00000   -0.00000    0.00000    0.00000
   0.00000   -0.00000    0.00000   -0.00000   -0.00000    0.00000    0.00000    0.00000
  -0.00000    0.00000    0.00000    0.00000   -0.00000   -0.00000   -0.00000    0.00000
  -0.00000   -0.00000    0.00000   -0.00000    0.00000    0.00000    0.00000    0.00000
   0.00000   -0.00000   -0.00000   -0.00000

 Eight components of 2nd-order total energy (hartree) are
 1,2,3: 0th-order hamiltonian combined with 1st-order wavefunctions
     kin0=   9.98712680E+01 eigvalue=   8.93641575E+00  local=  -6.09347888E+01
 4,5,6: 1st-order hamiltonian combined with 1st and 0th-order wfs
     kin1=  -1.30568453E+02  Hartree=   0.00000000E+00     xc=   0.00000000E+00
 7,8,9: eventually, occupation + non-local contributions
    edocc=   3.21349209E+01     enl0=   1.53011524E+01   enl1=  -6.00494834E+01
 1-9 gives the relaxation energy (to be shifted if some occ is /=2.0)
   erelax=  -9.53089681E+01
  No Ewald or frozen-wf contrib.: the relaxation energy is the total one
 2DEtotal=   -0.9530896813E+02 Ha. Also 2DEtotal=   -0.259348891710E+04 eV
    (  non-var. 2DEtotal :   -9.5308968130E+01 Ha)

 CALCULATION OF EFFECTIVE MASSES
 NOTE : Additional infos (eff. mass eigenvalues, eigenvectors and, if degenerate, average mass) are available in stdout.

 K-point ( 0.000, 0.000, 0.000) | band =    51
 Effective mass tensor:
             -0.6626105394              0.0000000000              0.0000000084
              0.0000000000             -0.6626105394              0.0000000108
              0.0000000084              0.0000000108             -0.0464364356
 Effective mass tensor eigenvalues:
             -0.6626105394             -0.6626105394             -0.0464364356
 Angular average effective mass 1/(<1/m>)=  -0.1221837747
 Angular average effective mass for Frohlich model (<m**0.5>)**2=  -0.2005836526
 Effective masses along directions: (cart. coord. / red. coord. -> eff. mass)
    1:   1.000000  0.000000  0.000000 /   0.894427 -0.447214  0.000000 ->  -0.6626105394
    2:   0.000000  1.000000  0.000000 /   0.000000  1.000000  0.000000 ->  -0.6626105394
    3:   0.000000  0.000000  1.000000 /   0.000000  0.000000  1.000000 ->  -0.0464364356
    4:   0.577350  0.577350  0.577350 /   0.819813  0.300072  0.487712 ->  -0.1221837685
    5:   0.000000  0.707107  0.707107 /   0.000000  0.824258  0.566215 ->  -0.0867904998
    6:   0.707107  0.000000  0.707107 /   0.789604 -0.394802  0.469741 ->  -0.0867905004
    7:   0.707107  0.707107  0.000000 /   0.939071  0.343724  0.000000 ->  -0.6626105394

 K-point ( 0.000, 0.000, 0.000) | band =    52
 Effective mass tensor:
              0.0616668563             -0.0000000001              0.0000000002
             -0.0000000001              0.0616668563              0.0000000003
              0.0000000002              0.0000000003              0.0614097876
 Effective mass tensor eigenvalues:
              0.0614097876              0.0616668562              0.0616668564
 Angular average effective mass 1/(<1/m>)=   0.0615809279
 Angular average effective mass for Frohlich model (<m**0.5>)**2=   0.0615809996
 Effective masses along directions: (cart. coord. / red. coord. -> eff. mass)
    1:   1.000000  0.000000  0.000000 /   0.894427 -0.447214  0.000000 ->   0.0616668563
    2:   0.000000  1.000000  0.000000 /   0.000000  1.000000  0.000000 ->   0.0616668563
    3:   0.000000  0.000000  1.000000 /   0.000000  0.000000  1.000000 ->   0.0614097876
    4:   0.577350  0.577350  0.577350 /   0.819813  0.300072  0.487712 ->   0.0615809282
    5:   0.000000  0.707107  0.707107 /   0.000000  0.824258  0.566215 ->   0.0615380538
    6:   0.707107  0.000000  0.707107 /   0.789604 -0.394802  0.469741 ->   0.0615380537
    7:   0.707107  0.707107  0.000000 /   0.939071  0.343724  0.000000 ->   0.0616668562

 END OF EFFECTIVE MASSES SECTION

 ---- first-order wavefunction calculations are completed ----

 Total localisation tensor (bohr^2) in cartesian coordinates
  WARNING : still subject to testing - especially symmetries.
      direction              matrix element
   alpha     beta       real part   imaginary part
     1        1      13.1343230538    0.0000000000
     1        2      -4.5498629276    0.0000000000
     1        3       0.0000000000    0.0000000000
     2        1      -4.5498629276    0.0000000000
     2        2       7.8805937581    0.0000000000
     2        3       0.0000000000    0.0000000000
     3        1       0.0000000000    0.0000000000
     3        2       0.0000000000    0.0000000000
     3        3      16.1784461693    0.0000000000

 respfn : d/dk was computed, but no 2DTE, so no DDB output.

== END DATASET(S) ==============================================================

 -outvars: echo values of variables after computation  --------
            acell      1.0000000000E+00  1.0000000000E+00  1.0000000000E+00 Bohr
              amu      1.37327000E+02  2.29897680E+01  2.08980370E+02
             ecut      4.40000000E+01 Hartree
           etotal     -9.5308968130E+01
            fcart      0.0000000000E+00  0.0000000000E+00  0.0000000000E+00
                       0.0000000000E+00  0.0000000000E+00  0.0000000000E+00
                       0.0000000000E+00  0.0000000000E+00  0.0000000000E+00
                       0.0000000000E+00  0.0000000000E+00  0.0000000000E+00
                       0.0000000000E+00  0.0000000000E+00  0.0000000000E+00
                       0.0000000000E+00  0.0000000000E+00  0.0000000000E+00
                       0.0000000000E+00  0.0000000000E+00  0.0000000000E+00
                       0.0000000000E+00  0.0000000000E+00  0.0000000000E+00
                       0.0000000000E+00  0.0000000000E+00  0.0000000000E+00
-          fftalg         512
           irdden           1
           irdwfk           1
           istwfk        1
              ixc     -116133
           kptopt           0
P           mkmem           1
P          mkqmem           1
P          mk1mem           1
            natom           9
            nband          60
           nbdbuf           4
            ngfft         100     100      60
             nkpt           1
            nstep        2000
             nsym          12
           ntypat           3
              occ      2.000000  2.000000  2.000000  2.000000  2.000000  2.000000
                       2.000000  2.000000  2.000000  2.000000  2.000000  2.000000
                       2.000000  2.000000  2.000000  2.000000  2.000000  2.000000
                       2.000000  2.000000  2.000000  2.000000  2.000000  2.000000
                       2.000000  2.000000  2.000000  2.000000  2.000000  2.000000
                       2.000000  2.000000  2.000000  2.000000  2.000000  2.000000
                       2.000000  2.000000  2.000000  2.000000  2.000000  2.000000
                       2.000000  2.000000  2.000000  2.000000  2.000000  2.000000
                       2.000000  2.000000  2.000000  0.000000  0.000000  0.000000
                       0.000000  0.000000  0.000000  0.000000  0.000000  0.000000
        optdriver           1
            prtwf          -1
            rfdir           1       1       1
           rfelfd           2
            rprim      1.6188559812E+01  0.0000000000E+00  0.0000000000E+00
                      -8.0942799061E+00  1.4019704048E+01  0.0000000000E+00
                       0.0000000000E+00  0.0000000000E+00  9.6306800539E+00
          spgroup         189
           strten      0.0000000000E+00  0.0000000000E+00  0.0000000000E+00
                       0.0000000000E+00  0.0000000000E+00  0.0000000000E+00
           symrel      1  0  0   0  1  0   0  0  1       0  1  0   1  0  0   0  0  1
                      -1 -1  0   1  0  0   0  0 -1       1  0  0  -1 -1  0   0  0 -1
                       0  1  0  -1 -1  0   0  0  1      -1 -1  0   0  1  0   0  0  1
                       1  0  0   0  1  0   0  0 -1       0  1  0   1  0  0   0  0 -1
                      -1 -1  0   1  0  0   0  0  1       1  0  0  -1 -1  0   0  0  1
                       0  1  0  -1 -1  0   0  0 -1      -1 -1  0   0  1  0   0  0 -1
           tolwfr      1.00000000E-20
            typat      1  1  1  2  2  2  3  3  3
           useylm           1
           xangst     -2.4914506074E+00  4.3153190366E+00  0.0000000000E+00
                       4.9829012148E+00  0.0000000000E+00  0.0000000000E+00
                       1.7918578389E+00  3.1035888169E+00  0.0000000000E+00
                      -1.0307995941E+00  1.7853972695E+00  2.5481681939E+00
                       3.2525088522E+00  5.6335105840E+00  2.5481681939E+00
                       2.0615991883E+00  0.0000000000E+00  2.5481681939E+00
                       0.0000000000E+00  0.0000000000E+00  0.0000000000E+00
                       4.2833084463E+00  2.4729692845E+00  2.5481681939E+00
                       1.7638771742E-11  4.9459385690E+00  2.5481681939E+00
            xcart     -4.7081593216E+00  8.1547711551E+00  0.0000000000E+00
                       9.4163186432E+00  0.0000000000E+00  0.0000000000E+00
                       3.3861205846E+00  5.8649328930E+00  0.0000000000E+00
                      -1.9479289308E+00  3.3739118777E+00  4.8153400270E+00
                       6.1463509754E+00  1.0645792170E+01  4.8153400270E+00
                       3.8958578616E+00  0.0000000000E+00  4.8153400270E+00
                       0.0000000000E+00  0.0000000000E+00  0.0000000000E+00
                       8.0942799062E+00  4.6732346827E+00  4.8153400270E+00
                       3.3332447913E-11  9.3464693654E+00  4.8153400270E+00
             xred      0.0000000000E+00  5.8166500000E-01  0.0000000000E+00
                       5.8166500000E-01  0.0000000000E+00  0.0000000000E+00
                       4.1833500000E-01  4.1833500000E-01  0.0000000000E+00
                       0.0000000000E+00  2.4065500000E-01  5.0000000000E-01
                       7.5934500000E-01  7.5934500000E-01  5.0000000000E-01
                       2.4065500000E-01  0.0000000000E+00  5.0000000000E-01
                       0.0000000000E+00  0.0000000000E+00  0.0000000000E+00
                       6.6666666667E-01  3.3333333333E-01  5.0000000000E-01
                       3.3333333333E-01  6.6666666667E-01  5.0000000000E-01
            znucl       56.00000   11.00000   83.00000

- Timing analysis has been suppressed with timopt=0

 Suggested references for the acknowledgment of ABINIT usage.

 Calculation completed.
.Delivered   6 WARNINGs and   7 COMMENTs to log file.