.Version 9.5.1 of ABINIT

 ABINIT is a project of the Universite Catholique de Louvain,
 Corning Inc. and other collaborators, see ~abinit/doc/developers/contributors.txt .
 acknowledgments of the ABINIT effort.

.Starting date : Sat  1 May 2021.
- ( at 05h09 )

- input  file    -> /scratch/users/j/a/jabreu/flow_simple_6atoms/flow/w148/t1/run.abi
- output file    -> /scratch/users/j/a/jabreu/flow_simple_6atoms/flow/w148/t1/run.abo
- root for input  files -> /scratch/users/j/a/jabreu/flow_simple_6atoms/flow/w148/t1/indata/in
- root for output files -> /scratch/users/j/a/jabreu/flow_simple_6atoms/flow/w148/t1/outdata/out

 Symmetries : space group P6_3 m c (#186); Bravais hP (primitive hexag.)
     intxc =       0      iscf =       7    lmnmax =      18     lnmax =       6
     mgfft =     144  mpssoang =       3    mqgrid =    7171     natom =       6
  nloc_mem =       1    nspden =       1   nspinor =       1    nsppol =       1
      nsym =      12    n1xccc =    2501    ntypat =       3    occopt =       1
   xclevel =       2
-    mband =          47        mffmem =           1         mkmem =           2
-   mkqmem =           2        mk1mem =           2           mpw =       18764
      nfft =      360000          nkpt =           2
  Rough estimation (10% accuracy) of disk space for files :

------------- Echo of variables that govern the present computation ------------
-
- outvars: echo of selected default values
-   iomode0 =  0 , fftalg0 =512 , wfoptalg0 =  0
-
- outvars: echo of global parameters not present in the input file
-  max_nthreads =    0
-
 -outvars: echo values of preprocessed input variables --------
            acell      1.0000000000E+00  1.0000000000E+00  1.0000000000E+00 Bohr
              amu      3.90983000E+01  1.18710000E+02  1.21753000E+02
             ecut      4.20000000E+01 Hartree
-          fftalg         512
           irdden           1
           irdwfk           1
           istwfk        0    1
              ixc     -116133
              kpt      3.44827586E-02  3.44827586E-02  0.00000000E+00
                       0.00000000E+00  0.00000000E+00  0.00000000E+00
           kptopt           0
P           mkmem           2
P          mkqmem           2
P          mk1mem           2
            natom           6
            nband          47
           nbdbuf           4
            ngfft          50      50     144
             nkpt           2
            nstep        1000
             nsym          12
           ntypat           3
              occ      2.000000  2.000000  2.000000  2.000000  2.000000  2.000000
                       2.000000  2.000000  2.000000  2.000000  2.000000  2.000000
                       2.000000  2.000000  2.000000  2.000000  2.000000  2.000000
                       2.000000  2.000000  2.000000  2.000000  2.000000  2.000000
                       2.000000  2.000000  2.000000  2.000000  2.000000  2.000000
                       2.000000  2.000000  2.000000  2.000000  2.000000  2.000000
                       2.000000  2.000000  0.000000  0.000000  0.000000  0.000000
                       0.000000  0.000000  0.000000  0.000000  0.000000
        optdriver           1
            prtwf          -1
            rfdir           1       1       1
           rfelfd           2
            rprim      8.2534088771E+00  0.0000000000E+00  0.0000000000E+00
                      -4.1267044385E+00  7.1476617553E+00  0.0000000000E+00
                       0.0000000000E+00  0.0000000000E+00  2.4577107956E+01
          spgroup         186
           symrel      1  0  0   0  1  0   0  0  1       0  1  0   1  0  0   0  0  1
                       1  1  0  -1  0  0   0  0  1      -1  0  0   1  1  0   0  0  1
                       0  1  0  -1 -1  0   0  0  1      -1 -1  0   0  1  0   0  0  1
                      -1  0  0   0 -1  0   0  0  1       0 -1  0  -1  0  0   0  0  1
                      -1 -1  0   1  0  0   0  0  1       1  0  0  -1 -1  0   0  0  1
                       0 -1  0   1  1  0   0  0  1       1  1  0   0 -1  0   0  0  1
            tnons      0.0000000  0.0000000  0.0000000     0.0000000 -0.0000000  0.5000000
                      -0.0000000 -0.0000000  0.5000000     0.0000000  0.0000000  0.0000000
                      -0.0000000 -0.0000000  0.0000000    -0.0000000  0.0000000  0.5000000
                      -0.0000000 -0.0000000  0.5000000    -0.0000000 -0.0000000  0.0000000
                       0.0000000 -0.0000000  0.0000000    -0.0000000 -0.0000000  0.5000000
                       0.0000000  0.0000000  0.5000000     0.0000000 -0.0000000  0.0000000
           tolwfr      1.00000000E-20
            typat      1  1  2  2  3  3
           useylm           1
              wtk        0.50000    0.50000
           xangst      1.7639476748E-11  2.5215864637E+00  1.2993003896E+01
                       2.1837579355E+00  1.2607932319E+00  6.4901812043E+00
                      -1.6163055601E-16 -4.1992850259E-16  3.8718976814E+00
                      -1.6163055601E-16 -4.1992850259E-16  1.0374720373E+01
                       1.7639476748E-11  2.5215864637E+00  8.9448016857E+00
                       2.1837579355E+00  1.2607932319E+00  2.4419789941E+00
            xcart      3.3333780181E-11  4.7651078369E+00  2.4553219007E+01
                       4.1267044386E+00  2.3825539184E+00  1.2264665029E+01
                      -3.0543748557E-16 -7.9354986530E-16  7.3168262324E+00
                      -3.0543748557E-16 -7.9354986530E-16  1.9605380210E+01
                       3.3333780181E-11  4.7651078369E+00  1.6903225499E+01
                       4.1267044386E+00  2.3825539184E+00  4.6146715211E+00
             xred      3.3333333333E-01  6.6666666667E-01  9.9902800000E-01
                       6.6666666667E-01  3.3333333333E-01  4.9902800000E-01
                      -9.2518585385E-17 -1.1102230246E-16  2.9770900000E-01
                      -9.2518585385E-17 -1.1102230246E-16  7.9770900000E-01
                       3.3333333333E-01  6.6666666667E-01  6.8776300000E-01
                       6.6666666667E-01  3.3333333333E-01  1.8776300000E-01
            znucl       19.00000   50.00000   51.00000

 chkinp: Checking input parameters for consistency.

== DATASET  1 ==================================================================
-   mpi_nproc: 1, omp_nthreads: -1 (-1 if OMP is not activated)

--- !DatasetInfo
iteration_state: {dtset: 1, }
dimensions: {natom: 6, nkpt: 2, mband: 47, nsppol: 1, nspinor: 1, nspden: 1, mpw: 18764, }
cutoff_energies: {ecut:  42.0, pawecutdg:  -1.0, }
electrons: {nelect:   7.60000000E+01, charge:   0.00000000E+00, occopt:   1.00000000E+00, tsmear:   1.00000000E-02, }
meta: {optdriver: 1, rfelfd: 2, }
...

 Real(R)+Recip(G) space primitive vectors, cartesian coordinates (Bohr,Bohr^-1):
 R(1)=  8.2534089  0.0000000  0.0000000  G(1)=  0.1211621  0.0699529  0.0000000
 R(2)= -4.1267044  7.1476618  0.0000000  G(2)=  0.0000000  0.1399059  0.0000000
 R(3)=  0.0000000  0.0000000 24.5771080  G(3)=  0.0000000  0.0000000  0.0406883
 Unit cell volume ucvol=  1.4498669E+03 bohr^3
 Angles (23,13,12)=  9.00000000E+01  9.00000000E+01  1.20000000E+02 degrees

 getcut: wavevector=  0.0000  0.0000  0.0000  ngfft=  50  50 144
         ecut(hartree)=     42.000   => boxcut(ratio)=   2.00836

--- Pseudopotential description ------------------------------------------------
- pspini: atom type   1  psp file is /scratch/users/j/a/jabreu/pseudos/PBEsol/K.psp8
- pspatm: opening atomic psp file    /scratch/users/j/a/jabreu/pseudos/PBEsol/K.psp8
- K     ONCVPSP-3.3.0  r_core=   1.36296   1.46408   1.61068
- 19.00000   9.00000    180112                znucl, zion, pspdat
    8 -116133    2    4       400   0.00000   pspcod,pspxc,lmax,lloc,mmax,r2well
    3.99000000000000    5.00000000000000    0.00000000000000   rchrg,fchrg,qchrg
     nproj     2     2     2
     extension_switch     1
  pspatm : epsatm=    8.32487830
         --- l  ekb(1:nproj) -->
             0   10.921326    0.816676
             1    4.431000    0.560368
             2   -3.384038   -1.043186
 pspatm: atomic psp has been read  and splines computed

- pspini: atom type   2  psp file is /scratch/users/j/a/jabreu/pseudos/PBEsol/Sn.psp8
- pspatm: opening atomic psp file    /scratch/users/j/a/jabreu/pseudos/PBEsol/Sn.psp8
- Sn    ONCVPSP-3.3.0  r_core=   2.27326   2.62311   1.85601
- 50.00000  14.00000    180112                znucl, zion, pspdat
    8 -116133    2    4       600   0.00000   pspcod,pspxc,lmax,lloc,mmax,r2well
    5.99000000000000    6.50000000000000    0.00000000000000   rchrg,fchrg,qchrg
     nproj     2     2     2
     extension_switch     1
  pspatm : epsatm=   32.44586081
         --- l  ekb(1:nproj) -->
             0    5.587869    0.749373
             1    4.197111    0.728791
             2   -5.271877   -1.523486
 pspatm: atomic psp has been read  and splines computed

- pspini: atom type   3  psp file is /scratch/users/j/a/jabreu/pseudos/PBEsol/Sb.psp8
- pspatm: opening atomic psp file    /scratch/users/j/a/jabreu/pseudos/PBEsol/Sb.psp8
- Sb    ONCVPSP-3.3.0  r_core=   1.81962   2.12485   1.81962
- 51.00000  15.00000    180112                znucl, zion, pspdat
    8 -116133    2    4       600   0.00000   pspcod,pspxc,lmax,lloc,mmax,r2well
    5.99000000000000    5.00000000000000    0.00000000000000   rchrg,fchrg,qchrg
     nproj     2     2     2
     extension_switch     1
  pspatm : epsatm=   26.35641246
         --- l  ekb(1:nproj) -->
             0    9.727814    1.485032
             1    5.505335    0.704623
             2   -4.710637   -1.436443
 pspatm: atomic psp has been read  and splines computed

   1.02033270E+04                                ecore*ucvol(ha*bohr**3)

-inwffil : will read wavefunctions from disk file /scratch/users/j/a/jabreu/flow_simple_6atoms/flow/w148/t1/indata/in_WFK

 ==>  initialize data related to q vector <==

 The list of irreducible perturbations for this q vector is:
    1)    idir= 1    ipert=   7
    2)    idir= 2    ipert=   7
    3)    idir= 3    ipert=   7

 Perturbation wavevector (in red.coord.)   0.000000  0.000000  0.000000
 Perturbation : derivative vs k along direction   1

 dfpt_looppert : COMMENT -
  In a d/dk calculation, iscf is set to -3 automatically.
 The set of symmetries contains only one element for this perturbation.
 symkpt : not enough symmetry to change the number of k points.

[...]

 Initialisation of the first-order wave-functions :
  ireadwf=   0

--- !BeginCycle
iteration_state: {dtset: 1, }
solver: {iscf: 7, nstep: 1000, nline: 4, wfoptalg: 0, }
tolerances: {tolwfr: 1.00E-20, }
...

     iter   2DEtotal(Ha)        deltaE(Ha) residm    vres2
-ETOT  1  -141.30887366252     -1.413E+02 1.640E-01 0.000E+00
 ETOT  2  -141.53324610257     -2.244E-01 3.308E-02 0.000E+00
 ETOT  3  -141.54089043758     -7.644E-03 1.916E-03 0.000E+00
 ETOT  4  -141.54139437698     -5.039E-04 7.330E-04 0.000E+00
 ETOT  5  -141.54143574604     -4.137E-05 6.652E-05 0.000E+00
 ETOT  6  -141.54143954492     -3.799E-06 2.603E-05 0.000E+00
 ETOT  7  -141.54143991358     -3.687E-07 3.050E-06 0.000E+00
 ETOT  8  -141.54143995085     -3.727E-08 1.014E-06 0.000E+00
[...]
 ETOT 10  -141.54143995513     -4.105E-10 4.072E-08 0.000E+00
 ETOT 11  -141.54143995517     -4.422E-11 6.779E-09 0.000E+00
 ETOT 12  -141.54143995518     -4.889E-12 1.670E-09 0.000E+00
 ETOT 13  -141.54143995518     -8.242E-13 3.285E-10 0.000E+00
 ETOT 14  -141.54143995518      3.411E-13 7.049E-11 0.000E+00
 ETOT 15  -141.54143995518     -3.695E-13 1.633E-11 0.000E+00
 ETOT 16  -141.54143995518      1.421E-13 3.541E-12 0.000E+00
 ETOT 17  -141.54143995518     -8.527E-14 8.314E-13 0.000E+00
 ETOT 18  -141.54143995518     -1.421E-13 1.830E-13 0.000E+00
 ETOT 19  -141.54143995518      1.705E-13 4.286E-14 0.000E+00
 ETOT 20  -141.54143995518     -5.684E-14 9.724E-15 0.000E+00
 ETOT 21  -141.54143995518      2.842E-14 2.219E-15 0.000E+00
 ETOT 22  -141.54143995518     -2.842E-14 5.267E-16 0.000E+00
 ETOT 23  -141.54143995518      2.842E-14 1.151E-16 0.000E+00
 ETOT 24  -141.54143995518     -5.684E-14 2.887E-17 0.000E+00
 ETOT 25  -141.54143995518      2.842E-14 5.973E-18 0.000E+00
 ETOT 26  -141.54143995518     -2.842E-14 1.594E-18 0.000E+00
 ETOT 27  -141.54143995518      2.842E-14 3.238E-19 0.000E+00
 ETOT 28  -141.54143995518      0.000E+00 8.849E-20 0.000E+00
 ETOT 29  -141.54143995518     -2.842E-14 1.803E-20 0.000E+00
 ETOT 30  -141.54143995518      0.000E+00 9.636E-21 0.000E+00

 At SCF step   30   max residual=  9.64E-21 < tolwfr=  1.00E-20 =>converged.

 ----iterations are completed or convergence reached----

 dfpt_looppert: DFPT cycle converged with prtwf=-1. Will skip output of the 1st-order WFK file.
 dfpt_looppert : ek2=    1.1745603598E+02
          f-sum rule ratio=    1.4182357379E+00
 prteigrs : about to open file /scratch/users/j/a/jabreu/flow_simple_6atoms/flow/w148/t1/tmpdata/tmp_1WF1_EIG
 Expectation of eigenvalue derivatives (hartree) for nkpt=   2  k points:
  (in case of degenerate eigenvalues, averaged derivative)
 kpt#   1, nband= 47, wtk=  0.50000, kpt=  0.0345  0.0345  0.0000 (reduced coord)
   0.00028    0.00028    0.00003    0.00003    0.00015    0.00015   -0.00003   -0.00003
   0.00001    0.00001    0.00008    0.00008   -0.00028   -0.00028    0.00044    0.00044
  -0.00034   -0.00035   -0.00009   -0.00009    0.00029    0.00029    0.00183    0.00128
  -0.00495   -0.00483   -0.00108   -0.00107    0.03538    0.03266    0.00963   -0.01382
   0.02242   -0.38497   -0.27849   -0.07956   -0.08570   -0.00907    0.28754    0.23826
  -0.05414    0.07248   -0.10238    0.03896    0.13840   -0.06487   -0.13821
 prteigrs : prtvol=0 or 1, do not print more k-points.

 Eight components of 2nd-order total energy (hartree) are
 1,2,3: 0th-order hamiltonian combined with 1st-order wavefunctions
     kin0=   1.44690873E+02 eigvalue=   1.81777222E+01  local=  -8.03536658E+01
 4,5,6: 1st-order hamiltonian combined with 1st and 0th-order wfs
     kin1=  -1.66580348E+02  Hartree=   0.00000000E+00     xc=   0.00000000E+00
 7,8,9: eventually, occupation + non-local contributions
    edocc=   4.14883825E+01     enl0=   1.75381278E+01   enl1=  -1.16502532E+02
 1-9 gives the relaxation energy (to be shifted if some occ is /=2.0)
   erelax=  -1.41541440E+02
  No Ewald or frozen-wf contrib.: the relaxation energy is the total one
 2DEtotal=   -0.1415414400E+03 Ha. Also 2DEtotal=   -0.385153845472E+04 eV
    (  non-var. 2DEtotal :   -1.4154143995E+02 Ha)

 Perturbation wavevector (in red.coord.)   0.000000  0.000000  0.000000
 Perturbation : derivative vs k along direction   2
 The set of symmetries contains only one element for this perturbation.
 symkpt : not enough symmetry to change the number of k points.

[...]

 Perturbation wavevector (in red.coord.)   0.000000  0.000000  0.000000
 Perturbation : derivative vs k along direction   3
 The set of symmetries contains only one element for this perturbation.
 symkpt : not enough symmetry to change the number of k points.

-inwffil : will read wavefunctions from disk file /scratch/users/j/a/jabreu/flow_simple_6atoms/flow/w148/t1/indata/in_WFK

 Initialisation of the first-order wave-functions :
  ireadwf=   0

--- !BeginCycle
iteration_state: {dtset: 1, }
solver: {iscf: 7, nstep: 1000, nline: 4, wfoptalg: 0, }
tolerances: {tolwfr: 1.00E-20, }
...

     iter   2DEtotal(Ha)        deltaE(Ha) residm    vres2
-ETOT  1  -10.788264063855     -1.079E+01 7.291E-03 0.000E+00
 ETOT  2  -10.805991278379     -1.773E-02 1.271E-03 0.000E+00
 ETOT  3  -10.806501091531     -5.098E-04 7.117E-05 0.000E+00
 ETOT  4  -10.806529082985     -2.799E-05 1.624E-05 0.000E+00
 ETOT  5  -10.806531069459     -1.986E-06 1.263E-06 0.000E+00
 ETOT  6  -10.806531240568     -1.711E-07 4.309E-07 0.000E+00
 ETOT  7  -10.806531257096     -1.653E-08 2.904E-08 0.000E+00
 ETOT  8  -10.806531258862     -1.766E-09 1.153E-08 0.000E+00
 ETOT  9  -10.806531259059     -1.977E-10 7.126E-10 0.000E+00
 ETOT 10  -10.806531259082     -2.286E-11 3.158E-10 0.000E+00
 ETOT 11  -10.806531259085     -2.723E-12 1.837E-11 0.000E+00
 ETOT 12  -10.806531259085     -3.197E-13 8.896E-12 0.000E+00
 ETOT 13  -10.806531259085     -4.086E-14 5.002E-13 0.000E+00
 ETOT 14  -10.806531259085     -1.954E-14 2.554E-13 0.000E+00
 ETOT 15  -10.806531259085      1.421E-14 1.459E-14 0.000E+00
 ETOT 16  -10.806531259085      3.553E-15 7.434E-15 0.000E+00
 ETOT 17  -10.806531259085     -7.105E-15 4.670E-16 0.000E+00
 ETOT 18  -10.806531259085      7.105E-15 2.244E-16 0.000E+00
 ETOT 19  -10.806531259085     -1.776E-15 1.499E-17 0.000E+00
 ETOT 20  -10.806531259085      0.000E+00 7.233E-18 0.000E+00
 ETOT 21  -10.806531259085      3.553E-15 4.821E-19 0.000E+00
 ETOT 22  -10.806531259085      1.776E-15 2.333E-19 0.000E+00
 ETOT 23  -10.806531259085     -3.553E-15 1.553E-20 0.000E+00
 ETOT 24  -10.806531259085      5.329E-15 9.761E-21 0.000E+00

 At SCF step   24   max residual=  9.76E-21 < tolwfr=  1.00E-20 =>converged.

 ----iterations are completed or convergence reached----

 dfpt_looppert: DFPT cycle converged with prtwf=-1. Will skip output of the 1st-order WFK file.
 dfpt_looppert : ek2=    9.9344029255E+00
          f-sum rule ratio=    1.2321506642E+00
 prteigrs : about to open file /scratch/users/j/a/jabreu/flow_simple_6atoms/flow/w148/t1/tmpdata/tmp_1WF1_EIG
 Expectation of eigenvalue derivatives (hartree) for nkpt=   2  k points:
  (in case of degenerate eigenvalues, averaged derivative)
 kpt#   1, nband= 47, wtk=  0.50000, kpt=  0.0345  0.0345  0.0000 (reduced coord)
  -0.00000    0.00000    0.00000   -0.00000    0.00000    0.00000    0.00000   -0.00000
  -0.00000    0.00000    0.00000   -0.00000   -0.00000    0.00000   -0.00000   -0.00000
   0.00000   -0.00000    0.00000   -0.00000   -0.00000   -0.00000    0.00000    0.00000
  -0.00000   -0.00000   -0.00000   -0.00000   -0.00000   -0.00000   -0.00000   -0.00000
   0.00000    0.00000    0.00000   -0.00000    0.00000    0.00000   -0.00000    0.00000
   0.00000    0.00000   -0.00000   -0.00000   -0.00000   -0.00000    0.00003
 prteigrs : prtvol=0 or 1, do not print more k-points.

 Eight components of 2nd-order total energy (hartree) are
 1,2,3: 0th-order hamiltonian combined with 1st-order wavefunctions
     kin0=   1.22455772E+01 eigvalue=   1.56365671E+00  local=  -6.91545037E+00
 4,5,6: 1st-order hamiltonian combined with 1st and 0th-order wfs
     kin1=  -1.22406812E+01  Hartree=   0.00000000E+00     xc=   0.00000000E+00
 7,8,9: eventually, occupation + non-local contributions
    edocc=   2.33332761E+00     enl0=   1.57942008E+00   enl1=  -9.37238136E+00
 1-9 gives the relaxation energy (to be shifted if some occ is /=2.0)
   erelax=  -1.08065313E+01
  No Ewald or frozen-wf contrib.: the relaxation energy is the total one
 2DEtotal=   -0.1080653126E+02 Ha. Also 2DEtotal=   -0.294060670286E+03 eV
    (  non-var. 2DEtotal :   -1.0806531259E+01 Ha)

 CALCULATION OF EFFECTIVE MASSES
 NOTE : Additional infos (eff. mass eigenvalues, eigenvectors and, if degenerate, average mass) are available in stdout.

 K-point ( 0.034, 0.034, 0.000) | band =    38
 Effective mass tensor:
             -2.3084203946              1.0795346881             -0.0000024987
              1.0795346881             -1.0619977639              0.0000014965
             -0.0000024987              0.0000014965             -0.1081251201
 Effective mass tensor eigenvalues:
             -2.9317192021             -0.4386989564             -0.1081251201
 Angular average effective mass 1/(<1/m>)=  -0.2527569699
 Angular average effective mass for Frohlich model (<m**0.5>)**2=  -0.3691723669
 Effective masses along directions: (cart. coord. / red. coord. -> eff. mass)
    1:   1.000000  0.000000  0.000000 /   0.894427 -0.447214  0.000000 ->  -1.2110591925
    2:   0.000000  1.000000  0.000000 /   0.000000  1.000000  0.000000 ->  -0.5571524829
    3:   0.000000  0.000000  1.000000 /   0.000000  0.000000  1.000000 ->  -0.1081251201
    4:   0.577350  0.577350  0.577350 /   0.316207  0.115740  0.941604 ->  -0.2214378012
    5:   0.000000  0.707107  0.707107 /   0.000000  0.279256  0.960217 ->  -0.1811037061
    6:   0.707107  0.000000  0.707107 /   0.314388 -0.157194  0.936189 ->  -0.1985258821
    7:   0.707107  0.707107  0.000000 /   0.939071  0.343724  0.000000 ->  -0.4651939791

 K-point ( 0.000, 0.000, 0.000) | band =    39
 Effective mass tensor:
              0.0915136682             -0.0000005106             -0.0000001118
             -0.0000005106              0.0915141549              0.0000000772
             -0.0000001118              0.0000000772              0.0856447448
 Effective mass tensor eigenvalues:
              0.0856447448              0.0915133459              0.0915144772
 Angular average effective mass 1/(<1/m>)=   0.0894701389
 Angular average effective mass for Frohlich model (<m**0.5>)**2=   0.0894966469
 Effective masses along directions: (cart. coord. / red. coord. -> eff. mass)
    1:   1.000000  0.000000  0.000000 /   0.894427 -0.447214  0.000000 ->   0.0915136682
    2:   0.000000  1.000000  0.000000 /   0.000000  1.000000  0.000000 ->   0.0915141549
    3:   0.000000  0.000000  1.000000 /   0.000000  0.000000  1.000000 ->   0.0856447448
    4:   0.577350  0.577350  0.577350 /   0.316207  0.115740  0.941604 ->   0.0894697899
    5:   0.000000  0.707107  0.707107 /   0.000000  0.279256  0.960217 ->   0.0884822979
    6:   0.707107  0.000000  0.707107 /   0.314388 -0.157194  0.936189 ->   0.0884818816
    7:   0.707107  0.707107  0.000000 /   0.939071  0.343724  0.000000 ->   0.0915134009

 END OF EFFECTIVE MASSES SECTION

 ---- first-order wavefunction calculations are completed ----

 Total localisation tensor (bohr^2) in cartesian coordinates
  WARNING : still subject to testing - especially symmetries.
      direction              matrix element
   alpha     beta       real part   imaginary part
     1        1       9.9362428017    0.0000000000
     1        2      -3.4420249259    0.0000000000
     1        3       0.0000000000    0.0000000000
     2        1      -3.4420249259    0.0000000000
     2        2       5.9617620526    0.0000000000
     2        3       0.0000000000    0.0000000000
     3        1       0.0000000000    0.0000000000
     3        2       0.0000000000    0.0000000000
     3        3       9.3165898162    0.0000000000

 respfn : d/dk was computed, but no 2DTE, so no DDB output.

== END DATASET(S) ==============================================================

 -outvars: echo values of variables after computation  --------
            acell      1.0000000000E+00  1.0000000000E+00  1.0000000000E+00 Bohr
              amu      3.90983000E+01  1.18710000E+02  1.21753000E+02
             ecut      4.20000000E+01 Hartree
           etotal     -1.0806531259E+01
            fcart      0.0000000000E+00  0.0000000000E+00  0.0000000000E+00
                       0.0000000000E+00  0.0000000000E+00  0.0000000000E+00
                       0.0000000000E+00  0.0000000000E+00  0.0000000000E+00
                       0.0000000000E+00  0.0000000000E+00  0.0000000000E+00
                       0.0000000000E+00  0.0000000000E+00  0.0000000000E+00
                       0.0000000000E+00  0.0000000000E+00  0.0000000000E+00
-          fftalg         512
           irdden           1
           irdwfk           1
           istwfk        0    1
              ixc     -116133
              kpt      3.44827586E-02  3.44827586E-02  0.00000000E+00
                       0.00000000E+00  0.00000000E+00  0.00000000E+00
           kptopt           0
P           mkmem           2
P          mkqmem           2
P          mk1mem           2
            natom           6
            nband          47
           nbdbuf           4
            ngfft          50      50     144
             nkpt           2
            nstep        1000
             nsym          12
           ntypat           3
              occ      2.000000  2.000000  2.000000  2.000000  2.000000  2.000000
                       2.000000  2.000000  2.000000  2.000000  2.000000  2.000000
                       2.000000  2.000000  2.000000  2.000000  2.000000  2.000000
                       2.000000  2.000000  2.000000  2.000000  2.000000  2.000000
                       2.000000  2.000000  2.000000  2.000000  2.000000  2.000000
                       2.000000  2.000000  2.000000  2.000000  2.000000  2.000000
                       2.000000  2.000000  0.000000  0.000000  0.000000  0.000000
                       0.000000  0.000000  0.000000  0.000000  0.000000
        optdriver           1
            prtwf          -1
            rfdir           1       1       1
           rfelfd           2
            rprim      8.2534088771E+00  0.0000000000E+00  0.0000000000E+00
                      -4.1267044385E+00  7.1476617553E+00  0.0000000000E+00
                       0.0000000000E+00  0.0000000000E+00  2.4577107956E+01
          spgroup         186
           strten      0.0000000000E+00  0.0000000000E+00  0.0000000000E+00
                       0.0000000000E+00  0.0000000000E+00  0.0000000000E+00
           symrel      1  0  0   0  1  0   0  0  1       0  1  0   1  0  0   0  0  1
                       1  1  0  -1  0  0   0  0  1      -1  0  0   1  1  0   0  0  1
                       0  1  0  -1 -1  0   0  0  1      -1 -1  0   0  1  0   0  0  1
                      -1  0  0   0 -1  0   0  0  1       0 -1  0  -1  0  0   0  0  1
                      -1 -1  0   1  0  0   0  0  1       1  0  0  -1 -1  0   0  0  1
                       0 -1  0   1  1  0   0  0  1       1  1  0   0 -1  0   0  0  1
            tnons      0.0000000  0.0000000  0.0000000     0.0000000 -0.0000000  0.5000000
                      -0.0000000 -0.0000000  0.5000000     0.0000000  0.0000000  0.0000000
                      -0.0000000 -0.0000000  0.0000000    -0.0000000  0.0000000  0.5000000
                      -0.0000000 -0.0000000  0.5000000    -0.0000000 -0.0000000  0.0000000
                       0.0000000 -0.0000000  0.0000000    -0.0000000 -0.0000000  0.5000000
                       0.0000000  0.0000000  0.5000000     0.0000000 -0.0000000  0.0000000
           tolwfr      1.00000000E-20
            typat      1  1  2  2  3  3
           useylm           1
              wtk        0.50000    0.50000
           xangst      1.7639476748E-11  2.5215864637E+00  1.2993003896E+01
                       2.1837579355E+00  1.2607932319E+00  6.4901812043E+00
                      -1.6163055601E-16 -4.1992850259E-16  3.8718976814E+00
                      -1.6163055601E-16 -4.1992850259E-16  1.0374720373E+01
                       1.7639476748E-11  2.5215864637E+00  8.9448016857E+00
                       2.1837579355E+00  1.2607932319E+00  2.4419789941E+00
            xcart      3.3333780181E-11  4.7651078369E+00  2.4553219007E+01
                       4.1267044386E+00  2.3825539184E+00  1.2264665029E+01
                      -3.0543748557E-16 -7.9354986530E-16  7.3168262324E+00
                      -3.0543748557E-16 -7.9354986530E-16  1.9605380210E+01
                       3.3333780181E-11  4.7651078369E+00  1.6903225499E+01
                       4.1267044386E+00  2.3825539184E+00  4.6146715211E+00
             xred      3.3333333333E-01  6.6666666667E-01  9.9902800000E-01
                       6.6666666667E-01  3.3333333333E-01  4.9902800000E-01
                      -9.2518585385E-17 -1.1102230246E-16  2.9770900000E-01
                      -9.2518585385E-17 -1.1102230246E-16  7.9770900000E-01
                       3.3333333333E-01  6.6666666667E-01  6.8776300000E-01
                       6.6666666667E-01  3.3333333333E-01  1.8776300000E-01
            znucl       19.00000   50.00000   51.00000

- Timing analysis has been suppressed with timopt=0

 Suggested references for the acknowledgment of ABINIT usage.

 Calculation completed.
.Delivered  14 WARNINGs and   9 COMMENTs to log file.