.Version 9.5.1 of ABINIT

 ABINIT is a project of the Universite Catholique de Louvain,
 Corning Inc. and other collaborators, see ~abinit/doc/developers/contributors.txt .
 acknowledgments of the ABINIT effort.

.Starting date : Wed 19 May 2021.
- ( at 01h33 )

- input  file    -> /scratch/users/j/a/jabreu/flow_simple_8atoms/flow/w441/t1/run.abi
- output file    -> /scratch/users/j/a/jabreu/flow_simple_8atoms/flow/w441/t1/run.abo
- root for input  files -> /scratch/users/j/a/jabreu/flow_simple_8atoms/flow/w441/t1/indata/in
- root for output files -> /scratch/users/j/a/jabreu/flow_simple_8atoms/flow/w441/t1/outdata/out

 Symmetries : space group P4/n m m (#129); Bravais tP (primitive tetrag.)
     intxc =       0      iscf =       7    lmnmax =      18     lnmax =       6
     mgfft =      96  mpssoang =       3    mqgrid =    4596     natom =       8
  nloc_mem =       1    nspden =       1   nspinor =       1    nsppol =       1
      nsym =      16    n1xccc =    2501    ntypat =       3    occopt =       1
   xclevel =       2
-    mband =          41        mffmem =           1         mkmem =           2
-   mkqmem =           2        mk1mem =           2           mpw =       12593
      nfft =      221184          nkpt =           2
  Rough estimation (10% accuracy) of disk space for files :

------------- Echo of variables that govern the present computation ------------
-
- outvars: echo of selected default values
-   iomode0 =  0 , fftalg0 =512 , wfoptalg0 =  0
-
- outvars: echo of global parameters not present in the input file
-  max_nthreads =    0
-
 -outvars: echo values of preprocessed input variables --------
            acell      1.0000000000E+00  1.0000000000E+00  1.0000000000E+00 Bohr
              amu      1.37327000E+02  9.12240000E+01  1.40067400E+01
             ecut      4.20000000E+01 Hartree
-          fftalg         512
           irdden           1
           irdwfk           1
           istwfk        1    1
              ixc     -116133
              kpt      1.52154961E-17  1.52154961E-17  5.00000000E-01
                       0.00000000E+00  0.00000000E+00  0.00000000E+00
           kptopt           0
P           mkmem           2
P          mkqmem           2
P          mk1mem           2
            natom           8
            nband          41
           nbdbuf           4
            ngfft          48      48      96
             nkpt           2
            nstep        2000
             nsym          16
           ntypat           3
              occ      2.000000  2.000000  2.000000  2.000000  2.000000  2.000000
                       2.000000  2.000000  2.000000  2.000000  2.000000  2.000000
                       2.000000  2.000000  2.000000  2.000000  2.000000  2.000000
                       2.000000  2.000000  2.000000  2.000000  2.000000  2.000000
                       2.000000  2.000000  2.000000  2.000000  2.000000  2.000000
                       2.000000  2.000000  0.000000  0.000000  0.000000  0.000000
                       0.000000  0.000000  0.000000  0.000000  0.000000
        optdriver           1
            prtwf          -1
            rfdir           1       1       1
           rfelfd           2
            rprim      7.8276473073E+00  0.0000000000E+00  0.0000000000E+00
                       0.0000000000E+00  7.8276473073E+00  0.0000000000E+00
                       0.0000000000E+00  0.0000000000E+00  1.5750559752E+01
          spgroup         129
           symrel      1  0  0   0  1  0   0  0  1      -1  0  0   0 -1  0   0  0 -1
                      -1  0  0   0  1  0   0  0 -1       1  0  0   0 -1  0   0  0  1
                      -1  0  0   0 -1  0   0  0  1       1  0  0   0  1  0   0  0 -1
                       1  0  0   0 -1  0   0  0 -1      -1  0  0   0  1  0   0  0  1
                       0  1  0   1  0  0   0  0  1       0 -1  0  -1  0  0   0  0 -1
                       0 -1  0   1  0  0   0  0 -1       0  1  0  -1  0  0   0  0  1
                       0 -1  0  -1  0  0   0  0  1       0  1  0   1  0  0   0  0 -1
                       0  1  0  -1  0  0   0  0 -1       0 -1  0   1  0  0   0  0  1
            tnons      0.0000000  0.0000000  0.0000000     0.5000000  0.5000000 -0.0000000
                       0.5000000  0.5000000 -0.0000000     0.0000000 -0.0000000  0.0000000
                       0.0000000 -0.0000000  0.0000000     0.5000000  0.5000000 -0.0000000
                       0.5000000  0.5000000 -0.0000000     0.0000000  0.0000000  0.0000000
                       0.5000000  0.5000000  0.0000000    -0.0000000  0.0000000 -0.0000000
                       0.0000000  0.0000000 -0.0000000     0.5000000  0.5000000  0.0000000
                       0.5000000  0.5000000  0.0000000     0.0000000  0.0000000 -0.0000000
                      -0.0000000  0.0000000 -0.0000000     0.5000000  0.5000000  0.0000000
           tolwfr      1.00000000E-20
            typat      1  1  2  2  3  3  3  3
           useylm           1
              wtk        0.50000    0.50000
           xangst      0.0000000000E+00  2.0711062760E+00  1.2733214205E+00
                       2.0711062760E+00  0.0000000000E+00  7.0615158230E+00
                       2.0711062760E+00  0.0000000000E+00  3.4407791760E+00
                       0.0000000000E+00  2.0711062760E+00  4.8940580675E+00
                       0.0000000000E+00  2.0711062760E+00  6.8822334739E+00
                       2.0711062760E+00  0.0000000000E+00  1.4526037696E+00
                       0.0000000000E+00  0.0000000000E+00  4.1674186218E+00
                       2.0711062760E+00  2.0711062760E+00  4.1674186218E+00
            xcart      0.0000000000E+00  3.9138236536E+00  2.4062287639E+00
                       3.9138236536E+00  0.0000000000E+00  1.3344330989E+01
                       3.9138236536E+00  0.0000000000E+00  6.5021303265E+00
                       0.0000000000E+00  3.9138236536E+00  9.2484294260E+00
                       0.0000000000E+00  3.9138236536E+00  1.3005536448E+01
                       3.9138236536E+00  0.0000000000E+00  2.7450233042E+00
                       0.0000000000E+00  0.0000000000E+00  7.8752798762E+00
                       3.9138236536E+00  3.9138236536E+00  7.8752798762E+00
             xred      0.0000000000E+00  5.0000000000E-01  1.5277100000E-01
                       5.0000000000E-01  0.0000000000E+00  8.4722900000E-01
                       5.0000000000E-01  0.0000000000E+00  4.1281900000E-01
                       0.0000000000E+00  5.0000000000E-01  5.8718100000E-01
                       0.0000000000E+00  5.0000000000E-01  8.2571900000E-01
                       5.0000000000E-01  0.0000000000E+00  1.7428100000E-01
                       0.0000000000E+00  0.0000000000E+00  5.0000000000E-01
                       5.0000000000E-01  5.0000000000E-01  5.0000000000E-01
            znucl       56.00000   40.00000    7.00000

 chkinp: Checking input parameters for consistency.

== DATASET  1 ==================================================================
-   mpi_nproc: 1, omp_nthreads: -1 (-1 if OMP is not activated)

--- !DatasetInfo
iteration_state: {dtset: 1, }
dimensions: {natom: 8, nkpt: 2, mband: 41, nsppol: 1, nspinor: 1, nspden: 1, mpw: 12593, }
cutoff_energies: {ecut:  42.0, pawecutdg:  -1.0, }
electrons: {nelect:   6.40000000E+01, charge:   0.00000000E+00, occopt:   1.00000000E+00, tsmear:   1.00000000E-02, }
meta: {optdriver: 1, rfelfd: 2, }
...

 Real(R)+Recip(G) space primitive vectors, cartesian coordinates (Bohr,Bohr^-1):
 R(1)=  7.8276473  0.0000000  0.0000000  G(1)=  0.1277523  0.0000000  0.0000000
 R(2)=  0.0000000  7.8276473  0.0000000  G(2)=  0.0000000  0.1277523  0.0000000
 R(3)=  0.0000000  0.0000000 15.7505598  G(3)=  0.0000000  0.0000000  0.0634898
 Unit cell volume ucvol=  9.6506928E+02 bohr^3
 Angles (23,13,12)=  9.00000000E+01  9.00000000E+01  9.00000000E+01 degrees

 getcut: wavevector=  0.0000  0.0000  0.0000  ngfft=  48  48  96
         ecut(hartree)=     42.000   => boxcut(ratio)=   2.08923

--- Pseudopotential description ------------------------------------------------
- pspini: atom type   1  psp file is /scratch/users/j/a/jabreu/pseudos/PBEsol/Ba.psp8
- pspatm: opening atomic psp file    /scratch/users/j/a/jabreu/pseudos/PBEsol/Ba.psp8
- Ba    ONCVPSP-3.3.0  r_core=   2.15444   1.91218   2.15444
- 56.00000  10.00000    180112                znucl, zion, pspdat
    8 -116133    2    4       600   0.00000   pspcod,pspxc,lmax,lloc,mmax,r2well
    5.99000000000000    5.00000000000000    0.00000000000000   rchrg,fchrg,qchrg
     nproj     2     2     2
     extension_switch     1
  pspatm : epsatm=   26.37418029
         --- l  ekb(1:nproj) -->
             0    6.652372    0.677024
             1    5.027722    0.408462
             2    2.543237    0.416854
 pspatm: atomic psp has been read  and splines computed

- pspini: atom type   2  psp file is /scratch/users/j/a/jabreu/pseudos/PBEsol/Zr.psp8
- pspatm: opening atomic psp file    /scratch/users/j/a/jabreu/pseudos/PBEsol/Zr.psp8
- Zr    ONCVPSP-3.3.0  r_core=   1.56507   1.56507   1.51006
- 40.00000  12.00000    180112                znucl, zion, pspdat
    8 -116133    2    4       600   0.00000   pspcod,pspxc,lmax,lloc,mmax,r2well
    5.99000000000000    5.00000000000000    0.00000000000000   rchrg,fchrg,qchrg
     nproj     2     2     2
     extension_switch     1
  pspatm : epsatm=   18.88750170
         --- l  ekb(1:nproj) -->
             0   10.584966    0.890424
             1    5.814585    0.741293
             2    1.525459    0.487901
 pspatm: atomic psp has been read  and splines computed

- pspini: atom type   3  psp file is /scratch/users/j/a/jabreu/pseudos/PBEsol/N.psp8
- pspatm: opening atomic psp file    /scratch/users/j/a/jabreu/pseudos/PBEsol/N.psp8
- N     ONCVPSP-3.3.0  r_core=   1.20551   1.35824
-  7.00000   5.00000    180112                znucl, zion, pspdat
    8 -116133    1    4       600   0.00000   pspcod,pspxc,lmax,lloc,mmax,r2well
    5.99000000000000    4.00000000000000    0.00000000000000   rchrg,fchrg,qchrg
     nproj     2     2
     extension_switch     1
  pspatm : epsatm=    5.26508895
         --- l  ekb(1:nproj) -->
             0    7.464189    0.625868
             1   -4.309714   -1.012941
 pspatm: atomic psp has been read  and splines computed

   7.14135807E+03                                ecore*ucvol(ha*bohr**3)

-inwffil : will read wavefunctions from disk file /scratch/users/j/a/jabreu/flow_simple_8atoms/flow/w441/t1/indata/in_WFK

 ==>  initialize data related to q vector <==

 The list of irreducible perturbations for this q vector is:
    1)    idir= 1    ipert=   9
    2)    idir= 2    ipert=   9
    3)    idir= 3    ipert=   9

 Perturbation wavevector (in red.coord.)   0.000000  0.000000  0.000000
 Perturbation : derivative vs k along direction   1

 dfpt_looppert : COMMENT -
  In a d/dk calculation, iscf is set to -3 automatically.
 The set of symmetries contains only one element for this perturbation.
 symkpt : not enough symmetry to change the number of k points.

[...]

 Initialisation of the first-order wave-functions :
  ireadwf=   0

--- !BeginCycle
[...]

 Perturbation wavevector (in red.coord.)   0.000000  0.000000  0.000000
 Perturbation : derivative vs k along direction   2
 The set of symmetries contains only one element for this perturbation.
 symkpt : not enough symmetry to change the number of k points.

[...]

 Perturbation wavevector (in red.coord.)   0.000000  0.000000  0.000000
 Perturbation : derivative vs k along direction   3
 The set of symmetries contains only one element for this perturbation.
 symkpt : not enough symmetry to change the number of k points.

-inwffil : will read wavefunctions from disk file /scratch/users/j/a/jabreu/flow_simple_8atoms/flow/w441/t1/indata/in_WFK

 Initialisation of the first-order wave-functions :
  ireadwf=   0

--- !BeginCycle
iteration_state: {dtset: 1, }
solver: {iscf: 7, nstep: 2000, nline: 4, wfoptalg: 0, }
tolerances: {tolwfr: 1.00E-20, }
...

     iter   2DEtotal(Ha)        deltaE(Ha) residm    vres2
-ETOT  1  -10.659535264689     -1.066E+01 8.990E-02 0.000E+00
 ETOT  2  -10.695864109471     -3.633E-02 7.658E-03 0.000E+00
 ETOT  3  -10.696551236434     -6.871E-04 2.338E-03 0.000E+00
 ETOT  4  -10.696571043131     -1.981E-05 2.801E-04 0.000E+00
 ETOT  5  -10.696571701173     -6.580E-07 7.375E-05 0.000E+00
 ETOT  6  -10.696571725284     -2.411E-08 1.072E-05 0.000E+00
 ETOT  7  -10.696571726256     -9.716E-10 3.859E-06 0.000E+00
 ETOT  8  -10.696571726300     -4.439E-11 4.539E-07 0.000E+00
 ETOT  9  -10.696571726302     -2.212E-12 2.483E-07 0.000E+00
 ETOT 10  -10.696571726303     -1.368E-13 2.912E-08 0.000E+00
 ETOT 11  -10.696571726303     -5.329E-15 1.813E-08 0.000E+00
 ETOT 12  -10.696571726303      0.000E+00 2.113E-09 0.000E+00
 ETOT 13  -10.696571726303      1.066E-14 1.342E-09 0.000E+00
 ETOT 14  -10.696571726303     -1.776E-15 1.557E-10 0.000E+00
 ETOT 15  -10.696571726303      0.000E+00 9.985E-11 0.000E+00
 ETOT 16  -10.696571726303      0.000E+00 1.153E-11 0.000E+00
 ETOT 17  -10.696571726303      0.000E+00 7.442E-12 0.000E+00
 ETOT 18  -10.696571726303      0.000E+00 8.557E-13 0.000E+00
 ETOT 19  -10.696571726303      0.000E+00 5.552E-13 0.000E+00
 ETOT 20  -10.696571726303     -3.553E-15 6.361E-14 0.000E+00
 ETOT 21  -10.696571726303      0.000E+00 4.143E-14 0.000E+00
 ETOT 22  -10.696571726303      1.776E-15 4.732E-15 0.000E+00
 ETOT 23  -10.696571726303      1.776E-15 3.092E-15 0.000E+00
 ETOT 24  -10.696571726303     -1.776E-15 3.523E-16 0.000E+00
 ETOT 25  -10.696571726303     -1.776E-15 2.307E-16 0.000E+00
 ETOT 26  -10.696571726303      0.000E+00 2.625E-17 0.000E+00
 ETOT 27  -10.696571726303      0.000E+00 1.722E-17 0.000E+00
 ETOT 28  -10.696571726303      1.776E-15 1.956E-18 0.000E+00
 ETOT 29  -10.696571726303     -1.776E-15 1.285E-18 0.000E+00
 ETOT 30  -10.696571726303      0.000E+00 1.459E-19 0.000E+00
 ETOT 31  -10.696571726303      0.000E+00 9.591E-20 0.000E+00
 ETOT 32  -10.696571726303      5.329E-15 1.089E-20 0.000E+00
 ETOT 33  -10.696571726303     -5.329E-15 9.929E-21 0.000E+00

 At SCF step   33   max residual=  9.93E-21 < tolwfr=  1.00E-20 =>converged.

 ----iterations are completed or convergence reached----

 dfpt_looppert: DFPT cycle converged with prtwf=-1. Will skip output of the 1st-order WFK file.
 dfpt_looppert : ek2=    2.0369375823E+01
          f-sum rule ratio=    1.0066954193E+00
 prteigrs : about to open file /scratch/users/j/a/jabreu/flow_simple_8atoms/flow/w441/t1/tmpdata/tmp_1WF1_EIG
 Expectation of eigenvalue derivatives (hartree) for nkpt=   2  k points:
  (in case of degenerate eigenvalues, averaged derivative)
 kpt#   1, nband= 41, wtk=  0.50000, kpt=  0.0000  0.0000  0.5000 (reduced coord)
  -0.00000   -0.00000   -0.00000   -0.00000   -0.00000   -0.00000    0.00000    0.00000
  -0.00000   -0.00000    0.00000    0.00000   -0.00000    0.00000    0.00000    0.00000
  -0.00000   -0.00000   -0.00000   -0.00000    0.00000    0.00000    0.00000    0.00000
   0.00000    0.00000    0.00000   -0.00000   -0.00000   -0.00000    0.00000    0.00000
   0.00000   -0.00000    0.00000    0.00000    0.00000   -0.00000   -0.00000    0.00000
   0.00002
 prteigrs : prtvol=0 or 1, do not print more k-points.

 Eight components of 2nd-order total energy (hartree) are
 1,2,3: 0th-order hamiltonian combined with 1st-order wavefunctions
     kin0=   1.95888002E+01 eigvalue=  -1.05174171E+00  local=  -1.18113638E+01
 4,5,6: 1st-order hamiltonian combined with 1st and 0th-order wfs
     kin1=  -2.05057573E+01  Hartree=   0.00000000E+00     xc=   0.00000000E+00
 7,8,9: eventually, occupation + non-local contributions
    edocc=   2.71858544E+00     enl0=   1.25229156E+00   enl1=  -8.87386117E-01
 1-9 gives the relaxation energy (to be shifted if some occ is /=2.0)
   erelax=  -1.06965717E+01
  No Ewald or frozen-wf contrib.: the relaxation energy is the total one
 2DEtotal=   -0.1069657173E+02 Ha. Also 2DEtotal=   -0.291068519230E+03 eV
    (  non-var. 2DEtotal :   -1.0696571726E+01 Ha)

 CALCULATION OF EFFECTIVE MASSES
 NOTE : Additional infos (eff. mass eigenvalues, eigenvectors and, if degenerate, average mass) are available in stdout.

 COMMENTS:
 - At k-point ( 0.000, 0.000, 0.500), bands    31 through    32
   are DEGENERATE (effective mass tensor is therefore not defined).
   See Section IIIB Eqs. (67)-(70) and Appendix E of PRB 93 205147 (2016).
 - Angular average effective mass for Frohlich model is to be averaged over degenerate bands. See later.
 - Associated theta integrals calculated with ntheta=   1000 points.

 K-point ( 0.000, 0.000, 0.500) | band =    31
 Transport equivalent effective mass tensor:
             -0.2289727804              0.0000000987             -0.0000947155
              0.0000000987             -0.2289727846              0.0000139368
             -0.0000947155              0.0000139368             -8.7974555407
 Transport equivalent effective mass tensor eigenvalues:
             -8.7974555418             -0.2289728806             -0.2289726833
 Angular average effective mass 1/(<1/m>)=  -0.3091863875
 Angular average effective mass for Frohlich model (<m**0.5>)**2=  -0.4279943037
 Effective masses along directions: (cart. coord. / red. coord. -> eff. mass)
    1:   1.000000  0.000000  0.000000 /   1.000000  0.000000  0.000000 ->  -0.2669835680
    2:   0.000000  1.000000  0.000000 /   0.000000  1.000000  0.000000 ->  -0.2669835679
    3:   0.000000  0.000000  1.000000 /   0.000000  0.000000  1.000000 ->  -7.5729876824
    4:   0.577350  0.577350  0.577350 /   0.406597  0.406597  0.818143 ->  -0.2688019729
    5:   0.000000  0.707107  0.707107 /   0.000000  0.445046  0.895508 ->  -0.5157833384
    6:   0.707107  0.000000  0.707107 /   0.445046  0.000000  0.895508 ->  -0.5157833662
    7:   0.707107  0.707107  0.000000 /   0.707107  0.707107  0.000000 ->  -0.1813448864

 K-point ( 0.000, 0.000, 0.500) | band =    32
 Transport equivalent effective mass tensor:
             -0.8310657332              0.0000000864             -0.0001977173
              0.0000000864             -0.8310675482              0.0000290922
             -0.0001977173              0.0000290922            -15.0699048578
 Transport equivalent effective mass tensor eigenvalues:
            -15.0699048607             -0.8310675522             -0.8310657264
 Angular average effective mass 1/(<1/m>)=  -0.7725125368
 Angular average effective mass for Frohlich model (<m**0.5>)**2=  -1.0320766937
 Effective masses along directions: (cart. coord. / red. coord. -> eff. mass)
    1:   1.000000  0.000000  0.000000 /   1.000000  0.000000  0.000000 ->  -0.3429861897
    2:   0.000000  1.000000  0.000000 /   0.000000  1.000000  0.000000 ->  -0.3429880015
    3:   0.000000  0.000000  1.000000 /   0.000000  0.000000  1.000000 ->  -7.5730000835
    4:   0.577350  0.577350  0.577350 /   0.406597  0.406597  0.818143 ->  -1.2368253752
    5:   0.000000  0.707107  0.707107 /   0.000000  0.445046  0.895508 ->  -0.6562490415
    6:   0.707107  0.000000  0.707107 /   0.445046  0.000000  0.895508 ->  -0.6562818574
    7:   0.707107  0.707107  0.000000 /   0.707107  0.707107  0.000000 ->  -0.8720233577

 Angular average effective mass for Frohlich model, averaged over degenerate bands.
 Value of     (<<m**0.5>>)**2 =     6.973290E-01
 Absolute Value of <<m**0.5>> =     8.350622E-01

 K-point ( 0.000, 0.000, 0.000) | band =    33
 Effective mass tensor:
              0.1729712059             -0.0000000150             -0.0000015300
             -0.0000000150              0.1729711737             -0.0000000253
             -0.0000015300             -0.0000000253             39.1355146858
 Effective mass tensor eigenvalues:
              0.1729711678              0.1729712119             39.1355146858
 Angular average effective mass 1/(<1/m>)=   0.2588846754
 Angular average effective mass for Frohlich model (<m**0.5>)**2=   0.3931394377
 Effective masses along directions: (cart. coord. / red. coord. -> eff. mass)
    1:   1.000000  0.000000  0.000000 /   1.000000  0.000000  0.000000 ->   0.1729712059
    2:   0.000000  1.000000  0.000000 /   0.000000  1.000000  0.000000 ->   0.1729711737
    3:   0.000000  0.000000  1.000000 /   0.000000  0.000000  1.000000 ->  39.1355146858
    4:   0.577350  0.577350  0.577350 /   0.406597  0.406597  0.818143 ->   0.2588846427
    5:   0.000000  0.707107  0.707107 /   0.000000  0.445046  0.895508 ->   0.3444200789
    6:   0.707107  0.000000  0.707107 /   0.445046  0.000000  0.895508 ->   0.3444201164
    7:   0.707107  0.707107  0.000000 /   0.707107  0.707107  0.000000 ->   0.1729711748

 END OF EFFECTIVE MASSES SECTION

 ---- first-order wavefunction calculations are completed ----

 Total localisation tensor (bohr^2) in cartesian coordinates
  WARNING : still subject to testing - especially symmetries.
      direction              matrix element
   alpha     beta       real part   imaginary part
     1        1       3.2845074268    0.0000000000
     1        2       0.0000000000    0.0000000000
     1        3       0.0000000000    0.0000000000
     2        1       0.0000000000    0.0000000000
     2        2       3.2845150448    0.0000000000
     2        3       0.0000000000    0.0000000000
     3        1       0.0000000000    0.0000000000
     3        2       0.0000000000    0.0000000000
     3        3       1.0993106653    0.0000000000

 respfn : d/dk was computed, but no 2DTE, so no DDB output.

== END DATASET(S) ==============================================================

 -outvars: echo values of variables after computation  --------
            acell      1.0000000000E+00  1.0000000000E+00  1.0000000000E+00 Bohr
              amu      1.37327000E+02  9.12240000E+01  1.40067400E+01
             ecut      4.20000000E+01 Hartree
           etotal     -1.0696571726E+01
            fcart      0.0000000000E+00  0.0000000000E+00  0.0000000000E+00
                       0.0000000000E+00  0.0000000000E+00  0.0000000000E+00
                       0.0000000000E+00  0.0000000000E+00  0.0000000000E+00
                       0.0000000000E+00  0.0000000000E+00  0.0000000000E+00
                       0.0000000000E+00  0.0000000000E+00  0.0000000000E+00
                       0.0000000000E+00  0.0000000000E+00  0.0000000000E+00
                       0.0000000000E+00  0.0000000000E+00  0.0000000000E+00
                       0.0000000000E+00  0.0000000000E+00  0.0000000000E+00
-          fftalg         512
           irdden           1
           irdwfk           1
           istwfk        1    1
              ixc     -116133
              kpt      1.52154961E-17  1.52154961E-17  5.00000000E-01
                       0.00000000E+00  0.00000000E+00  0.00000000E+00
           kptopt           0
P           mkmem           2
P          mkqmem           2
P          mk1mem           2
            natom           8
            nband          41
           nbdbuf           4
            ngfft          48      48      96
             nkpt           2
            nstep        2000
             nsym          16
           ntypat           3
              occ      2.000000  2.000000  2.000000  2.000000  2.000000  2.000000
                       2.000000  2.000000  2.000000  2.000000  2.000000  2.000000
                       2.000000  2.000000  2.000000  2.000000  2.000000  2.000000
                       2.000000  2.000000  2.000000  2.000000  2.000000  2.000000
                       2.000000  2.000000  2.000000  2.000000  2.000000  2.000000
                       2.000000  2.000000  0.000000  0.000000  0.000000  0.000000
                       0.000000  0.000000  0.000000  0.000000  0.000000
        optdriver           1
            prtwf          -1
            rfdir           1       1       1
           rfelfd           2
            rprim      7.8276473073E+00  0.0000000000E+00  0.0000000000E+00
                       0.0000000000E+00  7.8276473073E+00  0.0000000000E+00
                       0.0000000000E+00  0.0000000000E+00  1.5750559752E+01
          spgroup         129
           strten      0.0000000000E+00  0.0000000000E+00  0.0000000000E+00
                       0.0000000000E+00  0.0000000000E+00  0.0000000000E+00
           symrel      1  0  0   0  1  0   0  0  1      -1  0  0   0 -1  0   0  0 -1
                      -1  0  0   0  1  0   0  0 -1       1  0  0   0 -1  0   0  0  1
                      -1  0  0   0 -1  0   0  0  1       1  0  0   0  1  0   0  0 -1
                       1  0  0   0 -1  0   0  0 -1      -1  0  0   0  1  0   0  0  1
                       0  1  0   1  0  0   0  0  1       0 -1  0  -1  0  0   0  0 -1
                       0 -1  0   1  0  0   0  0 -1       0  1  0  -1  0  0   0  0  1
                       0 -1  0  -1  0  0   0  0  1       0  1  0   1  0  0   0  0 -1
                       0  1  0  -1  0  0   0  0 -1       0 -1  0   1  0  0   0  0  1
            tnons      0.0000000  0.0000000  0.0000000     0.5000000  0.5000000 -0.0000000
                       0.5000000  0.5000000 -0.0000000     0.0000000 -0.0000000  0.0000000
                       0.0000000 -0.0000000  0.0000000     0.5000000  0.5000000 -0.0000000
                       0.5000000  0.5000000 -0.0000000     0.0000000  0.0000000  0.0000000
                       0.5000000  0.5000000  0.0000000    -0.0000000  0.0000000 -0.0000000
                       0.0000000  0.0000000 -0.0000000     0.5000000  0.5000000  0.0000000
                       0.5000000  0.5000000  0.0000000     0.0000000  0.0000000 -0.0000000
                      -0.0000000  0.0000000 -0.0000000     0.5000000  0.5000000  0.0000000
           tolwfr      1.00000000E-20
            typat      1  1  2  2  3  3  3  3
           useylm           1
              wtk        0.50000    0.50000
           xangst      0.0000000000E+00  2.0711062760E+00  1.2733214205E+00
                       2.0711062760E+00  0.0000000000E+00  7.0615158230E+00
                       2.0711062760E+00  0.0000000000E+00  3.4407791760E+00
                       0.0000000000E+00  2.0711062760E+00  4.8940580675E+00
                       0.0000000000E+00  2.0711062760E+00  6.8822334739E+00
                       2.0711062760E+00  0.0000000000E+00  1.4526037696E+00
                       0.0000000000E+00  0.0000000000E+00  4.1674186218E+00
                       2.0711062760E+00  2.0711062760E+00  4.1674186218E+00
            xcart      0.0000000000E+00  3.9138236536E+00  2.4062287639E+00
                       3.9138236536E+00  0.0000000000E+00  1.3344330989E+01
                       3.9138236536E+00  0.0000000000E+00  6.5021303265E+00
                       0.0000000000E+00  3.9138236536E+00  9.2484294260E+00
                       0.0000000000E+00  3.9138236536E+00  1.3005536448E+01
                       3.9138236536E+00  0.0000000000E+00  2.7450233042E+00
                       0.0000000000E+00  0.0000000000E+00  7.8752798762E+00
                       3.9138236536E+00  3.9138236536E+00  7.8752798762E+00
             xred      0.0000000000E+00  5.0000000000E-01  1.5277100000E-01
                       5.0000000000E-01  0.0000000000E+00  8.4722900000E-01
                       5.0000000000E-01  0.0000000000E+00  4.1281900000E-01
                       0.0000000000E+00  5.0000000000E-01  5.8718100000E-01
                       0.0000000000E+00  5.0000000000E-01  8.2571900000E-01
                       5.0000000000E-01  0.0000000000E+00  1.7428100000E-01
                       0.0000000000E+00  0.0000000000E+00  5.0000000000E-01
                       5.0000000000E-01  5.0000000000E-01  5.0000000000E-01
            znucl       56.00000   40.00000    7.00000

- Timing analysis has been suppressed with timopt=0

 Suggested references for the acknowledgment of ABINIT usage.

 Calculation completed.
.Delivered  14 WARNINGs and   9 COMMENTs to log file.