.Version 9.5.1 of ABINIT

 ABINIT is a project of the Universite Catholique de Louvain,
 Corning Inc. and other collaborators, see ~abinit/doc/developers/contributors.txt .
 acknowledgments of the ABINIT effort.

.Starting date : Tue  4 May 2021.
- ( at 21h48 )

- input  file    -> /scratch/users/j/a/jabreu/flow_simple_6atoms/flow/w259/t1/run.abi
- output file    -> /scratch/users/j/a/jabreu/flow_simple_6atoms/flow/w259/t1/run.abo
- root for input  files -> /scratch/users/j/a/jabreu/flow_simple_6atoms/flow/w259/t1/indata/in
- root for output files -> /scratch/users/j/a/jabreu/flow_simple_6atoms/flow/w259/t1/outdata/out

 Symmetries : space group I-4 (# 82); Bravais tI (body-center tetrag.)
     intxc =       0      iscf =       7    lmnmax =      18     lnmax =       6
     mgfft =      54  mpssoang =       3    mqgrid =    3001     natom =       6
  nloc_mem =       1    nspden =       1   nspinor =       1    nsppol =       1
      nsym =       4    n1xccc =    2501    ntypat =       3    occopt =       1
   xclevel =       2
-    mband =          25        mffmem =           1         mkmem =           2
-   mkqmem =           2        mk1mem =           2           mpw =        6066
      nfft =      157464          nkpt =           2
  Rough estimation (10% accuracy) of disk space for files :

------------- Echo of variables that govern the present computation ------------
-
- outvars: echo of selected default values
-   iomode0 =  0 , fftalg0 =512 , wfoptalg0 =  0
-
- outvars: echo of global parameters not present in the input file
-  max_nthreads =    0
-
 -outvars: echo values of preprocessed input variables --------
            acell      1.0000000000E+00  1.0000000000E+00  1.0000000000E+00 Bohr
              amu      1.08110000E+01  3.09737620E+01  1.59994000E+01
             ecut      4.40000000E+01 Hartree
-          fftalg         512
           irdden           1
           irdwfk           1
           istwfk        0    1
              ixc     -116133
              kpt      5.00000000E-01  5.00000000E-01 -5.00000000E-01
                       0.00000000E+00  0.00000000E+00  0.00000000E+00
           kptopt           0
P           mkmem           2
P          mkqmem           2
P          mk1mem           2
            natom           6
            nband          25
           nbdbuf           4
            ngfft          54      54      54
             nkpt           2
            nstep        1000
             nsym           4
           ntypat           3
              occ      2.000000  2.000000  2.000000  2.000000  2.000000  2.000000
                       2.000000  2.000000  2.000000  2.000000  2.000000  2.000000
                       2.000000  2.000000  2.000000  2.000000  0.000000  0.000000
                       0.000000  0.000000  0.000000  0.000000  0.000000  0.000000
                       0.000000
        optdriver           1
            prtwf          -1
            rfdir           1       1       1
           rfelfd           2
            rprim      7.2518132130E+00  0.0000000000E+00 -4.6126887536E+00
                      -2.1863417853E+00  6.9143838824E+00 -4.6126887536E+00
                       0.0000000000E+00  0.0000000000E+00  8.5945152518E+00
          spgroup          82
           symrel      1  0  0   0  1  0   0  0  1       0  1  0   1  0  0  -1 -1 -1
                       0  0  1  -1 -1 -1   0  1  0      -1 -1 -1   0  0  1   1  0  0
           tolwfr      1.00000000E-20
            typat      1  2  3  3  3  3
           useylm           1
              wtk        0.50000    0.50000
           xangst      0.0000000000E+00  0.0000000000E+00  0.0000000000E+00
                       2.5888801442E+00  9.1473359050E-01 -1.6691896366E-01
                       2.7045843915E+00  4.3170943277E-01 -1.6196506045E+00
                       2.2433022632E+00  3.6097646873E+00 -1.7305375221E+00
                      -6.8402883286E-01  2.3263550410E+00  2.4877801908E+00
                       1.0972062388E+00  9.5003956289E-01  1.9473208111E-01
            xcart      0.0000000000E+00  0.0000000000E+00  0.0000000000E+00
                       4.8922744634E+00  1.7285959706E+00 -3.1543112770E-01
                       5.1109238031E+00  8.1581259692E-01 -3.0606960734E+00
                       4.2392269108E+00  6.8214666632E+00 -3.2702419794E+00
                      -1.2926271611E+00  4.3961739154E+00  4.7012232394E+00
                       2.0734193026E+00  1.7953145893E+00  3.6799030259E-01
             xred      0.0000000000E+00  0.0000000000E+00  0.0000000000E+00
                       7.5000000000E-01  2.5000000000E-01  5.0000000000E-01
                       7.4035075000E-01  1.1798775000E-01  1.0454950000E-01
                       8.8201225000E-01  9.8656175000E-01  6.2236300000E-01
                       1.3438250000E-02  6.3580125000E-01  8.9545050000E-01
                       3.6419875000E-01  2.5964925000E-01  3.7763700000E-01
            znucl        5.00000   15.00000    8.00000

 chkinp: Checking input parameters for consistency.

== DATASET  1 ==================================================================
-   mpi_nproc: 1, omp_nthreads: -1 (-1 if OMP is not activated)

--- !DatasetInfo
iteration_state: {dtset: 1, }
dimensions: {natom: 6, nkpt: 2, mband: 25, nsppol: 1, nspinor: 1, nspden: 1, mpw: 6066, }
cutoff_energies: {ecut:  44.0, pawecutdg:  -1.0, }
electrons: {nelect:   3.20000000E+01, charge:   0.00000000E+00, occopt:   1.00000000E+00, tsmear:   1.00000000E-02, }
meta: {optdriver: 1, rfelfd: 2, }
...

 Real(R)+Recip(G) space primitive vectors, cartesian coordinates (Bohr,Bohr^-1):
 R(1)=  7.2518132  0.0000000 -4.6126888  G(1)=  0.1378965  0.0436032  0.0000000
 R(2)= -2.1863418  6.9143839 -4.6126888  G(2)=  0.0000000  0.1446260  0.0000000
 R(3)=  0.0000000  0.0000000  8.5945153  G(3)=  0.0740093  0.1010229  0.1163533
 Unit cell volume ucvol=  4.3094464E+02 bohr^3
 Angles (23,13,12)=  1.22459373E+02  1.22459373E+02  8.57905383E+01 degrees

 getcut: wavevector=  0.0000  0.0000  0.0000  ngfft=  54  54  54
         ecut(hartree)=     44.000   => boxcut(ratio)=   2.10495

--- Pseudopotential description ------------------------------------------------
- pspini: atom type   1  psp file is /scratch/users/j/a/jabreu/pseudos/PBEsol/B.psp8
- pspatm: opening atomic psp file    /scratch/users/j/a/jabreu/pseudos/PBEsol/B.psp8
- B     ONCVPSP-3.3.0  r_core=   1.20849   1.20849
-  5.00000   3.00000    180112                znucl, zion, pspdat
    8 -116133    1    4       600   0.00000   pspcod,pspxc,lmax,lloc,mmax,r2well
    5.99000000000000    2.90000000000000    0.00000000000000   rchrg,fchrg,qchrg
     nproj     2     2
     extension_switch     1
  pspatm : epsatm=    3.20154566
         --- l  ekb(1:nproj) -->
             0    8.466603    1.247630
             1   -3.609180   -0.822621
 pspatm: atomic psp has been read  and splines computed

- pspini: atom type   2  psp file is /scratch/users/j/a/jabreu/pseudos/PBEsol/P.psp8
- pspatm: opening atomic psp file    /scratch/users/j/a/jabreu/pseudos/PBEsol/P.psp8
- P     ONCVPSP-3.3.0  r_core=   1.46089   1.55067   1.70594
- 15.00000   5.00000    180112                znucl, zion, pspdat
    8 -116133    2    4       600   0.00000   pspcod,pspxc,lmax,lloc,mmax,r2well
    5.99000000000000    5.00000000000000    0.00000000000000   rchrg,fchrg,qchrg
     nproj     2     2     2
     extension_switch     1
  pspatm : epsatm=    7.31221086
         --- l  ekb(1:nproj) -->
             0    6.742364    1.063650
             1    3.449117    0.910422
             2   -3.077645   -0.799176
 pspatm: atomic psp has been read  and splines computed

- pspini: atom type   3  psp file is /scratch/users/j/a/jabreu/pseudos/PBEsol/O.psp8
- pspatm: opening atomic psp file    /scratch/users/j/a/jabreu/pseudos/PBEsol/O.psp8
- O     ONCVPSP-3.3.0  r_core=   1.35509   1.45563   1.26150
-  8.00000   6.00000    180112                znucl, zion, pspdat
    8 -116133    2    4       600   0.00000   pspcod,pspxc,lmax,lloc,mmax,r2well
    5.99000000000000    4.00000000000000    0.00000000000000   rchrg,fchrg,qchrg
     nproj     2     2     1
     extension_switch     1
  pspatm : epsatm=    6.22910522
         --- l  ekb(1:nproj) -->
             0    6.050032    0.820363
             1   -4.739617   -1.153841
             2   -1.335834
 pspatm: atomic psp has been read  and splines computed

   1.13376568E+03                                ecore*ucvol(ha*bohr**3)

-inwffil : will read wavefunctions from disk file /scratch/users/j/a/jabreu/flow_simple_6atoms/flow/w259/t1/indata/in_WFK

 ==>  initialize data related to q vector <==

 The list of irreducible perturbations for this q vector is:
    1)    idir= 1    ipert=   7
    2)    idir= 2    ipert=   7
    3)    idir= 3    ipert=   7

 Perturbation wavevector (in red.coord.)   0.000000  0.000000  0.000000
 Perturbation : derivative vs k along direction   1

 dfpt_looppert : COMMENT -
  In a d/dk calculation, iscf is set to -3 automatically.
 The set of symmetries contains only one element for this perturbation.
 symkpt : not enough symmetry to change the number of k points.

[...]

 Initialisation of the first-order wave-functions :
  ireadwf=   0

--- !BeginCycle
iteration_state: {dtset: 1, }
solver: {iscf: 7, nstep: 1000, nline: 4, wfoptalg: 0, }
tolerances: {tolwfr: 1.00E-20, }
...

     iter   2DEtotal(Ha)        deltaE(Ha) residm    vres2
-ETOT  1  -26.790304240562     -2.679E+01 1.199E-01 0.000E+00
 ETOT  2  -26.818687990668     -2.838E-02 1.748E-02 0.000E+00
 ETOT  3  -26.818804696100     -1.167E-04 1.053E-03 0.000E+00
 ETOT  4  -26.818805618787     -9.227E-07 2.737E-04 0.000E+00
 ETOT  5  -26.818805628399     -9.612E-09 3.050E-05 0.000E+00
 ETOT  6  -26.818805628513     -1.142E-10 7.775E-06 0.000E+00
 ETOT  7  -26.818805628515     -1.453E-12 8.572E-07 0.000E+00
 ETOT  8  -26.818805628515     -2.132E-14 2.316E-07 0.000E+00
 ETOT  9  -26.818805628515      3.553E-15 2.390E-08 0.000E+00
 ETOT 10  -26.818805628515     -3.553E-15 7.067E-09 0.000E+00
 ETOT 11  -26.818805628515      3.553E-15 8.158E-10 0.000E+00
 ETOT 12  -26.818805628515      3.553E-15 2.186E-10 0.000E+00
 ETOT 13  -26.818805628515      7.105E-15 2.572E-11 0.000E+00
 ETOT 14  -26.818805628515     -1.066E-14 6.848E-12 0.000E+00
 ETOT 15  -26.818805628515     -3.553E-15 8.100E-13 0.000E+00
 ETOT 16  -26.818805628515      3.553E-15 2.169E-13 0.000E+00
 ETOT 17  -26.818805628515      0.000E+00 2.571E-14 0.000E+00
 ETOT 18  -26.818805628515      3.553E-15 6.926E-15 0.000E+00
 ETOT 19  -26.818805628515     -3.553E-15 8.223E-16 0.000E+00
 ETOT 20  -26.818805628515     -3.553E-15 2.226E-16 0.000E+00
 ETOT 21  -26.818805628515      3.553E-15 2.644E-17 0.000E+00
 ETOT 22  -26.818805628515      3.553E-15 7.191E-18 0.000E+00
 ETOT 23  -26.818805628515     -7.105E-15 8.536E-19 0.000E+00
 ETOT 24  -26.818805628515      1.066E-14 2.331E-19 0.000E+00
 ETOT 25  -26.818805628515     -1.066E-14 2.764E-20 0.000E+00
 ETOT 26  -26.818805628515      0.000E+00 9.390E-21 0.000E+00

 At SCF step   26   max residual=  9.39E-21 < tolwfr=  1.00E-20 =>converged.

 ----iterations are completed or convergence reached----

 dfpt_looppert: DFPT cycle converged with prtwf=-1. Will skip output of the 1st-order WFK file.
 dfpt_looppert : ek2=    5.2848508540E+01
          f-sum rule ratio=    1.0096311241E+00
 prteigrs : about to open file /scratch/users/j/a/jabreu/flow_simple_6atoms/flow/w259/t1/tmpdata/tmp_1WF1_EIG
 Expectation of eigenvalue derivatives (hartree) for nkpt=   2  k points:
  (in case of degenerate eigenvalues, averaged derivative)
 kpt#   1, nband= 25, wtk=  0.50000, kpt=  0.5000  0.5000 -0.5000 (reduced coord)
  -0.00000    0.00000   -0.00000   -0.00000   -0.00000   -0.00000    0.00000    0.00000
   0.00000    0.00000    0.00000    0.00000    0.00000    0.00000   -0.00000   -0.00000
   0.00000    0.00000    0.00000    0.00000    0.00000    0.00000   -0.00001    0.00000
   0.05797
 prteigrs : prtvol=0 or 1, do not print more k-points.

 Eight components of 2nd-order total energy (hartree) are
 1,2,3: 0th-order hamiltonian combined with 1st-order wavefunctions
     kin0=   3.06342280E+01 eigvalue=   1.28617834E+00  local=  -1.20260478E+01
 4,5,6: 1st-order hamiltonian combined with 1st and 0th-order wfs
     kin1=  -5.33574991E+01  Hartree=   0.00000000E+00     xc=   0.00000000E+00
 7,8,9: eventually, occupation + non-local contributions
    edocc=   9.22252554E+00     enl0=  -2.29807850E+00   enl1=  -2.80112174E-01
 1-9 gives the relaxation energy (to be shifted if some occ is /=2.0)
   erelax=  -2.68188056E+01
  No Ewald or frozen-wf contrib.: the relaxation energy is the total one
 2DEtotal=   -0.2681880563E+02 Ha. Also 2DEtotal=   -0.729776814624E+03 eV
    (  non-var. 2DEtotal :   -2.6818805628E+01 Ha)

 Perturbation wavevector (in red.coord.)   0.000000  0.000000  0.000000
 Perturbation : derivative vs k along direction   2
 The set of symmetries contains only one element for this perturbation.
 symkpt : not enough symmetry to change the number of k points.

[...]

 Perturbation wavevector (in red.coord.)   0.000000  0.000000  0.000000
 Perturbation : derivative vs k along direction   3
 The set of symmetries contains only one element for this perturbation.
 symkpt : not enough symmetry to change the number of k points.

-inwffil : will read wavefunctions from disk file /scratch/users/j/a/jabreu/flow_simple_6atoms/flow/w259/t1/indata/in_WFK

 Initialisation of the first-order wave-functions :
  ireadwf=   0

--- !BeginCycle
iteration_state: {dtset: 1, }
solver: {iscf: 7, nstep: 1000, nline: 4, wfoptalg: 0, }
tolerances: {tolwfr: 1.00E-20, }
...

     iter   2DEtotal(Ha)        deltaE(Ha) residm    vres2
-ETOT  1  -37.283279524608     -3.728E+01 1.452E-01 0.000E+00
 ETOT  2  -37.318209105327     -3.493E-02 1.805E-02 0.000E+00
 ETOT  3  -37.318322335868     -1.132E-04 1.353E-03 0.000E+00
 ETOT  4  -37.318323037478     -7.016E-07 2.404E-04 0.000E+00
 ETOT  5  -37.318323043118     -5.640E-09 1.788E-05 0.000E+00
 ETOT  6  -37.318323043169     -5.063E-11 4.275E-06 0.000E+00
 ETOT  7  -37.318323043169     -4.974E-13 5.386E-07 0.000E+00
 ETOT  8  -37.318323043169      7.105E-15 1.783E-07 0.000E+00
 ETOT  9  -37.318323043169      7.105E-15 1.859E-08 0.000E+00
 ETOT 10  -37.318323043169      7.105E-15 6.362E-09 0.000E+00
 ETOT 11  -37.318323043169     -7.105E-15 6.623E-10 0.000E+00
 ETOT 12  -37.318323043169      0.000E+00 2.247E-10 0.000E+00
 ETOT 13  -37.318323043169      1.421E-14 2.436E-11 0.000E+00
 ETOT 14  -37.318323043169     -1.421E-14 8.063E-12 0.000E+00
 ETOT 15  -37.318323043169      0.000E+00 9.259E-13 0.000E+00
 ETOT 16  -37.318323043169      0.000E+00 3.009E-13 0.000E+00
 ETOT 17  -37.318323043169      0.000E+00 3.613E-14 0.000E+00
 ETOT 18  -37.318323043169     -7.105E-15 1.168E-14 0.000E+00
 ETOT 19  -37.318323043169      7.105E-15 1.438E-15 0.000E+00
 ETOT 20  -37.318323043169      0.000E+00 4.652E-16 0.000E+00
 ETOT 21  -37.318323043169      0.000E+00 5.792E-17 0.000E+00
 ETOT 22  -37.318323043169      7.105E-15 1.876E-17 0.000E+00
 ETOT 23  -37.318323043169      0.000E+00 2.350E-18 0.000E+00
 ETOT 24  -37.318323043169      0.000E+00 7.613E-19 0.000E+00
 ETOT 25  -37.318323043169     -7.105E-15 9.567E-20 0.000E+00
 ETOT 26  -37.318323043169      7.105E-15 3.098E-20 0.000E+00
 ETOT 27  -37.318323043169     -7.105E-15 9.758E-21 0.000E+00

 At SCF step   27   max residual=  9.76E-21 < tolwfr=  1.00E-20 =>converged.

 ----iterations are completed or convergence reached----

 dfpt_looppert: DFPT cycle converged with prtwf=-1. Will skip output of the 1st-order WFK file.
 dfpt_looppert : ek2=    7.3830530938E+01
          f-sum rule ratio=    1.0063350428E+00
 prteigrs : about to open file /scratch/users/j/a/jabreu/flow_simple_6atoms/flow/w259/t1/tmpdata/tmp_1WF1_EIG
 Expectation of eigenvalue derivatives (hartree) for nkpt=   2  k points:
  (in case of degenerate eigenvalues, averaged derivative)
 kpt#   1, nband= 25, wtk=  0.50000, kpt=  0.5000  0.5000 -0.5000 (reduced coord)
  -0.00000    0.00000   -0.00000   -0.00000    0.00000   -0.00000    0.00000    0.00000
   0.00000   -0.00000    0.00000    0.00000    0.00000    0.00000   -0.00000   -0.00000
   0.00000    0.00000    0.00000    0.00000    0.00000    0.00000    0.00004   -0.00000
   0.02163
 prteigrs : prtvol=0 or 1, do not print more k-points.

 Eight components of 2nd-order total energy (hartree) are
 1,2,3: 0th-order hamiltonian combined with 1st-order wavefunctions
     kin0=   4.20209102E+01 eigvalue=   1.72535410E+00  local=  -1.63875864E+01
 4,5,6: 1st-order hamiltonian combined with 1st and 0th-order wfs
     kin1=  -7.42982505E+01  Hartree=   0.00000000E+00     xc=   0.00000000E+00
 7,8,9: eventually, occupation + non-local contributions
    edocc=   1.31973745E+01     enl0=  -3.23772935E+00   enl1=  -3.38395578E-01
 1-9 gives the relaxation energy (to be shifted if some occ is /=2.0)
   erelax=  -3.73183230E+01
  No Ewald or frozen-wf contrib.: the relaxation energy is the total one
 2DEtotal=   -0.3731832304E+02 Ha. Also 2DEtotal=   -0.101548321334E+04 eV
    (  non-var. 2DEtotal :   -3.7318323043E+01 Ha)

 CALCULATION OF EFFECTIVE MASSES
 NOTE : Additional infos (eff. mass eigenvalues, eigenvectors and, if degenerate, average mass) are available in stdout.

 COMMENTS:
 - At k-point ( 0.500, 0.500,-0.500), bands    15 through    16
   are DEGENERATE (effective mass tensor is therefore not defined).
   See Section IIIB Eqs. (67)-(70) and Appendix E of PRB 93 205147 (2016).
 - Angular average effective mass for Frohlich model is to be averaged over degenerate bands. See later.
 - Associated theta integrals calculated with ntheta=   1000 points.

 K-point ( 0.500, 0.500,-0.500) | band =    15
 Transport equivalent effective mass tensor:
             -3.1886230024             -0.3389768818              0.4527880003
             -0.3389768818             -3.4031523486              0.6182500389
              0.4527880003              0.6182500389             -3.7659049004
 Transport equivalent effective mass tensor eigenvalues:
             -4.4771249319             -2.9403479194             -2.9402074001
 Angular average effective mass 1/(<1/m>)=  -3.2724531088
 Angular average effective mass for Frohlich model (<m**0.5>)**2=  -3.3103232090
 Effective masses along directions: (cart. coord. / red. coord. -> eff. mass)
    1:   1.000000  0.000000  0.000000 /   0.957433 -0.288656  0.000000 ->  -3.0045389910
    2:   0.000000  1.000000  0.000000 /   0.000000  1.000000  0.000000 ->  -3.0846755165
    3:   0.000000  0.000000  1.000000 /  -0.427505 -0.427505  0.796542 ->  -3.7119261391
    4:   0.577350  0.577350  0.577350 /   0.293519  0.012829  0.955867 ->  -3.0964075903
    5:   0.000000  0.707107  0.707107 /  -0.460257  0.229664  0.857565 ->  -2.8870540989
    6:   0.707107  0.000000  0.707107 /   0.234131 -0.603180  0.762467 ->  -2.8089029138
    7:   0.707107  0.707107  0.000000 /   0.837685  0.546154  0.000000 ->  -3.5101274320

 K-point ( 0.500, 0.500,-0.500) | band =    16
 Transport equivalent effective mass tensor:
             -4.3793391380             -0.0482596198              0.0671930250
             -0.0482596198             -4.4100503576              0.0917023801
              0.0671930250              0.0917023801             -4.4637354740
 Transport equivalent effective mass tensor eigenvalues:
             -4.5685932516             -4.3440526242             -4.3404790939
 Angular average effective mass 1/(<1/m>)=  -4.2838965007
 Angular average effective mass for Frohlich model (<m**0.5>)**2=  -4.2928762223
 Effective masses along directions: (cart. coord. / red. coord. -> eff. mass)
    1:   1.000000  0.000000  0.000000 /   0.957433 -0.288656  0.000000 ->  -4.3945776982
    2:   0.000000  1.000000  0.000000 /   0.000000  1.000000  0.000000 ->  -4.5690936612
    3:   0.000000  0.000000  1.000000 /  -0.427505 -0.427505  0.796542 ->  -4.0948250601
    4:   0.577350  0.577350  0.577350 /   0.293519  0.012829  0.955867 ->  -3.9093898161
    5:   0.000000  0.707107  0.707107 /  -0.460257  0.229664  0.857565 ->  -4.3071323128
    6:   0.707107  0.000000  0.707107 /   0.234131 -0.603180  0.762467 ->  -4.5921276698
    7:   0.707107  0.707107  0.000000 /   0.837685  0.546154  0.000000 ->  -4.1765422746

 Angular average effective mass for Frohlich model, averaged over degenerate bands.
 Value of     (<<m**0.5>>)**2 =     3.785661E+00
 Absolute Value of <<m**0.5>> =     1.945678E+00

 K-point ( 0.000, 0.000, 0.000) | band =    17
 Effective mass tensor:
              0.5811424417              0.0013262498             -0.0017687051
              0.0013262498              0.5819823194             -0.0024152867
             -0.0017687051             -0.0024152867              0.5833923067
 Effective mass tensor eigenvalues:
              0.5801712345              0.5801712405              0.5861745927
 Angular average effective mass 1/(<1/m>)=   0.5821586460
 Angular average effective mass for Frohlich model (<m**0.5>)**2=   0.5821627516
 Effective masses along directions: (cart. coord. / red. coord. -> eff. mass)
    1:   1.000000  0.000000  0.000000 /   0.957433 -0.288656  0.000000 ->   0.5811340903
    2:   0.000000  1.000000  0.000000 /   0.000000  1.000000  0.000000 ->   0.5819693265
    3:   0.000000  0.000000  1.000000 /  -0.427505 -0.427505  0.796542 ->   0.5833769334
    4:   0.577350  0.577350  0.577350 /   0.293519  0.012829  0.955867 ->   0.5802662274
    5:   0.000000  0.707107  0.707107 /  -0.460257  0.229664  0.857565 ->   0.5802710113
    6:   0.707107  0.000000  0.707107 /   0.234131 -0.603180  0.762467 ->   0.5804954969
    7:   0.707107  0.707107  0.000000 /   0.837685  0.546154  0.000000 ->   0.5828733263

 END OF EFFECTIVE MASSES SECTION

 ---- first-order wavefunction calculations are completed ----

 Total localisation tensor (bohr^2) in cartesian coordinates
  WARNING : still subject to testing - especially symmetries.
      direction              matrix element
   alpha     beta       real part   imaginary part
     1        1       0.7131073006    0.0000000000
     1        2      -0.1879008007    0.0000000000
     1        3      -0.2904454009    0.0000000000
     2        1      -0.1879008007    0.0000000000
     2        2       0.5942429846    0.0000000000
     2        3      -0.3964283700    0.0000000000
     3        1      -0.2904454009    0.0000000000
     3        2      -0.3964283700    0.0000000000
     3        3       1.8034669103    0.0000000000

 respfn : d/dk was computed, but no 2DTE, so no DDB output.

== END DATASET(S) ==============================================================

 -outvars: echo values of variables after computation  --------
            acell      1.0000000000E+00  1.0000000000E+00  1.0000000000E+00 Bohr
              amu      1.08110000E+01  3.09737620E+01  1.59994000E+01
             ecut      4.40000000E+01 Hartree
           etotal     -3.7318323043E+01
            fcart      0.0000000000E+00  0.0000000000E+00  0.0000000000E+00
                       0.0000000000E+00  0.0000000000E+00  0.0000000000E+00
                       0.0000000000E+00  0.0000000000E+00  0.0000000000E+00
                       0.0000000000E+00  0.0000000000E+00  0.0000000000E+00
                       0.0000000000E+00  0.0000000000E+00  0.0000000000E+00
                       0.0000000000E+00  0.0000000000E+00  0.0000000000E+00
-          fftalg         512
           irdden           1
           irdwfk           1
           istwfk        0    1
              ixc     -116133
              kpt      5.00000000E-01  5.00000000E-01 -5.00000000E-01
                       0.00000000E+00  0.00000000E+00  0.00000000E+00
           kptopt           0
P           mkmem           2
P          mkqmem           2
P          mk1mem           2
            natom           6
            nband          25
           nbdbuf           4
            ngfft          54      54      54
             nkpt           2
            nstep        1000
             nsym           4
           ntypat           3
              occ      2.000000  2.000000  2.000000  2.000000  2.000000  2.000000
                       2.000000  2.000000  2.000000  2.000000  2.000000  2.000000
                       2.000000  2.000000  2.000000  2.000000  0.000000  0.000000
                       0.000000  0.000000  0.000000  0.000000  0.000000  0.000000
                       0.000000
        optdriver           1
            prtwf          -1
            rfdir           1       1       1
           rfelfd           2
            rprim      7.2518132130E+00  0.0000000000E+00 -4.6126887536E+00
                      -2.1863417853E+00  6.9143838824E+00 -4.6126887536E+00
                       0.0000000000E+00  0.0000000000E+00  8.5945152518E+00
          spgroup          82
           strten      0.0000000000E+00  0.0000000000E+00  0.0000000000E+00
                       0.0000000000E+00  0.0000000000E+00  0.0000000000E+00
           symrel      1  0  0   0  1  0   0  0  1       0  1  0   1  0  0  -1 -1 -1
                       0  0  1  -1 -1 -1   0  1  0      -1 -1 -1   0  0  1   1  0  0
           tolwfr      1.00000000E-20
            typat      1  2  3  3  3  3
           useylm           1
              wtk        0.50000    0.50000
           xangst      0.0000000000E+00  0.0000000000E+00  0.0000000000E+00
                       2.5888801442E+00  9.1473359050E-01 -1.6691896366E-01
                       2.7045843915E+00  4.3170943277E-01 -1.6196506045E+00
                       2.2433022632E+00  3.6097646873E+00 -1.7305375221E+00
                      -6.8402883286E-01  2.3263550410E+00  2.4877801908E+00
                       1.0972062388E+00  9.5003956289E-01  1.9473208111E-01
            xcart      0.0000000000E+00  0.0000000000E+00  0.0000000000E+00
                       4.8922744634E+00  1.7285959706E+00 -3.1543112770E-01
                       5.1109238031E+00  8.1581259692E-01 -3.0606960734E+00
                       4.2392269108E+00  6.8214666632E+00 -3.2702419794E+00
                      -1.2926271611E+00  4.3961739154E+00  4.7012232394E+00
                       2.0734193026E+00  1.7953145893E+00  3.6799030259E-01
             xred      0.0000000000E+00  0.0000000000E+00  0.0000000000E+00
                       7.5000000000E-01  2.5000000000E-01  5.0000000000E-01
                       7.4035075000E-01  1.1798775000E-01  1.0454950000E-01
                       8.8201225000E-01  9.8656175000E-01  6.2236300000E-01
                       1.3438250000E-02  6.3580125000E-01  8.9545050000E-01
                       3.6419875000E-01  2.5964925000E-01  3.7763700000E-01
            znucl        5.00000   15.00000    8.00000

- Timing analysis has been suppressed with timopt=0

 Suggested references for the acknowledgment of ABINIT usage.

 Calculation completed.
.Delivered  14 WARNINGs and   9 COMMENTs to log file.