.Version 9.5.2 of ABINIT

 ABINIT is a project of the Universite Catholique de Louvain,
 Corning Inc. and other collaborators, see ~abinit/doc/developers/contributors.txt .
 acknowledgments of the ABINIT effort.

.Starting date : Mon 24 May 2021.
- ( at 10h57 )

- input  file    -> /scratch/users/j/a/jabreu/flow_simple_10atoms/flow/w274/t1/run.abi
- output file    -> /scratch/users/j/a/jabreu/flow_simple_10atoms/flow/w274/t1/run.abo
- root for input  files -> /scratch/users/j/a/jabreu/flow_simple_10atoms/flow/w274/t1/indata/in
- root for output files -> /scratch/users/j/a/jabreu/flow_simple_10atoms/flow/w274/t1/outdata/out

 Symmetries : space group P2_1/m (# 11); Bravais mP (primitive monocl.)
     intxc =       0      iscf =       7    lmnmax =      18     lnmax =       6
     mgfft =      75  mpssoang =       3    mqgrid =    3512     natom =      10
  nloc_mem =       1    nspden =       1   nspinor =       1    nsppol =       1
      nsym =       4    n1xccc =    2501    ntypat =       3    occopt =       1
   xclevel =       2
-    mband =          53        mffmem =           1         mkmem =           2
-   mkqmem =           2        mk1mem =           2           mpw =       14116
      nfft =      240000          nkpt =           2
  Rough estimation (10% accuracy) of disk space for files :

------------- Echo of variables that govern the present computation ------------
-
- outvars: echo of selected default values
-   iomode0 =  0 , fftalg0 =512 , wfoptalg0 =  0
-
- outvars: echo of global parameters not present in the input file
-  max_nthreads =    0
-
 -outvars: echo values of preprocessed input variables --------
            acell      1.0000000000E+00  1.0000000000E+00  1.0000000000E+00 Bohr
              amu      8.76200000E+01  7.89600000E+01  1.59994000E+01
             ecut      4.40000000E+01 Hartree
-          fftalg         512
           irdden           1
           irdwfk           1
              ixc     -116133
              kpt      2.77777778E-01  5.00000000E-01  5.00000000E-01
                       2.50000000E-01  5.00000000E-01  5.00000000E-01
           kptopt           0
P           mkmem           2
P          mkqmem           2
P          mk1mem           2
            natom          10
            nband          53
           nbdbuf           4
            ngfft          64      50      75
             nkpt           2
            nstep        2000
             nsym           4
           ntypat           3
              occ      2.000000  2.000000  2.000000  2.000000  2.000000  2.000000
                       2.000000  2.000000  2.000000  2.000000  2.000000  2.000000
                       2.000000  2.000000  2.000000  2.000000  2.000000  2.000000
                       2.000000  2.000000  2.000000  2.000000  2.000000  2.000000
                       2.000000  2.000000  2.000000  2.000000  2.000000  2.000000
                       2.000000  2.000000  2.000000  2.000000  2.000000  2.000000
                       2.000000  2.000000  2.000000  2.000000  2.000000  2.000000
                       2.000000  2.000000  0.000000  0.000000  0.000000  0.000000
                       0.000000  0.000000  0.000000  0.000000  0.000000
        optdriver           1
            prtwf          -1
            rfdir           1       1       1
           rfelfd           2
            rprim      1.0341034548E+01  0.0000000000E+00  0.0000000000E+00
                       0.0000000000E+00  7.9581036166E+00  2.4743602131E+00
                       0.0000000000E+00  0.0000000000E+00  1.2313810337E+01
          spgroup          11
           symrel      1  0  0   0  1  0   0  0  1      -1  0  0   0 -1  0   0  0 -1
                       1  0  0   0 -1  0   0  0 -1      -1  0  0   0  1  0   0  0  1
            tnons      0.0000000  0.0000000  0.0000000     0.0000000  0.0000000 -0.0000000
                       0.5000000  0.0000000 -0.0000000     0.5000000  0.0000000  0.0000000
           tolwfr      1.00000000E-20
            typat      1  1  2  2  3  3  3  3  3  3
           useylm           1
              wtk        0.50000    0.50000
           xangst      1.3680599490E+00  2.7678126498E+00  2.1476940810E+00
                       4.1041798471E+00  1.4434344077E+00  5.6778687311E+00
                       1.3680599490E+00  3.9327657121E+00  5.4874511283E+00
                       4.1041798471E+00  2.7848134542E-01  2.3381116838E+00
                       5.4230224714E+00  7.4542441915E-01  1.3495110941E+00
                       2.6869025733E+00  3.4658226383E+00  6.4760517180E+00
                       4.9217324726E-02  3.4658226383E+00  6.4760517180E+00
                       2.7853372228E+00  7.4542441915E-01  1.3495110941E+00
                       4.1041798471E+00  2.7943266613E+00  3.4430609301E+00
                       1.3680599490E+00  1.4169203962E+00  4.3825018820E+00
            xcart      2.5852586370E+00  5.2304078953E+00  4.0585536303E+00
                       7.7557759111E+00  2.7276957213E+00  1.0729616920E+01
                       2.5852586370E+00  7.4318501406E+00  1.0369779800E+01
                       7.7557759111E+00  5.2625347596E-01  4.4183907505E+00
                       1.0248027283E+01  1.4086480050E+00  2.5502063812E+00
                       5.0775100093E+00  6.5494556116E+00  1.2237964169E+01
                       9.3007264726E-02  6.5494556116E+00  1.2237964169E+01
                       5.2635245388E+00  1.4086480050E+00  2.5502063812E+00
                       7.7557759111E+00  5.2805121157E+00  6.5064422167E+00
                       2.5852586370E+00  2.6775915009E+00  8.2817283339E+00
             xred      2.5000000000E-01  6.5724300000E-01  1.9752600000E-01
                       7.5000000000E-01  3.4275700000E-01  8.0247400000E-01
                       2.5000000000E-01  9.3387200000E-01  6.5447200000E-01
                       7.5000000000E-01  6.6128000000E-02  3.4552800000E-01
                       9.9100600000E-01  1.7700800000E-01  1.7153300000E-01
                       4.9100600000E-01  8.2299200000E-01  8.2846700000E-01
                       8.9940000000E-03  8.2299200000E-01  8.2846700000E-01
                       5.0899400000E-01  1.7700800000E-01  1.7153300000E-01
                       7.5000000000E-01  6.6353900000E-01  3.9505300000E-01
                       2.5000000000E-01  3.3646100000E-01  6.0494700000E-01
            znucl       38.00000   34.00000    8.00000

 chkinp: Checking input parameters for consistency.

== DATASET  1 ==================================================================
-   mpi_nproc: 1, omp_nthreads: -1 (-1 if OMP is not activated)

--- !DatasetInfo
iteration_state: {dtset: 1, }
dimensions: {natom: 10, nkpt: 2, mband: 53, nsppol: 1, nspinor: 1, nspden: 1, mpw: 14116, }
cutoff_energies: {ecut:  44.0, pawecutdg:  -1.0, }
electrons: {nelect:   8.80000000E+01, charge:   0.00000000E+00, occopt:   1.00000000E+00, tsmear:   1.00000000E-02, }
meta: {optdriver: 1, rfelfd: 2, }
...

 Real(R)+Recip(G) space primitive vectors, cartesian coordinates (Bohr,Bohr^-1):
 R(1)= 10.3410345  0.0000000  0.0000000  G(1)=  0.0967021  0.0000000  0.0000000
 R(2)=  0.0000000  7.9581036  2.4743602  G(2)=  0.0000000  0.1256581  0.0000000
 R(3)=  0.0000000  0.0000000 12.3138103  G(3)=  0.0000000 -0.0252500  0.0812096
 Unit cell volume ucvol=  1.0133653E+03 bohr^3
 Angles (23,13,12)=  7.27283109E+01  9.00000000E+01  9.00000000E+01 degrees

 getcut: wavevector=  0.0000  0.0000  0.0000  ngfft=  64  50  75
         ecut(hartree)=     44.000   => boxcut(ratio)=   2.00923

--- Pseudopotential description ------------------------------------------------
- pspini: atom type   1  psp file is /scratch/users/j/a/jabreu/pseudos/PBEsol/Sr.psp8
- pspatm: opening atomic psp file    /scratch/users/j/a/jabreu/pseudos/PBEsol/Sr.psp8
- Sr    ONCVPSP-3.3.0  r_core=   1.66721   1.31335   1.51547
- 38.00000  10.00000    180112                znucl, zion, pspdat
    8 -116133    2    4       600   0.00000   pspcod,pspxc,lmax,lloc,mmax,r2well
    5.99000000000000    6.00000000000000    0.00000000000000   rchrg,fchrg,qchrg
     nproj     2     2     2
     extension_switch     1
  pspatm : epsatm=   12.46450977
         --- l  ekb(1:nproj) -->
             0   10.029206    1.044171
             1    7.472414    1.670829
             2    4.142950    0.968140
 pspatm: atomic psp has been read  and splines computed

- pspini: atom type   2  psp file is /scratch/users/j/a/jabreu/pseudos/PBEsol/Se.psp8
- pspatm: opening atomic psp file    /scratch/users/j/a/jabreu/pseudos/PBEsol/Se.psp8
- Se    ONCVPSP-3.3.0  r_core=   1.81943   1.50330   1.90835
- 34.00000  16.00000    180112                znucl, zion, pspdat
    8 -116133    2    4       600   0.00000   pspcod,pspxc,lmax,lloc,mmax,r2well
    5.99000000000000    5.00000000000000    0.00000000000000   rchrg,fchrg,qchrg
     nproj     2     2     2
     extension_switch     1
  pspatm : epsatm=   29.17862020
         --- l  ekb(1:nproj) -->
             0    8.973804    1.019550
             1    6.849857    1.297308
             2   -9.203962   -3.731027
 pspatm: atomic psp has been read  and splines computed

- pspini: atom type   3  psp file is /scratch/users/j/a/jabreu/pseudos/PBEsol/O.psp8
- pspatm: opening atomic psp file    /scratch/users/j/a/jabreu/pseudos/PBEsol/O.psp8
- O     ONCVPSP-3.3.0  r_core=   1.35509   1.45563   1.26150
-  8.00000   6.00000    180112                znucl, zion, pspdat
    8 -116133    2    4       600   0.00000   pspcod,pspxc,lmax,lloc,mmax,r2well
    5.99000000000000    4.00000000000000    0.00000000000000   rchrg,fchrg,qchrg
     nproj     2     2     1
     extension_switch     1
  pspatm : epsatm=    6.22910522
         --- l  ekb(1:nproj) -->
             0    6.050032    0.820363
             1   -4.739617   -1.153841
             2   -1.335834
 pspatm: atomic psp has been read  and splines computed

   1.06181584E+04                                ecore*ucvol(ha*bohr**3)

 ==>  initialize data related to q vector <==

 The list of irreducible perturbations for this q vector is:
    1)    idir= 1    ipert=  11
    2)    idir= 2    ipert=  11
    3)    idir= 3    ipert=  11

 Perturbation wavevector (in red.coord.)   0.000000  0.000000  0.000000
 Perturbation : derivative vs k along direction   1

 dfpt_looppert : COMMENT -
  In a d/dk calculation, iscf is set to -3 automatically.
 The set of symmetries contains only one element for this perturbation.
 symkpt : not enough symmetry to change the number of k points.

 Initialisation of the first-order wave-functions :
  ireadwf=   0

--- !BeginCycle
iteration_state: {dtset: 1, }
solver: {iscf: 7, nstep: 2000, nline: 4, wfoptalg: 0, }
tolerances: {tolwfr: 1.00E-20, }
...

     iter   2DEtotal(Ha)        deltaE(Ha) residm    vres2
-ETOT  1  -51.461069652273     -5.146E+01 1.242E-01 0.000E+00
 ETOT  2  -51.537193933353     -7.612E-02 1.124E-02 0.000E+00
 ETOT  3  -51.537877839120     -6.839E-04 1.044E-03 0.000E+00
 ETOT  4  -51.537890391845     -1.255E-05 1.803E-04 0.000E+00
 ETOT  5  -51.537890665007     -2.732E-07 1.739E-05 0.000E+00
 ETOT  6  -51.537890671582     -6.574E-09 4.295E-06 0.000E+00
[...]
 ETOT 15  -51.537890671754      1.421E-14 2.039E-13 0.000E+00
 ETOT 16  -51.537890671754      0.000E+00 6.737E-14 0.000E+00
 ETOT 17  -51.537890671754     -7.105E-15 5.944E-15 0.000E+00
 ETOT 18  -51.537890671754      2.132E-14 1.972E-15 0.000E+00
 ETOT 19  -51.537890671754     -2.842E-14 1.749E-16 0.000E+00
 ETOT 20  -51.537890671754      0.000E+00 5.829E-17 0.000E+00
 ETOT 21  -51.537890671754      2.842E-14 5.182E-18 0.000E+00
 ETOT 22  -51.537890671754     -2.842E-14 1.734E-18 0.000E+00
 ETOT 23  -51.537890671754      7.105E-15 1.543E-19 0.000E+00
 ETOT 24  -51.537890671754     -2.132E-14 5.188E-20 0.000E+00
 ETOT 25  -51.537890671754      2.132E-14 9.919E-21 0.000E+00

 At SCF step   25   max residual=  9.92E-21 < tolwfr=  1.00E-20 =>converged.

 ----iterations are completed or convergence reached----

 dfpt_looppert: DFPT cycle converged with prtwf=-1. Will skip output of the 1st-order WFK file.
 dfpt_looppert : ek2=    6.4974721463E+01
          f-sum rule ratio=    9.9392304671E-01
 prteigrs : about to open file /scratch/users/j/a/jabreu/flow_simple_10atoms/flow/w274/t1/tmpdata/tmp_1WF1_EIG
 Expectation of eigenvalue derivatives (hartree) for nkpt=   2  k points:
  (in case of degenerate eigenvalues, averaged derivative)
 kpt#   1, nband= 53, wtk=  0.50000, kpt=  0.2778  0.5000  0.5000 (reduced coord)
  -0.00002   -0.00003    0.00004    0.00001    0.00003   -0.00003    0.00000   -0.00000
   0.00001   -0.00001    0.00010   -0.00003    0.01675    0.00172   -0.00662   -0.03087
  -0.01449   -0.01639    0.00474    0.00215    0.02505    0.01817    0.02033    0.00215
   0.00850   -0.00906   -0.01819    0.05161   -0.04563    0.01801    0.00788    0.01289
  -0.01580   -0.01707    0.05002   -0.03252   -0.05838   -0.07557   -0.01002   -0.00005
  -0.00418    0.00221    0.05294    0.00100    0.00755   -0.05164    0.07369    0.06749
  -0.06534    0.05629    0.04380   -0.00530   -0.01947
 prteigrs : prtvol=0 or 1, do not print more k-points.

 Eight components of 2nd-order total energy (hartree) are
 1,2,3: 0th-order hamiltonian combined with 1st-order wavefunctions
     kin0=   6.45070931E+01 eigvalue=   6.65833273E+00  local=  -2.84741831E+01
 4,5,6: 1st-order hamiltonian combined with 1st and 0th-order wfs
     kin1=  -6.45798731E+01  Hartree=   0.00000000E+00     xc=   0.00000000E+00
 7,8,9: eventually, occupation + non-local contributions
    edocc=   6.14107174E+00     enl0=   2.70557624E+00   enl1=  -3.84959082E+01
 1-9 gives the relaxation energy (to be shifted if some occ is /=2.0)
   erelax=  -5.15378907E+01
  No Ewald or frozen-wf contrib.: the relaxation energy is the total one
 2DEtotal=   -0.5153789067E+02 Ha. Also 2DEtotal=   -0.140241732640E+04 eV
    (  non-var. 2DEtotal :   -5.1537890672E+01 Ha)

 Perturbation wavevector (in red.coord.)   0.000000  0.000000  0.000000
 Perturbation : derivative vs k along direction   2
 The set of symmetries contains only one element for this perturbation.
 symkpt : not enough symmetry to change the number of k points.

[...]

 Perturbation wavevector (in red.coord.)   0.000000  0.000000  0.000000
 Perturbation : derivative vs k along direction   3
 The set of symmetries contains only one element for this perturbation.
 symkpt : not enough symmetry to change the number of k points.

 Initialisation of the first-order wave-functions :
  ireadwf=   0

--- !BeginCycle
iteration_state: {dtset: 1, }
solver: {iscf: 7, nstep: 2000, nline: 4, wfoptalg: 0, }
tolerances: {tolwfr: 1.00E-20, }
...

     iter   2DEtotal(Ha)        deltaE(Ha) residm    vres2
-ETOT  1  -40.049736844742     -4.005E+01 8.041E-02 0.000E+00
 ETOT  2  -40.112003378439     -6.227E-02 6.914E-03 0.000E+00
 ETOT  3  -40.112602765083     -5.994E-04 5.079E-04 0.000E+00
 ETOT  4  -40.112614242684     -1.148E-05 7.298E-05 0.000E+00
 ETOT  5  -40.112614499245     -2.566E-07 8.153E-06 0.000E+00
 ETOT  6  -40.112614505474     -6.229E-09 1.446E-06 0.000E+00
 ETOT  7  -40.112614505633     -1.592E-10 1.814E-07 0.000E+00
 ETOT  8  -40.112614505638     -4.256E-12 3.563E-08 0.000E+00
 ETOT  9  -40.112614505638     -1.421E-13 4.685E-09 0.000E+00
 ETOT 10  -40.112614505638      2.132E-14 9.857E-10 0.000E+00
 ETOT 11  -40.112614505638     -2.842E-14 1.320E-10 0.000E+00
 ETOT 12  -40.112614505638      2.842E-14 2.918E-11 0.000E+00
 ETOT 13  -40.112614505638     -2.132E-14 3.924E-12 0.000E+00
 ETOT 14  -40.112614505638     -7.105E-15 9.010E-13 0.000E+00
 ETOT 15  -40.112614505638      0.000E+00 1.213E-13 0.000E+00
 ETOT 16  -40.112614505638      0.000E+00 2.865E-14 0.000E+00
 ETOT 17  -40.112614505638      7.105E-15 3.860E-15 0.000E+00
 ETOT 18  -40.112614505638      7.105E-15 9.319E-16 0.000E+00
 ETOT 19  -40.112614505638      0.000E+00 1.258E-16 0.000E+00
 ETOT 20  -40.112614505638     -1.421E-14 3.091E-17 0.000E+00
 ETOT 21  -40.112614505638      0.000E+00 4.184E-18 0.000E+00
 ETOT 22  -40.112614505638      1.421E-14 1.043E-18 0.000E+00
 ETOT 23  -40.112614505638      0.000E+00 1.415E-19 0.000E+00
 ETOT 24  -40.112614505638     -1.421E-14 3.577E-20 0.000E+00
 ETOT 25  -40.112614505638      1.421E-14 9.872E-21 0.000E+00

 At SCF step   25   max residual=  9.87E-21 < tolwfr=  1.00E-20 =>converged.

 ----iterations are completed or convergence reached----

 dfpt_looppert: DFPT cycle converged with prtwf=-1. Will skip output of the 1st-order WFK file.
 dfpt_looppert : ek2=    5.0253320760E+01
          f-sum rule ratio=    1.0069188432E+00
 prteigrs : about to open file /scratch/users/j/a/jabreu/flow_simple_10atoms/flow/w274/t1/tmpdata/tmp_1WF1_EIG
 Expectation of eigenvalue derivatives (hartree) for nkpt=   2  k points:
  (in case of degenerate eigenvalues, averaged derivative)
 kpt#   1, nband= 53, wtk=  0.50000, kpt=  0.2778  0.5000  0.5000 (reduced coord)
   0.00000   -0.00000    0.00000   -0.00000   -0.00000    0.00000    0.00000    0.00000
   0.00000    0.00000    0.00000    0.00000   -0.00000   -0.00000    0.00000   -0.00000
  -0.00000   -0.00000   -0.00000    0.00000    0.00000   -0.00000    0.00000   -0.00000
  -0.00000   -0.00000    0.00000   -0.00000   -0.00000   -0.00000   -0.00000    0.00000
   0.00000   -0.00000    0.00000   -0.00000    0.00000   -0.00000   -0.00000    0.00000
   0.00000   -0.00000   -0.00000   -0.00000   -0.00000   -0.00000    0.00000   -0.00000
  -0.00000    0.00000    0.00000   -0.00000    0.00157
 prteigrs : prtvol=0 or 1, do not print more k-points.

 Eight components of 2nd-order total energy (hartree) are
 1,2,3: 0th-order hamiltonian combined with 1st-order wavefunctions
     kin0=   5.02821987E+01 eigvalue=   5.01778414E+00  local=  -2.21449367E+01
 4,5,6: 1st-order hamiltonian combined with 1st and 0th-order wfs
     kin1=  -5.06010156E+01  Hartree=   0.00000000E+00     xc=   0.00000000E+00
 7,8,9: eventually, occupation + non-local contributions
    edocc=   4.84425200E+00     enl0=   2.11331635E+00   enl1=  -2.96242134E+01
 1-9 gives the relaxation energy (to be shifted if some occ is /=2.0)
   erelax=  -4.01126145E+01
  No Ewald or frozen-wf contrib.: the relaxation energy is the total one
 2DEtotal=   -0.4011261451E+02 Ha. Also 2DEtotal=   -0.109151975094E+04 eV
    (  non-var. 2DEtotal :   -4.0112614506E+01 Ha)

 CALCULATION OF EFFECTIVE MASSES
 NOTE : Additional infos (eff. mass eigenvalues, eigenvectors and, if degenerate, average mass) are available in stdout.

 K-point ( 0.278, 0.500, 0.500) | band =    44
 Effective mass tensor:
             -4.6851008838             -0.0000457867              0.0001551044
             -0.0000457867             -1.0736843094              0.6007422828
              0.0001551044              0.6007422828             -2.9268506606
 Effective mass tensor eigenvalues:
             -4.6851009003             -3.1045535146             -0.8959814389
 Angular average effective mass 1/(<1/m>)=  -1.8163713547
 Angular average effective mass for Frohlich model (<m**0.5>)**2=  -2.1319833561
 Effective masses along directions: (cart. coord. / red. coord. -> eff. mass)
    1:   1.000000  0.000000  0.000000 /   1.000000  0.000000  0.000000 ->  -4.6851008754
    2:   0.000000  1.000000  0.000000 /   0.000000  1.000000  0.000000 ->  -0.9503806864
    3:   0.000000  0.000000  1.000000 /   0.000000  0.197004  0.980403 ->  -2.5907264470
    4:   0.577350  0.577350  0.577350 /   0.539501  0.544271  0.642423 ->  -1.4398182414
    5:   0.000000  0.707107  0.707107 /   0.000000  0.646415  0.762986 ->  -1.0694394054
    6:   0.707107  0.000000  0.707107 /   0.635617  0.152088  0.756875 ->  -3.3363581061
    7:   0.707107  0.707107  0.000000 /   0.792496  0.609877  0.000000 ->  -1.5802203885

 K-point ( 0.250, 0.500, 0.500) | band =    45
 Effective mass tensor:
              1.1529951374             -0.0000195749              0.0000900632
             -0.0000195749              0.7871888623              0.1825719617
              0.0000900632              0.1825719617              2.3176656866
 Effective mass tensor eigenvalues:
              0.7657110917              1.1529951333              2.3391434613
 Angular average effective mass 1/(<1/m>)=   1.1534961746
 Angular average effective mass for Frohlich model (<m**0.5>)**2=   1.2211764398
 Effective masses along directions: (cart. coord. / red. coord. -> eff. mass)
    1:   1.000000  0.000000  0.000000 /   1.000000  0.000000  0.000000 ->   1.1529951330
    2:   0.000000  1.000000  0.000000 /   0.000000  1.000000  0.000000 ->   0.7728069250
    3:   0.000000  0.000000  1.000000 /   0.000000  0.197004  0.980403 ->   2.2753219380
    4:   0.577350  0.577350  0.577350 /   0.539501  0.544271  0.642423 ->   1.2516105204
    5:   0.000000  0.707107  0.707107 /   0.000000  0.646415  0.762986 ->   1.3075162589
    6:   0.707107  0.000000  0.707107 /   0.635617  0.152088  0.756875 ->   1.5305351633
    7:   0.707107  0.707107  0.000000 /   0.792496  0.609877  0.000000 ->   0.9253473803

 END OF EFFECTIVE MASSES SECTION

 ---- first-order wavefunction calculations are completed ----

 Total localisation tensor (bohr^2) in cartesian coordinates
  WARNING : still subject to testing - especially symmetries.
      direction              matrix element
   alpha     beta       real part   imaginary part
     1        1       0.6464839086    0.0000000000
     1        2       0.0000000000    0.0000000000
     1        3       0.0000000000    0.0000000000
     2        1       0.0000000000    0.0000000000
     2        2       0.9167307401    0.0000000000
     2        3       0.2850329901    0.0000000000
     3        1       0.0000000000    0.0000000000
     3        2       0.2850329901    0.0000000000
     3        3       0.7941895080    0.0000000000

 respfn : d/dk was computed, but no 2DTE, so no DDB output.

== END DATASET(S) ==============================================================

 -outvars: echo values of variables after computation  --------
            acell      1.0000000000E+00  1.0000000000E+00  1.0000000000E+00 Bohr
              amu      8.76200000E+01  7.89600000E+01  1.59994000E+01
             ecut      4.40000000E+01 Hartree
           etotal     -4.0112614506E+01
            fcart      0.0000000000E+00  0.0000000000E+00  0.0000000000E+00
                       0.0000000000E+00  0.0000000000E+00  0.0000000000E+00
                       0.0000000000E+00  0.0000000000E+00  0.0000000000E+00
                       0.0000000000E+00  0.0000000000E+00  0.0000000000E+00
                       0.0000000000E+00  0.0000000000E+00  0.0000000000E+00
                       0.0000000000E+00  0.0000000000E+00  0.0000000000E+00
                       0.0000000000E+00  0.0000000000E+00  0.0000000000E+00
                       0.0000000000E+00  0.0000000000E+00  0.0000000000E+00
                       0.0000000000E+00  0.0000000000E+00  0.0000000000E+00
                       0.0000000000E+00  0.0000000000E+00  0.0000000000E+00
-          fftalg         512
           irdden           1
           irdwfk           1
              ixc     -116133
              kpt      2.77777778E-01  5.00000000E-01  5.00000000E-01
                       2.50000000E-01  5.00000000E-01  5.00000000E-01
           kptopt           0
P           mkmem           2
P          mkqmem           2
P          mk1mem           2
            natom          10
            nband          53
           nbdbuf           4
            ngfft          64      50      75
             nkpt           2
            nstep        2000
             nsym           4
           ntypat           3
              occ      2.000000  2.000000  2.000000  2.000000  2.000000  2.000000
                       2.000000  2.000000  2.000000  2.000000  2.000000  2.000000
                       2.000000  2.000000  2.000000  2.000000  2.000000  2.000000
                       2.000000  2.000000  2.000000  2.000000  2.000000  2.000000
                       2.000000  2.000000  2.000000  2.000000  2.000000  2.000000
                       2.000000  2.000000  2.000000  2.000000  2.000000  2.000000
                       2.000000  2.000000  2.000000  2.000000  2.000000  2.000000
                       2.000000  2.000000  0.000000  0.000000  0.000000  0.000000
                       0.000000  0.000000  0.000000  0.000000  0.000000
        optdriver           1
            prtwf          -1
            rfdir           1       1       1
           rfelfd           2
            rprim      1.0341034548E+01  0.0000000000E+00  0.0000000000E+00
                       0.0000000000E+00  7.9581036166E+00  2.4743602131E+00
                       0.0000000000E+00  0.0000000000E+00  1.2313810337E+01
          spgroup          11
           strten      0.0000000000E+00  0.0000000000E+00  0.0000000000E+00
                       0.0000000000E+00  0.0000000000E+00  0.0000000000E+00
           symrel      1  0  0   0  1  0   0  0  1      -1  0  0   0 -1  0   0  0 -1
                       1  0  0   0 -1  0   0  0 -1      -1  0  0   0  1  0   0  0  1
            tnons      0.0000000  0.0000000  0.0000000     0.0000000  0.0000000 -0.0000000
                       0.5000000  0.0000000 -0.0000000     0.5000000  0.0000000  0.0000000
           tolwfr      1.00000000E-20
            typat      1  1  2  2  3  3  3  3  3  3
           useylm           1
              wtk        0.50000    0.50000
           xangst      1.3680599490E+00  2.7678126498E+00  2.1476940810E+00
                       4.1041798471E+00  1.4434344077E+00  5.6778687311E+00
                       1.3680599490E+00  3.9327657121E+00  5.4874511283E+00
                       4.1041798471E+00  2.7848134542E-01  2.3381116838E+00
                       5.4230224714E+00  7.4542441915E-01  1.3495110941E+00
                       2.6869025733E+00  3.4658226383E+00  6.4760517180E+00
                       4.9217324726E-02  3.4658226383E+00  6.4760517180E+00
                       2.7853372228E+00  7.4542441915E-01  1.3495110941E+00
                       4.1041798471E+00  2.7943266613E+00  3.4430609301E+00
                       1.3680599490E+00  1.4169203962E+00  4.3825018820E+00
            xcart      2.5852586370E+00  5.2304078953E+00  4.0585536303E+00
                       7.7557759111E+00  2.7276957213E+00  1.0729616920E+01
                       2.5852586370E+00  7.4318501406E+00  1.0369779800E+01
                       7.7557759111E+00  5.2625347596E-01  4.4183907505E+00
                       1.0248027283E+01  1.4086480050E+00  2.5502063812E+00
                       5.0775100093E+00  6.5494556116E+00  1.2237964169E+01
                       9.3007264726E-02  6.5494556116E+00  1.2237964169E+01
                       5.2635245388E+00  1.4086480050E+00  2.5502063812E+00
                       7.7557759111E+00  5.2805121157E+00  6.5064422167E+00
                       2.5852586370E+00  2.6775915009E+00  8.2817283339E+00
             xred      2.5000000000E-01  6.5724300000E-01  1.9752600000E-01
                       7.5000000000E-01  3.4275700000E-01  8.0247400000E-01
                       2.5000000000E-01  9.3387200000E-01  6.5447200000E-01
                       7.5000000000E-01  6.6128000000E-02  3.4552800000E-01
                       9.9100600000E-01  1.7700800000E-01  1.7153300000E-01
                       4.9100600000E-01  8.2299200000E-01  8.2846700000E-01
                       8.9940000000E-03  8.2299200000E-01  8.2846700000E-01
                       5.0899400000E-01  1.7700800000E-01  1.7153300000E-01
                       7.5000000000E-01  6.6353900000E-01  3.9505300000E-01
                       2.5000000000E-01  3.3646100000E-01  6.0494700000E-01
            znucl       38.00000   34.00000    8.00000

- Timing analysis has been suppressed with timopt=0

 Suggested references for the acknowledgment of ABINIT usage.

 Calculation completed.
.Delivered   2 WARNINGs and   5 COMMENTs to log file.