.Version 9.5.1 of ABINIT

 ABINIT is a project of the Universite Catholique de Louvain,
 Corning Inc. and other collaborators, see ~abinit/doc/developers/contributors.txt .
 acknowledgments of the ABINIT effort.

.Starting date : Tue 27 Apr 2021.
- ( at 18h39 )

- input  file    -> /scratch/users/j/a/jabreu/flow_simple_4atoms/flow/w226/t1/run.abi
- output file    -> /scratch/users/j/a/jabreu/flow_simple_4atoms/flow/w226/t1/run.abo
- root for input  files -> /scratch/users/j/a/jabreu/flow_simple_4atoms/flow/w226/t1/indata/in
- root for output files -> /scratch/users/j/a/jabreu/flow_simple_4atoms/flow/w226/t1/outdata/out

 Symmetries : space group R-3 m (#166); Bravais hR (rhombohedral)
     intxc =       0      iscf =       7    lmnmax =      25     lnmax =       7
     mgfft =      80  mpssoang =       4    mqgrid =    3001     natom =       4
  nloc_mem =       1    nspden =       1   nspinor =       1    nsppol =       1
      nsym =      12    n1xccc =    2501    ntypat =       3    occopt =       1
   xclevel =       2
-    mband =          30        mffmem =           1         mkmem =           2
-   mkqmem =           2        mk1mem =           2           mpw =        8893
      nfft =      512000          nkpt =           2
  Rough estimation (10% accuracy) of disk space for files :

------------- Echo of variables that govern the present computation ------------
-
- outvars: echo of selected default values
-   iomode0 =  0 , fftalg0 =512 , wfoptalg0 =  0
-
- outvars: echo of global parameters not present in the input file
-  max_nthreads =    0
-
 -outvars: echo values of preprocessed input variables --------
            acell      1.0000000000E+00  1.0000000000E+00  1.0000000000E+00 Bohr
              amu      1.37327000E+02  2.00590000E+02  1.59994000E+01
             ecut      4.40000000E+01 Hartree
-          fftalg         512
           irdden           1
           irdwfk           1
           istwfk        1    1
              ixc     -116133
              kpt      5.00000000E-01  0.00000000E+00  0.00000000E+00
                       0.00000000E+00  0.00000000E+00  0.00000000E+00
           kptopt           0
P           mkmem           2
P          mkqmem           2
P          mk1mem           2
            natom           4
            nband          30
           nbdbuf           4
            ngfft          80      80      80
             nkpt           2
            nstep         100
             nsym          12
           ntypat           3
              occ      2.000000  2.000000  2.000000  2.000000  2.000000  2.000000
                       2.000000  2.000000  2.000000  2.000000  2.000000  2.000000
                       2.000000  2.000000  2.000000  2.000000  2.000000  2.000000
                       2.000000  2.000000  2.000000  0.000000  0.000000  0.000000
                       0.000000  0.000000  0.000000  0.000000  0.000000  0.000000
        optdriver           1
            prtwf          -1
            rfdir           1       1       1
           rfelfd           2
            rprim      7.4071303132E+00  0.0000000000E+00  1.0587046467E+01
                       3.3358695301E+00  6.6134373782E+00  1.0587046467E+01
                       0.0000000000E+00  0.0000000000E+00  1.2920957099E+01
          spgroup         166
           symrel      1  0  0   0  1  0   0  0  1      -1  0  0   0 -1  0   0  0 -1
                       0  1  0   1  0  0   0  0  1       0 -1  0  -1  0  0   0  0 -1
                       0  0  1   1  0  0   0  1  0       0  0 -1  -1  0  0   0 -1  0
                       1  0  0   0  0  1   0  1  0      -1  0  0   0  0 -1   0 -1  0
                       0  1  0   0  0  1   1  0  0       0 -1  0   0  0 -1  -1  0  0
                       0  0  1   0  1  0   1  0  0       0  0 -1   0 -1  0  -1  0  0
           tolwfr      1.00000000E-20
            typat      1  2  3  3
           useylm           1
              wtk        0.50000    0.50000
           xangst      2.8424753345E+00  1.7498401655E+00  9.0211617014E+00
                       0.0000000000E+00  0.0000000000E+00  0.0000000000E+00
                       5.7770468698E-01  3.5563751523E-01  1.8334609042E+00
                       5.1072459820E+00  3.1440428157E+00  1.6208862499E+01
            xcart      5.3714999216E+00  3.3067186891E+00  1.7047525016E+01
                       0.0000000000E+00  0.0000000000E+00  0.0000000000E+00
                       1.0917036441E+00  6.7205750637E-01  3.4647389843E+00
                       9.6512961992E+00  5.9413798718E+00  3.0630311048E+01
             xred      5.0000000000E-01  5.0000000000E-01  5.0000000000E-01
                       0.0000000000E+00  0.0000000000E+00  0.0000000000E+00
                       1.0162000000E-01  1.0162000000E-01  1.0162000000E-01
                       8.9838000000E-01  8.9838000000E-01  8.9838000000E-01
            znucl       56.00000   80.00000    8.00000

 chkinp: Checking input parameters for consistency.

== DATASET  1 ==================================================================
-   mpi_nproc: 1, omp_nthreads: -1 (-1 if OMP is not activated)

--- !DatasetInfo
iteration_state: {dtset: 1, }
dimensions: {natom: 4, nkpt: 2, mband: 30, nsppol: 1, nspinor: 1, nspden: 1, mpw: 8893, }
cutoff_energies: {ecut:  44.0, pawecutdg:  -1.0, }
electrons: {nelect:   4.20000000E+01, charge:   0.00000000E+00, occopt:   1.00000000E+00, tsmear:   1.00000000E-02, }
meta: {optdriver: 1, rfelfd: 2, }
...

 Real(R)+Recip(G) space primitive vectors, cartesian coordinates (Bohr,Bohr^-1):
 R(1)=  7.4071303  0.0000000 10.5870465  G(1)=  0.1350051 -0.0680976  0.0000000
 R(2)=  3.3358695  6.6134374 10.5870465  G(2)=  0.0000000  0.1512073  0.0000000
 R(3)=  0.0000000  0.0000000 12.9209571  G(3)= -0.1106191 -0.0680976  0.0773936
 Unit cell volume ucvol=  6.3295366E+02 bohr^3
 Angles (23,13,12)=  3.49782077E+01  3.49782077E+01  3.49782077E+01 degrees

 getcut: wavevector=  0.0000  0.0000  0.0000  ngfft=  80  80  80
         ecut(hartree)=     44.000   => boxcut(ratio)=   2.07364

--- Pseudopotential description ------------------------------------------------
- pspini: atom type   1  psp file is /scratch/users/j/a/jabreu/pseudos/PBEsol/Ba.psp8
- pspatm: opening atomic psp file    /scratch/users/j/a/jabreu/pseudos/PBEsol/Ba.psp8
- Ba    ONCVPSP-3.3.0  r_core=   2.15444   1.91218   2.15444
- 56.00000  10.00000    180112                znucl, zion, pspdat
    8 -116133    2    4       600   0.00000   pspcod,pspxc,lmax,lloc,mmax,r2well
    5.99000000000000    5.00000000000000    0.00000000000000   rchrg,fchrg,qchrg
     nproj     2     2     2
     extension_switch     1
  pspatm : epsatm=   26.37418029
         --- l  ekb(1:nproj) -->
             0    6.652372    0.677024
             1    5.027722    0.408462
             2    2.543237    0.416854
 pspatm: atomic psp has been read  and splines computed

- pspini: atom type   2  psp file is /scratch/users/j/a/jabreu/pseudos/PBEsol/Hg.psp8
- pspatm: opening atomic psp file    /scratch/users/j/a/jabreu/pseudos/PBEsol/Hg.psp8
- Hg    ONCVPSP-3.3.0  r_core=   1.60079   1.60079   1.45509   1.60079
- 80.00000  20.00000    180112                znucl, zion, pspdat
    8 -116133    3    4       600   0.00000   pspcod,pspxc,lmax,lloc,mmax,r2well
    5.99000000000000    5.00000000000000    0.00000000000000   rchrg,fchrg,qchrg
     nproj     2     2     2     1
     extension_switch     1
  pspatm : epsatm=   30.52477316
         --- l  ekb(1:nproj) -->
             0   15.280580    2.063595
             1   11.999965    1.374025
             2    2.245749    0.205661
             3    0.961656
 pspatm: atomic psp has been read  and splines computed

- pspini: atom type   3  psp file is /scratch/users/j/a/jabreu/pseudos/PBEsol/O.psp8
- pspatm: opening atomic psp file    /scratch/users/j/a/jabreu/pseudos/PBEsol/O.psp8
- O     ONCVPSP-3.3.0  r_core=   1.35509   1.45563   1.26150
-  8.00000   6.00000    180112                znucl, zion, pspdat
    8 -116133    2    4       600   0.00000   pspcod,pspxc,lmax,lloc,mmax,r2well
    5.99000000000000    4.00000000000000    0.00000000000000   rchrg,fchrg,qchrg
     nproj     2     2     1
     extension_switch     1
  pspatm : epsatm=    6.22910522
         --- l  ekb(1:nproj) -->
             0    6.050032    0.820363
             1   -4.739617   -1.153841
             2   -1.335834
 pspatm: atomic psp has been read  and splines computed

   2.91300088E+03                                ecore*ucvol(ha*bohr**3)

-inwffil : will read wavefunctions from disk file /scratch/users/j/a/jabreu/flow_simple_4atoms/flow/w226/t1/indata/in_WFK

 ==>  initialize data related to q vector <==

 The list of irreducible perturbations for this q vector is:
    1)    idir= 1    ipert=   5
    2)    idir= 2    ipert=   5
    3)    idir= 3    ipert=   5

 Perturbation wavevector (in red.coord.)   0.000000  0.000000  0.000000
 Perturbation : derivative vs k along direction   1

 dfpt_looppert : COMMENT -
  In a d/dk calculation, iscf is set to -3 automatically.
 The set of symmetries contains only one element for this perturbation.
 symkpt : not enough symmetry to change the number of k points.

[...]

 Initialisation of the first-order wave-functions :
  ireadwf=   0

--- !BeginCycle
iteration_state: {dtset: 1, }
solver: {iscf: 7, nstep: 100, nline: 4, wfoptalg: 0, }
tolerances: {tolwfr: 1.00E-20, }
...

     iter   2DEtotal(Ha)        deltaE(Ha) residm    vres2
-ETOT  1  -41.557302614214     -4.156E+01 8.044E-02 0.000E+00
 ETOT  2  -41.580280051080     -2.298E-02 5.054E-04 0.000E+00
 ETOT  3  -41.580320663777     -4.061E-05 1.438E-05 0.000E+00
 ETOT  4  -41.580320827848     -1.641E-07 1.877E-07 0.000E+00
 ETOT  5  -41.580320828682     -8.342E-10 1.577E-08 0.000E+00
 ETOT  6  -41.580320828687     -4.825E-12 4.204E-10 0.000E+00
 ETOT  7  -41.580320828687      7.816E-14 3.770E-11 0.000E+00
 ETOT  8  -41.580320828687     -9.237E-14 6.566E-13 0.000E+00
 ETOT  9  -41.580320828687      2.842E-14 5.336E-14 0.000E+00
 ETOT 10  -41.580320828687      3.553E-14 9.282E-16 0.000E+00
 ETOT 11  -41.580320828687     -7.105E-15 7.720E-17 0.000E+00
 ETOT 12  -41.580320828687     -2.842E-14 1.341E-18 0.000E+00
 ETOT 13  -41.580320828687      1.421E-14 1.143E-19 0.000E+00
 ETOT 14  -41.580320828687      7.105E-15 9.878E-21 0.000E+00

 At SCF step   14   max residual=  9.88E-21 < tolwfr=  1.00E-20 =>converged.

 ----iterations are completed or convergence reached----

 dfpt_looppert: DFPT cycle converged with prtwf=-1. Will skip output of the 1st-order WFK file.
 dfpt_looppert : ek2=    7.5820131189E+01
          f-sum rule ratio=    1.0295303195E+00
 prteigrs : about to open file /scratch/users/j/a/jabreu/flow_simple_4atoms/flow/w226/t1/tmpdata/tmp_1WF1_EIG
 Expectation of eigenvalue derivatives (hartree) for nkpt=   2  k points:
  (in case of degenerate eigenvalues, averaged derivative)
 kpt#   1, nband= 30, wtk=  0.50000, kpt=  0.5000  0.0000  0.0000 (reduced coord)
  -0.00000   -0.00000   -0.00000    0.00000   -0.00000    0.00000    0.00000   -0.00000
  -0.00000   -0.00000   -0.00000   -0.00000    0.00000   -0.00000   -0.00000    0.00000
  -0.00000    0.00000    0.00000    0.00000    0.00000    0.00000    0.00000    0.00000
  -0.00000   -0.00000   -0.00000   -0.00000    0.00000    0.00000
 prteigrs : prtvol=0 or 1, do not print more k-points.

 Eight components of 2nd-order total energy (hartree) are
 1,2,3: 0th-order hamiltonian combined with 1st-order wavefunctions
     kin0=   5.38485377E+01 eigvalue=   1.61985416E+00  local=  -2.80183376E+01
 4,5,6: 1st-order hamiltonian combined with 1st and 0th-order wfs
     kin1=  -7.80591239E+01  Hartree=   0.00000000E+00     xc=   0.00000000E+00
 7,8,9: eventually, occupation + non-local contributions
    edocc=   1.15256460E+01     enl0=   2.60462049E+00   enl1=  -5.10151777E+00
 1-9 gives the relaxation energy (to be shifted if some occ is /=2.0)
   erelax=  -4.15803208E+01
  No Ewald or frozen-wf contrib.: the relaxation energy is the total one
 2DEtotal=   -0.4158032083E+02 Ha. Also 2DEtotal=   -0.113145807109E+04 eV
    (  non-var. 2DEtotal :   -4.1580320829E+01 Ha)

 Perturbation wavevector (in red.coord.)   0.000000  0.000000  0.000000
 Perturbation : derivative vs k along direction   2
 The set of symmetries contains only one element for this perturbation.
 symkpt : not enough symmetry to change the number of k points.

[...]

 Perturbation wavevector (in red.coord.)   0.000000  0.000000  0.000000
 Perturbation : derivative vs k along direction   3
 The set of symmetries contains only one element for this perturbation.
 symkpt : not enough symmetry to change the number of k points.

-inwffil : will read wavefunctions from disk file /scratch/users/j/a/jabreu/flow_simple_4atoms/flow/w226/t1/indata/in_WFK

 Initialisation of the first-order wave-functions :
  ireadwf=   0

--- !BeginCycle
iteration_state: {dtset: 1, }
solver: {iscf: 7, nstep: 100, nline: 4, wfoptalg: 0, }
tolerances: {tolwfr: 1.00E-20, }
...

     iter   2DEtotal(Ha)        deltaE(Ha) residm    vres2
-ETOT  1  -40.421476287299     -4.042E+01 1.073E-01 0.000E+00
 ETOT  2  -40.443732615157     -2.226E-02 1.507E-03 0.000E+00
 ETOT  3  -40.443795118406     -6.250E-05 3.448E-05 0.000E+00
 ETOT  4  -40.443795493932     -3.755E-07 9.415E-07 0.000E+00
 ETOT  5  -40.443795496684     -2.752E-09 3.247E-08 0.000E+00
 ETOT  6  -40.443795496706     -2.175E-11 9.556E-10 0.000E+00
 ETOT  7  -40.443795496706     -1.634E-13 3.430E-11 0.000E+00
 ETOT  8  -40.443795496706     -2.132E-14 1.034E-12 0.000E+00
 ETOT  9  -40.443795496706      1.421E-14 4.473E-14 0.000E+00
 ETOT 10  -40.443795496706     -2.842E-14 1.165E-15 0.000E+00
 ETOT 11  -40.443795496706      3.553E-14 7.617E-17 0.000E+00
 ETOT 12  -40.443795496706     -7.105E-15 1.822E-18 0.000E+00
 ETOT 13  -40.443795496706     -7.105E-15 1.293E-19 0.000E+00
 ETOT 14  -40.443795496706     -7.105E-15 9.971E-21 0.000E+00

 At SCF step   14   max residual=  9.97E-21 < tolwfr=  1.00E-20 =>converged.

 ----iterations are completed or convergence reached----

 dfpt_looppert: DFPT cycle converged with prtwf=-1. Will skip output of the 1st-order WFK file.
 dfpt_looppert : ek2=    7.5820131189E+01
          f-sum rule ratio=    1.0003109072E+00
 prteigrs : about to open file /scratch/users/j/a/jabreu/flow_simple_4atoms/flow/w226/t1/tmpdata/tmp_1WF1_EIG
 Expectation of eigenvalue derivatives (hartree) for nkpt=   2  k points:
  (in case of degenerate eigenvalues, averaged derivative)
 kpt#   1, nband= 30, wtk=  0.50000, kpt=  0.5000  0.0000  0.0000 (reduced coord)
   0.00000   -0.00000    0.00000   -0.00000    0.00000    0.00000   -0.00000    0.00000
   0.00000   -0.00000    0.00000   -0.00000   -0.00000   -0.00000   -0.00000    0.00000
  -0.00000   -0.00000   -0.00000   -0.00000   -0.00000   -0.00000    0.00000   -0.00000
   0.00000    0.00000    0.00000   -0.00000    0.00000    0.00011
 prteigrs : prtvol=0 or 1, do not print more k-points.

 Eight components of 2nd-order total energy (hartree) are
 1,2,3: 0th-order hamiltonian combined with 1st-order wavefunctions
     kin0=   5.13609593E+01 eigvalue=   1.64166843E+00  local=  -2.62549137E+01
 4,5,6: 1st-order hamiltonian combined with 1st and 0th-order wfs
     kin1=  -7.58437042E+01  Hartree=   0.00000000E+00     xc=   0.00000000E+00
 7,8,9: eventually, occupation + non-local contributions
    edocc=   1.13910526E+01     enl0=   2.30502885E+00   enl1=  -5.04388678E+00
 1-9 gives the relaxation energy (to be shifted if some occ is /=2.0)
   erelax=  -4.04437955E+01
  No Ewald or frozen-wf contrib.: the relaxation energy is the total one
 2DEtotal=   -0.4044379550E+02 Ha. Also 2DEtotal=   -0.110053164402E+04 eV
    (  non-var. 2DEtotal :   -4.0443795497E+01 Ha)

 CALCULATION OF EFFECTIVE MASSES
 NOTE : Additional infos (eff. mass eigenvalues, eigenvectors and, if degenerate, average mass) are available in stdout.

 K-point ( 0.500, 0.000, 0.000) | band =    21
 Effective mass tensor:
             -2.5523586698              1.2508419449              1.5717705499
              1.2508419449             -2.2046334062             -1.1376670519
              1.5717705499             -1.1376670519             -2.1493984101
 Effective mass tensor eigenvalues:
             -4.9693599300             -1.1722112117             -0.7648193445
 Angular average effective mass 1/(<1/m>)=  -1.2702068470
 Angular average effective mass for Frohlich model (<m**0.5>)**2=  -1.4557467611
 Effective masses along directions: (cart. coord. / red. coord. -> eff. mass)
    1:   1.000000  0.000000  0.000000 /   0.911799  0.410637  0.000000 ->  -1.2934749166
    2:   0.000000  1.000000  0.000000 /   0.000000  1.000000  0.000000 ->  -1.4773906347
    3:   0.000000  0.000000  1.000000 /   0.535326  0.535326  0.653339 ->  -1.0966839232
    4:   0.577350  0.577350  0.577350 /   0.595689  0.679846  0.427742 ->  -0.9197301690
    5:   0.000000  0.707107  0.707107 /   0.441551  0.717376  0.538891 ->  -1.7126784623
    6:   0.707107  0.000000  0.707107 /   0.687728  0.532127  0.493833 ->  -0.7687287233
    7:   0.707107  0.707107  0.000000 /   0.597166  0.802118  0.000000 ->  -1.0786400015

 K-point ( 0.000, 0.000, 0.000) | band =    22
 Effective mass tensor:
              0.7060282493             -0.0180803529             -0.0918856592
             -0.0180803529              0.7239823648             -0.0564632400
             -0.0918856592             -0.0564632400              0.4432839063
 Effective mass tensor eigenvalues:
              0.4033754887              0.7346836566              0.7352353751
 Angular average effective mass 1/(<1/m>)=   0.5768877490
 Angular average effective mass for Frohlich model (<m**0.5>)**2=   0.5921345294
 Effective masses along directions: (cart. coord. / red. coord. -> eff. mass)
    1:   1.000000  0.000000  0.000000 /   0.911799  0.410637  0.000000 ->   0.6857442179
    2:   0.000000  1.000000  0.000000 /   0.000000  1.000000  0.000000 ->   0.7154990603
    3:   0.000000  0.000000  1.000000 /   0.535326  0.535326  0.653339 ->   0.4265442062
    4:   0.577350  0.577350  0.577350 /   0.595689  0.679846  0.427742 ->   0.4744837596
    5:   0.000000  0.707107  0.707107 /   0.441551  0.717376  0.538891 ->   0.4850584804
    6:   0.707107  0.000000  0.707107 /   0.687728  0.532127  0.493833 ->   0.4522144005
    7:   0.707107  0.707107  0.000000 /   0.597166  0.802118  0.000000 ->   0.6717982124

 END OF EFFECTIVE MASSES SECTION

 ---- first-order wavefunction calculations are completed ----

 Total localisation tensor (bohr^2) in cartesian coordinates
  WARNING : still subject to testing - especially symmetries.
      direction              matrix element
   alpha     beta       real part   imaginary part
     1        1       1.1764322824    0.0000000000
     1        2       0.3569724147    0.0000000000
     1        3       1.9955753417    0.0000000000
     2        1       0.3569724147    0.0000000000
     2        2       0.7077059486    0.0000000000
     2        3       1.1329230677    0.0000000000
     3        1       1.9955753417    0.0000000000
     3        2       1.1329230677    0.0000000000
     3        3       6.5503975335    0.0000000000

 respfn : d/dk was computed, but no 2DTE, so no DDB output.

== END DATASET(S) ==============================================================

 -outvars: echo values of variables after computation  --------
            acell      1.0000000000E+00  1.0000000000E+00  1.0000000000E+00 Bohr
              amu      1.37327000E+02  2.00590000E+02  1.59994000E+01
             ecut      4.40000000E+01 Hartree
           etotal     -4.0443795497E+01
            fcart      0.0000000000E+00  0.0000000000E+00  0.0000000000E+00
                       0.0000000000E+00  0.0000000000E+00  0.0000000000E+00
                       0.0000000000E+00  0.0000000000E+00  0.0000000000E+00
                       0.0000000000E+00  0.0000000000E+00  0.0000000000E+00
-          fftalg         512
           irdden           1
           irdwfk           1
           istwfk        1    1
              ixc     -116133
              kpt      5.00000000E-01  0.00000000E+00  0.00000000E+00
                       0.00000000E+00  0.00000000E+00  0.00000000E+00
           kptopt           0
P           mkmem           2
P          mkqmem           2
P          mk1mem           2
            natom           4
            nband          30
           nbdbuf           4
            ngfft          80      80      80
             nkpt           2
            nstep         100
             nsym          12
           ntypat           3
              occ      2.000000  2.000000  2.000000  2.000000  2.000000  2.000000
                       2.000000  2.000000  2.000000  2.000000  2.000000  2.000000
                       2.000000  2.000000  2.000000  2.000000  2.000000  2.000000
                       2.000000  2.000000  2.000000  0.000000  0.000000  0.000000
                       0.000000  0.000000  0.000000  0.000000  0.000000  0.000000
        optdriver           1
            prtwf          -1
            rfdir           1       1       1
           rfelfd           2
            rprim      7.4071303132E+00  0.0000000000E+00  1.0587046467E+01
                       3.3358695301E+00  6.6134373782E+00  1.0587046467E+01
                       0.0000000000E+00  0.0000000000E+00  1.2920957099E+01
          spgroup         166
           strten      0.0000000000E+00  0.0000000000E+00  0.0000000000E+00
                       0.0000000000E+00  0.0000000000E+00  0.0000000000E+00
           symrel      1  0  0   0  1  0   0  0  1      -1  0  0   0 -1  0   0  0 -1
                       0  1  0   1  0  0   0  0  1       0 -1  0  -1  0  0   0  0 -1
                       0  0  1   1  0  0   0  1  0       0  0 -1  -1  0  0   0 -1  0
                       1  0  0   0  0  1   0  1  0      -1  0  0   0  0 -1   0 -1  0
                       0  1  0   0  0  1   1  0  0       0 -1  0   0  0 -1  -1  0  0
                       0  0  1   0  1  0   1  0  0       0  0 -1   0 -1  0  -1  0  0
           tolwfr      1.00000000E-20
            typat      1  2  3  3
           useylm           1
              wtk        0.50000    0.50000
           xangst      2.8424753345E+00  1.7498401655E+00  9.0211617014E+00
                       0.0000000000E+00  0.0000000000E+00  0.0000000000E+00
                       5.7770468698E-01  3.5563751523E-01  1.8334609042E+00
                       5.1072459820E+00  3.1440428157E+00  1.6208862499E+01
            xcart      5.3714999216E+00  3.3067186891E+00  1.7047525016E+01
                       0.0000000000E+00  0.0000000000E+00  0.0000000000E+00
                       1.0917036441E+00  6.7205750637E-01  3.4647389843E+00
                       9.6512961992E+00  5.9413798718E+00  3.0630311048E+01
             xred      5.0000000000E-01  5.0000000000E-01  5.0000000000E-01
                       0.0000000000E+00  0.0000000000E+00  0.0000000000E+00
                       1.0162000000E-01  1.0162000000E-01  1.0162000000E-01
                       8.9838000000E-01  8.9838000000E-01  8.9838000000E-01
            znucl       56.00000   80.00000    8.00000

- Timing analysis has been suppressed with timopt=0

 Suggested references for the acknowledgment of ABINIT usage.

 Calculation completed.
.Delivered  14 WARNINGs and   9 COMMENTs to log file.