.Version 9.5.2 of ABINIT

 ABINIT is a project of the Universite Catholique de Louvain,
 Corning Inc. and other collaborators, see ~abinit/doc/developers/contributors.txt .
 acknowledgments of the ABINIT effort.

.Starting date : Wed 26 May 2021.
- ( at 02h21 )

- input  file    -> /scratch/users/j/a/jabreu/flow_simple_11atoms/flow/w229/t1/run.abi
- output file    -> /scratch/users/j/a/jabreu/flow_simple_11atoms/flow/w229/t1/run.abo
- root for input  files -> /scratch/users/j/a/jabreu/flow_simple_11atoms/flow/w229/t1/indata/in
- root for output files -> /scratch/users/j/a/jabreu/flow_simple_11atoms/flow/w229/t1/outdata/out

 Symmetries : space group C2/m (# 12); Bravais mC (1-face-center monocl.)
     intxc =       0      iscf =       7    lmnmax =      13     lnmax =       5
     mgfft =      72  mpssoang =       3    mqgrid =    3314     natom =      12
  nloc_mem =       1    nspden =       1   nspinor =       1    nsppol =       1
      nsym =       4    n1xccc =    2501    ntypat =       3    occopt =       1
   xclevel =       2
-    mband =          49        mffmem =           1         mkmem =           2
-   mkqmem =           2        mk1mem =           2           mpw =       12917
      nfft =      259200          nkpt =           2
  Rough estimation (10% accuracy) of disk space for files :

------------- Echo of variables that govern the present computation ------------
-
- outvars: echo of selected default values
-   iomode0 =  0 , fftalg0 =512 , wfoptalg0 =  0
-
- outvars: echo of global parameters not present in the input file
-  max_nthreads =    0
-
 -outvars: echo values of preprocessed input variables --------
            acell      1.0000000000E+00  1.0000000000E+00  1.0000000000E+00 Bohr
              amu      2.29897680E+01  1.20110000E+01  1.59994000E+01
             ecut      4.40000000E+01 Hartree
-          fftalg         512
           irdden           1
           irdwfk           1
           istwfk        1    1
              ixc     -116133
              kpt      0.00000000E+00  0.00000000E+00  5.00000000E-01
                       0.00000000E+00  0.00000000E+00  0.00000000E+00
           kptopt           0
P           mkmem           2
P          mkqmem           2
P          mk1mem           2
            natom          12
            nband          49
           nbdbuf           4
            ngfft          60      60      72
             nkpt           2
            nstep        2000
             nsym           4
           ntypat           3
              occ      2.000000  2.000000  2.000000  2.000000  2.000000  2.000000
                       2.000000  2.000000  2.000000  2.000000  2.000000  2.000000
                       2.000000  2.000000  2.000000  2.000000  2.000000  2.000000
                       2.000000  2.000000  2.000000  2.000000  2.000000  2.000000
                       2.000000  2.000000  2.000000  2.000000  2.000000  2.000000
                       2.000000  2.000000  2.000000  2.000000  2.000000  2.000000
                       2.000000  2.000000  2.000000  2.000000  0.000000  0.000000
                       0.000000  0.000000  0.000000  0.000000  0.000000  0.000000
                       0.000000
        optdriver           1
            prtwf          -1
            rfdir           1       1       1
           rfelfd           2
            rprim      9.5540548731E+00  0.0000000000E+00  1.8502996878E+00
                       4.3412242501E+00  8.5108011684E+00  1.8502996878E+00
                       0.0000000000E+00  0.0000000000E+00  1.1379869288E+01
          spgroup          12
           symrel      1  0  0   0  1  0   0  0  1      -1  0  0   0 -1  0   0  0 -1
                       0 -1  0  -1  0  0   0  0 -1       0  1  0   1  0  0   0  0  1
           tolwfr      1.00000000E-20
            typat      1  1  1  1  2  2  3  3  3  3  3  3
           useylm           1
              wtk        0.50000    0.50000
           xangst      4.9204946372E+00  3.0137826765E+00  5.8696005382E+00
                       2.4325703818E+00  1.4899393286E+00  2.1106397732E+00
                       0.0000000000E+00  0.0000000000E+00  3.0109837318E+00
                       0.0000000000E+00  0.0000000000E+00  0.0000000000E+00
                       2.4708872037E+00  1.5134082240E+00  5.1709949412E+00
                       4.8821778153E+00  2.9903137812E+00  2.8092453702E+00
                       1.5563718011E+00  9.5327131078E-01  4.4523796613E+00
                       5.0053877658E+00  1.7567173016E+00  2.4431772958E+00
                       3.5137964675E+00  8.4312378170E-01  5.5370630155E+00
                       3.8392685515E+00  3.6605982235E+00  2.4431772958E+00
                       2.3476772532E+00  2.7470047035E+00  5.5370630155E+00
                       5.7966932179E+00  3.5504506944E+00  3.5278606501E+00
            xcart      9.2983873025E+00  5.6952238827E+00  1.1091937527E+01
                       4.5968918207E+00  2.8155772857E+00  3.9885311365E+00
                       0.0000000000E+00  0.0000000000E+00  5.6899346438E+00
                       0.0000000000E+00  0.0000000000E+00  0.0000000000E+00
                       4.6693001202E+00  2.8599270706E+00  9.7717642734E+00
                       9.2259790030E+00  5.6508740978E+00  5.3087043897E+00
                       2.9411164651E+00  1.8014217077E+00  8.4137781995E+00
                       9.4588120663E+00  3.3197145929E+00  4.6169359832E+00
                       6.6401130103E+00  1.5932730435E+00  1.0463532680E+01
                       7.2551661129E+00  6.9175281249E+00  4.6169359832E+00
                       4.4364670569E+00  5.1910865755E+00  1.0463532680E+01
                       1.0954162658E+01  6.7093794607E+00  6.6666904636E+00
             xred      6.6917600000E-01  6.6917600000E-01  7.5709000000E-01
                       3.3082400000E-01  3.3082400000E-01  2.4291000000E-01
                       0.0000000000E+00  0.0000000000E+00  5.0000000000E-01
                       0.0000000000E+00  0.0000000000E+00  0.0000000000E+00
                       3.3603500000E-01  3.3603500000E-01  7.4941400000E-01
                       6.6396500000E-01  6.6396500000E-01  2.5058600000E-01
                       2.1166300000E-01  2.1166300000E-01  6.7052600000E-01
                       8.1279400000E-01  3.9005900000E-01  2.1013400000E-01
                       6.0994100000E-01  1.8720600000E-01  7.8986600000E-01
                       3.9005900000E-01  8.1279400000E-01  2.1013400000E-01
                       1.8720600000E-01  6.0994100000E-01  7.8986600000E-01
                       7.8833700000E-01  7.8833700000E-01  3.2947400000E-01
            znucl       11.00000    6.00000    8.00000

 chkinp: Checking input parameters for consistency.

== DATASET  1 ==================================================================
-   mpi_nproc: 1, omp_nthreads: -1 (-1 if OMP is not activated)

--- !DatasetInfo
iteration_state: {dtset: 1, }
dimensions: {natom: 12, nkpt: 2, mband: 49, nsppol: 1, nspinor: 1, nspden: 1, mpw: 12917, }
cutoff_energies: {ecut:  44.0, pawecutdg:  -1.0, }
electrons: {nelect:   8.00000000E+01, charge:   0.00000000E+00, occopt:   1.00000000E+00, tsmear:   1.00000000E-02, }
meta: {optdriver: 1, rfelfd: 2, }
...

 Real(R)+Recip(G) space primitive vectors, cartesian coordinates (Bohr,Bohr^-1):
 R(1)=  9.5540549  0.0000000  1.8502997  G(1)=  0.1046676 -0.0533893  0.0000000
 R(2)=  4.3412243  8.5108012  1.8502997  G(2)=  0.0000000  0.1174978  0.0000000
 R(3)=  0.0000000  0.0000000 11.3798693  G(3)= -0.0170183 -0.0104237  0.0878745
 Unit cell volume ucvol=  9.2532746E+02 bohr^3
 Angles (23,13,12)=  7.90394184E+01  7.90394184E+01  6.16985872E+01 degrees

 getcut: wavevector=  0.0000  0.0000  0.0000  ngfft=  60  60  72
         ecut(hartree)=     44.000   => boxcut(ratio)=   2.06498

--- Pseudopotential description ------------------------------------------------
- pspini: atom type   1  psp file is /scratch/users/j/a/jabreu/pseudos/PBEsol/Na.psp8
- pspatm: opening atomic psp file    /scratch/users/j/a/jabreu/pseudos/PBEsol/Na.psp8
- Na    ONCVPSP-3.3.0  r_core=   1.20708   1.55069
- 11.00000   9.00000    180112                znucl, zion, pspdat
    8 -116133    1    4       400   0.00000   pspcod,pspxc,lmax,lloc,mmax,r2well
    3.99000000000000    0.00000000000000    0.00000000000000   rchrg,fchrg,qchrg
     nproj     2     2
     extension_switch     1
  pspatm : epsatm=    9.32878306
         --- l  ekb(1:nproj) -->
             0    2.657905   -0.678300
             1   -6.761319   -2.404728
 pspatm: atomic psp has been read  and splines computed

- pspini: atom type   2  psp file is /scratch/users/j/a/jabreu/pseudos/PBEsol/C.psp8
- pspatm: opening atomic psp file    /scratch/users/j/a/jabreu/pseudos/PBEsol/C.psp8
- C     ONCVPSP-3.3.0  r_core=   1.20440   1.26326
-  6.00000   4.00000    180112                znucl, zion, pspdat
    8 -116133    1    4       600   0.00000   pspcod,pspxc,lmax,lloc,mmax,r2well
    5.99000000000000    4.00000000000000    0.00000000000000   rchrg,fchrg,qchrg
     nproj     2     2
     extension_switch     1
  pspatm : epsatm=    4.34909529
         --- l  ekb(1:nproj) -->
             0    6.468939    0.390031
             1   -4.179695   -0.878453
 pspatm: atomic psp has been read  and splines computed

- pspini: atom type   3  psp file is /scratch/users/j/a/jabreu/pseudos/PBEsol/O.psp8
- pspatm: opening atomic psp file    /scratch/users/j/a/jabreu/pseudos/PBEsol/O.psp8
- O     ONCVPSP-3.3.0  r_core=   1.35509   1.45563   1.26150
-  8.00000   6.00000    180112                znucl, zion, pspdat
    8 -116133    2    4       600   0.00000   pspcod,pspxc,lmax,lloc,mmax,r2well
    5.99000000000000    4.00000000000000    0.00000000000000   rchrg,fchrg,qchrg
     nproj     2     2     1
     extension_switch     1
  pspatm : epsatm=    6.22910522
         --- l  ekb(1:nproj) -->
             0    6.050032    0.820363
             1   -4.739617   -1.153841
             2   -1.335834
 pspatm: atomic psp has been read  and splines computed

   6.67103633E+03                                ecore*ucvol(ha*bohr**3)

 ==>  initialize data related to q vector <==

 The list of irreducible perturbations for this q vector is:
    1)    idir= 1    ipert=  13
    2)    idir= 2    ipert=  13
    3)    idir= 3    ipert=  13

 Perturbation wavevector (in red.coord.)   0.000000  0.000000  0.000000
 Perturbation : derivative vs k along direction   1

 dfpt_looppert : COMMENT -
  In a d/dk calculation, iscf is set to -3 automatically.
 The set of symmetries contains only one element for this perturbation.
 symkpt : not enough symmetry to change the number of k points.

 Initialisation of the first-order wave-functions :
  ireadwf=   0

--- !BeginCycle
iteration_state: {dtset: 1, }
solver: {iscf: 7, nstep: 2000, nline: 4, wfoptalg: 0, }
tolerances: {tolwfr: 1.00E-20, }
...

     iter   2DEtotal(Ha)        deltaE(Ha) residm    vres2
-ETOT  1  -50.030485875225     -5.003E+01 9.090E-02 0.000E+00
 ETOT  2  -50.075256227414     -4.477E-02 1.604E-03 0.000E+00
 ETOT  3  -50.075409512231     -1.533E-04 9.042E-05 0.000E+00
[...]
 ETOT  8  -50.075410344342      1.421E-14 8.419E-11 0.000E+00
 ETOT  9  -50.075410344342     -2.842E-14 6.561E-12 0.000E+00
 ETOT 10  -50.075410344342     -7.105E-15 4.101E-13 0.000E+00
 ETOT 11  -50.075410344342      7.105E-15 3.194E-14 0.000E+00
 ETOT 12  -50.075410344342      7.105E-15 2.064E-15 0.000E+00
 ETOT 13  -50.075410344342     -7.105E-15 1.622E-16 0.000E+00
 ETOT 14  -50.075410344342      0.000E+00 1.084E-17 0.000E+00
 ETOT 15  -50.075410344342     -7.105E-15 9.839E-19 0.000E+00
 ETOT 16  -50.075410344342      7.105E-15 8.012E-20 0.000E+00
 ETOT 17  -50.075410344342      0.000E+00 1.818E-20 0.000E+00
 ETOT 18  -50.075410344342      0.000E+00 9.972E-21 0.000E+00

 At SCF step   18   max residual=  9.97E-21 < tolwfr=  1.00E-20 =>converged.

 ----iterations are completed or convergence reached----

 dfpt_looppert: DFPT cycle converged with prtwf=-1. Will skip output of the 1st-order WFK file.
 dfpt_looppert : ek2=    8.7204486741E+01
          f-sum rule ratio=    1.0611809507E+00
 prteigrs : about to open file /scratch/users/j/a/jabreu/flow_simple_11atoms/flow/w229/t1/tmpdata/tmp_1WF1_EIG
 Expectation of eigenvalue derivatives (hartree) for nkpt=   2  k points:
  (in case of degenerate eigenvalues, averaged derivative)
 kpt#   1, nband= 49, wtk=  0.50000, kpt=  0.0000  0.0000  0.5000 (reduced coord)
   0.00000   -0.00000   -0.00000    0.00000    0.00000   -0.00000    0.00000   -0.00000
  -0.00000    0.00000   -0.00000    0.00000    0.00000   -0.00000   -0.00000   -0.00000
   0.00000   -0.00000   -0.00000    0.00000    0.00000   -0.00000    0.00000    0.00000
   0.00000    0.00000   -0.00000    0.00000    0.00000    0.00000    0.00000   -0.00000
   0.00000    0.00000   -0.00000   -0.00000   -0.00000   -0.00000   -0.00000    0.00000
  -0.00000    0.00000   -0.00000    0.00000   -0.00000   -0.00000    0.00037    0.00108
   0.03077
 prteigrs : prtvol=0 or 1, do not print more k-points.

 Eight components of 2nd-order total energy (hartree) are
 1,2,3: 0th-order hamiltonian combined with 1st-order wavefunctions
     kin0=   6.85080274E+01 eigvalue=   5.99914124E+00  local=  -2.73077174E+01
 4,5,6: 1st-order hamiltonian combined with 1st and 0th-order wfs
     kin1=  -9.25397401E+01  Hartree=   0.00000000E+00     xc=   0.00000000E+00
 7,8,9: eventually, occupation + non-local contributions
    edocc=   6.98944358E+00     enl0=  -4.11348445E+00   enl1=  -7.61108054E+00
 1-9 gives the relaxation energy (to be shifted if some occ is /=2.0)
   erelax=  -5.00754103E+01
  No Ewald or frozen-wf contrib.: the relaxation energy is the total one
 2DEtotal=   -0.5007541034E+02 Ha. Also 2DEtotal=   -0.136262121283E+04 eV
    (  non-var. 2DEtotal :   -5.0075410344E+01 Ha)

 Perturbation wavevector (in red.coord.)   0.000000  0.000000  0.000000
 Perturbation : derivative vs k along direction   2
 The set of symmetries contains only one element for this perturbation.
 symkpt : not enough symmetry to change the number of k points.

[...]

 Perturbation wavevector (in red.coord.)   0.000000  0.000000  0.000000
 Perturbation : derivative vs k along direction   3
 The set of symmetries contains only one element for this perturbation.
 symkpt : not enough symmetry to change the number of k points.

 Initialisation of the first-order wave-functions :
  ireadwf=   0

--- !BeginCycle
iteration_state: {dtset: 1, }
solver: {iscf: 7, nstep: 2000, nline: 4, wfoptalg: 0, }
tolerances: {tolwfr: 1.00E-20, }
...

     iter   2DEtotal(Ha)        deltaE(Ha) residm    vres2
-ETOT  1  -28.181788308074     -2.818E+01 6.160E-02 0.000E+00
 ETOT  2  -28.202884992700     -2.110E-02 1.383E-03 0.000E+00
 ETOT  3  -28.202925270223     -4.028E-05 6.047E-05 0.000E+00
 ETOT  4  -28.202925422886     -1.527E-07 3.016E-06 0.000E+00
 ETOT  5  -28.202925423719     -8.327E-10 1.963E-07 0.000E+00
 ETOT  6  -28.202925423724     -5.329E-12 1.091E-08 0.000E+00
 ETOT  7  -28.202925423724     -4.619E-14 7.746E-10 0.000E+00
 ETOT  8  -28.202925423724      1.776E-14 4.501E-11 0.000E+00
 ETOT  9  -28.202925423724     -3.553E-15 3.594E-12 0.000E+00
 ETOT 10  -28.202925423724      0.000E+00 2.311E-13 0.000E+00
 ETOT 11  -28.202925423724      0.000E+00 2.188E-14 0.000E+00
 ETOT 12  -28.202925423724     -3.553E-15 1.914E-15 0.000E+00
 ETOT 13  -28.202925423724      0.000E+00 2.456E-16 0.000E+00
 ETOT 14  -28.202925423724     -7.105E-15 2.902E-17 0.000E+00
 ETOT 15  -28.202925423724      1.066E-14 4.193E-18 0.000E+00
 ETOT 16  -28.202925423724     -3.553E-15 5.512E-19 0.000E+00
 ETOT 17  -28.202925423724      3.553E-15 8.180E-20 0.000E+00
 ETOT 18  -28.202925423724      0.000E+00 1.121E-20 0.000E+00
 ETOT 19  -28.202925423724      0.000E+00 9.985E-21 0.000E+00

 At SCF step   19   max residual=  9.98E-21 < tolwfr=  1.00E-20 =>converged.

 ----iterations are completed or convergence reached----

 dfpt_looppert: DFPT cycle converged with prtwf=-1. Will skip output of the 1st-order WFK file.
 dfpt_looppert : ek2=    5.1291618215E+01
          f-sum rule ratio=    1.0000940553E+00
 prteigrs : about to open file /scratch/users/j/a/jabreu/flow_simple_11atoms/flow/w229/t1/tmpdata/tmp_1WF1_EIG
 Expectation of eigenvalue derivatives (hartree) for nkpt=   2  k points:
  (in case of degenerate eigenvalues, averaged derivative)
 kpt#   1, nband= 49, wtk=  0.50000, kpt=  0.0000  0.0000  0.5000 (reduced coord)
   0.00000    0.00000   -0.00000    0.00000    0.00000    0.00000    0.00000    0.00000
  -0.00000    0.00000   -0.00000   -0.00000    0.00000    0.00000    0.00000   -0.00000
  -0.00000    0.00000   -0.00000    0.00000    0.00000   -0.00000    0.00000    0.00000
  -0.00000   -0.00000    0.00000    0.00000    0.00000   -0.00000   -0.00000   -0.00000
   0.00000    0.00000    0.00000   -0.00000   -0.00000   -0.00000    0.00000    0.00000
  -0.00000    0.00000    0.00000   -0.00000   -0.00000    0.00000   -0.00009    0.00002
   0.05675
 prteigrs : prtvol=0 or 1, do not print more k-points.

 Eight components of 2nd-order total energy (hartree) are
 1,2,3: 0th-order hamiltonian combined with 1st-order wavefunctions
     kin0=   3.79790768E+01 eigvalue=   3.61414463E+00  local=  -1.40118416E+01
 4,5,6: 1st-order hamiltonian combined with 1st and 0th-order wfs
     kin1=  -5.12964425E+01  Hartree=   0.00000000E+00     xc=   0.00000000E+00
 7,8,9: eventually, occupation + non-local contributions
    edocc=   2.53097345E+00     enl0=  -1.90942781E+00   enl1=  -5.10940839E+00
 1-9 gives the relaxation energy (to be shifted if some occ is /=2.0)
   erelax=  -2.82029254E+01
  No Ewald or frozen-wf contrib.: the relaxation energy is the total one
 2DEtotal=   -0.2820292542E+02 Ha. Also 2DEtotal=   -0.767440629680E+03 eV
    (  non-var. 2DEtotal :   -2.8202925424E+01 Ha)

 CALCULATION OF EFFECTIVE MASSES
 NOTE : Additional infos (eff. mass eigenvalues, eigenvectors and, if degenerate, average mass) are available in stdout.

 K-point ( 0.000, 0.000, 0.500) | band =    40
 Effective mass tensor:
             -7.6240712490             -3.6061099586             13.0504501819
             -3.6061099586             -3.9426584642              7.9943026788
             13.0504501819              7.9943026788            -34.3447217432
 Effective mass tensor eigenvalues:
            -41.6955589292             -2.4812618677             -1.7346306594
 Angular average effective mass 1/(<1/m>)=  -2.9895494037
 Angular average effective mass for Frohlich model (<m**0.5>)**2=  -3.9374025956
 Effective masses along directions: (cart. coord. / red. coord. -> eff. mass)
    1:   1.000000  0.000000  0.000000 /   0.910421  0.413682  0.000000 ->  -2.5099180136
    2:   0.000000  1.000000  0.000000 /   0.000000  1.000000  0.000000 ->  -1.9606261019
    3:   0.000000  0.000000  1.000000 /   0.158459  0.158459  0.974567 -> -10.5224206259
    4:   0.577350  0.577350  0.577350 /   0.522872  0.674079  0.521749 ->  -2.5149737292
    5:   0.000000  0.707107  0.707107 /   0.119367  0.668420  0.734143 ->  -2.6321032089
    6:   0.707107  0.000000  0.707107 /   0.660752  0.358728  0.659334 ->  -2.6824021853
    7:   0.707107  0.707107  0.000000 /   0.596599  0.802539  0.000000 ->  -2.8947659580

 K-point ( 0.000, 0.000, 0.000) | band =    41
 Effective mass tensor:
              0.5991241969             -0.0071895539              0.0015402163
             -0.0071895539              0.6064582493              0.0009436027
              0.0015402163              0.0009436027              0.6522642257
 Effective mass tensor eigenvalues:
              0.5946638450              0.6108619583              0.6523208686
 Angular average effective mass 1/(<1/m>)=   0.6183474455
 Angular average effective mass for Frohlich model (<m**0.5>)**2=   0.6186250696
 Effective masses along directions: (cart. coord. / red. coord. -> eff. mass)
    1:   1.000000  0.000000  0.000000 /   0.910421  0.413682  0.000000 ->   0.5990352749
    2:   0.000000  1.000000  0.000000 /   0.000000  1.000000  0.000000 ->   0.6063705548
    3:   0.000000  0.000000  1.000000 /   0.158459  0.158459  0.974567 ->   0.6522587397
    4:   0.577350  0.577350  0.577350 /   0.522872  0.674079  0.521749 ->   0.6149522178
    5:   0.000000  0.707107  0.707107 /   0.119367  0.668420  0.734143 ->   0.6294404074
    6:   0.707107  0.000000  0.707107 /   0.660752  0.358728  0.659334 ->   0.6260675200
    7:   0.707107  0.707107  0.000000 /   0.596599  0.802539  0.000000 ->   0.5955748812

 END OF EFFECTIVE MASSES SECTION

 ---- first-order wavefunction calculations are completed ----

 Total localisation tensor (bohr^2) in cartesian coordinates
  WARNING : still subject to testing - especially symmetries.
      direction              matrix element
   alpha     beta       real part   imaginary part
     1        1       0.8024117696    0.0000000000
     1        2       0.2692090093    0.0000000000
     1        3       0.1873337647    0.0000000000
     2        1       0.2692090093    0.0000000000
     2        2       0.5277737843    0.0000000000
     2        3       0.1147412152    0.0000000000
     3        1       0.1873337647    0.0000000000
     3        2       0.1147412152    0.0000000000
     3        3       0.4696538588    0.0000000000

 respfn : d/dk was computed, but no 2DTE, so no DDB output.

== END DATASET(S) ==============================================================

 -outvars: echo values of variables after computation  --------
            acell      1.0000000000E+00  1.0000000000E+00  1.0000000000E+00 Bohr
              amu      2.29897680E+01  1.20110000E+01  1.59994000E+01
             ecut      4.40000000E+01 Hartree
           etotal     -2.8202925424E+01
            fcart      0.0000000000E+00  0.0000000000E+00  0.0000000000E+00
                       0.0000000000E+00  0.0000000000E+00  0.0000000000E+00
                       0.0000000000E+00  0.0000000000E+00  0.0000000000E+00
                       0.0000000000E+00  0.0000000000E+00  0.0000000000E+00
                       0.0000000000E+00  0.0000000000E+00  0.0000000000E+00
                       0.0000000000E+00  0.0000000000E+00  0.0000000000E+00
                       0.0000000000E+00  0.0000000000E+00  0.0000000000E+00
                       0.0000000000E+00  0.0000000000E+00  0.0000000000E+00
                       0.0000000000E+00  0.0000000000E+00  0.0000000000E+00
                       0.0000000000E+00  0.0000000000E+00  0.0000000000E+00
                       0.0000000000E+00  0.0000000000E+00  0.0000000000E+00
                       0.0000000000E+00  0.0000000000E+00  0.0000000000E+00
-          fftalg         512
           irdden           1
           irdwfk           1
           istwfk        1    1
              ixc     -116133
              kpt      0.00000000E+00  0.00000000E+00  5.00000000E-01
                       0.00000000E+00  0.00000000E+00  0.00000000E+00
           kptopt           0
P           mkmem           2
P          mkqmem           2
P          mk1mem           2
            natom          12
            nband          49
           nbdbuf           4
            ngfft          60      60      72
             nkpt           2
            nstep        2000
             nsym           4
           ntypat           3
              occ      2.000000  2.000000  2.000000  2.000000  2.000000  2.000000
                       2.000000  2.000000  2.000000  2.000000  2.000000  2.000000
                       2.000000  2.000000  2.000000  2.000000  2.000000  2.000000
                       2.000000  2.000000  2.000000  2.000000  2.000000  2.000000
                       2.000000  2.000000  2.000000  2.000000  2.000000  2.000000
                       2.000000  2.000000  2.000000  2.000000  2.000000  2.000000
                       2.000000  2.000000  2.000000  2.000000  0.000000  0.000000
                       0.000000  0.000000  0.000000  0.000000  0.000000  0.000000
                       0.000000
        optdriver           1
            prtwf          -1
            rfdir           1       1       1
           rfelfd           2
            rprim      9.5540548731E+00  0.0000000000E+00  1.8502996878E+00
                       4.3412242501E+00  8.5108011684E+00  1.8502996878E+00
                       0.0000000000E+00  0.0000000000E+00  1.1379869288E+01
          spgroup          12
           strten      0.0000000000E+00  0.0000000000E+00  0.0000000000E+00
                       0.0000000000E+00  0.0000000000E+00  0.0000000000E+00
           symrel      1  0  0   0  1  0   0  0  1      -1  0  0   0 -1  0   0  0 -1
                       0 -1  0  -1  0  0   0  0 -1       0  1  0   1  0  0   0  0  1
           tolwfr      1.00000000E-20
            typat      1  1  1  1  2  2  3  3  3  3  3  3
           useylm           1
              wtk        0.50000    0.50000
           xangst      4.9204946372E+00  3.0137826765E+00  5.8696005382E+00
                       2.4325703818E+00  1.4899393286E+00  2.1106397732E+00
                       0.0000000000E+00  0.0000000000E+00  3.0109837318E+00
                       0.0000000000E+00  0.0000000000E+00  0.0000000000E+00
                       2.4708872037E+00  1.5134082240E+00  5.1709949412E+00
                       4.8821778153E+00  2.9903137812E+00  2.8092453702E+00
                       1.5563718011E+00  9.5327131078E-01  4.4523796613E+00
                       5.0053877658E+00  1.7567173016E+00  2.4431772958E+00
                       3.5137964675E+00  8.4312378170E-01  5.5370630155E+00
                       3.8392685515E+00  3.6605982235E+00  2.4431772958E+00
                       2.3476772532E+00  2.7470047035E+00  5.5370630155E+00
                       5.7966932179E+00  3.5504506944E+00  3.5278606501E+00
            xcart      9.2983873025E+00  5.6952238827E+00  1.1091937527E+01
                       4.5968918207E+00  2.8155772857E+00  3.9885311365E+00
                       0.0000000000E+00  0.0000000000E+00  5.6899346438E+00
                       0.0000000000E+00  0.0000000000E+00  0.0000000000E+00
                       4.6693001202E+00  2.8599270706E+00  9.7717642734E+00
                       9.2259790030E+00  5.6508740978E+00  5.3087043897E+00
                       2.9411164651E+00  1.8014217077E+00  8.4137781995E+00
                       9.4588120663E+00  3.3197145929E+00  4.6169359832E+00
                       6.6401130103E+00  1.5932730435E+00  1.0463532680E+01
                       7.2551661129E+00  6.9175281249E+00  4.6169359832E+00
                       4.4364670569E+00  5.1910865755E+00  1.0463532680E+01
                       1.0954162658E+01  6.7093794607E+00  6.6666904636E+00
             xred      6.6917600000E-01  6.6917600000E-01  7.5709000000E-01
                       3.3082400000E-01  3.3082400000E-01  2.4291000000E-01
                       0.0000000000E+00  0.0000000000E+00  5.0000000000E-01
                       0.0000000000E+00  0.0000000000E+00  0.0000000000E+00
                       3.3603500000E-01  3.3603500000E-01  7.4941400000E-01
                       6.6396500000E-01  6.6396500000E-01  2.5058600000E-01
                       2.1166300000E-01  2.1166300000E-01  6.7052600000E-01
                       8.1279400000E-01  3.9005900000E-01  2.1013400000E-01
                       6.0994100000E-01  1.8720600000E-01  7.8986600000E-01
                       3.9005900000E-01  8.1279400000E-01  2.1013400000E-01
                       1.8720600000E-01  6.0994100000E-01  7.8986600000E-01
                       7.8833700000E-01  7.8833700000E-01  3.2947400000E-01
            znucl       11.00000    6.00000    8.00000

- Timing analysis has been suppressed with timopt=0

 Suggested references for the acknowledgment of ABINIT usage.

 Calculation completed.
.Delivered   2 WARNINGs and   5 COMMENTs to log file.