.Version 9.5.1 of ABINIT

 ABINIT is a project of the Universite Catholique de Louvain,
 Corning Inc. and other collaborators, see ~abinit/doc/developers/contributors.txt .
 acknowledgments of the ABINIT effort.

.Starting date : Tue 27 Apr 2021.
- ( at 18h44 )

- input  file    -> /scratch/users/j/a/jabreu/flow_simple_4atoms/flow/w244/t1/run.abi
- output file    -> /scratch/users/j/a/jabreu/flow_simple_4atoms/flow/w244/t1/run.abo
- root for input  files -> /scratch/users/j/a/jabreu/flow_simple_4atoms/flow/w244/t1/indata/in
- root for output files -> /scratch/users/j/a/jabreu/flow_simple_4atoms/flow/w244/t1/outdata/out

 Symmetries : space group R-3 m (#166); Bravais hR (rhombohedral)
     intxc =       0      iscf =       7    lmnmax =      18     lnmax =       6
     mgfft =      90  mpssoang =       3    mqgrid =    3001     natom =       4
  nloc_mem =       1    nspden =       1   nspinor =       1    nsppol =       1
      nsym =      12    n1xccc =    2501    ntypat =       3    occopt =       1
   xclevel =       2
-    mband =          27        mffmem =           1         mkmem =           2
-   mkqmem =           2        mk1mem =           2           mpw =        7486
      nfft =      729000          nkpt =           2
  Rough estimation (10% accuracy) of disk space for files :

------------- Echo of variables that govern the present computation ------------
-
- outvars: echo of selected default values
-   iomode0 =  0 , fftalg0 =512 , wfoptalg0 =  0
-
- outvars: echo of global parameters not present in the input file
-  max_nthreads =    0
-
 -outvars: echo values of preprocessed input variables --------
            acell      1.0000000000E+00  1.0000000000E+00  1.0000000000E+00 Bohr
              amu      8.54678000E+01  2.08980370E+02  3.20660000E+01
             ecut      3.50000000E+01 Hartree
-          fftalg         512
           irdden           1
           irdwfk           1
           istwfk        0    1
              ixc     -116133
              kpt      7.21961088E-01  5.00000000E-01  2.78038912E-01
                       5.00000000E-01  5.00000000E-01  5.00000000E-01
           kptopt           0
P           mkmem           2
P          mkqmem           2
P          mk1mem           2
            natom           4
            nband          27
           nbdbuf           4
            ngfft          90      90      90
             nkpt           2
            nstep         100
             nsym          12
           ntypat           3
              occ      2.000000  2.000000  2.000000  2.000000  2.000000  2.000000
                       2.000000  2.000000  2.000000  2.000000  2.000000  2.000000
                       2.000000  2.000000  2.000000  2.000000  2.000000  2.000000
                       0.000000  0.000000  0.000000  0.000000  0.000000  0.000000
                       0.000000  0.000000  0.000000
        optdriver           1
            prtwf          -1
            rfdir           1       1       1
           rfelfd           2
            rprim      7.5254510418E+00  0.0000000000E+00  1.3079586683E+01
                       3.4941868966E+00  6.6650634891E+00  1.3079586683E+01
                       0.0000000000E+00  0.0000000000E+00  1.5089996726E+01
          spgroup         166
           symrel      1  0  0   0  1  0   0  0  1      -1  0  0   0 -1  0   0  0 -1
                       0  1  0   1  0  0   0  0  1       0 -1  0  -1  0  0   0  0 -1
                       0  0  1   1  0  0   0  1  0       0  0 -1  -1  0  0   0 -1  0
                       1  0  0   0  0  1   0  1  0      -1  0  0   0  0 -1   0 -1  0
                       0  1  0   0  0  1   1  0  0       0 -1  0   0  0 -1  -1  0  0
                       0  0  1   0  1  0   1  0  0       0  0 -1   0 -1  0  -1  0  0
           tolwfr      1.00000000E-20
            typat      1  2  3  3
           useylm           1
              wtk        0.50000    0.50000
           xangst      2.9156706220E+00  1.7634998461E+00  1.0914060343E+01
                       0.0000000000E+00  0.0000000000E+00  0.0000000000E+00
                       4.2837266031E+00  2.5909480819E+00  1.6035024769E+01
                       1.5476146408E+00  9.3605161032E-01  5.7930959177E+00
            xcart      5.5098189692E+00  3.3325317445E+00  2.0624585046E+01
                       0.0000000000E+00  0.0000000000E+00  0.0000000000E+00
                       8.0950701081E+00  4.8961822993E+00  3.0301805347E+01
                       2.9245678303E+00  1.7688811898E+00  1.0947364746E+01
             xred      5.0000000000E-01  5.0000000000E-01  5.0000000000E-01
                       0.0000000000E+00  0.0000000000E+00  0.0000000000E+00
                       7.3460400000E-01  7.3460400000E-01  7.3460400000E-01
                       2.6539600000E-01  2.6539600000E-01  2.6539600000E-01
            znucl       37.00000   83.00000   16.00000

 chkinp: Checking input parameters for consistency.

== DATASET  1 ==================================================================
-   mpi_nproc: 1, omp_nthreads: -1 (-1 if OMP is not activated)

--- !DatasetInfo
iteration_state: {dtset: 1, }
dimensions: {natom: 4, nkpt: 2, mband: 27, nsppol: 1, nspinor: 1, nspden: 1, mpw: 7486, }
cutoff_energies: {ecut:  35.0, pawecutdg:  -1.0, }
electrons: {nelect:   3.60000000E+01, charge:   0.00000000E+00, occopt:   1.00000000E+00, tsmear:   1.00000000E-02, }
meta: {optdriver: 1, rfelfd: 2, }
...

 Real(R)+Recip(G) space primitive vectors, cartesian coordinates (Bohr,Bohr^-1):
 R(1)=  7.5254510  0.0000000 13.0795867  G(1)=  0.1328824 -0.0696641  0.0000000
 R(2)=  3.4941869  6.6650635 13.0795867  G(2)=  0.0000000  0.1500361  0.0000000
 R(3)=  0.0000000  0.0000000 15.0899967  G(3)= -0.1151787 -0.0696641  0.0662691
 Unit cell volume ucvol=  7.5687816E+02 bohr^3
 Angles (23,13,12)=  2.99143351E+01  2.99143351E+01  2.99143351E+01 degrees

 getcut: wavevector=  0.0000  0.0000  0.0000  ngfft=  90  90  90
         ecut(hartree)=     35.000   => boxcut(ratio)=   2.23952

 getcut : COMMENT -
  Note that boxcut > 2.2 ; recall that boxcut=Gcut(box)/Gcut(sphere) = 2
  is sufficient for exact treatment of convolution.
  Such a large boxcut is a waste : you could raise ecut
  e.g. ecut=   43.885041 Hartrees makes boxcut=2

--- Pseudopotential description ------------------------------------------------
- pspini: atom type   1  psp file is /scratch/users/j/a/jabreu/pseudos/PBEsol/Rb.psp8
- pspatm: opening atomic psp file    /scratch/users/j/a/jabreu/pseudos/PBEsol/Rb.psp8
- Rb    ONCVPSP-3.3.0  r_core=   1.71227   1.75361   1.90633
- 37.00000   9.00000    180112                znucl, zion, pspdat
    8 -116133    2    4       600   0.00000   pspcod,pspxc,lmax,lloc,mmax,r2well
    5.99000000000000    7.00000000000000    0.00000000000000   rchrg,fchrg,qchrg
     nproj     2     2     2
     extension_switch     1
  pspatm : epsatm=   34.48400912
         --- l  ekb(1:nproj) -->
             0    8.196957   -0.477221
             1    3.231347   -0.378736
             2   -1.047201    0.996637
 pspatm: atomic psp has been read  and splines computed

- pspini: atom type   2  psp file is /scratch/users/j/a/jabreu/pseudos/PBEsol/Bi.psp8
- pspatm: opening atomic psp file    /scratch/users/j/a/jabreu/pseudos/PBEsol/Bi.psp8
- Bi    ONCVPSP-3.3.0  r_core=   2.42776   2.51622   2.10397
- 83.00000  15.00000    180112                znucl, zion, pspdat
    8 -116133    2    4       600   0.00000   pspcod,pspxc,lmax,lloc,mmax,r2well
    5.99000000000000    6.00000000000000    0.00000000000000   rchrg,fchrg,qchrg
     nproj     2     2     2
     extension_switch     1
  pspatm : epsatm=   42.90078186
         --- l  ekb(1:nproj) -->
             0    6.017688    0.961606
             1    4.379371    0.528498
             2   -3.458170   -0.753782
 pspatm: atomic psp has been read  and splines computed

- pspini: atom type   3  psp file is /scratch/users/j/a/jabreu/pseudos/PBEsol/S.psp8
- pspatm: opening atomic psp file    /scratch/users/j/a/jabreu/pseudos/PBEsol/S.psp8
- S     ONCVPSP-3.3.0  r_core=   1.45376   1.45376   1.61851
- 16.00000   6.00000    180112                znucl, zion, pspdat
    8 -116133    2    4       600   0.00000   pspcod,pspxc,lmax,lloc,mmax,r2well
    5.99000000000000    6.00000000000000    0.00000000000000   rchrg,fchrg,qchrg
     nproj     2     2     2
     extension_switch     1
  pspatm : epsatm=    8.71840985
         --- l  ekb(1:nproj) -->
             0    6.834532    0.579453
             1    3.282851    0.896984
             2   -3.496974   -0.974265
 pspatm: atomic psp has been read  and splines computed

   3.41357798E+03                                ecore*ucvol(ha*bohr**3)

-inwffil : will read wavefunctions from disk file /scratch/users/j/a/jabreu/flow_simple_4atoms/flow/w244/t1/indata/in_WFK

 ==>  initialize data related to q vector <==

 The list of irreducible perturbations for this q vector is:
    1)    idir= 1    ipert=   5
    2)    idir= 2    ipert=   5
    3)    idir= 3    ipert=   5

 Perturbation wavevector (in red.coord.)   0.000000  0.000000  0.000000
 Perturbation : derivative vs k along direction   1

 dfpt_looppert : COMMENT -
  In a d/dk calculation, iscf is set to -3 automatically.
 The set of symmetries contains only one element for this perturbation.
 symkpt : not enough symmetry to change the number of k points.

[...]

 Initialisation of the first-order wave-functions :
  ireadwf=   0

--- !BeginCycle
iteration_state: {dtset: 1, }
solver: {iscf: 7, nstep: 100, nline: 4, wfoptalg: 0, }
tolerances: {tolwfr: 1.00E-20, }
...

     iter   2DEtotal(Ha)        deltaE(Ha) residm    vres2
-ETOT  1  -55.678392595675     -5.568E+01 1.004E-01 0.000E+00
 ETOT  2  -55.707070490579     -2.868E-02 4.056E-03 0.000E+00
 ETOT  3  -55.707154907347     -8.442E-05 9.037E-04 0.000E+00
 ETOT  4  -55.707155452661     -5.453E-07 5.089E-05 0.000E+00
 ETOT  5  -55.707155457043     -4.382E-09 1.841E-05 0.000E+00
 ETOT  6  -55.707155457081     -3.794E-11 1.163E-06 0.000E+00
 ETOT  7  -55.707155457081     -3.695E-13 4.466E-07 0.000E+00
 ETOT  8  -55.707155457081     -2.842E-14 2.867E-08 0.000E+00
 ETOT  9  -55.707155457081     -3.553E-14 1.121E-08 0.000E+00
 ETOT 10  -55.707155457081      7.105E-15 7.233E-10 0.000E+00
 ETOT 11  -55.707155457081      7.105E-15 2.861E-10 0.000E+00
 ETOT 12  -55.707155457081      0.000E+00 1.853E-11 0.000E+00
 ETOT 13  -55.707155457081      0.000E+00 7.374E-12 0.000E+00
 ETOT 14  -55.707155457081      0.000E+00 4.787E-13 0.000E+00
 ETOT 15  -55.707155457081      0.000E+00 1.911E-13 0.000E+00
 ETOT 16  -55.707155457081      0.000E+00 1.242E-14 0.000E+00
 ETOT 17  -55.707155457081      0.000E+00 4.970E-15 0.000E+00
 ETOT 18  -55.707155457081      7.105E-15 3.234E-16 0.000E+00
 ETOT 19  -55.707155457081      0.000E+00 1.295E-16 0.000E+00
 ETOT 20  -55.707155457081      0.000E+00 8.434E-18 0.000E+00
 ETOT 21  -55.707155457081     -2.132E-14 3.377E-18 0.000E+00
 ETOT 22  -55.707155457081      7.105E-15 2.203E-19 0.000E+00
 ETOT 23  -55.707155457081      0.000E+00 8.754E-20 0.000E+00
 ETOT 24  -55.707155457081      0.000E+00 9.773E-21 0.000E+00

 At SCF step   24   max residual=  9.77E-21 < tolwfr=  1.00E-20 =>converged.

 ----iterations are completed or convergence reached----

 dfpt_looppert: DFPT cycle converged with prtwf=-1. Will skip output of the 1st-order WFK file.
 dfpt_looppert : ek2=    6.3985807001E+01
          f-sum rule ratio=    1.2209788852E+00
 prteigrs : about to open file /scratch/users/j/a/jabreu/flow_simple_4atoms/flow/w244/t1/tmpdata/tmp_1WF1_EIG
 Expectation of eigenvalue derivatives (hartree) for nkpt=   2  k points:
  (in case of degenerate eigenvalues, averaged derivative)
 kpt#   1, nband= 27, wtk=  0.50000, kpt=  0.7220  0.5000  0.2780 (reduced coord)
   0.00328   -0.00061    0.00084   -0.00078    0.00095    0.00057    0.18097    0.00295
  -0.04572   -0.00814    0.00267   -0.18086   -0.08100   -0.09022   -0.16831   -0.01729
   0.00761   -0.00055    0.10411    0.04734    0.05586    0.00541    0.16404    0.07524
   0.05993    0.08651    0.22072
 prteigrs : prtvol=0 or 1, do not print more k-points.

 Eight components of 2nd-order total energy (hartree) are
 1,2,3: 0th-order hamiltonian combined with 1st-order wavefunctions
     kin0=   4.50331665E+01 eigvalue=   6.52384743E+00  local=  -2.47200136E+01
 4,5,6: 1st-order hamiltonian combined with 1st and 0th-order wfs
     kin1=  -7.81253193E+01  Hartree=   0.00000000E+00     xc=   0.00000000E+00
 7,8,9: eventually, occupation + non-local contributions
    edocc=   2.30709114E+01     enl0=   5.79924369E+00   enl1=  -3.32889916E+01
 1-9 gives the relaxation energy (to be shifted if some occ is /=2.0)
   erelax=  -5.57071555E+01
  No Ewald or frozen-wf contrib.: the relaxation energy is the total one
 2DEtotal=   -0.5570715546E+02 Ha. Also 2DEtotal=   -0.151586879089E+04 eV
    (  non-var. 2DEtotal :   -5.5707155457E+01 Ha)

 Perturbation wavevector (in red.coord.)   0.000000  0.000000  0.000000
 Perturbation : derivative vs k along direction   2
 The set of symmetries contains only one element for this perturbation.
 symkpt : not enough symmetry to change the number of k points.

[...]

 Perturbation wavevector (in red.coord.)   0.000000  0.000000  0.000000
 Perturbation : derivative vs k along direction   3
 The set of symmetries contains only one element for this perturbation.
 symkpt : not enough symmetry to change the number of k points.

-inwffil : will read wavefunctions from disk file /scratch/users/j/a/jabreu/flow_simple_4atoms/flow/w244/t1/indata/in_WFK

 Initialisation of the first-order wave-functions :
  ireadwf=   0

--- !BeginCycle
iteration_state: {dtset: 1, }
solver: {iscf: 7, nstep: 100, nline: 4, wfoptalg: 0, }
tolerances: {tolwfr: 1.00E-20, }
...

     iter   2DEtotal(Ha)        deltaE(Ha) residm    vres2
-ETOT  1  -55.678270913865     -5.568E+01 1.004E-01 0.000E+00
 ETOT  2  -55.707020182961     -2.875E-02 4.056E-03 0.000E+00
 ETOT  3  -55.707105421014     -8.524E-05 9.037E-04 0.000E+00
 ETOT  4  -55.707105977385     -5.564E-07 5.089E-05 0.000E+00
 ETOT  5  -55.707105981882     -4.498E-09 1.841E-05 0.000E+00
 ETOT  6  -55.707105981921     -3.912E-11 1.163E-06 0.000E+00
 ETOT  7  -55.707105981922     -3.055E-13 4.466E-07 0.000E+00
 ETOT  8  -55.707105981922      7.105E-15 2.867E-08 0.000E+00
 ETOT  9  -55.707105981922     -9.237E-14 1.121E-08 0.000E+00
 ETOT 10  -55.707105981922      7.816E-14 7.233E-10 0.000E+00
 ETOT 11  -55.707105981922     -2.842E-14 2.861E-10 0.000E+00
 ETOT 12  -55.707105981922     -1.421E-14 1.853E-11 0.000E+00
 ETOT 13  -55.707105981922      0.000E+00 7.374E-12 0.000E+00
 ETOT 14  -55.707105981922      0.000E+00 4.787E-13 0.000E+00
 ETOT 15  -55.707105981922      1.421E-14 1.911E-13 0.000E+00
 ETOT 16  -55.707105981922     -2.842E-14 1.242E-14 0.000E+00
 ETOT 17  -55.707105981922     -1.421E-14 4.970E-15 0.000E+00
 ETOT 18  -55.707105981922      1.421E-14 3.234E-16 0.000E+00
 ETOT 19  -55.707105981922      1.421E-14 1.295E-16 0.000E+00
 ETOT 20  -55.707105981922      0.000E+00 8.434E-18 0.000E+00
 ETOT 21  -55.707105981922      0.000E+00 3.377E-18 0.000E+00
 ETOT 22  -55.707105981922      0.000E+00 2.203E-19 0.000E+00
 ETOT 23  -55.707105981922      0.000E+00 8.759E-20 0.000E+00
 ETOT 24  -55.707105981922     -1.421E-14 9.601E-21 0.000E+00

 At SCF step   24   max residual=  9.60E-21 < tolwfr=  1.00E-20 =>converged.

 ----iterations are completed or convergence reached----

 dfpt_looppert: DFPT cycle converged with prtwf=-1. Will skip output of the 1st-order WFK file.
 dfpt_looppert : ek2=    6.3985807002E+01
          f-sum rule ratio=    1.2209749350E+00
 prteigrs : about to open file /scratch/users/j/a/jabreu/flow_simple_4atoms/flow/w244/t1/tmpdata/tmp_1WF1_EIG
 Expectation of eigenvalue derivatives (hartree) for nkpt=   2  k points:
  (in case of degenerate eigenvalues, averaged derivative)
 kpt#   1, nband= 27, wtk=  0.50000, kpt=  0.7220  0.5000  0.2780 (reduced coord)
  -0.00328    0.00061   -0.00084    0.00078   -0.00095   -0.00057   -0.18097   -0.00295
   0.04572    0.00814   -0.00267    0.18086    0.08100    0.09022    0.16831    0.01729
  -0.00761    0.00055   -0.10411   -0.04734   -0.05586   -0.00541   -0.16404   -0.07524
  -0.05993   -0.08653   -0.22059
 prteigrs : prtvol=0 or 1, do not print more k-points.

 Eight components of 2nd-order total energy (hartree) are
 1,2,3: 0th-order hamiltonian combined with 1st-order wavefunctions
     kin0=   4.50376843E+01 eigvalue=   6.52352016E+00  local=  -2.47208986E+01
 4,5,6: 1st-order hamiltonian combined with 1st and 0th-order wfs
     kin1=  -7.81250665E+01  Hartree=   0.00000000E+00     xc=   0.00000000E+00
 7,8,9: eventually, occupation + non-local contributions
    edocc=   2.30702825E+01     enl0=   5.79651765E+00   enl1=  -3.32891454E+01
 1-9 gives the relaxation energy (to be shifted if some occ is /=2.0)
   erelax=  -5.57071060E+01
  No Ewald or frozen-wf contrib.: the relaxation energy is the total one
 2DEtotal=   -0.5570710598E+02 Ha. Also 2DEtotal=   -0.151586744460E+04 eV
    (  non-var. 2DEtotal :   -5.5707105982E+01 Ha)

 CALCULATION OF EFFECTIVE MASSES
 NOTE : Additional infos (eff. mass eigenvalues, eigenvectors and, if degenerate, average mass) are available in stdout.

 K-point ( 0.722, 0.500, 0.278) | band =    18
 Effective mass tensor:
             -5.9238778760             -0.0669598146              1.0710865506
             -0.0669598146             -0.3579734091             -0.2504841036
              1.0710865506             -0.2504841036             -2.1996863648
 Effective mass tensor eigenvalues:
             -6.2099504109             -1.9556900643             -0.3158971747
 Angular average effective mass 1/(<1/m>)=  -0.7816678298
 Angular average effective mass for Frohlich model (<m**0.5>)**2=  -1.1723516301
 Effective masses along directions: (cart. coord. / red. coord. -> eff. mass)
    1:   1.000000  0.000000  0.000000 /   0.906998  0.421134  0.000000 ->  -5.2939942835
    2:   0.000000  1.000000  0.000000 /   0.000000  1.000000  0.000000 ->  -0.3228430711
    3:   0.000000  0.000000  1.000000 /   0.547911  0.547911  0.632129 ->  -1.8129935136
    4:   0.577350  0.577350  0.577350 /   0.596729  0.673005  0.437012 ->  -0.9937071698
    5:   0.000000  0.707107  0.707107 /   0.465753  0.703091  0.537342 ->  -0.7046901985
    6:   0.707107  0.000000  0.707107 /   0.676771  0.544364  0.495630 ->  -2.1072776971
    7:   0.707107  0.707107  0.000000 /   0.595232  0.803554  0.000000 ->  -0.6515237326

 K-point ( 0.500, 0.500, 0.500) | band =    19
 Effective mass tensor:
              0.2400733420              0.0476128679              0.2946744286
              0.0476128679              0.1901512528              0.1782283414
              0.2946744286              0.1782283414              1.2644042854
 Effective mass tensor eigenvalues:
              0.1613526125              0.1613535418              1.3719227259
 Angular average effective mass 1/(<1/m>)=   0.2285874282
 Angular average effective mass for Frohlich model (<m**0.5>)**2=   0.2725010670
 Effective masses along directions: (cart. coord. / red. coord. -> eff. mass)
    1:   1.000000  0.000000  0.000000 /   0.906998  0.421134  0.000000 ->   0.1711745899
    2:   0.000000  1.000000  0.000000 /   0.000000  1.000000  0.000000 ->   0.1648130849
    3:   0.000000  0.000000  1.000000 /   0.547911  0.547911  0.632129 ->   0.8233072795
    4:   0.577350  0.577350  0.577350 /   0.596729  0.673005  0.437012 ->   0.3562407480
    5:   0.000000  0.707107  0.707107 /   0.465753  0.703091  0.537342 ->   0.3526202037
    6:   0.707107  0.000000  0.707107 /   0.676771  0.544364  0.495630 ->   0.4551410084
    7:   0.707107  0.707107  0.000000 /   0.595232  0.803554  0.000000 ->   0.1742268741

 END OF EFFECTIVE MASSES SECTION

 ---- first-order wavefunction calculations are completed ----

 Total localisation tensor (bohr^2) in cartesian coordinates
  WARNING : still subject to testing - especially symmetries.
      direction              matrix element
   alpha     beta       real part   imaginary part
     1        1       4.2863848468    0.0000000000
     1        2       1.5830765674    0.0000000000
     1        3       9.1141180777    0.0000000000
     2        1       1.5830765674    0.0000000000
     2        2       3.0196741451    0.0000000000
     2        3       5.9258384861    0.0000000000
     3        1       9.1141180777    0.0000000000
     3        2       5.9258384861    0.0000000000
     3        3      35.9678780805    0.0000000000

 respfn : d/dk was computed, but no 2DTE, so no DDB output.

== END DATASET(S) ==============================================================

 -outvars: echo values of variables after computation  --------
            acell      1.0000000000E+00  1.0000000000E+00  1.0000000000E+00 Bohr
              amu      8.54678000E+01  2.08980370E+02  3.20660000E+01
             ecut      3.50000000E+01 Hartree
           etotal     -5.5707105982E+01
            fcart      0.0000000000E+00  0.0000000000E+00  0.0000000000E+00
                       0.0000000000E+00  0.0000000000E+00  0.0000000000E+00
                       0.0000000000E+00  0.0000000000E+00  0.0000000000E+00
                       0.0000000000E+00  0.0000000000E+00  0.0000000000E+00
-          fftalg         512
           irdden           1
           irdwfk           1
           istwfk        0    1
              ixc     -116133
              kpt      7.21961088E-01  5.00000000E-01  2.78038912E-01
                       5.00000000E-01  5.00000000E-01  5.00000000E-01
           kptopt           0
P           mkmem           2
P          mkqmem           2
P          mk1mem           2
            natom           4
            nband          27
           nbdbuf           4
            ngfft          90      90      90
             nkpt           2
            nstep         100
             nsym          12
           ntypat           3
              occ      2.000000  2.000000  2.000000  2.000000  2.000000  2.000000
                       2.000000  2.000000  2.000000  2.000000  2.000000  2.000000
                       2.000000  2.000000  2.000000  2.000000  2.000000  2.000000
                       0.000000  0.000000  0.000000  0.000000  0.000000  0.000000
                       0.000000  0.000000  0.000000
        optdriver           1
            prtwf          -1
            rfdir           1       1       1
           rfelfd           2
            rprim      7.5254510418E+00  0.0000000000E+00  1.3079586683E+01
                       3.4941868966E+00  6.6650634891E+00  1.3079586683E+01
                       0.0000000000E+00  0.0000000000E+00  1.5089996726E+01
          spgroup         166
           strten      0.0000000000E+00  0.0000000000E+00  0.0000000000E+00
                       0.0000000000E+00  0.0000000000E+00  0.0000000000E+00
           symrel      1  0  0   0  1  0   0  0  1      -1  0  0   0 -1  0   0  0 -1
                       0  1  0   1  0  0   0  0  1       0 -1  0  -1  0  0   0  0 -1
                       0  0  1   1  0  0   0  1  0       0  0 -1  -1  0  0   0 -1  0
                       1  0  0   0  0  1   0  1  0      -1  0  0   0  0 -1   0 -1  0
                       0  1  0   0  0  1   1  0  0       0 -1  0   0  0 -1  -1  0  0
                       0  0  1   0  1  0   1  0  0       0  0 -1   0 -1  0  -1  0  0
           tolwfr      1.00000000E-20
            typat      1  2  3  3
           useylm           1
              wtk        0.50000    0.50000
           xangst      2.9156706220E+00  1.7634998461E+00  1.0914060343E+01
                       0.0000000000E+00  0.0000000000E+00  0.0000000000E+00
                       4.2837266031E+00  2.5909480819E+00  1.6035024769E+01
                       1.5476146408E+00  9.3605161032E-01  5.7930959177E+00
            xcart      5.5098189692E+00  3.3325317445E+00  2.0624585046E+01
                       0.0000000000E+00  0.0000000000E+00  0.0000000000E+00
                       8.0950701081E+00  4.8961822993E+00  3.0301805347E+01
                       2.9245678303E+00  1.7688811898E+00  1.0947364746E+01
             xred      5.0000000000E-01  5.0000000000E-01  5.0000000000E-01
                       0.0000000000E+00  0.0000000000E+00  0.0000000000E+00
                       7.3460400000E-01  7.3460400000E-01  7.3460400000E-01
                       2.6539600000E-01  2.6539600000E-01  2.6539600000E-01
            znucl       37.00000   83.00000   16.00000

- Timing analysis has been suppressed with timopt=0

 Suggested references for the acknowledgment of ABINIT usage.

 Calculation completed.
.Delivered  14 WARNINGs and  15 COMMENTs to log file.