.Version 9.5.2 of ABINIT

 ABINIT is a project of the Universite Catholique de Louvain,
 Corning Inc. and other collaborators, see ~abinit/doc/developers/contributors.txt .
 acknowledgments of the ABINIT effort.

.Starting date : Mon 31 May 2021.
- ( at 22h36 )

- input  file    -> /scratch/users/j/a/jabreu/flow_simple_11atoms/flow/w369/t1/run.abi
- output file    -> /scratch/users/j/a/jabreu/flow_simple_11atoms/flow/w369/t1/run.abo
- root for input  files -> /scratch/users/j/a/jabreu/flow_simple_11atoms/flow/w369/t1/indata/in
- root for output files -> /scratch/users/j/a/jabreu/flow_simple_11atoms/flow/w369/t1/outdata/out

 Symmetries : space group R3 m (#160); Bravais hR (rhombohedral)
     intxc =       0      iscf =       7    lmnmax =      18     lnmax =       6
     mgfft =      90  mpssoang =       3    mqgrid =    3389     natom =      15
  nloc_mem =       1    nspden =       1   nspinor =       1    nsppol =       1
      nsym =       6    n1xccc =    2501    ntypat =       3    occopt =       1
   xclevel =       2
-    mband =          79        mffmem =           1         mkmem =           2
-   mkqmem =           2        mk1mem =           2           mpw =       26500
      nfft =      729000          nkpt =           2
  Rough estimation (10% accuracy) of disk space for files :

------------- Echo of variables that govern the present computation ------------
-
- outvars: echo of selected default values
-   iomode0 =  0 , fftalg0 =512 , wfoptalg0 =  0
-
- outvars: echo of global parameters not present in the input file
-  max_nthreads =    0
-
 -outvars: echo values of preprocessed input variables --------
            acell      1.0000000000E+00  1.0000000000E+00  1.0000000000E+00 Bohr
              amu      6.35460000E+01  1.18710000E+02  3.09737620E+01
             ecut      4.60000000E+01 Hartree
-          fftalg         512
           irdden           1
           irdwfk           1
           istwfk        1    1
              ixc     -116133
              kpt      0.00000000E+00  0.00000000E+00  0.00000000E+00
                       5.00000000E-01  5.00000000E-01  5.00000000E-01
           kptopt           0
P           mkmem           2
P          mkqmem           2
P          mk1mem           2
            natom          15
            nband          79
           nbdbuf           4
            ngfft          90      90      90
             nkpt           2
            nstep        2000
             nsym           6
           ntypat           3
              occ      2.000000  2.000000  2.000000  2.000000  2.000000  2.000000
                       2.000000  2.000000  2.000000  2.000000  2.000000  2.000000
                       2.000000  2.000000  2.000000  2.000000  2.000000  2.000000
                       2.000000  2.000000  2.000000  2.000000  2.000000  2.000000
                       2.000000  2.000000  2.000000  2.000000  2.000000  2.000000
                       2.000000  2.000000  2.000000  2.000000  2.000000  2.000000
                       2.000000  2.000000  2.000000  2.000000  2.000000  2.000000
                       2.000000  2.000000  2.000000  2.000000  2.000000  2.000000
                       2.000000  2.000000  2.000000  2.000000  2.000000  2.000000
                       2.000000  2.000000  2.000000  2.000000  2.000000  2.000000
                       2.000000  2.000000  2.000000  2.000000  2.000000  2.000000
                       2.000000  2.000000  2.000000  2.000000  0.000000  0.000000
                       0.000000  0.000000  0.000000  0.000000  0.000000  0.000000
                       0.000000
        optdriver           1
            prtwf          -1
            rfdir           1       1       1
           rfelfd           2
            rprim      1.1771383256E+01  0.0000000000E+00  6.8078725034E+00
                       3.9271571132E+00  1.1096977100E+01  6.8078725034E+00
                       0.0000000000E+00  0.0000000000E+00  1.3598256939E+01
          spgroup         160
           symrel      1  0  0   0  1  0   0  0  1       0  1  0   1  0  0   0  0  1
                       0  0  1   1  0  0   0  1  0       1  0  0   0  0  1   0  1  0
                       0  1  0   0  0  1   1  0  0       0  0  1   0  1  0   1  0  0
           tolwfr      1.00000000E-20
            typat      1  1  1  1  2  3  3  3  3  3  3  3  3  3  3
           useylm           1
              wtk        0.50000    0.50000
           xangst      4.0373525489E-03  2.8539219397E-03  6.9989003779E-03
                       3.1415088777E+00  2.2206683715E+00  8.9086048737E+00
                       4.1415266853E+00  5.0464210446E+00  7.1794901070E+00
                       6.1389934540E+00  2.2206683715E+00  7.1794901070E+00
                       3.5520228974E+00  2.5108523356E+00  6.1575634275E+00
                       7.2677492684E+00  2.9572209949E+00  1.2598912898E+01
                       5.2124551180E+00  5.8647802247E+00  1.2598912898E+01
                       7.2634796839E+00  5.1344052265E+00  1.2591511415E+01
                       6.2418896194E+00  2.2240566698E+00  1.0820547150E+01
                       4.1767658214E+00  2.9524703306E+00  1.0745637763E+01
                       8.2967179513E+00  5.8647802247E+00  1.0819739636E+01
                       4.1790489770E+00  5.1422916816E+00  1.0820547150E+01
                       7.2746364009E+00  5.1422916816E+00  9.0348412388E+00
                       7.2109338487E+00  2.9524703306E+00  8.9953619542E+00
                       5.1890219253E+00  5.8128047862E+00  8.9953619542E+00
            xcart      7.6294906192E-03  5.3931308706E-03  1.3226004946E-02
                       5.9365914229E+00  4.1964550541E+00  1.6834823437E+01
                       7.8263512073E+00  9.5363537255E+00  1.3567270076E+01
                       1.1601016360E+01  4.1964550541E+00  1.3567270076E+01
                       6.7123504938E+00  4.7448232745E+00  1.1636108524E+01
                       1.3734055720E+01  5.5883377948E+00  2.3808494949E+01
                       9.8501126530E+00  1.1082828454E+01  2.3808494949E+01
                       1.3725987374E+01  9.7026197334E+00  2.3794508173E+01
                       1.1795461932E+01  4.2028580099E+00  2.0447870721E+01
                       7.8929435237E+00  5.5793603403E+00  2.0306312495E+01
                       1.5678524730E+01  1.1082828454E+01  2.0446344742E+01
                       7.8972580625E+00  9.7175229737E+00  2.0447870721E+01
                       1.3747070514E+01  9.7175229737E+00  1.7073375595E+01
                       1.3626690136E+01  5.5793603403E+00  1.6998770560E+01
                       9.8058303363E+00  1.0984609110E+01  1.6998770560E+01
             xred      4.8600000000E-04  4.8600000000E-04  4.8600000000E-04
                       3.7816200000E-01  3.7816200000E-01  8.5936500000E-01
                       3.7816200000E-01  8.5936500000E-01  3.7816200000E-01
                       8.5936500000E-01  3.7816200000E-01  3.7816200000E-01
                       4.2757800000E-01  4.2757800000E-01  4.2757800000E-01
                       9.9872500000E-01  5.0359100000E-01  9.9872500000E-01
                       5.0359100000E-01  9.9872500000E-01  9.9872500000E-01
                       8.7434800000E-01  8.7434800000E-01  8.7434800000E-01
                       8.7569100000E-01  3.7873900000E-01  8.7569100000E-01
                       5.0278200000E-01  5.0278200000E-01  9.8987400000E-01
                       9.9872500000E-01  9.9872500000E-01  5.0359100000E-01
                       3.7873900000E-01  8.7569100000E-01  8.7569100000E-01
                       8.7569100000E-01  8.7569100000E-01  3.7873900000E-01
                       9.8987400000E-01  5.0278200000E-01  5.0278200000E-01
                       5.0278200000E-01  9.8987400000E-01  5.0278200000E-01
            znucl       29.00000   50.00000   15.00000

 chkinp: Checking input parameters for consistency.

== DATASET  1 ==================================================================
-   mpi_nproc: 1, omp_nthreads: -1 (-1 if OMP is not activated)

--- !DatasetInfo
iteration_state: {dtset: 1, }
dimensions: {natom: 15, nkpt: 2, mband: 79, nsppol: 1, nspinor: 1, nspden: 1, mpw: 26500, }
cutoff_energies: {ecut:  46.0, pawecutdg:  -1.0, }
electrons: {nelect:   1.40000000E+02, charge:   0.00000000E+00, occopt:   1.00000000E+00, tsmear:   1.00000000E-02, }
meta: {optdriver: 1, rfelfd: 2, }
...

 Real(R)+Recip(G) space primitive vectors, cartesian coordinates (Bohr,Bohr^-1):
 R(1)= 11.7713833  0.0000000  6.8078725  G(1)=  0.0849518 -0.0300640  0.0000000
 R(2)=  3.9271571 11.0969771  6.8078725  G(2)=  0.0000000  0.0901146  0.0000000
 R(3)=  0.0000000  0.0000000 13.5982569  G(3)= -0.0425305 -0.0300640  0.0735388
 Unit cell volume ucvol=  1.7762964E+03 bohr^3
 Angles (23,13,12)=  5.99574486E+01  5.99574486E+01  5.99574486E+01 degrees

 getcut: wavevector=  0.0000  0.0000  0.0000  ngfft=  90  90  90
         ecut(hartree)=     46.000   => boxcut(ratio)=   2.16802

--- Pseudopotential description ------------------------------------------------
- pspini: atom type   1  psp file is /scratch/users/j/a/jabreu/pseudos/PBEsol/Cu.psp8
- pspatm: opening atomic psp file    /scratch/users/j/a/jabreu/pseudos/PBEsol/Cu.psp8
- Cu    ONCVPSP-3.3.0  r_core=   1.26204   1.45626   1.76249
- 29.00000  19.00000    180112                znucl, zion, pspdat
    8 -116133    2    4       600   0.00000   pspcod,pspxc,lmax,lloc,mmax,r2well
    5.99000000000000    3.50000000000000    0.00000000000000   rchrg,fchrg,qchrg
     nproj     2     2     2
     extension_switch     1
  pspatm : epsatm=   21.63488701
         --- l  ekb(1:nproj) -->
             0    5.008230   -0.401634
             1   -3.496700   -0.765945
             2   -6.895851   -2.521180
 pspatm: atomic psp has been read  and splines computed

- pspini: atom type   2  psp file is /scratch/users/j/a/jabreu/pseudos/PBEsol/Sn.psp8
- pspatm: opening atomic psp file    /scratch/users/j/a/jabreu/pseudos/PBEsol/Sn.psp8
- Sn    ONCVPSP-3.3.0  r_core=   2.27326   2.62311   1.85601
- 50.00000  14.00000    180112                znucl, zion, pspdat
    8 -116133    2    4       600   0.00000   pspcod,pspxc,lmax,lloc,mmax,r2well
    5.99000000000000    6.50000000000000    0.00000000000000   rchrg,fchrg,qchrg
     nproj     2     2     2
     extension_switch     1
  pspatm : epsatm=   32.44586081
         --- l  ekb(1:nproj) -->
             0    5.587869    0.749373
             1    4.197111    0.728791
             2   -5.271877   -1.523486
 pspatm: atomic psp has been read  and splines computed

- pspini: atom type   3  psp file is /scratch/users/j/a/jabreu/pseudos/PBEsol/P.psp8
- pspatm: opening atomic psp file    /scratch/users/j/a/jabreu/pseudos/PBEsol/P.psp8
- P     ONCVPSP-3.3.0  r_core=   1.46089   1.55067   1.70594
- 15.00000   5.00000    180112                znucl, zion, pspdat
    8 -116133    2    4       600   0.00000   pspcod,pspxc,lmax,lloc,mmax,r2well
    5.99000000000000    5.00000000000000    0.00000000000000   rchrg,fchrg,qchrg
     nproj     2     2     2
     extension_switch     1
  pspatm : epsatm=    7.31221086
[...]
iteration_state: {dtset: 1, }
solver: {iscf: 7, nstep: 2000, nline: 4, wfoptalg: 0, }
tolerances: {tolwfr: 1.00E-20, }
...

     iter   2DEtotal(Ha)        deltaE(Ha) residm    vres2
-ETOT  1  -64.002446848251     -6.400E+01 2.537E-01 0.000E+00
 ETOT  2  -64.541133137624     -5.387E-01 1.019E-02 0.000E+00
 ETOT  3  -64.570449422398     -2.932E-02 2.212E-03 0.000E+00
 ETOT  4  -64.572727096244     -2.278E-03 7.175E-04 0.000E+00
 ETOT  5  -64.572931561237     -2.045E-04 2.725E-04 0.000E+00
 ETOT  6  -64.572951514853     -1.995E-05 9.906E-05 0.000E+00
 ETOT  7  -64.572953576175     -2.061E-06 3.942E-05 0.000E+00
 ETOT  8  -64.572953798755     -2.226E-07 1.420E-05 0.000E+00
 ETOT  9  -64.572953823662     -2.491E-08 5.791E-06 0.000E+00
 ETOT 10  -64.572953826534     -2.872E-09 2.068E-06 0.000E+00
 ETOT 11  -64.572953826873     -3.397E-10 8.586E-07 0.000E+00
 ETOT 12  -64.572953826914     -4.107E-11 3.043E-07 0.000E+00
 ETOT 13  -64.572953826919     -5.002E-12 1.281E-07 0.000E+00
 ETOT 14  -64.572953826920     -5.116E-13 4.509E-08 0.000E+00
 ETOT 15  -64.572953826920     -2.842E-14 1.921E-08 0.000E+00
 ETOT 16  -64.572953826920     -8.527E-14 6.721E-09 0.000E+00
 ETOT 17  -64.572953826920      2.842E-14 2.892E-09 0.000E+00
 ETOT 18  -64.572953826920     -5.684E-14 1.006E-09 0.000E+00
 ETOT 19  -64.572953826920     -1.421E-14 4.369E-10 0.000E+00
 ETOT 20  -64.572953826920      1.421E-14 1.512E-10 0.000E+00
 ETOT 21  -64.572953826920      2.842E-14 6.616E-11 0.000E+00
 ETOT 22  -64.572953826920      0.000E+00 2.278E-11 0.000E+00
 ETOT 23  -64.572953826920      0.000E+00 1.004E-11 0.000E+00
 ETOT 24  -64.572953826920      0.000E+00 3.438E-12 0.000E+00
 ETOT 25  -64.572953826920      0.000E+00 1.525E-12 0.000E+00
 ETOT 26  -64.572953826920     -2.842E-14 5.198E-13 0.000E+00
 ETOT 27  -64.572953826920      2.842E-14 2.318E-13 0.000E+00
 ETOT 28  -64.572953826920     -1.421E-14 7.868E-14 0.000E+00
 ETOT 29  -64.572953826920      0.000E+00 3.525E-14 0.000E+00
 ETOT 30  -64.572953826920      1.421E-14 1.192E-14 0.000E+00
 ETOT 31  -64.572953826920      0.000E+00 5.365E-15 0.000E+00
 ETOT 32  -64.572953826920     -1.421E-14 1.807E-15 0.000E+00
 ETOT 33  -64.572953826920      4.263E-14 8.167E-16 0.000E+00
 ETOT 34  -64.572953826920     -1.421E-14 2.740E-16 0.000E+00
 ETOT 35  -64.572953826920      0.000E+00 1.244E-16 0.000E+00
 ETOT 36  -64.572953826920     -1.421E-14 4.158E-17 0.000E+00
 ETOT 37  -64.572953826920      0.000E+00 1.894E-17 0.000E+00
 ETOT 38  -64.572953826920      0.000E+00 6.313E-18 0.000E+00
 ETOT 39  -64.572953826920      0.000E+00 2.885E-18 0.000E+00
 ETOT 40  -64.572953826920      0.000E+00 9.586E-19 0.000E+00
 ETOT 41  -64.572953826920      0.000E+00 4.394E-19 0.000E+00
 ETOT 42  -64.572953826920      0.000E+00 1.456E-19 0.000E+00
 ETOT 43  -64.572953826920      0.000E+00 6.695E-20 0.000E+00
 ETOT 44  -64.572953826920      0.000E+00 2.212E-20 0.000E+00
 ETOT 45  -64.572953826920      0.000E+00 9.986E-21 0.000E+00

 At SCF step   45   max residual=  9.99E-21 < tolwfr=  1.00E-20 =>converged.

 ----iterations are completed or convergence reached----

 dfpt_looppert: DFPT cycle converged with prtwf=-1. Will skip output of the 1st-order WFK file.
 dfpt_looppert : ek2=    8.9765279697E+01
          f-sum rule ratio=    1.2604854296E+00
 prteigrs : about to open file /scratch/users/j/a/jabreu/flow_simple_11atoms/flow/w369/t1/tmpdata/tmp_1WF1_EIG
 Expectation of eigenvalue derivatives (hartree) for nkpt=   2  k points:
  (in case of degenerate eigenvalues, averaged derivative)
 kpt#   1, nband= 79, wtk=  0.50000, kpt=  0.0000  0.0000  0.0000 (reduced coord)
   0.00000    0.00000    0.00000    0.00000   -0.00000   -0.00000   -0.00000    0.00000
   0.00000    0.00000   -0.00000   -0.00000   -0.00000   -0.00000    0.00000    0.00000
   0.00000    0.00000    0.00000    0.00000   -0.00000   -0.00000    0.00000    0.00000
  -0.00000    0.00000    0.00000   -0.00000   -0.00000   -0.00000   -0.00000   -0.00000
  -0.00000   -0.00000   -0.00000    0.00000    0.00000    0.00000    0.00000   -0.00000
  -0.00000   -0.00000    0.00000    0.00000    0.00000   -0.00000   -0.00000   -0.00000
   0.00000    0.00000   -0.00000   -0.00000    0.00000   -0.00000   -0.00000   -0.00000
   0.00000    0.00000    0.00000    0.00000    0.00000    0.00000    0.00000    0.00000
  -0.00000   -0.00000    0.00000    0.00000    0.00000   -0.00000   -0.00000   -0.00000
  -0.00000   -0.00000   -0.00000   -0.00000    0.00000    0.00000    0.00000
 prteigrs : prtvol=0 or 1, do not print more k-points.

 Eight components of 2nd-order total energy (hartree) are
 1,2,3: 0th-order hamiltonian combined with 1st-order wavefunctions
     kin0=   1.15021065E+02 eigvalue=  -9.18044706E+00  local=  -5.99260858E+01
 4,5,6: 1st-order hamiltonian combined with 1st and 0th-order wfs
     kin1=  -1.13147827E+02  Hartree=   0.00000000E+00     xc=   0.00000000E+00
 7,8,9: eventually, occupation + non-local contributions
    edocc=   1.70696397E+01     enl0=   1.58878186E+00   enl1=  -1.59980805E+01
 1-9 gives the relaxation energy (to be shifted if some occ is /=2.0)
   erelax=  -6.45729538E+01
  No Ewald or frozen-wf contrib.: the relaxation energy is the total one
 2DEtotal=   -0.6457295383E+02 Ha. Also 2DEtotal=   -0.175711943356E+04 eV
    (  non-var. 2DEtotal :   -6.4572953826E+01 Ha)

 CALCULATION OF EFFECTIVE MASSES
 NOTE : Additional infos (eff. mass eigenvalues, eigenvectors and, if degenerate, average mass) are available in stdout.

 K-point ( 0.000, 0.000, 0.000) | band =    70
 Effective mass tensor:
             -0.3463160980             -0.0523050552             -0.1282718382
             -0.0523050552             -0.3092951882             -0.0906727351
             -0.1282718382             -0.0906727351             -0.4946858104
 Effective mass tensor eigenvalues:
             -0.6056534622             -0.2723218272             -0.2723218072
 Angular average effective mass 1/(<1/m>)=  -0.3335052364
 Angular average effective mass for Frohlich model (<m**0.5>)**2=  -0.3456905403
 Effective masses along directions: (cart. coord. / red. coord. -> eff. mass)
    1:   1.000000  0.000000  0.000000 /   0.948602  0.316472  0.000000 ->  -0.3102225174
    2:   0.000000  1.000000  0.000000 /   0.000000  1.000000  0.000000 ->  -0.2900271255
    3:   0.000000  0.000000  1.000000 /   0.408598  0.408598  0.816147 ->  -0.4303083336
    4:   0.577350  0.577350  0.577350 /   0.585558  0.688074  0.428573 ->  -0.5257490757
    5:   0.000000  0.707107  0.707107 /   0.289803  0.762189  0.578862 ->  -0.4280495563
    6:   0.707107  0.000000  0.707107 /   0.731363  0.422579  0.535289 ->  -0.5010066965
    7:   0.707107  0.707107  0.000000 /   0.616742  0.787165  0.000000 ->  -0.3312801517

 K-point ( 0.500, 0.500, 0.500) | band =    71
 Effective mass tensor:
              0.1821520793             -0.0071901540             -0.0176327684
             -0.0071901540              0.1872405912             -0.0124647336
             -0.0176327684             -0.0124647336              0.1617554223
 Effective mass tensor eigenvalues:
              0.1465013877              0.1923233420              0.1923233631
 Angular average effective mass 1/(<1/m>)=   0.1741651834
 Angular average effective mass for Frohlich model (<m**0.5>)**2=   0.1750654609
 Effective masses along directions: (cart. coord. / red. coord. -> eff. mass)
    1:   1.000000  0.000000  0.000000 /   0.948602  0.316472  0.000000 ->   0.1798376178
    2:   0.000000  1.000000  0.000000 /   0.000000  1.000000  0.000000 ->   0.1858745652
    3:   0.000000  0.000000  1.000000 /   0.408598  0.408598  0.816147 ->   0.1591220800
    4:   0.577350  0.577350  0.577350 /   0.585558  0.688074  0.428573 ->   0.1509674885
    5:   0.000000  0.707107  0.707107 /   0.289803  0.762189  0.578862 ->   0.1593721596
    6:   0.707107  0.000000  0.707107 /   0.731363  0.422579  0.535289 ->   0.1527103746
    7:   0.707107  0.707107  0.000000 /   0.616742  0.787165  0.000000 ->   0.1746583807

 END OF EFFECTIVE MASSES SECTION

 ---- first-order wavefunction calculations are completed ----

 Total localisation tensor (bohr^2) in cartesian coordinates
  WARNING : still subject to testing - especially symmetries.
      direction              matrix element
   alpha     beta       real part   imaginary part
     1        1       3.1020704183    0.0000000000
     1        2       0.8779290504    0.0000000000
     1        3       2.1529668654    0.0000000000
     2        1       0.8779290504    0.0000000000
     2        2       2.4807661846    0.0000000000
     2        3       1.5219225689    0.0000000000
     3        1       2.1529668654    0.0000000000
     3        2       1.5219225689    0.0000000000
     3        3       5.5922680591    0.0000000000

 respfn : d/dk was computed, but no 2DTE, so no DDB output.

== END DATASET(S) ==============================================================

 -outvars: echo values of variables after computation  --------
            acell      1.0000000000E+00  1.0000000000E+00  1.0000000000E+00 Bohr
              amu      6.35460000E+01  1.18710000E+02  3.09737620E+01
             ecut      4.60000000E+01 Hartree
           etotal     -6.4572953827E+01
            fcart      0.0000000000E+00  0.0000000000E+00  0.0000000000E+00
                       0.0000000000E+00  0.0000000000E+00  0.0000000000E+00
                       0.0000000000E+00  0.0000000000E+00  0.0000000000E+00
                       0.0000000000E+00  0.0000000000E+00  0.0000000000E+00
                       0.0000000000E+00  0.0000000000E+00  0.0000000000E+00
                       0.0000000000E+00  0.0000000000E+00  0.0000000000E+00
                       0.0000000000E+00  0.0000000000E+00  0.0000000000E+00
                       0.0000000000E+00  0.0000000000E+00  0.0000000000E+00
                       0.0000000000E+00  0.0000000000E+00  0.0000000000E+00
                       0.0000000000E+00  0.0000000000E+00  0.0000000000E+00
                       0.0000000000E+00  0.0000000000E+00  0.0000000000E+00
                       0.0000000000E+00  0.0000000000E+00  0.0000000000E+00
                       0.0000000000E+00  0.0000000000E+00  0.0000000000E+00
                       0.0000000000E+00  0.0000000000E+00  0.0000000000E+00
                       0.0000000000E+00  0.0000000000E+00  0.0000000000E+00
-          fftalg         512
           irdden           1
           irdwfk           1
           istwfk        1    1
              ixc     -116133
              kpt      0.00000000E+00  0.00000000E+00  0.00000000E+00
                       5.00000000E-01  5.00000000E-01  5.00000000E-01
           kptopt           0
P           mkmem           2
P          mkqmem           2
P          mk1mem           2
            natom          15
            nband          79
           nbdbuf           4
            ngfft          90      90      90
             nkpt           2
            nstep        2000
             nsym           6
           ntypat           3
              occ      2.000000  2.000000  2.000000  2.000000  2.000000  2.000000
                       2.000000  2.000000  2.000000  2.000000  2.000000  2.000000
                       2.000000  2.000000  2.000000  2.000000  2.000000  2.000000
                       2.000000  2.000000  2.000000  2.000000  2.000000  2.000000
                       2.000000  2.000000  2.000000  2.000000  2.000000  2.000000
                       2.000000  2.000000  2.000000  2.000000  2.000000  2.000000
                       2.000000  2.000000  2.000000  2.000000  2.000000  2.000000
                       2.000000  2.000000  2.000000  2.000000  2.000000  2.000000
                       2.000000  2.000000  2.000000  2.000000  2.000000  2.000000
                       2.000000  2.000000  2.000000  2.000000  2.000000  2.000000
                       2.000000  2.000000  2.000000  2.000000  2.000000  2.000000
                       2.000000  2.000000  2.000000  2.000000  0.000000  0.000000
                       0.000000  0.000000  0.000000  0.000000  0.000000  0.000000
                       0.000000
        optdriver           1
            prtwf          -1
            rfdir           1       1       1
           rfelfd           2
            rprim      1.1771383256E+01  0.0000000000E+00  6.8078725034E+00
                       3.9271571132E+00  1.1096977100E+01  6.8078725034E+00
                       0.0000000000E+00  0.0000000000E+00  1.3598256939E+01
          spgroup         160
           strten      0.0000000000E+00  0.0000000000E+00  0.0000000000E+00
                       0.0000000000E+00  0.0000000000E+00  0.0000000000E+00
           symrel      1  0  0   0  1  0   0  0  1       0  1  0   1  0  0   0  0  1
                       0  0  1   1  0  0   0  1  0       1  0  0   0  0  1   0  1  0
                       0  1  0   0  0  1   1  0  0       0  0  1   0  1  0   1  0  0
           tolwfr      1.00000000E-20
            typat      1  1  1  1  2  3  3  3  3  3  3  3  3  3  3
           useylm           1
              wtk        0.50000    0.50000
           xangst      4.0373525489E-03  2.8539219397E-03  6.9989003779E-03
                       3.1415088777E+00  2.2206683715E+00  8.9086048737E+00
                       4.1415266853E+00  5.0464210446E+00  7.1794901070E+00
                       6.1389934540E+00  2.2206683715E+00  7.1794901070E+00
                       3.5520228974E+00  2.5108523356E+00  6.1575634275E+00
                       7.2677492684E+00  2.9572209949E+00  1.2598912898E+01
                       5.2124551180E+00  5.8647802247E+00  1.2598912898E+01
                       7.2634796839E+00  5.1344052265E+00  1.2591511415E+01
                       6.2418896194E+00  2.2240566698E+00  1.0820547150E+01
                       4.1767658214E+00  2.9524703306E+00  1.0745637763E+01
                       8.2967179513E+00  5.8647802247E+00  1.0819739636E+01
                       4.1790489770E+00  5.1422916816E+00  1.0820547150E+01
                       7.2746364009E+00  5.1422916816E+00  9.0348412388E+00
                       7.2109338487E+00  2.9524703306E+00  8.9953619542E+00
                       5.1890219253E+00  5.8128047862E+00  8.9953619542E+00
            xcart      7.6294906192E-03  5.3931308706E-03  1.3226004946E-02
                       5.9365914229E+00  4.1964550541E+00  1.6834823437E+01
                       7.8263512073E+00  9.5363537255E+00  1.3567270076E+01
                       1.1601016360E+01  4.1964550541E+00  1.3567270076E+01
                       6.7123504938E+00  4.7448232745E+00  1.1636108524E+01
                       1.3734055720E+01  5.5883377948E+00  2.3808494949E+01
                       9.8501126530E+00  1.1082828454E+01  2.3808494949E+01
                       1.3725987374E+01  9.7026197334E+00  2.3794508173E+01
                       1.1795461932E+01  4.2028580099E+00  2.0447870721E+01
                       7.8929435237E+00  5.5793603403E+00  2.0306312495E+01
                       1.5678524730E+01  1.1082828454E+01  2.0446344742E+01
                       7.8972580625E+00  9.7175229737E+00  2.0447870721E+01
                       1.3747070514E+01  9.7175229737E+00  1.7073375595E+01
                       1.3626690136E+01  5.5793603403E+00  1.6998770560E+01
                       9.8058303363E+00  1.0984609110E+01  1.6998770560E+01
             xred      4.8600000000E-04  4.8600000000E-04  4.8600000000E-04
                       3.7816200000E-01  3.7816200000E-01  8.5936500000E-01
                       3.7816200000E-01  8.5936500000E-01  3.7816200000E-01
                       8.5936500000E-01  3.7816200000E-01  3.7816200000E-01
                       4.2757800000E-01  4.2757800000E-01  4.2757800000E-01
                       9.9872500000E-01  5.0359100000E-01  9.9872500000E-01
                       5.0359100000E-01  9.9872500000E-01  9.9872500000E-01
                       8.7434800000E-01  8.7434800000E-01  8.7434800000E-01
                       8.7569100000E-01  3.7873900000E-01  8.7569100000E-01
                       5.0278200000E-01  5.0278200000E-01  9.8987400000E-01
                       9.9872500000E-01  9.9872500000E-01  5.0359100000E-01
                       3.7873900000E-01  8.7569100000E-01  8.7569100000E-01
                       8.7569100000E-01  8.7569100000E-01  3.7873900000E-01
                       9.8987400000E-01  5.0278200000E-01  5.0278200000E-01
                       5.0278200000E-01  9.8987400000E-01  5.0278200000E-01
            znucl       29.00000   50.00000   15.00000

- Timing analysis has been suppressed with timopt=0

 Suggested references for the acknowledgment of ABINIT usage.

 Calculation completed.
.Delivered   2 WARNINGs and   5 COMMENTs to log file.