.Version 9.5.1 of ABINIT

 ABINIT is a project of the Universite Catholique de Louvain,
 Corning Inc. and other collaborators, see ~abinit/doc/developers/contributors.txt .
 acknowledgments of the ABINIT effort.

.Starting date : Tue 11 May 2021.
- ( at 21h55 )

- input  file    -> /scratch/users/j/a/jabreu/flow_simple_8atoms/flow/w371/t1/run.abi
- output file    -> /scratch/users/j/a/jabreu/flow_simple_8atoms/flow/w371/t1/run.abo
- root for input  files -> /scratch/users/j/a/jabreu/flow_simple_8atoms/flow/w371/t1/indata/in
- root for output files -> /scratch/users/j/a/jabreu/flow_simple_8atoms/flow/w371/t1/outdata/out

 Symmetries : space group I-4 2 d (#122); Bravais tI (body-center tetrag.)
     intxc =       0      iscf =       7    lmnmax =      32     lnmax =       8
     mgfft =      72  mpssoang =       4    mqgrid =    3001     natom =       8
  nloc_mem =       1    nspden =       1   nspinor =       1    nsppol =       1
      nsym =       8    n1xccc =    2501    ntypat =       3    occopt =       1
   xclevel =       2
-    mband =          41        mffmem =           1         mkmem =           2
-   mkqmem =           2        mk1mem =           2           mpw =       14504
      nfft =      373248          nkpt =           2
  Rough estimation (10% accuracy) of disk space for files :

------------- Echo of variables that govern the present computation ------------
-
- outvars: echo of selected default values
-   iomode0 =  0 , fftalg0 =512 , wfoptalg0 =  0
-
- outvars: echo of global parameters not present in the input file
-  max_nthreads =    0
-
 -outvars: echo values of preprocessed input variables --------
            acell      1.0000000000E+00  1.0000000000E+00  1.0000000000E+00 Bohr
              amu      1.32905430E+02  1.80947900E+02  1.40067400E+01
             ecut      4.20000000E+01 Hartree
-          fftalg         512
           irdden           1
           irdwfk           1
           istwfk        1    0
              ixc     -116133
              kpt      0.00000000E+00  0.00000000E+00  0.00000000E+00
                       1.36363636E-01  1.36363636E-01 -1.36363636E-01
           kptopt           0
P           mkmem           2
P          mkqmem           2
P          mk1mem           2
            natom           8
            nband          41
           nbdbuf           4
            ngfft          72      72      72
             nkpt           2
            nstep        2000
             nsym           8
           ntypat           3
              occ      2.000000  2.000000  2.000000  2.000000  2.000000  2.000000
                       2.000000  2.000000  2.000000  2.000000  2.000000  2.000000
                       2.000000  2.000000  2.000000  2.000000  2.000000  2.000000
                       2.000000  2.000000  2.000000  2.000000  2.000000  2.000000
                       2.000000  2.000000  2.000000  2.000000  2.000000  2.000000
                       2.000000  2.000000  0.000000  0.000000  0.000000  0.000000
                       0.000000  0.000000  0.000000  0.000000  0.000000
        optdriver           1
            prtwf          -1
            rfdir           1       1       1
           rfelfd           2
            rprim      1.0075679737E+01  0.0000000000E+00 -5.8901743972E+00
                      -3.3167545541E+00  9.5141190549E+00 -5.8901743972E+00
                       0.0000000000E+00  0.0000000000E+00  1.1671052934E+01
          spgroup         122
           symrel      1  0  0   0  1  0   0  0  1       0  0  1  -1 -1 -1   1  0  0
                       0  1  0   1  0  0  -1 -1 -1      -1 -1 -1   0  0  1   0  1  0
                       0  1  0   1  0  0   0  0  1       0  0  1  -1 -1 -1   0  1  0
                       1  0  0   0  1  0  -1 -1 -1      -1 -1 -1   0  0  1   1  0  0
            tnons      0.0000000  0.0000000  0.0000000    -0.2500000  0.2500000  0.5000000
                       0.0000000  0.0000000  0.0000000    -0.2500000  0.2500000  0.5000000
                      -0.2500000  0.2500000  0.5000000     0.0000000 -0.0000000  0.0000000
                      -0.2500000  0.2500000  0.5000000    -0.0000000  0.0000000  0.0000000
           tolwfr      1.00000000E-20
            typat      1  1  2  2  3  3  3  3
           useylm           1
              wtk        0.50000    0.50000
           xangst      1.7883345807E+00  2.5173274818E+00 -3.1169460456E+00
                       1.6591832081E-02  3.7759912227E+00 -2.8918439106E-02
                       0.0000000000E+00  0.0000000000E+00  0.0000000000E+00
                       3.5600773293E+00  1.2586637409E+00 -2.8918439106E-02
                       3.8942487567E+00  3.1466593523E+00  1.4359203454E-01
                       1.6727655958E+00  9.3704494718E-01  1.7251047365E-01
                       4.1200731922E+00  6.2933187046E-01 -1.7599019356E+00
                       4.5532217724E+00  3.2161879373E-01  1.3281256709E+00
            xcart      3.3794625914E+00  4.7570595275E+00 -5.8901743972E+00
                       3.1354018675E-02  7.1355892912E+00 -5.4647930100E-02
                       0.0000000000E+00  0.0000000000E+00  0.0000000000E+00
                       6.7275711642E+00  2.3785297637E+00 -5.4647930100E-02
                       7.3590636434E+00  5.9463244093E+00  2.7134962015E-01
                       3.1610688605E+00  1.7707583244E+00  3.2599755025E-01
                       7.7858099808E+00  1.1892648819E+00 -3.3257326790E+00
                       8.6043421722E+00  6.0777143935E-01  2.5097937881E+00
             xred      5.0000000000E-01  5.0000000000E-01  1.1102230246E-16
                       2.5000000000E-01  7.5000000000E-01  5.0000000000E-01
                       0.0000000000E+00  0.0000000000E+00  0.0000000000E+00
                       7.5000000000E-01  2.5000000000E-01  5.0000000000E-01
                       9.3611900000E-01  6.2500000000E-01  8.1111900000E-01
                       3.7500000000E-01  1.8611900000E-01  3.1111900000E-01
                       8.1388100000E-01  1.2500000000E-01  1.8888100000E-01
                       8.7500000000E-01  6.3881000000E-02  6.8888100000E-01
            znucl       55.00000   73.00000    7.00000

 chkinp: Checking input parameters for consistency.

== DATASET  1 ==================================================================
-   mpi_nproc: 1, omp_nthreads: -1 (-1 if OMP is not activated)

--- !DatasetInfo
iteration_state: {dtset: 1, }
dimensions: {natom: 8, nkpt: 2, mband: 41, nsppol: 1, nspinor: 1, nspden: 1, mpw: 14504, }
cutoff_energies: {ecut:  42.0, pawecutdg:  -1.0, }
electrons: {nelect:   6.40000000E+01, charge:   0.00000000E+00, occopt:   1.00000000E+00, tsmear:   1.00000000E-02, }
meta: {optdriver: 1, rfelfd: 2, }
...

 Real(R)+Recip(G) space primitive vectors, cartesian coordinates (Bohr,Bohr^-1):
 R(1)= 10.0756797  0.0000000 -5.8901744  G(1)=  0.0992489  0.0345995  0.0000000
 R(2)= -3.3167546  9.5141191 -5.8901744  G(2)=  0.0000000  0.1051069  0.0000000
 R(3)=  0.0000000  0.0000000 11.6710529  G(3)=  0.0500892  0.0705074  0.0856821
 Unit cell volume ucvol=  1.1188013E+03 bohr^3
 Angles (23,13,12)=  1.20310268E+02  1.20310268E+02  8.94634346E+01 degrees

 getcut: wavevector=  0.0000  0.0000  0.0000  ngfft=  72  72  72
         ecut(hartree)=     42.000   => boxcut(ratio)=   2.11471

--- Pseudopotential description ------------------------------------------------
- pspini: atom type   1  psp file is /scratch/users/j/a/jabreu/pseudos/PBEsol/Cs.psp8
- pspatm: opening atomic psp file    /scratch/users/j/a/jabreu/pseudos/PBEsol/Cs.psp8
- Cs    ONCVPSP-3.3.0  r_core=   2.27353   1.85623   2.01788   1.90105
- 55.00000   9.00000    180112                znucl, zion, pspdat
    8 -116133    3    4       600   0.00000   pspcod,pspxc,lmax,lloc,mmax,r2well
    5.99000000000000    5.00000000000000    0.00000000000000   rchrg,fchrg,qchrg
     nproj     2     2     2     2
     extension_switch     1
  pspatm : epsatm=   22.12462445
         --- l  ekb(1:nproj) -->
             0    6.214110    0.767882
             1    6.311966    0.793598
             2    3.769790    0.913105
             3   -9.247129   -2.432478
 pspatm: atomic psp has been read  and splines computed

- pspini: atom type   2  psp file is /scratch/users/j/a/jabreu/pseudos/PBEsol/Ta.psp8
- pspatm: opening atomic psp file    /scratch/users/j/a/jabreu/pseudos/PBEsol/Ta.psp8
- Ta    ONCVPSP-3.3.0  r_core=   1.71294   1.71294   1.71294   2.25368
- 73.00000  13.00000    180112                znucl, zion, pspdat
    8 -116133    3    4       600   0.00000   pspcod,pspxc,lmax,lloc,mmax,r2well
    5.99000000000000    5.00000000000000    0.00000000000000   rchrg,fchrg,qchrg
     nproj     2     2     2     2
     extension_switch     1
  pspatm : epsatm=   21.70781236
         --- l  ekb(1:nproj) -->
             0   11.480337    1.447149
             1    5.630373    0.817168
             2    1.844704    0.232364
             3    4.923559    0.251242
 pspatm: atomic psp has been read  and splines computed

- pspini: atom type   3  psp file is /scratch/users/j/a/jabreu/pseudos/PBEsol/N.psp8
- pspatm: opening atomic psp file    /scratch/users/j/a/jabreu/pseudos/PBEsol/N.psp8
- N     ONCVPSP-3.3.0  r_core=   1.20551   1.35824
-  7.00000   5.00000    180112                znucl, zion, pspdat
    8 -116133    1    4       600   0.00000   pspcod,pspxc,lmax,lloc,mmax,r2well
    5.99000000000000    4.00000000000000    0.00000000000000   rchrg,fchrg,qchrg
     nproj     2     2
     extension_switch     1
  pspatm : epsatm=    5.26508895
         --- l  ekb(1:nproj) -->
             0    7.464189    0.625868
             1   -4.309714   -1.012941
 pspatm: atomic psp has been read  and splines computed

   6.95841468E+03                                ecore*ucvol(ha*bohr**3)

-inwffil : will read wavefunctions from disk file /scratch/users/j/a/jabreu/flow_simple_8atoms/flow/w371/t1/indata/in_WFK

 ==>  initialize data related to q vector <==

 The list of irreducible perturbations for this q vector is:
    1)    idir= 1    ipert=   9
    2)    idir= 2    ipert=   9
    3)    idir= 3    ipert=   9

 Perturbation wavevector (in red.coord.)   0.000000  0.000000  0.000000
 Perturbation : derivative vs k along direction   1

 dfpt_looppert : COMMENT -
  In a d/dk calculation, iscf is set to -3 automatically.
 The set of symmetries contains only one element for this perturbation.
 symkpt : not enough symmetry to change the number of k points.

[...]

 Initialisation of the first-order wave-functions :
  ireadwf=   0

--- !BeginCycle
iteration_state: {dtset: 1, }
solver: {iscf: 7, nstep: 2000, nline: 4, wfoptalg: 0, }
tolerances: {tolwfr: 1.00E-20, }
...

     iter   2DEtotal(Ha)        deltaE(Ha) residm    vres2
-ETOT  1  -34.151347931902     -3.415E+01 4.143E-02 0.000E+00
 ETOT  2  -34.206646820188     -5.530E-02 2.622E-03 0.000E+00
 ETOT  3  -34.207820995565     -1.174E-03 1.015E-04 0.000E+00
 ETOT  4  -34.207892511493     -7.152E-05 1.831E-05 0.000E+00
 ETOT  5  -34.207897766303     -5.255E-06 8.656E-07 0.000E+00
 ETOT  6  -34.207898176476     -4.102E-07 1.525E-07 0.000E+00
[...]
  (in case of degenerate eigenvalues, averaged derivative)
 kpt#   1, nband= 41, wtk=  0.50000, kpt=  0.0000  0.0000  0.0000 (reduced coord)
  -0.00000   -0.00000    0.00000    0.00000   -0.00000   -0.00000   -0.00000    0.00000
   0.00000   -0.00000   -0.00000    0.00000    0.00000   -0.00000    0.00000   -0.00000
  -0.00000   -0.00000    0.00000    0.00000   -0.00000   -0.00000    0.00000   -0.00000
  -0.00000   -0.00000    0.00000   -0.00000   -0.00000    0.00000   -0.00000   -0.00000
  -0.00000    0.00000   -0.00000   -0.00000   -0.00000    0.00000    0.00000    0.00007
   0.00220
 prteigrs : prtvol=0 or 1, do not print more k-points.

 Eight components of 2nd-order total energy (hartree) are
 1,2,3: 0th-order hamiltonian combined with 1st-order wavefunctions
     kin0=   4.05686469E+01 eigvalue=   3.94491868E-01  local=  -2.37920615E+01
 4,5,6: 1st-order hamiltonian combined with 1st and 0th-order wfs
     kin1=  -6.33401340E+01  Hartree=   0.00000000E+00     xc=   0.00000000E+00
 7,8,9: eventually, occupation + non-local contributions
    edocc=   1.28200207E+01     enl0=   4.21680029E+00   enl1=  -5.07566239E+00
 1-9 gives the relaxation energy (to be shifted if some occ is /=2.0)
   erelax=  -3.42078982E+01
  No Ewald or frozen-wf contrib.: the relaxation energy is the total one
 2DEtotal=   -0.3420789821E+02 Ha. Also 2DEtotal=   -0.930844249312E+03 eV
    (  non-var. 2DEtotal :   -3.4207898213E+01 Ha)

 Perturbation wavevector (in red.coord.)   0.000000  0.000000  0.000000
 Perturbation : derivative vs k along direction   2
 The set of symmetries contains only one element for this perturbation.
 symkpt : not enough symmetry to change the number of k points.

[...]

 Perturbation wavevector (in red.coord.)   0.000000  0.000000  0.000000
 Perturbation : derivative vs k along direction   3
 The set of symmetries contains only one element for this perturbation.
 symkpt : not enough symmetry to change the number of k points.

-inwffil : will read wavefunctions from disk file /scratch/users/j/a/jabreu/flow_simple_8atoms/flow/w371/t1/indata/in_WFK

 Initialisation of the first-order wave-functions :
  ireadwf=   0

--- !BeginCycle
iteration_state: {dtset: 1, }
solver: {iscf: 7, nstep: 2000, nline: 4, wfoptalg: 0, }
tolerances: {tolwfr: 1.00E-20, }
...

     iter   2DEtotal(Ha)        deltaE(Ha) residm    vres2
-ETOT  1  -46.549876845160     -4.655E+01 3.847E-02 0.000E+00
 ETOT  2  -46.614626168843     -6.475E-02 5.381E-03 0.000E+00
 ETOT  3  -46.615890860586     -1.265E-03 1.003E-04 0.000E+00
 ETOT  4  -46.615963968188     -7.311E-05 3.168E-05 0.000E+00
 ETOT  5  -46.615969136841     -5.169E-06 9.239E-07 0.000E+00
 ETOT  6  -46.615969532866     -3.960E-07 2.644E-07 0.000E+00
 ETOT  7  -46.615969564499     -3.163E-08 1.060E-08 0.000E+00
 ETOT  8  -46.615969567085     -2.586E-09 2.578E-09 0.000E+00
 ETOT  9  -46.615969567301     -2.158E-10 1.625E-10 0.000E+00
 ETOT 10  -46.615969567319     -1.814E-11 2.754E-11 0.000E+00
 ETOT 11  -46.615969567321     -1.577E-12 2.592E-12 0.000E+00
 ETOT 12  -46.615969567321     -1.705E-13 3.502E-13 0.000E+00
 ETOT 13  -46.615969567321     -2.132E-14 4.203E-14 0.000E+00
 ETOT 14  -46.615969567321      0.000E+00 5.720E-15 0.000E+00
 ETOT 15  -46.615969567321      3.553E-14 6.865E-16 0.000E+00
 ETOT 16  -46.615969567321      1.421E-14 9.397E-17 0.000E+00
 ETOT 17  -46.615969567321     -7.105E-14 1.126E-17 0.000E+00
 ETOT 18  -46.615969567321      4.974E-14 1.549E-18 0.000E+00
 ETOT 19  -46.615969567321     -7.105E-15 1.853E-19 0.000E+00
 ETOT 20  -46.615969567321     -2.132E-14 2.559E-20 0.000E+00
 ETOT 21  -46.615969567321      0.000E+00 9.894E-21 0.000E+00

 At SCF step   21   max residual=  9.89E-21 < tolwfr=  1.00E-20 =>converged.

 ----iterations are completed or convergence reached----

 dfpt_looppert: DFPT cycle converged with prtwf=-1. Will skip output of the 1st-order WFK file.
 dfpt_looppert : ek2=    7.4897241564E+01
          f-sum rule ratio=    1.1533813797E+00
 prteigrs : about to open file /scratch/users/j/a/jabreu/flow_simple_8atoms/flow/w371/t1/tmpdata/tmp_1WF1_EIG
 Expectation of eigenvalue derivatives (hartree) for nkpt=   2  k points:
  (in case of degenerate eigenvalues, averaged derivative)
 kpt#   1, nband= 41, wtk=  0.50000, kpt=  0.0000  0.0000  0.0000 (reduced coord)
   0.00000   -0.00000    0.00000    0.00000   -0.00000    0.00000    0.00000   -0.00000
  -0.00000   -0.00000   -0.00000   -0.00000   -0.00000   -0.00000   -0.00000   -0.00000
  -0.00000    0.00000    0.00000    0.00000    0.00000   -0.00000    0.00000   -0.00000
  -0.00000   -0.00000    0.00000   -0.00000   -0.00000   -0.00000   -0.00000   -0.00000
  -0.00000    0.00000   -0.00000    0.00000    0.00000    0.00000    0.00001   -0.00002
  -0.00221
 prteigrs : prtvol=0 or 1, do not print more k-points.

 Eight components of 2nd-order total energy (hartree) are
 1,2,3: 0th-order hamiltonian combined with 1st-order wavefunctions
     kin0=   5.37046921E+01 eigvalue=   3.93496506E-01  local=  -3.12662248E+01
 4,5,6: 1st-order hamiltonian combined with 1st and 0th-order wfs
     kin1=  -8.63850838E+01  Hartree=   0.00000000E+00     xc=   0.00000000E+00
 7,8,9: eventually, occupation + non-local contributions
    edocc=   1.82207482E+01     enl0=   5.56325760E+00   enl1=  -6.84685533E+00
 1-9 gives the relaxation energy (to be shifted if some occ is /=2.0)
   erelax=  -4.66159696E+01
  No Ewald or frozen-wf contrib.: the relaxation energy is the total one
 2DEtotal=   -0.4661596957E+02 Ha. Also 2DEtotal=   -0.126848504190E+04 eV
    (  non-var. 2DEtotal :   -4.6615969567E+01 Ha)

 CALCULATION OF EFFECTIVE MASSES
 NOTE : Additional infos (eff. mass eigenvalues, eigenvectors and, if degenerate, average mass) are available in stdout.

 COMMENTS:
 - At k-point ( 0.000, 0.000, 0.000), bands    31 through    32
   are DEGENERATE (effective mass tensor is therefore not defined).
   See Section IIIB Eqs. (67)-(70) and Appendix E of PRB 93 205147 (2016).
 - Angular average effective mass for Frohlich model is to be averaged over degenerate bands. See later.
 - Associated theta integrals calculated with ntheta=   1000 points.

 K-point ( 0.000, 0.000, 0.000) | band =    31
 Transport equivalent effective mass tensor:
             -0.4846588863             -0.0925893727              0.1146483338
             -0.0925893727             -0.5491925683              0.1613669251
              0.1146483338              0.1613669251             -0.6186863129
 Transport equivalent effective mass tensor eigenvalues:
             -0.8147883527             -0.4188755300             -0.4188738847
 Angular average effective mass 1/(<1/m>)=  -0.4684993134
 Angular average effective mass for Frohlich model (<m**0.5>)**2=  -0.4817705373
 Effective masses along directions: (cart. coord. / red. coord. -> eff. mass)
    1:   1.000000  0.000000  0.000000 /   0.949859 -0.312679  0.000000 ->  -0.4090897489
    2:   0.000000  1.000000  0.000000 /   0.000000  1.000000  0.000000 ->  -0.4248350048
    3:   0.000000  0.000000  1.000000 /  -0.410785 -0.410785  0.813948 ->  -0.5815102681
    4:   0.577350  0.577350  0.577350 /   0.337468  0.024768  0.941011 ->  -0.4571783413
    5:   0.000000  0.707107  0.707107 /  -0.434182  0.267131  0.860307 ->  -0.3845252977
    6:   0.707107  0.000000  0.707107 /   0.271022 -0.596171  0.755729 ->  -0.3654711384
    7:   0.707107  0.707107  0.000000 /   0.851774  0.523910  0.000000 ->  -0.5361918755

 K-point ( 0.000, 0.000, 0.000) | band =    32
 Transport equivalent effective mass tensor:
             -1.1449576715              0.0140431353             -0.0173763319
              0.0140431353             -1.1351326907             -0.0244917317
             -0.0173763319             -0.0244917317             -1.1246096681
 Transport equivalent effective mass tensor eigenvalues:
             -1.1549235719             -1.1549187991             -1.0948576593
 Angular average effective mass 1/(<1/m>)=  -0.8417904533
 Angular average effective mass for Frohlich model (<m**0.5>)**2=  -0.8613459996
 Effective masses along directions: (cart. coord. / red. coord. -> eff. mass)
    1:   1.000000  0.000000  0.000000 /   0.949859 -0.312679  0.000000 ->  -0.9657773776
    2:   0.000000  1.000000  0.000000 /   0.000000  1.000000  0.000000 ->  -1.0282537118
    3:   0.000000  0.000000  1.000000 /  -0.410785 -0.410785  0.813948 ->  -0.6938024714
    4:   0.577350  0.577350  0.577350 /   0.337468  0.024768  0.941011 ->  -0.7012317605
    5:   0.000000  0.707107  0.707107 /  -0.434182  0.267131  0.860307 ->  -0.9736777680
    6:   0.707107  0.000000  0.707107 /   0.271022 -0.596171  0.755729 ->  -1.1667701567
    7:   0.707107  0.707107  0.000000 /   0.851774  0.523910  0.000000 ->  -0.7588354027

 Angular average effective mass for Frohlich model, averaged over degenerate bands.
 Value of     (<<m**0.5>>)**2 =     6.578704E-01
 Absolute Value of <<m**0.5>> =     8.110921E-01

 K-point ( 0.136, 0.136,-0.136) | band =    33
 Effective mass tensor:
              0.4568659777              0.0329336086             -0.0407782815
              0.0329336086              0.4798283709             -0.0574007469
             -0.0407782815             -0.0574007469              0.5045437970
 Effective mass tensor eigenvalues:
              0.4334696047              0.4334701771              0.5742983639
 Angular average effective mass 1/(<1/m>)=   0.4720554360
 Angular average effective mass for Frohlich model (<m**0.5>)**2=   0.4744226021
 Effective masses along directions: (cart. coord. / red. coord. -> eff. mass)
    1:   1.000000  0.000000  0.000000 /   0.949859 -0.312679  0.000000 ->   0.4518787190
    2:   0.000000  1.000000  0.000000 /   0.000000  1.000000  0.000000 ->   0.4715329817
    3:   0.000000  0.000000  1.000000 /  -0.410785 -0.410785  0.813948 ->   0.4946919074
    4:   0.577350  0.577350  0.577350 /   0.337468  0.024768  0.941011 ->   0.4360865162
    5:   0.000000  0.707107  0.707107 /  -0.434182  0.267131  0.860307 ->   0.4344651138
    6:   0.707107  0.000000  0.707107 /   0.271022 -0.596171  0.755729 ->   0.4383986901
    7:   0.707107  0.707107  0.000000 /   0.851774  0.523910  0.000000 ->   0.4915048698

 END OF EFFECTIVE MASSES SECTION

 ---- first-order wavefunction calculations are completed ----

 Total localisation tensor (bohr^2) in cartesian coordinates
  WARNING : still subject to testing - especially symmetries.
      direction              matrix element
   alpha     beta       real part   imaginary part
     1        1       2.0909961076    0.0000000000
     1        2      -0.5864390016    0.0000000000
     1        3      -0.7398041417    0.0000000000
     2        1      -0.5864390016    0.0000000000
     2        2       1.6822017996    0.0000000000
     2        3      -1.0414481797    0.0000000000
     3        1      -0.7398041417    0.0000000000
     3        2      -1.0414481797    0.0000000000
     3        3       4.8920877988    0.0000000000

 respfn : d/dk was computed, but no 2DTE, so no DDB output.

== END DATASET(S) ==============================================================

 -outvars: echo values of variables after computation  --------
            acell      1.0000000000E+00  1.0000000000E+00  1.0000000000E+00 Bohr
              amu      1.32905430E+02  1.80947900E+02  1.40067400E+01
             ecut      4.20000000E+01 Hartree
           etotal     -4.6615969567E+01
            fcart      0.0000000000E+00  0.0000000000E+00  0.0000000000E+00
                       0.0000000000E+00  0.0000000000E+00  0.0000000000E+00
                       0.0000000000E+00  0.0000000000E+00  0.0000000000E+00
                       0.0000000000E+00  0.0000000000E+00  0.0000000000E+00
                       0.0000000000E+00  0.0000000000E+00  0.0000000000E+00
                       0.0000000000E+00  0.0000000000E+00  0.0000000000E+00
                       0.0000000000E+00  0.0000000000E+00  0.0000000000E+00
                       0.0000000000E+00  0.0000000000E+00  0.0000000000E+00
-          fftalg         512
           irdden           1
           irdwfk           1
           istwfk        1    0
              ixc     -116133
              kpt      0.00000000E+00  0.00000000E+00  0.00000000E+00
                       1.36363636E-01  1.36363636E-01 -1.36363636E-01
           kptopt           0
P           mkmem           2
P          mkqmem           2
P          mk1mem           2
            natom           8
            nband          41
           nbdbuf           4
            ngfft          72      72      72
             nkpt           2
            nstep        2000
             nsym           8
           ntypat           3
              occ      2.000000  2.000000  2.000000  2.000000  2.000000  2.000000
                       2.000000  2.000000  2.000000  2.000000  2.000000  2.000000
                       2.000000  2.000000  2.000000  2.000000  2.000000  2.000000
                       2.000000  2.000000  2.000000  2.000000  2.000000  2.000000
                       2.000000  2.000000  2.000000  2.000000  2.000000  2.000000
                       2.000000  2.000000  0.000000  0.000000  0.000000  0.000000
                       0.000000  0.000000  0.000000  0.000000  0.000000
        optdriver           1
            prtwf          -1
            rfdir           1       1       1
           rfelfd           2
            rprim      1.0075679737E+01  0.0000000000E+00 -5.8901743972E+00
                      -3.3167545541E+00  9.5141190549E+00 -5.8901743972E+00
                       0.0000000000E+00  0.0000000000E+00  1.1671052934E+01
          spgroup         122
           strten      0.0000000000E+00  0.0000000000E+00  0.0000000000E+00
                       0.0000000000E+00  0.0000000000E+00  0.0000000000E+00
           symrel      1  0  0   0  1  0   0  0  1       0  0  1  -1 -1 -1   1  0  0
                       0  1  0   1  0  0  -1 -1 -1      -1 -1 -1   0  0  1   0  1  0
                       0  1  0   1  0  0   0  0  1       0  0  1  -1 -1 -1   0  1  0
                       1  0  0   0  1  0  -1 -1 -1      -1 -1 -1   0  0  1   1  0  0
            tnons      0.0000000  0.0000000  0.0000000    -0.2500000  0.2500000  0.5000000
                       0.0000000  0.0000000  0.0000000    -0.2500000  0.2500000  0.5000000
                      -0.2500000  0.2500000  0.5000000     0.0000000 -0.0000000  0.0000000
                      -0.2500000  0.2500000  0.5000000    -0.0000000  0.0000000  0.0000000
           tolwfr      1.00000000E-20
            typat      1  1  2  2  3  3  3  3
           useylm           1
              wtk        0.50000    0.50000
           xangst      1.7883345807E+00  2.5173274818E+00 -3.1169460456E+00
                       1.6591832081E-02  3.7759912227E+00 -2.8918439106E-02
                       0.0000000000E+00  0.0000000000E+00  0.0000000000E+00
                       3.5600773293E+00  1.2586637409E+00 -2.8918439106E-02
                       3.8942487567E+00  3.1466593523E+00  1.4359203454E-01
                       1.6727655958E+00  9.3704494718E-01  1.7251047365E-01
                       4.1200731922E+00  6.2933187046E-01 -1.7599019356E+00
                       4.5532217724E+00  3.2161879373E-01  1.3281256709E+00
            xcart      3.3794625914E+00  4.7570595275E+00 -5.8901743972E+00
                       3.1354018675E-02  7.1355892912E+00 -5.4647930100E-02
                       0.0000000000E+00  0.0000000000E+00  0.0000000000E+00
                       6.7275711642E+00  2.3785297637E+00 -5.4647930100E-02
                       7.3590636434E+00  5.9463244093E+00  2.7134962015E-01
                       3.1610688605E+00  1.7707583244E+00  3.2599755025E-01
                       7.7858099808E+00  1.1892648819E+00 -3.3257326790E+00
                       8.6043421722E+00  6.0777143935E-01  2.5097937881E+00
             xred      5.0000000000E-01  5.0000000000E-01  1.1102230246E-16
                       2.5000000000E-01  7.5000000000E-01  5.0000000000E-01
                       0.0000000000E+00  0.0000000000E+00  0.0000000000E+00
                       7.5000000000E-01  2.5000000000E-01  5.0000000000E-01
                       9.3611900000E-01  6.2500000000E-01  8.1111900000E-01
                       3.7500000000E-01  1.8611900000E-01  3.1111900000E-01
                       8.1388100000E-01  1.2500000000E-01  1.8888100000E-01
                       8.7500000000E-01  6.3881000000E-02  6.8888100000E-01
            znucl       55.00000   73.00000    7.00000

- Timing analysis has been suppressed with timopt=0

 Suggested references for the acknowledgment of ABINIT usage.

 Calculation completed.
.Delivered  14 WARNINGs and   9 COMMENTs to log file.