.Version 9.5.1 of ABINIT

 ABINIT is a project of the Universite Catholique de Louvain,
 Corning Inc. and other collaborators, see ~abinit/doc/developers/contributors.txt .
 acknowledgments of the ABINIT effort.

.Starting date : Tue 11 May 2021.
- ( at 21h34 )

- input  file    -> /scratch/users/j/a/jabreu/flow_simple_8atoms/flow/w323/t1/run.abi
- output file    -> /scratch/users/j/a/jabreu/flow_simple_8atoms/flow/w323/t1/run.abo
- root for input  files -> /scratch/users/j/a/jabreu/flow_simple_8atoms/flow/w323/t1/indata/in
- root for output files -> /scratch/users/j/a/jabreu/flow_simple_8atoms/flow/w323/t1/outdata/out

 Symmetries : space group R-3 (#148); Bravais hR (rhombohedral)
     intxc =       0      iscf =       7    lmnmax =      18     lnmax =       6
     mgfft =      64  mpssoang =       3    mqgrid =    3001     natom =       8
  nloc_mem =       1    nspden =       1   nspinor =       1    nsppol =       1
      nsym =       6    n1xccc =    2501    ntypat =       3    occopt =       1
   xclevel =       2
-    mband =          39        mffmem =           1         mkmem =           1
-   mkqmem =           1        mk1mem =           1           mpw =        9583
      nfft =      262144          nkpt =           1
  Rough estimation (10% accuracy) of disk space for files :

------------- Echo of variables that govern the present computation ------------
-
- outvars: echo of selected default values
-   iomode0 =  0 , fftalg0 =512 , wfoptalg0 =  0
-
- outvars: echo of global parameters not present in the input file
-  max_nthreads =    0
-
 -outvars: echo values of preprocessed input variables --------
            acell      1.0000000000E+00  1.0000000000E+00  1.0000000000E+00 Bohr
              amu      6.94100000E+00  1.21753000E+02  1.89984032E+01
             ecut      4.20000000E+01 Hartree
-          fftalg         512
           irdden           1
           irdwfk           1
           istwfk        1
              ixc     -116133
           kptopt           0
P           mkmem           1
P          mkqmem           1
P          mk1mem           1
            natom           8
            nband          39
           nbdbuf           4
            ngfft          64      64      64
             nkpt           1
            nstep        2000
             nsym           6
           ntypat           3
              occ      2.000000  2.000000  2.000000  2.000000  2.000000  2.000000
                       2.000000  2.000000  2.000000  2.000000  2.000000  2.000000
                       2.000000  2.000000  2.000000  2.000000  2.000000  2.000000
                       2.000000  2.000000  2.000000  2.000000  2.000000  2.000000
                       2.000000  2.000000  2.000000  2.000000  2.000000  2.000000
                       0.000000  0.000000  0.000000  0.000000  0.000000  0.000000
                       0.000000  0.000000  0.000000
        optdriver           1
            prtwf          -1
            rfdir           1       1       1
           rfelfd           2
            rprim      8.7003563893E+00  0.0000000000E+00  5.5811236926E+00
                       3.0505485095E+00  8.1480276811E+00  5.5811236926E+00
                       0.0000000000E+00  0.0000000000E+00  1.0336592426E+01
          spgroup         148
           symrel      1  0  0   0  1  0   0  0  1      -1  0  0   0 -1  0   0  0 -1
                       0  0  1   1  0  0   0  1  0       0  0 -1  -1  0  0   0 -1  0
                       0  1  0   0  0  1   1  0  0       0 -1  0   0  0 -1  -1  0  0
           tolwfr      1.00000000E-20
            typat      1  2  3  3  3  3  3  3
           useylm           1
           xangst      3.1091555264E+00  2.1558752719E+00  5.6883480195E+00
                       0.0000000000E+00  0.0000000000E+00  0.0000000000E+00
                       4.3590381060E+00  1.0388516173E+00  6.8407822505E+00
                       2.1665306876E+00  2.8239422129E+00  7.3626233673E+00
                       1.8109324098E+00  5.9368493238E-01  5.5777539547E+00
                       4.4073786430E+00  3.7180656114E+00  5.7989420843E+00
                       4.0517803652E+00  1.4878083309E+00  4.0140726717E+00
                       1.8592729467E+00  3.2728989265E+00  4.5359137886E+00
            xcart      5.8754524494E+00  4.0740138405E+00  1.0749419905E+01
                       0.0000000000E+00  0.0000000000E+00  0.0000000000E+00
                       8.2373882232E+00  1.9631450493E+00  1.2927204988E+01
                       4.0941496580E+00  5.3364773975E+00  1.3913341784E+01
                       3.4221662996E+00  1.1219019314E+00  1.0540427411E+01
                       8.3287385992E+00  7.0261257497E+00  1.0958412400E+01
                       7.6567552408E+00  2.8115502836E+00  7.5854980270E+00
                       3.5135166756E+00  6.1848826318E+00  8.5716348227E+00
             xred      5.0000000000E-01  5.0000000000E-01  5.0000000000E-01
                       0.0000000000E+00  0.0000000000E+00  0.0000000000E+00
                       8.6231000000E-01  2.4093500000E-01  6.5494100000E-01
                       2.4093500000E-01  6.5494100000E-01  8.6231000000E-01
                       3.4505900000E-01  1.3769000000E-01  7.5906500000E-01
                       6.5494100000E-01  8.6231000000E-01  2.4093500000E-01
                       7.5906500000E-01  3.4505900000E-01  1.3769000000E-01
                       1.3769000000E-01  7.5906500000E-01  3.4505900000E-01
            znucl        3.00000   51.00000    9.00000

 chkinp: Checking input parameters for consistency.

== DATASET  1 ==================================================================
-   mpi_nproc: 1, omp_nthreads: -1 (-1 if OMP is not activated)

--- !DatasetInfo
iteration_state: {dtset: 1, }
dimensions: {natom: 8, nkpt: 1, mband: 39, nsppol: 1, nspinor: 1, nspden: 1, mpw: 9583, }
cutoff_energies: {ecut:  42.0, pawecutdg:  -1.0, }
electrons: {nelect:   6.00000000E+01, charge:   0.00000000E+00, occopt:   1.00000000E+00, tsmear:   1.00000000E-02, }
meta: {optdriver: 1, rfelfd: 2, }
...

 Real(R)+Recip(G) space primitive vectors, cartesian coordinates (Bohr,Bohr^-1):
 R(1)=  8.7003564  0.0000000  5.5811237  G(1)=  0.1149378 -0.0430317  0.0000000
 R(2)=  3.0505485  8.1480277  5.5811237  G(2)=  0.0000000  0.1227291  0.0000000
 R(3)=  0.0000000  0.0000000 10.3365924  G(3)= -0.0620593 -0.0430317  0.0967437
 Unit cell volume ucvol=  7.3276873E+02 bohr^3
 Angles (23,13,12)=  5.73205510E+01  5.73205510E+01  5.73205510E+01 degrees

 getcut: wavevector=  0.0000  0.0000  0.0000  ngfft=  64  64  64
         ecut(hartree)=     42.000   => boxcut(ratio)=   2.12250

--- Pseudopotential description ------------------------------------------------
- pspini: atom type   1  psp file is /scratch/users/j/a/jabreu/pseudos/PBEsol/Li.psp8
- pspatm: opening atomic psp file    /scratch/users/j/a/jabreu/pseudos/PBEsol/Li.psp8
- Li    ONCVPSP-3.3.0  r_core=   1.40824   1.10935
-  3.00000   3.00000    180112                znucl, zion, pspdat
    8 -116133    1    4       400   0.00000   pspcod,pspxc,lmax,lloc,mmax,r2well
    3.99000000000000    0.00000000000000    0.00000000000000   rchrg,fchrg,qchrg
     nproj     2     2
     extension_switch     1
  pspatm : epsatm=    2.60859637
         --- l  ekb(1:nproj) -->
             0   -4.855856   -1.482423
             1   -2.171544   -0.427615
 pspatm: atomic psp has been read  and splines computed

- pspini: atom type   2  psp file is /scratch/users/j/a/jabreu/pseudos/PBEsol/Sb.psp8
- pspatm: opening atomic psp file    /scratch/users/j/a/jabreu/pseudos/PBEsol/Sb.psp8
- Sb    ONCVPSP-3.3.0  r_core=   1.81962   2.12485   1.81962
- 51.00000  15.00000    180112                znucl, zion, pspdat
    8 -116133    2    4       600   0.00000   pspcod,pspxc,lmax,lloc,mmax,r2well
    5.99000000000000    5.00000000000000    0.00000000000000   rchrg,fchrg,qchrg
     nproj     2     2     2
     extension_switch     1
  pspatm : epsatm=   26.35641246
         --- l  ekb(1:nproj) -->
             0    9.727814    1.485032
             1    5.505335    0.704623
             2   -4.710637   -1.436443
 pspatm: atomic psp has been read  and splines computed

- pspini: atom type   3  psp file is /scratch/users/j/a/jabreu/pseudos/PBEsol/F.psp8
- pspatm: opening atomic psp file    /scratch/users/j/a/jabreu/pseudos/PBEsol/F.psp8
- F     ONCVPSP-3.3.0  r_core=   1.30942   1.45782   1.60379
-  9.00000   7.00000    180112                znucl, zion, pspdat
    8 -116133    2    4       600   0.00000   pspcod,pspxc,lmax,lloc,mmax,r2well
    5.99000000000000    2.50000000000000    0.00000000000000   rchrg,fchrg,qchrg
     nproj     2     2     1
     extension_switch     1
  pspatm : epsatm=    4.89824824
         --- l  ekb(1:nproj) -->
             0    6.506434    1.065875
             1   -3.978753   -1.295852
             2   -2.394754
 pspatm: atomic psp has been read  and splines computed

   3.50126990E+03                                ecore*ucvol(ha*bohr**3)

-inwffil : will read wavefunctions from disk file /scratch/users/j/a/jabreu/flow_simple_8atoms/flow/w323/t1/indata/in_WFK

 ==>  initialize data related to q vector <==

 The list of irreducible perturbations for this q vector is:
    1)    idir= 1    ipert=   9
    2)    idir= 2    ipert=   9
    3)    idir= 3    ipert=   9

 Perturbation wavevector (in red.coord.)   0.000000  0.000000  0.000000
 Perturbation : derivative vs k along direction   1

 dfpt_looppert : COMMENT -
  In a d/dk calculation, iscf is set to -3 automatically.
 The set of symmetries contains only one element for this perturbation.
 symkpt : not enough symmetry to change the number of k points.

[...]

 Initialisation of the first-order wave-functions :
  ireadwf=   0

--- !BeginCycle
iteration_state: {dtset: 1, }
solver: {iscf: 7, nstep: 2000, nline: 4, wfoptalg: 0, }
tolerances: {tolwfr: 1.00E-20, }
...

     iter   2DEtotal(Ha)        deltaE(Ha) residm    vres2
-ETOT  1  -48.811685309733     -4.881E+01 4.073E-02 0.000E+00
 ETOT  2  -48.850273533982     -3.859E-02 8.466E-04 0.000E+00
 ETOT  3  -48.850336801899     -6.327E-05 2.422E-05 0.000E+00
 ETOT  4  -48.850337026402     -2.245E-07 9.095E-07 0.000E+00
 ETOT  5  -48.850337027559     -1.156E-09 4.222E-08 0.000E+00
 ETOT  6  -48.850337027566     -7.290E-12 1.590E-09 0.000E+00
 ETOT  7  -48.850337027566     -4.974E-14 7.649E-11 0.000E+00
 ETOT  8  -48.850337027566     -7.105E-15 3.110E-12 0.000E+00
 ETOT  9  -48.850337027566      2.842E-14 1.471E-13 0.000E+00
 ETOT 10  -48.850337027566     -7.105E-15 6.366E-15 0.000E+00
 ETOT 11  -48.850337027566     -7.105E-15 2.962E-16 0.000E+00
 ETOT 12  -48.850337027566     -7.105E-15 1.332E-17 0.000E+00
 ETOT 13  -48.850337027566      2.132E-14 6.134E-19 0.000E+00
 ETOT 14  -48.850337027566     -2.132E-14 2.820E-20 0.000E+00
 ETOT 15  -48.850337027566     -7.105E-15 9.898E-21 0.000E+00

 At SCF step   15   max residual=  9.90E-21 < tolwfr=  1.00E-20 =>converged.

 ----iterations are completed or convergence reached----

 dfpt_looppert: DFPT cycle converged with prtwf=-1. Will skip output of the 1st-order WFK file.
 dfpt_looppert : ek2=    7.1356902760E+01
          f-sum rule ratio=    1.0342302763E+00
 prteigrs : about to open file /scratch/users/j/a/jabreu/flow_simple_8atoms/flow/w323/t1/tmpdata/tmp_1WF1_EIG
 Expectation of eigenvalue derivatives (hartree) for nkpt=   1  k points:
  (in case of degenerate eigenvalues, averaged derivative)
 kpt#   1, nband= 39, wtk=  1.00000, kpt=  0.0000  0.0000  0.0000 (reduced coord)
   0.00000   -0.00000   -0.00000    0.00000    0.00000   -0.00000   -0.00000    0.00000
   0.00000    0.00000   -0.00000   -0.00000    0.00000   -0.00000   -0.00000    0.00000
  -0.00000    0.00000    0.00000   -0.00000   -0.00000   -0.00000    0.00000    0.00000
   0.00000   -0.00000   -0.00000    0.00000    0.00000    0.00000    0.00000    0.00000
  -0.00000    0.00000    0.00000   -0.00000   -0.00719   -0.00161   -0.00538

 Eight components of 2nd-order total energy (hartree) are
 1,2,3: 0th-order hamiltonian combined with 1st-order wavefunctions
     kin0=   6.06666830E+01 eigvalue=   7.18645302E+00  local=  -2.86019239E+01
 4,5,6: 1st-order hamiltonian combined with 1st and 0th-order wfs
     kin1=  -7.37994693E+01  Hartree=   0.00000000E+00     xc=   0.00000000E+00
 7,8,9: eventually, occupation + non-local contributions
    edocc=   6.44564464E+00     enl0=   3.15348031E+00   enl1=  -2.39012048E+01
 1-9 gives the relaxation energy (to be shifted if some occ is /=2.0)
   erelax=  -4.88503370E+01
  No Ewald or frozen-wf contrib.: the relaxation energy is the total one
 2DEtotal=   -0.4885033703E+02 Ha. Also 2DEtotal=   -0.132928527255E+04 eV
    (  non-var. 2DEtotal :   -4.8850337028E+01 Ha)

 Perturbation wavevector (in red.coord.)   0.000000  0.000000  0.000000
 Perturbation : derivative vs k along direction   2
 The set of symmetries contains only one element for this perturbation.
 symkpt : not enough symmetry to change the number of k points.

[...]

 Perturbation wavevector (in red.coord.)   0.000000  0.000000  0.000000
 Perturbation : derivative vs k along direction   3
 The set of symmetries contains only one element for this perturbation.
 symkpt : not enough symmetry to change the number of k points.

-inwffil : will read wavefunctions from disk file /scratch/users/j/a/jabreu/flow_simple_8atoms/flow/w323/t1/indata/in_WFK

 Initialisation of the first-order wave-functions :
  ireadwf=   0

--- !BeginCycle
iteration_state: {dtset: 1, }
solver: {iscf: 7, nstep: 2000, nline: 4, wfoptalg: 0, }
tolerances: {tolwfr: 1.00E-20, }
...

     iter   2DEtotal(Ha)        deltaE(Ha) residm    vres2
-ETOT  1  -48.810647808030     -4.881E+01 2.707E-02 0.000E+00
 ETOT  2  -48.850077952323     -3.943E-02 9.703E-04 0.000E+00
 ETOT  3  -48.850137685104     -5.973E-05 1.174E-05 0.000E+00
 ETOT  4  -48.850137871881     -1.868E-07 9.263E-07 0.000E+00
 ETOT  5  -48.850137872739     -8.579E-10 2.123E-08 0.000E+00
 ETOT  6  -48.850137872744     -4.931E-12 1.636E-09 0.000E+00
 ETOT  7  -48.850137872744     -3.553E-14 3.924E-11 0.000E+00
 ETOT  8  -48.850137872744      0.000E+00 3.177E-12 0.000E+00
 ETOT  9  -48.850137872744      7.105E-15 7.483E-14 0.000E+00
 ETOT 10  -48.850137872744      0.000E+00 6.384E-15 0.000E+00
 ETOT 11  -48.850137872744     -1.421E-14 1.468E-16 0.000E+00
 ETOT 12  -48.850137872744      0.000E+00 1.306E-17 0.000E+00
 ETOT 13  -48.850137872744      0.000E+00 2.937E-19 0.000E+00
 ETOT 14  -48.850137872744      0.000E+00 2.704E-20 0.000E+00
 ETOT 15  -48.850137872744     -1.421E-14 9.522E-21 0.000E+00

 At SCF step   15   max residual=  9.52E-21 < tolwfr=  1.00E-20 =>converged.

 ----iterations are completed or convergence reached----

 dfpt_looppert: DFPT cycle converged with prtwf=-1. Will skip output of the 1st-order WFK file.
 dfpt_looppert : ek2=    7.1356902760E+01
          f-sum rule ratio=    1.0342214509E+00
 prteigrs : about to open file /scratch/users/j/a/jabreu/flow_simple_8atoms/flow/w323/t1/tmpdata/tmp_1WF1_EIG
 Expectation of eigenvalue derivatives (hartree) for nkpt=   1  k points:
  (in case of degenerate eigenvalues, averaged derivative)
 kpt#   1, nband= 39, wtk=  1.00000, kpt=  0.0000  0.0000  0.0000 (reduced coord)
  -0.00000   -0.00000   -0.00000   -0.00000   -0.00000    0.00000    0.00000   -0.00000
   0.00000    0.00000    0.00000    0.00000    0.00000   -0.00000   -0.00000    0.00000
   0.00000    0.00000    0.00000    0.00000    0.00000   -0.00000   -0.00000   -0.00000
  -0.00000    0.00000    0.00000   -0.00000    0.00000    0.00000    0.00000    0.00000
   0.00000    0.00000    0.00000   -0.00000   -0.00088   -0.00600   -0.03122

 Eight components of 2nd-order total energy (hartree) are
 1,2,3: 0th-order hamiltonian combined with 1st-order wavefunctions
     kin0=   6.06526306E+01 eigvalue=   7.16895025E+00  local=  -2.86240896E+01
 4,5,6: 1st-order hamiltonian combined with 1st and 0th-order wfs
     kin1=  -7.37988395E+01  Hartree=   0.00000000E+00     xc=   0.00000000E+00
 7,8,9: eventually, occupation + non-local contributions
    edocc=   6.47689852E+00     enl0=   3.17574811E+00   enl1=  -2.39014362E+01
 1-9 gives the relaxation energy (to be shifted if some occ is /=2.0)
   erelax=  -4.88501379E+01
  No Ewald or frozen-wf contrib.: the relaxation energy is the total one
 2DEtotal=   -0.4885013787E+02 Ha. Also 2DEtotal=   -0.132927985327E+04 eV
    (  non-var. 2DEtotal :   -4.8850137873E+01 Ha)

 CALCULATION OF EFFECTIVE MASSES
 NOTE : Additional infos (eff. mass eigenvalues, eigenvectors and, if degenerate, average mass) are available in stdout.

 COMMENTS:
 - At k-point ( 0.000, 0.000, 0.000), bands    29 through    30
   are DEGENERATE (effective mass tensor is therefore not defined).
   See Section IIIB Eqs. (67)-(70) and Appendix E of PRB 93 205147 (2016).
 - Angular average effective mass for Frohlich model is to be averaged over degenerate bands. See later.
 - Associated theta integrals calculated with ntheta=   1000 points.

 K-point ( 0.000, 0.000, 0.000) | band =    29
 Transport equivalent effective mass tensor:
            -10.4401687784              0.4074798204              1.0634197445
              0.4074798204            -10.7707163799              0.7362198762
              1.0634197445              0.7362198762             -9.0837168230
 Transport equivalent effective mass tensor eigenvalues:
            -11.0489974991            -11.0228410310             -8.2227634511
 Angular average effective mass 1/(<1/m>)=  -8.9102459896
 Angular average effective mass for Frohlich model (<m**0.5>)**2=  -9.0300256621
 Effective masses along directions: (cart. coord. / red. coord. -> eff. mass)
    1:   1.000000  0.000000  0.000000 /   0.943675  0.330874  0.000000 ->  -9.5326570985
    2:   0.000000  1.000000  0.000000 /   0.000000  1.000000  0.000000 ->  -8.9111094873
    3:   0.000000  0.000000  1.000000 /   0.429136  0.429136  0.794786 ->  -7.3887124801
    4:   0.577350  0.577350  0.577350 /   0.586785  0.689429  0.424701 ->  -7.4663167304
    5:   0.000000  0.707107  0.707107 /   0.308881  0.759824  0.572067 ->  -8.6826474179
    6:   0.707107  0.000000  0.707107 /   0.727557  0.439733  0.526588 ->  -7.2938751749
    7:   0.707107  0.707107  0.000000 /   0.613517  0.789682  0.000000 ->  -8.9228897812

 K-point ( 0.000, 0.000, 0.000) | band =    30
 Transport equivalent effective mass tensor:
            -50.1901396649              6.0207593701             15.6560863059
              6.0207593701            -54.5232380850             10.7977259505
             15.6560863059             10.7977259505            -30.1262714668
 Transport equivalent effective mass tensor eigenvalues:
            -58.8088435934            -58.5885769921            -17.4422286312
 Angular average effective mass 1/(<1/m>)= -18.6670875680
 Angular average effective mass for Frohlich model (<m**0.5>)**2= -22.5585522717
 Effective masses along directions: (cart. coord. / red. coord. -> eff. mass)
    1:   1.000000  0.000000  0.000000 /   0.943675  0.330874  0.000000 -> -21.8866611989
    2:   0.000000  1.000000  0.000000 /   0.000000  1.000000  0.000000 -> -40.0851333298
    3:   0.000000  0.000000  1.000000 /   0.429136  0.429136  0.794786 -> -13.4587193584
    4:   0.577350  0.577350  0.577350 /   0.586785  0.689429  0.424701 -> -10.4417525829
    5:   0.000000  0.707107  0.707107 /   0.308881  0.759824  0.572067 -> -11.0859655212
    6:   0.707107  0.000000  0.707107 /   0.727557  0.439733  0.526588 -> -11.2007540201
    7:   0.707107  0.707107  0.000000 /   0.613517  0.789682  0.000000 -> -20.2312711032

 Angular average effective mass for Frohlich model, averaged over degenerate bands.
 Value of     (<<m**0.5>>)**2 =     1.503340E+01
 Absolute Value of <<m**0.5>> =     3.877292E+00

 K-point ( 0.000, 0.000, 0.000) | band =    31
 Effective mass tensor:
              1.0769353114             -0.0169211017             -0.0451570776
             -0.0169211017              1.0892952086             -0.0310852493
             -0.0451570776             -0.0310852493              1.0193639318
 Effective mass tensor eigenvalues:
              0.9828323342              1.1010437906              1.1017183270
 Angular average effective mass 1/(<1/m>)=   1.0588099573
 Angular average effective mass for Frohlich model (<m**0.5>)**2=   1.0597435374
 Effective masses along directions: (cart. coord. / red. coord. -> eff. mass)
    1:   1.000000  0.000000  0.000000 /   0.943675  0.330874  0.000000 ->   1.0746272428
    2:   0.000000  1.000000  0.000000 /   0.000000  1.000000  0.000000 ->   1.0880357901
    3:   0.000000  0.000000  1.000000 /   0.429136  0.429136  0.794786 ->   1.0165421815
    4:   0.577350  0.577350  0.577350 /   0.586785  0.689429  0.424701 ->   0.9981696993
    5:   0.000000  0.707107  0.707107 /   0.308881  0.759824  0.572067 ->   1.0202752927
    6:   0.707107  0.000000  0.707107 /   0.727557  0.439733  0.526588 ->   1.0011602110
    7:   0.707107  0.707107  0.000000 /   0.613517  0.789682  0.000000 ->   1.0633020364

 END OF EFFECTIVE MASSES SECTION

 ---- first-order wavefunction calculations are completed ----

 Total localisation tensor (bohr^2) in cartesian coordinates
  WARNING : still subject to testing - especially symmetries.
      direction              matrix element
   alpha     beta       real part   imaginary part
     1        1       0.6371937493    0.0000000000
     1        2       0.1863278420    0.0000000000
     1        3       0.4916272604    0.0000000000
     2        1       0.1863278420    0.0000000000
     2        2       0.4976824363    0.0000000000
     2        3       0.3408956554    0.0000000000
     3        1       0.4916272604    0.0000000000
     3        2       0.3408956554    0.0000000000
     3        3       1.2679141841    0.0000000000

 respfn : d/dk was computed, but no 2DTE, so no DDB output.

== END DATASET(S) ==============================================================

 -outvars: echo values of variables after computation  --------
            acell      1.0000000000E+00  1.0000000000E+00  1.0000000000E+00 Bohr
              amu      6.94100000E+00  1.21753000E+02  1.89984032E+01
             ecut      4.20000000E+01 Hartree
           etotal     -4.8850137873E+01
            fcart      0.0000000000E+00  0.0000000000E+00  0.0000000000E+00
                       0.0000000000E+00  0.0000000000E+00  0.0000000000E+00
                       0.0000000000E+00  0.0000000000E+00  0.0000000000E+00
                       0.0000000000E+00  0.0000000000E+00  0.0000000000E+00
                       0.0000000000E+00  0.0000000000E+00  0.0000000000E+00
                       0.0000000000E+00  0.0000000000E+00  0.0000000000E+00
                       0.0000000000E+00  0.0000000000E+00  0.0000000000E+00
                       0.0000000000E+00  0.0000000000E+00  0.0000000000E+00
-          fftalg         512
           irdden           1
           irdwfk           1
           istwfk        1
              ixc     -116133
           kptopt           0
P           mkmem           1
P          mkqmem           1
P          mk1mem           1
            natom           8
            nband          39
           nbdbuf           4
            ngfft          64      64      64
             nkpt           1
            nstep        2000
             nsym           6
           ntypat           3
              occ      2.000000  2.000000  2.000000  2.000000  2.000000  2.000000
                       2.000000  2.000000  2.000000  2.000000  2.000000  2.000000
                       2.000000  2.000000  2.000000  2.000000  2.000000  2.000000
                       2.000000  2.000000  2.000000  2.000000  2.000000  2.000000
                       2.000000  2.000000  2.000000  2.000000  2.000000  2.000000
                       0.000000  0.000000  0.000000  0.000000  0.000000  0.000000
                       0.000000  0.000000  0.000000
        optdriver           1
            prtwf          -1
            rfdir           1       1       1
           rfelfd           2
            rprim      8.7003563893E+00  0.0000000000E+00  5.5811236926E+00
                       3.0505485095E+00  8.1480276811E+00  5.5811236926E+00
                       0.0000000000E+00  0.0000000000E+00  1.0336592426E+01
          spgroup         148
           strten      0.0000000000E+00  0.0000000000E+00  0.0000000000E+00
                       0.0000000000E+00  0.0000000000E+00  0.0000000000E+00
           symrel      1  0  0   0  1  0   0  0  1      -1  0  0   0 -1  0   0  0 -1
                       0  0  1   1  0  0   0  1  0       0  0 -1  -1  0  0   0 -1  0
                       0  1  0   0  0  1   1  0  0       0 -1  0   0  0 -1  -1  0  0
           tolwfr      1.00000000E-20
            typat      1  2  3  3  3  3  3  3
           useylm           1
           xangst      3.1091555264E+00  2.1558752719E+00  5.6883480195E+00
                       0.0000000000E+00  0.0000000000E+00  0.0000000000E+00
                       4.3590381060E+00  1.0388516173E+00  6.8407822505E+00
                       2.1665306876E+00  2.8239422129E+00  7.3626233673E+00
                       1.8109324098E+00  5.9368493238E-01  5.5777539547E+00
                       4.4073786430E+00  3.7180656114E+00  5.7989420843E+00
                       4.0517803652E+00  1.4878083309E+00  4.0140726717E+00
                       1.8592729467E+00  3.2728989265E+00  4.5359137886E+00
            xcart      5.8754524494E+00  4.0740138405E+00  1.0749419905E+01
                       0.0000000000E+00  0.0000000000E+00  0.0000000000E+00
                       8.2373882232E+00  1.9631450493E+00  1.2927204988E+01
                       4.0941496580E+00  5.3364773975E+00  1.3913341784E+01
                       3.4221662996E+00  1.1219019314E+00  1.0540427411E+01
                       8.3287385992E+00  7.0261257497E+00  1.0958412400E+01
                       7.6567552408E+00  2.8115502836E+00  7.5854980270E+00
                       3.5135166756E+00  6.1848826318E+00  8.5716348227E+00
             xred      5.0000000000E-01  5.0000000000E-01  5.0000000000E-01
                       0.0000000000E+00  0.0000000000E+00  0.0000000000E+00
                       8.6231000000E-01  2.4093500000E-01  6.5494100000E-01
                       2.4093500000E-01  6.5494100000E-01  8.6231000000E-01
                       3.4505900000E-01  1.3769000000E-01  7.5906500000E-01
                       6.5494100000E-01  8.6231000000E-01  2.4093500000E-01
                       7.5906500000E-01  3.4505900000E-01  1.3769000000E-01
                       1.3769000000E-01  7.5906500000E-01  3.4505900000E-01
            znucl        3.00000   51.00000    9.00000

- Timing analysis has been suppressed with timopt=0

 Suggested references for the acknowledgment of ABINIT usage.

 Calculation completed.
.Delivered   6 WARNINGs and   5 COMMENTs to log file.