.Version 9.5.2 of ABINIT

 ABINIT is a project of the Universite Catholique de Louvain,
 Corning Inc. and other collaborators, see ~abinit/doc/developers/contributors.txt .
 acknowledgments of the ABINIT effort.

.Starting date : Mon 31 May 2021.
- ( at 23h06 )

- input  file    -> /scratch/users/j/a/jabreu/flow_simple_11atoms/flow/w398/t1/run.abi
- output file    -> /scratch/users/j/a/jabreu/flow_simple_11atoms/flow/w398/t1/run.abo
- root for input  files -> /scratch/users/j/a/jabreu/flow_simple_11atoms/flow/w398/t1/indata/in
- root for output files -> /scratch/users/j/a/jabreu/flow_simple_11atoms/flow/w398/t1/outdata/out

 Symmetries : space group P2_1 3 (#198); Bravais cP (primitive cubic)
     intxc =       0      iscf =       7    lmnmax =      18     lnmax =       6
     mgfft =      72  mpssoang =       3    mqgrid =    3203     natom =      12
  nloc_mem =       1    nspden =       1   nspinor =       1    nsppol =       1
      nsym =      12    n1xccc =    2501    ntypat =       3    occopt =       1
   xclevel =       2
-    mband =          57        mffmem =           1         mkmem =           2
-   mkqmem =           2        mk1mem =           2           mpw =       17223
      nfft =      373248          nkpt =           2
  Rough estimation (10% accuracy) of disk space for files :

------------- Echo of variables that govern the present computation ------------
-
- outvars: echo of selected default values
-   iomode0 =  0 , fftalg0 =512 , wfoptalg0 =  0
-
- outvars: echo of global parameters not present in the input file
-  max_nthreads =    0
-
 -outvars: echo values of preprocessed input variables --------
            acell      1.0000000000E+00  1.0000000000E+00  1.0000000000E+00 Bohr
              amu      9.12240000E+01  3.20660000E+01  1.59994000E+01
             ecut      4.40000000E+01 Hartree
-          fftalg         512
           irdden           1
           irdwfk           1
           istwfk        1    0
              ixc     -116133
              kpt      0.00000000E+00  0.00000000E+00  0.00000000E+00
                       3.96551724E-01  3.96551724E-01  3.96551724E-01
           kptopt           0
P           mkmem           2
P          mkqmem           2
P          mk1mem           2
            natom          12
            nband          57
           nbdbuf           4
            ngfft          72      72      72
             nkpt           2
            nstep        2000
             nsym          12
           ntypat           3
              occ      2.000000  2.000000  2.000000  2.000000  2.000000  2.000000
                       2.000000  2.000000  2.000000  2.000000  2.000000  2.000000
                       2.000000  2.000000  2.000000  2.000000  2.000000  2.000000
                       2.000000  2.000000  2.000000  2.000000  2.000000  2.000000
                       2.000000  2.000000  2.000000  2.000000  2.000000  2.000000
                       2.000000  2.000000  2.000000  2.000000  2.000000  2.000000
                       2.000000  2.000000  2.000000  2.000000  2.000000  2.000000
                       2.000000  2.000000  2.000000  2.000000  2.000000  2.000000
                       0.000000  0.000000  0.000000  0.000000  0.000000  0.000000
                       0.000000  0.000000  0.000000
        optdriver           1
            prtwf          -1
            rfdir           1       1       1
           rfelfd           2
            rprim      1.0726570198E+01  0.0000000000E+00  0.0000000000E+00
                       0.0000000000E+00  1.0726570198E+01  0.0000000000E+00
                       0.0000000000E+00  0.0000000000E+00  1.0726570198E+01
          spgroup         198
           symrel      1  0  0   0  1  0   0  0  1      -1  0  0   0  1  0   0  0 -1
                      -1  0  0   0 -1  0   0  0  1       1  0  0   0 -1  0   0  0 -1
                       0  0  1   1  0  0   0  1  0       0  0 -1   1  0  0   0 -1  0
                       0  0 -1  -1  0  0   0  1  0       0  0  1  -1  0  0   0 -1  0
                       0  1  0   0  0  1   1  0  0       0 -1  0   0  0  1  -1  0  0
                       0 -1  0   0  0 -1   1  0  0       0  1  0   0  0 -1  -1  0  0
            tnons      0.0000000  0.0000000  0.0000000     0.0000000  0.5000000  0.5000000
                       0.5000000  0.0000000  0.5000000     0.5000000  0.5000000  0.0000000
                       0.0000000  0.0000000  0.0000000     0.5000000  0.5000000  0.0000000
                       0.0000000  0.5000000  0.5000000     0.5000000  0.0000000  0.5000000
                       0.0000000  0.0000000  0.0000000     0.5000000  0.0000000  0.5000000
                       0.5000000  0.5000000  0.0000000     0.0000000  0.5000000  0.5000000
           tolwfr      1.00000000E-20
            typat      1  1  1  1  2  2  2  2  3  3  3  3
           useylm           1
              wtk        0.50000    0.50000
           xangst      5.2713747771E+00  3.2430099357E+00  2.4332465395E+00
                       3.2430099357E+00  2.4332465395E+00  5.2713747771E+00
                       2.4332465395E+00  5.2713747771E+00  3.2430099357E+00
                       4.0488169812E-01  4.0488169812E-01  4.0488169812E-01
                       9.4454610624E-01  3.7826743438E+00  4.7317103689E+00
                       4.7317103689E+00  9.4454610624E-01  3.7826743438E+00
                       3.7826743438E+00  4.7317103689E+00  9.4454610624E-01
                       1.8935821313E+00  1.8935821313E+00  1.8935821313E+00
                       8.8472403925E-01  4.7915324359E+00  1.9534041983E+00
                       4.7915324359E+00  1.9534041983E+00  8.8472403925E-01
                       3.7228522768E+00  3.7228522768E+00  3.7228522768E+00
                       1.9534041983E+00  8.8472403925E-01  4.7915324359E+00
            xcart      9.9614546724E+00  6.1284006247E+00  4.5981695734E+00
                       6.1284006247E+00  4.5981695734E+00  9.9614546724E+00
                       4.5981695734E+00  9.9614546724E+00  6.1284006247E+00
                       7.6511552566E-01  7.6511552566E-01  7.6511552566E-01
                       1.7849334607E+00  7.1482185597E+00  8.9416367374E+00
                       8.9416367374E+00  1.7849334607E+00  7.1482185597E+00
                       7.1482185597E+00  8.9416367374E+00  1.7849334607E+00
                       3.5783516384E+00  3.5783516384E+00  3.5783516384E+00
                       1.6718861374E+00  9.0546840607E+00  3.6913989617E+00
                       9.0546840607E+00  3.6913989617E+00  1.6718861374E+00
                       7.0351712364E+00  7.0351712364E+00  7.0351712364E+00
                       3.6913989617E+00  1.6718861374E+00  9.0546840607E+00
             xred      9.2867100000E-01  5.7132900000E-01  4.2867100000E-01
                       5.7132900000E-01  4.2867100000E-01  9.2867100000E-01
                       4.2867100000E-01  9.2867100000E-01  5.7132900000E-01
                       7.1329000000E-02  7.1329000000E-02  7.1329000000E-02
                       1.6640300000E-01  6.6640300000E-01  8.3359700000E-01
                       8.3359700000E-01  1.6640300000E-01  6.6640300000E-01
                       6.6640300000E-01  8.3359700000E-01  1.6640300000E-01
                       3.3359700000E-01  3.3359700000E-01  3.3359700000E-01
                       1.5586400000E-01  8.4413600000E-01  3.4413600000E-01
                       8.4413600000E-01  3.4413600000E-01  1.5586400000E-01
                       6.5586400000E-01  6.5586400000E-01  6.5586400000E-01
                       3.4413600000E-01  1.5586400000E-01  8.4413600000E-01
            znucl       40.00000   16.00000    8.00000

 chkinp: Checking input parameters for consistency.

== DATASET  1 ==================================================================
-   mpi_nproc: 1, omp_nthreads: -1 (-1 if OMP is not activated)

--- !DatasetInfo
iteration_state: {dtset: 1, }
dimensions: {natom: 12, nkpt: 2, mband: 57, nsppol: 1, nspinor: 1, nspden: 1, mpw: 17223, }
cutoff_energies: {ecut:  44.0, pawecutdg:  -1.0, }
electrons: {nelect:   9.60000000E+01, charge:   0.00000000E+00, occopt:   1.00000000E+00, tsmear:   1.00000000E-02, }
meta: {optdriver: 1, rfelfd: 2, }
...

 Real(R)+Recip(G) space primitive vectors, cartesian coordinates (Bohr,Bohr^-1):
 R(1)= 10.7265702  0.0000000  0.0000000  G(1)=  0.0932264  0.0000000  0.0000000
 R(2)=  0.0000000 10.7265702  0.0000000  G(2)=  0.0000000  0.0932264  0.0000000
 R(3)=  0.0000000  0.0000000 10.7265702  G(3)=  0.0000000  0.0000000  0.0932264
 Unit cell volume ucvol=  1.2341917E+03 bohr^3
 Angles (23,13,12)=  9.00000000E+01  9.00000000E+01  9.00000000E+01 degrees

 getcut: wavevector=  0.0000  0.0000  0.0000  ngfft=  72  72  72
         ecut(hartree)=     44.000   => boxcut(ratio)=   2.24792

 getcut : COMMENT -
  Note that boxcut > 2.2 ; recall that boxcut=Gcut(box)/Gcut(sphere) = 2
  is sufficient for exact treatment of convolution.
  Such a large boxcut is a waste : you could raise ecut
  e.g. ecut=   55.584409 Hartrees makes boxcut=2

--- Pseudopotential description ------------------------------------------------
- pspini: atom type   1  psp file is /scratch/users/j/a/jabreu/pseudos/PBEsol/Zr.psp8
- pspatm: opening atomic psp file    /scratch/users/j/a/jabreu/pseudos/PBEsol/Zr.psp8
- Zr    ONCVPSP-3.3.0  r_core=   1.56507   1.56507   1.51006
- 40.00000  12.00000    180112                znucl, zion, pspdat
    8 -116133    2    4       600   0.00000   pspcod,pspxc,lmax,lloc,mmax,r2well
    5.99000000000000    5.00000000000000    0.00000000000000   rchrg,fchrg,qchrg
     nproj     2     2     2
     extension_switch     1
  pspatm : epsatm=   18.88750170
         --- l  ekb(1:nproj) -->
             0   10.584966    0.890424
             1    5.814585    0.741293
             2    1.525459    0.487901
 pspatm: atomic psp has been read  and splines computed

- pspini: atom type   2  psp file is /scratch/users/j/a/jabreu/pseudos/PBEsol/S.psp8
- pspatm: opening atomic psp file    /scratch/users/j/a/jabreu/pseudos/PBEsol/S.psp8
- S     ONCVPSP-3.3.0  r_core=   1.45376   1.45376   1.61851
- 16.00000   6.00000    180112                znucl, zion, pspdat
    8 -116133    2    4       600   0.00000   pspcod,pspxc,lmax,lloc,mmax,r2well
    5.99000000000000    6.00000000000000    0.00000000000000   rchrg,fchrg,qchrg
     nproj     2     2     2
     extension_switch     1
  pspatm : epsatm=    8.71840985
         --- l  ekb(1:nproj) -->
             0    6.834532    0.579453
             1    3.282851    0.896984
             2   -3.496974   -0.974265
 pspatm: atomic psp has been read  and splines computed

- pspini: atom type   3  psp file is /scratch/users/j/a/jabreu/pseudos/PBEsol/O.psp8
- pspatm: opening atomic psp file    /scratch/users/j/a/jabreu/pseudos/PBEsol/O.psp8
- O     ONCVPSP-3.3.0  r_core=   1.35509   1.45563   1.26150
-  8.00000   6.00000    180112                znucl, zion, pspdat
    8 -116133    2    4       600   0.00000   pspcod,pspxc,lmax,lloc,mmax,r2well
    5.99000000000000    4.00000000000000    0.00000000000000   rchrg,fchrg,qchrg
     nproj     2     2     1
[...]
 ETOT 40  -33.697468716492     -7.105E-15 3.108E-15 0.000E+00
 ETOT 41  -33.697468716492      0.000E+00 8.510E-16 0.000E+00
 ETOT 42  -33.697468716492      0.000E+00 7.555E-16 0.000E+00
 ETOT 43  -33.697468716492      0.000E+00 2.064E-16 0.000E+00
 ETOT 44  -33.697468716492     -7.105E-15 1.838E-16 0.000E+00
 ETOT 45  -33.697468716492      1.421E-14 5.009E-17 0.000E+00
 ETOT 46  -33.697468716492     -7.105E-15 4.474E-17 0.000E+00
 ETOT 47  -33.697468716492      1.421E-14 1.217E-17 0.000E+00
 ETOT 48  -33.697468716492     -1.421E-14 1.090E-17 0.000E+00
 ETOT 49  -33.697468716492      0.000E+00 2.958E-18 0.000E+00
 ETOT 50  -33.697468716492      7.105E-15 2.656E-18 0.000E+00
 ETOT 51  -33.697468716492      7.105E-15 7.196E-19 0.000E+00
 ETOT 52  -33.697468716492      0.000E+00 6.478E-19 0.000E+00
 ETOT 53  -33.697468716492     -1.421E-14 1.752E-19 0.000E+00
 ETOT 54  -33.697468716492      7.105E-15 1.580E-19 0.000E+00
 ETOT 55  -33.697468716492     -7.105E-15 4.266E-20 0.000E+00
 ETOT 56  -33.697468716492     -7.105E-15 3.857E-20 0.000E+00
 ETOT 57  -33.697468716492      0.000E+00 1.040E-20 0.000E+00
 ETOT 58  -33.697468716492      1.421E-14 9.997E-21 0.000E+00

 At SCF step   58   max residual=  1.00E-20 < tolwfr=  1.00E-20 =>converged.

 ----iterations are completed or convergence reached----

 dfpt_looppert: DFPT cycle converged with prtwf=-1. Will skip output of the 1st-order WFK file.
 dfpt_looppert : ek2=    6.5877818124E+01
          f-sum rule ratio=    1.0420732344E+00
 prteigrs : about to open file /scratch/users/j/a/jabreu/flow_simple_11atoms/flow/w398/t1/tmpdata/tmp_1WF1_EIG
 Expectation of eigenvalue derivatives (hartree) for nkpt=   2  k points:
  (in case of degenerate eigenvalues, averaged derivative)
 kpt#   1, nband= 57, wtk=  0.50000, kpt=  0.0000  0.0000  0.0000 (reduced coord)
   0.00000    0.00000    0.00000    0.00000   -0.00000   -0.00000   -0.00000   -0.00000
  -0.00000   -0.00000   -0.00000   -0.00000    0.00000    0.00000    0.00000    0.00000
   0.00000   -0.00000   -0.00000   -0.00000   -0.00000   -0.00000   -0.00000   -0.00000
  -0.00000   -0.00000   -0.00000    0.00000    0.00000    0.00000   -0.00000   -0.00000
   0.00000    0.00000    0.00000    0.00000   -0.00000   -0.00000   -0.00000    0.00000
   0.00000    0.00000    0.00000    0.00000   -0.00000    0.00000    0.00000    0.00000
  -0.00000   -0.00000   -0.00000   -0.00000   -0.00000    0.00000    0.00000    0.00000
  -0.01881
 prteigrs : prtvol=0 or 1, do not print more k-points.

 Eight components of 2nd-order total energy (hartree) are
 1,2,3: 0th-order hamiltonian combined with 1st-order wavefunctions
     kin0=   7.17460796E+01 eigvalue=  -5.58932848E+00  local=  -4.46398052E+01
 4,5,6: 1st-order hamiltonian combined with 1st and 0th-order wfs
     kin1=  -6.86495110E+01  Hartree=   0.00000000E+00     xc=   0.00000000E+00
 7,8,9: eventually, occupation + non-local contributions
    edocc=   7.78492619E+00     enl0=   4.39559667E+00   enl1=   1.25457358E+00
 1-9 gives the relaxation energy (to be shifted if some occ is /=2.0)
   erelax=  -3.36974687E+01
  No Ewald or frozen-wf contrib.: the relaxation energy is the total one
 2DEtotal=   -0.3369746872E+02 Ha. Also 2DEtotal=   -0.916954756355E+03 eV
    (  non-var. 2DEtotal :   -3.3697468716E+01 Ha)

 CALCULATION OF EFFECTIVE MASSES
 NOTE : Additional infos (eff. mass eigenvalues, eigenvectors and, if degenerate, average mass) are available in stdout.

--- !WARNING
src_file: m_efmas.F90
src_line: 0
message: |
    Effective masses calculations require given k-point(s) to be band extrema for given bands, but max abs gradient of band(s) was found to be greater than 1e-5. Abinit will continue anyway.
...

[...]

--- !WARNING
src_file: m_efmas.F90
src_line: 0
message: |
    Effective masses calculations require given k-point(s) to be band extrema for given bands, but max abs gradient of band(s) was found to be greater than 1e-5. Abinit will continue anyway.
...

 COMMENTS:
 - At k-point ( 0.000, 0.000, 0.000), bands    46 through    48
   are DEGENERATE (effective mass tensor is therefore not defined).
   See Section IIIB Eqs. (67)-(70) and Appendix E of PRB 93 205147 (2016).
 - Angular average effective mass for Frohlich model is to be averaged over degenerate bands. See later.
 - Associated theta integrals calculated with ntheta=   1000 points.

 K-point ( 0.000, 0.000, 0.000) | band =    46
 Transport equivalent effective mass tensor:
             -0.3098004468             -0.0000000018             -0.0000000003
             -0.0000000018             -0.3098004501              0.0000000008
             -0.0000000003              0.0000000008             -0.3098004492
 Transport equivalent effective mass tensor eigenvalues:
             -0.3098004511             -0.3098004491             -0.3098004459
 Angular average effective mass 1/(<1/m>)=  -0.3095968425
 Angular average effective mass for Frohlich model (<m**0.5>)**2=  -0.3096107648
 Effective masses along directions: (cart. coord. / red. coord. -> eff. mass)
    1:   1.000000  0.000000  0.000000 /   1.000000  0.000000  0.000000 ->  -0.3155427744
    2:   0.000000  1.000000  0.000000 /   0.000000  1.000000  0.000000 ->  -0.3155427744
    3:   0.000000  0.000000  1.000000 /   0.000000  0.000000  1.000000 ->  -0.3155427744
    4:   0.577350  0.577350  0.577350 /   0.577350  0.577350  0.577350 ->  -0.3065636758
    5:   0.000000  0.707107  0.707107 /   0.000000  0.707107  0.707107 ->  -0.3077944274
    6:   0.707107  0.000000  0.707107 /   0.707107  0.000000  0.707107 ->  -0.3077944229
    7:   0.707107  0.707107  0.000000 /   0.707107  0.707107  0.000000 ->  -0.3077944252

[...]

 K-point ( 0.000, 0.000, 0.000) | band =    48
 Transport equivalent effective mass tensor:
             -1.8810416315             -0.0000000069              0.0000000147
             -0.0000000069             -1.8810048893              0.0000000018
              0.0000000147              0.0000000018             -1.8810264468
 Transport equivalent effective mass tensor eigenvalues:
             -1.8810416315             -1.8810264468             -1.8810048893
 Angular average effective mass 1/(<1/m>)=  -1.5623708776
 Angular average effective mass for Frohlich model (<m**0.5>)**2=  -1.5797047807
 Effective masses along directions: (cart. coord. / red. coord. -> eff. mass)
    1:   1.000000  0.000000  0.000000 /   1.000000  0.000000  0.000000 ->  -2.0091331967
    2:   0.000000  1.000000  0.000000 /   0.000000  1.000000  0.000000 ->  -2.0091332075
    3:   0.000000  0.000000  1.000000 /   0.000000  0.000000  1.000000 ->  -2.0091332320
    4:   0.577350  0.577350  0.577350 /   0.577350  0.577350  0.577350 ->  -1.2983286730
    5:   0.000000  0.707107  0.707107 /   0.000000  0.707107  0.707107 ->  -1.3571227470
    6:   0.707107  0.000000  0.707107 /   0.707107  0.000000  0.707107 ->  -1.3571227535
    7:   0.707107  0.707107  0.000000 /   0.707107  0.707107  0.000000 ->  -1.3571227423

 Angular average effective mass for Frohlich model, averaged over degenerate bands.
 Value of     (<<m**0.5>>)**2 =     9.046298E-01
 Absolute Value of <<m**0.5>> =     9.511203E-01

 K-point ( 0.397, 0.397, 0.397) | band =    49
 Effective mass tensor:
              0.9002041803             -0.0521758626             -0.0521873390
             -0.0521758626              0.9002228394             -0.0521972814
             -0.0521873390             -0.0521972814              0.9001781724
 Effective mass tensor eigenvalues:
              0.7958280714              0.9523774035              0.9523997171
 Angular average effective mass 1/(<1/m>)=   0.8937785765
 Angular average effective mass for Frohlich model (<m**0.5>)**2=   0.8957601298
 Effective masses along directions: (cart. coord. / red. coord. -> eff. mass)
    1:   1.000000  0.000000  0.000000 /   1.000000  0.000000  0.000000 ->   0.8937822247
    2:   0.000000  1.000000  0.000000 /   0.000000  1.000000  0.000000 ->   0.8937996647
    3:   0.000000  0.000000  1.000000 /   0.000000  0.000000  1.000000 ->   0.8937538414
    4:   0.577350  0.577350  0.577350 /   0.577350  0.577350  0.577350 ->   0.7958280747
    5:   0.000000  0.707107  0.707107 /   0.000000  0.707107  0.707107 ->   0.8419536642
    6:   0.707107  0.000000  0.707107 /   0.707107  0.000000  0.707107 ->   0.8419532501
    7:   0.707107  0.707107  0.000000 /   0.707107  0.707107  0.000000 ->   0.8419854292

 END OF EFFECTIVE MASSES SECTION

 ---- first-order wavefunction calculations are completed ----

 Total localisation tensor (bohr^2) in cartesian coordinates
  WARNING : still subject to testing - especially symmetries.
      direction              matrix element
   alpha     beta       real part   imaginary part
     1        1       1.1229658543    0.0000000000
     1        2       0.0000000000    0.0000000000
     1        3       0.0000000000    0.0000000000
     2        1       0.0000000000    0.0000000000
     2        2       1.1229558304    0.0000000000
     2        3       0.0000000000    0.0000000000
     3        1       0.0000000000    0.0000000000
     3        2       0.0000000000    0.0000000000
     3        3       1.1229635067    0.0000000000

 respfn : d/dk was computed, but no 2DTE, so no DDB output.

== END DATASET(S) ==============================================================

 -outvars: echo values of variables after computation  --------
            acell      1.0000000000E+00  1.0000000000E+00  1.0000000000E+00 Bohr
              amu      9.12240000E+01  3.20660000E+01  1.59994000E+01
             ecut      4.40000000E+01 Hartree
           etotal     -3.3697468716E+01
            fcart      0.0000000000E+00  0.0000000000E+00  0.0000000000E+00
                       0.0000000000E+00  0.0000000000E+00  0.0000000000E+00
                       0.0000000000E+00  0.0000000000E+00  0.0000000000E+00
                       0.0000000000E+00  0.0000000000E+00  0.0000000000E+00
                       0.0000000000E+00  0.0000000000E+00  0.0000000000E+00
                       0.0000000000E+00  0.0000000000E+00  0.0000000000E+00
                       0.0000000000E+00  0.0000000000E+00  0.0000000000E+00
                       0.0000000000E+00  0.0000000000E+00  0.0000000000E+00
                       0.0000000000E+00  0.0000000000E+00  0.0000000000E+00
                       0.0000000000E+00  0.0000000000E+00  0.0000000000E+00
                       0.0000000000E+00  0.0000000000E+00  0.0000000000E+00
                       0.0000000000E+00  0.0000000000E+00  0.0000000000E+00
-          fftalg         512
           irdden           1
           irdwfk           1
           istwfk        1    0
              ixc     -116133
              kpt      0.00000000E+00  0.00000000E+00  0.00000000E+00
                       3.96551724E-01  3.96551724E-01  3.96551724E-01
           kptopt           0
P           mkmem           2
P          mkqmem           2
P          mk1mem           2
            natom          12
            nband          57
           nbdbuf           4
            ngfft          72      72      72
             nkpt           2
            nstep        2000
             nsym          12
           ntypat           3
              occ      2.000000  2.000000  2.000000  2.000000  2.000000  2.000000
                       2.000000  2.000000  2.000000  2.000000  2.000000  2.000000
                       2.000000  2.000000  2.000000  2.000000  2.000000  2.000000
                       2.000000  2.000000  2.000000  2.000000  2.000000  2.000000
                       2.000000  2.000000  2.000000  2.000000  2.000000  2.000000
                       2.000000  2.000000  2.000000  2.000000  2.000000  2.000000
                       2.000000  2.000000  2.000000  2.000000  2.000000  2.000000
                       2.000000  2.000000  2.000000  2.000000  2.000000  2.000000
                       0.000000  0.000000  0.000000  0.000000  0.000000  0.000000
                       0.000000  0.000000  0.000000
        optdriver           1
            prtwf          -1
            rfdir           1       1       1
           rfelfd           2
            rprim      1.0726570198E+01  0.0000000000E+00  0.0000000000E+00
                       0.0000000000E+00  1.0726570198E+01  0.0000000000E+00
                       0.0000000000E+00  0.0000000000E+00  1.0726570198E+01
          spgroup         198
           strten      0.0000000000E+00  0.0000000000E+00  0.0000000000E+00
                       0.0000000000E+00  0.0000000000E+00  0.0000000000E+00
           symrel      1  0  0   0  1  0   0  0  1      -1  0  0   0  1  0   0  0 -1
                      -1  0  0   0 -1  0   0  0  1       1  0  0   0 -1  0   0  0 -1
                       0  0  1   1  0  0   0  1  0       0  0 -1   1  0  0   0 -1  0
                       0  0 -1  -1  0  0   0  1  0       0  0  1  -1  0  0   0 -1  0
                       0  1  0   0  0  1   1  0  0       0 -1  0   0  0  1  -1  0  0
                       0 -1  0   0  0 -1   1  0  0       0  1  0   0  0 -1  -1  0  0
            tnons      0.0000000  0.0000000  0.0000000     0.0000000  0.5000000  0.5000000
                       0.5000000  0.0000000  0.5000000     0.5000000  0.5000000  0.0000000
                       0.0000000  0.0000000  0.0000000     0.5000000  0.5000000  0.0000000
                       0.0000000  0.5000000  0.5000000     0.5000000  0.0000000  0.5000000
                       0.0000000  0.0000000  0.0000000     0.5000000  0.0000000  0.5000000
                       0.5000000  0.5000000  0.0000000     0.0000000  0.5000000  0.5000000
           tolwfr      1.00000000E-20
            typat      1  1  1  1  2  2  2  2  3  3  3  3
           useylm           1
              wtk        0.50000    0.50000
           xangst      5.2713747771E+00  3.2430099357E+00  2.4332465395E+00
                       3.2430099357E+00  2.4332465395E+00  5.2713747771E+00
                       2.4332465395E+00  5.2713747771E+00  3.2430099357E+00
                       4.0488169812E-01  4.0488169812E-01  4.0488169812E-01
                       9.4454610624E-01  3.7826743438E+00  4.7317103689E+00
                       4.7317103689E+00  9.4454610624E-01  3.7826743438E+00
                       3.7826743438E+00  4.7317103689E+00  9.4454610624E-01
                       1.8935821313E+00  1.8935821313E+00  1.8935821313E+00
                       8.8472403925E-01  4.7915324359E+00  1.9534041983E+00
                       4.7915324359E+00  1.9534041983E+00  8.8472403925E-01
                       3.7228522768E+00  3.7228522768E+00  3.7228522768E+00
                       1.9534041983E+00  8.8472403925E-01  4.7915324359E+00
            xcart      9.9614546724E+00  6.1284006247E+00  4.5981695734E+00
                       6.1284006247E+00  4.5981695734E+00  9.9614546724E+00
                       4.5981695734E+00  9.9614546724E+00  6.1284006247E+00
                       7.6511552566E-01  7.6511552566E-01  7.6511552566E-01
                       1.7849334607E+00  7.1482185597E+00  8.9416367374E+00
                       8.9416367374E+00  1.7849334607E+00  7.1482185597E+00
                       7.1482185597E+00  8.9416367374E+00  1.7849334607E+00
                       3.5783516384E+00  3.5783516384E+00  3.5783516384E+00
                       1.6718861374E+00  9.0546840607E+00  3.6913989617E+00
                       9.0546840607E+00  3.6913989617E+00  1.6718861374E+00
                       7.0351712364E+00  7.0351712364E+00  7.0351712364E+00
                       3.6913989617E+00  1.6718861374E+00  9.0546840607E+00
             xred      9.2867100000E-01  5.7132900000E-01  4.2867100000E-01
                       5.7132900000E-01  4.2867100000E-01  9.2867100000E-01
                       4.2867100000E-01  9.2867100000E-01  5.7132900000E-01
                       7.1329000000E-02  7.1329000000E-02  7.1329000000E-02
                       1.6640300000E-01  6.6640300000E-01  8.3359700000E-01
                       8.3359700000E-01  1.6640300000E-01  6.6640300000E-01
                       6.6640300000E-01  8.3359700000E-01  1.6640300000E-01
                       3.3359700000E-01  3.3359700000E-01  3.3359700000E-01
                       1.5586400000E-01  8.4413600000E-01  3.4413600000E-01
                       8.4413600000E-01  3.4413600000E-01  1.5586400000E-01
                       6.5586400000E-01  6.5586400000E-01  6.5586400000E-01
                       3.4413600000E-01  1.5586400000E-01  8.4413600000E-01
            znucl       40.00000   16.00000    8.00000

- Timing analysis has been suppressed with timopt=0

 Suggested references for the acknowledgment of ABINIT usage.

 Calculation completed.
.Delivered   8 WARNINGs and  11 COMMENTs to log file.