.Version 9.5.1 of ABINIT

 ABINIT is a project of the Universite Catholique de Louvain,
 Corning Inc. and other collaborators, see ~abinit/doc/developers/contributors.txt .
 acknowledgments of the ABINIT effort.

.Starting date : Tue  4 May 2021.
- ( at 19h33 )

- input  file    -> /scratch/users/j/a/jabreu/flow_simple_6atoms/flow/w219/t1/run.abi
- output file    -> /scratch/users/j/a/jabreu/flow_simple_6atoms/flow/w219/t1/run.abo
- root for input  files -> /scratch/users/j/a/jabreu/flow_simple_6atoms/flow/w219/t1/indata/in
- root for output files -> /scratch/users/j/a/jabreu/flow_simple_6atoms/flow/w219/t1/outdata/out

 Symmetries : space group R-3 m (#166); Bravais hR (rhombohedral)
     intxc =       0      iscf =       7    lmnmax =      18     lnmax =       6
     mgfft =      80  mpssoang =       3    mqgrid =    3001     natom =       6
  nloc_mem =       1    nspden =       1   nspinor =       1    nsppol =       1
      nsym =      12    n1xccc =    2501    ntypat =       3    occopt =       1
   xclevel =       2
-    mband =          33        mffmem =           1         mkmem =           1
-   mkqmem =           1        mk1mem =           1           mpw =        7256
      nfft =      512000          nkpt =           1
  Rough estimation (10% accuracy) of disk space for files :

------------- Echo of variables that govern the present computation ------------
-
- outvars: echo of selected default values
-   iomode0 =  0 , fftalg0 =512 , wfoptalg0 =  0
-
- outvars: echo of global parameters not present in the input file
-  max_nthreads =    0
-
 -outvars: echo values of preprocessed input variables --------
            acell      1.0000000000E+00  1.0000000000E+00  1.0000000000E+00 Bohr
              amu      8.89058500E+01  1.59994000E+01  1.89984032E+01
             ecut      4.40000000E+01 Hartree
-          fftalg         512
           irdden           1
           irdwfk           1
              ixc     -116133
              kpt      3.33579791E-01 -5.55111512E-17 -3.33579791E-01
           kptopt           0
P           mkmem           1
P          mkqmem           1
P          mk1mem           1
            natom           6
            nband          33
           nbdbuf           4
            ngfft          80      80      80
             nkpt           1
            nstep        1000
             nsym          12
           ntypat           3
              occ      2.000000  2.000000  2.000000  2.000000  2.000000  2.000000
                       2.000000  2.000000  2.000000  2.000000  2.000000  2.000000
                       2.000000  2.000000  2.000000  2.000000  2.000000  2.000000
                       2.000000  2.000000  2.000000  2.000000  2.000000  2.000000
                       0.000000  0.000000  0.000000  0.000000  0.000000  0.000000
                       0.000000  0.000000  0.000000
        optdriver           1
            prtwf          -1
            rfdir           1       1       1
           rfelfd           2
            rprim      6.8345104452E+00  0.0000000000E+00  1.0515293111E+01
                       3.1169897486E+00  6.0823439505E+00  1.0515293111E+01
                       0.0000000000E+00  0.0000000000E+00  1.2541208962E+01
          spgroup         166
           symrel      1  0  0   0  1  0   0  0  1      -1  0  0   0 -1  0   0  0 -1
                       0  1  0   1  0  0   0  0  1       0 -1  0  -1  0  0   0  0 -1
                       0  0  1   1  0  0   0  1  0       0  0 -1  -1  0  0   0 -1  0
                       1  0  0   0  0  1   0  1  0      -1  0  0   0  0 -1   0 -1  0
                       0  1  0   0  0  1   1  0  0       0 -1  0   0  0 -1  -1  0  0
                       0  0  1   0  1  0   1  0  0       0  0 -1   0 -1  0  -1  0  0
           tolwfr      1.00000000E-20
            typat      1  1  2  2  3  3
           useylm           1
           xangst      1.3623787679E+00  8.3268412762E-01  4.5960408049E+00
                       3.9037283259E+00  2.3859536658E+00  1.3169388058E+01
                       1.9931004146E+00  1.2181803761E+00  6.7238062198E+00
                       3.2730066793E+00  2.0004574173E+00  1.1041622643E+01
                       4.5807021911E+00  2.7997192100E+00  1.5453187235E+01
                       6.8540490269E-01  4.1891858336E-01  2.3122416282E+00
            xcart      2.5745227606E+00  1.5735449564E+00  8.6852584167E+00
                       7.3769774332E+00  4.5087989941E+00  2.4886536768E+01
                       3.7664139388E+00  2.3020272914E+00  1.2706152326E+01
                       6.1850862550E+00  3.7803166591E+00  2.0865642858E+01
                       8.6562726376E+00  5.2907025560E+00  2.9202291754E+01
                       1.2952275562E+00  7.9164139453E-01  4.3695034304E+00
             xred      2.5870700000E-01  2.5870700000E-01  2.5870700000E-01
                       7.4129300000E-01  7.4129300000E-01  7.4129300000E-01
                       3.7847700000E-01  3.7847700000E-01  3.7847700000E-01
                       6.2152300000E-01  6.2152300000E-01  6.2152300000E-01
                       8.6984600000E-01  8.6984600000E-01  8.6984600000E-01
                       1.3015400000E-01  1.3015400000E-01  1.3015400000E-01
            znucl       39.00000    8.00000    9.00000

 chkinp: Checking input parameters for consistency.

== DATASET  1 ==================================================================
-   mpi_nproc: 1, omp_nthreads: -1 (-1 if OMP is not activated)

--- !DatasetInfo
iteration_state: {dtset: 1, }
dimensions: {natom: 6, nkpt: 1, mband: 33, nsppol: 1, nspinor: 1, nspden: 1, mpw: 7256, }
cutoff_energies: {ecut:  44.0, pawecutdg:  -1.0, }
electrons: {nelect:   4.80000000E+01, charge:   0.00000000E+00, occopt:   1.00000000E+00, tsmear:   1.00000000E-02, }
meta: {optdriver: 1, rfelfd: 2, }
...

 Real(R)+Recip(G) space primitive vectors, cartesian coordinates (Bohr,Bohr^-1):
 R(1)=  6.8345104  0.0000000 10.5152931  G(1)=  0.1463163 -0.0749820  0.0000000
 R(2)=  3.1169897  6.0823440 10.5152931  G(2)=  0.0000000  0.1644103  0.0000000
 R(3)=  0.0000000  0.0000000 12.5412090  G(3)= -0.1226802 -0.0749820  0.0797371
 Unit cell volume ucvol=  5.2133609E+02 bohr^3
 Angles (23,13,12)=  3.30222201E+01  3.30222201E+01  3.30222201E+01 degrees

 getcut: wavevector=  0.0000  0.0000  0.0000  ngfft=  80  80  80
         ecut(hartree)=     44.000   => boxcut(ratio)=   2.13694

--- Pseudopotential description ------------------------------------------------
- pspini: atom type   1  psp file is /scratch/users/j/a/jabreu/pseudos/PBEsol/Y.psp8
- pspatm: opening atomic psp file    /scratch/users/j/a/jabreu/pseudos/PBEsol/Y.psp8
- Y     ONCVPSP-3.3.0  r_core=   1.60520   1.51226   1.56736
- 39.00000  11.00000    180112                znucl, zion, pspdat
    8 -116133    2    4       600   0.00000   pspcod,pspxc,lmax,lloc,mmax,r2well
    5.99000000000000    4.00000000000000    0.00000000000000   rchrg,fchrg,qchrg
     nproj     2     2     2
     extension_switch     1
  pspatm : epsatm=   18.54790046
         --- l  ekb(1:nproj) -->
             0   10.130768    0.866504
             1    5.598307    0.427135
             2    1.217602    0.315447
 pspatm: atomic psp has been read  and splines computed

- pspini: atom type   2  psp file is /scratch/users/j/a/jabreu/pseudos/PBEsol/O.psp8
- pspatm: opening atomic psp file    /scratch/users/j/a/jabreu/pseudos/PBEsol/O.psp8
- O     ONCVPSP-3.3.0  r_core=   1.35509   1.45563   1.26150
-  8.00000   6.00000    180112                znucl, zion, pspdat
    8 -116133    2    4       600   0.00000   pspcod,pspxc,lmax,lloc,mmax,r2well
    5.99000000000000    4.00000000000000    0.00000000000000   rchrg,fchrg,qchrg
     nproj     2     2     1
     extension_switch     1
  pspatm : epsatm=    6.22910522
         --- l  ekb(1:nproj) -->
             0    6.050032    0.820363
             1   -4.739617   -1.153841
             2   -1.335834
 pspatm: atomic psp has been read  and splines computed

- pspini: atom type   3  psp file is /scratch/users/j/a/jabreu/pseudos/PBEsol/F.psp8
- pspatm: opening atomic psp file    /scratch/users/j/a/jabreu/pseudos/PBEsol/F.psp8
- F     ONCVPSP-3.3.0  r_core=   1.30942   1.45782   1.60379
-  9.00000   7.00000    180112                znucl, zion, pspdat
    8 -116133    2    4       600   0.00000   pspcod,pspxc,lmax,lloc,mmax,r2well
    5.99000000000000    2.50000000000000    0.00000000000000   rchrg,fchrg,qchrg
     nproj     2     2     1
     extension_switch     1
  pspatm : epsatm=    4.89824824
         --- l  ekb(1:nproj) -->
             0    6.506434    1.065875
             1   -3.978753   -1.295852
             2   -2.394754
 pspatm: atomic psp has been read  and splines computed

   2.84882438E+03                                ecore*ucvol(ha*bohr**3)

-inwffil : will read wavefunctions from disk file /scratch/users/j/a/jabreu/flow_simple_6atoms/flow/w219/t1/indata/in_WFK

 ==>  initialize data related to q vector <==

 The list of irreducible perturbations for this q vector is:
    1)    idir= 1    ipert=   7
    2)    idir= 2    ipert=   7
    3)    idir= 3    ipert=   7

 Perturbation wavevector (in red.coord.)   0.000000  0.000000  0.000000
 Perturbation : derivative vs k along direction   1

 dfpt_looppert : COMMENT -
  In a d/dk calculation, iscf is set to -3 automatically.
 The set of symmetries contains only one element for this perturbation.
 symkpt : not enough symmetry to change the number of k points.

[...]

 Initialisation of the first-order wave-functions :
  ireadwf=   0

--- !BeginCycle
iteration_state: {dtset: 1, }
solver: {iscf: 7, nstep: 1000, nline: 4, wfoptalg: 0, }
tolerances: {tolwfr: 1.00E-20, }
...

     iter   2DEtotal(Ha)        deltaE(Ha) residm    vres2
-ETOT  1  -54.129394634501     -5.413E+01 1.185E-01 0.000E+00
 ETOT  2  -54.203351259218     -7.396E-02 1.102E-02 0.000E+00
 ETOT  3  -54.203924013868     -5.728E-04 1.155E-03 0.000E+00
 ETOT  4  -54.203931172154     -7.158E-06 2.115E-04 0.000E+00
 ETOT  5  -54.203931278248     -1.061E-07 4.184E-05 0.000E+00
 ETOT  6  -54.203931279927     -1.679E-09 9.817E-06 0.000E+00
 ETOT  7  -54.203931279955     -2.762E-11 2.150E-06 0.000E+00
 ETOT  8  -54.203931279956     -5.045E-13 5.275E-07 0.000E+00
 ETOT  9  -54.203931279956     -2.132E-14 1.163E-07 0.000E+00
 ETOT 10  -54.203931279955      6.395E-14 2.897E-08 0.000E+00
 ETOT 11  -54.203931279955      4.263E-14 6.372E-09 0.000E+00
 ETOT 12  -54.203931279955     -4.974E-14 1.606E-09 0.000E+00
 ETOT 13  -54.203931279955      7.105E-15 3.527E-10 0.000E+00
 ETOT 14  -54.203931279955     -7.105E-15 8.973E-11 0.000E+00
 ETOT 15  -54.203931279955      2.132E-14 1.970E-11 0.000E+00
 ETOT 16  -54.203931279955     -2.132E-14 5.052E-12 0.000E+00
 ETOT 17  -54.203931279955      1.421E-14 1.109E-12 0.000E+00
 ETOT 18  -54.203931279955      0.000E+00 2.862E-13 0.000E+00
 ETOT 19  -54.203931279955      1.421E-14 6.278E-14 0.000E+00
 ETOT 20  -54.203931279955      0.000E+00 1.629E-14 0.000E+00
 ETOT 21  -54.203931279955      0.000E+00 3.574E-15 0.000E+00
 ETOT 22  -54.203931279955      0.000E+00 9.317E-16 0.000E+00
 ETOT 23  -54.203931279955      7.105E-15 2.044E-16 0.000E+00
 ETOT 24  -54.203931279955     -7.105E-15 5.345E-17 0.000E+00
 ETOT 25  -54.203931279955      0.000E+00 1.172E-17 0.000E+00
 ETOT 26  -54.203931279955     -1.421E-14 3.076E-18 0.000E+00
 ETOT 27  -54.203931279955      0.000E+00 6.747E-19 0.000E+00
 ETOT 28  -54.203931279955      2.132E-14 1.774E-19 0.000E+00
 ETOT 29  -54.203931279955      1.421E-14 3.892E-20 0.000E+00
 ETOT 30  -54.203931279955     -2.132E-14 1.025E-20 0.000E+00
 ETOT 31  -54.203931279955      7.105E-15 9.557E-21 0.000E+00

 At SCF step   31   max residual=  9.56E-21 < tolwfr=  1.00E-20 =>converged.

 ----iterations are completed or convergence reached----

 dfpt_looppert: DFPT cycle converged with prtwf=-1. Will skip output of the 1st-order WFK file.
 dfpt_looppert : ek2=    1.0244458770E+02
          f-sum rule ratio=    1.0369487126E+00
 prteigrs : about to open file /scratch/users/j/a/jabreu/flow_simple_6atoms/flow/w219/t1/tmpdata/tmp_1WF1_EIG
 Expectation of eigenvalue derivatives (hartree) for nkpt=   1  k points:
  (in case of degenerate eigenvalues, averaged derivative)
 kpt#   1, nband= 33, wtk=  1.00000, kpt=  0.3336  0.0000 -0.3336 (reduced coord)
  -0.00229    0.00228    0.02454   -0.03280    0.02317    0.01100    0.01818   -0.01347
  -0.03105   -0.00393   -0.00042    0.00523   -0.02610   -0.02749    0.04712    0.03375
  -0.03099   -0.00570    0.01839   -0.00652    0.02090   -0.01692   -0.00147   -0.00350
  -0.00502    0.00973   -0.00757    0.02561    0.01707   -0.02261   -0.00654    0.04032
  -0.01913

 Eight components of 2nd-order total energy (hartree) are
 1,2,3: 0th-order hamiltonian combined with 1st-order wavefunctions
     kin0=   6.24356933E+01 eigvalue=  -5.05706094E-01  local=  -2.70413886E+01
 4,5,6: 1st-order hamiltonian combined with 1st and 0th-order wfs
     kin1=  -1.06229783E+02  Hartree=   0.00000000E+00     xc=   0.00000000E+00
 7,8,9: eventually, occupation + non-local contributions
    edocc=   1.85798801E+01     enl0=   7.35452593E-01   enl1=  -2.17807923E+00
 1-9 gives the relaxation energy (to be shifted if some occ is /=2.0)
   erelax=  -5.42039313E+01
  No Ewald or frozen-wf contrib.: the relaxation energy is the total one
 2DEtotal=   -0.5420393128E+02 Ha. Also 2DEtotal=   -0.147496398078E+04 eV
    (  non-var. 2DEtotal :   -5.4203931280E+01 Ha)

 Perturbation wavevector (in red.coord.)   0.000000  0.000000  0.000000
 Perturbation : derivative vs k along direction   2
 The set of symmetries contains only one element for this perturbation.
 symkpt : not enough symmetry to change the number of k points.

[...]

 Perturbation wavevector (in red.coord.)   0.000000  0.000000  0.000000
 Perturbation : derivative vs k along direction   3
 The set of symmetries contains only one element for this perturbation.
 symkpt : not enough symmetry to change the number of k points.

-inwffil : will read wavefunctions from disk file /scratch/users/j/a/jabreu/flow_simple_6atoms/flow/w219/t1/indata/in_WFK

 Initialisation of the first-order wave-functions :
  ireadwf=   0

--- !BeginCycle
iteration_state: {dtset: 1, }
solver: {iscf: 7, nstep: 1000, nline: 4, wfoptalg: 0, }
tolerances: {tolwfr: 1.00E-20, }
...

     iter   2DEtotal(Ha)        deltaE(Ha) residm    vres2
-ETOT  1  -54.134476436459     -5.413E+01 1.255E-01 0.000E+00
 ETOT  2  -54.203437123210     -6.896E-02 1.353E-02 0.000E+00
 ETOT  3  -54.203931710581     -4.946E-04 1.567E-03 0.000E+00
 ETOT  4  -54.203937549576     -5.839E-06 2.848E-04 0.000E+00
 ETOT  5  -54.203937632816     -8.324E-08 5.821E-05 0.000E+00
 ETOT  6  -54.203937634093     -1.277E-09 1.319E-05 0.000E+00
 ETOT  7  -54.203937634113     -2.034E-11 2.972E-06 0.000E+00
 ETOT  8  -54.203937634114     -3.482E-13 7.056E-07 0.000E+00
 ETOT  9  -54.203937634114     -2.842E-14 1.600E-07 0.000E+00
 ETOT 10  -54.203937634114     -7.105E-15 3.855E-08 0.000E+00
 ETOT 11  -54.203937634114     -1.421E-14 8.717E-09 0.000E+00
 ETOT 12  -54.203937634114      1.421E-14 2.125E-09 0.000E+00
 ETOT 13  -54.203937634114      7.105E-15 4.797E-10 0.000E+00
 ETOT 14  -54.203937634114     -2.132E-14 1.181E-10 0.000E+00
 ETOT 15  -54.203937634114      2.132E-14 2.664E-11 0.000E+00
 ETOT 16  -54.203937634114     -2.132E-14 6.608E-12 0.000E+00
 ETOT 17  -54.203937634114      1.421E-14 1.490E-12 0.000E+00
 ETOT 18  -54.203937634114     -1.421E-14 3.721E-13 0.000E+00
 ETOT 19  -54.203937634114      0.000E+00 8.392E-14 0.000E+00
 ETOT 20  -54.203937634114      1.421E-14 2.106E-14 0.000E+00
 ETOT 21  -54.203937634114      7.105E-15 4.751E-15 0.000E+00
 ETOT 22  -54.203937634114     -7.105E-15 1.197E-15 0.000E+00
 ETOT 23  -54.203937634114      2.132E-14 2.701E-16 0.000E+00
 ETOT 24  -54.203937634114     -1.421E-14 6.826E-17 0.000E+00
 ETOT 25  -54.203937634114      0.000E+00 1.541E-17 0.000E+00
 ETOT 26  -54.203937634114      2.132E-14 3.904E-18 0.000E+00
 ETOT 27  -54.203937634114     -2.132E-14 8.815E-19 0.000E+00
 ETOT 28  -54.203937634114      0.000E+00 2.238E-19 0.000E+00
 ETOT 29  -54.203937634114     -7.105E-15 5.056E-20 0.000E+00
 ETOT 30  -54.203937634114      0.000E+00 1.286E-20 0.000E+00
 ETOT 31  -54.203937634114      1.421E-14 8.807E-21 0.000E+00

 At SCF step   31   max residual=  8.81E-21 < tolwfr=  1.00E-20 =>converged.

 ----iterations are completed or convergence reached----

 dfpt_looppert: DFPT cycle converged with prtwf=-1. Will skip output of the 1st-order WFK file.
 dfpt_looppert : ek2=    1.0244458770E+02
          f-sum rule ratio=    1.0369488260E+00
 prteigrs : about to open file /scratch/users/j/a/jabreu/flow_simple_6atoms/flow/w219/t1/tmpdata/tmp_1WF1_EIG
 Expectation of eigenvalue derivatives (hartree) for nkpt=   1  k points:
  (in case of degenerate eigenvalues, averaged derivative)
 kpt#   1, nband= 33, wtk=  1.00000, kpt=  0.3336  0.0000 -0.3336 (reduced coord)
   0.00229   -0.00228   -0.02454    0.03280   -0.02317   -0.01100   -0.01818    0.01347
   0.03105    0.00393    0.00042   -0.00523    0.02610    0.02749   -0.04712   -0.03375
   0.03099    0.00570   -0.01839    0.00652   -0.02090    0.01692    0.00147    0.00350
   0.00502   -0.00973    0.00757   -0.02561   -0.01707    0.02261    0.00654   -0.04032
   0.01987

 Eight components of 2nd-order total energy (hartree) are
 1,2,3: 0th-order hamiltonian combined with 1st-order wavefunctions
     kin0=   6.14217721E+01 eigvalue=  -4.61389279E-01  local=  -2.63403125E+01
 4,5,6: 1st-order hamiltonian combined with 1st and 0th-order wfs
     kin1=  -1.06229795E+02  Hartree=   0.00000000E+00     xc=   0.00000000E+00
 7,8,9: eventually, occupation + non-local contributions
    edocc=   1.88415555E+01     enl0=   7.42311878E-01   enl1=  -2.17808032E+00
 1-9 gives the relaxation energy (to be shifted if some occ is /=2.0)
   erelax=  -5.42039376E+01
  No Ewald or frozen-wf contrib.: the relaxation energy is the total one
 2DEtotal=   -0.5420393763E+02 Ha. Also 2DEtotal=   -0.147496415369E+04 eV
    (  non-var. 2DEtotal :   -5.4203937634E+01 Ha)

 CALCULATION OF EFFECTIVE MASSES
 NOTE : Additional infos (eff. mass eigenvalues, eigenvectors and, if degenerate, average mass) are available in stdout.

 K-point ( 0.334,-0.000,-0.334) | band =    24
 Effective mass tensor:
           -411.5885609873           -131.7933786517          -1382.2523832681
           -131.7933786517            -44.0974723402           -444.6099128767
          -1382.2523832681           -444.6099128767          -4664.9348967220
 Effective mass tensor eigenvalues:
          -5117.0596253614             -1.8547398293             -1.7065648587
 Angular average effective mass 1/(<1/m>)=  -2.6658916461
 Angular average effective mass for Frohlich model (<m**0.5>)**2=  -4.2867247295
 Effective masses along directions: (cart. coord. / red. coord. -> eff. mass)
    1:   1.000000  0.000000  0.000000 /   0.909844  0.414949  0.000000 ->  -2.0160525842
    2:   0.000000  1.000000  0.000000 /   0.000000  1.000000  0.000000 ->  -1.7208205349
    3:   0.000000  0.000000  1.000000 /   0.540545  0.540545  0.644688 -> -20.7511392632
    4:   0.577350  0.577350  0.577350 /   0.596159  0.677417  0.430930 ->  -4.2720067011
    5:   0.000000  0.707107  0.707107 /   0.451115  0.712053  0.538029 ->  -3.7916149091
    6:   0.707107  0.000000  0.707107 /   0.683605  0.537130  0.494140 ->  -7.9008317914
    7:   0.707107  0.707107  0.000000 /   0.596364  0.802714  0.000000 ->  -1.9103008412

 K-point ( 0.334,-0.000,-0.334) | band =    25
 Effective mass tensor:
              6.6249068406              4.6333192301             19.3116564718
              4.6333192301              4.5977606662             15.6306808227
             19.3116564718             15.6306808227             66.0490713539
 Effective mass tensor eigenvalues:
              0.8502485340              0.9004555801             75.5210347466
 Angular average effective mass 1/(<1/m>)=   1.3043949022
 Angular average effective mass for Frohlich model (<m**0.5>)**2=   1.8944207701
 Effective masses along directions: (cart. coord. / red. coord. -> eff. mass)
    1:   1.000000  0.000000  0.000000 /   0.909844  0.414949  0.000000 ->   0.9740581038
    2:   0.000000  1.000000  0.000000 /   0.000000  1.000000  0.000000 ->   0.8946425749
    3:   0.000000  0.000000  1.000000 /   0.540545  0.540545  0.644688 ->   6.4300673315
    4:   0.577350  0.577350  0.577350 /   0.596159  0.677417  0.430930 ->   2.7209263441
    5:   0.000000  0.707107  0.707107 /   0.451115  0.712053  0.538029 ->   2.5431205515
    6:   0.707107  0.000000  0.707107 /   0.683605  0.537130  0.494140 ->   3.2469456997
    7:   0.707107  0.707107  0.000000 /   0.596364  0.802714  0.000000 ->   0.9999581053

 END OF EFFECTIVE MASSES SECTION

 ---- first-order wavefunction calculations are completed ----

 Total localisation tensor (bohr^2) in cartesian coordinates
  WARNING : still subject to testing - especially symmetries.
      direction              matrix element
   alpha     beta       real part   imaginary part
     1        1       0.9838343697    0.0000000000
     1        2       0.3329902824    0.0000000000
     1        3       1.8268189439    0.0000000000
     2        1       0.3329902824    0.0000000000
     2        2       0.6497812291    0.0000000000
     2        3       1.1233564128    0.0000000000
     3        1       1.8268189439    0.0000000000
     3        2       1.1233564128    0.0000000000
     3        3       6.6051707661    0.0000000000

 respfn : d/dk was computed, but no 2DTE, so no DDB output.

== END DATASET(S) ==============================================================

 -outvars: echo values of variables after computation  --------
            acell      1.0000000000E+00  1.0000000000E+00  1.0000000000E+00 Bohr
              amu      8.89058500E+01  1.59994000E+01  1.89984032E+01
             ecut      4.40000000E+01 Hartree
           etotal     -5.4203937634E+01
            fcart      0.0000000000E+00  0.0000000000E+00  0.0000000000E+00
                       0.0000000000E+00  0.0000000000E+00  0.0000000000E+00
                       0.0000000000E+00  0.0000000000E+00  0.0000000000E+00
                       0.0000000000E+00  0.0000000000E+00  0.0000000000E+00
                       0.0000000000E+00  0.0000000000E+00  0.0000000000E+00
                       0.0000000000E+00  0.0000000000E+00  0.0000000000E+00
-          fftalg         512
           irdden           1
           irdwfk           1
              ixc     -116133
              kpt      3.33579791E-01 -5.55111512E-17 -3.33579791E-01
           kptopt           0
P           mkmem           1
P          mkqmem           1
P          mk1mem           1
            natom           6
            nband          33
           nbdbuf           4
            ngfft          80      80      80
             nkpt           1
            nstep        1000
             nsym          12
           ntypat           3
              occ      2.000000  2.000000  2.000000  2.000000  2.000000  2.000000
                       2.000000  2.000000  2.000000  2.000000  2.000000  2.000000
                       2.000000  2.000000  2.000000  2.000000  2.000000  2.000000
                       2.000000  2.000000  2.000000  2.000000  2.000000  2.000000
                       0.000000  0.000000  0.000000  0.000000  0.000000  0.000000
                       0.000000  0.000000  0.000000
        optdriver           1
            prtwf          -1
            rfdir           1       1       1
           rfelfd           2
            rprim      6.8345104452E+00  0.0000000000E+00  1.0515293111E+01
                       3.1169897486E+00  6.0823439505E+00  1.0515293111E+01
                       0.0000000000E+00  0.0000000000E+00  1.2541208962E+01
          spgroup         166
           strten      0.0000000000E+00  0.0000000000E+00  0.0000000000E+00
                       0.0000000000E+00  0.0000000000E+00  0.0000000000E+00
           symrel      1  0  0   0  1  0   0  0  1      -1  0  0   0 -1  0   0  0 -1
                       0  1  0   1  0  0   0  0  1       0 -1  0  -1  0  0   0  0 -1
                       0  0  1   1  0  0   0  1  0       0  0 -1  -1  0  0   0 -1  0
                       1  0  0   0  0  1   0  1  0      -1  0  0   0  0 -1   0 -1  0
                       0  1  0   0  0  1   1  0  0       0 -1  0   0  0 -1  -1  0  0
                       0  0  1   0  1  0   1  0  0       0  0 -1   0 -1  0  -1  0  0
           tolwfr      1.00000000E-20
            typat      1  1  2  2  3  3
           useylm           1
           xangst      1.3623787679E+00  8.3268412762E-01  4.5960408049E+00
                       3.9037283259E+00  2.3859536658E+00  1.3169388058E+01
                       1.9931004146E+00  1.2181803761E+00  6.7238062198E+00
                       3.2730066793E+00  2.0004574173E+00  1.1041622643E+01
                       4.5807021911E+00  2.7997192100E+00  1.5453187235E+01
                       6.8540490269E-01  4.1891858336E-01  2.3122416282E+00
            xcart      2.5745227606E+00  1.5735449564E+00  8.6852584167E+00
                       7.3769774332E+00  4.5087989941E+00  2.4886536768E+01
                       3.7664139388E+00  2.3020272914E+00  1.2706152326E+01
                       6.1850862550E+00  3.7803166591E+00  2.0865642858E+01
                       8.6562726376E+00  5.2907025560E+00  2.9202291754E+01
                       1.2952275562E+00  7.9164139453E-01  4.3695034304E+00
             xred      2.5870700000E-01  2.5870700000E-01  2.5870700000E-01
                       7.4129300000E-01  7.4129300000E-01  7.4129300000E-01
                       3.7847700000E-01  3.7847700000E-01  3.7847700000E-01
                       6.2152300000E-01  6.2152300000E-01  6.2152300000E-01
                       8.6984600000E-01  8.6984600000E-01  8.6984600000E-01
                       1.3015400000E-01  1.3015400000E-01  1.3015400000E-01
            znucl       39.00000    8.00000    9.00000

- Timing analysis has been suppressed with timopt=0

 Suggested references for the acknowledgment of ABINIT usage.

 Calculation completed.
.Delivered   6 WARNINGs and   5 COMMENTs to log file.