.Version 9.5.2 of ABINIT

 ABINIT is a project of the Universite Catholique de Louvain,
 Corning Inc. and other collaborators, see ~abinit/doc/developers/contributors.txt .
 acknowledgments of the ABINIT effort.

.Starting date : Wed 26 May 2021.
- ( at 03h27 )

- input  file    -> /scratch/users/j/a/jabreu/flow_simple_11atoms/flow/w298/t1/run.abi
- output file    -> /scratch/users/j/a/jabreu/flow_simple_11atoms/flow/w298/t1/run.abo
- root for input  files -> /scratch/users/j/a/jabreu/flow_simple_11atoms/flow/w298/t1/indata/in
- root for output files -> /scratch/users/j/a/jabreu/flow_simple_11atoms/flow/w298/t1/outdata/out

 Symmetries : space group Pn m a (# 62); Bravais oP (primitive ortho.)
     intxc =       0      iscf =       7    lmnmax =      18     lnmax =       6
     mgfft =      90  mpssoang =       3    mqgrid =    4426     natom =      12
  nloc_mem =       1    nspden =       1   nspinor =       1    nsppol =       1
      nsym =       8    n1xccc =    2501    ntypat =       3    occopt =       1
   xclevel =       2
-    mband =          65        mffmem =           1         mkmem =           2
-   mkqmem =           2        mk1mem =           2           mpw =       24465
      nfft =      437400          nkpt =           2
  Rough estimation (10% accuracy) of disk space for files :

------------- Echo of variables that govern the present computation ------------
-
- outvars: echo of selected default values
-   iomode0 =  0 , fftalg0 =512 , wfoptalg0 =  0
-
- outvars: echo of global parameters not present in the input file
-  max_nthreads =    0
-
 -outvars: echo values of preprocessed input variables --------
            acell      1.0000000000E+00  1.0000000000E+00  1.0000000000E+00 Bohr
              amu      8.76200000E+01  6.94100000E+00  2.08980370E+02
             ecut      3.70000000E+01 Hartree
-          fftalg         512
           irdden           1
           irdwfk           1
              ixc     -116133
              kpt      2.50000000E-02  0.00000000E+00  0.00000000E+00
                       0.00000000E+00  4.16666667E-02  0.00000000E+00
           kptopt           0
P           mkmem           2
P          mkqmem           2
P          mk1mem           2
            natom          12
            nband          65
           nbdbuf           4
            ngfft          54      90      90
             nkpt           2
            nstep        2000
             nsym           8
           ntypat           3
              occ      2.000000  2.000000  2.000000  2.000000  2.000000  2.000000
                       2.000000  2.000000  2.000000  2.000000  2.000000  2.000000
                       2.000000  2.000000  2.000000  2.000000  2.000000  2.000000
                       2.000000  2.000000  2.000000  2.000000  2.000000  2.000000
                       2.000000  2.000000  2.000000  2.000000  2.000000  2.000000
                       2.000000  2.000000  2.000000  2.000000  2.000000  2.000000
                       2.000000  2.000000  2.000000  2.000000  2.000000  2.000000
                       2.000000  2.000000  2.000000  2.000000  2.000000  2.000000
                       2.000000  2.000000  2.000000  2.000000  2.000000  2.000000
                       2.000000  2.000000  0.000000  0.000000  0.000000  0.000000
                       0.000000  0.000000  0.000000  0.000000  0.000000
        optdriver           1
            prtwf          -1
            rfdir           1       1       1
           rfelfd           2
            rprim      9.2059986137E+00  0.0000000000E+00  0.0000000000E+00
                       0.0000000000E+00  1.5276933744E+01  0.0000000000E+00
                       0.0000000000E+00  0.0000000000E+00  1.6161147370E+01
          spgroup          62
           symrel      1  0  0   0  1  0   0  0  1      -1  0  0   0 -1  0   0  0 -1
                      -1  0  0   0  1  0   0  0 -1       1  0  0   0 -1  0   0  0  1
                      -1  0  0   0 -1  0   0  0  1       1  0  0   0  1  0   0  0 -1
                       1  0  0   0 -1  0   0  0 -1      -1  0  0   0  1  0   0  0  1
            tnons      0.0000000  0.0000000  0.0000000     0.0000000  0.0000000 -0.0000000
                       0.5000000  0.5000000  0.5000000     0.5000000  0.5000000  0.5000000
                       0.0000000  0.5000000  0.5000000     0.0000000  0.5000000  0.5000000
                       0.5000000  0.0000000 -0.0000000     0.5000000  0.0000000  0.0000000
           tolwfr      1.00000000E-20
            typat      1  1  1  1  2  2  2  2  3  3  3  3
           useylm           1
              wtk        0.50000    0.50000
           xangst      3.6537034865E+00  4.0123850392E+00  6.7847572801E+00
                       1.2179011622E+00  4.0718201155E+00  1.7673535725E+00
                       3.6537034865E+00  8.0544876165E+00  6.0434089988E+00
                       1.2179011622E+00  2.9717538149E-02  2.5087018538E+00
                       3.6537034865E+00  2.7585894933E+00  3.6316880820E+00
                       1.2179011622E+00  5.3256156613E+00  4.9204227706E+00
                       3.6537034865E+00  6.8006920707E+00  6.4436734430E-01
                       1.2179011622E+00  1.2835130840E+00  7.9077435083E+00
                       3.6537034865E+00  5.8444518640E+00  3.4678381902E+00
                       1.2179011622E+00  2.2397532907E+00  5.0842726624E+00
                       3.6537034865E+00  1.8023492866E+00  8.0821723613E-01
                       1.2179011622E+00  6.2818558681E+00  7.7438936165E+00
            xcart      6.9044989603E+00  7.5823088638E+00  1.2821333138E+01
                       2.3014996534E+00  7.6946248806E+00  3.3398142319E+00
                       6.9044989603E+00  1.5220775736E+01  1.1420387917E+01
                       2.3014996534E+00  5.6158008444E-02  4.7407594528E+00
                       6.9044989603E+00  5.2129786555E+00  6.8628958750E+00
                       2.3014996534E+00  1.0063955089E+01  9.2982514945E+00
                       6.9044989603E+00  1.2851445528E+01  1.2176778097E+00
                       2.3014996534E+00  2.4254882167E+00  1.4943469560E+01
                       6.9044989603E+00  1.1044413420E+01  6.5532644526E+00
                       2.3014996534E+00  4.2325203247E+00  9.6078829169E+00
                       6.9044989603E+00  3.4059465475E+00  1.5273092322E+00
                       2.3014996534E+00  1.1870987197E+01  1.4633838137E+01
             xred      7.5000000000E-01  4.9632400000E-01  7.9334300000E-01
                       2.5000000000E-01  5.0367600000E-01  2.0665700000E-01
                       7.5000000000E-01  9.9632400000E-01  7.0665700000E-01
                       2.5000000000E-01  3.6760000000E-03  2.9334300000E-01
                       7.5000000000E-01  3.4123200000E-01  4.2465400000E-01
                       2.5000000000E-01  6.5876800000E-01  5.7534600000E-01
                       7.5000000000E-01  8.4123200000E-01  7.5346000000E-02
                       2.5000000000E-01  1.5876800000E-01  9.2465400000E-01
                       7.5000000000E-01  7.2294700000E-01  4.0549500000E-01
                       2.5000000000E-01  2.7705300000E-01  5.9450500000E-01
                       7.5000000000E-01  2.2294700000E-01  9.4505000000E-02
                       2.5000000000E-01  7.7705300000E-01  9.0549500000E-01
            znucl       38.00000    3.00000   83.00000

 chkinp: Checking input parameters for consistency.

== DATASET  1 ==================================================================
-   mpi_nproc: 1, omp_nthreads: -1 (-1 if OMP is not activated)

--- !DatasetInfo
iteration_state: {dtset: 1, }
dimensions: {natom: 12, nkpt: 2, mband: 65, nsppol: 1, nspinor: 1, nspden: 1, mpw: 24465, }
cutoff_energies: {ecut:  37.0, pawecutdg:  -1.0, }
electrons: {nelect:   1.12000000E+02, charge:   0.00000000E+00, occopt:   1.00000000E+00, tsmear:   1.00000000E-02, }
meta: {optdriver: 1, rfelfd: 2, }
...

 Real(R)+Recip(G) space primitive vectors, cartesian coordinates (Bohr,Bohr^-1):
 R(1)=  9.2059986  0.0000000  0.0000000  G(1)=  0.1086248  0.0000000  0.0000000
 R(2)=  0.0000000 15.2769337  0.0000000  G(2)=  0.0000000  0.0654582  0.0000000
 R(3)=  0.0000000  0.0000000 16.1611474  G(3)=  0.0000000  0.0000000  0.0618768
 Unit cell volume ucvol=  2.2728946E+03 bohr^3
 Angles (23,13,12)=  9.00000000E+01  9.00000000E+01  9.00000000E+01 degrees

 getcut: wavevector=  0.0000  0.0000  0.0000  ngfft=  54  90  90
         ecut(hartree)=     37.000   => boxcut(ratio)=   2.03378

--- Pseudopotential description ------------------------------------------------
- pspini: atom type   1  psp file is /scratch/users/j/a/jabreu/pseudos/PBEsol/Sr.psp8
- pspatm: opening atomic psp file    /scratch/users/j/a/jabreu/pseudos/PBEsol/Sr.psp8
- Sr    ONCVPSP-3.3.0  r_core=   1.66721   1.31335   1.51547
- 38.00000  10.00000    180112                znucl, zion, pspdat
    8 -116133    2    4       600   0.00000   pspcod,pspxc,lmax,lloc,mmax,r2well
    5.99000000000000    6.00000000000000    0.00000000000000   rchrg,fchrg,qchrg
     nproj     2     2     2
     extension_switch     1
  pspatm : epsatm=   12.46450977
         --- l  ekb(1:nproj) -->
             0   10.029206    1.044171
             1    7.472414    1.670829
             2    4.142950    0.968140
 pspatm: atomic psp has been read  and splines computed

- pspini: atom type   2  psp file is /scratch/users/j/a/jabreu/pseudos/PBEsol/Li.psp8
- pspatm: opening atomic psp file    /scratch/users/j/a/jabreu/pseudos/PBEsol/Li.psp8
- Li    ONCVPSP-3.3.0  r_core=   1.40824   1.10935
-  3.00000   3.00000    180112                znucl, zion, pspdat
    8 -116133    1    4       400   0.00000   pspcod,pspxc,lmax,lloc,mmax,r2well
    3.99000000000000    0.00000000000000    0.00000000000000   rchrg,fchrg,qchrg
     nproj     2     2
     extension_switch     1
  pspatm : epsatm=    2.60859637
         --- l  ekb(1:nproj) -->
             0   -4.855856   -1.482423
             1   -2.171544   -0.427615
 pspatm: atomic psp has been read  and splines computed

- pspini: atom type   3  psp file is /scratch/users/j/a/jabreu/pseudos/PBEsol/Bi.psp8
- pspatm: opening atomic psp file    /scratch/users/j/a/jabreu/pseudos/PBEsol/Bi.psp8
- Bi    ONCVPSP-3.3.0  r_core=   2.42776   2.51622   2.10397
- 83.00000  15.00000    180112                znucl, zion, pspdat
    8 -116133    2    4       600   0.00000   pspcod,pspxc,lmax,lloc,mmax,r2well
    5.99000000000000    6.00000000000000    0.00000000000000   rchrg,fchrg,qchrg
     nproj     2     2     2
     extension_switch     1
  pspatm : epsatm=   42.90078186
         --- l  ekb(1:nproj) -->
             0    6.017688    0.961606
             1    4.379371    0.528498
             2   -3.458170   -0.753782
 pspatm: atomic psp has been read  and splines computed

   2.59723018E+04                                ecore*ucvol(ha*bohr**3)

 ==>  initialize data related to q vector <==

 The list of irreducible perturbations for this q vector is:
    1)    idir= 1    ipert=  13
    2)    idir= 2    ipert=  13
    3)    idir= 3    ipert=  13

[...]
 kpt#   1, nband= 65, wtk=  0.50000, kpt=  0.0250  0.0000  0.0000 (reduced coord)
   0.00000    0.00000   -0.00000   -0.00000    0.00004   -0.00001    0.00003   -0.00001
   0.00001    0.00004    0.00001    0.00010   -0.00021    0.00025    0.00007    0.00007
   0.00005   -0.00018    0.00003    0.00020   -0.00016   -0.00010   -0.00002    0.00008
   0.00003    0.00002    0.00001   -0.00001    0.00049    0.00049    0.00010    0.00039
  -0.00167   -0.00133    0.00060    0.00036   -0.00107   -0.00075    0.00024    0.00004
   0.00615    0.00282   -0.00035   -0.00093    0.01313    0.00689   -0.00329    0.00564
   0.00726   -0.00646   -0.06735   -0.02081   -0.00994   -0.17407   -0.03732   -0.00119
   0.05292    0.11079    0.05444   -0.05217    0.09098    0.04130    0.02067    0.01386
   0.01442
 prteigrs : prtvol=0 or 1, do not print more k-points.

 Eight components of 2nd-order total energy (hartree) are
 1,2,3: 0th-order hamiltonian combined with 1st-order wavefunctions
     kin0=   1.37490374E+02 eigvalue=   9.41595763E+00  local=  -8.39703244E+01
 4,5,6: 1st-order hamiltonian combined with 1st and 0th-order wfs
     kin1=  -1.41102529E+02  Hartree=   0.00000000E+00     xc=   0.00000000E+00
 7,8,9: eventually, occupation + non-local contributions
    edocc=   2.85790764E+01     enl0=   1.66673546E+01   enl1=  -7.52623464E+01
 1-9 gives the relaxation energy (to be shifted if some occ is /=2.0)
   erelax=  -1.08182438E+02
  No Ewald or frozen-wf contrib.: the relaxation energy is the total one
 2DEtotal=   -0.1081824379E+03 Ha. Also 2DEtotal=   -0.294379384517E+04 eV
    (  non-var. 2DEtotal :   -1.0818243792E+02 Ha)

 Perturbation wavevector (in red.coord.)   0.000000  0.000000  0.000000
 Perturbation : derivative vs k along direction   2
 The set of symmetries contains only one element for this perturbation.
 symkpt : not enough symmetry to change the number of k points.

[...]

 Perturbation wavevector (in red.coord.)   0.000000  0.000000  0.000000
 Perturbation : derivative vs k along direction   3
 The set of symmetries contains only one element for this perturbation.
 symkpt : not enough symmetry to change the number of k points.

 Initialisation of the first-order wave-functions :
  ireadwf=   0

--- !BeginCycle
iteration_state: {dtset: 1, }
solver: {iscf: 7, nstep: 2000, nline: 4, wfoptalg: 0, }
tolerances: {tolwfr: 1.00E-20, }
...

     iter   2DEtotal(Ha)        deltaE(Ha) residm    vres2
-ETOT  1  -33.458549177366     -3.346E+01 8.540E-03 0.000E+00
 ETOT  2  -33.488378176657     -2.983E-02 8.637E-04 0.000E+00
 ETOT  3  -33.488655733505     -2.776E-04 3.499E-05 0.000E+00
 ETOT  4  -33.488663571821     -7.838E-06 5.805E-06 0.000E+00
 ETOT  5  -33.488663858308     -2.865E-07 3.796E-07 0.000E+00
 ETOT  6  -33.488663869663     -1.136E-08 6.443E-08 0.000E+00
 ETOT  7  -33.488663870125     -4.622E-10 5.855E-09 0.000E+00
 ETOT  8  -33.488663870144     -1.910E-11 1.223E-09 0.000E+00
 ETOT  9  -33.488663870145     -7.674E-13 1.180E-10 0.000E+00
 ETOT 10  -33.488663870145      0.000E+00 2.508E-11 0.000E+00
 ETOT 11  -33.488663870145      0.000E+00 2.442E-12 0.000E+00
 ETOT 12  -33.488663870145     -3.553E-14 5.246E-13 0.000E+00
 ETOT 13  -33.488663870145      7.105E-15 5.136E-14 0.000E+00
 ETOT 14  -33.488663870145     -2.132E-14 1.112E-14 0.000E+00
 ETOT 15  -33.488663870145      1.421E-14 1.092E-15 0.000E+00
 ETOT 16  -33.488663870145      0.000E+00 2.376E-16 0.000E+00
 ETOT 17  -33.488663870145      0.000E+00 2.338E-17 0.000E+00
 ETOT 18  -33.488663870145      0.000E+00 5.111E-18 0.000E+00
 ETOT 19  -33.488663870145      0.000E+00 5.034E-19 0.000E+00
 ETOT 20  -33.488663870145      7.105E-15 1.104E-19 0.000E+00
 ETOT 21  -33.488663870145     -1.421E-14 1.088E-20 0.000E+00
 ETOT 22  -33.488663870145      7.105E-15 9.939E-21 0.000E+00

 At SCF step   22   max residual=  9.94E-21 < tolwfr=  1.00E-20 =>converged.

 ----iterations are completed or convergence reached----

 dfpt_looppert: DFPT cycle converged with prtwf=-1. Will skip output of the 1st-order WFK file.
 dfpt_looppert : ek2=    3.3858161643E+01
          f-sum rule ratio=    1.2687773451E+00
 prteigrs : about to open file /scratch/users/j/a/jabreu/flow_simple_11atoms/flow/w298/t1/tmpdata/tmp_1WF1_EIG
 Expectation of eigenvalue derivatives (hartree) for nkpt=   2  k points:
  (in case of degenerate eigenvalues, averaged derivative)
 kpt#   1, nband= 65, wtk=  0.50000, kpt=  0.0250  0.0000  0.0000 (reduced coord)
   0.00000    0.00000    0.00000   -0.00000    0.00000    0.00000    0.00000   -0.00000
  -0.00000   -0.00000    0.00000   -0.00000   -0.00000   -0.00000    0.00000   -0.00000
   0.00000    0.00000    0.00000   -0.00000    0.00000   -0.00000   -0.00000   -0.00000
   0.00000    0.00000   -0.00000    0.00000   -0.00000    0.00000   -0.00000    0.00000
  -0.00000    0.00000   -0.00000   -0.00000    0.00000   -0.00000    0.00000    0.00000
  -0.00000    0.00000    0.00000    0.00000   -0.00000    0.00000    0.00000   -0.00000
   0.00000    0.00000    0.00000   -0.00000    0.00000   -0.00000   -0.00000   -0.00000
   0.00000   -0.00000    0.00000   -0.00000   -0.00000   -0.00000    0.00000   -0.00000
   0.00000
 prteigrs : prtvol=0 or 1, do not print more k-points.

 Eight components of 2nd-order total energy (hartree) are
 1,2,3: 0th-order hamiltonian combined with 1st-order wavefunctions
     kin0=   3.91144072E+01 eigvalue=   4.10088709E+00  local=  -2.38709545E+01
 4,5,6: 1st-order hamiltonian combined with 1st and 0th-order wfs
     kin1=  -4.29584684E+01  Hartree=   0.00000000E+00     xc=   0.00000000E+00
 7,8,9: eventually, occupation + non-local contributions
    edocc=   8.80590831E+00     enl0=   5.33841582E+00   enl1=  -2.40188593E+01
 1-9 gives the relaxation energy (to be shifted if some occ is /=2.0)
   erelax=  -3.34886639E+01
  No Ewald or frozen-wf contrib.: the relaxation energy is the total one
 2DEtotal=   -0.3348866387E+02 Ha. Also 2DEtotal=   -0.911272887529E+03 eV
    (  non-var. 2DEtotal :   -3.3488663870E+01 Ha)

 CALCULATION OF EFFECTIVE MASSES
 NOTE : Additional infos (eff. mass eigenvalues, eigenvectors and, if degenerate, average mass) are available in stdout.

 K-point ( 0.025, 0.000, 0.000) | band =    56
 Effective mass tensor:
             -1.4578981761              0.0000001031              0.0000002825
              0.0000001031             -0.0601844487              0.0000000001
              0.0000002825              0.0000000001             -0.4623713281
 Effective mass tensor eigenvalues:
             -1.4578981761             -0.4623713281             -0.0601844487
 Angular average effective mass 1/(<1/m>)=  -0.1541285588
 Angular average effective mass for Frohlich model (<m**0.5>)**2=  -0.2462492744
 Effective masses along directions: (cart. coord. / red. coord. -> eff. mass)
    1:   1.000000  0.000000  0.000000 /   1.000000  0.000000  0.000000 ->  -1.4578981761
    2:   0.000000  1.000000  0.000000 /   0.000000  1.000000  0.000000 ->  -0.0601844487
    3:   0.000000  0.000000  1.000000 /   0.000000  0.000000  1.000000 ->  -0.4623713281
    4:   0.577350  0.577350  0.577350 /   0.382483  0.634714  0.671450 ->  -0.1541285335
    5:   0.000000  0.707107  0.707107 /   0.000000  0.686947  0.726707 ->  -0.1065056199
    6:   0.707107  0.000000  0.707107 /   0.494965  0.000000  0.868913 ->  -0.7020786572
    7:   0.707107  0.707107  0.000000 /   0.516137  0.856506  0.000000 ->  -0.1155968518

 K-point ( 0.000, 0.042, 0.000) | band =    57
 Effective mass tensor:
              0.1673561482              0.0000000153              0.0000000482
              0.0000000153              0.4437619775              0.0000000045
              0.0000000482              0.0000000045              0.7356440960
 Effective mass tensor eigenvalues:
              0.1673561482              0.4437619775              0.7356440960
 Angular average effective mass 1/(<1/m>)=   0.3128880393
 Angular average effective mass for Frohlich model (<m**0.5>)**2=   0.3519493950
 Effective masses along directions: (cart. coord. / red. coord. -> eff. mass)
    1:   1.000000  0.000000  0.000000 /   1.000000  0.000000  0.000000 ->   0.1673561482
    2:   0.000000  1.000000  0.000000 /   0.000000  1.000000  0.000000 ->   0.4437619775
    3:   0.000000  0.000000  1.000000 /   0.000000  0.000000  1.000000 ->   0.7356440960
    4:   0.577350  0.577350  0.577350 /   0.382483  0.634714  0.671450 ->   0.3128880792
    5:   0.000000  0.707107  0.707107 /   0.000000  0.686947  0.726707 ->   0.5535852131
    6:   0.707107  0.000000  0.707107 /   0.494965  0.000000  0.868913 ->   0.2726789417
    7:   0.707107  0.707107  0.000000 /   0.516137  0.856506  0.000000 ->   0.2430505523

 END OF EFFECTIVE MASSES SECTION

 ---- first-order wavefunction calculations are completed ----

 Total localisation tensor (bohr^2) in cartesian coordinates
  WARNING : still subject to testing - especially symmetries.
      direction              matrix element
   alpha     beta       real part   imaginary part
     1        1       5.6135251180    0.0000000000
     1        2       0.0000000000    0.0000000000
     1        3       0.0000000000    0.0000000000
     2        1       0.0000000000    0.0000000000
     2        2       5.9535835512    0.0000000000
     2        3       0.0000000000    0.0000000000
     3        1       0.0000000000    0.0000000000
     3        2       0.0000000000    0.0000000000
     3        3       5.3358196070    0.0000000000

 respfn : d/dk was computed, but no 2DTE, so no DDB output.

== END DATASET(S) ==============================================================

 -outvars: echo values of variables after computation  --------
            acell      1.0000000000E+00  1.0000000000E+00  1.0000000000E+00 Bohr
              amu      8.76200000E+01  6.94100000E+00  2.08980370E+02
             ecut      3.70000000E+01 Hartree
           etotal     -3.3488663870E+01
            fcart      0.0000000000E+00  0.0000000000E+00  0.0000000000E+00
                       0.0000000000E+00  0.0000000000E+00  0.0000000000E+00
                       0.0000000000E+00  0.0000000000E+00  0.0000000000E+00
                       0.0000000000E+00  0.0000000000E+00  0.0000000000E+00
                       0.0000000000E+00  0.0000000000E+00  0.0000000000E+00
                       0.0000000000E+00  0.0000000000E+00  0.0000000000E+00
                       0.0000000000E+00  0.0000000000E+00  0.0000000000E+00
                       0.0000000000E+00  0.0000000000E+00  0.0000000000E+00
                       0.0000000000E+00  0.0000000000E+00  0.0000000000E+00
                       0.0000000000E+00  0.0000000000E+00  0.0000000000E+00
                       0.0000000000E+00  0.0000000000E+00  0.0000000000E+00
                       0.0000000000E+00  0.0000000000E+00  0.0000000000E+00
-          fftalg         512
           irdden           1
           irdwfk           1
              ixc     -116133
              kpt      2.50000000E-02  0.00000000E+00  0.00000000E+00
                       0.00000000E+00  4.16666667E-02  0.00000000E+00
           kptopt           0
P           mkmem           2
P          mkqmem           2
P          mk1mem           2
            natom          12
            nband          65
           nbdbuf           4
            ngfft          54      90      90
             nkpt           2
            nstep        2000
             nsym           8
           ntypat           3
              occ      2.000000  2.000000  2.000000  2.000000  2.000000  2.000000
                       2.000000  2.000000  2.000000  2.000000  2.000000  2.000000
                       2.000000  2.000000  2.000000  2.000000  2.000000  2.000000
                       2.000000  2.000000  2.000000  2.000000  2.000000  2.000000
                       2.000000  2.000000  2.000000  2.000000  2.000000  2.000000
                       2.000000  2.000000  2.000000  2.000000  2.000000  2.000000
                       2.000000  2.000000  2.000000  2.000000  2.000000  2.000000
                       2.000000  2.000000  2.000000  2.000000  2.000000  2.000000
                       2.000000  2.000000  2.000000  2.000000  2.000000  2.000000
                       2.000000  2.000000  0.000000  0.000000  0.000000  0.000000
                       0.000000  0.000000  0.000000  0.000000  0.000000
        optdriver           1
            prtwf          -1
            rfdir           1       1       1
           rfelfd           2
            rprim      9.2059986137E+00  0.0000000000E+00  0.0000000000E+00
                       0.0000000000E+00  1.5276933744E+01  0.0000000000E+00
                       0.0000000000E+00  0.0000000000E+00  1.6161147370E+01
          spgroup          62
           strten      0.0000000000E+00  0.0000000000E+00  0.0000000000E+00
                       0.0000000000E+00  0.0000000000E+00  0.0000000000E+00
           symrel      1  0  0   0  1  0   0  0  1      -1  0  0   0 -1  0   0  0 -1
                      -1  0  0   0  1  0   0  0 -1       1  0  0   0 -1  0   0  0  1
                      -1  0  0   0 -1  0   0  0  1       1  0  0   0  1  0   0  0 -1
                       1  0  0   0 -1  0   0  0 -1      -1  0  0   0  1  0   0  0  1
            tnons      0.0000000  0.0000000  0.0000000     0.0000000  0.0000000 -0.0000000
                       0.5000000  0.5000000  0.5000000     0.5000000  0.5000000  0.5000000
                       0.0000000  0.5000000  0.5000000     0.0000000  0.5000000  0.5000000
                       0.5000000  0.0000000 -0.0000000     0.5000000  0.0000000  0.0000000
           tolwfr      1.00000000E-20
            typat      1  1  1  1  2  2  2  2  3  3  3  3
           useylm           1
              wtk        0.50000    0.50000
           xangst      3.6537034865E+00  4.0123850392E+00  6.7847572801E+00
                       1.2179011622E+00  4.0718201155E+00  1.7673535725E+00
                       3.6537034865E+00  8.0544876165E+00  6.0434089988E+00
                       1.2179011622E+00  2.9717538149E-02  2.5087018538E+00
                       3.6537034865E+00  2.7585894933E+00  3.6316880820E+00
                       1.2179011622E+00  5.3256156613E+00  4.9204227706E+00
                       3.6537034865E+00  6.8006920707E+00  6.4436734430E-01
                       1.2179011622E+00  1.2835130840E+00  7.9077435083E+00
                       3.6537034865E+00  5.8444518640E+00  3.4678381902E+00
                       1.2179011622E+00  2.2397532907E+00  5.0842726624E+00
                       3.6537034865E+00  1.8023492866E+00  8.0821723613E-01
                       1.2179011622E+00  6.2818558681E+00  7.7438936165E+00
            xcart      6.9044989603E+00  7.5823088638E+00  1.2821333138E+01
                       2.3014996534E+00  7.6946248806E+00  3.3398142319E+00
                       6.9044989603E+00  1.5220775736E+01  1.1420387917E+01
                       2.3014996534E+00  5.6158008444E-02  4.7407594528E+00
                       6.9044989603E+00  5.2129786555E+00  6.8628958750E+00
                       2.3014996534E+00  1.0063955089E+01  9.2982514945E+00
                       6.9044989603E+00  1.2851445528E+01  1.2176778097E+00
                       2.3014996534E+00  2.4254882167E+00  1.4943469560E+01
                       6.9044989603E+00  1.1044413420E+01  6.5532644526E+00
                       2.3014996534E+00  4.2325203247E+00  9.6078829169E+00
                       6.9044989603E+00  3.4059465475E+00  1.5273092322E+00
                       2.3014996534E+00  1.1870987197E+01  1.4633838137E+01
             xred      7.5000000000E-01  4.9632400000E-01  7.9334300000E-01
                       2.5000000000E-01  5.0367600000E-01  2.0665700000E-01
                       7.5000000000E-01  9.9632400000E-01  7.0665700000E-01
                       2.5000000000E-01  3.6760000000E-03  2.9334300000E-01
                       7.5000000000E-01  3.4123200000E-01  4.2465400000E-01
                       2.5000000000E-01  6.5876800000E-01  5.7534600000E-01
                       7.5000000000E-01  8.4123200000E-01  7.5346000000E-02
                       2.5000000000E-01  1.5876800000E-01  9.2465400000E-01
                       7.5000000000E-01  7.2294700000E-01  4.0549500000E-01
                       2.5000000000E-01  2.7705300000E-01  5.9450500000E-01
                       7.5000000000E-01  2.2294700000E-01  9.4505000000E-02
                       2.5000000000E-01  7.7705300000E-01  9.0549500000E-01
            znucl       38.00000    3.00000   83.00000

- Timing analysis has been suppressed with timopt=0

 Suggested references for the acknowledgment of ABINIT usage.

 Calculation completed.
.Delivered   2 WARNINGs and   5 COMMENTs to log file.