.Version 9.5.2 of ABINIT

 ABINIT is a project of the Universite Catholique de Louvain,
 Corning Inc. and other collaborators, see ~abinit/doc/developers/contributors.txt .
 acknowledgments of the ABINIT effort.

.Starting date : Mon 31 May 2021.
- ( at 21h56 )

- input  file    -> /scratch/users/j/a/jabreu/flow_simple_11atoms/flow/w329/t1/run.abi
- output file    -> /scratch/users/j/a/jabreu/flow_simple_11atoms/flow/w329/t1/run.abo
- root for input  files -> /scratch/users/j/a/jabreu/flow_simple_11atoms/flow/w329/t1/indata/in
- root for output files -> /scratch/users/j/a/jabreu/flow_simple_11atoms/flow/w329/t1/outdata/out

 Symmetries : space group Pn m a (# 62); Bravais oP (primitive ortho.)
     intxc =       0      iscf =       7    lmnmax =      18     lnmax =       6
     mgfft =      96  mpssoang =       3    mqgrid =    4631     natom =      12
  nloc_mem =       1    nspden =       1   nspinor =       1    nsppol =       1
      nsym =       8    n1xccc =    2501    ntypat =       3    occopt =       1
   xclevel =       2
-    mband =          45        mffmem =           1         mkmem =           1
-   mkqmem =           1        mk1mem =           1           mpw =       14591
      nfft =      245760          nkpt =           1
  Rough estimation (10% accuracy) of disk space for files :

------------- Echo of variables that govern the present computation ------------
-
- outvars: echo of selected default values
-   iomode0 =  0 , fftalg0 =512 , wfoptalg0 =  0
-
- outvars: echo of global parameters not present in the input file
-  max_nthreads =    0
-
 -outvars: echo values of preprocessed input variables --------
            acell      1.0000000000E+00  1.0000000000E+00  1.0000000000E+00 Bohr
              amu      6.94100000E+00  4.00780000E+01  1.40067400E+01
             ecut      4.20000000E+01 Hartree
-          fftalg         512
           irdden           1
           irdwfk           1
           istwfk        1
              ixc     -116133
           kptopt           0
P           mkmem           1
P          mkqmem           1
P          mk1mem           1
            natom          12
            nband          45
           nbdbuf           4
            ngfft          40      64      96
             nkpt           1
            nstep        2000
             nsym           8
           ntypat           3
              occ      2.000000  2.000000  2.000000  2.000000  2.000000  2.000000
                       2.000000  2.000000  2.000000  2.000000  2.000000  2.000000
                       2.000000  2.000000  2.000000  2.000000  2.000000  2.000000
                       2.000000  2.000000  2.000000  2.000000  2.000000  2.000000
                       2.000000  2.000000  2.000000  2.000000  2.000000  2.000000
                       2.000000  2.000000  2.000000  2.000000  2.000000  2.000000
                       0.000000  0.000000  0.000000  0.000000  0.000000  0.000000
                       0.000000  0.000000  0.000000
        optdriver           1
            prtwf          -1
            rfdir           1       1       1
           rfelfd           2
            rprim      6.8511862289E+00  0.0000000000E+00  0.0000000000E+00
                       0.0000000000E+00  1.0353755051E+01  0.0000000000E+00
                       0.0000000000E+00  0.0000000000E+00  1.5873203224E+01
          spgroup          62
           symrel      1  0  0   0  1  0   0  0  1      -1  0  0   0 -1  0   0  0 -1
                      -1  0  0   0  1  0   0  0 -1       1  0  0   0 -1  0   0  0  1
                      -1  0  0   0 -1  0   0  0  1       1  0  0   0  1  0   0  0 -1
                       1  0  0   0 -1  0   0  0 -1      -1  0  0   0  1  0   0  0  1
            tnons      0.0000000  0.0000000  0.0000000     0.0000000 -0.0000000  0.0000000
                       0.0000000  0.5000000  0.5000000     0.0000000  0.5000000  0.5000000
                       0.5000000  0.5000000  0.5000000     0.5000000  0.5000000  0.5000000
                       0.5000000 -0.0000000  0.0000000     0.5000000  0.0000000  0.0000000
           tolwfr      1.00000000E-20
            typat      1  1  1  1  2  2  2  2  3  3  3  3
           useylm           1
           xangst      9.0637290103E-01  3.1476251204E+00  4.0528732826E-01
                       2.7191187031E+00  2.3313460757E+00  7.9944500450E+00
                       2.7191187031E+00  4.0813952234E-01  3.7945813584E+00
                       9.0637290103E-01  5.0708316737E+00  4.6051560149E+00
                       9.0637290103E-01  2.5925505485E+00  5.5111768872E+00
                       2.7191187031E+00  5.3320361465E+00  7.0884291727E+00
                       9.0637290103E-01  1.4693504954E-01  1.3113082006E+00
                       2.7191187031E+00  2.8864206476E+00  2.8885604861E+00
                       2.7191187031E+00  4.0609860557E+00  7.8088998465E-01
                       2.7191187031E+00  4.1574707384E+00  4.9807586713E+00
                       9.0637290103E-01  1.4179851404E+00  7.6188473887E+00
                       9.0637290103E-01  1.3215004576E+00  3.4189787020E+00
            xcart      1.7127965572E+00  5.9481494465E+00  7.6588205554E-01
                       5.1383896717E+00  4.4056056040E+00  1.5107321168E+01
                       5.1383896717E+00  7.7127192122E-01  7.1707195563E+00
                       1.7127965572E+00  9.5824831293E+00  8.7024836674E+00
                       1.7127965572E+00  4.8992105223E+00  1.0414614987E+01
                       5.1383896717E+00  1.0076088048E+01  1.3395189849E+01
                       1.7127965572E+00  2.7766700294E-01  2.4780133749E+00
                       5.1383896717E+00  5.4545445282E+00  5.4585882370E+00
                       5.1383896717E+00  7.6741514747E+00  1.4756682109E+00
                       5.1383896717E+00  7.8564811011E+00  9.4122698227E+00
                       1.7127965572E+00  2.6796035758E+00  1.4397535013E+01
                       1.7127965572E+00  2.4972739494E+00  6.4609334010E+00
             xred      2.5000000000E-01  5.7449200000E-01  4.8250000000E-02
                       7.5000000000E-01  4.2550800000E-01  9.5175000000E-01
                       7.5000000000E-01  7.4492000000E-02  4.5175000000E-01
                       2.5000000000E-01  9.2550800000E-01  5.4825000000E-01
                       2.5000000000E-01  4.7318200000E-01  6.5611300000E-01
                       7.5000000000E-01  9.7318200000E-01  8.4388700000E-01
                       2.5000000000E-01  2.6818000000E-02  1.5611300000E-01
                       7.5000000000E-01  5.2681800000E-01  3.4388700000E-01
                       7.5000000000E-01  7.4119500000E-01  9.2966000000E-02
                       7.5000000000E-01  7.5880500000E-01  5.9296600000E-01
                       2.5000000000E-01  2.5880500000E-01  9.0703400000E-01
                       2.5000000000E-01  2.4119500000E-01  4.0703400000E-01
            znucl        3.00000   20.00000    7.00000

 chkinp: Checking input parameters for consistency.

== DATASET  1 ==================================================================
-   mpi_nproc: 1, omp_nthreads: -1 (-1 if OMP is not activated)

--- !DatasetInfo
iteration_state: {dtset: 1, }
dimensions: {natom: 12, nkpt: 1, mband: 45, nsppol: 1, nspinor: 1, nspden: 1, mpw: 14591, }
cutoff_energies: {ecut:  42.0, pawecutdg:  -1.0, }
electrons: {nelect:   7.20000000E+01, charge:   0.00000000E+00, occopt:   1.00000000E+00, tsmear:   1.00000000E-02, }
meta: {optdriver: 1, rfelfd: 2, }
...

 Real(R)+Recip(G) space primitive vectors, cartesian coordinates (Bohr,Bohr^-1):
 R(1)=  6.8511862  0.0000000  0.0000000  G(1)=  0.1459601  0.0000000  0.0000000
 R(2)=  0.0000000 10.3537551  0.0000000  G(2)=  0.0000000  0.0965833  0.0000000
 R(3)=  0.0000000  0.0000000 15.8732032  G(3)=  0.0000000  0.0000000  0.0629993
 Unit cell volume ucvol=  1.1259737E+03 bohr^3
 Angles (23,13,12)=  9.00000000E+01  9.00000000E+01  9.00000000E+01 degrees

 getcut: wavevector=  0.0000  0.0000  0.0000  ngfft=  40  64  96
         ecut(hartree)=     42.000   => boxcut(ratio)=   2.00126

--- Pseudopotential description ------------------------------------------------
- pspini: atom type   1  psp file is /scratch/users/j/a/jabreu/pseudos/PBEsol/Li.psp8
- pspatm: opening atomic psp file    /scratch/users/j/a/jabreu/pseudos/PBEsol/Li.psp8
- Li    ONCVPSP-3.3.0  r_core=   1.40824   1.10935
-  3.00000   3.00000    180112                znucl, zion, pspdat
    8 -116133    1    4       400   0.00000   pspcod,pspxc,lmax,lloc,mmax,r2well
    3.99000000000000    0.00000000000000    0.00000000000000   rchrg,fchrg,qchrg
     nproj     2     2
     extension_switch     1
  pspatm : epsatm=    2.60859637
         --- l  ekb(1:nproj) -->
             0   -4.855856   -1.482423
             1   -2.171544   -0.427615
 pspatm: atomic psp has been read  and splines computed

- pspini: atom type   2  psp file is /scratch/users/j/a/jabreu/pseudos/PBEsol/Ca.psp8
- pspatm: opening atomic psp file    /scratch/users/j/a/jabreu/pseudos/PBEsol/Ca.psp8
- Ca    ONCVPSP-3.3.0  r_core=   1.45885   1.45885   1.85192
- 20.00000  10.00000    180112                znucl, zion, pspdat
    8 -116133    2    4       400   0.00000   pspcod,pspxc,lmax,lloc,mmax,r2well
    3.99000000000000    6.00000000000000    0.00000000000000   rchrg,fchrg,qchrg
     nproj     2     2     2
     extension_switch     1
  pspatm : epsatm=   12.46045226
         --- l  ekb(1:nproj) -->
             0   10.054847    0.973777
             1    2.998958    0.458102
             2   -3.447298   -1.091650
 pspatm: atomic psp has been read  and splines computed

- pspini: atom type   3  psp file is /scratch/users/j/a/jabreu/pseudos/PBEsol/N.psp8
- pspatm: opening atomic psp file    /scratch/users/j/a/jabreu/pseudos/PBEsol/N.psp8
- N     ONCVPSP-3.3.0  r_core=   1.20551   1.35824
-  7.00000   5.00000    180112                znucl, zion, pspdat
    8 -116133    1    4       600   0.00000   pspcod,pspxc,lmax,lloc,mmax,r2well
    5.99000000000000    4.00000000000000    0.00000000000000   rchrg,fchrg,qchrg
     nproj     2     2
     extension_switch     1
  pspatm : epsatm=    5.26508895
         --- l  ekb(1:nproj) -->
             0    7.464189    0.625868
             1   -4.309714   -1.012941
 pspatm: atomic psp has been read  and splines computed

   5.85623163E+03                                ecore*ucvol(ha*bohr**3)

 ==>  initialize data related to q vector <==

 The list of irreducible perturbations for this q vector is:
    1)    idir= 1    ipert=  13
    2)    idir= 2    ipert=  13
    3)    idir= 3    ipert=  13

 Perturbation wavevector (in red.coord.)   0.000000  0.000000  0.000000
 Perturbation : derivative vs k along direction   1

 dfpt_looppert : COMMENT -
  In a d/dk calculation, iscf is set to -3 automatically.
 The set of symmetries contains only one element for this perturbation.
 symkpt : not enough symmetry to change the number of k points.

 Initialisation of the first-order wave-functions :
  ireadwf=   0

--- !BeginCycle
iteration_state: {dtset: 1, }
solver: {iscf: 7, nstep: 2000, nline: 4, wfoptalg: 0, }
[...]
 ETOT 22  -62.758820225299      2.842E-14 9.664E-18 0.000E+00
 ETOT 23  -62.758820225299      1.421E-14 1.977E-18 0.000E+00
 ETOT 24  -62.758820225299      0.000E+00 5.177E-19 0.000E+00
 ETOT 25  -62.758820225299      0.000E+00 1.059E-19 0.000E+00
 ETOT 26  -62.758820225299     -1.421E-14 2.774E-20 0.000E+00
 ETOT 27  -62.758820225299      1.421E-14 9.907E-21 0.000E+00

 At SCF step   27   max residual=  9.91E-21 < tolwfr=  1.00E-20 =>converged.

 ----iterations are completed or convergence reached----

 dfpt_looppert: DFPT cycle converged with prtwf=-1. Will skip output of the 1st-order WFK file.
 dfpt_looppert : ek2=    1.2111297814E+02
          f-sum rule ratio=    1.0970567447E+00
 prteigrs : about to open file /scratch/users/j/a/jabreu/flow_simple_11atoms/flow/w329/t1/tmpdata/tmp_1WF1_EIG
 Expectation of eigenvalue derivatives (hartree) for nkpt=   1  k points:
  (in case of degenerate eigenvalues, averaged derivative)
 kpt#   1, nband= 45, wtk=  1.00000, kpt=  0.0000  0.0000  0.0000 (reduced coord)
   0.00000   -0.00000    0.00000    0.00000    0.00000    0.00000    0.00000   -0.00000
  -0.00000   -0.00000    0.00000   -0.00000   -0.00000    0.00000   -0.00000   -0.00000
   0.00000   -0.00000    0.00000   -0.00000    0.00000    0.00000   -0.00000    0.00000
   0.00000   -0.00000    0.00000   -0.00000   -0.00000    0.00000    0.00000    0.00000
  -0.00000    0.00000    0.00000    0.00000   -0.00000    0.00000    0.00000    0.00000
  -0.00000    0.00000   -0.00017   -0.00001    0.00120

 Eight components of 2nd-order total energy (hartree) are
 1,2,3: 0th-order hamiltonian combined with 1st-order wavefunctions
     kin0=   1.10516449E+02 eigvalue=   2.93941179E+00  local=  -5.84902802E+01
 4,5,6: 1st-order hamiltonian combined with 1st and 0th-order wfs
     kin1=  -1.32867810E+02  Hartree=   0.00000000E+00     xc=   0.00000000E+00
 7,8,9: eventually, occupation + non-local contributions
    edocc=   1.30594808E+01     enl0=  -5.26624063E+00   enl1=   7.35016909E+00
 1-9 gives the relaxation energy (to be shifted if some occ is /=2.0)
   erelax=  -6.27588202E+01
  No Ewald or frozen-wf contrib.: the relaxation energy is the total one
 2DEtotal=   -0.6275882023E+02 Ha. Also 2DEtotal=   -0.170775434775E+04 eV
    (  non-var. 2DEtotal :   -6.2758820225E+01 Ha)

 Perturbation wavevector (in red.coord.)   0.000000  0.000000  0.000000
 Perturbation : derivative vs k along direction   2
 The set of symmetries contains only one element for this perturbation.
 symkpt : not enough symmetry to change the number of k points.

[...]

 Perturbation wavevector (in red.coord.)   0.000000  0.000000  0.000000
 Perturbation : derivative vs k along direction   3
 The set of symmetries contains only one element for this perturbation.
 symkpt : not enough symmetry to change the number of k points.

 Initialisation of the first-order wave-functions :
  ireadwf=   0

--- !BeginCycle
iteration_state: {dtset: 1, }
solver: {iscf: 7, nstep: 2000, nline: 4, wfoptalg: 0, }
tolerances: {tolwfr: 1.00E-20, }
...

     iter   2DEtotal(Ha)        deltaE(Ha) residm    vres2
-ETOT  1  -11.264900116756     -1.126E+01 2.270E-02 0.000E+00
 ETOT  2  -11.310329605132     -4.543E-02 2.690E-03 0.000E+00
 ETOT  3  -11.311148450919     -8.188E-04 1.514E-04 0.000E+00
 ETOT  4  -11.311171045608     -2.259E-05 2.353E-05 0.000E+00
 ETOT  5  -11.311171781208     -7.356E-07 2.070E-06 0.000E+00
 ETOT  6  -11.311171807264     -2.606E-08 3.857E-07 0.000E+00
 ETOT  7  -11.311171808221     -9.570E-10 3.069E-08 0.000E+00
 ETOT  8  -11.311171808257     -3.595E-11 7.898E-09 0.000E+00
 ETOT  9  -11.311171808258     -1.357E-12 6.128E-10 0.000E+00
 ETOT 10  -11.311171808258     -6.217E-14 1.666E-10 0.000E+00
 ETOT 11  -11.311171808258      1.776E-14 1.294E-11 0.000E+00
 ETOT 12  -11.311171808258     -2.487E-14 3.599E-12 0.000E+00
 ETOT 13  -11.311171808258      0.000E+00 2.771E-13 0.000E+00
 ETOT 14  -11.311171808258     -1.066E-14 7.926E-14 0.000E+00
 ETOT 15  -11.311171808258      0.000E+00 6.018E-15 0.000E+00
 ETOT 16  -11.311171808258     -1.776E-15 1.772E-15 0.000E+00
 ETOT 17  -11.311171808258      0.000E+00 1.324E-16 0.000E+00
 ETOT 18  -11.311171808258      0.000E+00 4.005E-17 0.000E+00
 ETOT 19  -11.311171808258      0.000E+00 2.951E-18 0.000E+00
 ETOT 20  -11.311171808258      0.000E+00 9.137E-19 0.000E+00
 ETOT 21  -11.311171808258      0.000E+00 6.657E-20 0.000E+00
 ETOT 22  -11.311171808258      0.000E+00 2.100E-20 0.000E+00
 ETOT 23  -11.311171808258      1.776E-15 9.825E-21 0.000E+00

 At SCF step   23   max residual=  9.83E-21 < tolwfr=  1.00E-20 =>converged.

 ----iterations are completed or convergence reached----

 dfpt_looppert: DFPT cycle converged with prtwf=-1. Will skip output of the 1st-order WFK file.
 dfpt_looppert : ek2=    2.2562804259E+01
          f-sum rule ratio=    1.0593856469E+00
 prteigrs : about to open file /scratch/users/j/a/jabreu/flow_simple_11atoms/flow/w329/t1/tmpdata/tmp_1WF1_EIG
 Expectation of eigenvalue derivatives (hartree) for nkpt=   1  k points:
  (in case of degenerate eigenvalues, averaged derivative)
 kpt#   1, nband= 45, wtk=  1.00000, kpt=  0.0000  0.0000  0.0000 (reduced coord)
  -0.00000    0.00000   -0.00000    0.00000   -0.00000    0.00000    0.00000    0.00000
  -0.00000   -0.00000   -0.00000   -0.00000    0.00000   -0.00000    0.00000   -0.00000
   0.00000    0.00000   -0.00000    0.00000   -0.00000   -0.00000   -0.00000   -0.00000
   0.00000   -0.00000   -0.00000   -0.00000    0.00000   -0.00000    0.00000    0.00000
  -0.00000   -0.00000    0.00000   -0.00000   -0.00000    0.00000   -0.00000    0.00000
  -0.00000    0.00000   -0.00000   -0.00004   -0.00002

 Eight components of 2nd-order total energy (hartree) are
 1,2,3: 0th-order hamiltonian combined with 1st-order wavefunctions
     kin0=   1.90038904E+01 eigvalue=   1.12553520E+00  local=  -1.05892387E+01
 4,5,6: 1st-order hamiltonian combined with 1st and 0th-order wfs
     kin1=  -2.39027110E+01  Hartree=   0.00000000E+00     xc=   0.00000000E+00
 7,8,9: eventually, occupation + non-local contributions
    edocc=   2.60296652E+00     enl0=  -8.31981653E-01   enl1=   1.28036737E+00
 1-9 gives the relaxation energy (to be shifted if some occ is /=2.0)
   erelax=  -1.13111718E+01
  No Ewald or frozen-wf contrib.: the relaxation energy is the total one
 2DEtotal=   -0.1131117181E+02 Ha. Also 2DEtotal=   -0.307792637981E+03 eV
    (  non-var. 2DEtotal :   -1.1311171808E+01 Ha)

 CALCULATION OF EFFECTIVE MASSES
 NOTE : Additional infos (eff. mass eigenvalues, eigenvectors and, if degenerate, average mass) are available in stdout.

 K-point ( 0.000, 0.000, 0.000) | band =    36
 Effective mass tensor:
             -1.1810058551             -0.0003701542             -0.0000967923
             -0.0003701542             -8.3483442923             -0.0024163044
             -0.0000967923             -0.0024163044             -3.6472639953
 Effective mass tensor eigenvalues:
             -8.3483455534             -3.6472627571             -1.1810058322
 Angular average effective mass 1/(<1/m>)=  -2.4179931592
 Angular average effective mass for Frohlich model (<m**0.5>)**2=  -2.9091134554
 Effective masses along directions: (cart. coord. / red. coord. -> eff. mass)
    1:   1.000000  0.000000  0.000000 /   1.000000  0.000000  0.000000 ->  -1.1810058361
    2:   0.000000  1.000000  0.000000 /   0.000000  1.000000  0.000000 ->  -8.3483425755
    3:   0.000000  0.000000  1.000000 /   0.000000  0.000000  1.000000 ->  -3.6472632880
    4:   0.577350  0.577350  0.577350 /   0.339978  0.513786  0.787679 ->  -2.4185363940
    5:   0.000000  0.707107  0.707107 /   0.000000  0.546329  0.837570 ->  -5.0786721737
    6:   0.707107  0.000000  0.707107 /   0.396282  0.000000  0.918129 ->  -1.7843295957
    7:   0.707107  0.707107  0.000000 /   0.551835  0.833953  0.000000 ->  -2.0694399569

 K-point ( 0.000, 0.000, 0.000) | band =    37
 Effective mass tensor:
              0.3260771788             -0.0000000410             -0.0000000006
             -0.0000000410              0.2972993900              0.0000000669
             -0.0000000006              0.0000000669              0.2725397510
 Effective mass tensor eigenvalues:
              0.2725397510              0.2972993900              0.3260771788
 Angular average effective mass 1/(<1/m>)=   0.2970426188
 Angular average effective mass for Frohlich model (<m**0.5>)**2=   0.2975197407
 Effective masses along directions: (cart. coord. / red. coord. -> eff. mass)
    1:   1.000000  0.000000  0.000000 /   1.000000  0.000000  0.000000 ->   0.3260771788
    2:   0.000000  1.000000  0.000000 /   0.000000  1.000000  0.000000 ->   0.2972993900
    3:   0.000000  0.000000  1.000000 /   0.000000  0.000000  1.000000 ->   0.2725397510
    4:   0.577350  0.577350  0.577350 /   0.339978  0.513786  0.787679 ->   0.2970426421
    5:   0.000000  0.707107  0.707107 /   0.000000  0.546329  0.837570 ->   0.2843817313
    6:   0.707107  0.000000  0.707107 /   0.396282  0.000000  0.918129 ->   0.2969143989
    7:   0.707107  0.707107  0.000000 /   0.551835  0.833953  0.000000 ->   0.3110239892

 END OF EFFECTIVE MASSES SECTION

 ---- first-order wavefunction calculations are completed ----

 Total localisation tensor (bohr^2) in cartesian coordinates
  WARNING : still subject to testing - especially symmetries.
      direction              matrix element
   alpha     beta       real part   imaginary part
     1        1       1.2675625346    0.0000000000
     1        2       0.0000000000    0.0000000000
     1        3       0.0000000000    0.0000000000
     2        1       0.0000000000    0.0000000000
     2        2       1.3361986060    0.0000000000
     2        3       0.0000000000    0.0000000000
     3        1       0.0000000000    0.0000000000
     3        2       0.0000000000    0.0000000000
     3        3       1.2106170987    0.0000000000

 respfn : d/dk was computed, but no 2DTE, so no DDB output.

== END DATASET(S) ==============================================================

 -outvars: echo values of variables after computation  --------
            acell      1.0000000000E+00  1.0000000000E+00  1.0000000000E+00 Bohr
              amu      6.94100000E+00  4.00780000E+01  1.40067400E+01
             ecut      4.20000000E+01 Hartree
           etotal     -1.1311171808E+01
            fcart      0.0000000000E+00  0.0000000000E+00  0.0000000000E+00
                       0.0000000000E+00  0.0000000000E+00  0.0000000000E+00
                       0.0000000000E+00  0.0000000000E+00  0.0000000000E+00
                       0.0000000000E+00  0.0000000000E+00  0.0000000000E+00
                       0.0000000000E+00  0.0000000000E+00  0.0000000000E+00
                       0.0000000000E+00  0.0000000000E+00  0.0000000000E+00
                       0.0000000000E+00  0.0000000000E+00  0.0000000000E+00
                       0.0000000000E+00  0.0000000000E+00  0.0000000000E+00
                       0.0000000000E+00  0.0000000000E+00  0.0000000000E+00
                       0.0000000000E+00  0.0000000000E+00  0.0000000000E+00
                       0.0000000000E+00  0.0000000000E+00  0.0000000000E+00
                       0.0000000000E+00  0.0000000000E+00  0.0000000000E+00
-          fftalg         512
           irdden           1
           irdwfk           1
           istwfk        1
              ixc     -116133
           kptopt           0
P           mkmem           1
P          mkqmem           1
P          mk1mem           1
            natom          12
            nband          45
           nbdbuf           4
            ngfft          40      64      96
             nkpt           1
            nstep        2000
             nsym           8
           ntypat           3
              occ      2.000000  2.000000  2.000000  2.000000  2.000000  2.000000
                       2.000000  2.000000  2.000000  2.000000  2.000000  2.000000
                       2.000000  2.000000  2.000000  2.000000  2.000000  2.000000
                       2.000000  2.000000  2.000000  2.000000  2.000000  2.000000
                       2.000000  2.000000  2.000000  2.000000  2.000000  2.000000
                       2.000000  2.000000  2.000000  2.000000  2.000000  2.000000
                       0.000000  0.000000  0.000000  0.000000  0.000000  0.000000
                       0.000000  0.000000  0.000000
        optdriver           1
            prtwf          -1
            rfdir           1       1       1
           rfelfd           2
            rprim      6.8511862289E+00  0.0000000000E+00  0.0000000000E+00
                       0.0000000000E+00  1.0353755051E+01  0.0000000000E+00
                       0.0000000000E+00  0.0000000000E+00  1.5873203224E+01
          spgroup          62
           strten      0.0000000000E+00  0.0000000000E+00  0.0000000000E+00
                       0.0000000000E+00  0.0000000000E+00  0.0000000000E+00
           symrel      1  0  0   0  1  0   0  0  1      -1  0  0   0 -1  0   0  0 -1
                      -1  0  0   0  1  0   0  0 -1       1  0  0   0 -1  0   0  0  1
                      -1  0  0   0 -1  0   0  0  1       1  0  0   0  1  0   0  0 -1
                       1  0  0   0 -1  0   0  0 -1      -1  0  0   0  1  0   0  0  1
            tnons      0.0000000  0.0000000  0.0000000     0.0000000 -0.0000000  0.0000000
                       0.0000000  0.5000000  0.5000000     0.0000000  0.5000000  0.5000000
                       0.5000000  0.5000000  0.5000000     0.5000000  0.5000000  0.5000000
                       0.5000000 -0.0000000  0.0000000     0.5000000  0.0000000  0.0000000
           tolwfr      1.00000000E-20
            typat      1  1  1  1  2  2  2  2  3  3  3  3
           useylm           1
           xangst      9.0637290103E-01  3.1476251204E+00  4.0528732826E-01
                       2.7191187031E+00  2.3313460757E+00  7.9944500450E+00
                       2.7191187031E+00  4.0813952234E-01  3.7945813584E+00
                       9.0637290103E-01  5.0708316737E+00  4.6051560149E+00
                       9.0637290103E-01  2.5925505485E+00  5.5111768872E+00
                       2.7191187031E+00  5.3320361465E+00  7.0884291727E+00
                       9.0637290103E-01  1.4693504954E-01  1.3113082006E+00
                       2.7191187031E+00  2.8864206476E+00  2.8885604861E+00
                       2.7191187031E+00  4.0609860557E+00  7.8088998465E-01
                       2.7191187031E+00  4.1574707384E+00  4.9807586713E+00
                       9.0637290103E-01  1.4179851404E+00  7.6188473887E+00
                       9.0637290103E-01  1.3215004576E+00  3.4189787020E+00
            xcart      1.7127965572E+00  5.9481494465E+00  7.6588205554E-01
                       5.1383896717E+00  4.4056056040E+00  1.5107321168E+01
                       5.1383896717E+00  7.7127192122E-01  7.1707195563E+00
                       1.7127965572E+00  9.5824831293E+00  8.7024836674E+00
                       1.7127965572E+00  4.8992105223E+00  1.0414614987E+01
                       5.1383896717E+00  1.0076088048E+01  1.3395189849E+01
                       1.7127965572E+00  2.7766700294E-01  2.4780133749E+00
                       5.1383896717E+00  5.4545445282E+00  5.4585882370E+00
                       5.1383896717E+00  7.6741514747E+00  1.4756682109E+00
                       5.1383896717E+00  7.8564811011E+00  9.4122698227E+00
                       1.7127965572E+00  2.6796035758E+00  1.4397535013E+01
                       1.7127965572E+00  2.4972739494E+00  6.4609334010E+00
             xred      2.5000000000E-01  5.7449200000E-01  4.8250000000E-02
                       7.5000000000E-01  4.2550800000E-01  9.5175000000E-01
                       7.5000000000E-01  7.4492000000E-02  4.5175000000E-01
                       2.5000000000E-01  9.2550800000E-01  5.4825000000E-01
                       2.5000000000E-01  4.7318200000E-01  6.5611300000E-01
                       7.5000000000E-01  9.7318200000E-01  8.4388700000E-01
                       2.5000000000E-01  2.6818000000E-02  1.5611300000E-01
                       7.5000000000E-01  5.2681800000E-01  3.4388700000E-01
                       7.5000000000E-01  7.4119500000E-01  9.2966000000E-02
                       7.5000000000E-01  7.5880500000E-01  5.9296600000E-01
                       2.5000000000E-01  2.5880500000E-01  9.0703400000E-01
                       2.5000000000E-01  2.4119500000E-01  4.0703400000E-01
            znucl        3.00000   20.00000    7.00000

- Timing analysis has been suppressed with timopt=0

 Suggested references for the acknowledgment of ABINIT usage.

 Calculation completed.
.Delivered   2 WARNINGs and   5 COMMENTs to log file.