.Version 9.5.2 of ABINIT

 ABINIT is a project of the Universite Catholique de Louvain,
 Corning Inc. and other collaborators, see ~abinit/doc/developers/contributors.txt .
 acknowledgments of the ABINIT effort.

.Starting date : Mon 24 May 2021.
- ( at 10h48 )

- input  file    -> /scratch/users/j/a/jabreu/flow_simple_10atoms/flow/w256/t1/run.abi
- output file    -> /scratch/users/j/a/jabreu/flow_simple_10atoms/flow/w256/t1/run.abo
- root for input  files -> /scratch/users/j/a/jabreu/flow_simple_10atoms/flow/w256/t1/indata/in
- root for output files -> /scratch/users/j/a/jabreu/flow_simple_10atoms/flow/w256/t1/outdata/out

 Symmetries : space group P2_1/c (# 14); Bravais mP (primitive monocl.)
     intxc =       0      iscf =       7    lmnmax =      18     lnmax =       6
     mgfft =      90  mpssoang =       3    mqgrid =    4105     natom =      10
  nloc_mem =       1    nspden =       1   nspinor =       1    nsppol =       1
      nsym =       4    n1xccc =    2501    ntypat =       2    occopt =       1
   xclevel =       2
-    mband =          39        mffmem =           1         mkmem =           1
-   mkqmem =           1        mk1mem =           1           mpw =       16925
      nfft =      324000          nkpt =           1
  Rough estimation (10% accuracy) of disk space for files :

------------- Echo of variables that govern the present computation ------------
-
- outvars: echo of selected default values
-   iomode0 =  0 , fftalg0 =512 , wfoptalg0 =  0
-
- outvars: echo of global parameters not present in the input file
-  max_nthreads =    0
-
 -outvars: echo values of preprocessed input variables --------
            acell      1.0000000000E+00  1.0000000000E+00  1.0000000000E+00 Bohr
              amu      2.43050000E+01  3.09737620E+01
             ecut      4.20000000E+01 Hartree
-          fftalg         512
           irdden           1
           irdwfk           1
           istwfk        1
              ixc     -116133
           kptopt           0
P           mkmem           1
P          mkqmem           1
P          mk1mem           1
            natom          10
            nband          39
           nbdbuf           4
            ngfft          60      60      90
             nkpt           1
            nstep        2000
             nsym           4
           ntypat           2
              occ      2.000000  2.000000  2.000000  2.000000  2.000000  2.000000
                       2.000000  2.000000  2.000000  2.000000  2.000000  2.000000
                       2.000000  2.000000  2.000000  2.000000  2.000000  2.000000
                       2.000000  2.000000  2.000000  2.000000  2.000000  2.000000
                       2.000000  2.000000  2.000000  2.000000  2.000000  2.000000
                       0.000000  0.000000  0.000000  0.000000  0.000000  0.000000
                       0.000000  0.000000  0.000000
        optdriver           1
            prtwf          -1
            rfdir           1       1       1
           rfelfd           2
            rprim      9.5566826307E+00  0.0000000000E+00  0.0000000000E+00
                       0.0000000000E+00  9.5863453794E+00  1.4502057989E+00
                       0.0000000000E+00  0.0000000000E+00  1.4227652391E+01
          spgroup          14
           symrel      1  0  0   0  1  0   0  0  1      -1  0  0   0 -1  0   0  0 -1
                       1  0  0   0 -1  0   0  0 -1      -1  0  0   0  1  0   0  0  1
            tnons      0.0000000  0.0000000  0.0000000     0.0000000  0.0000000  0.0000000
                       0.5000000  0.0000000  0.5000000     0.5000000  0.0000000  0.5000000
           tolwfr      1.00000000E-20
            typat      1  1  2  2  2  2  2  2  2  2
           useylm           1
           xangst      0.0000000000E+00  0.0000000000E+00  0.0000000000E+00
                       2.5285893189E+00  0.0000000000E+00  3.7644746886E+00
                       3.5805785620E+00  3.7983358135E+00  2.4902414560E+00
                       1.0519892431E+00  1.2745396750E+00  2.0416490891E+00
                       1.4766000759E+00  1.2745396750E+00  5.8061237777E+00
                       4.0051893948E+00  3.7983358135E+00  6.2547161445E+00
                       5.5859066645E-01  3.0718746792E+00  4.9704528329E+00
                       3.0871799854E+00  2.0010008093E+00  7.0903870893E+00
                       4.4985879714E+00  2.0010008093E+00  3.3259124007E+00
                       1.9699986525E+00  3.0718746792E+00  1.2059781444E+00
            xcart      0.0000000000E+00  0.0000000000E+00  0.0000000000E+00
                       4.7783413153E+00  0.0000000000E+00  7.1138261955E+00
                       6.7663128795E+00  7.1778144482E+00  4.7058743565E+00
                       1.9879715642E+00  2.4085309312E+00  3.8581576379E+00
                       2.7903697512E+00  2.4085309312E+00  1.0971983833E+01
                       7.5687110665E+00  7.1778144482E+00  1.1819700552E+01
                       1.0555833800E+00  5.8050018582E+00  9.3927946107E+00
                       5.8339246953E+00  3.7813435212E+00  1.3398889775E+01
                       8.5010992507E+00  3.7813435212E+00  6.2850635793E+00
                       3.7227579354E+00  5.8050018582E+00  2.2789684151E+00
             xred      0.0000000000E+00  0.0000000000E+00  0.0000000000E+00
                       5.0000000000E-01  0.0000000000E+00  5.0000000000E-01
                       7.0801900000E-01  7.4875400000E-01  2.5443600000E-01
                       2.0801900000E-01  2.5124600000E-01  2.4556400000E-01
                       2.9198100000E-01  2.5124600000E-01  7.4556400000E-01
                       7.9198100000E-01  7.4875400000E-01  7.5443600000E-01
                       1.1045500000E-01  6.0554900000E-01  5.9845600000E-01
                       6.1045500000E-01  3.9445100000E-01  9.0154400000E-01
                       8.8954500000E-01  3.9445100000E-01  4.0154400000E-01
                       3.8954500000E-01  6.0554900000E-01  9.8456000000E-02
            znucl       12.00000   15.00000

 chkinp: Checking input parameters for consistency.

== DATASET  1 ==================================================================
-   mpi_nproc: 1, omp_nthreads: -1 (-1 if OMP is not activated)

--- !DatasetInfo
iteration_state: {dtset: 1, }
dimensions: {natom: 10, nkpt: 1, mband: 39, nsppol: 1, nspinor: 1, nspden: 1, mpw: 16925, }
cutoff_energies: {ecut:  42.0, pawecutdg:  -1.0, }
electrons: {nelect:   6.00000000E+01, charge:   0.00000000E+00, occopt:   1.00000000E+00, tsmear:   1.00000000E-02, }
meta: {optdriver: 1, rfelfd: 2, }
...

 Real(R)+Recip(G) space primitive vectors, cartesian coordinates (Bohr,Bohr^-1):
 R(1)=  9.5566826  0.0000000  0.0000000  G(1)=  0.1046388  0.0000000  0.0000000
 R(2)=  0.0000000  9.5863454  1.4502058  G(2)=  0.0000000  0.1043150  0.0000000
 R(3)=  0.0000000  0.0000000 14.2276524  G(3)=  0.0000000 -0.0106327  0.0702857
 Unit cell volume ucvol=  1.3034473E+03 bohr^3
 Angles (23,13,12)=  8.13976197E+01  9.00000000E+01  9.00000000E+01 degrees

 getcut: wavevector=  0.0000  0.0000  0.0000  ngfft=  60  60  90
         ecut(hartree)=     42.000   => boxcut(ratio)=   2.12136

--- Pseudopotential description ------------------------------------------------
- pspini: atom type   1  psp file is /scratch/users/j/a/jabreu/pseudos/PBEsol/Mg.psp8
- pspatm: opening atomic psp file    /scratch/users/j/a/jabreu/pseudos/PBEsol/Mg.psp8
- Mg    ONCVPSP-3.3.0  r_core=   1.16056   1.56380
- 12.00000  10.00000    180112                znucl, zion, pspdat
    8 -116133    1    4       400   0.00000   pspcod,pspxc,lmax,lloc,mmax,r2well
    3.99000000000000    0.00000000000000    0.00000000000000   rchrg,fchrg,qchrg
     nproj     2     2
     extension_switch     1
  pspatm : epsatm=    9.18164846
         --- l  ekb(1:nproj) -->
             0    2.230603   -0.826587
             1   -6.503151   -2.501445
 pspatm: atomic psp has been read  and splines computed

- pspini: atom type   2  psp file is /scratch/users/j/a/jabreu/pseudos/PBEsol/P.psp8
- pspatm: opening atomic psp file    /scratch/users/j/a/jabreu/pseudos/PBEsol/P.psp8
- P     ONCVPSP-3.3.0  r_core=   1.46089   1.55067   1.70594
- 15.00000   5.00000    180112                znucl, zion, pspdat
    8 -116133    2    4       600   0.00000   pspcod,pspxc,lmax,lloc,mmax,r2well
    5.99000000000000    5.00000000000000    0.00000000000000   rchrg,fchrg,qchrg
     nproj     2     2     2
     extension_switch     1
  pspatm : epsatm=    7.31221086
         --- l  ekb(1:nproj) -->
             0    6.742364    1.063650
             1    3.449117    0.910422
             2   -3.077645   -0.799176
 pspatm: atomic psp has been read  and splines computed

   4.61165903E+03                                ecore*ucvol(ha*bohr**3)

 ==>  initialize data related to q vector <==

 The list of irreducible perturbations for this q vector is:
    1)    idir= 1    ipert=  11
    2)    idir= 2    ipert=  11
    3)    idir= 3    ipert=  11

 Perturbation wavevector (in red.coord.)   0.000000  0.000000  0.000000
 Perturbation : derivative vs k along direction   1

 dfpt_looppert : COMMENT -
  In a d/dk calculation, iscf is set to -3 automatically.
 The set of symmetries contains only one element for this perturbation.
 symkpt : not enough symmetry to change the number of k points.

 Initialisation of the first-order wave-functions :
  ireadwf=   0

--- !BeginCycle
iteration_state: {dtset: 1, }
solver: {iscf: 7, nstep: 2000, nline: 4, wfoptalg: 0, }
tolerances: {tolwfr: 1.00E-20, }
...

     iter   2DEtotal(Ha)        deltaE(Ha) residm    vres2
-ETOT  1  -33.144725423395     -3.314E+01 3.775E-02 0.000E+00
 ETOT  2  -33.158788052531     -1.406E-02 9.208E-04 0.000E+00
 ETOT  3  -33.158834864979     -4.681E-05 9.541E-06 0.000E+00
 ETOT  4  -33.158835152616     -2.876E-07 9.625E-07 0.000E+00
 ETOT  5  -33.158835154979     -2.364E-09 1.695E-08 0.000E+00
 ETOT  6  -33.158835155002     -2.282E-11 2.539E-09 0.000E+00
 ETOT  7  -33.158835155002     -2.345E-13 4.706E-11 0.000E+00
 ETOT  8  -33.158835155002      0.000E+00 7.371E-12 0.000E+00
 ETOT  9  -33.158835155002     -3.553E-14 1.450E-13 0.000E+00
 ETOT 10  -33.158835155002     -1.421E-14 2.236E-14 0.000E+00
 ETOT 11  -33.158835155002     -1.421E-14 4.502E-16 0.000E+00
 ETOT 12  -33.158835155002      7.105E-15 6.921E-17 0.000E+00
 ETOT 13  -33.158835155002      7.105E-15 1.428E-18 0.000E+00
 ETOT 14  -33.158835155002     -7.105E-15 2.170E-19 0.000E+00
 ETOT 15  -33.158835155002      0.000E+00 9.752E-21 0.000E+00

 At SCF step   15   max residual=  9.75E-21 < tolwfr=  1.00E-20 =>converged.

 ----iterations are completed or convergence reached----

 dfpt_looppert: DFPT cycle converged with prtwf=-1. Will skip output of the 1st-order WFK file.
 dfpt_looppert : ek2=    5.1871243021E+01
          f-sum rule ratio=    1.2550784230E+00
 prteigrs : about to open file /scratch/users/j/a/jabreu/flow_simple_10atoms/flow/w256/t1/tmpdata/tmp_1WF1_EIG
 Expectation of eigenvalue derivatives (hartree) for nkpt=   1  k points:
  (in case of degenerate eigenvalues, averaged derivative)
 kpt#   1, nband= 39, wtk=  1.00000, kpt=  0.0000  0.0000  0.0000 (reduced coord)
  -0.00000   -0.00000    0.00000   -0.00000   -0.00000    0.00000   -0.00000   -0.00000
  -0.00000   -0.00000    0.00000   -0.00000    0.00000    0.00000    0.00000    0.00000
   0.00000   -0.00000   -0.00000    0.00000   -0.00000    0.00000   -0.00000   -0.00000
   0.00000    0.00000   -0.00000    0.00000    0.00000   -0.00000    0.00000    0.00000
   0.00000    0.00000   -0.00000    0.00000   -0.00000    0.00000    0.00031

 Eight components of 2nd-order total energy (hartree) are
 1,2,3: 0th-order hamiltonian combined with 1st-order wavefunctions
     kin0=   2.73940507E+01 eigvalue=   8.40463093E-01  local=  -1.31832383E+01
 4,5,6: 1st-order hamiltonian combined with 1st and 0th-order wfs
     kin1=  -6.51024779E+01  Hartree=   0.00000000E+00     xc=   0.00000000E+00
 7,8,9: eventually, occupation + non-local contributions
    edocc=   1.72448548E+01     enl0=   8.62704811E-01   enl1=  -1.21519242E+00
 1-9 gives the relaxation energy (to be shifted if some occ is /=2.0)
   erelax=  -3.31588352E+01
  No Ewald or frozen-wf contrib.: the relaxation energy is the total one
 2DEtotal=   -0.3315883516E+02 Ha. Also 2DEtotal=   -0.902297791753E+03 eV
    (  non-var. 2DEtotal :   -3.3158835155E+01 Ha)

 Perturbation wavevector (in red.coord.)   0.000000  0.000000  0.000000
 Perturbation : derivative vs k along direction   2
 The set of symmetries contains only one element for this perturbation.
 symkpt : not enough symmetry to change the number of k points.

[...]

 Perturbation wavevector (in red.coord.)   0.000000  0.000000  0.000000
 Perturbation : derivative vs k along direction   3
 The set of symmetries contains only one element for this perturbation.
 symkpt : not enough symmetry to change the number of k points.

 Initialisation of the first-order wave-functions :
  ireadwf=   0

--- !BeginCycle
iteration_state: {dtset: 1, }
solver: {iscf: 7, nstep: 2000, nline: 4, wfoptalg: 0, }
tolerances: {tolwfr: 1.00E-20, }
...

     iter   2DEtotal(Ha)        deltaE(Ha) residm    vres2
-ETOT  1  -13.443874649710     -1.344E+01 2.014E-02 0.000E+00
 ETOT  2  -13.455369621603     -1.149E-02 2.537E-04 0.000E+00
 ETOT  3  -13.455412719348     -4.310E-05 9.939E-07 0.000E+00
 ETOT  4  -13.455412974718     -2.554E-07 4.232E-08 0.000E+00
 ETOT  5  -13.455412976423     -1.705E-09 2.752E-10 0.000E+00
 ETOT  6  -13.455412976436     -1.227E-11 2.430E-11 0.000E+00
 ETOT  7  -13.455412976436     -3.020E-14 1.374E-12 0.000E+00
 ETOT  8  -13.455412976436      1.776E-14 9.624E-14 0.000E+00
 ETOT  9  -13.455412976436     -6.217E-14 1.196E-14 0.000E+00
 ETOT 10  -13.455412976436      5.329E-15 8.497E-16 0.000E+00
 ETOT 11  -13.455412976436      1.776E-15 1.105E-16 0.000E+00
 ETOT 12  -13.455412976436      0.000E+00 7.877E-18 0.000E+00
 ETOT 13  -13.455412976436     -3.553E-15 1.065E-18 0.000E+00
 ETOT 14  -13.455412976436     -3.553E-15 7.566E-20 0.000E+00
 ETOT 15  -13.455412976436     -7.105E-15 1.059E-20 0.000E+00
 ETOT 16  -13.455412976436      0.000E+00 9.313E-21 0.000E+00

 At SCF step   16   max residual=  9.31E-21 < tolwfr=  1.00E-20 =>converged.

 ----iterations are completed or convergence reached----

 dfpt_looppert: DFPT cycle converged with prtwf=-1. Will skip output of the 1st-order WFK file.
 dfpt_looppert : ek2=    2.3938743442E+01
          f-sum rule ratio=    1.0889471279E+00
 prteigrs : about to open file /scratch/users/j/a/jabreu/flow_simple_10atoms/flow/w256/t1/tmpdata/tmp_1WF1_EIG
 Expectation of eigenvalue derivatives (hartree) for nkpt=   1  k points:
  (in case of degenerate eigenvalues, averaged derivative)
 kpt#   1, nband= 39, wtk=  1.00000, kpt=  0.0000  0.0000  0.0000 (reduced coord)
  -0.00000    0.00000   -0.00000   -0.00000   -0.00000    0.00000   -0.00000   -0.00000
  -0.00000    0.00000    0.00000   -0.00000   -0.00000    0.00000    0.00000    0.00000
   0.00000   -0.00000    0.00000   -0.00000    0.00000    0.00000   -0.00000    0.00000
   0.00000   -0.00000   -0.00000   -0.00000   -0.00000    0.00000    0.00000    0.00000
   0.00000    0.00000    0.00000    0.00000    0.00000    0.00000    0.00000

 Eight components of 2nd-order total energy (hartree) are
 1,2,3: 0th-order hamiltonian combined with 1st-order wavefunctions
     kin0=   2.08418373E+01 eigvalue=  -1.41747286E+00  local=  -1.09823699E+01
 4,5,6: 1st-order hamiltonian combined with 1st and 0th-order wfs
     kin1=  -2.60680259E+01  Hartree=   0.00000000E+00     xc=   0.00000000E+00
 7,8,9: eventually, occupation + non-local contributions
    edocc=   4.50458687E+00     enl0=   5.08831595E-01   enl1=  -8.42800037E-01
 1-9 gives the relaxation energy (to be shifted if some occ is /=2.0)
   erelax=  -1.34554130E+01
  No Ewald or frozen-wf contrib.: the relaxation energy is the total one
 2DEtotal=   -0.1345541298E+02 Ha. Also 2DEtotal=   -0.366140407497E+03 eV
    (  non-var. 2DEtotal :   -1.3455412976E+01 Ha)

 CALCULATION OF EFFECTIVE MASSES
 NOTE : Additional infos (eff. mass eigenvalues, eigenvectors and, if degenerate, average mass) are available in stdout.

 K-point ( 0.000, 0.000, 0.000) | band =    30
 Effective mass tensor:
             -0.2785571701              0.0000000001              0.0000000000
              0.0000000001             -0.6479387207              0.2423770481
              0.0000000000              0.2423770481             -0.3944554786
 Effective mass tensor eigenvalues:
             -0.7947113990             -0.2785571701             -0.2476828004
 Angular average effective mass 1/(<1/m>)=  -0.3376223443
 Angular average effective mass for Frohlich model (<m**0.5>)**2=  -0.3601374504
 Effective masses along directions: (cart. coord. / red. coord. -> eff. mass)
    1:   1.000000  0.000000  0.000000 /   1.000000  0.000000  0.000000 ->  -0.2785571701
    2:   0.000000  1.000000  0.000000 /   0.000000  1.000000  0.000000 ->  -0.4990077599
    3:   0.000000  0.000000  1.000000 /   0.000000  0.101403  0.994845 ->  -0.3037885196
    4:   0.577350  0.577350  0.577350 /   0.468802  0.541397  0.697936 ->  -0.2643545771
    5:   0.000000  0.707107  0.707107 /   0.000000  0.612923  0.790143 ->  -0.2577828825
    6:   0.707107  0.000000  0.707107 /   0.555603  0.084312  0.827162 ->  -0.2906262442
    7:   0.707107  0.707107  0.000000 /   0.706010  0.708202  0.000000 ->  -0.3575320441

--- !WARNING
src_file: m_efmas.F90
src_line: 0
message: |

    Band(s)    31,
    are not band extrema, but saddle points;
    the transport equivalent formalism breaks down in these conditions.
    The associated tensor(s) will therefore not be printed.
...

 K-point ( 0.000, 0.000, 0.000) | band =    31
 Effective mass tensor:
     *** SADDLE POINT: TRANSPORT EQV. EFF. MASS NOT DEFINED (see WARNING above) ***
 Angular average effective mass 1/(<1/m>)=  -0.6895335513
 Angular average effective mass for Frohlich model (<m**0.5>)**2=  -1.1350236661
 Effective masses along directions: (cart. coord. / red. coord. -> eff. mass)
    1:   1.000000  0.000000  0.000000 /   1.000000  0.000000  0.000000 ->  -0.7618551599
    2:   0.000000  1.000000  0.000000 /   0.000000  1.000000  0.000000 ->  -0.4961471626
    3:   0.000000  0.000000  1.000000 /   0.000000  0.101403  0.994845 ->  -0.9778509131
    4:   0.577350  0.577350  0.577350 /   0.468802  0.541397  0.697936 ->  -0.2630318568
    5:   0.000000  0.707107  0.707107 /   0.000000  0.612923  0.790143 ->  -0.1981595514
    6:   0.707107  0.000000  0.707107 /   0.555603  0.084312  0.827162 ->  -0.8564443949
    7:   0.707107  0.707107  0.000000 /   0.706010  0.708202  0.000000 ->  -0.6009405052

 END OF EFFECTIVE MASSES SECTION

 ---- first-order wavefunction calculations are completed ----

 Total localisation tensor (bohr^2) in cartesian coordinates
  WARNING : still subject to testing - especially symmetries.
      direction              matrix element
   alpha     beta       real part   imaginary part
     1        1       3.8466007145    0.0000000000
     1        2       0.0000000000    0.0000000000
     1        3       0.0000000000    0.0000000000
     2        1       0.0000000000    0.0000000000
     2        2       2.4122619000    0.0000000000
     2        3       0.3649228207    0.0000000000
     3        1       0.0000000000    0.0000000000
     3        2       0.3649228207    0.0000000000
     3        3       2.2426118442    0.0000000000

 respfn : d/dk was computed, but no 2DTE, so no DDB output.

== END DATASET(S) ==============================================================

 -outvars: echo values of variables after computation  --------
            acell      1.0000000000E+00  1.0000000000E+00  1.0000000000E+00 Bohr
              amu      2.43050000E+01  3.09737620E+01
             ecut      4.20000000E+01 Hartree
           etotal     -1.3455412976E+01
            fcart      0.0000000000E+00  0.0000000000E+00  0.0000000000E+00
                       0.0000000000E+00  0.0000000000E+00  0.0000000000E+00
                       0.0000000000E+00  0.0000000000E+00  0.0000000000E+00
                       0.0000000000E+00  0.0000000000E+00  0.0000000000E+00
                       0.0000000000E+00  0.0000000000E+00  0.0000000000E+00
                       0.0000000000E+00  0.0000000000E+00  0.0000000000E+00
                       0.0000000000E+00  0.0000000000E+00  0.0000000000E+00
                       0.0000000000E+00  0.0000000000E+00  0.0000000000E+00
                       0.0000000000E+00  0.0000000000E+00  0.0000000000E+00
                       0.0000000000E+00  0.0000000000E+00  0.0000000000E+00
-          fftalg         512
           irdden           1
           irdwfk           1
           istwfk        1
              ixc     -116133
           kptopt           0
P           mkmem           1
P          mkqmem           1
P          mk1mem           1
            natom          10
            nband          39
           nbdbuf           4
            ngfft          60      60      90
             nkpt           1
            nstep        2000
             nsym           4
           ntypat           2
              occ      2.000000  2.000000  2.000000  2.000000  2.000000  2.000000
                       2.000000  2.000000  2.000000  2.000000  2.000000  2.000000
                       2.000000  2.000000  2.000000  2.000000  2.000000  2.000000
                       2.000000  2.000000  2.000000  2.000000  2.000000  2.000000
                       2.000000  2.000000  2.000000  2.000000  2.000000  2.000000
                       0.000000  0.000000  0.000000  0.000000  0.000000  0.000000
                       0.000000  0.000000  0.000000
        optdriver           1
            prtwf          -1
            rfdir           1       1       1
           rfelfd           2
            rprim      9.5566826307E+00  0.0000000000E+00  0.0000000000E+00
                       0.0000000000E+00  9.5863453794E+00  1.4502057989E+00
                       0.0000000000E+00  0.0000000000E+00  1.4227652391E+01
          spgroup          14
           strten      0.0000000000E+00  0.0000000000E+00  0.0000000000E+00
                       0.0000000000E+00  0.0000000000E+00  0.0000000000E+00
           symrel      1  0  0   0  1  0   0  0  1      -1  0  0   0 -1  0   0  0 -1
                       1  0  0   0 -1  0   0  0 -1      -1  0  0   0  1  0   0  0  1
            tnons      0.0000000  0.0000000  0.0000000     0.0000000  0.0000000  0.0000000
                       0.5000000  0.0000000  0.5000000     0.5000000  0.0000000  0.5000000
           tolwfr      1.00000000E-20
            typat      1  1  2  2  2  2  2  2  2  2
           useylm           1
           xangst      0.0000000000E+00  0.0000000000E+00  0.0000000000E+00
                       2.5285893189E+00  0.0000000000E+00  3.7644746886E+00
                       3.5805785620E+00  3.7983358135E+00  2.4902414560E+00
                       1.0519892431E+00  1.2745396750E+00  2.0416490891E+00
                       1.4766000759E+00  1.2745396750E+00  5.8061237777E+00
                       4.0051893948E+00  3.7983358135E+00  6.2547161445E+00
                       5.5859066645E-01  3.0718746792E+00  4.9704528329E+00
                       3.0871799854E+00  2.0010008093E+00  7.0903870893E+00
                       4.4985879714E+00  2.0010008093E+00  3.3259124007E+00
                       1.9699986525E+00  3.0718746792E+00  1.2059781444E+00
            xcart      0.0000000000E+00  0.0000000000E+00  0.0000000000E+00
                       4.7783413153E+00  0.0000000000E+00  7.1138261955E+00
                       6.7663128795E+00  7.1778144482E+00  4.7058743565E+00
                       1.9879715642E+00  2.4085309312E+00  3.8581576379E+00
                       2.7903697512E+00  2.4085309312E+00  1.0971983833E+01
                       7.5687110665E+00  7.1778144482E+00  1.1819700552E+01
                       1.0555833800E+00  5.8050018582E+00  9.3927946107E+00
                       5.8339246953E+00  3.7813435212E+00  1.3398889775E+01
                       8.5010992507E+00  3.7813435212E+00  6.2850635793E+00
                       3.7227579354E+00  5.8050018582E+00  2.2789684151E+00
             xred      0.0000000000E+00  0.0000000000E+00  0.0000000000E+00
                       5.0000000000E-01  0.0000000000E+00  5.0000000000E-01
                       7.0801900000E-01  7.4875400000E-01  2.5443600000E-01
                       2.0801900000E-01  2.5124600000E-01  2.4556400000E-01
                       2.9198100000E-01  2.5124600000E-01  7.4556400000E-01
                       7.9198100000E-01  7.4875400000E-01  7.5443600000E-01
                       1.1045500000E-01  6.0554900000E-01  5.9845600000E-01
                       6.1045500000E-01  3.9445100000E-01  9.0154400000E-01
                       8.8954500000E-01  3.9445100000E-01  4.0154400000E-01
                       3.8954500000E-01  6.0554900000E-01  9.8456000000E-02
            znucl       12.00000   15.00000

- Timing analysis has been suppressed with timopt=0

 Suggested references for the acknowledgment of ABINIT usage.

 Calculation completed.
.Delivered   3 WARNINGs and   5 COMMENTs to log file.