.Version 9.5.1 of ABINIT

 ABINIT is a project of the Universite Catholique de Louvain,
 Corning Inc. and other collaborators, see ~abinit/doc/developers/contributors.txt .
 acknowledgments of the ABINIT effort.

.Starting date : Tue 27 Apr 2021.
- ( at 15h32 )

- input  file    -> /scratch/users/j/a/jabreu/flow_simple/flow/w143/t1/run.abi
- output file    -> /scratch/users/j/a/jabreu/flow_simple/flow/w143/t1/run.abo
- root for input  files -> /scratch/users/j/a/jabreu/flow_simple/flow/w143/t1/indata/in
- root for output files -> /scratch/users/j/a/jabreu/flow_simple/flow/w143/t1/outdata/out

 Symmetries : space group F-4 3 m (#216); Bravais cF (face-center cubic)
     intxc =       0      iscf =       7    lmnmax =      18     lnmax =       6
     mgfft =      48  mpssoang =       3    mqgrid =    3001     natom =       3
  nloc_mem =       1    nspden =       1   nspinor =       1    nsppol =       1
      nsym =      24    n1xccc =    2501    ntypat =       3    occopt =       1
   xclevel =       2
-    mband =          18        mffmem =           1         mkmem =           2
-   mkqmem =           2        mk1mem =           2           mpw =        4720
      nfft =      110592          nkpt =           2
  Rough estimation (10% accuracy) of disk space for files :

------------- Echo of variables that govern the present computation ------------
-
- outvars: echo of selected default values
-   iomode0 =  0 , fftalg0 =512 , wfoptalg0 =  0
-
- outvars: echo of global parameters not present in the input file
-  max_nthreads =    0
-
 -outvars: echo values of preprocessed input variables --------
            acell      1.0000000000E+00  1.0000000000E+00  1.0000000000E+00 Bohr
              amu      6.94100000E+00  2.43050000E+01  3.09737620E+01
             ecut      4.20000000E+01 Hartree
-          fftalg         512
           irdden           1
           irdwfk           1
           istwfk        1    1
              ixc     -116133
              kpt      0.00000000E+00  0.00000000E+00  0.00000000E+00
                       5.00000000E-01  2.46519033E-32  5.00000000E-01
           kptopt           0
P           mkmem           2
P          mkqmem           2
P          mk1mem           2
            natom           3
            nband          18
           nbdbuf           4
            ngfft          48      48      48
             nkpt           2
            nstep         100
             nsym          24
           ntypat           3
              occ      2.000000  2.000000  2.000000  2.000000  2.000000  2.000000
                       2.000000  2.000000  2.000000  0.000000  0.000000  0.000000
                       0.000000  0.000000  0.000000  0.000000  0.000000  0.000000
        optdriver           1
            prtwf          -1
            rfdir           1       1       1
           rfelfd           2
            rprim      6.9087190825E+00  0.0000000000E+00  3.9887508221E+00
                       2.3029063608E+00  6.5136028168E+00  3.9887508221E+00
                       0.0000000000E+00  0.0000000000E+00  7.9775016441E+00
          spgroup         216
           symrel      1  0  0   0  1  0   0  0  1       0 -1  1   0 -1  0   1 -1  0
                      -1  0  0  -1  0  1  -1  1  0       0  1 -1   1  0 -1   0  0 -1
                      -1  0  0  -1  1  0  -1  0  1       0 -1  1   1 -1  0   0 -1  0
                       1  0  0   0  0  1   0  1  0       0  1 -1   0  0 -1   1  0 -1
                      -1  0  1  -1  1  0  -1  0  0       0 -1  0   1 -1  0   0 -1  1
                       1  0 -1   0  0 -1   0  1 -1       0  1  0   0  0  1   1  0  0
                       1  0 -1   0  1 -1   0  0 -1       0 -1  0   0 -1  1   1 -1  0
                      -1  0  1  -1  0  0  -1  1  0       0  1  0   1  0  0   0  0  1
                       0  0 -1   0  1 -1   1  0 -1       1 -1  0   0 -1  1   0 -1  0
                       0  0  1   1  0  0   0  1  0      -1  1  0  -1  0  0  -1  0  1
                       0  0  1   0  1  0   1  0  0       1 -1  0   0 -1  0   0 -1  1
                       0  0 -1   1  0 -1   0  1 -1      -1  1  0  -1  0  1  -1  0  0
           tolwfr      1.00000000E-20
            typat      1  2  3
           useylm           1
              wtk        0.50000    0.50000
           xangst      1.2186455597E+00  8.6171253911E-01  2.1107560258E+00
                       3.6559366790E+00  2.5851376173E+00  6.3322680774E+00
                       0.0000000000E+00  0.0000000000E+00  0.0000000000E+00
            xcart      2.3029063608E+00  1.6284007042E+00  3.9887508221E+00
                       6.9087190825E+00  4.8852021126E+00  1.1966252466E+01
                       0.0000000000E+00  0.0000000000E+00  0.0000000000E+00
             xred      2.5000000000E-01  2.5000000000E-01  2.5000000000E-01
                       7.5000000000E-01  7.5000000000E-01  7.5000000000E-01
                       0.0000000000E+00  0.0000000000E+00  0.0000000000E+00
            znucl        3.00000   12.00000   15.00000

 chkinp: Checking input parameters for consistency.

== DATASET  1 ==================================================================
-   mpi_nproc: 1, omp_nthreads: -1 (-1 if OMP is not activated)

--- !DatasetInfo
iteration_state: {dtset: 1, }
dimensions: {natom: 3, nkpt: 2, mband: 18, nsppol: 1, nspinor: 1, nspden: 1, mpw: 4720, }
cutoff_energies: {ecut:  42.0, pawecutdg:  -1.0, }
electrons: {nelect:   1.80000000E+01, charge:   0.00000000E+00, occopt:   1.00000000E+00, tsmear:   1.00000000E-02, }
meta: {optdriver: 1, rfelfd: 2, }
...

 Real(R)+Recip(G) space primitive vectors, cartesian coordinates (Bohr,Bohr^-1):
 R(1)=  6.9087191  0.0000000  3.9887508  G(1)=  0.1447446 -0.0511750  0.0000000
 R(2)=  2.3029064  6.5136028  3.9887508  G(2)=  0.0000000  0.1535249  0.0000000
 R(3)=  0.0000000  0.0000000  7.9775016  G(3)= -0.0723723 -0.0511750  0.1253525
 Unit cell volume ucvol=  3.5899278E+02 bohr^3
 Angles (23,13,12)=  6.00000000E+01  6.00000000E+01  6.00000000E+01 degrees

 getcut: wavevector=  0.0000  0.0000  0.0000  ngfft=  48  48  48
         ecut(hartree)=     42.000   => boxcut(ratio)=   2.06246

--- Pseudopotential description ------------------------------------------------
- pspini: atom type   1  psp file is /scratch/users/j/a/jabreu/pseudos/PBEsol/Li.psp8
- pspatm: opening atomic psp file    /scratch/users/j/a/jabreu/pseudos/PBEsol/Li.psp8
- Li    ONCVPSP-3.3.0  r_core=   1.40824   1.10935
-  3.00000   3.00000    180112                znucl, zion, pspdat
    8 -116133    1    4       400   0.00000   pspcod,pspxc,lmax,lloc,mmax,r2well
    3.99000000000000    0.00000000000000    0.00000000000000   rchrg,fchrg,qchrg
     nproj     2     2
     extension_switch     1
  pspatm : epsatm=    2.60859637
         --- l  ekb(1:nproj) -->
             0   -4.855856   -1.482423
             1   -2.171544   -0.427615
 pspatm: atomic psp has been read  and splines computed

- pspini: atom type   2  psp file is /scratch/users/j/a/jabreu/pseudos/PBEsol/Mg.psp8
- pspatm: opening atomic psp file    /scratch/users/j/a/jabreu/pseudos/PBEsol/Mg.psp8
- Mg    ONCVPSP-3.3.0  r_core=   1.16056   1.56380
- 12.00000  10.00000    180112                znucl, zion, pspdat
    8 -116133    1    4       400   0.00000   pspcod,pspxc,lmax,lloc,mmax,r2well
    3.99000000000000    0.00000000000000    0.00000000000000   rchrg,fchrg,qchrg
     nproj     2     2
     extension_switch     1
  pspatm : epsatm=    9.18164846
         --- l  ekb(1:nproj) -->
             0    2.230603   -0.826587
             1   -6.503151   -2.501445
 pspatm: atomic psp has been read  and splines computed

- pspini: atom type   3  psp file is /scratch/users/j/a/jabreu/pseudos/PBEsol/P.psp8
- pspatm: opening atomic psp file    /scratch/users/j/a/jabreu/pseudos/PBEsol/P.psp8
- P     ONCVPSP-3.3.0  r_core=   1.46089   1.55067   1.70594
- 15.00000   5.00000    180112                znucl, zion, pspdat
    8 -116133    2    4       600   0.00000   pspcod,pspxc,lmax,lloc,mmax,r2well
    5.99000000000000    5.00000000000000    0.00000000000000   rchrg,fchrg,qchrg
     nproj     2     2     2
     extension_switch     1
  pspatm : epsatm=    7.31221086
         --- l  ekb(1:nproj) -->
             0    6.742364    1.063650
             1    3.449117    0.910422
             2   -3.077645   -0.799176
 pspatm: atomic psp has been read  and splines computed

   3.43844202E+02                                ecore*ucvol(ha*bohr**3)

-inwffil : will read wavefunctions from disk file /scratch/users/j/a/jabreu/flow_simple/flow/w143/t1/indata/in_WFK

 ==>  initialize data related to q vector <==

 The list of irreducible perturbations for this q vector is:
    1)    idir= 1    ipert=   4
    2)    idir= 2    ipert=   4
    3)    idir= 3    ipert=   4

 Perturbation wavevector (in red.coord.)   0.000000  0.000000  0.000000
 Perturbation : derivative vs k along direction   1

 dfpt_looppert : COMMENT -
  In a d/dk calculation, iscf is set to -3 automatically.
 The set of symmetries contains only one element for this perturbation.
 symkpt : not enough symmetry to change the number of k points.

[...]

 Initialisation of the first-order wave-functions :
  ireadwf=   0

--- !BeginCycle
iteration_state: {dtset: 1, }
solver: {iscf: 7, nstep: 100, nline: 4, wfoptalg: 0, }
tolerances: {tolwfr: 1.00E-20, }
...

     iter   2DEtotal(Ha)        deltaE(Ha) residm    vres2
-ETOT  1  -26.573891594872     -2.657E+01 7.890E-02 0.000E+00
 ETOT  2  -26.576067571055     -2.176E-03 9.100E-05 0.000E+00
 ETOT  3  -26.576068436342     -8.653E-07 9.732E-07 0.000E+00
 ETOT  4  -26.576068436783     -4.405E-10 3.776E-09 0.000E+00
 ETOT  5  -26.576068436783     -4.157E-13 5.154E-11 0.000E+00
 ETOT  6  -26.576068436783      2.487E-14 2.391E-13 0.000E+00
 ETOT  7  -26.576068436783      0.000E+00 3.486E-15 0.000E+00
 ETOT  8  -26.576068436783     -2.842E-14 5.497E-17 0.000E+00
 ETOT  9  -26.576068436783      7.105E-15 9.973E-19 0.000E+00
 ETOT 10  -26.576068436783      0.000E+00 2.786E-20 0.000E+00
 ETOT 11  -26.576068436783      0.000E+00 9.701E-21 0.000E+00

 At SCF step   11   max residual=  9.70E-21 < tolwfr=  1.00E-20 =>converged.

 ----iterations are completed or convergence reached----

 dfpt_looppert: DFPT cycle converged with prtwf=-1. Will skip output of the 1st-order WFK file.
 dfpt_looppert : ek2=    3.3498062752E+01
          f-sum rule ratio=    1.4910994550E+00
 prteigrs : about to open file /scratch/users/j/a/jabreu/flow_simple/flow/w143/t1/tmpdata/tmp_1WF1_EIG
 Expectation of eigenvalue derivatives (hartree) for nkpt=   2  k points:
  (in case of degenerate eigenvalues, averaged derivative)
 kpt#   1, nband= 18, wtk=  0.50000, kpt=  0.0000  0.0000  0.0000 (reduced coord)
   0.00000    0.00000   -0.00000   -0.00000   -0.00000   -0.00000    0.00000    0.00000
   0.00000   -0.00000    0.00000    0.00000    0.00000    0.00000    0.00000   -0.00000
  -0.00000   -0.00000
 prteigrs : prtvol=0 or 1, do not print more k-points.

 Eight components of 2nd-order total energy (hartree) are
 1,2,3: 0th-order hamiltonian combined with 1st-order wavefunctions
     kin0=   1.40256276E+01 eigvalue=   3.46569053E+00  local=  -5.63988851E+00
 4,5,6: 1st-order hamiltonian combined with 1st and 0th-order wfs
     kin1=  -4.99489431E+01  Hartree=   0.00000000E+00     xc=   0.00000000E+00
 7,8,9: eventually, occupation + non-local contributions
    edocc=   1.48440548E+01     enl0=  -1.19416022E-01   enl1=  -3.20319376E+00
 1-9 gives the relaxation energy (to be shifted if some occ is /=2.0)
   erelax=  -2.65760684E+01
  No Ewald or frozen-wf contrib.: the relaxation energy is the total one
 2DEtotal=   -0.2657606844E+02 Ha. Also 2DEtotal=   -0.723171599723E+03 eV
    (  non-var. 2DEtotal :   -2.6576068437E+01 Ha)

 Perturbation wavevector (in red.coord.)   0.000000  0.000000  0.000000
 Perturbation : derivative vs k along direction   2
 The set of symmetries contains only one element for this perturbation.
 symkpt : not enough symmetry to change the number of k points.

[...]

 Perturbation wavevector (in red.coord.)   0.000000  0.000000  0.000000
 Perturbation : derivative vs k along direction   3
 The set of symmetries contains only one element for this perturbation.
 symkpt : not enough symmetry to change the number of k points.

-inwffil : will read wavefunctions from disk file /scratch/users/j/a/jabreu/flow_simple/flow/w143/t1/indata/in_WFK

 Initialisation of the first-order wave-functions :
  ireadwf=   0

--- !BeginCycle
iteration_state: {dtset: 1, }
solver: {iscf: 7, nstep: 100, nline: 4, wfoptalg: 0, }
tolerances: {tolwfr: 1.00E-20, }
...

     iter   2DEtotal(Ha)        deltaE(Ha) residm    vres2
-ETOT  1  -26.573900273402     -2.657E+01 7.890E-02 0.000E+00
 ETOT  2  -26.576067763718     -2.167E-03 9.100E-05 0.000E+00
 ETOT  3  -26.576068609225     -8.455E-07 9.732E-07 0.000E+00
 ETOT  4  -26.576068609663     -4.380E-10 3.776E-09 0.000E+00
 ETOT  5  -26.576068609664     -4.547E-13 5.154E-11 0.000E+00
 ETOT  6  -26.576068609664      1.421E-14 2.391E-13 0.000E+00
 ETOT  7  -26.576068609664     -7.105E-15 3.486E-15 0.000E+00
 ETOT  8  -26.576068609664      0.000E+00 5.497E-17 0.000E+00
 ETOT  9  -26.576068609664     -7.105E-15 9.973E-19 0.000E+00
 ETOT 10  -26.576068609664      0.000E+00 2.786E-20 0.000E+00
 ETOT 11  -26.576068609664      7.105E-15 9.299E-21 0.000E+00

 At SCF step   11   max residual=  9.30E-21 < tolwfr=  1.00E-20 =>converged.

 ----iterations are completed or convergence reached----

 dfpt_looppert: DFPT cycle converged with prtwf=-1. Will skip output of the 1st-order WFK file.
 dfpt_looppert : ek2=    3.3498062752E+01
          f-sum rule ratio=    1.4910994569E+00
 prteigrs : about to open file /scratch/users/j/a/jabreu/flow_simple/flow/w143/t1/tmpdata/tmp_1WF1_EIG
 Expectation of eigenvalue derivatives (hartree) for nkpt=   2  k points:
  (in case of degenerate eigenvalues, averaged derivative)
 kpt#   1, nband= 18, wtk=  0.50000, kpt=  0.0000  0.0000  0.0000 (reduced coord)
  -0.00000    0.00000   -0.00000   -0.00000   -0.00000   -0.00000   -0.00000   -0.00000
  -0.00000   -0.00000   -0.00000   -0.00000   -0.00000   -0.00000   -0.00000    0.00000
   0.00000    0.00000
 prteigrs : prtvol=0 or 1, do not print more k-points.

 Eight components of 2nd-order total energy (hartree) are
 1,2,3: 0th-order hamiltonian combined with 1st-order wavefunctions
     kin0=   1.40256269E+01 eigvalue=   3.46569062E+00  local=  -5.63988804E+00
 4,5,6: 1st-order hamiltonian combined with 1st and 0th-order wfs
     kin1=  -4.99489432E+01  Hartree=   0.00000000E+00     xc=   0.00000000E+00
 7,8,9: eventually, occupation + non-local contributions
    edocc=   1.48440550E+01     enl0=  -1.19415814E-01   enl1=  -3.20319404E+00
 1-9 gives the relaxation energy (to be shifted if some occ is /=2.0)
   erelax=  -2.65760686E+01
  No Ewald or frozen-wf contrib.: the relaxation energy is the total one
 2DEtotal=   -0.2657606861E+02 Ha. Also 2DEtotal=   -0.723171604427E+03 eV
    (  non-var. 2DEtotal :   -2.6576068610E+01 Ha)

 CALCULATION OF EFFECTIVE MASSES
 NOTE : Additional infos (eff. mass eigenvalues, eigenvectors and, if degenerate, average mass) are available in stdout.

 COMMENTS:
 - At k-point ( 0.000, 0.000, 0.000), bands     7 through     9
   are DEGENERATE (effective mass tensor is therefore not defined).
   See Section IIIB Eqs. (67)-(70) and Appendix E of PRB 93 205147 (2016).
 - Angular average effective mass for Frohlich model is to be averaged over degenerate bands. See later.
 - Associated theta integrals calculated with ntheta=   1000 points.

 K-point ( 0.000, 0.000, 0.000) | band =     7
 Transport equivalent effective mass tensor:
             -0.1807349826              0.0000000000              0.0000000000
              0.0000000000             -0.1807349825             -0.0000000000
              0.0000000000             -0.0000000000             -0.1807349826
 Transport equivalent effective mass tensor eigenvalues:
             -0.1807349826             -0.1807349826             -0.1807349825
 Angular average effective mass 1/(<1/m>)=  -0.1662154080
 Angular average effective mass for Frohlich model (<m**0.5>)**2=  -0.1671457766
 Effective masses along directions: (cart. coord. / red. coord. -> eff. mass)
    1:   1.000000  0.000000  0.000000 /   0.948683  0.316228  0.000000 ->  -0.1577640641
    2:   0.000000  1.000000  0.000000 /   0.000000  1.000000  0.000000 ->  -0.1480376215
    3:   0.000000  0.000000  1.000000 /   0.408248  0.408248  0.816497 ->  -0.1600324396
    4:   0.577350  0.577350  0.577350 /   0.585539  0.688047  0.428644 ->  -0.1577444783
    5:   0.000000  0.707107  0.707107 /   0.289489  0.762222  0.578977 ->  -0.1743210228
    6:   0.707107  0.000000  0.707107 /   0.731423  0.422287  0.535439 ->  -0.1588711856
    7:   0.707107  0.707107  0.000000 /   0.616798  0.787122  0.000000 ->  -0.2012924019

[...]

 K-point ( 0.000, 0.000, 0.000) | band =     9
 Transport equivalent effective mass tensor:
            -40.8498838807              0.0000361382              0.0000000006
              0.0000361382            -40.8498704893             -0.0000000007
              0.0000000006             -0.0000000007            -40.8498172738
 Transport equivalent effective mass tensor eigenvalues:
            -40.8499139382            -40.8498404318            -40.8498172738
 Angular average effective mass 1/(<1/m>)=  -1.6602558103
 Angular average effective mass for Frohlich model (<m**0.5>)**2=  -2.1990039542
 Effective masses along directions: (cart. coord. / red. coord. -> eff. mass)
    1:   1.000000  0.000000  0.000000 /   0.948683  0.316228  0.000000 ->  -1.8437085789
    2:   0.000000  1.000000  0.000000 /   0.000000  1.000000  0.000000 ->  -1.5817001545
    3:   0.000000  0.000000  1.000000 /   0.408248  0.408248  0.816497 ->  -7.9412639913
    4:   0.577350  0.577350  0.577350 /   0.585539  0.688047  0.428644 ->  -2.3099110143
    5:   0.000000  0.707107  0.707107 /   0.289489  0.762222  0.578977 ->  -1.4715096758
    6:   0.707107  0.000000  0.707107 /   0.731423  0.422287  0.535439 ->  -3.4737107328
    7:   0.707107  0.707107  0.000000 /   0.616798  0.787122  0.000000 ->  -0.6895626954

 Angular average effective mass for Frohlich model, averaged over degenerate bands.
 Value of     (<<m**0.5>>)**2 =     8.395073E-01
 Absolute Value of <<m**0.5>> =     9.162463E-01

 K-point ( 0.500, 0.000, 0.500) | band =    10
 Effective mass tensor:
              0.3024151989             -0.0718357131              0.0879804212
             -0.0718357131              0.3532107187             -0.1244231049
              0.0879804212             -0.1244231049              0.4040062386
 Effective mass tensor eigenvalues:
              0.2516196790              0.2516196790              0.5563927982
 Angular average effective mass 1/(<1/m>)=   0.3078250571
 Angular average effective mass for Frohlich model (<m**0.5>)**2=   0.3189236875
 Effective masses along directions: (cart. coord. / red. coord. -> eff. mass)
    1:   1.000000  0.000000  0.000000 /   0.948683  0.316228  0.000000 ->   0.2768989931
    2:   0.000000  1.000000  0.000000 /   0.000000  1.000000  0.000000 ->   0.3078250571
    3:   0.000000  0.000000  1.000000 /   0.408248  0.408248  0.816497 ->   0.3465277610
    4:   0.577350  0.577350  0.577350 /   0.585539  0.688047  0.428644 ->   0.2656598410
    5:   0.000000  0.707107  0.707107 /   0.289489  0.762222  0.578977 ->   0.2527853484
    6:   0.707107  0.000000  0.707107 /   0.731423  0.422287  0.535439 ->   0.3816554902
    7:   0.707107  0.707107  0.000000 /   0.616798  0.787122  0.000000 ->   0.2536058738

 END OF EFFECTIVE MASSES SECTION

 ---- first-order wavefunction calculations are completed ----

 Total localisation tensor (bohr^2) in cartesian coordinates
  WARNING : still subject to testing - especially symmetries.
      direction              matrix element
   alpha     beta       real part   imaginary part
     1        1       4.1624299094    0.0000000000
     1        2       1.1773129684    0.0000000000
     1        3       2.8838160354    0.0000000000
     2        1       1.1773129684    0.0000000000
     2        2       3.3299439342    0.0000000000
     2        3       2.0391658777    0.0000000000
     3        1       2.8838160354    0.0000000000
     3        2       2.0391658777    0.0000000000
     3        3       7.4923738552    0.0000000000

 respfn : d/dk was computed, but no 2DTE, so no DDB output.

== END DATASET(S) ==============================================================

 -outvars: echo values of variables after computation  --------
            acell      1.0000000000E+00  1.0000000000E+00  1.0000000000E+00 Bohr
              amu      6.94100000E+00  2.43050000E+01  3.09737620E+01
             ecut      4.20000000E+01 Hartree
           etotal     -2.6576068610E+01
            fcart      0.0000000000E+00  0.0000000000E+00  0.0000000000E+00
                       0.0000000000E+00  0.0000000000E+00  0.0000000000E+00
                       0.0000000000E+00  0.0000000000E+00  0.0000000000E+00
-          fftalg         512
           irdden           1
           irdwfk           1
           istwfk        1    1
              ixc     -116133
              kpt      0.00000000E+00  0.00000000E+00  0.00000000E+00
                       5.00000000E-01  2.46519033E-32  5.00000000E-01
           kptopt           0
P           mkmem           2
P          mkqmem           2
P          mk1mem           2
            natom           3
            nband          18
           nbdbuf           4
            ngfft          48      48      48
             nkpt           2
            nstep         100
             nsym          24
           ntypat           3
              occ      2.000000  2.000000  2.000000  2.000000  2.000000  2.000000
                       2.000000  2.000000  2.000000  0.000000  0.000000  0.000000
                       0.000000  0.000000  0.000000  0.000000  0.000000  0.000000
        optdriver           1
            prtwf          -1
            rfdir           1       1       1
           rfelfd           2
            rprim      6.9087190825E+00  0.0000000000E+00  3.9887508221E+00
                       2.3029063608E+00  6.5136028168E+00  3.9887508221E+00
                       0.0000000000E+00  0.0000000000E+00  7.9775016441E+00
          spgroup         216
           strten      0.0000000000E+00  0.0000000000E+00  0.0000000000E+00
                       0.0000000000E+00  0.0000000000E+00  0.0000000000E+00
           symrel      1  0  0   0  1  0   0  0  1       0 -1  1   0 -1  0   1 -1  0
                      -1  0  0  -1  0  1  -1  1  0       0  1 -1   1  0 -1   0  0 -1
                      -1  0  0  -1  1  0  -1  0  1       0 -1  1   1 -1  0   0 -1  0
                       1  0  0   0  0  1   0  1  0       0  1 -1   0  0 -1   1  0 -1
                      -1  0  1  -1  1  0  -1  0  0       0 -1  0   1 -1  0   0 -1  1
                       1  0 -1   0  0 -1   0  1 -1       0  1  0   0  0  1   1  0  0
                       1  0 -1   0  1 -1   0  0 -1       0 -1  0   0 -1  1   1 -1  0
                      -1  0  1  -1  0  0  -1  1  0       0  1  0   1  0  0   0  0  1
                       0  0 -1   0  1 -1   1  0 -1       1 -1  0   0 -1  1   0 -1  0
                       0  0  1   1  0  0   0  1  0      -1  1  0  -1  0  0  -1  0  1
                       0  0  1   0  1  0   1  0  0       1 -1  0   0 -1  0   0 -1  1
                       0  0 -1   1  0 -1   0  1 -1      -1  1  0  -1  0  1  -1  0  0
           tolwfr      1.00000000E-20
            typat      1  2  3
           useylm           1
              wtk        0.50000    0.50000
           xangst      1.2186455597E+00  8.6171253911E-01  2.1107560258E+00
                       3.6559366790E+00  2.5851376173E+00  6.3322680774E+00
                       0.0000000000E+00  0.0000000000E+00  0.0000000000E+00
            xcart      2.3029063608E+00  1.6284007042E+00  3.9887508221E+00
                       6.9087190825E+00  4.8852021126E+00  1.1966252466E+01
                       0.0000000000E+00  0.0000000000E+00  0.0000000000E+00
             xred      2.5000000000E-01  2.5000000000E-01  2.5000000000E-01
                       7.5000000000E-01  7.5000000000E-01  7.5000000000E-01
                       0.0000000000E+00  0.0000000000E+00  0.0000000000E+00
            znucl        3.00000   12.00000   15.00000

- Timing analysis has been suppressed with timopt=0

 Suggested references for the acknowledgment of ABINIT usage.

 Calculation completed.
.Delivered  14 WARNINGs and   9 COMMENTs to log file.