.Version 9.5.2 of ABINIT

 ABINIT is a project of the Universite Catholique de Louvain,
 Corning Inc. and other collaborators, see ~abinit/doc/developers/contributors.txt .
 acknowledgments of the ABINIT effort.

.Starting date : Wed 26 May 2021.
- ( at 02h54 )

- input  file    -> /scratch/users/j/a/jabreu/flow_simple_11atoms/flow/w272/t1/run.abi
- output file    -> /scratch/users/j/a/jabreu/flow_simple_11atoms/flow/w272/t1/run.abo
- root for input  files -> /scratch/users/j/a/jabreu/flow_simple_11atoms/flow/w272/t1/indata/in
- root for output files -> /scratch/users/j/a/jabreu/flow_simple_11atoms/flow/w272/t1/outdata/out

 Symmetries : space group C2/c (# 15); Bravais mC (1-face-center monocl.)
     intxc =       0      iscf =       7    lmnmax =      13     lnmax =       5
     mgfft =      72  mpssoang =       3    mqgrid =    3164     natom =      12
  nloc_mem =       1    nspden =       1   nspinor =       1    nsppol =       1
      nsym =       4    n1xccc =    2501    ntypat =       3    occopt =       1
   xclevel =       2
-    mband =          37        mffmem =           1         mkmem =           2
-   mkqmem =           2        mk1mem =           2           mpw =       10936
      nfft =      259200          nkpt =           2
  Rough estimation (10% accuracy) of disk space for files :

------------- Echo of variables that govern the present computation ------------
-
- outvars: echo of selected default values
-   iomode0 =  0 , fftalg0 =512 , wfoptalg0 =  0
-
- outvars: echo of global parameters not present in the input file
-  max_nthreads =    0
-
 -outvars: echo values of preprocessed input variables --------
            acell      1.0000000000E+00  1.0000000000E+00  1.0000000000E+00 Bohr
              amu      6.94100000E+00  1.20110000E+01  1.59994000E+01
             ecut      4.40000000E+01 Hartree
-          fftalg         512
           irdden           1
           irdwfk           1
           istwfk        0    1
              ixc     -116133
              kpt      3.44828650E-01 -3.44828650E-01  0.00000000E+00
                       0.00000000E+00  0.00000000E+00  0.00000000E+00
           kptopt           0
P           mkmem           2
P          mkqmem           2
P          mk1mem           2
            natom          12
            nband          37
           nbdbuf           4
            ngfft          60      60      72
             nkpt           2
            nstep        2000
             nsym           4
           ntypat           3
              occ      2.000000  2.000000  2.000000  2.000000  2.000000  2.000000
                       2.000000  2.000000  2.000000  2.000000  2.000000  2.000000
                       2.000000  2.000000  2.000000  2.000000  2.000000  2.000000
                       2.000000  2.000000  2.000000  2.000000  2.000000  2.000000
                       2.000000  2.000000  2.000000  2.000000  0.000000  0.000000
                       0.000000  0.000000  0.000000  0.000000  0.000000  0.000000
                       0.000000
        optdriver           1
            prtwf          -1
            rfdir           1       1       1
           rfelfd           2
            rprim      8.5744773021E+00  0.0000000000E+00  3.2377614471E+00
                       3.4144423741E+00  7.8653190831E+00  3.2377614471E+00
                       0.0000000000E+00  0.0000000000E+00  1.1626263118E+01
          spgroup          15
           symrel      1  0  0   0  1  0   0  0  1      -1  0  0   0 -1  0   0  0 -1
                       0 -1  0  -1  0  0   0  0 -1       0  1  0   1  0  0   0  0  1
            tnons      0.0000000  0.0000000  0.0000000     0.0000000  0.0000000 -0.0000000
                       0.0000000  0.0000000  0.5000000     0.0000000  0.0000000  0.5000000
           tolwfr      1.00000000E-20
            typat      1  1  1  1  2  2  3  3  3  3  3  3
           useylm           1
              wtk        0.50000    0.50000
           xangst      4.2808843055E+00  3.1170656326E+00  6.4713092558E+00
                       1.7803057135E+00  1.4765634815E+00  6.1839200682E+00
                       2.0633787428E+00  1.0450819644E+00  3.1077433366E+00
                       4.5639573347E+00  2.6855841155E+00  3.3951325243E+00
                       1.9851760686E+00  3.8903218996E+00  3.2514379304E+00
                       4.3590869797E+00  2.7182569742E-01  6.3276146620E+00
                       2.6854069084E+00  2.8229766077E+00  3.2514379304E+00
                       3.6588561399E+00  1.3391709894E+00  6.3276146620E+00
                       7.5470096226E-01  8.8522636168E-01  1.6523268095E+00
                       5.2317205102E+00  3.8223706780E+00  4.8505490514E+00
                       5.5895620860E+00  3.2769212354E+00  7.9267257829E+00
                       1.1125425381E+00  3.3977691909E-01  4.7285035411E+00
            xcart      8.0896989439E+00  5.8904003839E+00  1.2229002215E+01
                       3.3642902314E+00  2.7903005979E+00  1.1685915357E+01
                       3.8992207323E+00  1.9749186992E+00  5.8727837975E+00
                       8.6246294448E+00  5.0750184852E+00  6.4158706557E+00
                       3.7514390952E+00  7.3516429591E+00  6.1443272266E+00
                       8.2374805810E+00  5.1367612400E-01  1.1957458786E+01
                       5.0746836122E+00  5.3346526681E+00  6.1443272266E+00
                       6.9142360640E+00  2.5306664150E+00  1.1957458786E+01
                       1.4261781309E+00  1.6728353892E+00  3.1224451520E+00
                       9.8865189680E+00  7.2232337598E+00  9.1662093012E+00
                       1.0562741545E+01  6.1924836939E+00  1.4979340860E+01
                       2.1024007082E+00  6.4208532335E-01  8.9355767110E+00
             xred      6.4524000000E-01  7.4890800000E-01  6.6359100000E-01
                       2.5109200000E-01  3.5476000000E-01  8.3640900000E-01
                       3.5476000000E-01  2.5109200000E-01  3.3640900000E-01
                       7.4890800000E-01  6.4524000000E-01  1.6359100000E-01
                       6.5309000000E-02  9.3469100000E-01  2.5000000000E-01
                       9.3469100000E-01  6.5309000000E-02  7.5000000000E-01
                       3.2175000000E-01  6.7825000000E-01  2.5000000000E-01
                       6.7825000000E-01  3.2175000000E-01  7.5000000000E-01
                       8.1635000000E-02  2.1268500000E-01  1.8660400000E-01
                       7.8731500000E-01  9.1836500000E-01  3.1339600000E-01
                       9.1836500000E-01  7.8731500000E-01  8.1339600000E-01
                       2.1268500000E-01  8.1635000000E-02  6.8660400000E-01
            znucl        3.00000    6.00000    8.00000

 chkinp: Checking input parameters for consistency.

== DATASET  1 ==================================================================
-   mpi_nproc: 1, omp_nthreads: -1 (-1 if OMP is not activated)

--- !DatasetInfo
iteration_state: {dtset: 1, }
dimensions: {natom: 12, nkpt: 2, mband: 37, nsppol: 1, nspinor: 1, nspden: 1, mpw: 10936, }
cutoff_energies: {ecut:  44.0, pawecutdg:  -1.0, }
electrons: {nelect:   5.60000000E+01, charge:   0.00000000E+00, occopt:   1.00000000E+00, tsmear:   1.00000000E-02, }
meta: {optdriver: 1, rfelfd: 2, }
...

 Real(R)+Recip(G) space primitive vectors, cartesian coordinates (Bohr,Bohr^-1):
 R(1)=  8.5744773  0.0000000  3.2377614  G(1)=  0.1166252 -0.0506286  0.0000000
 R(2)=  3.4144424  7.8653191  3.2377614  G(2)=  0.0000000  0.1271404  0.0000000
 R(3)=  0.0000000  0.0000000 11.6262631  G(3)= -0.0324786 -0.0213075  0.0860122
 Unit cell volume ucvol=  7.8408681E+02 bohr^3
 Angles (23,13,12)=  6.93132366E+01  6.93132366E+01  6.17507335E+01 degrees

 getcut: wavevector=  0.0000  0.0000  0.0000  ngfft=  60  60  72
         ecut(hartree)=     44.000   => boxcut(ratio)=   2.07396

--- Pseudopotential description ------------------------------------------------
- pspini: atom type   1  psp file is /scratch/users/j/a/jabreu/pseudos/PBEsol/Li.psp8
- pspatm: opening atomic psp file    /scratch/users/j/a/jabreu/pseudos/PBEsol/Li.psp8
- Li    ONCVPSP-3.3.0  r_core=   1.40824   1.10935
-  3.00000   3.00000    180112                znucl, zion, pspdat
    8 -116133    1    4       400   0.00000   pspcod,pspxc,lmax,lloc,mmax,r2well
    3.99000000000000    0.00000000000000    0.00000000000000   rchrg,fchrg,qchrg
     nproj     2     2
     extension_switch     1
  pspatm : epsatm=    2.60859637
         --- l  ekb(1:nproj) -->
             0   -4.855856   -1.482423
             1   -2.171544   -0.427615
 pspatm: atomic psp has been read  and splines computed

- pspini: atom type   2  psp file is /scratch/users/j/a/jabreu/pseudos/PBEsol/C.psp8
- pspatm: opening atomic psp file    /scratch/users/j/a/jabreu/pseudos/PBEsol/C.psp8
- C     ONCVPSP-3.3.0  r_core=   1.20440   1.26326
-  6.00000   4.00000    180112                znucl, zion, pspdat
    8 -116133    1    4       600   0.00000   pspcod,pspxc,lmax,lloc,mmax,r2well
    5.99000000000000    4.00000000000000    0.00000000000000   rchrg,fchrg,qchrg
     nproj     2     2
     extension_switch     1
  pspatm : epsatm=    4.34909529
         --- l  ekb(1:nproj) -->
             0    6.468939    0.390031
             1   -4.179695   -0.878453
 pspatm: atomic psp has been read  and splines computed

- pspini: atom type   3  psp file is /scratch/users/j/a/jabreu/pseudos/PBEsol/O.psp8
- pspatm: opening atomic psp file    /scratch/users/j/a/jabreu/pseudos/PBEsol/O.psp8
- O     ONCVPSP-3.3.0  r_core=   1.35509   1.45563   1.26150
-  8.00000   6.00000    180112                znucl, zion, pspdat
    8 -116133    2    4       600   0.00000   pspcod,pspxc,lmax,lloc,mmax,r2well
    5.99000000000000    4.00000000000000    0.00000000000000   rchrg,fchrg,qchrg
     nproj     2     2     1
     extension_switch     1
  pspatm : epsatm=    6.22910522
         --- l  ekb(1:nproj) -->
             0    6.050032    0.820363
             1   -4.739617   -1.153841
             2   -1.335834
 pspatm: atomic psp has been read  and splines computed

   3.16440361E+03                                ecore*ucvol(ha*bohr**3)

 ==>  initialize data related to q vector <==

 The list of irreducible perturbations for this q vector is:
    1)    idir= 1    ipert=  13
    2)    idir= 2    ipert=  13
    3)    idir= 3    ipert=  13

 Perturbation wavevector (in red.coord.)   0.000000  0.000000  0.000000
 Perturbation : derivative vs k along direction   1

 dfpt_looppert : COMMENT -
  In a d/dk calculation, iscf is set to -3 automatically.
 The set of symmetries contains only one element for this perturbation.
 symkpt : not enough symmetry to change the number of k points.

 Initialisation of the first-order wave-functions :
  ireadwf=   0

--- !BeginCycle
iteration_state: {dtset: 1, }
solver: {iscf: 7, nstep: 2000, nline: 4, wfoptalg: 0, }
tolerances: {tolwfr: 1.00E-20, }
...

     iter   2DEtotal(Ha)        deltaE(Ha) residm    vres2
-ETOT  1  -37.244831291883     -3.724E+01 8.591E-02 0.000E+00
 ETOT  2  -37.290370453515     -4.554E-02 3.474E-03 0.000E+00
 ETOT  3  -37.290571243708     -2.008E-04 4.616E-04 0.000E+00
[...]
 ETOT 17  -37.290572443593      0.000E+00 1.668E-13 0.000E+00
 ETOT 18  -37.290572443593     -7.105E-15 4.354E-14 0.000E+00
 ETOT 19  -37.290572443593      0.000E+00 8.397E-15 0.000E+00
 ETOT 20  -37.290572443593      0.000E+00 2.205E-15 0.000E+00
 ETOT 21  -37.290572443593      0.000E+00 4.233E-16 0.000E+00
 ETOT 22  -37.290572443593     -1.421E-14 1.118E-16 0.000E+00
 ETOT 23  -37.290572443593      1.421E-14 2.136E-17 0.000E+00
 ETOT 24  -37.290572443593      0.000E+00 5.675E-18 0.000E+00
 ETOT 25  -37.290572443593      0.000E+00 1.079E-18 0.000E+00
 ETOT 26  -37.290572443593      0.000E+00 2.882E-19 0.000E+00
 ETOT 27  -37.290572443593     -7.105E-15 5.455E-20 0.000E+00
 ETOT 28  -37.290572443593      7.105E-15 1.465E-20 0.000E+00
 ETOT 29  -37.290572443593      0.000E+00 9.868E-21 0.000E+00

 At SCF step   29   max residual=  9.87E-21 < tolwfr=  1.00E-20 =>converged.

 ----iterations are completed or convergence reached----

 dfpt_looppert: DFPT cycle converged with prtwf=-1. Will skip output of the 1st-order WFK file.
 dfpt_looppert : ek2=    7.1473502938E+01
          f-sum rule ratio=    1.0149982654E+00
 prteigrs : about to open file /scratch/users/j/a/jabreu/flow_simple_11atoms/flow/w272/t1/tmpdata/tmp_1WF1_EIG
 Expectation of eigenvalue derivatives (hartree) for nkpt=   2  k points:
  (in case of degenerate eigenvalues, averaged derivative)
 kpt#   1, nband= 37, wtk=  0.50000, kpt=  0.3448 -0.3448  0.0000 (reduced coord)
  -0.00093    0.00097    0.00020   -0.00024    0.00154   -0.00071   -0.00532    0.00261
   0.00028    0.00139   -0.00545    0.01370   -0.00600    0.02001   -0.02810   -0.02503
   0.00626   -0.00604    0.00966    0.00547    0.00656   -0.00968    0.02683   -0.00187
  -0.00698    0.02099    0.01072   -0.00035   -0.03148   -0.02127   -0.05051    0.10815
   0.06782    0.02649   -0.01083   -0.03038   -0.03907
 prteigrs : prtvol=0 or 1, do not print more k-points.

 Eight components of 2nd-order total energy (hartree) are
 1,2,3: 0th-order hamiltonian combined with 1st-order wavefunctions
     kin0=   5.46261462E+01 eigvalue=   4.87401293E+00  local=  -2.39869193E+01
 4,5,6: 1st-order hamiltonian combined with 1st and 0th-order wfs
     kin1=  -7.25454815E+01  Hartree=   0.00000000E+00     xc=   0.00000000E+00
 7,8,9: eventually, occupation + non-local contributions
    edocc=   6.72937770E+00     enl0=  -4.95204506E+00   enl1=  -2.03566338E+00
 1-9 gives the relaxation energy (to be shifted if some occ is /=2.0)
   erelax=  -3.72905724E+01
  No Ewald or frozen-wf contrib.: the relaxation energy is the total one
 2DEtotal=   -0.3729057244E+02 Ha. Also 2DEtotal=   -0.101472808112E+04 eV
    (  non-var. 2DEtotal :   -3.7290572443E+01 Ha)

 Perturbation wavevector (in red.coord.)   0.000000  0.000000  0.000000
 Perturbation : derivative vs k along direction   2
 The set of symmetries contains only one element for this perturbation.
 symkpt : not enough symmetry to change the number of k points.

[...]

 Perturbation wavevector (in red.coord.)   0.000000  0.000000  0.000000
 Perturbation : derivative vs k along direction   3
 The set of symmetries contains only one element for this perturbation.
 symkpt : not enough symmetry to change the number of k points.

 Initialisation of the first-order wave-functions :
  ireadwf=   0

--- !BeginCycle
iteration_state: {dtset: 1, }
solver: {iscf: 7, nstep: 2000, nline: 4, wfoptalg: 0, }
tolerances: {tolwfr: 1.00E-20, }
...

     iter   2DEtotal(Ha)        deltaE(Ha) residm    vres2
-ETOT  1  -20.594404908013     -2.059E+01 5.107E-02 0.000E+00
 ETOT  2  -20.612360803374     -1.796E-02 3.475E-03 0.000E+00
 ETOT  3  -20.612405250235     -4.445E-05 4.069E-04 0.000E+00
 ETOT  4  -20.612405440358     -1.901E-07 2.809E-05 0.000E+00
 ETOT  5  -20.612405441488     -1.130E-09 3.893E-06 0.000E+00
 ETOT  6  -20.612405441496     -7.766E-12 2.911E-07 0.000E+00
 ETOT  7  -20.612405441496     -6.040E-14 4.428E-08 0.000E+00
 ETOT  8  -20.612405441496      2.842E-14 3.294E-09 0.000E+00
 ETOT  9  -20.612405441496     -1.066E-14 5.377E-10 0.000E+00
 ETOT 10  -20.612405441496     -1.776E-14 3.887E-11 0.000E+00
 ETOT 11  -20.612405441496      7.105E-15 6.624E-12 0.000E+00
 ETOT 12  -20.612405441496      3.553E-15 4.673E-13 0.000E+00
 ETOT 13  -20.612405441496     -7.105E-15 8.211E-14 0.000E+00
 ETOT 14  -20.612405441496      1.421E-14 5.675E-15 0.000E+00
 ETOT 15  -20.612405441496     -1.421E-14 1.025E-15 0.000E+00
 ETOT 16  -20.612405441496      1.421E-14 6.961E-17 0.000E+00
 ETOT 17  -20.612405441496     -1.776E-14 1.292E-17 0.000E+00
 ETOT 18  -20.612405441496      1.776E-14 8.728E-19 0.000E+00
 ETOT 19  -20.612405441496     -1.776E-14 1.696E-19 0.000E+00
 ETOT 20  -20.612405441496      1.776E-14 1.237E-20 0.000E+00
 ETOT 21  -20.612405441496      0.000E+00 9.986E-21 0.000E+00

 At SCF step   21   max residual=  9.99E-21 < tolwfr=  1.00E-20 =>converged.

 ----iterations are completed or convergence reached----

 dfpt_looppert: DFPT cycle converged with prtwf=-1. Will skip output of the 1st-order WFK file.
 dfpt_looppert : ek2=    3.9382865979E+01
          f-sum rule ratio=    1.0182585538E+00
 prteigrs : about to open file /scratch/users/j/a/jabreu/flow_simple_11atoms/flow/w272/t1/tmpdata/tmp_1WF1_EIG
 Expectation of eigenvalue derivatives (hartree) for nkpt=   2  k points:
  (in case of degenerate eigenvalues, averaged derivative)
 kpt#   1, nband= 37, wtk=  0.50000, kpt=  0.3448 -0.3448  0.0000 (reduced coord)
  -0.00000   -0.00000    0.00000   -0.00000    0.00000    0.00000    0.00000   -0.00000
  -0.00000    0.00000   -0.00000    0.00000   -0.00000   -0.00000   -0.00000   -0.00000
   0.00000    0.00000   -0.00000    0.00000   -0.00000    0.00000   -0.00000    0.00000
  -0.00000    0.00000    0.00000   -0.00000    0.00000   -0.00000   -0.00000   -0.00000
  -0.00000    0.00000   -0.00000    0.00000   -0.00003
 prteigrs : prtvol=0 or 1, do not print more k-points.

 Eight components of 2nd-order total energy (hartree) are
 1,2,3: 0th-order hamiltonian combined with 1st-order wavefunctions
     kin0=   2.69549227E+01 eigvalue=   2.63056815E+00  local=  -1.03118369E+01
 4,5,6: 1st-order hamiltonian combined with 1st and 0th-order wfs
     kin1=  -4.01019402E+01  Hartree=   0.00000000E+00     xc=   0.00000000E+00
 7,8,9: eventually, occupation + non-local contributions
    edocc=   3.31564237E+00     enl0=  -1.97689089E+00   enl1=  -1.12287073E+00
 1-9 gives the relaxation energy (to be shifted if some occ is /=2.0)
   erelax=  -2.06124054E+01
  No Ewald or frozen-wf contrib.: the relaxation energy is the total one
 2DEtotal=   -0.2061240544E+02 Ha. Also 2DEtotal=   -0.560892076747E+03 eV
    (  non-var. 2DEtotal :   -2.0612405441E+01 Ha)

 CALCULATION OF EFFECTIVE MASSES
 NOTE : Additional infos (eff. mass eigenvalues, eigenvectors and, if degenerate, average mass) are available in stdout.

 K-point ( 0.345,-0.345, 0.000) | band =    28
 Effective mass tensor:
             -5.0115118159              3.5279154194             -2.7229263645
              3.5279154194             -8.0745305923             -1.7863809461
             -2.7229263645             -1.7863809461            -29.7274649769
 Effective mass tensor eigenvalues:
            -30.1142827934            -10.3890201917             -2.3102044000
 Angular average effective mass 1/(<1/m>)=  -5.3349984842
 Angular average effective mass for Frohlich model (<m**0.5>)**2=  -7.2366337229
 Effective masses along directions: (cart. coord. / red. coord. -> eff. mass)
    1:   1.000000  0.000000  0.000000 /   0.929049  0.369957  0.000000 ->  -3.0516507256
    2:   0.000000  1.000000  0.000000 /   0.000000  1.000000  0.000000 ->  -5.1055316362
    3:   0.000000  0.000000  1.000000 /   0.259115  0.259115  0.930440 -> -25.7951707576
    4:   0.577350  0.577350  0.577350 /   0.536113  0.658896  0.527673 ->  -4.0741030359
    5:   0.000000  0.707107  0.707107 /   0.197435  0.677053  0.708956 -> -10.9123731004
    6:   0.707107  0.000000  0.707107 /   0.661409  0.372481  0.650996 ->  -6.9401113007
    7:   0.707107  0.707107  0.000000 /   0.605166  0.796099  0.000000 ->  -2.4177224044

--- !WARNING
src_file: m_efmas.F90
src_line: 0
message: |

    Band(s)    29,
    are not band extrema, but saddle points;
    the transport equivalent formalism breaks down in these conditions.
    The associated tensor(s) will therefore not be printed.
...

 K-point ( 0.000, 0.000, 0.000) | band =    29
 Effective mass tensor:
     *** SADDLE POINT: TRANSPORT EQV. EFF. MASS NOT DEFINED (see WARNING above) ***
 Angular average effective mass 1/(<1/m>)=   2.1846400778
 Angular average effective mass for Frohlich model (<m**0.5>)**2=   4.4767702184
 Effective masses along directions: (cart. coord. / red. coord. -> eff. mass)
    1:   1.000000  0.000000  0.000000 /   0.929049  0.369957  0.000000 ->   3.4392460593
    2:   0.000000  1.000000  0.000000 /   0.000000  1.000000  0.000000 ->   1.6757086891
    3:   0.000000  0.000000  1.000000 /   0.259115  0.259115  0.930440 ->   2.0588837535
    4:   0.577350  0.577350  0.577350 /   0.536113  0.658896  0.527673 -> -16.2950630536
    5:   0.000000  0.707107  0.707107 /   0.197435  0.677053  0.708956 ->   2.6854108160
    6:   0.707107  0.000000  0.707107 /   0.661409  0.372481  0.650996 ->   7.6418375511
    7:   0.707107  0.707107  0.000000 /   0.605166  0.796099  0.000000 ->  10.9506889320

 END OF EFFECTIVE MASSES SECTION

 ---- first-order wavefunction calculations are completed ----

 Total localisation tensor (bohr^2) in cartesian coordinates
  WARNING : still subject to testing - especially symmetries.
      direction              matrix element
   alpha     beta       real part   imaginary part
     1        1       0.8064944641    0.0000000000
     1        2       0.2542728355    0.0000000000
     1        3       0.3675262284    0.0000000000
     2        1       0.2542728355    0.0000000000
     2        2       0.5857287270    0.0000000000
     2        3       0.2411154424    0.0000000000
     3        1       0.3675262284    0.0000000000
     3        2       0.2411154424    0.0000000000
     3        3       0.8039425617    0.0000000000

 respfn : d/dk was computed, but no 2DTE, so no DDB output.

== END DATASET(S) ==============================================================

 -outvars: echo values of variables after computation  --------
            acell      1.0000000000E+00  1.0000000000E+00  1.0000000000E+00 Bohr
              amu      6.94100000E+00  1.20110000E+01  1.59994000E+01
             ecut      4.40000000E+01 Hartree
           etotal     -2.0612405441E+01
            fcart      0.0000000000E+00  0.0000000000E+00  0.0000000000E+00
                       0.0000000000E+00  0.0000000000E+00  0.0000000000E+00
                       0.0000000000E+00  0.0000000000E+00  0.0000000000E+00
                       0.0000000000E+00  0.0000000000E+00  0.0000000000E+00
                       0.0000000000E+00  0.0000000000E+00  0.0000000000E+00
                       0.0000000000E+00  0.0000000000E+00  0.0000000000E+00
                       0.0000000000E+00  0.0000000000E+00  0.0000000000E+00
                       0.0000000000E+00  0.0000000000E+00  0.0000000000E+00
                       0.0000000000E+00  0.0000000000E+00  0.0000000000E+00
                       0.0000000000E+00  0.0000000000E+00  0.0000000000E+00
                       0.0000000000E+00  0.0000000000E+00  0.0000000000E+00
                       0.0000000000E+00  0.0000000000E+00  0.0000000000E+00
-          fftalg         512
           irdden           1
           irdwfk           1
           istwfk        0    1
              ixc     -116133
              kpt      3.44828650E-01 -3.44828650E-01  0.00000000E+00
                       0.00000000E+00  0.00000000E+00  0.00000000E+00
           kptopt           0
P           mkmem           2
P          mkqmem           2
P          mk1mem           2
            natom          12
            nband          37
           nbdbuf           4
            ngfft          60      60      72
             nkpt           2
            nstep        2000
             nsym           4
           ntypat           3
              occ      2.000000  2.000000  2.000000  2.000000  2.000000  2.000000
                       2.000000  2.000000  2.000000  2.000000  2.000000  2.000000
                       2.000000  2.000000  2.000000  2.000000  2.000000  2.000000
                       2.000000  2.000000  2.000000  2.000000  2.000000  2.000000
                       2.000000  2.000000  2.000000  2.000000  0.000000  0.000000
                       0.000000  0.000000  0.000000  0.000000  0.000000  0.000000
                       0.000000
        optdriver           1
            prtwf          -1
            rfdir           1       1       1
           rfelfd           2
            rprim      8.5744773021E+00  0.0000000000E+00  3.2377614471E+00
                       3.4144423741E+00  7.8653190831E+00  3.2377614471E+00
                       0.0000000000E+00  0.0000000000E+00  1.1626263118E+01
          spgroup          15
           strten      0.0000000000E+00  0.0000000000E+00  0.0000000000E+00
                       0.0000000000E+00  0.0000000000E+00  0.0000000000E+00
           symrel      1  0  0   0  1  0   0  0  1      -1  0  0   0 -1  0   0  0 -1
                       0 -1  0  -1  0  0   0  0 -1       0  1  0   1  0  0   0  0  1
            tnons      0.0000000  0.0000000  0.0000000     0.0000000  0.0000000 -0.0000000
                       0.0000000  0.0000000  0.5000000     0.0000000  0.0000000  0.5000000
           tolwfr      1.00000000E-20
            typat      1  1  1  1  2  2  3  3  3  3  3  3
           useylm           1
              wtk        0.50000    0.50000
           xangst      4.2808843055E+00  3.1170656326E+00  6.4713092558E+00
                       1.7803057135E+00  1.4765634815E+00  6.1839200682E+00
                       2.0633787428E+00  1.0450819644E+00  3.1077433366E+00
                       4.5639573347E+00  2.6855841155E+00  3.3951325243E+00
                       1.9851760686E+00  3.8903218996E+00  3.2514379304E+00
                       4.3590869797E+00  2.7182569742E-01  6.3276146620E+00
                       2.6854069084E+00  2.8229766077E+00  3.2514379304E+00
                       3.6588561399E+00  1.3391709894E+00  6.3276146620E+00
                       7.5470096226E-01  8.8522636168E-01  1.6523268095E+00
                       5.2317205102E+00  3.8223706780E+00  4.8505490514E+00
                       5.5895620860E+00  3.2769212354E+00  7.9267257829E+00
                       1.1125425381E+00  3.3977691909E-01  4.7285035411E+00
            xcart      8.0896989439E+00  5.8904003839E+00  1.2229002215E+01
                       3.3642902314E+00  2.7903005979E+00  1.1685915357E+01
                       3.8992207323E+00  1.9749186992E+00  5.8727837975E+00
                       8.6246294448E+00  5.0750184852E+00  6.4158706557E+00
                       3.7514390952E+00  7.3516429591E+00  6.1443272266E+00
                       8.2374805810E+00  5.1367612400E-01  1.1957458786E+01
                       5.0746836122E+00  5.3346526681E+00  6.1443272266E+00
                       6.9142360640E+00  2.5306664150E+00  1.1957458786E+01
                       1.4261781309E+00  1.6728353892E+00  3.1224451520E+00
                       9.8865189680E+00  7.2232337598E+00  9.1662093012E+00
                       1.0562741545E+01  6.1924836939E+00  1.4979340860E+01
                       2.1024007082E+00  6.4208532335E-01  8.9355767110E+00
             xred      6.4524000000E-01  7.4890800000E-01  6.6359100000E-01
                       2.5109200000E-01  3.5476000000E-01  8.3640900000E-01
                       3.5476000000E-01  2.5109200000E-01  3.3640900000E-01
                       7.4890800000E-01  6.4524000000E-01  1.6359100000E-01
                       6.5309000000E-02  9.3469100000E-01  2.5000000000E-01
                       9.3469100000E-01  6.5309000000E-02  7.5000000000E-01
                       3.2175000000E-01  6.7825000000E-01  2.5000000000E-01
                       6.7825000000E-01  3.2175000000E-01  7.5000000000E-01
                       8.1635000000E-02  2.1268500000E-01  1.8660400000E-01
                       7.8731500000E-01  9.1836500000E-01  3.1339600000E-01
                       9.1836500000E-01  7.8731500000E-01  8.1339600000E-01
                       2.1268500000E-01  8.1635000000E-02  6.8660400000E-01
            znucl        3.00000    6.00000    8.00000

- Timing analysis has been suppressed with timopt=0

 Suggested references for the acknowledgment of ABINIT usage.

 Calculation completed.
.Delivered   3 WARNINGs and   5 COMMENTs to log file.