.Version 9.5.1 of ABINIT

 ABINIT is a project of the Universite Catholique de Louvain,
 Corning Inc. and other collaborators, see ~abinit/doc/developers/contributors.txt .
 acknowledgments of the ABINIT effort.

.Starting date : Wed 19 May 2021.
- ( at 01h24 )

- input  file    -> /scratch/users/j/a/jabreu/flow_simple_8atoms/flow/w435/t1/run.abi
- output file    -> /scratch/users/j/a/jabreu/flow_simple_8atoms/flow/w435/t1/run.abo
- root for input  files -> /scratch/users/j/a/jabreu/flow_simple_8atoms/flow/w435/t1/indata/in
- root for output files -> /scratch/users/j/a/jabreu/flow_simple_8atoms/flow/w435/t1/outdata/out

 Symmetries : space group P6_3/m m c (#194); Bravais hP (primitive hexag.)
     intxc =       0      iscf =       7    lmnmax =      18     lnmax =       6
     mgfft =     135  mpssoang =       3    mqgrid =    6493     natom =       8
  nloc_mem =       1    nspden =       1   nspinor =       1    nsppol =       1
      nsym =      24    n1xccc =    2501    ntypat =       3    occopt =       1
   xclevel =       2
-    mband =          43        mffmem =           1         mkmem =           2
-   mkqmem =           2        mk1mem =           2           mpw =        8173
      nfft =      174960          nkpt =           2
  Rough estimation (10% accuracy) of disk space for files :

------------- Echo of variables that govern the present computation ------------
-
- outvars: echo of selected default values
-   iomode0 =  0 , fftalg0 =512 , wfoptalg0 =  0
-
- outvars: echo of global parameters not present in the input file
-  max_nthreads =    0
-
 -outvars: echo values of preprocessed input variables --------
            acell      1.0000000000E+00  1.0000000000E+00  1.0000000000E+00 Bohr
              amu      2.29897680E+01  9.29063800E+01  1.59994000E+01
             ecut      4.40000000E+01 Hartree
-          fftalg         512
           irdden           1
           irdwfk           1
           istwfk        1    0
              ixc     -116133
              kpt      0.00000000E+00  0.00000000E+00  0.00000000E+00
                       7.75193798E-02  7.75193798E-02  0.00000000E+00
           kptopt           0
P           mkmem           2
P          mkqmem           2
P          mk1mem           2
            natom           8
            nband          43
           nbdbuf           4
            ngfft          36      36     135
             nkpt           2
            nstep        2000
             nsym          24
           ntypat           3
              occ      2.000000  2.000000  2.000000  2.000000  2.000000  2.000000
                       2.000000  2.000000  2.000000  2.000000  2.000000  2.000000
                       2.000000  2.000000  2.000000  2.000000  2.000000  2.000000
                       2.000000  2.000000  2.000000  2.000000  2.000000  2.000000
                       2.000000  2.000000  2.000000  2.000000  2.000000  2.000000
                       2.000000  2.000000  2.000000  2.000000  0.000000  0.000000
                       0.000000  0.000000  0.000000  0.000000  0.000000  0.000000
                       0.000000
        optdriver           1
            prtwf          -1
            rfdir           1       1       1
           rfelfd           2
            rprim      5.5664950782E+00  0.0000000000E+00  0.0000000000E+00
                      -2.7832475391E+00  4.8207261478E+00  0.0000000000E+00
                       0.0000000000E+00  0.0000000000E+00  2.1741765505E+01
          spgroup         194
           symrel      1  0  0   0  1  0   0  0  1      -1  0  0   0 -1  0   0  0 -1
                       0  1  0   1  0  0   0  0  1       0 -1  0  -1  0  0   0  0 -1
                       1  1  0  -1  0  0   0  0  1      -1 -1  0   1  0  0   0  0 -1
                      -1  0  0   1  1  0   0  0  1       1  0  0  -1 -1  0   0  0 -1
                       0  1  0  -1 -1  0   0  0  1       0 -1  0   1  1  0   0  0 -1
                      -1 -1  0   0  1  0   0  0  1       1  1  0   0 -1  0   0  0 -1
                      -1  0  0   0 -1  0   0  0  1       1  0  0   0  1  0   0  0 -1
                       0 -1  0  -1  0  0   0  0  1       0  1  0   1  0  0   0  0 -1
                      -1 -1  0   1  0  0   0  0  1       1  1  0  -1  0  0   0  0 -1
                       1  0  0  -1 -1  0   0  0  1      -1  0  0   1  1  0   0  0 -1
                       0 -1  0   1  1  0   0  0  1       0  1  0  -1 -1  0   0  0 -1
                       1  1  0   0 -1  0   0  0  1      -1 -1  0   0  1  0   0  0 -1
            tnons      0.0000000  0.0000000  0.0000000     0.0000000  0.0000000  0.0000000
                       0.0000000  0.0000000  0.5000000     0.0000000  0.0000000  0.5000000
                       0.0000000  0.0000000  0.5000000     0.0000000  0.0000000  0.5000000
                       0.0000000  0.0000000  0.0000000     0.0000000  0.0000000  0.0000000
                       0.0000000  0.0000000  0.0000000     0.0000000  0.0000000  0.0000000
                       0.0000000  0.0000000  0.5000000     0.0000000  0.0000000  0.5000000
                       0.0000000  0.0000000  0.5000000     0.0000000  0.0000000  0.5000000
                       0.0000000  0.0000000  0.0000000     0.0000000  0.0000000  0.0000000
                       0.0000000  0.0000000  0.0000000     0.0000000  0.0000000  0.0000000
                       0.0000000  0.0000000  0.5000000     0.0000000  0.0000000  0.5000000
                       0.0000000  0.0000000  0.5000000     0.0000000  0.0000000  0.5000000
                       0.0000000  0.0000000  0.0000000     0.0000000  0.0000000  0.0000000
           tolwfr      1.00000000E-20
            typat      1  1  2  2  3  3  3  3
           useylm           1
              wtk        0.50000    0.50000
           xangst      0.0000000000E+00  0.0000000000E+00  0.0000000000E+00
                       0.0000000000E+00  0.0000000000E+00  5.7526233899E+00
                       2.3500188843E-16  1.7006789375E+00  2.8763116949E+00
                       1.4728311636E+00  8.5033946876E-01  8.6289350848E+00
                       2.3500188843E-16  1.7006789375E+00  7.3358258835E+00
                       1.4728311636E+00  8.5033946876E-01  1.5832024936E+00
                       2.3500188843E-16  1.7006789375E+00  9.9220442861E+00
                       1.4728311636E+00  8.5033946876E-01  4.1694208962E+00
            xcart      0.0000000000E+00  0.0000000000E+00  0.0000000000E+00
                       0.0000000000E+00  0.0000000000E+00  1.0870882752E+01
                       4.4408920985E-16  3.2138174319E+00  5.4354413762E+00
                       2.7832475391E+00  1.6069087159E+00  1.6306324129E+01
                       4.4408920985E-16  3.2138174319E+00  1.3862701878E+01
                       2.7832475391E+00  1.6069087159E+00  2.9918191258E+00
                       4.4408920985E-16  3.2138174319E+00  1.8749946379E+01
                       2.7832475391E+00  1.6069087159E+00  7.8790636266E+00
             xred      0.0000000000E+00  0.0000000000E+00  0.0000000000E+00
                       0.0000000000E+00  0.0000000000E+00  5.0000000000E-01
                       3.3333333333E-01  6.6666666667E-01  2.5000000000E-01
                       6.6666666667E-01  3.3333333333E-01  7.5000000000E-01
                       3.3333333333E-01  6.6666666667E-01  6.3760700000E-01
                       6.6666666667E-01  3.3333333333E-01  1.3760700000E-01
                       3.3333333333E-01  6.6666666667E-01  8.6239300000E-01
                       6.6666666667E-01  3.3333333333E-01  3.6239300000E-01
            znucl       11.00000   41.00000    8.00000

 chkinp: Checking input parameters for consistency.

== DATASET  1 ==================================================================
-   mpi_nproc: 1, omp_nthreads: -1 (-1 if OMP is not activated)

--- !DatasetInfo
iteration_state: {dtset: 1, }
dimensions: {natom: 8, nkpt: 2, mband: 43, nsppol: 1, nspinor: 1, nspden: 1, mpw: 8173, }
cutoff_energies: {ecut:  44.0, pawecutdg:  -1.0, }
electrons: {nelect:   6.80000000E+01, charge:   0.00000000E+00, occopt:   1.00000000E+00, tsmear:   1.00000000E-02, }
meta: {optdriver: 1, rfelfd: 2, }
...

 Real(R)+Recip(G) space primitive vectors, cartesian coordinates (Bohr,Bohr^-1):
 R(1)=  5.5664951  0.0000000  0.0000000  G(1)=  0.1796463  0.1037188  0.0000000
 R(2)= -2.7832475  4.8207261  0.0000000  G(2)=  0.0000000  0.2074376  0.0000000
 R(3)=  0.0000000  0.0000000 21.7417655  G(3)=  0.0000000  0.0000000  0.0459944
 Unit cell volume ucvol=  5.8343046E+02 bohr^3
 Angles (23,13,12)=  9.00000000E+01  9.00000000E+01  1.20000000E+02 degrees

 getcut: wavevector=  0.0000  0.0000  0.0000  ngfft=  36  36 135
         ecut(hartree)=     44.000   => boxcut(ratio)=   2.06404

--- Pseudopotential description ------------------------------------------------
- pspini: atom type   1  psp file is /scratch/users/j/a/jabreu/pseudos/PBEsol/Na.psp8
- pspatm: opening atomic psp file    /scratch/users/j/a/jabreu/pseudos/PBEsol/Na.psp8
- Na    ONCVPSP-3.3.0  r_core=   1.20708   1.55069
- 11.00000   9.00000    180112                znucl, zion, pspdat
    8 -116133    1    4       400   0.00000   pspcod,pspxc,lmax,lloc,mmax,r2well
    3.99000000000000    0.00000000000000    0.00000000000000   rchrg,fchrg,qchrg
     nproj     2     2
     extension_switch     1
  pspatm : epsatm=    9.32878306
         --- l  ekb(1:nproj) -->
             0    2.657905   -0.678300
             1   -6.761319   -2.404728
 pspatm: atomic psp has been read  and splines computed

- pspini: atom type   2  psp file is /scratch/users/j/a/jabreu/pseudos/PBEsol/Nb.psp8
- pspatm: opening atomic psp file    /scratch/users/j/a/jabreu/pseudos/PBEsol/Nb.psp8
- Nb    ONCVPSP-3.3.0  r_core=   1.50879   1.40458   1.40458
- 41.00000  13.00000    180112                znucl, zion, pspdat
    8 -116133    2    4       600   0.00000   pspcod,pspxc,lmax,lloc,mmax,r2well
    5.99000000000000    5.00000000000000    0.00000000000000   rchrg,fchrg,qchrg
     nproj     2     2     2
     extension_switch     1
  pspatm : epsatm=   15.66753381
         --- l  ekb(1:nproj) -->
             0   12.953547    1.345168
             1    7.772306    0.779703
             2    3.518917    1.091480
 pspatm: atomic psp has been read  and splines computed

- pspini: atom type   3  psp file is /scratch/users/j/a/jabreu/pseudos/PBEsol/O.psp8
- pspatm: opening atomic psp file    /scratch/users/j/a/jabreu/pseudos/PBEsol/O.psp8
- O     ONCVPSP-3.3.0  r_core=   1.35509   1.45563   1.26150
-  8.00000   6.00000    180112                znucl, zion, pspdat
    8 -116133    2    4       600   0.00000   pspcod,pspxc,lmax,lloc,mmax,r2well
    5.99000000000000    4.00000000000000    0.00000000000000   rchrg,fchrg,qchrg
     nproj     2     2     1
     extension_switch     1
  pspatm : epsatm=    6.22910522
         --- l  ekb(1:nproj) -->
             0    6.050032    0.820363
             1   -4.739617   -1.153841
             2   -1.335834
 pspatm: atomic psp has been read  and splines computed

   5.09381571E+03                                ecore*ucvol(ha*bohr**3)

[...]
   0.00000   -0.00000   -0.00000   -0.00000    0.00000   -0.00000   -0.00000   -0.00000
  -0.00000    0.00000    0.00000   -0.00000   -0.00000    0.00000    0.00000    0.00000
   0.00000    0.00000    0.00000    0.00000    0.00000    0.00000    0.00000    0.00000
   0.00058    0.00000   -0.00120
 prteigrs : prtvol=0 or 1, do not print more k-points.

 Eight components of 2nd-order total energy (hartree) are
 1,2,3: 0th-order hamiltonian combined with 1st-order wavefunctions
     kin0=   1.65259363E+02 eigvalue=  -4.71755446E+00  local=  -6.71508778E+01
 4,5,6: 1st-order hamiltonian combined with 1st and 0th-order wfs
     kin1=  -2.62729960E+02  Hartree=   0.00000000E+00     xc=   0.00000000E+00
 7,8,9: eventually, occupation + non-local contributions
    edocc=   4.16487090E+01     enl0=   1.07699570E+00   enl1=  -9.50331115E+00
 1-9 gives the relaxation energy (to be shifted if some occ is /=2.0)
   erelax=  -1.36116636E+02
  No Ewald or frozen-wf contrib.: the relaxation energy is the total one
 2DEtotal=   -0.1361166357E+03 Ha. Also 2DEtotal=   -0.370392202456E+04 eV
    (  non-var. 2DEtotal :   -1.3611663573E+02 Ha)

 Perturbation wavevector (in red.coord.)   0.000000  0.000000  0.000000
 Perturbation : derivative vs k along direction   2
 The set of symmetries contains only one element for this perturbation.
 symkpt : not enough symmetry to change the number of k points.

[...]

 Perturbation wavevector (in red.coord.)   0.000000  0.000000  0.000000
 Perturbation : derivative vs k along direction   3
 The set of symmetries contains only one element for this perturbation.
 symkpt : not enough symmetry to change the number of k points.

-inwffil : will read wavefunctions from disk file /scratch/users/j/a/jabreu/flow_simple_8atoms/flow/w435/t1/indata/in_WFK

 Initialisation of the first-order wave-functions :
  ireadwf=   0

--- !BeginCycle
iteration_state: {dtset: 1, }
solver: {iscf: 7, nstep: 2000, nline: 4, wfoptalg: 0, }
tolerances: {tolwfr: 1.00E-20, }
...

     iter   2DEtotal(Ha)        deltaE(Ha) residm    vres2
-ETOT  1  -5.9712143991515     -5.971E+00 6.181E-03 0.000E+00
 ETOT  2  -5.9791775339358     -7.963E-03 3.770E-03 0.000E+00
 ETOT  3  -5.9792869588923     -1.094E-04 1.830E-05 0.000E+00
 ETOT  4  -5.9792906409680     -3.682E-06 1.516E-05 0.000E+00
 ETOT  5  -5.9792907946661     -1.537E-07 1.127E-07 0.000E+00
 ETOT  6  -5.9792908012896     -6.623E-09 8.887E-08 0.000E+00
 ETOT  7  -5.9792908015902     -3.006E-10 6.890E-09 0.000E+00
 ETOT  8  -5.9792908016040     -1.381E-11 9.277E-09 0.000E+00
 ETOT  9  -5.9792908016047     -6.732E-13 7.483E-10 0.000E+00
 ETOT 10  -5.9792908016047     -2.753E-14 9.780E-10 0.000E+00
 ETOT 11  -5.9792908016047     -5.329E-15 8.171E-11 0.000E+00
 ETOT 12  -5.9792908016047      2.665E-15 1.032E-10 0.000E+00
 ETOT 13  -5.9792908016047     -2.665E-15 9.052E-12 0.000E+00
 ETOT 14  -5.9792908016047      8.882E-16 1.097E-11 0.000E+00
 ETOT 15  -5.9792908016047     -8.882E-16 1.030E-12 0.000E+00
 ETOT 16  -5.9792908016047     -8.882E-16 1.173E-12 0.000E+00
 ETOT 17  -5.9792908016047     -8.882E-16 1.194E-13 0.000E+00
 ETOT 18  -5.9792908016047     -8.882E-16 1.256E-13 0.000E+00
 ETOT 19  -5.9792908016047      8.882E-16 1.383E-14 0.000E+00
 ETOT 20  -5.9792908016047      0.000E+00 1.340E-14 0.000E+00
 ETOT 21  -5.9792908016047      8.882E-16 1.668E-15 0.000E+00
 ETOT 22  -5.9792908016047     -8.882E-16 1.435E-15 0.000E+00
 ETOT 23  -5.9792908016047      0.000E+00 2.142E-16 0.000E+00
 ETOT 24  -5.9792908016047      0.000E+00 1.567E-16 0.000E+00
 ETOT 25  -5.9792908016047      0.000E+00 2.843E-17 0.000E+00
 ETOT 26  -5.9792908016047      8.882E-16 1.767E-17 0.000E+00
 ETOT 27  -5.9792908016047     -8.882E-16 3.822E-18 0.000E+00
 ETOT 28  -5.9792908016047      0.000E+00 2.051E-18 0.000E+00
 ETOT 29  -5.9792908016047      1.776E-15 5.163E-19 0.000E+00
 ETOT 30  -5.9792908016047     -1.776E-15 2.627E-19 0.000E+00
 ETOT 31  -5.9792908016047      0.000E+00 6.987E-20 0.000E+00
 ETOT 32  -5.9792908016047      8.882E-16 3.559E-20 0.000E+00
 ETOT 33  -5.9792908016047      0.000E+00 9.998E-21 0.000E+00

 At SCF step   33   max residual=  1.00E-20 < tolwfr=  1.00E-20 =>converged.

 ----iterations are completed or convergence reached----

 dfpt_looppert: DFPT cycle converged with prtwf=-1. Will skip output of the 1st-order WFK file.
 dfpt_looppert : ek2=    1.1358187413E+01
          f-sum rule ratio=    9.9695074601E-01
 prteigrs : about to open file /scratch/users/j/a/jabreu/flow_simple_8atoms/flow/w435/t1/tmpdata/tmp_1WF1_EIG
 Expectation of eigenvalue derivatives (hartree) for nkpt=   2  k points:
  (in case of degenerate eigenvalues, averaged derivative)
 kpt#   1, nband= 43, wtk=  0.50000, kpt=  0.0000  0.0000  0.0000 (reduced coord)
   0.00000   -0.00000   -0.00000   -0.00000    0.00000   -0.00000    0.00000    0.00000
  -0.00000   -0.00000    0.00000   -0.00000   -0.00000   -0.00000   -0.00000   -0.00000
   0.00000    0.00000    0.00000   -0.00000    0.00000    0.00000    0.00000    0.00000
  -0.00000   -0.00000   -0.00000   -0.00000   -0.00000    0.00000    0.00000    0.00000
   0.00000    0.00000    0.00000    0.00000   -0.00000   -0.00000   -0.00000    0.00000
  -0.00001    0.00000   -0.00006
 prteigrs : prtvol=0 or 1, do not print more k-points.

 Eight components of 2nd-order total energy (hartree) are
 1,2,3: 0th-order hamiltonian combined with 1st-order wavefunctions
     kin0=   7.87145523E+00 eigvalue=  -2.79119024E-01  local=  -2.94123556E+00
 4,5,6: 1st-order hamiltonian combined with 1st and 0th-order wfs
     kin1=  -1.13235534E+01  Hartree=   0.00000000E+00     xc=   0.00000000E+00
 7,8,9: eventually, occupation + non-local contributions
    edocc=   1.42898815E+00     enl0=  -1.00797989E-01   enl1=  -6.35028189E-01
 1-9 gives the relaxation energy (to be shifted if some occ is /=2.0)
   erelax=  -5.97929080E+00
  No Ewald or frozen-wf contrib.: the relaxation energy is the total one
 2DEtotal=   -0.5979290802E+01 Ha. Also 2DEtotal=   -0.162704777213E+03 eV
    (  non-var. 2DEtotal :   -5.9792908015E+00 Ha)

 CALCULATION OF EFFECTIVE MASSES
 NOTE : Additional infos (eff. mass eigenvalues, eigenvectors and, if degenerate, average mass) are available in stdout.

 K-point ( 0.000, 0.000, 0.000) | band =    34
 Effective mass tensor:
             -0.5137280707             -0.0000000009             -0.0000000930
             -0.0000000009             -0.5137280702              0.0000000306
             -0.0000000930              0.0000000306             -1.2437174523
 Effective mass tensor eigenvalues:
             -1.2437174523             -0.5137280714             -0.5137280695
 Angular average effective mass 1/(<1/m>)=  -0.6386849754
 Angular average effective mass for Frohlich model (<m**0.5>)**2=  -0.6667328934
 Effective masses along directions: (cart. coord. / red. coord. -> eff. mass)
    1:   1.000000  0.000000  0.000000 /   0.894427 -0.447214  0.000000 ->  -0.5137280707
    2:   0.000000  1.000000  0.000000 /   0.000000  1.000000  0.000000 ->  -0.5137280702
    3:   0.000000  0.000000  1.000000 /   0.000000  0.000000  1.000000 ->  -1.2437174523
    4:   0.577350  0.577350  0.577350 /   0.247012  0.090413  0.964785 ->  -0.6386850029
    5:   0.000000  0.707107  0.707107 /   0.000000  0.216469  0.976289 ->  -0.7271150499
    6:   0.707107  0.000000  0.707107 /   0.246142 -0.123071  0.961388 ->  -0.7271151527
    7:   0.707107  0.707107  0.000000 /   0.939071  0.343724  0.000000 ->  -0.5137280714

 K-point ( 0.078, 0.078, 0.000) | band =    35
 Effective mass tensor:
              1.2767585588             -0.2046551733              0.0000006595
             -0.2046551733              1.0404431192             -0.0000003889
              0.0000006595             -0.0000003889              0.8521510077
 Effective mass tensor eigenvalues:
              0.8521510076              0.9222854000              1.3949162780
 Angular average effective mass 1/(<1/m>)=   1.0085210265
 Angular average effective mass for Frohlich model (<m**0.5>)**2=   1.0216156766
 Effective masses along directions: (cart. coord. / red. coord. -> eff. mass)
    1:   1.000000  0.000000  0.000000 /   0.894427 -0.447214  0.000000 ->   1.2365028839
    2:   0.000000  1.000000  0.000000 /   0.000000  1.000000  0.000000 ->   1.0076383734
    3:   0.000000  0.000000  1.000000 /   0.000000  0.000000  1.000000 ->   0.8521510076
    4:   0.577350  0.577350  0.577350 /   0.247012  0.090413  0.964785 ->   0.9110765539
    5:   0.000000  0.707107  0.707107 /   0.000000  0.216469  0.976289 ->   0.9233946624
    6:   0.707107  0.000000  0.707107 /   0.246142 -0.123071  0.961388 ->   1.0089634965
    7:   0.707107  0.707107  0.000000 /   0.939071  0.343724  0.000000 ->   0.9437045616

 END OF EFFECTIVE MASSES SECTION

 ---- first-order wavefunction calculations are completed ----

 Total localisation tensor (bohr^2) in cartesian coordinates
  WARNING : still subject to testing - especially symmetries.
      direction              matrix element
   alpha     beta       real part   imaginary part
     1        1       2.0818883258    0.0000000000
     1        2      -0.7211669219    0.0000000000
     1        3       0.0000000000    0.0000000000
     2        1      -0.7211669219    0.0000000000
     2        2       1.2490977495    0.0000000000
     2        3       0.0000000000    0.0000000000
     3        1       0.0000000000    0.0000000000
     3        2       0.0000000000    0.0000000000
     3        3       0.6295685007    0.0000000000

 respfn : d/dk was computed, but no 2DTE, so no DDB output.

== END DATASET(S) ==============================================================

 -outvars: echo values of variables after computation  --------
            acell      1.0000000000E+00  1.0000000000E+00  1.0000000000E+00 Bohr
              amu      2.29897680E+01  9.29063800E+01  1.59994000E+01
             ecut      4.40000000E+01 Hartree
           etotal     -5.9792908016E+00
            fcart      0.0000000000E+00  0.0000000000E+00  0.0000000000E+00
                       0.0000000000E+00  0.0000000000E+00  0.0000000000E+00
                       0.0000000000E+00  0.0000000000E+00  0.0000000000E+00
                       0.0000000000E+00  0.0000000000E+00  0.0000000000E+00
                       0.0000000000E+00  0.0000000000E+00  0.0000000000E+00
                       0.0000000000E+00  0.0000000000E+00  0.0000000000E+00
                       0.0000000000E+00  0.0000000000E+00  0.0000000000E+00
                       0.0000000000E+00  0.0000000000E+00  0.0000000000E+00
-          fftalg         512
           irdden           1
           irdwfk           1
           istwfk        1    0
              ixc     -116133
              kpt      0.00000000E+00  0.00000000E+00  0.00000000E+00
                       7.75193798E-02  7.75193798E-02  0.00000000E+00
           kptopt           0
P           mkmem           2
P          mkqmem           2
P          mk1mem           2
            natom           8
            nband          43
           nbdbuf           4
            ngfft          36      36     135
             nkpt           2
            nstep        2000
             nsym          24
           ntypat           3
              occ      2.000000  2.000000  2.000000  2.000000  2.000000  2.000000
                       2.000000  2.000000  2.000000  2.000000  2.000000  2.000000
                       2.000000  2.000000  2.000000  2.000000  2.000000  2.000000
                       2.000000  2.000000  2.000000  2.000000  2.000000  2.000000
                       2.000000  2.000000  2.000000  2.000000  2.000000  2.000000
                       2.000000  2.000000  2.000000  2.000000  0.000000  0.000000
                       0.000000  0.000000  0.000000  0.000000  0.000000  0.000000
                       0.000000
        optdriver           1
            prtwf          -1
            rfdir           1       1       1
           rfelfd           2
            rprim      5.5664950782E+00  0.0000000000E+00  0.0000000000E+00
                      -2.7832475391E+00  4.8207261478E+00  0.0000000000E+00
                       0.0000000000E+00  0.0000000000E+00  2.1741765505E+01
          spgroup         194
           strten      0.0000000000E+00  0.0000000000E+00  0.0000000000E+00
                       0.0000000000E+00  0.0000000000E+00  0.0000000000E+00
           symrel      1  0  0   0  1  0   0  0  1      -1  0  0   0 -1  0   0  0 -1
                       0  1  0   1  0  0   0  0  1       0 -1  0  -1  0  0   0  0 -1
                       1  1  0  -1  0  0   0  0  1      -1 -1  0   1  0  0   0  0 -1
                      -1  0  0   1  1  0   0  0  1       1  0  0  -1 -1  0   0  0 -1
                       0  1  0  -1 -1  0   0  0  1       0 -1  0   1  1  0   0  0 -1
                      -1 -1  0   0  1  0   0  0  1       1  1  0   0 -1  0   0  0 -1
                      -1  0  0   0 -1  0   0  0  1       1  0  0   0  1  0   0  0 -1
                       0 -1  0  -1  0  0   0  0  1       0  1  0   1  0  0   0  0 -1
                      -1 -1  0   1  0  0   0  0  1       1  1  0  -1  0  0   0  0 -1
                       1  0  0  -1 -1  0   0  0  1      -1  0  0   1  1  0   0  0 -1
                       0 -1  0   1  1  0   0  0  1       0  1  0  -1 -1  0   0  0 -1
                       1  1  0   0 -1  0   0  0  1      -1 -1  0   0  1  0   0  0 -1
            tnons      0.0000000  0.0000000  0.0000000     0.0000000  0.0000000  0.0000000
                       0.0000000  0.0000000  0.5000000     0.0000000  0.0000000  0.5000000
                       0.0000000  0.0000000  0.5000000     0.0000000  0.0000000  0.5000000
                       0.0000000  0.0000000  0.0000000     0.0000000  0.0000000  0.0000000
                       0.0000000  0.0000000  0.0000000     0.0000000  0.0000000  0.0000000
                       0.0000000  0.0000000  0.5000000     0.0000000  0.0000000  0.5000000
                       0.0000000  0.0000000  0.5000000     0.0000000  0.0000000  0.5000000
                       0.0000000  0.0000000  0.0000000     0.0000000  0.0000000  0.0000000
                       0.0000000  0.0000000  0.0000000     0.0000000  0.0000000  0.0000000
                       0.0000000  0.0000000  0.5000000     0.0000000  0.0000000  0.5000000
                       0.0000000  0.0000000  0.5000000     0.0000000  0.0000000  0.5000000
                       0.0000000  0.0000000  0.0000000     0.0000000  0.0000000  0.0000000
           tolwfr      1.00000000E-20
            typat      1  1  2  2  3  3  3  3
           useylm           1
              wtk        0.50000    0.50000
           xangst      0.0000000000E+00  0.0000000000E+00  0.0000000000E+00
                       0.0000000000E+00  0.0000000000E+00  5.7526233899E+00
                       2.3500188843E-16  1.7006789375E+00  2.8763116949E+00
                       1.4728311636E+00  8.5033946876E-01  8.6289350848E+00
                       2.3500188843E-16  1.7006789375E+00  7.3358258835E+00
                       1.4728311636E+00  8.5033946876E-01  1.5832024936E+00
                       2.3500188843E-16  1.7006789375E+00  9.9220442861E+00
                       1.4728311636E+00  8.5033946876E-01  4.1694208962E+00
            xcart      0.0000000000E+00  0.0000000000E+00  0.0000000000E+00
                       0.0000000000E+00  0.0000000000E+00  1.0870882752E+01
                       4.4408920985E-16  3.2138174319E+00  5.4354413762E+00
                       2.7832475391E+00  1.6069087159E+00  1.6306324129E+01
                       4.4408920985E-16  3.2138174319E+00  1.3862701878E+01
                       2.7832475391E+00  1.6069087159E+00  2.9918191258E+00
                       4.4408920985E-16  3.2138174319E+00  1.8749946379E+01
                       2.7832475391E+00  1.6069087159E+00  7.8790636266E+00
             xred      0.0000000000E+00  0.0000000000E+00  0.0000000000E+00
                       0.0000000000E+00  0.0000000000E+00  5.0000000000E-01
                       3.3333333333E-01  6.6666666667E-01  2.5000000000E-01
                       6.6666666667E-01  3.3333333333E-01  7.5000000000E-01
                       3.3333333333E-01  6.6666666667E-01  6.3760700000E-01
                       6.6666666667E-01  3.3333333333E-01  1.3760700000E-01
                       3.3333333333E-01  6.6666666667E-01  8.6239300000E-01
                       6.6666666667E-01  3.3333333333E-01  3.6239300000E-01
            znucl       11.00000   41.00000    8.00000

- Timing analysis has been suppressed with timopt=0

 Suggested references for the acknowledgment of ABINIT usage.

 Calculation completed.
.Delivered  14 WARNINGs and   9 COMMENTs to log file.