.Version 9.5.2 of ABINIT

 ABINIT is a project of the Universite Catholique de Louvain,
 Corning Inc. and other collaborators, see ~abinit/doc/developers/contributors.txt .
 acknowledgments of the ABINIT effort.

.Starting date : Mon 24 May 2021.
- ( at 20h54 )

- input  file    -> /scratch/users/j/a/jabreu/flow_simple_10atoms/flow/w388/t1/run.abi
- output file    -> /scratch/users/j/a/jabreu/flow_simple_10atoms/flow/w388/t1/run.abo
- root for input  files -> /scratch/users/j/a/jabreu/flow_simple_10atoms/flow/w388/t1/indata/in
- root for output files -> /scratch/users/j/a/jabreu/flow_simple_10atoms/flow/w388/t1/outdata/out

 Symmetries : space group Cc (#  9); Bravais mC (1-face-center monocl.)
     intxc =       0      iscf =       7    lmnmax =      18     lnmax =       6
     mgfft =      80  mpssoang =       3    mqgrid =    3653     natom =      10
  nloc_mem =       1    nspden =       1   nspinor =       1    nsppol =       1
      nsym =       2    n1xccc =    2501    ntypat =       2    occopt =       1
   xclevel =       2
-    mband =          83        mffmem =           1         mkmem =           2
-   mkqmem =           2        mk1mem =           2           mpw =       24939
      nfft =      512000          nkpt =           2
  Rough estimation (10% accuracy) of disk space for files :

------------- Echo of variables that govern the present computation ------------
-
- outvars: echo of selected default values
-   iomode0 =  0 , fftalg0 =512 , wfoptalg0 =  0
-
- outvars: echo of global parameters not present in the input file
-  max_nthreads =    0
-
 -outvars: echo values of preprocessed input variables --------
            acell      1.0000000000E+00  1.0000000000E+00  1.0000000000E+00 Bohr
              amu      6.97230000E+01  1.27600000E+02
             ecut      4.00000000E+01 Hartree
-          fftalg         512
           irdden           1
           irdwfk           1
           istwfk        1    1
              ixc     -116133
              kpt      0.00000000E+00  0.00000000E+00  0.00000000E+00
                       5.00000000E-01  0.00000000E+00  5.00000000E-01
           kptopt           0
P           mkmem           2
P          mkqmem           2
P          mk1mem           2
            natom          10
            nband          83
           nbdbuf           4
            ngfft          80      80      80
             nkpt           2
            nstep        2000
             nsym           2
           ntypat           2
              occ      2.000000  2.000000  2.000000  2.000000  2.000000  2.000000
                       2.000000  2.000000  2.000000  2.000000  2.000000  2.000000
                       2.000000  2.000000  2.000000  2.000000  2.000000  2.000000
                       2.000000  2.000000  2.000000  2.000000  2.000000  2.000000
                       2.000000  2.000000  2.000000  2.000000  2.000000  2.000000
                       2.000000  2.000000  2.000000  2.000000  2.000000  2.000000
                       2.000000  2.000000  2.000000  2.000000  2.000000  2.000000
                       2.000000  2.000000  2.000000  2.000000  2.000000  2.000000
                       2.000000  2.000000  2.000000  2.000000  2.000000  2.000000
                       2.000000  2.000000  2.000000  2.000000  2.000000  2.000000
                       2.000000  2.000000  2.000000  2.000000  2.000000  2.000000
                       2.000000  2.000000  2.000000  2.000000  2.000000  2.000000
                       2.000000  2.000000  0.000000  0.000000  0.000000  0.000000
                       0.000000  0.000000  0.000000  0.000000  0.000000
        optdriver           1
            prtwf          -1
            rfdir           1       1       1
           rfelfd           2
            rprim      1.3461957495E+01  0.0000000000E+00  2.2208453987E+00
                      -7.3419981123E+00  1.1283588229E+01  2.2208453987E+00
                       0.0000000000E+00  0.0000000000E+00  1.3577052681E+01
          spgroup           9
           symrel      1  0  0   0  1  0   0  0  1       0  1  0   1  0  0   0  0  1
            tnons      0.0000000  0.0000000  0.0000000     0.0000000  0.0000000  0.5000000
           tolwfr      1.00000000E-20
            typat      1  1  1  1  2  2  2  2  2  2
           useylm           1
              wtk        0.50000    0.50000
           xangst      2.3957600030E+00  2.1108383589E+00  7.3448671550E+00
                      -1.2253715463E+00  4.2826348378E+00  7.3749660670E+00
                       4.6264931703E-01  3.1593132448E+00  3.7525337357E+00
                       4.2579367558E+00  1.3086142149E+00  3.7826326476E+00
                      -2.7761395078E+00  5.8674563905E+00  1.5147106535E+00
                       1.1558048817E+00  4.1389363253E+00  8.5517661796E+00
                       2.8388245881E+00  3.2261050490E+00  4.9594327602E+00
                       4.8254322710E+00  1.8337293975E+00  8.4240318145E+00
                       6.4320789097E+00  8.7312997944E-01  5.1070440728E+00
                      -1.0947343420E+00  5.0446919456E+00  4.8316983952E+00
            xcart      4.5273302857E+00  3.9889064092E+00  1.3879787405E+01
                      -2.3156166335E+00  8.0930069706E+00  1.3936666106E+01
                       8.7428050476E-01  5.9702368007E+00  7.0912610649E+00
                       8.0463343597E+00  2.4729224799E+00  7.1481397654E+00
                      -5.2461433764E+00  1.1087885675E+01  2.8623883057E+00
                       2.1841546894E+00  7.8214561363E+00  1.6160496032E+01
                       5.3646010108E+00  6.0964550186E+00  9.3719696913E+00
                       9.1187454650E+00  3.4652463631E+00  1.5919113064E+01
                       1.2154867604E+01  1.6499765396E+00  9.6509146462E+00
                      -2.0687480946E+00  9.5330862019E+00  9.1305867235E+00
             xred      5.2910800000E-01  3.5351400000E-01  8.7792400000E-01
                       2.1916100000E-01  7.1723700000E-01  8.7331700000E-01
                       3.5351400000E-01  5.2910800000E-01  3.7792400000E-01
                       7.1723700000E-01  2.1916100000E-01  3.7331700000E-01
                       1.4622800000E-01  9.8265600000E-01  2.6170000000E-02
                       5.4029400000E-01  6.9317100000E-01  9.8851800000E-01
                       6.9317100000E-01  5.4029400000E-01  4.8851800000E-01
                       8.4486300000E-01  3.0710500000E-01  9.8407000000E-01
                       9.8265600000E-01  1.4622800000E-01  5.2617000000E-01
                       3.0710500000E-01  8.4486300000E-01  4.8407000000E-01
            znucl       31.00000   52.00000

 chkinp: Checking input parameters for consistency.

== DATASET  1 ==================================================================
-   mpi_nproc: 1, omp_nthreads: -1 (-1 if OMP is not activated)

--- !DatasetInfo
iteration_state: {dtset: 1, }
dimensions: {natom: 10, nkpt: 2, mband: 83, nsppol: 1, nspinor: 1, nspden: 1, mpw: 24939, }
cutoff_energies: {ecut:  40.0, pawecutdg:  -1.0, }
electrons: {nelect:   1.48000000E+02, charge:   0.00000000E+00, occopt:   1.00000000E+00, tsmear:   1.00000000E-02, }
meta: {optdriver: 1, rfelfd: 2, }
...

 Real(R)+Recip(G) space primitive vectors, cartesian coordinates (Bohr,Bohr^-1):
 R(1)= 13.4619575  0.0000000  2.2208454  G(1)=  0.0742834  0.0483347  0.0000000
 R(2)= -7.3419981 11.2835882  2.2208454  G(2)=  0.0000000  0.0886243  0.0000000
 R(3)=  0.0000000  0.0000000 13.5770527  G(3)= -0.0121508 -0.0224029  0.0736537
 Unit cell volume ucvol=  2.0623432E+03 bohr^3
 Angles (23,13,12)=  8.06321794E+01  8.06321794E+01  1.20294453E+02 degrees

 getcut: wavevector=  0.0000  0.0000  0.0000  ngfft=  80  80  80
         ecut(hartree)=     40.000   => boxcut(ratio)=   2.05965

--- Pseudopotential description ------------------------------------------------
- pspini: atom type   1  psp file is /scratch/users/j/a/jabreu/pseudos/PBEsol/Ga.psp8
- pspatm: opening atomic psp file    /scratch/users/j/a/jabreu/pseudos/PBEsol/Ga.psp8
- Ga    ONCVPSP-3.3.0  r_core=   1.66857   1.75011   1.90252
- 31.00000  13.00000    180112                znucl, zion, pspdat
    8 -116133    2    4       600   0.00000   pspcod,pspxc,lmax,lloc,mmax,r2well
    5.99000000000000    5.00000000000000    0.00000000000000   rchrg,fchrg,qchrg
     nproj     2     2     2
     extension_switch     1
  pspatm : epsatm=   24.50969055
         --- l  ekb(1:nproj) -->
             0    7.053021    1.156713
             1    6.846070    1.293139
             2   -8.368667   -2.819170
 pspatm: atomic psp has been read  and splines computed

- pspini: atom type   2  psp file is /scratch/users/j/a/jabreu/pseudos/PBEsol/Te.psp8
- pspatm: opening atomic psp file    /scratch/users/j/a/jabreu/pseudos/PBEsol/Te.psp8
- Te    ONCVPSP-3.3.0  r_core=   2.26547   1.91704   1.80604
- 52.00000  16.00000    180112                znucl, zion, pspdat
    8 -116133    2    4       600   0.00000   pspcod,pspxc,lmax,lloc,mmax,r2well
    5.99000000000000    5.00000000000000    0.00000000000000   rchrg,fchrg,qchrg
     nproj     2     2     2
     extension_switch     1
  pspatm : epsatm=   36.82679836
         --- l  ekb(1:nproj) -->
             0    6.345999    0.785432
             1    5.709019    1.070069
             2   -6.035173   -1.870937
 pspatm: atomic psp has been read  and splines computed

   4.72119337E+04                                ecore*ucvol(ha*bohr**3)

 ==>  initialize data related to q vector <==

 The list of irreducible perturbations for this q vector is:
    1)    idir= 1    ipert=  11
    2)    idir= 2    ipert=  11
    3)    idir= 3    ipert=  11

 Perturbation wavevector (in red.coord.)   0.000000  0.000000  0.000000
 Perturbation : derivative vs k along direction   1

 dfpt_looppert : COMMENT -
  In a d/dk calculation, iscf is set to -3 automatically.
 The set of symmetries contains only one element for this perturbation.
 symkpt : not enough symmetry to change the number of k points.

 Initialisation of the first-order wave-functions :
  ireadwf=   0

--- !BeginCycle
iteration_state: {dtset: 1, }
solver: {iscf: 7, nstep: 2000, nline: 4, wfoptalg: 0, }
tolerances: {tolwfr: 1.00E-20, }
...

     iter   2DEtotal(Ha)        deltaE(Ha) residm    vres2
-ETOT  1  -118.51729706238     -1.185E+02 3.551E-02 0.000E+00
 ETOT  2  -118.62432471527     -1.070E-01 4.775E-03 0.000E+00
 ETOT  3  -118.62464329769     -3.186E-04 3.032E-04 0.000E+00
 ETOT  4  -118.62464575173     -2.454E-06 9.950E-05 0.000E+00
 ETOT  5  -118.62464577510     -2.338E-08 9.579E-06 0.000E+00
 ETOT  6  -118.62464577535     -2.488E-10 3.703E-06 0.000E+00
 ETOT  7  -118.62464577535     -2.942E-12 3.546E-07 0.000E+00
 ETOT  8  -118.62464577535     -5.684E-14 1.452E-07 0.000E+00
 ETOT  9  -118.62464577535      5.684E-14 1.370E-08 0.000E+00
 ETOT 10  -118.62464577535     -4.263E-14 5.781E-09 0.000E+00
 ETOT 11  -118.62464577535      4.263E-14 5.391E-10 0.000E+00
 ETOT 12  -118.62464577535      0.000E+00 2.313E-10 0.000E+00
 ETOT 13  -118.62464577535      0.000E+00 2.138E-11 0.000E+00
 ETOT 14  -118.62464577535      0.000E+00 9.267E-12 0.000E+00
[...]
 Expectation of eigenvalue derivatives (hartree) for nkpt=   2  k points:
  (in case of degenerate eigenvalues, averaged derivative)
 kpt#   1, nband= 83, wtk=  0.50000, kpt=  0.0000  0.0000  0.0000 (reduced coord)
   0.00000    0.00000   -0.00000   -0.00000   -0.00000    0.00000    0.00000   -0.00000
  -0.00000   -0.00000   -0.00000   -0.00000   -0.00000   -0.00000   -0.00000   -0.00000
   0.00000    0.00000    0.00000    0.00000    0.00000    0.00000    0.00000   -0.00000
   0.00000   -0.00000   -0.00000    0.00000   -0.00000    0.00000   -0.00000   -0.00000
   0.00000    0.00000    0.00000   -0.00000   -0.00000    0.00000    0.00000   -0.00000
  -0.00000    0.00000   -0.00000    0.00000    0.00000   -0.00000    0.00000    0.00000
   0.00000   -0.00000   -0.00000   -0.00000   -0.00000    0.00000    0.00000   -0.00000
  -0.00000    0.00000    0.00000    0.00000   -0.00000   -0.00000   -0.00000    0.00000
   0.00000    0.00000   -0.00000   -0.00000    0.00000    0.00000    0.00000    0.00000
  -0.00000   -0.00000    0.00000   -0.00000    0.00000   -0.00000   -0.00000   -0.00000
   0.00000   -0.00000   -0.00000
 prteigrs : prtvol=0 or 1, do not print more k-points.

 Eight components of 2nd-order total energy (hartree) are
 1,2,3: 0th-order hamiltonian combined with 1st-order wavefunctions
     kin0=   1.31237382E+02 eigvalue=   1.67428187E+01  local=  -6.31049361E+01
 4,5,6: 1st-order hamiltonian combined with 1st and 0th-order wfs
     kin1=  -1.06665540E+02  Hartree=   0.00000000E+00     xc=   0.00000000E+00
 7,8,9: eventually, occupation + non-local contributions
    edocc=   1.69065123E+01     enl0=   1.68428687E+01   enl1=  -1.30583751E+02
 1-9 gives the relaxation energy (to be shifted if some occ is /=2.0)
   erelax=  -1.18624646E+02
  No Ewald or frozen-wf contrib.: the relaxation energy is the total one
 2DEtotal=   -0.1186246458E+03 Ha. Also 2DEtotal=   -0.322794077145E+04 eV
    (  non-var. 2DEtotal :   -1.1862464578E+02 Ha)

 Perturbation wavevector (in red.coord.)   0.000000  0.000000  0.000000
 Perturbation : derivative vs k along direction   2
 The set of symmetries contains only one element for this perturbation.
 symkpt : not enough symmetry to change the number of k points.

[...]

 Perturbation wavevector (in red.coord.)   0.000000  0.000000  0.000000
 Perturbation : derivative vs k along direction   3
 The set of symmetries contains only one element for this perturbation.
 symkpt : not enough symmetry to change the number of k points.

 Initialisation of the first-order wave-functions :
  ireadwf=   0

--- !BeginCycle
iteration_state: {dtset: 1, }
solver: {iscf: 7, nstep: 2000, nline: 4, wfoptalg: 0, }
tolerances: {tolwfr: 1.00E-20, }
...

     iter   2DEtotal(Ha)        deltaE(Ha) residm    vres2
-ETOT  1  -90.701277486726     -9.070E+01 5.437E-02 0.000E+00
 ETOT  2  -90.783869084904     -8.259E-02 2.163E-03 0.000E+00
 ETOT  3  -90.784125156521     -2.561E-04 2.535E-04 0.000E+00
 ETOT  4  -90.784127274529     -2.118E-06 2.836E-05 0.000E+00
 ETOT  5  -90.784127296304     -2.177E-08 5.794E-06 0.000E+00
 ETOT  6  -90.784127296554     -2.500E-10 1.060E-06 0.000E+00
 ETOT  7  -90.784127296557     -3.098E-12 2.278E-07 0.000E+00
 ETOT  8  -90.784127296557     -1.421E-14 4.411E-08 0.000E+00
 ETOT  9  -90.784127296557      5.684E-14 9.609E-09 0.000E+00
 ETOT 10  -90.784127296557     -1.563E-13 1.858E-09 0.000E+00
 ETOT 11  -90.784127296557      4.263E-14 4.107E-10 0.000E+00
 ETOT 12  -90.784127296557     -2.842E-14 7.859E-11 0.000E+00
 ETOT 13  -90.784127296557      0.000E+00 1.759E-11 0.000E+00
 ETOT 14  -90.784127296557      0.000E+00 3.329E-12 0.000E+00
 ETOT 15  -90.784127296557      1.421E-14 7.523E-13 0.000E+00
 ETOT 16  -90.784127296557     -1.421E-14 1.411E-13 0.000E+00
 ETOT 17  -90.784127296557      0.000E+00 3.213E-14 0.000E+00
 ETOT 18  -90.784127296557      0.000E+00 5.979E-15 0.000E+00
 ETOT 19  -90.784127296557      0.000E+00 1.371E-15 0.000E+00
 ETOT 20  -90.784127296557      1.421E-14 2.535E-16 0.000E+00
 ETOT 21  -90.784127296557     -1.421E-14 5.845E-17 0.000E+00
 ETOT 22  -90.784127296557      0.000E+00 1.075E-17 0.000E+00
 ETOT 23  -90.784127296557      0.000E+00 2.492E-18 0.000E+00
 ETOT 24  -90.784127296557      0.000E+00 4.561E-19 0.000E+00
 ETOT 25  -90.784127296557      0.000E+00 1.062E-19 0.000E+00
 ETOT 26  -90.784127296557      0.000E+00 1.936E-20 0.000E+00
 ETOT 27  -90.784127296557      0.000E+00 9.879E-21 0.000E+00

 At SCF step   27   max residual=  9.88E-21 < tolwfr=  1.00E-20 =>converged.

 ----iterations are completed or convergence reached----

 dfpt_looppert: DFPT cycle converged with prtwf=-1. Will skip output of the 1st-order WFK file.
 dfpt_looppert : ek2=    7.0983023597E+01
          f-sum rule ratio=    1.1376774794E+00
 prteigrs : about to open file /scratch/users/j/a/jabreu/flow_simple_10atoms/flow/w388/t1/tmpdata/tmp_1WF1_EIG
 Expectation of eigenvalue derivatives (hartree) for nkpt=   2  k points:
  (in case of degenerate eigenvalues, averaged derivative)
 kpt#   1, nband= 83, wtk=  0.50000, kpt=  0.0000  0.0000  0.0000 (reduced coord)
  -0.00000    0.00000   -0.00000   -0.00000    0.00000    0.00000   -0.00000    0.00000
   0.00000    0.00000    0.00000   -0.00000    0.00000    0.00000    0.00000   -0.00000
  -0.00000    0.00000   -0.00000   -0.00000   -0.00000   -0.00000    0.00000    0.00000
  -0.00000   -0.00000    0.00000   -0.00000    0.00000   -0.00000    0.00000    0.00000
   0.00000    0.00000   -0.00000    0.00000    0.00000    0.00000    0.00000    0.00000
   0.00000   -0.00000   -0.00000   -0.00000    0.00000    0.00000   -0.00000   -0.00000
  -0.00000    0.00000   -0.00000    0.00000   -0.00000   -0.00000   -0.00000   -0.00000
  -0.00000   -0.00000   -0.00000    0.00000   -0.00000    0.00000   -0.00000    0.00000
  -0.00000   -0.00000   -0.00000    0.00000    0.00000    0.00000   -0.00000   -0.00000
  -0.00000    0.00000    0.00000    0.00000    0.00000    0.00000   -0.00000   -0.00000
  -0.00000   -0.00000    0.00000
 prteigrs : prtvol=0 or 1, do not print more k-points.

 Eight components of 2nd-order total energy (hartree) are
 1,2,3: 0th-order hamiltonian combined with 1st-order wavefunctions
     kin0=   9.93532712E+01 eigvalue=   1.31561156E+01  local=  -4.78207342E+01
 4,5,6: 1st-order hamiltonian combined with 1st and 0th-order wfs
     kin1=  -8.07557874E+01  Hartree=   0.00000000E+00     xc=   0.00000000E+00
 7,8,9: eventually, occupation + non-local contributions
    edocc=   1.25038515E+01     enl0=   1.35916233E+01   enl1=  -1.00812467E+02
 1-9 gives the relaxation energy (to be shifted if some occ is /=2.0)
   erelax=  -9.07841273E+01
  No Ewald or frozen-wf contrib.: the relaxation energy is the total one
 2DEtotal=   -0.9078412730E+02 Ha. Also 2DEtotal=   -0.247036173626E+04 eV
    (  non-var. 2DEtotal :   -9.0784127297E+01 Ha)

 CALCULATION OF EFFECTIVE MASSES
 NOTE : Additional infos (eff. mass eigenvalues, eigenvectors and, if degenerate, average mass) are available in stdout.

 K-point ( 0.000, 0.000, 0.000) | band =    74
 Effective mass tensor:
             -0.7193911527             -0.4119698042             -0.0644663689
             -0.4119698042             -1.2555116727             -0.1188589545
             -0.0644663689             -0.1188589545             -0.0828060361
 Effective mass tensor eigenvalues:
             -1.4919296296             -0.4959481853             -0.0698310466
 Angular average effective mass 1/(<1/m>)=  -0.1763990890
 Angular average effective mass for Frohlich model (<m**0.5>)**2=  -0.2735523802
 Effective masses along directions: (cart. coord. / red. coord. -> eff. mass)
    1:   1.000000  0.000000  0.000000 /   0.877920 -0.478808  0.000000 ->  -0.5751490438
    2:   0.000000  1.000000  0.000000 /   0.000000  1.000000  0.000000 ->  -0.9324242544
    3:   0.000000  0.000000  1.000000 /   0.159365  0.159365  0.974272 ->  -0.0704436801
    4:   0.577350  0.577350  0.577350 /   0.724735  0.284779  0.627424 ->  -0.2406983453
    5:   0.000000  0.707107  0.707107 /   0.115201  0.700513  0.704280 ->  -0.1540063583
    6:   0.707107  0.000000  0.707107 /   0.734002 -0.239685  0.635446 ->  -0.1360835154
    7:   0.707107  0.707107  0.000000 /   0.959708  0.280998  0.000000 ->  -1.1190126593

--- !WARNING
src_file: m_efmas.F90
src_line: 0
message: |

    Band(s)    75,
    are not band extrema, but saddle points;
    the transport equivalent formalism breaks down in these conditions.
    The associated tensor(s) will therefore not be printed.
...

 K-point ( 0.500, 0.000, 0.500) | band =    75
 Effective mass tensor:
     *** SADDLE POINT: TRANSPORT EQV. EFF. MASS NOT DEFINED (see WARNING above) ***
 Angular average effective mass 1/(<1/m>)=   0.3295178099
 Angular average effective mass for Frohlich model (<m**0.5>)**2=   0.6472761864
 Effective masses along directions: (cart. coord. / red. coord. -> eff. mass)
    1:   1.000000  0.000000  0.000000 /   0.877920 -0.478808  0.000000 ->   0.2356308323
    2:   0.000000  1.000000  0.000000 /   0.000000  1.000000  0.000000 ->   0.3990934532
    3:   0.000000  0.000000  1.000000 /   0.159365  0.159365  0.974272 ->   0.4246994258
    4:   0.577350  0.577350  0.577350 /   0.724735  0.284779  0.627424 ->   0.2450415180
    5:   0.000000  0.707107  0.707107 /   0.115201  0.700513  0.704280 ->   1.0121680388
    6:   0.707107  0.000000  0.707107 /   0.734002 -0.239685  0.635446 ->   0.2455742935
    7:   0.707107  0.707107  0.000000 /   0.959708  0.280998  0.000000 ->   0.1781435042

 END OF EFFECTIVE MASSES SECTION

 ---- first-order wavefunction calculations are completed ----

 Total localisation tensor (bohr^2) in cartesian coordinates
  WARNING : still subject to testing - especially symmetries.
      direction              matrix element
   alpha     beta       real part   imaginary part
     1        1       4.6233664550    0.0000000000
     1        2      -1.5218666205    0.0000000000
     1        3       0.2998276923    0.0000000000
     2        1      -1.5218666205    0.0000000000
     2        2       2.3388886816    0.0000000000
     2        3       0.4603420526    0.0000000000
     3        1       0.2998276923    0.0000000000
     3        2       0.4603420526    0.0000000000
     3        3       3.4344418350    0.0000000000

 respfn : d/dk was computed, but no 2DTE, so no DDB output.

== END DATASET(S) ==============================================================

 -outvars: echo values of variables after computation  --------
            acell      1.0000000000E+00  1.0000000000E+00  1.0000000000E+00 Bohr
              amu      6.97230000E+01  1.27600000E+02
             ecut      4.00000000E+01 Hartree
           etotal     -9.0784127297E+01
            fcart      0.0000000000E+00  0.0000000000E+00  0.0000000000E+00
                       0.0000000000E+00  0.0000000000E+00  0.0000000000E+00
                       0.0000000000E+00  0.0000000000E+00  0.0000000000E+00
                       0.0000000000E+00  0.0000000000E+00  0.0000000000E+00
                       0.0000000000E+00  0.0000000000E+00  0.0000000000E+00
                       0.0000000000E+00  0.0000000000E+00  0.0000000000E+00
                       0.0000000000E+00  0.0000000000E+00  0.0000000000E+00
                       0.0000000000E+00  0.0000000000E+00  0.0000000000E+00
                       0.0000000000E+00  0.0000000000E+00  0.0000000000E+00
                       0.0000000000E+00  0.0000000000E+00  0.0000000000E+00
-          fftalg         512
           irdden           1
           irdwfk           1
           istwfk        1    1
              ixc     -116133
              kpt      0.00000000E+00  0.00000000E+00  0.00000000E+00
                       5.00000000E-01  0.00000000E+00  5.00000000E-01
           kptopt           0
P           mkmem           2
P          mkqmem           2
P          mk1mem           2
            natom          10
            nband          83
           nbdbuf           4
            ngfft          80      80      80
             nkpt           2
            nstep        2000
             nsym           2
           ntypat           2
              occ      2.000000  2.000000  2.000000  2.000000  2.000000  2.000000
                       2.000000  2.000000  2.000000  2.000000  2.000000  2.000000
                       2.000000  2.000000  2.000000  2.000000  2.000000  2.000000
                       2.000000  2.000000  2.000000  2.000000  2.000000  2.000000
                       2.000000  2.000000  2.000000  2.000000  2.000000  2.000000
                       2.000000  2.000000  2.000000  2.000000  2.000000  2.000000
                       2.000000  2.000000  2.000000  2.000000  2.000000  2.000000
                       2.000000  2.000000  2.000000  2.000000  2.000000  2.000000
                       2.000000  2.000000  2.000000  2.000000  2.000000  2.000000
                       2.000000  2.000000  2.000000  2.000000  2.000000  2.000000
                       2.000000  2.000000  2.000000  2.000000  2.000000  2.000000
                       2.000000  2.000000  2.000000  2.000000  2.000000  2.000000
                       2.000000  2.000000  0.000000  0.000000  0.000000  0.000000
                       0.000000  0.000000  0.000000  0.000000  0.000000
        optdriver           1
            prtwf          -1
            rfdir           1       1       1
           rfelfd           2
            rprim      1.3461957495E+01  0.0000000000E+00  2.2208453987E+00
                      -7.3419981123E+00  1.1283588229E+01  2.2208453987E+00
                       0.0000000000E+00  0.0000000000E+00  1.3577052681E+01
          spgroup           9
           strten      0.0000000000E+00  0.0000000000E+00  0.0000000000E+00
                       0.0000000000E+00  0.0000000000E+00  0.0000000000E+00
           symrel      1  0  0   0  1  0   0  0  1       0  1  0   1  0  0   0  0  1
            tnons      0.0000000  0.0000000  0.0000000     0.0000000  0.0000000  0.5000000
           tolwfr      1.00000000E-20
            typat      1  1  1  1  2  2  2  2  2  2
           useylm           1
              wtk        0.50000    0.50000
           xangst      2.3957600030E+00  2.1108383589E+00  7.3448671550E+00
                      -1.2253715463E+00  4.2826348378E+00  7.3749660670E+00
                       4.6264931703E-01  3.1593132448E+00  3.7525337357E+00
                       4.2579367558E+00  1.3086142149E+00  3.7826326476E+00
                      -2.7761395078E+00  5.8674563905E+00  1.5147106535E+00
                       1.1558048817E+00  4.1389363253E+00  8.5517661796E+00
                       2.8388245881E+00  3.2261050490E+00  4.9594327602E+00
                       4.8254322710E+00  1.8337293975E+00  8.4240318145E+00
                       6.4320789097E+00  8.7312997944E-01  5.1070440728E+00
                      -1.0947343420E+00  5.0446919456E+00  4.8316983952E+00
            xcart      4.5273302857E+00  3.9889064092E+00  1.3879787405E+01
                      -2.3156166335E+00  8.0930069706E+00  1.3936666106E+01
                       8.7428050476E-01  5.9702368007E+00  7.0912610649E+00
                       8.0463343597E+00  2.4729224799E+00  7.1481397654E+00
                      -5.2461433764E+00  1.1087885675E+01  2.8623883057E+00
                       2.1841546894E+00  7.8214561363E+00  1.6160496032E+01
                       5.3646010108E+00  6.0964550186E+00  9.3719696913E+00
                       9.1187454650E+00  3.4652463631E+00  1.5919113064E+01
                       1.2154867604E+01  1.6499765396E+00  9.6509146462E+00
                      -2.0687480946E+00  9.5330862019E+00  9.1305867235E+00
             xred      5.2910800000E-01  3.5351400000E-01  8.7792400000E-01
                       2.1916100000E-01  7.1723700000E-01  8.7331700000E-01
                       3.5351400000E-01  5.2910800000E-01  3.7792400000E-01
                       7.1723700000E-01  2.1916100000E-01  3.7331700000E-01
                       1.4622800000E-01  9.8265600000E-01  2.6170000000E-02
                       5.4029400000E-01  6.9317100000E-01  9.8851800000E-01
                       6.9317100000E-01  5.4029400000E-01  4.8851800000E-01
                       8.4486300000E-01  3.0710500000E-01  9.8407000000E-01
                       9.8265600000E-01  1.4622800000E-01  5.2617000000E-01
                       3.0710500000E-01  8.4486300000E-01  4.8407000000E-01
            znucl       31.00000   52.00000

- Timing analysis has been suppressed with timopt=0

 Suggested references for the acknowledgment of ABINIT usage.

 Calculation completed.
.Delivered   3 WARNINGs and   7 COMMENTs to log file.