.Version 9.5.1 of ABINIT

 ABINIT is a project of the Universite Catholique de Louvain,
 Corning Inc. and other collaborators, see ~abinit/doc/developers/contributors.txt .
 acknowledgments of the ABINIT effort.

.Starting date : Wed  5 May 2021.
- ( at 19h33 )

- input  file    -> /scratch/users/j/a/jabreu/flow_simple_7atoms/flow/w104/t1/run.abi
- output file    -> /scratch/users/j/a/jabreu/flow_simple_7atoms/flow/w104/t1/run.abo
- root for input  files -> /scratch/users/j/a/jabreu/flow_simple_7atoms/flow/w104/t1/indata/in
- root for output files -> /scratch/users/j/a/jabreu/flow_simple_7atoms/flow/w104/t1/outdata/out

 Symmetries : space group I-4 (# 82); Bravais tI (body-center tetrag.)
     intxc =       0      iscf =       7    lmnmax =      25     lnmax =       7
     mgfft =      80  mpssoang =       4    mqgrid =    3001     natom =       7
  nloc_mem =       1    nspden =       1   nspinor =       1    nsppol =       1
      nsym =       4    n1xccc =    2501    ntypat =       3    occopt =       1
   xclevel =       2
-    mband =          54        mffmem =           1         mkmem =           1
-   mkqmem =           1        mk1mem =           1           mpw =       16095
      nfft =      512000          nkpt =           1
  Rough estimation (10% accuracy) of disk space for files :

------------- Echo of variables that govern the present computation ------------
-
- outvars: echo of selected default values
-   iomode0 =  0 , fftalg0 =512 , wfoptalg0 =  0
-
- outvars: echo of global parameters not present in the input file
-  max_nthreads =    0
-
 -outvars: echo values of preprocessed input variables --------
            acell      1.0000000000E+00  1.0000000000E+00  1.0000000000E+00 Bohr
              amu      2.69815390E+01  2.00590000E+02  7.89600000E+01
             ecut      4.30000000E+01 Hartree
-          fftalg         512
           irdden           1
           irdwfk           1
           istwfk        1
              ixc     -116133
           kptopt           0
P           mkmem           1
P          mkqmem           1
P          mk1mem           1
            natom           7
            nband          54
           nbdbuf           4
            ngfft          80      80      80
             nkpt           1
            nstep        2000
             nsym           4
           ntypat           3
              occ      2.000000  2.000000  2.000000  2.000000  2.000000  2.000000
                       2.000000  2.000000  2.000000  2.000000  2.000000  2.000000
                       2.000000  2.000000  2.000000  2.000000  2.000000  2.000000
                       2.000000  2.000000  2.000000  2.000000  2.000000  2.000000
                       2.000000  2.000000  2.000000  2.000000  2.000000  2.000000
                       2.000000  2.000000  2.000000  2.000000  2.000000  2.000000
                       2.000000  2.000000  2.000000  2.000000  2.000000  2.000000
                       2.000000  2.000000  2.000000  0.000000  0.000000  0.000000
                       0.000000  0.000000  0.000000  0.000000  0.000000  0.000000
        optdriver           1
            prtwf          -1
            rfdir           1       1       1
           rfelfd           2
            rprim      9.8005362583E+00  0.0000000000E+00 -8.1407463289E+00
                      -2.1589050825E+00  9.5597928741E+00 -8.1407463289E+00
                       0.0000000000E+00  0.0000000000E+00  1.2740575409E+01
          spgroup          82
           symrel      1  0  0   0  1  0   0  0  1       0  1  0   1  0  0  -1 -1 -1
                       0  0  1  -1 -1 -1   0  1  0      -1 -1 -1   0  0  1   1  0  0
           tolwfr      1.00000000E-20
            typat      1  1  2  3  3  3  3
           useylm           1
           xangst      4.3972258109E-01  3.7941183809E+00 -9.3688635289E-01
                       2.0218885273E+00  2.5294122539E+00 -4.3078974182E+00
                       0.0000000000E+00  0.0000000000E+00  0.0000000000E+00
                       1.1583245888E+00  4.4475667425E+00 -5.4747822411E+00
                       4.0177504790E+00  2.0277792157E+00  1.1885008232E+00
                       4.7013170253E-01  6.9307919287E-01  2.5154337279E+00
                       2.4413473391E+00  2.9492238645E+00 -1.9766977215E+00
            xcart      8.3095525270E-01  7.1698446556E+00 -1.7704586246E+00
                       3.8208155879E+00  4.7798964370E+00 -8.1407463289E+00
                       0.0000000000E+00  0.0000000000E+00  0.0000000000E+00
                       2.1889162458E+00  8.4046831011E+00 -1.0345839073E+01
                       7.5924480755E+00  3.8319473757E+00  2.2459410646E+00
                       8.8842016417E-01  1.3097298629E+00  4.7534808511E+00
                       4.6134778661E+00  5.5732254085E+00 -3.7354173412E+00
             xred      2.5000000000E-01  7.5000000000E-01  5.0000000000E-01
                       5.0000000000E-01  5.0000000000E-01  0.0000000000E+00
                       0.0000000000E+00  0.0000000000E+00  0.0000000000E+00
                       4.1701400000E-01  8.7917000000E-01  1.6174000000E-02
                       8.6299600000E-01  4.0084000000E-01  9.8382600000E-01
                       1.2083000000E-01  1.3700400000E-01  5.3784400000E-01
                       5.9916000000E-01  5.8298600000E-01  4.6215600000E-01
            znucl       13.00000   80.00000   34.00000

 chkinp: Checking input parameters for consistency.

== DATASET  1 ==================================================================
-   mpi_nproc: 1, omp_nthreads: -1 (-1 if OMP is not activated)

--- !DatasetInfo
iteration_state: {dtset: 1, }
dimensions: {natom: 7, nkpt: 1, mband: 54, nsppol: 1, nspinor: 1, nspden: 1, mpw: 16095, }
cutoff_energies: {ecut:  43.0, pawecutdg:  -1.0, }
electrons: {nelect:   9.00000000E+01, charge:   0.00000000E+00, occopt:   1.00000000E+00, tsmear:   1.00000000E-02, }
meta: {optdriver: 1, rfelfd: 2, }
...

 Real(R)+Recip(G) space primitive vectors, cartesian coordinates (Bohr,Bohr^-1):
 R(1)=  9.8005363  0.0000000 -8.1407463  G(1)=  0.1020352  0.0230428  0.0000000
 R(2)= -2.1589051  9.5597929 -8.1407463  G(2)=  0.0000000  0.1046048  0.0000000
 R(3)=  0.0000000  0.0000000 12.7405754  G(3)=  0.0651967  0.0815620  0.0784894
 Unit cell volume ucvol=  1.1936785E+03 bohr^3
 Angles (23,13,12)=  1.29714478E+02  1.29714478E+02  7.38636324E+01 degrees

 getcut: wavevector=  0.0000  0.0000  0.0000  ngfft=  80  80  80
         ecut(hartree)=     43.000   => boxcut(ratio)=   2.12764

--- Pseudopotential description ------------------------------------------------
- pspini: atom type   1  psp file is /scratch/users/j/a/jabreu/pseudos/PBEsol/Al.psp8
- pspatm: opening atomic psp file    /scratch/users/j/a/jabreu/pseudos/PBEsol/Al.psp8
- Al    ONCVPSP-3.3.0  r_core=   1.76802   1.76802   1.70587
- 13.00000   3.00000    180112                znucl, zion, pspdat
    8 -116133    2    4       600   0.00000   pspcod,pspxc,lmax,lloc,mmax,r2well
    5.99000000000000    5.00000000000000    0.00000000000000   rchrg,fchrg,qchrg
     nproj     2     2     2
     extension_switch     1
  pspatm : epsatm=    0.68509324
         --- l  ekb(1:nproj) -->
             0    5.834965    0.726662
             1    6.225605    0.924840
             2   -2.432733   -0.548689
 pspatm: atomic psp has been read  and splines computed

- pspini: atom type   2  psp file is /scratch/users/j/a/jabreu/pseudos/PBEsol/Hg.psp8
- pspatm: opening atomic psp file    /scratch/users/j/a/jabreu/pseudos/PBEsol/Hg.psp8
- Hg    ONCVPSP-3.3.0  r_core=   1.60079   1.60079   1.45509   1.60079
- 80.00000  20.00000    180112                znucl, zion, pspdat
    8 -116133    3    4       600   0.00000   pspcod,pspxc,lmax,lloc,mmax,r2well
    5.99000000000000    5.00000000000000    0.00000000000000   rchrg,fchrg,qchrg
     nproj     2     2     2     1
     extension_switch     1
  pspatm : epsatm=   30.52477316
         --- l  ekb(1:nproj) -->
             0   15.280580    2.063595
             1   11.999965    1.374025
             2    2.245749    0.205661
             3    0.961656
 pspatm: atomic psp has been read  and splines computed

- pspini: atom type   3  psp file is /scratch/users/j/a/jabreu/pseudos/PBEsol/Se.psp8
- pspatm: opening atomic psp file    /scratch/users/j/a/jabreu/pseudos/PBEsol/Se.psp8
- Se    ONCVPSP-3.3.0  r_core=   1.81943   1.50330   1.90835
- 34.00000  16.00000    180112                znucl, zion, pspdat
    8 -116133    2    4       600   0.00000   pspcod,pspxc,lmax,lloc,mmax,r2well
    5.99000000000000    5.00000000000000    0.00000000000000   rchrg,fchrg,qchrg
     nproj     2     2     2
     extension_switch     1
  pspatm : epsatm=   29.17862020
         --- l  ekb(1:nproj) -->
             0    8.973804    1.019550
             1    6.849857    1.297308
             2   -9.203962   -3.731027
 pspatm: atomic psp has been read  and splines computed

   1.33748496E+04                                ecore*ucvol(ha*bohr**3)

-inwffil : will read wavefunctions from disk file /scratch/users/j/a/jabreu/flow_simple_7atoms/flow/w104/t1/indata/in_WFK

 ==>  initialize data related to q vector <==

 The list of irreducible perturbations for this q vector is:
    1)    idir= 1    ipert=   8
    2)    idir= 2    ipert=   8
    3)    idir= 3    ipert=   8

 Perturbation wavevector (in red.coord.)   0.000000  0.000000  0.000000
 Perturbation : derivative vs k along direction   1

 dfpt_looppert : COMMENT -
  In a d/dk calculation, iscf is set to -3 automatically.
 The set of symmetries contains only one element for this perturbation.
 symkpt : not enough symmetry to change the number of k points.

[...]

 Initialisation of the first-order wave-functions :
  ireadwf=   0

--- !BeginCycle
iteration_state: {dtset: 1, }
solver: {iscf: 7, nstep: 2000, nline: 4, wfoptalg: 0, }
tolerances: {tolwfr: 1.00E-20, }
...

     iter   2DEtotal(Ha)        deltaE(Ha) residm    vres2
-ETOT  1  -87.627896445452     -8.763E+01 1.150E-01 0.000E+00
 ETOT  2  -87.692660882139     -6.476E-02 4.805E-03 0.000E+00
 ETOT  3  -87.692785449229     -1.246E-04 2.125E-04 0.000E+00
 ETOT  4  -87.692786462857     -1.014E-06 1.935E-05 0.000E+00
 ETOT  5  -87.692786472887     -1.003E-08 9.953E-07 0.000E+00
 ETOT  6  -87.692786472994     -1.068E-10 1.095E-07 0.000E+00
 ETOT  7  -87.692786472995     -1.236E-12 6.142E-09 0.000E+00
 ETOT  8  -87.692786472995      7.105E-14 7.270E-10 0.000E+00
 ETOT  9  -87.692786472995     -2.842E-14 4.283E-11 0.000E+00
 ETOT 10  -87.692786472995     -5.684E-14 5.187E-12 0.000E+00
 ETOT 11  -87.692786472995      2.842E-14 3.117E-13 0.000E+00
 ETOT 12  -87.692786472995      2.842E-14 3.806E-14 0.000E+00
 ETOT 13  -87.692786472995      0.000E+00 2.292E-15 0.000E+00
 ETOT 14  -87.692786472995      1.421E-14 2.832E-16 0.000E+00
 ETOT 15  -87.692786472995      0.000E+00 1.699E-17 0.000E+00
 ETOT 16  -87.692786472995      0.000E+00 2.136E-18 0.000E+00
 ETOT 17  -87.692786472995      0.000E+00 1.278E-19 0.000E+00
 ETOT 18  -87.692786472995      0.000E+00 1.634E-20 0.000E+00
 ETOT 19  -87.692786472995     -1.421E-14 9.637E-21 0.000E+00

 At SCF step   19   max residual=  9.64E-21 < tolwfr=  1.00E-20 =>converged.

 ----iterations are completed or convergence reached----

 dfpt_looppert: DFPT cycle converged with prtwf=-1. Will skip output of the 1st-order WFK file.
 dfpt_looppert : ek2=    7.7756244414E+01
          f-sum rule ratio=    1.1168582182E+00
 prteigrs : about to open file /scratch/users/j/a/jabreu/flow_simple_7atoms/flow/w104/t1/tmpdata/tmp_1WF1_EIG
 Expectation of eigenvalue derivatives (hartree) for nkpt=   1  k points:
  (in case of degenerate eigenvalues, averaged derivative)
 kpt#   1, nband= 54, wtk=  1.00000, kpt=  0.0000  0.0000  0.0000 (reduced coord)
   0.00000   -0.00000    0.00000    0.00000   -0.00000   -0.00000   -0.00000   -0.00000
  -0.00000   -0.00000    0.00000    0.00000   -0.00000    0.00000    0.00000    0.00000
  -0.00000    0.00000    0.00000   -0.00000    0.00000    0.00000    0.00000    0.00000
  -0.00000   -0.00000   -0.00000    0.00000   -0.00000    0.00000   -0.00000   -0.00000
  -0.00000    0.00000   -0.00000    0.00000    0.00000    0.00000    0.00000    0.00000
  -0.00000   -0.00000    0.00000    0.00000    0.00000   -0.00000    0.00000   -0.00000
   0.00000    0.00000   -0.00000    0.00000    0.00000   -0.00000

 Eight components of 2nd-order total energy (hartree) are
 1,2,3: 0th-order hamiltonian combined with 1st-order wavefunctions
     kin0=   9.06655645E+01 eigvalue=   1.34649334E+01  local=  -3.94152915E+01
 4,5,6: 1st-order hamiltonian combined with 1st and 0th-order wfs
     kin1=  -8.68427006E+01  Hartree=   0.00000000E+00     xc=   0.00000000E+00
 7,8,9: eventually, occupation + non-local contributions
    edocc=   1.41768053E+01     enl0=   8.80077481E+00   enl1=  -8.85428724E+01
 1-9 gives the relaxation energy (to be shifted if some occ is /=2.0)
   erelax=  -8.76927865E+01
  No Ewald or frozen-wf contrib.: the relaxation energy is the total one
 2DEtotal=   -0.8769278647E+02 Ha. Also 2DEtotal=   -0.238624207447E+04 eV
    (  non-var. 2DEtotal :   -8.7692786472E+01 Ha)

 Perturbation wavevector (in red.coord.)   0.000000  0.000000  0.000000
 Perturbation : derivative vs k along direction   2
 The set of symmetries contains only one element for this perturbation.
 symkpt : not enough symmetry to change the number of k points.

[...]

 Perturbation wavevector (in red.coord.)   0.000000  0.000000  0.000000
 Perturbation : derivative vs k along direction   3
 The set of symmetries contains only one element for this perturbation.
 symkpt : not enough symmetry to change the number of k points.

-inwffil : will read wavefunctions from disk file /scratch/users/j/a/jabreu/flow_simple_7atoms/flow/w104/t1/indata/in_WFK

 Initialisation of the first-order wave-functions :
  ireadwf=   0

--- !BeginCycle
iteration_state: {dtset: 1, }
solver: {iscf: 7, nstep: 2000, nline: 4, wfoptalg: 0, }
tolerances: {tolwfr: 1.00E-20, }
...

     iter   2DEtotal(Ha)        deltaE(Ha) residm    vres2
-ETOT  1  -138.13242113932     -1.381E+02 1.138E-01 0.000E+00
 ETOT  2  -138.23193486902     -9.951E-02 5.605E-03 0.000E+00
 ETOT  3  -138.23207525002     -1.404E-04 1.343E-04 0.000E+00
 ETOT  4  -138.23207611377     -8.638E-07 6.848E-06 0.000E+00
 ETOT  5  -138.23207612129     -7.517E-09 5.038E-07 0.000E+00
 ETOT  6  -138.23207612136     -7.424E-11 2.675E-08 0.000E+00
 ETOT  7  -138.23207612136     -5.684E-13 1.627E-09 0.000E+00
 ETOT  8  -138.23207612136      5.684E-14 1.267E-10 0.000E+00
 ETOT  9  -138.23207612136     -1.990E-13 7.680E-12 0.000E+00
 ETOT 10  -138.23207612136      0.000E+00 6.596E-13 0.000E+00
 ETOT 11  -138.23207612136      0.000E+00 3.994E-14 0.000E+00
 ETOT 12  -138.23207612136      0.000E+00 3.613E-15 0.000E+00
 ETOT 13  -138.23207612136      0.000E+00 2.163E-16 0.000E+00
 ETOT 14  -138.23207612136      0.000E+00 2.031E-17 0.000E+00
 ETOT 15  -138.23207612136     -2.842E-14 1.197E-18 0.000E+00
 ETOT 16  -138.23207612136      0.000E+00 1.157E-19 0.000E+00
 ETOT 17  -138.23207612136      2.842E-14 9.825E-21 0.000E+00

 At SCF step   17   max residual=  9.82E-21 < tolwfr=  1.00E-20 =>converged.

 ----iterations are completed or convergence reached----

 dfpt_looppert: DFPT cycle converged with prtwf=-1. Will skip output of the 1st-order WFK file.
 dfpt_looppert : ek2=    1.2125551613E+02
          f-sum rule ratio=    1.1406280397E+00
 prteigrs : about to open file /scratch/users/j/a/jabreu/flow_simple_7atoms/flow/w104/t1/tmpdata/tmp_1WF1_EIG
 Expectation of eigenvalue derivatives (hartree) for nkpt=   1  k points:
  (in case of degenerate eigenvalues, averaged derivative)
 kpt#   1, nband= 54, wtk=  1.00000, kpt=  0.0000  0.0000  0.0000 (reduced coord)
  -0.00000   -0.00000   -0.00000   -0.00000   -0.00000   -0.00000   -0.00000   -0.00000
  -0.00000    0.00000    0.00000    0.00000   -0.00000    0.00000    0.00000   -0.00000
  -0.00000    0.00000    0.00000    0.00000    0.00000    0.00000    0.00000    0.00000
  -0.00000   -0.00000   -0.00000    0.00000   -0.00000   -0.00000   -0.00000   -0.00000
   0.00000   -0.00000    0.00000    0.00000    0.00000    0.00000    0.00000   -0.00000
  -0.00000   -0.00000    0.00000    0.00000    0.00000    0.00000   -0.00000   -0.00000
   0.00000    0.00000    0.00000    0.00000    0.00000   -0.00000

 Eight components of 2nd-order total energy (hartree) are
 1,2,3: 0th-order hamiltonian combined with 1st-order wavefunctions
     kin0=   1.41312173E+02 eigvalue=   2.09705885E+01  local=  -6.13983872E+01
 4,5,6: 1st-order hamiltonian combined with 1st and 0th-order wfs
     kin1=  -1.38307442E+02  Hartree=   0.00000000E+00     xc=   0.00000000E+00
 7,8,9: eventually, occupation + non-local contributions
    edocc=   2.36834598E+01     enl0=   1.36642421E+01   enl1=  -1.38156711E+02
 1-9 gives the relaxation energy (to be shifted if some occ is /=2.0)
   erelax=  -1.38232076E+02
  No Ewald or frozen-wf contrib.: the relaxation energy is the total one
 2DEtotal=   -0.1382320761E+03 Ha. Also 2DEtotal=   -0.376148608510E+04 eV
    (  non-var. 2DEtotal :   -1.3823207612E+02 Ha)

 CALCULATION OF EFFECTIVE MASSES
 NOTE : Additional infos (eff. mass eigenvalues, eigenvectors and, if degenerate, average mass) are available in stdout.

 COMMENTS:
 - At k-point ( 0.000, 0.000, 0.000), bands    44 through    45
   are DEGENERATE (effective mass tensor is therefore not defined).
   See Section IIIB Eqs. (67)-(70) and Appendix E of PRB 93 205147 (2016).
 - Angular average effective mass for Frohlich model is to be averaged over degenerate bands. See later.
 - Associated theta integrals calculated with ntheta=   1000 points.

 K-point ( 0.000, 0.000, 0.000) | band =    44
 Transport equivalent effective mass tensor:
             -0.2189512069             -0.1035727641              0.1763970424
             -0.1035727641             -0.2657312535              0.2206752942
              0.1763970424              0.2206752942             -0.5119971270
 Transport equivalent effective mass tensor eigenvalues:
             -0.7243591829             -0.1361602025             -0.1361602021
 Angular average effective mass 1/(<1/m>)=  -0.1850765670
 Angular average effective mass for Frohlich model (<m**0.5>)**2=  -0.2094602024
 Effective masses along directions: (cart. coord. / red. coord. -> eff. mass)
    1:   1.000000  0.000000  0.000000 /   0.976586 -0.215127  0.000000 ->  -0.1581662055
    2:   0.000000  1.000000  0.000000 /   0.000000  1.000000  0.000000 ->  -0.1742061981
    3:   0.000000  0.000000  1.000000 /  -0.474080 -0.474080  0.741954 ->  -0.2691002717
    4:   0.577350  0.577350  0.577350 /   0.128971 -0.057489  0.989981 ->  -0.1283722189
    5:   0.000000  0.707107  0.707107 /  -0.536077  0.093446  0.838981 ->  -0.1436873214
    6:   0.707107  0.000000  0.707107 /   0.100795 -0.625475  0.773706 ->  -0.1523453364
    7:   0.707107  0.707107  0.000000 /   0.798022  0.602628  0.000000 ->  -0.1820367941

 K-point ( 0.000, 0.000, 0.000) | band =    45
 Transport equivalent effective mass tensor:
             -4.9798988252              0.2041263847             -0.3476521111
              0.2041263847             -4.8877023663             -0.4349179048
             -0.3476521111             -0.4349179048             -4.4023492987
 Transport equivalent effective mass tensor eigenvalues:
             -5.1430674839             -5.1430674772             -3.9838155291
 Angular average effective mass 1/(<1/m>)=  -1.1365184937
 Angular average effective mass for Frohlich model (<m**0.5>)**2=  -1.3124119859
 Effective masses along directions: (cart. coord. / red. coord. -> eff. mass)
    1:   1.000000  0.000000  0.000000 /   0.976586 -0.215127  0.000000 ->  -1.0337515461
    2:   0.000000  1.000000  0.000000 /   0.000000  1.000000  0.000000 ->  -0.8820522415
    3:   0.000000  0.000000  1.000000 /  -0.474080 -0.474080  0.741954 ->  -1.0317748098
    4:   0.577350  0.577350  0.577350 /   0.128971 -0.057489  0.989981 ->  -4.3059206731
    5:   0.000000  0.707107  0.707107 /  -0.536077  0.093446  0.838981 ->  -1.2797204514
    6:   0.707107  0.000000  0.707107 /   0.100795 -0.625475  0.773706 ->  -1.0087833771
    7:   0.707107  0.707107  0.000000 /   0.798022  0.602628  0.000000 ->  -1.4969983037

 Angular average effective mass for Frohlich model, averaged over degenerate bands.
 Value of     (<<m**0.5>>)**2 =     6.426217E-01
 Absolute Value of <<m**0.5>> =     8.016369E-01

 K-point ( 0.000, 0.000, 0.000) | band =    46
 Effective mass tensor:
              0.1484945290              0.0222134069             -0.0378321403
              0.0222134069              0.1585275157             -0.0473285634
             -0.0378321403             -0.0473285634              0.2113445302
 Effective mass tensor eigenvalues:
              0.1307382169              0.1307382173              0.2568901408
 Angular average effective mass 1/(<1/m>)=   0.1563276728
 Angular average effective mass for Frohlich model (<m**0.5>)**2=   0.1605117153
 Effective masses along directions: (cart. coord. / red. coord. -> eff. mass)
    1:   1.000000  0.000000  0.000000 /   0.976586 -0.215127  0.000000 ->   0.1404458715
    2:   0.000000  1.000000  0.000000 /   0.000000  1.000000  0.000000 ->   0.1465964013
    3:   0.000000  0.000000  1.000000 /  -0.474080 -0.474080  0.741954 ->   0.1905186621
    4:   0.577350  0.577350  0.577350 /   0.128971 -0.057489  0.989981 ->   0.1307818856
    5:   0.000000  0.707107  0.707107 /  -0.536077  0.093446  0.838981 ->   0.1343302068
    6:   0.707107  0.000000  0.707107 /   0.100795 -0.625475  0.773706 ->   0.1367810805
    7:   0.707107  0.707107  0.000000 /   0.798022  0.602628  0.000000 ->   0.1584933286

 END OF EFFECTIVE MASSES SECTION

 ---- first-order wavefunction calculations are completed ----

 Total localisation tensor (bohr^2) in cartesian coordinates
  WARNING : still subject to testing - especially symmetries.
      direction              matrix element
   alpha     beta       real part   imaginary part
     1        1       2.2386467254    0.0000000000
     1        2      -0.4587636926    0.0000000000
     1        3      -1.3827934152    0.0000000000
     2        1      -0.4587636926    0.0000000000
     2        2       2.0314398791    0.0000000000
     2        3      -1.7298948791    0.0000000000
     3        1      -1.3827934152    0.0000000000
     3        2      -1.7298948791    0.0000000000
     3        3       9.0519187757    0.0000000000

 respfn : d/dk was computed, but no 2DTE, so no DDB output.

== END DATASET(S) ==============================================================

 -outvars: echo values of variables after computation  --------
            acell      1.0000000000E+00  1.0000000000E+00  1.0000000000E+00 Bohr
              amu      2.69815390E+01  2.00590000E+02  7.89600000E+01
             ecut      4.30000000E+01 Hartree
           etotal     -1.3823207612E+02
            fcart      0.0000000000E+00  0.0000000000E+00  0.0000000000E+00
                       0.0000000000E+00  0.0000000000E+00  0.0000000000E+00
                       0.0000000000E+00  0.0000000000E+00  0.0000000000E+00
                       0.0000000000E+00  0.0000000000E+00  0.0000000000E+00
                       0.0000000000E+00  0.0000000000E+00  0.0000000000E+00
                       0.0000000000E+00  0.0000000000E+00  0.0000000000E+00
                       0.0000000000E+00  0.0000000000E+00  0.0000000000E+00
-          fftalg         512
           irdden           1
           irdwfk           1
           istwfk        1
              ixc     -116133
           kptopt           0
P           mkmem           1
P          mkqmem           1
P          mk1mem           1
            natom           7
            nband          54
           nbdbuf           4
            ngfft          80      80      80
             nkpt           1
            nstep        2000
             nsym           4
           ntypat           3
              occ      2.000000  2.000000  2.000000  2.000000  2.000000  2.000000
                       2.000000  2.000000  2.000000  2.000000  2.000000  2.000000
                       2.000000  2.000000  2.000000  2.000000  2.000000  2.000000
                       2.000000  2.000000  2.000000  2.000000  2.000000  2.000000
                       2.000000  2.000000  2.000000  2.000000  2.000000  2.000000
                       2.000000  2.000000  2.000000  2.000000  2.000000  2.000000
                       2.000000  2.000000  2.000000  2.000000  2.000000  2.000000
                       2.000000  2.000000  2.000000  0.000000  0.000000  0.000000
                       0.000000  0.000000  0.000000  0.000000  0.000000  0.000000
        optdriver           1
            prtwf          -1
            rfdir           1       1       1
           rfelfd           2
            rprim      9.8005362583E+00  0.0000000000E+00 -8.1407463289E+00
                      -2.1589050825E+00  9.5597928741E+00 -8.1407463289E+00
                       0.0000000000E+00  0.0000000000E+00  1.2740575409E+01
          spgroup          82
           strten      0.0000000000E+00  0.0000000000E+00  0.0000000000E+00
                       0.0000000000E+00  0.0000000000E+00  0.0000000000E+00
           symrel      1  0  0   0  1  0   0  0  1       0  1  0   1  0  0  -1 -1 -1
                       0  0  1  -1 -1 -1   0  1  0      -1 -1 -1   0  0  1   1  0  0
           tolwfr      1.00000000E-20
            typat      1  1  2  3  3  3  3
           useylm           1
           xangst      4.3972258109E-01  3.7941183809E+00 -9.3688635289E-01
                       2.0218885273E+00  2.5294122539E+00 -4.3078974182E+00
                       0.0000000000E+00  0.0000000000E+00  0.0000000000E+00
                       1.1583245888E+00  4.4475667425E+00 -5.4747822411E+00
                       4.0177504790E+00  2.0277792157E+00  1.1885008232E+00
                       4.7013170253E-01  6.9307919287E-01  2.5154337279E+00
                       2.4413473391E+00  2.9492238645E+00 -1.9766977215E+00
            xcart      8.3095525270E-01  7.1698446556E+00 -1.7704586246E+00
                       3.8208155879E+00  4.7798964370E+00 -8.1407463289E+00
                       0.0000000000E+00  0.0000000000E+00  0.0000000000E+00
                       2.1889162458E+00  8.4046831011E+00 -1.0345839073E+01
                       7.5924480755E+00  3.8319473757E+00  2.2459410646E+00
                       8.8842016417E-01  1.3097298629E+00  4.7534808511E+00
                       4.6134778661E+00  5.5732254085E+00 -3.7354173412E+00
             xred      2.5000000000E-01  7.5000000000E-01  5.0000000000E-01
                       5.0000000000E-01  5.0000000000E-01  0.0000000000E+00
                       0.0000000000E+00  0.0000000000E+00  0.0000000000E+00
                       4.1701400000E-01  8.7917000000E-01  1.6174000000E-02
                       8.6299600000E-01  4.0084000000E-01  9.8382600000E-01
                       1.2083000000E-01  1.3700400000E-01  5.3784400000E-01
                       5.9916000000E-01  5.8298600000E-01  4.6215600000E-01
            znucl       13.00000   80.00000   34.00000

- Timing analysis has been suppressed with timopt=0

 Suggested references for the acknowledgment of ABINIT usage.

 Calculation completed.
.Delivered   6 WARNINGs and   5 COMMENTs to log file.