.Version 9.5.1 of ABINIT

 ABINIT is a project of the Universite Catholique de Louvain,
 Corning Inc. and other collaborators, see ~abinit/doc/developers/contributors.txt .
 acknowledgments of the ABINIT effort.

.Starting date : Tue 11 May 2021.
- ( at 21h28 )

- input  file    -> /scratch/users/j/a/jabreu/flow_simple_8atoms/flow/w315/t1/run.abi
- output file    -> /scratch/users/j/a/jabreu/flow_simple_8atoms/flow/w315/t1/run.abo
- root for input  files -> /scratch/users/j/a/jabreu/flow_simple_8atoms/flow/w315/t1/indata/in
- root for output files -> /scratch/users/j/a/jabreu/flow_simple_8atoms/flow/w315/t1/outdata/out

 Symmetries : space group I-4 2 d (#122); Bravais tI (body-center tetrag.)
     intxc =       0      iscf =       7    lmnmax =      18     lnmax =       6
     mgfft =      54  mpssoang =       3    mqgrid =    3001     natom =       8
  nloc_mem =       1    nspden =       1   nspinor =       1    nsppol =       1
      nsym =       8    n1xccc =    2501    ntypat =       3    occopt =       1
   xclevel =       2
-    mband =          27        mffmem =           1         mkmem =           2
-   mkqmem =           2        mk1mem =           2           mpw =        6540
      nfft =      157464          nkpt =           2
  Rough estimation (10% accuracy) of disk space for files :

------------- Echo of variables that govern the present computation ------------
-
- outvars: echo of selected default values
-   iomode0 =  0 , fftalg0 =512 , wfoptalg0 =  0
-
- outvars: echo of global parameters not present in the input file
-  max_nthreads =    0
-
 -outvars: echo values of preprocessed input variables --------
            acell      1.0000000000E+00  1.0000000000E+00  1.0000000000E+00 Bohr
              amu      6.94100000E+00  3.09737620E+01  1.40067400E+01
             ecut      4.20000000E+01 Hartree
-          fftalg         512
           irdden           1
           irdwfk           1
           istwfk        1    1
              ixc     -116133
              kpt      2.77555756E-17  5.00000000E-01 -5.55111512E-17
                       0.00000000E+00  0.00000000E+00  0.00000000E+00
           kptopt           0
P           mkmem           2
P          mkqmem           2
P          mk1mem           2
            natom           8
            nband          27
           nbdbuf           4
            ngfft          54      54      54
             nkpt           2
            nstep        2000
             nsym           8
           ntypat           3
              occ      2.000000  2.000000  2.000000  2.000000  2.000000  2.000000
                       2.000000  2.000000  2.000000  2.000000  2.000000  2.000000
                       2.000000  2.000000  2.000000  2.000000  2.000000  2.000000
                       0.000000  0.000000  0.000000  0.000000  0.000000  0.000000
                       0.000000  0.000000  0.000000
        optdriver           1
            prtwf          -1
            rfdir           1       1       1
           rfelfd           2
            rprim      7.5626056374E+00  0.0000000000E+00 -5.1418015137E+00
                      -2.1190636498E+00  7.2596537985E+00 -5.1418015137E+00
                       0.0000000000E+00  0.0000000000E+00  9.1450055677E+00
          spgroup         122
           symrel      1  0  0   0  1  0   0  0  1       0  0  1  -1 -1 -1   1  0  0
                       0  1  0   1  0  0  -1 -1 -1      -1 -1 -1   0  0  1   0  1  0
                       0  1  0   1  0  0   0  0  1       0  0  1  -1 -1 -1   0  1  0
                       1  0  0   0  1  0  -1 -1 -1      -1 -1 -1   0  0  1   1  0  0
            tnons      0.0000000  0.0000000  0.0000000    -0.2500000  0.2500000  0.5000000
                       0.0000000  0.0000000  0.0000000    -0.2500000  0.2500000  0.5000000
                      -0.2500000  0.2500000  0.5000000     0.0000000  0.0000000  0.0000000
                      -0.2500000  0.2500000  0.5000000     0.0000000  0.0000000  0.0000000
           tolwfr      1.00000000E-20
            typat      1  1  2  2  3  3  3  3
           useylm           1
              wtk        0.50000    0.50000
           xangst      1.5946949495E-01  2.8812324993E+00 -3.0125991272E-01
                       1.4402991769E+00  1.9208216662E+00 -2.7209241721E+00
                       2.7211288589E+00  9.6041083311E-01 -3.0125991272E-01
                       0.0000000000E+00  0.0000000000E+00  0.0000000000E+00
                       1.1697100470E+00  1.1340492701E+00  2.0992034505E-01
                       2.4310378953E+00  3.6680048954E+00 -2.1729022566E+00
                      -5.1996559280E-01  2.4010270828E+00  2.6295846045E+00
                       2.6804143582E+00  4.8020541655E-01 -1.8716423438E+00
            xcart      3.0135367200E-01  5.4447403489E+00 -5.6929872985E-01
                       2.7217709938E+00  3.6298268992E+00 -5.1418015137E+00
                       5.1421883156E+00  1.8149134496E+00 -5.6929872985E-01
                       0.0000000000E+00  0.0000000000E+00  0.0000000000E+00
                       2.2104316437E+00  2.1430425417E+00  3.9669196186E-01
                       4.5939958408E+00  6.9315247065E+00 -4.1061901784E+00
                      -9.8259256892E-01  4.5372836241E+00  4.9691947457E+00
                       5.0652490596E+00  9.0745672481E-01 -3.5368914486E+00
             xred      2.5000000000E-01  7.5000000000E-01  5.0000000000E-01
                       5.0000000000E-01  5.0000000000E-01 -5.5511151231E-17
                       7.5000000000E-01  2.5000000000E-01  5.0000000000E-01
                       0.0000000000E+00  0.0000000000E+00  0.0000000000E+00
                       3.7500000000E-01  2.9519900000E-01  4.2019900000E-01
                       8.7500000000E-01  9.5480100000E-01  5.7980100000E-01
                       4.5199000000E-02  6.2500000000E-01  9.2019900000E-01
                       7.0480100000E-01  1.2500000000E-01  7.9801000000E-02
            znucl        3.00000   15.00000    7.00000

 chkinp: Checking input parameters for consistency.

== DATASET  1 ==================================================================
-   mpi_nproc: 1, omp_nthreads: -1 (-1 if OMP is not activated)

--- !DatasetInfo
iteration_state: {dtset: 1, }
dimensions: {natom: 8, nkpt: 2, mband: 27, nsppol: 1, nspinor: 1, nspden: 1, mpw: 6540, }
cutoff_energies: {ecut:  42.0, pawecutdg:  -1.0, }
electrons: {nelect:   3.60000000E+01, charge:   0.00000000E+00, occopt:   1.00000000E+00, tsmear:   1.00000000E-02, }
meta: {optdriver: 1, rfelfd: 2, }
...

 Real(R)+Recip(G) space primitive vectors, cartesian coordinates (Bohr,Bohr^-1):
 R(1)=  7.5626056  0.0000000 -5.1418015  G(1)=  0.1322296  0.0385973  0.0000000
 R(2)= -2.1190636  7.2596538 -5.1418015  G(2)=  0.0000000  0.1377476  0.0000000
 R(3)=  0.0000000  0.0000000  9.1450056  G(3)=  0.0743464  0.0991503  0.1093493
 Unit cell volume ucvol=  5.0207817E+02 bohr^3
 Angles (23,13,12)=  1.24211711E+02  1.24211711E+02  8.28478382E+01 degrees

 getcut: wavevector=  0.0000  0.0000  0.0000  ngfft=  54  54  54
         ecut(hartree)=     42.000   => boxcut(ratio)=   2.02423

--- Pseudopotential description ------------------------------------------------
- pspini: atom type   1  psp file is /scratch/users/j/a/jabreu/pseudos/PBEsol/Li.psp8
- pspatm: opening atomic psp file    /scratch/users/j/a/jabreu/pseudos/PBEsol/Li.psp8
- Li    ONCVPSP-3.3.0  r_core=   1.40824   1.10935
-  3.00000   3.00000    180112                znucl, zion, pspdat
    8 -116133    1    4       400   0.00000   pspcod,pspxc,lmax,lloc,mmax,r2well
    3.99000000000000    0.00000000000000    0.00000000000000   rchrg,fchrg,qchrg
     nproj     2     2
     extension_switch     1
  pspatm : epsatm=    2.60859637
         --- l  ekb(1:nproj) -->
             0   -4.855856   -1.482423
             1   -2.171544   -0.427615
 pspatm: atomic psp has been read  and splines computed

- pspini: atom type   2  psp file is /scratch/users/j/a/jabreu/pseudos/PBEsol/P.psp8
- pspatm: opening atomic psp file    /scratch/users/j/a/jabreu/pseudos/PBEsol/P.psp8
- P     ONCVPSP-3.3.0  r_core=   1.46089   1.55067   1.70594
- 15.00000   5.00000    180112                znucl, zion, pspdat
    8 -116133    2    4       600   0.00000   pspcod,pspxc,lmax,lloc,mmax,r2well
    5.99000000000000    5.00000000000000    0.00000000000000   rchrg,fchrg,qchrg
     nproj     2     2     2
     extension_switch     1
  pspatm : epsatm=    7.31221086
         --- l  ekb(1:nproj) -->
             0    6.742364    1.063650
             1    3.449117    0.910422
             2   -3.077645   -0.799176
 pspatm: atomic psp has been read  and splines computed

- pspini: atom type   3  psp file is /scratch/users/j/a/jabreu/pseudos/PBEsol/N.psp8
- pspatm: opening atomic psp file    /scratch/users/j/a/jabreu/pseudos/PBEsol/N.psp8
- N     ONCVPSP-3.3.0  r_core=   1.20551   1.35824
-  7.00000   5.00000    180112                znucl, zion, pspdat
    8 -116133    1    4       600   0.00000   pspcod,pspxc,lmax,lloc,mmax,r2well
    5.99000000000000    4.00000000000000    0.00000000000000   rchrg,fchrg,qchrg
     nproj     2     2
     extension_switch     1
  pspatm : epsatm=    5.26508895
         --- l  ekb(1:nproj) -->
             0    7.464189    0.625868
             1   -4.309714   -1.012941
 pspatm: atomic psp has been read  and splines computed

   1.47247093E+03                                ecore*ucvol(ha*bohr**3)

-inwffil : will read wavefunctions from disk file /scratch/users/j/a/jabreu/flow_simple_8atoms/flow/w315/t1/indata/in_WFK

 ==>  initialize data related to q vector <==

 The list of irreducible perturbations for this q vector is:
    1)    idir= 1    ipert=   9
    2)    idir= 2    ipert=   9
    3)    idir= 3    ipert=   9

 Perturbation wavevector (in red.coord.)   0.000000  0.000000  0.000000
 Perturbation : derivative vs k along direction   1

 dfpt_looppert : COMMENT -
  In a d/dk calculation, iscf is set to -3 automatically.
 The set of symmetries contains only one element for this perturbation.
 symkpt : not enough symmetry to change the number of k points.

[...]

 Initialisation of the first-order wave-functions :
  ireadwf=   0

--- !BeginCycle
iteration_state: {dtset: 1, }
solver: {iscf: 7, nstep: 2000, nline: 4, wfoptalg: 0, }
tolerances: {tolwfr: 1.00E-20, }
...

     iter   2DEtotal(Ha)        deltaE(Ha) residm    vres2
-ETOT  1  -27.141132765532     -2.714E+01 1.348E-01 0.000E+00
 ETOT  2  -27.160560943969     -1.943E-02 2.269E-02 0.000E+00
 ETOT  3  -27.160639489577     -7.855E-05 7.572E-04 0.000E+00
 ETOT  4  -27.160640137757     -6.482E-07 2.296E-04 0.000E+00
 ETOT  5  -27.160640144873     -7.116E-09 1.287E-05 0.000E+00
 ETOT  6  -27.160640144963     -9.003E-11 3.295E-06 0.000E+00
 ETOT  7  -27.160640144965     -1.226E-12 3.870E-07 0.000E+00
 ETOT  8  -27.160640144965     -3.553E-14 8.034E-08 0.000E+00
 ETOT  9  -27.160640144965      7.105E-15 1.224E-08 0.000E+00
 ETOT 10  -27.160640144965     -1.066E-14 2.646E-09 0.000E+00
 ETOT 11  -27.160640144965     -1.066E-14 3.964E-10 0.000E+00
 ETOT 12  -27.160640144965      0.000E+00 8.787E-11 0.000E+00
 ETOT 13  -27.160640144965      3.553E-15 1.301E-11 0.000E+00
 ETOT 14  -27.160640144965      0.000E+00 2.930E-12 0.000E+00
 ETOT 15  -27.160640144965      0.000E+00 4.300E-13 0.000E+00
 ETOT 16  -27.160640144965      0.000E+00 9.799E-14 0.000E+00
 ETOT 17  -27.160640144965     -3.553E-15 1.429E-14 0.000E+00
 ETOT 18  -27.160640144965      0.000E+00 3.283E-15 0.000E+00
 ETOT 19  -27.160640144965      3.553E-15 4.761E-16 0.000E+00
 ETOT 20  -27.160640144965      1.421E-14 1.101E-16 0.000E+00
 ETOT 21  -27.160640144965     -1.421E-14 1.590E-17 0.000E+00
 ETOT 22  -27.160640144965      0.000E+00 3.697E-18 0.000E+00
 ETOT 23  -27.160640144965      1.066E-14 5.319E-19 0.000E+00
 ETOT 24  -27.160640144965      0.000E+00 1.242E-19 0.000E+00
 ETOT 25  -27.160640144965     -1.421E-14 1.781E-20 0.000E+00
 ETOT 26  -27.160640144965      1.776E-14 9.992E-21 0.000E+00

 At SCF step   26   max residual=  9.99E-21 < tolwfr=  1.00E-20 =>converged.

 ----iterations are completed or convergence reached----

 dfpt_looppert: DFPT cycle converged with prtwf=-1. Will skip output of the 1st-order WFK file.
 dfpt_looppert : ek2=    5.3933724501E+01
          f-sum rule ratio=    9.9667704555E-01
 prteigrs : about to open file /scratch/users/j/a/jabreu/flow_simple_8atoms/flow/w315/t1/tmpdata/tmp_1WF1_EIG
 Expectation of eigenvalue derivatives (hartree) for nkpt=   2  k points:
  (in case of degenerate eigenvalues, averaged derivative)
 kpt#   1, nband= 27, wtk=  0.50000, kpt=  0.0000  0.5000  0.0000 (reduced coord)
   0.00000   -0.00000   -0.00000   -0.00000   -0.00000   -0.00000   -0.00000   -0.00000
  -0.00000    0.00000    0.00000    0.00000   -0.00000   -0.00000    0.00000   -0.00000
  -0.00000   -0.00000    0.00000    0.00000    0.00000   -0.00000   -0.00000    0.00000
   0.00000    0.00013    0.00157
 prteigrs : prtvol=0 or 1, do not print more k-points.

 Eight components of 2nd-order total energy (hartree) are
 1,2,3: 0th-order hamiltonian combined with 1st-order wavefunctions
     kin0=   2.90904432E+01 eigvalue=   4.57910091E-01  local=  -1.13137671E+01
 4,5,6: 1st-order hamiltonian combined with 1st and 0th-order wfs
     kin1=  -5.37545052E+01  Hartree=   0.00000000E+00     xc=   0.00000000E+00
 7,8,9: eventually, occupation + non-local contributions
    edocc=   1.06079171E+01     enl0=  -1.68186317E+00   enl1=  -5.66775098E-01
 1-9 gives the relaxation energy (to be shifted if some occ is /=2.0)
   erelax=  -2.71606401E+01
  No Ewald or frozen-wf contrib.: the relaxation energy is the total one
 2DEtotal=   -0.2716064014E+02 Ha. Also 2DEtotal=   -0.739078604868E+03 eV
    (  non-var. 2DEtotal :   -2.7160640145E+01 Ha)

 Perturbation wavevector (in red.coord.)   0.000000  0.000000  0.000000
 Perturbation : derivative vs k along direction   2
 The set of symmetries contains only one element for this perturbation.
 symkpt : not enough symmetry to change the number of k points.

[...]

 Perturbation wavevector (in red.coord.)   0.000000  0.000000  0.000000
 Perturbation : derivative vs k along direction   3
 The set of symmetries contains only one element for this perturbation.
 symkpt : not enough symmetry to change the number of k points.

-inwffil : will read wavefunctions from disk file /scratch/users/j/a/jabreu/flow_simple_8atoms/flow/w315/t1/indata/in_WFK

 Initialisation of the first-order wave-functions :
  ireadwf=   0

--- !BeginCycle
iteration_state: {dtset: 1, }
solver: {iscf: 7, nstep: 2000, nline: 4, wfoptalg: 0, }
tolerances: {tolwfr: 1.00E-20, }
...

     iter   2DEtotal(Ha)        deltaE(Ha) residm    vres2
-ETOT  1  -39.396000225475     -3.940E+01 5.716E-01 0.000E+00
 ETOT  2  -39.425941769235     -2.994E-02 4.109E-02 0.000E+00
 ETOT  3  -39.426086421786     -1.447E-04 3.979E-03 0.000E+00
 ETOT  4  -39.426087697411     -1.276E-06 3.766E-04 0.000E+00
 ETOT  5  -39.426087711285     -1.387E-08 5.245E-05 0.000E+00
 ETOT  6  -39.426087711451     -1.656E-10 6.245E-06 0.000E+00
 ETOT  7  -39.426087711453     -2.103E-12 9.412E-07 0.000E+00
 ETOT  8  -39.426087711453     -2.132E-14 1.189E-07 0.000E+00
 ETOT  9  -39.426087711453      4.974E-14 1.796E-08 0.000E+00
 ETOT 10  -39.426087711453     -1.421E-14 2.407E-09 0.000E+00
 ETOT 11  -39.426087711453      0.000E+00 3.491E-10 0.000E+00
 ETOT 12  -39.426087711453     -1.421E-14 6.419E-11 0.000E+00
 ETOT 13  -39.426087711453      0.000E+00 6.889E-12 0.000E+00
 ETOT 14  -39.426087711453      0.000E+00 1.711E-12 0.000E+00
 ETOT 15  -39.426087711453      1.421E-14 1.421E-13 0.000E+00
 ETOT 16  -39.426087711453     -1.421E-14 4.558E-14 0.000E+00
 ETOT 17  -39.426087711453      0.000E+00 3.765E-15 0.000E+00
 ETOT 18  -39.426087711453      0.000E+00 1.215E-15 0.000E+00
 ETOT 19  -39.426087711453      0.000E+00 1.000E-16 0.000E+00
 ETOT 20  -39.426087711453      1.421E-14 3.242E-17 0.000E+00
 ETOT 21  -39.426087711453     -1.421E-14 2.662E-18 0.000E+00
 ETOT 22  -39.426087711453      1.421E-14 8.659E-19 0.000E+00
 ETOT 23  -39.426087711453      0.000E+00 7.097E-20 0.000E+00
 ETOT 24  -39.426087711453     -1.421E-14 2.316E-20 0.000E+00
 ETOT 25  -39.426087711453      0.000E+00 9.836E-21 0.000E+00

 At SCF step   25   max residual=  9.84E-21 < tolwfr=  1.00E-20 =>converged.

 ----iterations are completed or convergence reached----

 dfpt_looppert: DFPT cycle converged with prtwf=-1. Will skip output of the 1st-order WFK file.
 dfpt_looppert : ek2=    7.7642682429E+01
          f-sum rule ratio=    1.0057185234E+00
 prteigrs : about to open file /scratch/users/j/a/jabreu/flow_simple_8atoms/flow/w315/t1/tmpdata/tmp_1WF1_EIG
 Expectation of eigenvalue derivatives (hartree) for nkpt=   2  k points:
  (in case of degenerate eigenvalues, averaged derivative)
 kpt#   1, nband= 27, wtk=  0.50000, kpt=  0.0000  0.5000  0.0000 (reduced coord)
   0.00000    0.00000   -0.00000    0.00000   -0.00000    0.00000    0.00000   -0.00000
  -0.00000    0.00000    0.00000   -0.00000   -0.00000    0.00000   -0.00000    0.00000
  -0.00000   -0.00000   -0.00000    0.00000    0.00000    0.00000    0.00000    0.00000
   0.00000    0.00013   -0.00004
 prteigrs : prtvol=0 or 1, do not print more k-points.

 Eight components of 2nd-order total energy (hartree) are
 1,2,3: 0th-order hamiltonian combined with 1st-order wavefunctions
     kin0=   4.23395252E+01 eigvalue=   7.05684712E-01  local=  -1.68136361E+01
 4,5,6: 1st-order hamiltonian combined with 1st and 0th-order wfs
     kin1=  -7.80866839E+01  Hartree=   0.00000000E+00     xc=   0.00000000E+00
 7,8,9: eventually, occupation + non-local contributions
    edocc=   1.56622274E+01     enl0=  -2.46771352E+00   enl1=  -7.65491494E-01
 1-9 gives the relaxation energy (to be shifted if some occ is /=2.0)
   erelax=  -3.94260877E+01
  No Ewald or frozen-wf contrib.: the relaxation energy is the total one
 2DEtotal=   -0.3942608771E+02 Ha. Also 2DEtotal=   -0.107283840681E+04 eV
    (  non-var. 2DEtotal :   -3.9426087711E+01 Ha)

 CALCULATION OF EFFECTIVE MASSES
 NOTE : Additional infos (eff. mass eigenvalues, eigenvectors and, if degenerate, average mass) are available in stdout.

 K-point ( 0.000, 0.500,-0.000) | band =    18
 Effective mass tensor:
             -1.9349694947             -0.0175391009             -0.5590310662
             -0.0175391009             -1.1480483014              0.0337859881
             -0.5590310662              0.0337859881             -1.1744810327
 Effective mass tensor eigenvalues:
             -2.2308180988             -1.1533233197             -0.8733574102
 Angular average effective mass 1/(<1/m>)=  -1.2193475363
 Angular average effective mass for Frohlich model (<m**0.5>)**2=  -1.2704624725
 Effective masses along directions: (cart. coord. / red. coord. -> eff. mass)
    1:   1.000000  0.000000  0.000000 /   0.962913 -0.269811  0.000000 ->  -1.6678957200
    2:   0.000000  1.000000  0.000000 /   0.000000  1.000000  0.000000 ->  -1.1463990817
    3:   0.000000  0.000000  1.000000 /  -0.440086 -0.440086  0.782719 ->  -1.0116565635
    4:   0.577350  0.577350  0.577350 /   0.255899 -0.000128  0.966703 ->  -1.5622285595
    5:   0.000000  0.707107  0.707107 /  -0.480407  0.197874  0.854433 ->  -1.0375115634
    6:   0.707107  0.000000  0.707107 /   0.202998 -0.608865  0.766861 ->  -1.9679850999
    7:   0.707107  0.707107  0.000000 /   0.827027  0.562162  0.000000 ->  -1.3920707533

 K-point ( 0.000, 0.000, 0.000) | band =    19
 Effective mass tensor:
              0.4764541244             -0.0279905824              0.0396498509
             -0.0279905824              0.4601133709              0.0528781762
              0.0396498509              0.0528781762              0.4225382267
 Effective mass tensor eigenvalues:
              0.3642208962              0.4974424129              0.4974424130
 Angular average effective mass 1/(<1/m>)=   0.4433834468
 Angular average effective mass for Frohlich model (<m**0.5>)**2=   0.4464096698
 Effective masses along directions: (cart. coord. / red. coord. -> eff. mass)
    1:   1.000000  0.000000  0.000000 /   0.962913 -0.269811  0.000000 ->   0.4703390486
    2:   0.000000  1.000000  0.000000 /   0.000000  1.000000  0.000000 ->   0.4511989773
    3:   0.000000  0.000000  1.000000 /  -0.440086 -0.440086  0.782719 ->   0.4125906915
    4:   0.577350  0.577350  0.577350 /   0.255899 -0.000128  0.966703 ->   0.4955617684
    5:   0.000000  0.707107  0.707107 /  -0.480407  0.197874  0.854433 ->   0.4930584274
    6:   0.707107  0.000000  0.707107 /   0.202998 -0.608865  0.766861 ->   0.4863638007
    7:   0.707107  0.707107  0.000000 /   0.827027  0.562162  0.000000 ->   0.4299756974

 END OF EFFECTIVE MASSES SECTION

 ---- first-order wavefunction calculations are completed ----

 Total localisation tensor (bohr^2) in cartesian coordinates
  WARNING : still subject to testing - especially symmetries.
      direction              matrix element
   alpha     beta       real part   imaginary part
     1        1       0.9576278547    0.0000000000
     1        2      -0.2596492695    0.0000000000
     1        3      -0.4156575065    0.0000000000
     2        1      -0.2596492695    0.0000000000
     2        2       0.8895267521    0.0000000000
     2        3      -0.6300259114    0.0000000000
     3        1      -0.4156575065    0.0000000000
     3        2      -0.6300259114    0.0000000000
     3        3       2.7426486705    0.0000000000

 respfn : d/dk was computed, but no 2DTE, so no DDB output.

== END DATASET(S) ==============================================================

 -outvars: echo values of variables after computation  --------
            acell      1.0000000000E+00  1.0000000000E+00  1.0000000000E+00 Bohr
              amu      6.94100000E+00  3.09737620E+01  1.40067400E+01
             ecut      4.20000000E+01 Hartree
           etotal     -3.9426087711E+01
            fcart      0.0000000000E+00  0.0000000000E+00  0.0000000000E+00
                       0.0000000000E+00  0.0000000000E+00  0.0000000000E+00
                       0.0000000000E+00  0.0000000000E+00  0.0000000000E+00
                       0.0000000000E+00  0.0000000000E+00  0.0000000000E+00
                       0.0000000000E+00  0.0000000000E+00  0.0000000000E+00
                       0.0000000000E+00  0.0000000000E+00  0.0000000000E+00
                       0.0000000000E+00  0.0000000000E+00  0.0000000000E+00
                       0.0000000000E+00  0.0000000000E+00  0.0000000000E+00
-          fftalg         512
           irdden           1
           irdwfk           1
           istwfk        1    1
              ixc     -116133
              kpt      2.77555756E-17  5.00000000E-01 -5.55111512E-17
                       0.00000000E+00  0.00000000E+00  0.00000000E+00
           kptopt           0
P           mkmem           2
P          mkqmem           2
P          mk1mem           2
            natom           8
            nband          27
           nbdbuf           4
            ngfft          54      54      54
             nkpt           2
            nstep        2000
             nsym           8
           ntypat           3
              occ      2.000000  2.000000  2.000000  2.000000  2.000000  2.000000
                       2.000000  2.000000  2.000000  2.000000  2.000000  2.000000
                       2.000000  2.000000  2.000000  2.000000  2.000000  2.000000
                       0.000000  0.000000  0.000000  0.000000  0.000000  0.000000
                       0.000000  0.000000  0.000000
        optdriver           1
            prtwf          -1
            rfdir           1       1       1
           rfelfd           2
            rprim      7.5626056374E+00  0.0000000000E+00 -5.1418015137E+00
                      -2.1190636498E+00  7.2596537985E+00 -5.1418015137E+00
                       0.0000000000E+00  0.0000000000E+00  9.1450055677E+00
          spgroup         122
           strten      0.0000000000E+00  0.0000000000E+00  0.0000000000E+00
                       0.0000000000E+00  0.0000000000E+00  0.0000000000E+00
           symrel      1  0  0   0  1  0   0  0  1       0  0  1  -1 -1 -1   1  0  0
                       0  1  0   1  0  0  -1 -1 -1      -1 -1 -1   0  0  1   0  1  0
                       0  1  0   1  0  0   0  0  1       0  0  1  -1 -1 -1   0  1  0
                       1  0  0   0  1  0  -1 -1 -1      -1 -1 -1   0  0  1   1  0  0
            tnons      0.0000000  0.0000000  0.0000000    -0.2500000  0.2500000  0.5000000
                       0.0000000  0.0000000  0.0000000    -0.2500000  0.2500000  0.5000000
                      -0.2500000  0.2500000  0.5000000     0.0000000  0.0000000  0.0000000
                      -0.2500000  0.2500000  0.5000000     0.0000000  0.0000000  0.0000000
           tolwfr      1.00000000E-20
            typat      1  1  2  2  3  3  3  3
           useylm           1
              wtk        0.50000    0.50000
           xangst      1.5946949495E-01  2.8812324993E+00 -3.0125991272E-01
                       1.4402991769E+00  1.9208216662E+00 -2.7209241721E+00
                       2.7211288589E+00  9.6041083311E-01 -3.0125991272E-01
                       0.0000000000E+00  0.0000000000E+00  0.0000000000E+00
                       1.1697100470E+00  1.1340492701E+00  2.0992034505E-01
                       2.4310378953E+00  3.6680048954E+00 -2.1729022566E+00
                      -5.1996559280E-01  2.4010270828E+00  2.6295846045E+00
                       2.6804143582E+00  4.8020541655E-01 -1.8716423438E+00
            xcart      3.0135367200E-01  5.4447403489E+00 -5.6929872985E-01
                       2.7217709938E+00  3.6298268992E+00 -5.1418015137E+00
                       5.1421883156E+00  1.8149134496E+00 -5.6929872985E-01
                       0.0000000000E+00  0.0000000000E+00  0.0000000000E+00
                       2.2104316437E+00  2.1430425417E+00  3.9669196186E-01
                       4.5939958408E+00  6.9315247065E+00 -4.1061901784E+00
                      -9.8259256892E-01  4.5372836241E+00  4.9691947457E+00
                       5.0652490596E+00  9.0745672481E-01 -3.5368914486E+00
             xred      2.5000000000E-01  7.5000000000E-01  5.0000000000E-01
                       5.0000000000E-01  5.0000000000E-01 -5.5511151231E-17
                       7.5000000000E-01  2.5000000000E-01  5.0000000000E-01
                       0.0000000000E+00  0.0000000000E+00  0.0000000000E+00
                       3.7500000000E-01  2.9519900000E-01  4.2019900000E-01
                       8.7500000000E-01  9.5480100000E-01  5.7980100000E-01
                       4.5199000000E-02  6.2500000000E-01  9.2019900000E-01
                       7.0480100000E-01  1.2500000000E-01  7.9801000000E-02
            znucl        3.00000   15.00000    7.00000

- Timing analysis has been suppressed with timopt=0

 Suggested references for the acknowledgment of ABINIT usage.

 Calculation completed.
.Delivered  14 WARNINGs and   9 COMMENTs to log file.