.Version 9.5.1 of ABINIT

 ABINIT is a project of the Universite Catholique de Louvain,
 Corning Inc. and other collaborators, see ~abinit/doc/developers/contributors.txt .
 acknowledgments of the ABINIT effort.

.Starting date : Tue 27 Apr 2021.
- ( at 15h34 )

- input  file    -> /scratch/users/j/a/jabreu/flow_simple/flow/w160/t1/run.abi
- output file    -> /scratch/users/j/a/jabreu/flow_simple/flow/w160/t1/run.abo
- root for input  files -> /scratch/users/j/a/jabreu/flow_simple/flow/w160/t1/indata/in
- root for output files -> /scratch/users/j/a/jabreu/flow_simple/flow/w160/t1/outdata/out

 Symmetries : space group F-4 3 m (#216); Bravais cF (face-center cubic)
     intxc =       0      iscf =       7    lmnmax =      18     lnmax =       6
     mgfft =      54  mpssoang =       3    mqgrid =    3001     natom =       3
  nloc_mem =       1    nspden =       1   nspinor =       1    nsppol =       1
      nsym =      24    n1xccc =    2501    ntypat =       3    occopt =       1
   xclevel =       2
-    mband =          31        mffmem =           1         mkmem =           2
-   mkqmem =           2        mk1mem =           2           mpw =        7239
      nfft =      157464          nkpt =           2
  Rough estimation (10% accuracy) of disk space for files :

------------- Echo of variables that govern the present computation ------------
-
- outvars: echo of selected default values
-   iomode0 =  0 , fftalg0 =512 , wfoptalg0 =  0
-
- outvars: echo of global parameters not present in the input file
-  max_nthreads =    0
-
 -outvars: echo values of preprocessed input variables --------
            acell      1.0000000000E+00  1.0000000000E+00  1.0000000000E+00 Bohr
              amu      8.89058500E+01  5.86900000E+01  2.08980370E+02
             ecut      4.90000000E+01 Hartree
-          fftalg         512
           irdden           1
           irdwfk           1
           istwfk        1    1
              ixc     -116133
              kpt      0.00000000E+00  0.00000000E+00  0.00000000E+00
                       5.00000000E-01  2.82492183E-17  5.00000000E-01
           kptopt           0
P           mkmem           2
P          mkqmem           2
P          mk1mem           2
            natom           3
            nband          31
           nbdbuf           4
            ngfft          54      54      54
             nkpt           2
            nstep         100
             nsym          24
           ntypat           3
              occ      2.000000  2.000000  2.000000  2.000000  2.000000  2.000000
                       2.000000  2.000000  2.000000  2.000000  2.000000  2.000000
                       2.000000  2.000000  2.000000  2.000000  2.000000  2.000000
                       2.000000  2.000000  2.000000  2.000000  0.000000  0.000000
                       0.000000  0.000000  0.000000  0.000000  0.000000  0.000000
                       0.000000
        optdriver           1
            prtwf          -1
            rfdir           1       1       1
           rfelfd           2
            rprim      7.4003211135E+00  0.0000000000E+00  4.2725773870E+00
                       2.4667737045E+00  6.9770896564E+00  4.2725773870E+00
                       0.0000000000E+00  0.0000000000E+00  8.5451547739E+00
          spgroup         216
           symrel      1  0  0   0  1  0   0  0  1       0 -1  1   0 -1  0   1 -1  0
                      -1  0  0  -1  0  1  -1  1  0       0  1 -1   1  0 -1   0  0 -1
                      -1  0  0  -1  1  0  -1  0  1       0 -1  1   1 -1  0   0 -1  0
                       1  0  0   0  0  1   0  1  0       0  1 -1   0  0 -1   1  0 -1
                      -1  0  1  -1  1  0  -1  0  0       0 -1  0   1 -1  0   0 -1  1
                       1  0 -1   0  0 -1   0  1 -1       0  1  0   0  0  1   1  0  0
                       1  0 -1   0  1 -1   0  0 -1       0 -1  0   0 -1  1   1 -1  0
                      -1  0  1  -1  0  0  -1  1  0       0  1  0   1  0  0   0  0  1
                       0  0 -1   0  1 -1   1  0 -1       1 -1  0   0 -1  1   0 -1  0
                       0  0  1   1  0  0   0  1  0      -1  1  0  -1  0  0  -1  0  1
                       0  0  1   0  1  0   1  0  0       1 -1  0   0 -1  0   0 -1  1
                       0  0 -1   1  0 -1   0  1 -1      -1  1  0  -1  0  1  -1  0  0
           tolwfr      1.00000000E-20
            typat      1  2  3
           useylm           1
              wtk        0.50000    0.50000
           xangst      2.6107208463E+00  1.8460584142E+00  4.5219011502E+00
                       1.3053604232E+00  9.2302920711E-01  2.2609505751E+00
                       0.0000000000E+00  0.0000000000E+00  0.0000000000E+00
            xcart      4.9335474090E+00  3.4885448282E+00  8.5451547739E+00
                       2.4667737045E+00  1.7442724141E+00  4.2725773870E+00
                       0.0000000000E+00  0.0000000000E+00  0.0000000000E+00
             xred      5.0000000000E-01  5.0000000000E-01  5.0000000000E-01
                       2.5000000000E-01  2.5000000000E-01  2.5000000000E-01
                       0.0000000000E+00  0.0000000000E+00  0.0000000000E+00
            znucl       39.00000   28.00000   83.00000

 chkinp: Checking input parameters for consistency.

== DATASET  1 ==================================================================
-   mpi_nproc: 1, omp_nthreads: -1 (-1 if OMP is not activated)

--- !DatasetInfo
iteration_state: {dtset: 1, }
dimensions: {natom: 3, nkpt: 2, mband: 31, nsppol: 1, nspinor: 1, nspden: 1, mpw: 7239, }
cutoff_energies: {ecut:  49.0, pawecutdg:  -1.0, }
electrons: {nelect:   4.40000000E+01, charge:   0.00000000E+00, occopt:   1.00000000E+00, tsmear:   1.00000000E-02, }
meta: {optdriver: 1, rfelfd: 2, }
...

 Real(R)+Recip(G) space primitive vectors, cartesian coordinates (Bohr,Bohr^-1):
 R(1)=  7.4003211  0.0000000  4.2725774  G(1)=  0.1351293 -0.0477754  0.0000000
 R(2)=  2.4667737  6.9770897  4.2725774  G(2)=  0.0000000  0.1433262  0.0000000
 R(3)=  0.0000000  0.0000000  8.5451548  G(3)= -0.0675646 -0.0477754  0.1170254
 Unit cell volume ucvol=  4.4120945E+02 bohr^3
 Angles (23,13,12)=  6.00000000E+01  6.00000000E+01  6.00000000E+01 degrees

 getcut: wavevector=  0.0000  0.0000  0.0000  ngfft=  54  54  54
         ecut(hartree)=     49.000   => boxcut(ratio)=   2.00613

--- Pseudopotential description ------------------------------------------------
- pspini: atom type   1  psp file is /scratch/users/j/a/jabreu/pseudos/PBEsol/Y.psp8
- pspatm: opening atomic psp file    /scratch/users/j/a/jabreu/pseudos/PBEsol/Y.psp8
- Y     ONCVPSP-3.3.0  r_core=   1.60520   1.51226   1.56736
- 39.00000  11.00000    180112                znucl, zion, pspdat
    8 -116133    2    4       600   0.00000   pspcod,pspxc,lmax,lloc,mmax,r2well
    5.99000000000000    4.00000000000000    0.00000000000000   rchrg,fchrg,qchrg
     nproj     2     2     2
     extension_switch     1
  pspatm : epsatm=   18.54790046
         --- l  ekb(1:nproj) -->
             0   10.130768    0.866504
             1    5.598307    0.427135
             2    1.217602    0.315447
 pspatm: atomic psp has been read  and splines computed

- pspini: atom type   2  psp file is /scratch/users/j/a/jabreu/pseudos/PBEsol/Ni.psp8
- pspatm: opening atomic psp file    /scratch/users/j/a/jabreu/pseudos/PBEsol/Ni.psp8
- Ni    ONCVPSP-3.3.0  r_core=   1.26116   1.35474   1.65929
- 28.00000  18.00000    180112                znucl, zion, pspdat
    8 -116133    2    4       600   0.00000   pspcod,pspxc,lmax,lloc,mmax,r2well
    5.99000000000000    3.00000000000000    0.00000000000000   rchrg,fchrg,qchrg
     nproj     2     2     2
     extension_switch     1
  pspatm : epsatm=   19.57179442
         --- l  ekb(1:nproj) -->
             0    6.241516   -0.251675
             1   -2.865987   -0.396303
             2   -7.254374   -2.547636
 pspatm: atomic psp has been read  and splines computed

- pspini: atom type   3  psp file is /scratch/users/j/a/jabreu/pseudos/PBEsol/Bi.psp8
- pspatm: opening atomic psp file    /scratch/users/j/a/jabreu/pseudos/PBEsol/Bi.psp8
- Bi    ONCVPSP-3.3.0  r_core=   2.42776   2.51622   2.10397
- 83.00000  15.00000    180112                znucl, zion, pspdat
    8 -116133    2    4       600   0.00000   pspcod,pspxc,lmax,lloc,mmax,r2well
    5.99000000000000    6.00000000000000    0.00000000000000   rchrg,fchrg,qchrg
     nproj     2     2     2
     extension_switch     1
  pspatm : epsatm=   42.90078186
         --- l  ekb(1:nproj) -->
             0    6.017688    0.961606
             1    4.379371    0.528498
             2   -3.458170   -0.753782
 pspatm: atomic psp has been read  and splines computed

   3.56490098E+03                                ecore*ucvol(ha*bohr**3)

-inwffil : will read wavefunctions from disk file /scratch/users/j/a/jabreu/flow_simple/flow/w160/t1/indata/in_WFK

 ==>  initialize data related to q vector <==

 The list of irreducible perturbations for this q vector is:
    1)    idir= 1    ipert=   4
    2)    idir= 2    ipert=   4
    3)    idir= 3    ipert=   4

 Perturbation wavevector (in red.coord.)   0.000000  0.000000  0.000000
 Perturbation : derivative vs k along direction   1

 dfpt_looppert : COMMENT -
  In a d/dk calculation, iscf is set to -3 automatically.
 The set of symmetries contains only one element for this perturbation.
 symkpt : not enough symmetry to change the number of k points.

[...]

 Initialisation of the first-order wave-functions :
  ireadwf=   0

--- !BeginCycle
iteration_state: {dtset: 1, }
solver: {iscf: 7, nstep: 100, nline: 4, wfoptalg: 0, }
tolerances: {tolwfr: 1.00E-20, }
...

     iter   2DEtotal(Ha)        deltaE(Ha) residm    vres2
-ETOT  1  -69.504679813690     -6.950E+01 6.404E-02 0.000E+00
 ETOT  2  -69.555332888792     -5.065E-02 8.123E-04 0.000E+00
 ETOT  3  -69.555663513467     -3.306E-04 9.126E-06 0.000E+00
 ETOT  4  -69.555667807576     -4.294E-06 2.187E-07 0.000E+00
 ETOT  5  -69.555667880287     -7.271E-08 4.144E-09 0.000E+00
 ETOT  6  -69.555667881785     -1.498E-09 1.414E-10 0.000E+00
 ETOT  7  -69.555667881821     -3.574E-11 3.753E-12 0.000E+00
 ETOT  8  -69.555667881822     -9.948E-13 1.311E-13 0.000E+00
 ETOT  9  -69.555667881822      0.000E+00 3.569E-15 0.000E+00
 ETOT 10  -69.555667881822      1.421E-14 1.259E-16 0.000E+00
 ETOT 11  -69.555667881822     -4.263E-14 3.568E-18 0.000E+00
 ETOT 12  -69.555667881822     -1.421E-14 1.271E-19 0.000E+00
 ETOT 13  -69.555667881822      2.842E-14 9.914E-21 0.000E+00

 At SCF step   13   max residual=  9.91E-21 < tolwfr=  1.00E-20 =>converged.

 ----iterations are completed or convergence reached----

 dfpt_looppert: DFPT cycle converged with prtwf=-1. Will skip output of the 1st-order WFK file.
 dfpt_looppert : ek2=    7.1366401901E+01
          f-sum rule ratio=    1.4720822372E+00
 prteigrs : about to open file /scratch/users/j/a/jabreu/flow_simple/flow/w160/t1/tmpdata/tmp_1WF1_EIG
 Expectation of eigenvalue derivatives (hartree) for nkpt=   2  k points:
  (in case of degenerate eigenvalues, averaged derivative)
 kpt#   1, nband= 31, wtk=  0.50000, kpt=  0.0000  0.0000  0.0000 (reduced coord)
  -0.00000    0.00000    0.00000    0.00000   -0.00000   -0.00000   -0.00000   -0.00000
  -0.00000   -0.00000    0.00000    0.00000    0.00000   -0.00000    0.00000    0.00000
   0.00000   -0.00000   -0.00000    0.00000    0.00000    0.00000    0.00000   -0.00000
  -0.00000   -0.00000    0.00000    0.00000    0.00000   -0.00000   -0.00000
 prteigrs : prtvol=0 or 1, do not print more k-points.

 Eight components of 2nd-order total energy (hartree) are
 1,2,3: 0th-order hamiltonian combined with 1st-order wavefunctions
     kin0=   5.45826199E+01 eigvalue=   2.88578339E+00  local=  -2.48402141E+01
 4,5,6: 1st-order hamiltonian combined with 1st and 0th-order wfs
     kin1=  -1.05057213E+02  Hartree=   0.00000000E+00     xc=   0.00000000E+00
 7,8,9: eventually, occupation + non-local contributions
    edocc=   3.19603656E+01     enl0=   4.96711318E+00   enl1=  -3.40541232E+01
 1-9 gives the relaxation energy (to be shifted if some occ is /=2.0)
   erelax=  -6.95556679E+01
  No Ewald or frozen-wf contrib.: the relaxation energy is the total one
 2DEtotal=   -0.6955566788E+02 Ha. Also 2DEtotal=   -0.189270597837E+04 eV
    (  non-var. 2DEtotal :   -6.9555667882E+01 Ha)

 Perturbation wavevector (in red.coord.)   0.000000  0.000000  0.000000
 Perturbation : derivative vs k along direction   2
 The set of symmetries contains only one element for this perturbation.
 symkpt : not enough symmetry to change the number of k points.

[...]

 Perturbation wavevector (in red.coord.)   0.000000  0.000000  0.000000
 Perturbation : derivative vs k along direction   3
 The set of symmetries contains only one element for this perturbation.
 symkpt : not enough symmetry to change the number of k points.

-inwffil : will read wavefunctions from disk file /scratch/users/j/a/jabreu/flow_simple/flow/w160/t1/indata/in_WFK

 Initialisation of the first-order wave-functions :
  ireadwf=   0

--- !BeginCycle
iteration_state: {dtset: 1, }
solver: {iscf: 7, nstep: 100, nline: 4, wfoptalg: 0, }
tolerances: {tolwfr: 1.00E-20, }
...

     iter   2DEtotal(Ha)        deltaE(Ha) residm    vres2
-ETOT  1  -69.504519197851     -6.950E+01 8.789E-02 0.000E+00
 ETOT  2  -69.555278376716     -5.076E-02 8.028E-04 0.000E+00
 ETOT  3  -69.555608838042     -3.305E-04 1.696E-05 0.000E+00
 ETOT  4  -69.555613090206     -4.252E-06 2.277E-07 0.000E+00
 ETOT  5  -69.555613161684     -7.148E-08 9.578E-09 0.000E+00
 ETOT  6  -69.555613163145     -1.461E-09 1.358E-10 0.000E+00
 ETOT  7  -69.555613163180     -3.467E-11 6.541E-12 0.000E+00
 ETOT  8  -69.555613163181     -8.811E-13 1.185E-13 0.000E+00
 ETOT  9  -69.555613163181     -4.263E-14 4.786E-15 0.000E+00
 ETOT 10  -69.555613163181      0.000E+00 1.197E-16 0.000E+00
 ETOT 11  -69.555613163181      1.421E-14 3.629E-18 0.000E+00
 ETOT 12  -69.555613163181      2.842E-14 1.271E-19 0.000E+00
 ETOT 13  -69.555613163181     -1.421E-14 9.866E-21 0.000E+00

 At SCF step   13   max residual=  9.87E-21 < tolwfr=  1.00E-20 =>converged.

 ----iterations are completed or convergence reached----

 dfpt_looppert: DFPT cycle converged with prtwf=-1. Will skip output of the 1st-order WFK file.
 dfpt_looppert : ek2=    7.1366401902E+01
          f-sum rule ratio=    1.4720819450E+00
 prteigrs : about to open file /scratch/users/j/a/jabreu/flow_simple/flow/w160/t1/tmpdata/tmp_1WF1_EIG
 Expectation of eigenvalue derivatives (hartree) for nkpt=   2  k points:
  (in case of degenerate eigenvalues, averaged derivative)
 kpt#   1, nband= 31, wtk=  0.50000, kpt=  0.0000  0.0000  0.0000 (reduced coord)
   0.00000   -0.00000   -0.00000   -0.00000    0.00000   -0.00000   -0.00000   -0.00000
  -0.00000   -0.00000    0.00000    0.00000    0.00000    0.00000   -0.00000   -0.00000
  -0.00000    0.00000    0.00000   -0.00000   -0.00000   -0.00000    0.00000    0.00000
   0.00000    0.00000   -0.00000   -0.00000    0.00000    0.00000    0.00000
 prteigrs : prtvol=0 or 1, do not print more k-points.

 Eight components of 2nd-order total energy (hartree) are
 1,2,3: 0th-order hamiltonian combined with 1st-order wavefunctions
     kin0=   5.46601644E+01 eigvalue=   2.90326414E+00  local=  -2.49077593E+01
 4,5,6: 1st-order hamiltonian combined with 1st and 0th-order wfs
     kin1=  -1.05057192E+02  Hartree=   0.00000000E+00     xc=   0.00000000E+00
 7,8,9: eventually, occupation + non-local contributions
    edocc=   3.19301506E+01     enl0=   4.96979341E+00   enl1=  -3.40540346E+01
 1-9 gives the relaxation energy (to be shifted if some occ is /=2.0)
   erelax=  -6.95556132E+01
  No Ewald or frozen-wf contrib.: the relaxation energy is the total one
 2DEtotal=   -0.6955561316E+02 Ha. Also 2DEtotal=   -0.189270448940E+04 eV
    (  non-var. 2DEtotal :   -6.9555613163E+01 Ha)

 CALCULATION OF EFFECTIVE MASSES
 NOTE : Additional infos (eff. mass eigenvalues, eigenvectors and, if degenerate, average mass) are available in stdout.

 COMMENTS:
 - At k-point ( 0.000, 0.000, 0.000), bands    20 through    22
   are DEGENERATE (effective mass tensor is therefore not defined).
   See Section IIIB Eqs. (67)-(70) and Appendix E of PRB 93 205147 (2016).
 - Angular average effective mass for Frohlich model is to be averaged over degenerate bands. See later.
 - Associated theta integrals calculated with ntheta=   1000 points.

 K-point ( 0.000, 0.000, 0.000) | band =    20
 Transport equivalent effective mass tensor:
             -0.0875945153             -0.0000000000             -0.0000000000
             -0.0000000000             -0.0875945153             -0.0000000000
             -0.0000000000             -0.0000000000             -0.0875945153
 Transport equivalent effective mass tensor eigenvalues:
             -0.0875945153             -0.0875945153             -0.0875945153
 Angular average effective mass 1/(<1/m>)=  -0.0804815736
 Angular average effective mass for Frohlich model (<m**0.5>)**2=  -0.0809361852
 Effective masses along directions: (cart. coord. / red. coord. -> eff. mass)
    1:   1.000000  0.000000  0.000000 /   0.948683  0.316228  0.000000 ->  -0.0763605889
    2:   0.000000  1.000000  0.000000 /   0.000000  1.000000  0.000000 ->  -0.0716556493
    3:   0.000000  0.000000  1.000000 /   0.408248  0.408248  0.816497 ->  -0.0775026630
    4:   0.577350  0.577350  0.577350 /   0.585539  0.688047  0.428644 ->  -0.0763575186
    5:   0.000000  0.707107  0.707107 /   0.289489  0.762222  0.578977 ->  -0.0844077056
    6:   0.707107  0.000000  0.707107 /   0.731423  0.422287  0.535439 ->  -0.0769171710
    7:   0.707107  0.707107  0.000000 /   0.616798  0.787122  0.000000 ->  -0.0975880835

[...]

 K-point ( 0.000, 0.000, 0.000) | band =    22
 Transport equivalent effective mass tensor:
             -5.4053770144              0.0000060881              0.0000000009
              0.0000060881             -5.4053753589              0.0000000004
              0.0000000009              0.0000000004             -5.4053688674
 Transport equivalent effective mass tensor eigenvalues:
             -5.4053823308             -5.4053700425             -5.4053688674
 Angular average effective mass 1/(<1/m>)=  -0.6493668671
 Angular average effective mass for Frohlich model (<m**0.5>)**2=  -0.7688122574
 Effective masses along directions: (cart. coord. / red. coord. -> eff. mass)
    1:   1.000000  0.000000  0.000000 /   0.948683  0.316228  0.000000 ->  -0.7069716432
    2:   0.000000  1.000000  0.000000 /   0.000000  1.000000  0.000000 ->  -0.6220986313
    3:   0.000000  0.000000  1.000000 /   0.408248  0.408248  0.816497 ->  -1.8030661799
    4:   0.577350  0.577350  0.577350 /   0.585539  0.688047  0.428644 ->  -0.8410900227
    5:   0.000000  0.707107  0.707107 /   0.289489  0.762222  0.578977 ->  -0.5893938555
    6:   0.707107  0.000000  0.707107 /   0.731423  0.422287  0.535439 ->  -1.1244978958
    7:   0.707107  0.707107  0.000000 /   0.616798  0.787122  0.000000 ->  -0.3029788097

 Angular average effective mass for Frohlich model, averaged over degenerate bands.
 Value of     (<<m**0.5>>)**2 =     3.311185E-01
 Absolute Value of <<m**0.5>> =     5.754290E-01

 K-point ( 0.500, 0.000, 0.500) | band =    23
 Effective mass tensor:
              8.1436544700            -10.8425467195             13.2793586038
            -10.8425467195             15.8105018260            -18.7798565300
             13.2793586038            -18.7798565300             23.4773614523
 Effective mass tensor eigenvalues:
              0.4768191653              0.4768193845             46.4778791985
 Angular average effective mass 1/(<1/m>)=   0.7115788478
 Angular average effective mass for Frohlich model (<m**0.5>)**2=   1.0400976340
 Effective masses along directions: (cart. coord. / red. coord. -> eff. mass)
    1:   1.000000  0.000000  0.000000 /   0.948683  0.316228  0.000000 ->   0.5710113724
    2:   0.000000  1.000000  0.000000 /   0.000000  1.000000  0.000000 ->   0.7115786899
    3:   0.000000  0.000000  1.000000 /   0.408248  0.408248  0.816497 ->   0.9439551517
    4:   0.577350  0.577350  0.577350 /   0.585539  0.688047  0.428644 ->   0.5271593501
    5:   0.000000  0.707107  0.707107 /   0.289489  0.762222  0.578977 ->   0.4808255692
    6:   0.707107  0.000000  0.707107 /   0.731423  0.422287  0.535439 ->   1.2405123104
    7:   0.707107  0.707107  0.000000 /   0.616798  0.787122  0.000000 ->   0.4836635289

 END OF EFFECTIVE MASSES SECTION

 ---- first-order wavefunction calculations are completed ----

 Total localisation tensor (bohr^2) in cartesian coordinates
  WARNING : still subject to testing - especially symmetries.
      direction              matrix element
   alpha     beta       real part   imaginary part
     1        1       8.5041987324    0.0000000000
     1        2       2.4053462539    0.0000000000
     1        3       5.8918799236    0.0000000000
     2        1       2.4053462539    0.0000000000
     2        2       6.8033465889    0.0000000000
     2        3       4.1661819215    0.0000000000
     3        1       5.8918799236    0.0000000000
     3        2       4.1661819215    0.0000000000
     3        3      15.3075506412    0.0000000000

 respfn : d/dk was computed, but no 2DTE, so no DDB output.

== END DATASET(S) ==============================================================

 -outvars: echo values of variables after computation  --------
            acell      1.0000000000E+00  1.0000000000E+00  1.0000000000E+00 Bohr
              amu      8.89058500E+01  5.86900000E+01  2.08980370E+02
             ecut      4.90000000E+01 Hartree
           etotal     -6.9555613163E+01
            fcart      0.0000000000E+00  0.0000000000E+00  0.0000000000E+00
                       0.0000000000E+00  0.0000000000E+00  0.0000000000E+00
                       0.0000000000E+00  0.0000000000E+00  0.0000000000E+00
-          fftalg         512
           irdden           1
           irdwfk           1
           istwfk        1    1
              ixc     -116133
              kpt      0.00000000E+00  0.00000000E+00  0.00000000E+00
                       5.00000000E-01  2.82492183E-17  5.00000000E-01
           kptopt           0
P           mkmem           2
P          mkqmem           2
P          mk1mem           2
            natom           3
            nband          31
           nbdbuf           4
            ngfft          54      54      54
             nkpt           2
            nstep         100
             nsym          24
           ntypat           3
              occ      2.000000  2.000000  2.000000  2.000000  2.000000  2.000000
                       2.000000  2.000000  2.000000  2.000000  2.000000  2.000000
                       2.000000  2.000000  2.000000  2.000000  2.000000  2.000000
                       2.000000  2.000000  2.000000  2.000000  0.000000  0.000000
                       0.000000  0.000000  0.000000  0.000000  0.000000  0.000000
                       0.000000
        optdriver           1
            prtwf          -1
            rfdir           1       1       1
           rfelfd           2
            rprim      7.4003211135E+00  0.0000000000E+00  4.2725773870E+00
                       2.4667737045E+00  6.9770896564E+00  4.2725773870E+00
                       0.0000000000E+00  0.0000000000E+00  8.5451547739E+00
          spgroup         216
           strten      0.0000000000E+00  0.0000000000E+00  0.0000000000E+00
                       0.0000000000E+00  0.0000000000E+00  0.0000000000E+00
           symrel      1  0  0   0  1  0   0  0  1       0 -1  1   0 -1  0   1 -1  0
                      -1  0  0  -1  0  1  -1  1  0       0  1 -1   1  0 -1   0  0 -1
                      -1  0  0  -1  1  0  -1  0  1       0 -1  1   1 -1  0   0 -1  0
                       1  0  0   0  0  1   0  1  0       0  1 -1   0  0 -1   1  0 -1
                      -1  0  1  -1  1  0  -1  0  0       0 -1  0   1 -1  0   0 -1  1
                       1  0 -1   0  0 -1   0  1 -1       0  1  0   0  0  1   1  0  0
                       1  0 -1   0  1 -1   0  0 -1       0 -1  0   0 -1  1   1 -1  0
                      -1  0  1  -1  0  0  -1  1  0       0  1  0   1  0  0   0  0  1
                       0  0 -1   0  1 -1   1  0 -1       1 -1  0   0 -1  1   0 -1  0
                       0  0  1   1  0  0   0  1  0      -1  1  0  -1  0  0  -1  0  1
                       0  0  1   0  1  0   1  0  0       1 -1  0   0 -1  0   0 -1  1
                       0  0 -1   1  0 -1   0  1 -1      -1  1  0  -1  0  1  -1  0  0
           tolwfr      1.00000000E-20
            typat      1  2  3
           useylm           1
              wtk        0.50000    0.50000
           xangst      2.6107208463E+00  1.8460584142E+00  4.5219011502E+00
                       1.3053604232E+00  9.2302920711E-01  2.2609505751E+00
                       0.0000000000E+00  0.0000000000E+00  0.0000000000E+00
            xcart      4.9335474090E+00  3.4885448282E+00  8.5451547739E+00
                       2.4667737045E+00  1.7442724141E+00  4.2725773870E+00
                       0.0000000000E+00  0.0000000000E+00  0.0000000000E+00
             xred      5.0000000000E-01  5.0000000000E-01  5.0000000000E-01
                       2.5000000000E-01  2.5000000000E-01  2.5000000000E-01
                       0.0000000000E+00  0.0000000000E+00  0.0000000000E+00
            znucl       39.00000   28.00000   83.00000

- Timing analysis has been suppressed with timopt=0

 Suggested references for the acknowledgment of ABINIT usage.

 Calculation completed.
.Delivered  14 WARNINGs and   9 COMMENTs to log file.