.Version 9.5.1 of ABINIT

 ABINIT is a project of the Universite Catholique de Louvain,
 Corning Inc. and other collaborators, see ~abinit/doc/developers/contributors.txt .
 acknowledgments of the ABINIT effort.

.Starting date : Tue 27 Apr 2021.
- ( at 15h42 )

- input  file    -> /scratch/users/j/a/jabreu/flow_simple/flow/w172/t1/run.abi
- output file    -> /scratch/users/j/a/jabreu/flow_simple/flow/w172/t1/run.abo
- root for input  files -> /scratch/users/j/a/jabreu/flow_simple/flow/w172/t1/indata/in
- root for output files -> /scratch/users/j/a/jabreu/flow_simple/flow/w172/t1/outdata/out

 Symmetries : space group F-4 3 m (#216); Bravais cF (face-center cubic)
     intxc =       0      iscf =       7    lmnmax =       8     lnmax =       4
     mgfft =      40  mpssoang =       2    mqgrid =    3001     natom =       3
  nloc_mem =       1    nspden =       1   nspinor =       1    nsppol =       1
      nsym =      24    n1xccc =    2501    ntypat =       3    occopt =       1
   xclevel =       2
-    mband =          18        mffmem =           1         mkmem =           2
-   mkqmem =           2        mk1mem =           2           mpw =        2733
      nfft =       64000          nkpt =           2
  Rough estimation (10% accuracy) of disk space for files :

------------- Echo of variables that govern the present computation ------------
-
- outvars: echo of selected default values
-   iomode0 =  0 , fftalg0 =512 , wfoptalg0 =  0
-
- outvars: echo of global parameters not present in the input file
-  max_nthreads =    0
-
 -outvars: echo values of preprocessed input variables --------
            acell      1.0000000000E+00  1.0000000000E+00  1.0000000000E+00 Bohr
              amu      6.94100000E+00  2.43050000E+01  1.40067400E+01
             ecut      4.20000000E+01 Hartree
-          fftalg         512
           irdden           1
           irdwfk           1
           istwfk        1    1
              ixc     -116133
              kpt      0.00000000E+00  0.00000000E+00  0.00000000E+00
                       5.00000000E-01  2.46519033E-32  5.00000000E-01
           kptopt           0
P           mkmem           2
P          mkqmem           2
P          mk1mem           2
            natom           3
            nband          18
           nbdbuf           4
            ngfft          40      40      40
             nkpt           2
            nstep         100
             nsym          24
           ntypat           3
              occ      2.000000  2.000000  2.000000  2.000000  2.000000  2.000000
                       2.000000  2.000000  2.000000  0.000000  0.000000  0.000000
                       0.000000  0.000000  0.000000  0.000000  0.000000  0.000000
        optdriver           1
            prtwf          -1
            rfdir           1       1       1
           rfelfd           2
            rprim      5.7484743920E+00  0.0000000000E+00  3.3188832376E+00
                       1.9161581307E+00  5.4197136320E+00  3.3188832376E+00
                       0.0000000000E+00  0.0000000000E+00  6.6377664753E+00
          spgroup         216
           symrel      1  0  0   0  1  0   0  0  1       0 -1  1   0 -1  0   1 -1  0
                      -1  0  0  -1  0  1  -1  1  0       0  1 -1   1  0 -1   0  0 -1
                      -1  0  0  -1  1  0  -1  0  1       0 -1  1   1 -1  0   0 -1  0
                       1  0  0   0  0  1   0  1  0       0  1 -1   0  0 -1   1  0 -1
                      -1  0  1  -1  1  0  -1  0  0       0 -1  0   1 -1  0   0 -1  1
                       1  0 -1   0  0 -1   0  1 -1       0  1  0   0  0  1   1  0  0
                       1  0 -1   0  1 -1   0  0 -1       0 -1  0   0 -1  1   1 -1  0
                      -1  0  1  -1  0  0  -1  1  0       0  1  0   1  0  0   0  0  1
                       0  0 -1   0  1 -1   1  0 -1       1 -1  0   0 -1  1   0 -1  0
                       0  0  1   1  0  0   0  1  0      -1  1  0  -1  0  0  -1  0  1
                       0  0  1   0  1  0   1  0  0       1 -1  0   0 -1  0   0 -1  1
                       0  0 -1   1  0 -1   0  1 -1      -1  1  0  -1  0  1  -1  0  0
           tolwfr      1.00000000E-20
            typat      1  2  3
           useylm           1
              wtk        0.50000    0.50000
           xangst      1.0139872108E+00  7.1699723278E-01  1.7562773673E+00
                       3.0419616324E+00  2.1509916984E+00  5.2688321020E+00
                       0.0000000000E+00  0.0000000000E+00  0.0000000000E+00
            xcart      1.9161581307E+00  1.3549284080E+00  3.3188832376E+00
                       5.7484743920E+00  4.0647852240E+00  9.9566497129E+00
                       0.0000000000E+00  0.0000000000E+00  0.0000000000E+00
             xred      2.5000000000E-01  2.5000000000E-01  2.5000000000E-01
                       7.5000000000E-01  7.5000000000E-01  7.5000000000E-01
                       0.0000000000E+00  0.0000000000E+00  0.0000000000E+00
            znucl        3.00000   12.00000    7.00000

 chkinp: Checking input parameters for consistency.

== DATASET  1 ==================================================================
-   mpi_nproc: 1, omp_nthreads: -1 (-1 if OMP is not activated)

--- !DatasetInfo
iteration_state: {dtset: 1, }
dimensions: {natom: 3, nkpt: 2, mband: 18, nsppol: 1, nspinor: 1, nspden: 1, mpw: 2733, }
cutoff_energies: {ecut:  42.0, pawecutdg:  -1.0, }
electrons: {nelect:   1.80000000E+01, charge:   0.00000000E+00, occopt:   1.00000000E+00, tsmear:   1.00000000E-02, }
meta: {optdriver: 1, rfelfd: 2, }
...

 Real(R)+Recip(G) space primitive vectors, cartesian coordinates (Bohr,Bohr^-1):
 R(1)=  5.7484744  0.0000000  3.3188832  G(1)=  0.1739592 -0.0615039  0.0000000
 R(2)=  1.9161581  5.4197136  3.3188832  G(2)=  0.0000000  0.1845116  0.0000000
 R(3)=  0.0000000  0.0000000  6.6377665  G(3)= -0.0869796 -0.0615039  0.1506531
 Unit cell volume ucvol=  2.0680018E+02 bohr^3
 Angles (23,13,12)=  6.00000000E+01  6.00000000E+01  6.00000000E+01 degrees

 getcut: wavevector=  0.0000  0.0000  0.0000  ngfft=  40  40  40
         ecut(hartree)=     42.000   => boxcut(ratio)=   2.06561

--- Pseudopotential description ------------------------------------------------
- pspini: atom type   1  psp file is /scratch/users/j/a/jabreu/pseudos/PBEsol/Li.psp8
- pspatm: opening atomic psp file    /scratch/users/j/a/jabreu/pseudos/PBEsol/Li.psp8
- Li    ONCVPSP-3.3.0  r_core=   1.40824   1.10935
-  3.00000   3.00000    180112                znucl, zion, pspdat
    8 -116133    1    4       400   0.00000   pspcod,pspxc,lmax,lloc,mmax,r2well
    3.99000000000000    0.00000000000000    0.00000000000000   rchrg,fchrg,qchrg
     nproj     2     2
     extension_switch     1
  pspatm : epsatm=    2.60859637
         --- l  ekb(1:nproj) -->
             0   -4.855856   -1.482423
             1   -2.171544   -0.427615
 pspatm: atomic psp has been read  and splines computed

- pspini: atom type   2  psp file is /scratch/users/j/a/jabreu/pseudos/PBEsol/Mg.psp8
- pspatm: opening atomic psp file    /scratch/users/j/a/jabreu/pseudos/PBEsol/Mg.psp8
- Mg    ONCVPSP-3.3.0  r_core=   1.16056   1.56380
- 12.00000  10.00000    180112                znucl, zion, pspdat
    8 -116133    1    4       400   0.00000   pspcod,pspxc,lmax,lloc,mmax,r2well
    3.99000000000000    0.00000000000000    0.00000000000000   rchrg,fchrg,qchrg
     nproj     2     2
     extension_switch     1
  pspatm : epsatm=    9.18164846
         --- l  ekb(1:nproj) -->
             0    2.230603   -0.826587
             1   -6.503151   -2.501445
 pspatm: atomic psp has been read  and splines computed

- pspini: atom type   3  psp file is /scratch/users/j/a/jabreu/pseudos/PBEsol/N.psp8
- pspatm: opening atomic psp file    /scratch/users/j/a/jabreu/pseudos/PBEsol/N.psp8
- N     ONCVPSP-3.3.0  r_core=   1.20551   1.35824
-  7.00000   5.00000    180112                znucl, zion, pspdat
    8 -116133    1    4       600   0.00000   pspcod,pspxc,lmax,lloc,mmax,r2well
    5.99000000000000    4.00000000000000    0.00000000000000   rchrg,fchrg,qchrg
     nproj     2     2
     extension_switch     1
  pspatm : epsatm=    5.26508895
         --- l  ekb(1:nproj) -->
             0    7.464189    0.625868
             1   -4.309714   -1.012941
 pspatm: atomic psp has been read  and splines computed

   3.06996008E+02                                ecore*ucvol(ha*bohr**3)

-inwffil : will read wavefunctions from disk file /scratch/users/j/a/jabreu/flow_simple/flow/w172/t1/indata/in_WFK

 ==>  initialize data related to q vector <==

 The list of irreducible perturbations for this q vector is:
    1)    idir= 1    ipert=   4
    2)    idir= 2    ipert=   4
    3)    idir= 3    ipert=   4

 Perturbation wavevector (in red.coord.)   0.000000  0.000000  0.000000
 Perturbation : derivative vs k along direction   1

 dfpt_looppert : COMMENT -
  In a d/dk calculation, iscf is set to -3 automatically.
 The set of symmetries contains only one element for this perturbation.
 symkpt : not enough symmetry to change the number of k points.

[...]

 Initialisation of the first-order wave-functions :
  ireadwf=   0

--- !BeginCycle
iteration_state: {dtset: 1, }
solver: {iscf: 7, nstep: 100, nline: 4, wfoptalg: 0, }
tolerances: {tolwfr: 1.00E-20, }
...

     iter   2DEtotal(Ha)        deltaE(Ha) residm    vres2
-ETOT  1  -34.965545531717     -3.497E+01 3.723E-02 0.000E+00
 ETOT  2  -34.968092259319     -2.547E-03 9.869E-06 0.000E+00
 ETOT  3  -34.968092732083     -4.728E-07 3.649E-09 0.000E+00
 ETOT  4  -34.968092732310     -2.273E-10 2.538E-12 0.000E+00
 ETOT  5  -34.968092732310     -1.137E-13 2.966E-15 0.000E+00
 ETOT  6  -34.968092732310      4.974E-14 1.629E-18 0.000E+00
 ETOT  7  -34.968092732310     -4.263E-14 9.736E-21 0.000E+00

 At SCF step    7   max residual=  9.74E-21 < tolwfr=  1.00E-20 =>converged.

 ----iterations are completed or convergence reached----

 dfpt_looppert: DFPT cycle converged with prtwf=-1. Will skip output of the 1st-order WFK file.
 dfpt_looppert : ek2=    4.8384867699E+01
          f-sum rule ratio=    1.3552866568E+00
 prteigrs : about to open file /scratch/users/j/a/jabreu/flow_simple/flow/w172/t1/tmpdata/tmp_1WF1_EIG
 Expectation of eigenvalue derivatives (hartree) for nkpt=   2  k points:
  (in case of degenerate eigenvalues, averaged derivative)
 kpt#   1, nband= 18, wtk=  0.50000, kpt=  0.0000  0.0000  0.0000 (reduced coord)
   0.00000    0.00000   -0.00000   -0.00000   -0.00000    0.00000   -0.00000   -0.00000
  -0.00000    0.00000    0.00000    0.00000    0.00000    0.00000    0.00000    0.00000
  -0.00000   -0.00000
 prteigrs : prtvol=0 or 1, do not print more k-points.

 Eight components of 2nd-order total energy (hartree) are
 1,2,3: 0th-order hamiltonian combined with 1st-order wavefunctions
     kin0=   2.44158524E+01 eigvalue=   4.06716556E+00  local=  -8.77391844E+00
 4,5,6: 1st-order hamiltonian combined with 1st and 0th-order wfs
     kin1=  -6.55753656E+01  Hartree=   0.00000000E+00     xc=   0.00000000E+00
 7,8,9: eventually, occupation + non-local contributions
    edocc=   1.59055086E+01     enl0=  -6.46515313E-01   enl1=  -4.36081988E+00
 1-9 gives the relaxation energy (to be shifted if some occ is /=2.0)
   erelax=  -3.49680927E+01
  No Ewald or frozen-wf contrib.: the relaxation energy is the total one
 2DEtotal=   -0.3496809273E+02 Ha. Also 2DEtotal=   -0.951530194191E+03 eV
    (  non-var. 2DEtotal :   -3.4968092732E+01 Ha)

 Perturbation wavevector (in red.coord.)   0.000000  0.000000  0.000000
 Perturbation : derivative vs k along direction   2
 The set of symmetries contains only one element for this perturbation.
 symkpt : not enough symmetry to change the number of k points.

[...]

 Perturbation wavevector (in red.coord.)   0.000000  0.000000  0.000000
 Perturbation : derivative vs k along direction   3
 The set of symmetries contains only one element for this perturbation.
 symkpt : not enough symmetry to change the number of k points.

-inwffil : will read wavefunctions from disk file /scratch/users/j/a/jabreu/flow_simple/flow/w172/t1/indata/in_WFK

 Initialisation of the first-order wave-functions :
  ireadwf=   0

--- !BeginCycle
iteration_state: {dtset: 1, }
solver: {iscf: 7, nstep: 100, nline: 4, wfoptalg: 0, }
tolerances: {tolwfr: 1.00E-20, }
...

     iter   2DEtotal(Ha)        deltaE(Ha) residm    vres2
-ETOT  1  -34.965538992541     -3.497E+01 3.723E-02 0.000E+00
 ETOT  2  -34.968074907518     -2.536E-03 1.171E-05 0.000E+00
 ETOT  3  -34.968075377260     -4.697E-07 4.541E-09 0.000E+00
 ETOT  4  -34.968075377485     -2.241E-10 3.343E-12 0.000E+00
 ETOT  5  -34.968075377485     -1.279E-13 3.579E-15 0.000E+00
 ETOT  6  -34.968075377485      7.105E-15 2.501E-18 0.000E+00
 ETOT  7  -34.968075377485     -7.105E-15 9.736E-21 0.000E+00

 At SCF step    7   max residual=  9.74E-21 < tolwfr=  1.00E-20 =>converged.

 ----iterations are completed or convergence reached----

 dfpt_looppert: DFPT cycle converged with prtwf=-1. Will skip output of the 1st-order WFK file.
 dfpt_looppert : ek2=    4.8384867698E+01
          f-sum rule ratio=    1.3552854007E+00
 prteigrs : about to open file /scratch/users/j/a/jabreu/flow_simple/flow/w172/t1/tmpdata/tmp_1WF1_EIG
 Expectation of eigenvalue derivatives (hartree) for nkpt=   2  k points:
  (in case of degenerate eigenvalues, averaged derivative)
 kpt#   1, nband= 18, wtk=  0.50000, kpt=  0.0000  0.0000  0.0000 (reduced coord)
  -0.00000   -0.00000    0.00000    0.00000    0.00000    0.00000    0.00000    0.00000
   0.00000   -0.00000    0.00000    0.00000    0.00000   -0.00000   -0.00000   -0.00000
   0.00000    0.00000
 prteigrs : prtvol=0 or 1, do not print more k-points.

 Eight components of 2nd-order total energy (hartree) are
 1,2,3: 0th-order hamiltonian combined with 1st-order wavefunctions
     kin0=   2.44158316E+01 eigvalue=   4.06714370E+00  local=  -8.77391206E+00
 4,5,6: 1st-order hamiltonian combined with 1st and 0th-order wfs
     kin1=  -6.55753048E+01  Hartree=   0.00000000E+00     xc=   0.00000000E+00
 7,8,9: eventually, occupation + non-local contributions
    edocc=   1.59055247E+01     enl0=  -6.46512504E-01   enl1=  -4.36084595E+00
 1-9 gives the relaxation energy (to be shifted if some occ is /=2.0)
   erelax=  -3.49680754E+01
  No Ewald or frozen-wf contrib.: the relaxation energy is the total one
 2DEtotal=   -0.3496807538E+02 Ha. Also 2DEtotal=   -0.951529721942E+03 eV
    (  non-var. 2DEtotal :   -3.4968075377E+01 Ha)

 CALCULATION OF EFFECTIVE MASSES
 NOTE : Additional infos (eff. mass eigenvalues, eigenvectors and, if degenerate, average mass) are available in stdout.

 COMMENTS:
 - At k-point ( 0.000, 0.000, 0.000), bands     7 through     9
   are DEGENERATE (effective mass tensor is therefore not defined).
   See Section IIIB Eqs. (67)-(70) and Appendix E of PRB 93 205147 (2016).
 - Angular average effective mass for Frohlich model is to be averaged over degenerate bands. See later.
 - Associated theta integrals calculated with ntheta=   1000 points.

 K-point ( 0.000, 0.000, 0.000) | band =     7
 Transport equivalent effective mass tensor:
             -0.2586475579              0.0000000000              0.0000000000
              0.0000000000             -0.2586475579             -0.0000000000
              0.0000000000             -0.0000000000             -0.2586475579
 Transport equivalent effective mass tensor eigenvalues:
             -0.2586475579             -0.2586475579             -0.2586475579
 Angular average effective mass 1/(<1/m>)=  -0.2486181454
 Angular average effective mass for Frohlich model (<m**0.5>)**2=  -0.2492889518
 Effective masses along directions: (cart. coord. / red. coord. -> eff. mass)
    1:   1.000000  0.000000  0.000000 /   0.948683  0.316228  0.000000 ->  -0.2398811318
    2:   0.000000  1.000000  0.000000 /   0.000000  1.000000  0.000000 ->  -0.2286396340
    3:   0.000000  0.000000  1.000000 /   0.408248  0.408248  0.816497 ->  -0.2414875169
    4:   0.577350  0.577350  0.577350 /   0.585539  0.688047  0.428644 ->  -0.2397166083
    5:   0.000000  0.707107  0.707107 /   0.289489  0.762222  0.578977 ->  -0.2573630698
    6:   0.707107  0.000000  0.707107 /   0.731423  0.422287  0.535439 ->  -0.2406757264
    7:   0.707107  0.707107  0.000000 /   0.616798  0.787122  0.000000 ->  -0.2826175115

[...]

 K-point ( 0.000, 0.000, 0.000) | band =     9
 Transport equivalent effective mass tensor:
           -254.9745618811              0.0001624880             -0.0000000558
              0.0001624880           -254.9744941857             -0.0000000557
             -0.0000000558             -0.0000000557           -254.9742227156
 Transport equivalent effective mass tensor eigenvalues:
           -254.9746940094           -254.9743620574           -254.9742227155
 Angular average effective mass 1/(<1/m>)=  -3.8357825253
 Angular average effective mass for Frohlich model (<m**0.5>)**2=  -5.6301300440
 Effective masses along directions: (cart. coord. / red. coord. -> eff. mass)
    1:   1.000000  0.000000  0.000000 /   0.948683  0.316228  0.000000 ->  -4.2406371065
    2:   0.000000  1.000000  0.000000 /   0.000000  1.000000  0.000000 ->  -3.7944299573
    3:   0.000000  0.000000  1.000000 /   0.408248  0.408248  0.816497 -> -32.4148049896
    4:   0.577350  0.577350  0.577350 /   0.585539  0.688047  0.428644 ->  -5.5279261021
    5:   0.000000  0.707107  0.707107 /   0.289489  0.762222  0.578977 ->  -3.2817935138
    6:   0.707107  0.000000  0.707107 /   0.731423  0.422287  0.535439 ->  -9.0956180269
    7:   0.707107  0.707107  0.000000 /   0.616798  0.787122  0.000000 ->  -1.5303114863

 Angular average effective mass for Frohlich model, averaged over degenerate bands.
 Value of     (<<m**0.5>>)**2 =     1.926867E+00
 Absolute Value of <<m**0.5>> =     1.388116E+00

 K-point ( 0.500, 0.000, 0.500) | band =    10
 Effective mass tensor:
              0.3576698850             -0.0614900331              0.0753096025
             -0.0614900331              0.4011499046             -0.1065038687
              0.0753096025             -0.1065038687              0.4446299301
 Effective mass tensor eigenvalues:
              0.3141898611              0.3141898677              0.5750699910
 Angular average effective mass 1/(<1/m>)=   0.3701648838
 Angular average effective mass for Frohlich model (<m**0.5>)**2=   0.3782145817
 Effective masses along directions: (cart. coord. / red. coord. -> eff. mass)
    1:   1.000000  0.000000  0.000000 /   0.948683  0.316228  0.000000 ->   0.3398882096
    2:   0.000000  1.000000  0.000000 /   0.000000  1.000000  0.000000 ->   0.3701648810
    3:   0.000000  0.000000  1.000000 /   0.408248  0.408248  0.816497 ->   0.4063630269
    4:   0.577350  0.577350  0.577350 /   0.585539  0.688047  0.428644 ->   0.3285712534
    5:   0.000000  0.707107  0.707107 /   0.289489  0.762222  0.578977 ->   0.3153943496
    6:   0.707107  0.000000  0.707107 /   0.731423  0.422287  0.535439 ->   0.4376962481
    7:   0.707107  0.707107  0.000000 /   0.616798  0.787122  0.000000 ->   0.3162410554

 END OF EFFECTIVE MASSES SECTION

 ---- first-order wavefunction calculations are completed ----

 Total localisation tensor (bohr^2) in cartesian coordinates
  WARNING : still subject to testing - especially symmetries.
      direction              matrix element
   alpha     beta       real part   imaginary part
     1        1       2.4257908236    0.0000000000
     1        2       0.6861169440    0.0000000000
     1        3       1.6806370544    0.0000000000
     2        1       0.6861169440    0.0000000000
     2        2       1.9406317752    0.0000000000
     2        3       1.1883894070    0.0000000000
     3        1       1.6806370544    0.0000000000
     3        2       1.1883894070    0.0000000000
     3        3       4.3664223604    0.0000000000

 respfn : d/dk was computed, but no 2DTE, so no DDB output.

== END DATASET(S) ==============================================================

 -outvars: echo values of variables after computation  --------
            acell      1.0000000000E+00  1.0000000000E+00  1.0000000000E+00 Bohr
              amu      6.94100000E+00  2.43050000E+01  1.40067400E+01
             ecut      4.20000000E+01 Hartree
           etotal     -3.4968075377E+01
            fcart      0.0000000000E+00  0.0000000000E+00  0.0000000000E+00
                       0.0000000000E+00  0.0000000000E+00  0.0000000000E+00
                       0.0000000000E+00  0.0000000000E+00  0.0000000000E+00
-          fftalg         512
           irdden           1
           irdwfk           1
           istwfk        1    1
              ixc     -116133
              kpt      0.00000000E+00  0.00000000E+00  0.00000000E+00
                       5.00000000E-01  2.46519033E-32  5.00000000E-01
           kptopt           0
P           mkmem           2
P          mkqmem           2
P          mk1mem           2
            natom           3
            nband          18
           nbdbuf           4
            ngfft          40      40      40
             nkpt           2
            nstep         100
             nsym          24
           ntypat           3
              occ      2.000000  2.000000  2.000000  2.000000  2.000000  2.000000
                       2.000000  2.000000  2.000000  0.000000  0.000000  0.000000
                       0.000000  0.000000  0.000000  0.000000  0.000000  0.000000
        optdriver           1
            prtwf          -1
            rfdir           1       1       1
           rfelfd           2
            rprim      5.7484743920E+00  0.0000000000E+00  3.3188832376E+00
                       1.9161581307E+00  5.4197136320E+00  3.3188832376E+00
                       0.0000000000E+00  0.0000000000E+00  6.6377664753E+00
          spgroup         216
           strten      0.0000000000E+00  0.0000000000E+00  0.0000000000E+00
                       0.0000000000E+00  0.0000000000E+00  0.0000000000E+00
           symrel      1  0  0   0  1  0   0  0  1       0 -1  1   0 -1  0   1 -1  0
                      -1  0  0  -1  0  1  -1  1  0       0  1 -1   1  0 -1   0  0 -1
                      -1  0  0  -1  1  0  -1  0  1       0 -1  1   1 -1  0   0 -1  0
                       1  0  0   0  0  1   0  1  0       0  1 -1   0  0 -1   1  0 -1
                      -1  0  1  -1  1  0  -1  0  0       0 -1  0   1 -1  0   0 -1  1
                       1  0 -1   0  0 -1   0  1 -1       0  1  0   0  0  1   1  0  0
                       1  0 -1   0  1 -1   0  0 -1       0 -1  0   0 -1  1   1 -1  0
                      -1  0  1  -1  0  0  -1  1  0       0  1  0   1  0  0   0  0  1
                       0  0 -1   0  1 -1   1  0 -1       1 -1  0   0 -1  1   0 -1  0
                       0  0  1   1  0  0   0  1  0      -1  1  0  -1  0  0  -1  0  1
                       0  0  1   0  1  0   1  0  0       1 -1  0   0 -1  0   0 -1  1
                       0  0 -1   1  0 -1   0  1 -1      -1  1  0  -1  0  1  -1  0  0
           tolwfr      1.00000000E-20
            typat      1  2  3
           useylm           1
              wtk        0.50000    0.50000
           xangst      1.0139872108E+00  7.1699723278E-01  1.7562773673E+00
                       3.0419616324E+00  2.1509916984E+00  5.2688321020E+00
                       0.0000000000E+00  0.0000000000E+00  0.0000000000E+00
            xcart      1.9161581307E+00  1.3549284080E+00  3.3188832376E+00
                       5.7484743920E+00  4.0647852240E+00  9.9566497129E+00
                       0.0000000000E+00  0.0000000000E+00  0.0000000000E+00
             xred      2.5000000000E-01  2.5000000000E-01  2.5000000000E-01
                       7.5000000000E-01  7.5000000000E-01  7.5000000000E-01
                       0.0000000000E+00  0.0000000000E+00  0.0000000000E+00
            znucl        3.00000   12.00000    7.00000

- Timing analysis has been suppressed with timopt=0

 Suggested references for the acknowledgment of ABINIT usage.

 Calculation completed.
.Delivered  14 WARNINGs and   9 COMMENTs to log file.