.Version 9.5.2 of ABINIT

 ABINIT is a project of the Universite Catholique de Louvain,
 Corning Inc. and other collaborators, see ~abinit/doc/developers/contributors.txt .
 acknowledgments of the ABINIT effort.

.Starting date : Mon 31 May 2021.
- ( at 21h55 )

- input  file    -> /scratch/users/j/a/jabreu/flow_simple_11atoms/flow/w307/t1/run.abi
- output file    -> /scratch/users/j/a/jabreu/flow_simple_11atoms/flow/w307/t1/run.abo
- root for input  files -> /scratch/users/j/a/jabreu/flow_simple_11atoms/flow/w307/t1/indata/in
- root for output files -> /scratch/users/j/a/jabreu/flow_simple_11atoms/flow/w307/t1/outdata/out

 Symmetries : space group I4/m m m (#139); Bravais tI (body-center tetrag.)
     intxc =       0      iscf =       7    lmnmax =      18     lnmax =       6
     mgfft =      90  mpssoang =       3    mqgrid =    3893     natom =      12
  nloc_mem =       1    nspden =       1   nspinor =       1    nsppol =       1
      nsym =      16    n1xccc =    2501    ntypat =       3    occopt =       1
   xclevel =       2
-    mband =          77        mffmem =           1         mkmem =           2
-   mkqmem =           2        mk1mem =           2           mpw =       24448
      nfft =      729000          nkpt =           2
  Rough estimation (10% accuracy) of disk space for files :

------------- Echo of variables that govern the present computation ------------
-
- outvars: echo of selected default values
-   iomode0 =  0 , fftalg0 =512 , wfoptalg0 =  0
-
- outvars: echo of global parameters not present in the input file
-  max_nthreads =    0
-
 -outvars: echo values of preprocessed input variables --------
            acell      1.0000000000E+00  1.0000000000E+00  1.0000000000E+00 Bohr
              amu      3.90983000E+01  1.07868200E+02  1.59994000E+01
             ecut      4.40000000E+01 Hartree
-          fftalg         512
           irdden           1
           irdwfk           1
           istwfk        0    1
              ixc     -116133
              kpt     -5.00000000E-01  5.00000000E-01  5.00000000E-01
                       0.00000000E+00  0.00000000E+00  0.00000000E+00
           kptopt           0
P           mkmem           2
P          mkqmem           2
P          mk1mem           2
            natom          12
            nband          77
           nbdbuf           4
            ngfft          90      90      90
             nkpt           2
            nstep        2000
             nsym          16
           ntypat           3
              occ      2.000000  2.000000  2.000000  2.000000  2.000000  2.000000
                       2.000000  2.000000  2.000000  2.000000  2.000000  2.000000
                       2.000000  2.000000  2.000000  2.000000  2.000000  2.000000
                       2.000000  2.000000  2.000000  2.000000  2.000000  2.000000
                       2.000000  2.000000  2.000000  2.000000  2.000000  2.000000
                       2.000000  2.000000  2.000000  2.000000  2.000000  2.000000
                       2.000000  2.000000  2.000000  2.000000  2.000000  2.000000
                       2.000000  2.000000  2.000000  2.000000  2.000000  2.000000
                       2.000000  2.000000  2.000000  2.000000  2.000000  2.000000
                       2.000000  2.000000  2.000000  2.000000  2.000000  2.000000
                       2.000000  2.000000  2.000000  2.000000  2.000000  2.000000
                       2.000000  2.000000  0.000000  0.000000  0.000000  0.000000
                       0.000000  0.000000  0.000000  0.000000  0.000000
        optdriver           1
            prtwf          -1
            rfdir           1       1       1
           rfelfd           2
            rprim      1.3884255079E+01  0.0000000000E+00 -1.8836538105E+00
                      -1.0593539563E+01  8.9749350199E+00 -1.8836538105E+00
                       0.0000000000E+00  0.0000000000E+00  1.4011448561E+01
          spgroup         139
           symrel      1  0  0   0  1  0   0  0  1      -1  0  0   0 -1  0   0  0 -1
                       0  0  1  -1 -1 -1   1  0  0       0  0 -1   1  1  1  -1  0  0
                       0  1  0   1  0  0  -1 -1 -1       0 -1  0  -1  0  0   1  1  1
                      -1 -1 -1   0  0  1   0  1  0       1  1  1   0  0 -1   0 -1  0
                       1  0  0   0  1  0  -1 -1 -1      -1  0  0   0 -1  0   1  1  1
                      -1 -1 -1   0  0  1   1  0  0       1  1  1   0  0 -1  -1  0  0
                       0  1  0   1  0  0   0  0  1       0 -1  0  -1  0  0   0  0 -1
                       0  0  1  -1 -1 -1   0  1  0       0  0 -1   1  1  1   0 -1  0
           tolwfr      1.00000000E-20
            typat      1  1  1  1  2  2  2  2  3  3  3  3
           useylm           1
              wtk        0.50000    0.50000
           xangst     -1.4808029141E+00  2.3746655306E+00  4.3637444437E+00
                       3.2221745648E+00  2.3746655306E+00  1.0572214631E+00
                       2.6648468266E+00  8.5463737512E-01  4.3637444437E+00
                      -9.2347517594E-01  3.8946936860E+00  1.0572214631E+00
                      -3.6829992363E+00  4.0443023637E+00 -9.9678666539E-01
                       1.4828685119E+00  4.0443023637E+00  3.5155608391E+00
                       5.4243708870E+00  7.0502869736E-01 -9.9678666539E-01
                       2.5850313880E-01  7.0502869736E-01  1.9054050677E+00
                      -3.9510379424E+00  3.3473522785E+00  4.5232641017E+00
                       5.1783653887E+00  0.0000000000E+00  4.5232641017E+00
                       2.1688659571E+00  0.0000000000E+00  1.8944884706E+00
                      -1.6548217527E+00  1.4019787826E+00  1.8944884706E+00
            xcart     -2.7983119645E+00  4.4874675100E+00  8.2462819125E+00
                       6.0890274799E+00  4.4874675100E+00  1.9978590271E+00
                       5.0358306884E+00  1.6150305819E+00  8.2462819125E+00
                      -1.7451151730E+00  7.3599044380E+00  1.9978590271E+00
                      -6.9598599042E+00  7.6426238661E+00 -1.8836538105E+00
                       2.8022153786E+00  7.6426238661E+00  6.6434471895E+00
                       1.0250575420E+01  1.3323111538E+00 -1.8836538105E+00
                       4.8850013683E-01  1.3323111538E+00  3.6006937501E+00
                      -7.4663796518E+00  6.3255790767E+00  8.5477303788E+00
                       9.7856924007E+00  0.0000000000E+00  8.5477303788E+00
                       4.0985626779E+00  0.0000000000E+00  3.5800643713E+00
                      -3.1271599114E+00  2.6493559432E+00  3.5800643713E+00
             xred      1.7994900000E-01  5.0000000000E-01  6.7994900000E-01
                       8.2005100000E-01  5.0000000000E-01  3.2005100000E-01
                       5.0000000000E-01  1.7994900000E-01  6.7994900000E-01
                       5.0000000000E-01  8.2005100000E-01  3.2005100000E-01
                       1.4844800000E-01  8.5155200000E-01  1.3877787808E-17
                       8.5155200000E-01  8.5155200000E-01  7.0310400000E-01
                       8.5155200000E-01  1.4844800000E-01 -1.3877787808E-17
                       1.4844800000E-01  1.4844800000E-01  2.9689600000E-01
                       0.0000000000E+00  7.0480500000E-01  7.0480500000E-01
                       7.0480500000E-01  0.0000000000E+00  7.0480500000E-01
                       2.9519500000E-01  0.0000000000E+00  2.9519500000E-01
                      -2.7755575616E-17  2.9519500000E-01  2.9519500000E-01
            znucl       19.00000   47.00000    8.00000

 chkinp: Checking input parameters for consistency.

== DATASET  1 ==================================================================
-   mpi_nproc: 1, omp_nthreads: -1 (-1 if OMP is not activated)

--- !DatasetInfo
iteration_state: {dtset: 1, }
dimensions: {natom: 12, nkpt: 2, mband: 77, nsppol: 1, nspinor: 1, nspden: 1, mpw: 24448, }
cutoff_energies: {ecut:  44.0, pawecutdg:  -1.0, }
electrons: {nelect:   1.36000000E+02, charge:   0.00000000E+00, occopt:   1.00000000E+00, tsmear:   1.00000000E-02, }
meta: {optdriver: 1, rfelfd: 2, }
...

 Real(R)+Recip(G) space primitive vectors, cartesian coordinates (Bohr,Bohr^-1):
 R(1)= 13.8842551  0.0000000 -1.8836538  G(1)=  0.0720240  0.0850134  0.0000000
 R(2)=-10.5935396  8.9749350 -1.8836538  G(2)=  0.0000000  0.1114214  0.0000000
 R(3)=  0.0000000  0.0000000 14.0114486  G(3)=  0.0096827  0.0264081  0.0713702
 Unit cell volume ucvol=  1.7459706E+03 bohr^3
 Angles (23,13,12)=  9.77260520E+01  9.77260520E+01  1.36980913E+02 degrees

 getcut: wavevector=  0.0000  0.0000  0.0000  ngfft=  90  90  90
         ecut(hartree)=     44.000   => boxcut(ratio)=   2.15115

--- Pseudopotential description ------------------------------------------------
- pspini: atom type   1  psp file is /scratch/users/j/a/jabreu/pseudos/PBEsol/K.psp8
- pspatm: opening atomic psp file    /scratch/users/j/a/jabreu/pseudos/PBEsol/K.psp8
- K     ONCVPSP-3.3.0  r_core=   1.36296   1.46408   1.61068
- 19.00000   9.00000    180112                znucl, zion, pspdat
    8 -116133    2    4       400   0.00000   pspcod,pspxc,lmax,lloc,mmax,r2well
    3.99000000000000    5.00000000000000    0.00000000000000   rchrg,fchrg,qchrg
     nproj     2     2     2
     extension_switch     1
  pspatm : epsatm=    8.32487830
         --- l  ekb(1:nproj) -->
             0   10.921326    0.816676
             1    4.431000    0.560368
             2   -3.384038   -1.043186
 pspatm: atomic psp has been read  and splines computed

- pspini: atom type   2  psp file is /scratch/users/j/a/jabreu/pseudos/PBEsol/Ag.psp8
- pspatm: opening atomic psp file    /scratch/users/j/a/jabreu/pseudos/PBEsol/Ag.psp8
- Ag    ONCVPSP-3.3.0  r_core=   1.41384   1.46535   1.61207
- 47.00000  19.00000    180112                znucl, zion, pspdat
    8 -116133    2    4       600   0.00000   pspcod,pspxc,lmax,lloc,mmax,r2well
    5.99000000000000    7.00000000000000    0.00000000000000   rchrg,fchrg,qchrg
     nproj     2     2     2
     extension_switch     1
  pspatm : epsatm=   27.64581383
         --- l  ekb(1:nproj) -->
             0    9.559407   -0.398585
             1    3.418858   -0.136622
             2   -1.644397   -0.401551
 pspatm: atomic psp has been read  and splines computed

- pspini: atom type   3  psp file is /scratch/users/j/a/jabreu/pseudos/PBEsol/O.psp8
- pspatm: opening atomic psp file    /scratch/users/j/a/jabreu/pseudos/PBEsol/O.psp8
- O     ONCVPSP-3.3.0  r_core=   1.35509   1.45563   1.26150
-  8.00000   6.00000    180112                znucl, zion, pspdat
    8 -116133    2    4       600   0.00000   pspcod,pspxc,lmax,lloc,mmax,r2well
    5.99000000000000    4.00000000000000    0.00000000000000   rchrg,fchrg,qchrg
     nproj     2     2     1
     extension_switch     1
  pspatm : epsatm=    6.22910522
         --- l  ekb(1:nproj) -->
             0    6.050032    0.820363
             1   -4.739617   -1.153841
             2   -1.335834
 pspatm: atomic psp has been read  and splines computed

   2.29566898E+04                                ecore*ucvol(ha*bohr**3)

 ==>  initialize data related to q vector <==
[...]
  -0.00000    0.00000    0.00000    0.00000    0.00000    0.00000    0.00000    0.00000
   0.00000   -0.00000   -0.00000    0.00000    0.00000    0.00000    0.00000   -0.00000
   0.00000    0.00000    0.00000    0.00000    0.00000    0.00000   -0.00000   -0.00000
  -0.00000    0.00000   -0.00000    0.00000    0.00000   -0.00000   -0.00000    0.00000
   0.00000   -0.00000   -0.00000    0.00000    0.00000   -0.00000   -0.00000    0.00000
  -0.00000   -0.00000    0.00000   -0.00000   -0.00000   -0.00000   -0.00000    0.00000
   0.00000   -0.00000    0.00000   -0.00335    0.00705
 prteigrs : prtvol=0 or 1, do not print more k-points.

 Eight components of 2nd-order total energy (hartree) are
 1,2,3: 0th-order hamiltonian combined with 1st-order wavefunctions
     kin0=   1.17969670E+02 eigvalue=   3.62921253E+00  local=  -6.14773129E+01
 4,5,6: 1st-order hamiltonian combined with 1st and 0th-order wfs
     kin1=  -1.38508264E+02  Hartree=   0.00000000E+00     xc=   0.00000000E+00
 7,8,9: eventually, occupation + non-local contributions
    edocc=   6.81156466E+00     enl0=   1.92776315E+00   enl1=   7.86468411E-01
 1-9 gives the relaxation energy (to be shifted if some occ is /=2.0)
   erelax=  -6.88608977E+01
  No Ewald or frozen-wf contrib.: the relaxation energy is the total one
 2DEtotal=   -0.6886089765E+02 Ha. Also 2DEtotal=   -0.187380031892E+04 eV
    (  non-var. 2DEtotal :   -6.8860897650E+01 Ha)

 Perturbation wavevector (in red.coord.)   0.000000  0.000000  0.000000
 Perturbation : derivative vs k along direction   2
 The set of symmetries contains only one element for this perturbation.
 symkpt : not enough symmetry to change the number of k points.

[...]

 Perturbation wavevector (in red.coord.)   0.000000  0.000000  0.000000
 Perturbation : derivative vs k along direction   3
 The set of symmetries contains only one element for this perturbation.
 symkpt : not enough symmetry to change the number of k points.

 Initialisation of the first-order wave-functions :
  ireadwf=   0

--- !BeginCycle
iteration_state: {dtset: 1, }
solver: {iscf: 7, nstep: 2000, nline: 4, wfoptalg: 0, }
tolerances: {tolwfr: 1.00E-20, }
...

     iter   2DEtotal(Ha)        deltaE(Ha) residm    vres2
-ETOT  1  -31.829616280469     -3.183E+01 6.448E-02 0.000E+00
 ETOT  2  -31.914506719934     -8.489E-02 4.787E-03 0.000E+00
 ETOT  3  -31.915542202337     -1.035E-03 2.211E-04 0.000E+00
 ETOT  4  -31.915565594558     -2.339E-05 2.781E-05 0.000E+00
 ETOT  5  -31.915566293699     -6.991E-07 2.127E-06 0.000E+00
 ETOT  6  -31.915566317359     -2.366E-08 2.702E-07 0.000E+00
 ETOT  7  -31.915566318226     -8.679E-10 2.392E-08 0.000E+00
 ETOT  8  -31.915566318260     -3.353E-11 3.065E-09 0.000E+00
 ETOT  9  -31.915566318261     -1.386E-12 2.923E-10 0.000E+00
 ETOT 10  -31.915566318261     -2.487E-14 3.800E-11 0.000E+00
 ETOT 11  -31.915566318261      1.776E-14 3.697E-12 0.000E+00
 ETOT 12  -31.915566318261      7.105E-15 4.895E-13 0.000E+00
 ETOT 13  -31.915566318261      3.553E-15 4.778E-14 0.000E+00
 ETOT 14  -31.915566318261     -1.421E-14 6.389E-15 0.000E+00
 ETOT 15  -31.915566318261      7.105E-15 6.274E-16 0.000E+00
 ETOT 16  -31.915566318261      7.105E-15 8.386E-17 0.000E+00
 ETOT 17  -31.915566318261     -3.553E-15 8.346E-18 0.000E+00
 ETOT 18  -31.915566318261     -2.842E-14 1.105E-18 0.000E+00
 ETOT 19  -31.915566318261      1.421E-14 1.123E-19 0.000E+00
 ETOT 20  -31.915566318261      7.105E-15 1.460E-20 0.000E+00
 ETOT 21  -31.915566318261     -7.105E-15 9.882E-21 0.000E+00

 At SCF step   21   max residual=  9.88E-21 < tolwfr=  1.00E-20 =>converged.

 ----iterations are completed or convergence reached----

 dfpt_looppert: DFPT cycle converged with prtwf=-1. Will skip output of the 1st-order WFK file.
 dfpt_looppert : ek2=    6.3192242235E+01
          f-sum rule ratio=    1.0107371211E+00
 prteigrs : about to open file /scratch/users/j/a/jabreu/flow_simple_11atoms/flow/w307/t1/tmpdata/tmp_1WF1_EIG
 Expectation of eigenvalue derivatives (hartree) for nkpt=   2  k points:
  (in case of degenerate eigenvalues, averaged derivative)
 kpt#   1, nband= 77, wtk=  0.50000, kpt= -0.5000  0.5000  0.5000 (reduced coord)
   0.00000    0.00000    0.00000   -0.00000   -0.00000    0.00000    0.00000    0.00000
   0.00000   -0.00000   -0.00000    0.00000    0.00000    0.00000   -0.00000    0.00000
   0.00000    0.00000    0.00000   -0.00000   -0.00000    0.00000    0.00000   -0.00000
  -0.00000   -0.00000   -0.00000   -0.00000   -0.00000   -0.00000    0.00000    0.00000
  -0.00000    0.00000    0.00000   -0.00000   -0.00000   -0.00000    0.00000   -0.00000
   0.00000    0.00000    0.00000    0.00000   -0.00000    0.00000   -0.00000   -0.00000
  -0.00000    0.00000   -0.00000    0.00000    0.00000    0.00000    0.00000   -0.00000
   0.00000   -0.00000   -0.00000    0.00000    0.00000   -0.00000   -0.00000   -0.00000
   0.00000    0.00000   -0.00000   -0.00000   -0.00000   -0.00000   -0.00000    0.00000
   0.00000    0.00000    0.00000   -0.00006   -0.00024
 prteigrs : prtvol=0 or 1, do not print more k-points.

 Eight components of 2nd-order total energy (hartree) are
 1,2,3: 0th-order hamiltonian combined with 1st-order wavefunctions
     kin0=   5.39000907E+01 eigvalue=   1.79714770E+00  local=  -2.82574632E+01
 4,5,6: 1st-order hamiltonian combined with 1st and 0th-order wfs
     kin1=  -6.38707450E+01  Hartree=   0.00000000E+00     xc=   0.00000000E+00
 7,8,9: eventually, occupation + non-local contributions
    edocc=   3.75228534E+00     enl0=   7.23505765E-01   enl1=   3.96123583E-02
 1-9 gives the relaxation energy (to be shifted if some occ is /=2.0)
   erelax=  -3.19155663E+01
  No Ewald or frozen-wf contrib.: the relaxation energy is the total one
 2DEtotal=   -0.3191556632E+02 Ha. Also 2DEtotal=   -0.868466726195E+03 eV
    (  non-var. 2DEtotal :   -3.1915566318E+01 Ha)

 CALCULATION OF EFFECTIVE MASSES
 NOTE : Additional infos (eff. mass eigenvalues, eigenvectors and, if degenerate, average mass) are available in stdout.

 K-point (-0.500, 0.500, 0.500) | band =    68
 Effective mass tensor:
             -5.9921500597              1.4124109865             -0.5990692909
              1.4124109865             -2.6501313596             -1.6139541092
             -0.5990692909             -1.6139541092             -5.8226896449
 Effective mass tensor eigenvalues:
             -6.5134454108             -6.4968434866             -1.4546821669
 Angular average effective mass 1/(<1/m>)=  -3.0154243028
 Angular average effective mass for Frohlich model (<m**0.5>)**2=  -3.5722175473
 Effective masses along directions: (cart. coord. / red. coord. -> eff. mass)
    1:   1.000000  0.000000  0.000000 /   0.795016 -0.606589  0.000000 ->  -4.7994177411
    2:   0.000000  1.000000  0.000000 /   0.000000  1.000000  0.000000 ->  -1.7826466746
    3:   0.000000  0.000000  1.000000 /  -0.132071 -0.132071  0.982402 ->  -4.4333591054
    4:   0.577350  0.577350  0.577350 /   0.639089 -0.186512  0.746176 ->  -3.6313036546
    5:   0.000000  0.707107  0.707107 /  -0.119096  0.448353  0.885887 ->  -4.4961639236
    6:   0.707107  0.000000  0.707107 /   0.538834 -0.560234  0.629123 ->  -6.4876747617
    7:   0.707107  0.707107  0.000000 /   0.993273 -0.115794  0.000000 ->  -1.8727749986

 K-point ( 0.000, 0.000, 0.000) | band =    69
 Effective mass tensor:
              0.5799952982              0.4936712029             -0.2072228133
              0.4936712029              1.7454021580             -0.5651692701
             -0.2072228133             -0.5651692701              0.6362224475
 Effective mass tensor eigenvalues:
              0.3989876937              0.3989876941              2.1636445161
 Angular average effective mass 1/(<1/m>)=   0.5479583100
 Angular average effective mass for Frohlich model (<m**0.5>)**2=   0.6212801040
 Effective masses along directions: (cart. coord. / red. coord. -> eff. mass)
    1:   1.000000  0.000000  0.000000 /   0.795016 -0.606589  0.000000 ->   0.4354138324
    2:   0.000000  1.000000  0.000000 /   0.000000  1.000000  0.000000 ->   1.0563335668
    3:   0.000000  0.000000  1.000000 /  -0.132071 -0.132071  0.982402 ->   0.4481224880
    4:   0.577350  0.577350  0.577350 /   0.639089 -0.186512  0.746176 ->   0.4901477273
    5:   0.000000  0.707107  0.707107 /  -0.119096  0.448353  0.885887 ->   0.4456749401
    6:   0.707107  0.000000  0.707107 /   0.538834 -0.560234  0.629123 ->   0.3993380703
    7:   0.707107  0.707107  0.000000 /   0.993273 -0.115794  0.000000 ->   0.9525581680

 END OF EFFECTIVE MASSES SECTION

 ---- first-order wavefunction calculations are completed ----

 Total localisation tensor (bohr^2) in cartesian coordinates
  WARNING : still subject to testing - especially symmetries.
      direction              matrix element
   alpha     beta       real part   imaginary part
     1        1       2.4171144151    0.0000000000
     1        2      -0.7534826032    0.0000000000
     1        3      -0.0491259347    0.0000000000
     2        1      -0.7534826032    0.0000000000
     2        2       0.6383567421    0.0000000000
     2        3      -0.1339779182    0.0000000000
     3        1      -0.0491259347    0.0000000000
     3        2      -0.1339779182    0.0000000000
     3        3       0.8598469549    0.0000000000

 respfn : d/dk was computed, but no 2DTE, so no DDB output.

== END DATASET(S) ==============================================================

 -outvars: echo values of variables after computation  --------
            acell      1.0000000000E+00  1.0000000000E+00  1.0000000000E+00 Bohr
              amu      3.90983000E+01  1.07868200E+02  1.59994000E+01
             ecut      4.40000000E+01 Hartree
           etotal     -3.1915566318E+01
            fcart      0.0000000000E+00  0.0000000000E+00  0.0000000000E+00
                       0.0000000000E+00  0.0000000000E+00  0.0000000000E+00
                       0.0000000000E+00  0.0000000000E+00  0.0000000000E+00
                       0.0000000000E+00  0.0000000000E+00  0.0000000000E+00
                       0.0000000000E+00  0.0000000000E+00  0.0000000000E+00
                       0.0000000000E+00  0.0000000000E+00  0.0000000000E+00
                       0.0000000000E+00  0.0000000000E+00  0.0000000000E+00
                       0.0000000000E+00  0.0000000000E+00  0.0000000000E+00
                       0.0000000000E+00  0.0000000000E+00  0.0000000000E+00
                       0.0000000000E+00  0.0000000000E+00  0.0000000000E+00
                       0.0000000000E+00  0.0000000000E+00  0.0000000000E+00
                       0.0000000000E+00  0.0000000000E+00  0.0000000000E+00
-          fftalg         512
           irdden           1
           irdwfk           1
           istwfk        0    1
              ixc     -116133
              kpt     -5.00000000E-01  5.00000000E-01  5.00000000E-01
                       0.00000000E+00  0.00000000E+00  0.00000000E+00
           kptopt           0
P           mkmem           2
P          mkqmem           2
P          mk1mem           2
            natom          12
            nband          77
           nbdbuf           4
            ngfft          90      90      90
             nkpt           2
            nstep        2000
             nsym          16
           ntypat           3
              occ      2.000000  2.000000  2.000000  2.000000  2.000000  2.000000
                       2.000000  2.000000  2.000000  2.000000  2.000000  2.000000
                       2.000000  2.000000  2.000000  2.000000  2.000000  2.000000
                       2.000000  2.000000  2.000000  2.000000  2.000000  2.000000
                       2.000000  2.000000  2.000000  2.000000  2.000000  2.000000
                       2.000000  2.000000  2.000000  2.000000  2.000000  2.000000
                       2.000000  2.000000  2.000000  2.000000  2.000000  2.000000
                       2.000000  2.000000  2.000000  2.000000  2.000000  2.000000
                       2.000000  2.000000  2.000000  2.000000  2.000000  2.000000
                       2.000000  2.000000  2.000000  2.000000  2.000000  2.000000
                       2.000000  2.000000  2.000000  2.000000  2.000000  2.000000
                       2.000000  2.000000  0.000000  0.000000  0.000000  0.000000
                       0.000000  0.000000  0.000000  0.000000  0.000000
        optdriver           1
            prtwf          -1
            rfdir           1       1       1
           rfelfd           2
            rprim      1.3884255079E+01  0.0000000000E+00 -1.8836538105E+00
                      -1.0593539563E+01  8.9749350199E+00 -1.8836538105E+00
                       0.0000000000E+00  0.0000000000E+00  1.4011448561E+01
          spgroup         139
           strten      0.0000000000E+00  0.0000000000E+00  0.0000000000E+00
                       0.0000000000E+00  0.0000000000E+00  0.0000000000E+00
           symrel      1  0  0   0  1  0   0  0  1      -1  0  0   0 -1  0   0  0 -1
                       0  0  1  -1 -1 -1   1  0  0       0  0 -1   1  1  1  -1  0  0
                       0  1  0   1  0  0  -1 -1 -1       0 -1  0  -1  0  0   1  1  1
                      -1 -1 -1   0  0  1   0  1  0       1  1  1   0  0 -1   0 -1  0
                       1  0  0   0  1  0  -1 -1 -1      -1  0  0   0 -1  0   1  1  1
                      -1 -1 -1   0  0  1   1  0  0       1  1  1   0  0 -1  -1  0  0
                       0  1  0   1  0  0   0  0  1       0 -1  0  -1  0  0   0  0 -1
                       0  0  1  -1 -1 -1   0  1  0       0  0 -1   1  1  1   0 -1  0
           tolwfr      1.00000000E-20
            typat      1  1  1  1  2  2  2  2  3  3  3  3
           useylm           1
              wtk        0.50000    0.50000
           xangst     -1.4808029141E+00  2.3746655306E+00  4.3637444437E+00
                       3.2221745648E+00  2.3746655306E+00  1.0572214631E+00
                       2.6648468266E+00  8.5463737512E-01  4.3637444437E+00
                      -9.2347517594E-01  3.8946936860E+00  1.0572214631E+00
                      -3.6829992363E+00  4.0443023637E+00 -9.9678666539E-01
                       1.4828685119E+00  4.0443023637E+00  3.5155608391E+00
                       5.4243708870E+00  7.0502869736E-01 -9.9678666539E-01
                       2.5850313880E-01  7.0502869736E-01  1.9054050677E+00
                      -3.9510379424E+00  3.3473522785E+00  4.5232641017E+00
                       5.1783653887E+00  0.0000000000E+00  4.5232641017E+00
                       2.1688659571E+00  0.0000000000E+00  1.8944884706E+00
                      -1.6548217527E+00  1.4019787826E+00  1.8944884706E+00
            xcart     -2.7983119645E+00  4.4874675100E+00  8.2462819125E+00
                       6.0890274799E+00  4.4874675100E+00  1.9978590271E+00
                       5.0358306884E+00  1.6150305819E+00  8.2462819125E+00
                      -1.7451151730E+00  7.3599044380E+00  1.9978590271E+00
                      -6.9598599042E+00  7.6426238661E+00 -1.8836538105E+00
                       2.8022153786E+00  7.6426238661E+00  6.6434471895E+00
                       1.0250575420E+01  1.3323111538E+00 -1.8836538105E+00
                       4.8850013683E-01  1.3323111538E+00  3.6006937501E+00
                      -7.4663796518E+00  6.3255790767E+00  8.5477303788E+00
                       9.7856924007E+00  0.0000000000E+00  8.5477303788E+00
                       4.0985626779E+00  0.0000000000E+00  3.5800643713E+00
                      -3.1271599114E+00  2.6493559432E+00  3.5800643713E+00
             xred      1.7994900000E-01  5.0000000000E-01  6.7994900000E-01
                       8.2005100000E-01  5.0000000000E-01  3.2005100000E-01
                       5.0000000000E-01  1.7994900000E-01  6.7994900000E-01
                       5.0000000000E-01  8.2005100000E-01  3.2005100000E-01
                       1.4844800000E-01  8.5155200000E-01  1.3877787808E-17
                       8.5155200000E-01  8.5155200000E-01  7.0310400000E-01
                       8.5155200000E-01  1.4844800000E-01 -1.3877787808E-17
                       1.4844800000E-01  1.4844800000E-01  2.9689600000E-01
                       0.0000000000E+00  7.0480500000E-01  7.0480500000E-01
                       7.0480500000E-01  0.0000000000E+00  7.0480500000E-01
                       2.9519500000E-01  0.0000000000E+00  2.9519500000E-01
                      -2.7755575616E-17  2.9519500000E-01  2.9519500000E-01
            znucl       19.00000   47.00000    8.00000

- Timing analysis has been suppressed with timopt=0

 Suggested references for the acknowledgment of ABINIT usage.

 Calculation completed.
.Delivered   2 WARNINGs and   5 COMMENTs to log file.