.Version 9.5.1 of ABINIT

 ABINIT is a project of the Universite Catholique de Louvain,
 Corning Inc. and other collaborators, see ~abinit/doc/developers/contributors.txt .
 acknowledgments of the ABINIT effort.

.Starting date : Wed  5 May 2021.
- ( at 19h44 )

- input  file    -> /scratch/users/j/a/jabreu/flow_simple_7atoms/flow/w133/t1/run.abi
- output file    -> /scratch/users/j/a/jabreu/flow_simple_7atoms/flow/w133/t1/run.abo
- root for input  files -> /scratch/users/j/a/jabreu/flow_simple_7atoms/flow/w133/t1/indata/in
- root for output files -> /scratch/users/j/a/jabreu/flow_simple_7atoms/flow/w133/t1/outdata/out

 Symmetries : space group I4/m m m (#139); Bravais tI (body-center tetrag.)
     intxc =       0      iscf =       7    lmnmax =      18     lnmax =       6
     mgfft =      80  mpssoang =       3    mqgrid =    3001     natom =       7
  nloc_mem =       1    nspden =       1   nspinor =       1    nsppol =       1
      nsym =      16    n1xccc =    2501    ntypat =       3    occopt =       1
   xclevel =       2
-    mband =          37        mffmem =           1         mkmem =           2
-   mkqmem =           2        mk1mem =           2           mpw =        9048
      nfft =      512000          nkpt =           2
  Rough estimation (10% accuracy) of disk space for files :

------------- Echo of variables that govern the present computation ------------
-
- outvars: echo of selected default values
-   iomode0 =  0 , fftalg0 =512 , wfoptalg0 =  0
-
- outvars: echo of global parameters not present in the input file
-  max_nthreads =    0
-
 -outvars: echo values of preprocessed input variables --------
            acell      1.0000000000E+00  1.0000000000E+00  1.0000000000E+00 Bohr
              amu      3.90983000E+01  2.43050000E+01  1.89984032E+01
             ecut      4.20000000E+01 Hartree
-          fftalg         512
           irdden           1
           irdwfk           1
           istwfk        1    1
              ixc     -116133
              kpt      0.00000000E+00  0.00000000E+00  5.00000000E-01
                       0.00000000E+00  0.00000000E+00  0.00000000E+00
           kptopt           0
P           mkmem           2
P          mkqmem           2
P          mk1mem           2
            natom           7
            nband          37
           nbdbuf           4
            ngfft          80      80      80
             nkpt           2
            nstep        2000
             nsym          16
           ntypat           3
              occ      2.000000  2.000000  2.000000  2.000000  2.000000  2.000000
                       2.000000  2.000000  2.000000  2.000000  2.000000  2.000000
                       2.000000  2.000000  2.000000  2.000000  2.000000  2.000000
                       2.000000  2.000000  2.000000  2.000000  2.000000  2.000000
                       2.000000  2.000000  2.000000  2.000000  0.000000  0.000000
                       0.000000  0.000000  0.000000  0.000000  0.000000  0.000000
                       0.000000
        optdriver           1
            prtwf          -1
            rfdir           1       1       1
           rfelfd           2
            rprim      7.2038958130E+00  0.0000000000E+00 -1.1362033783E+01
                      -6.0710133410E-01  7.1782687923E+00 -1.1362033783E+01
                       0.0000000000E+00  0.0000000000E+00  1.3453323997E+01
          spgroup         139
           symrel      1  0  0   0  1  0   0  0  1      -1  0  0   0 -1  0   0  0 -1
                       0  0  1  -1 -1 -1   1  0  0       0  0 -1   1  1  1  -1  0  0
                       0  1  0   1  0  0  -1 -1 -1       0 -1  0  -1  0  0   1  1  1
                      -1 -1 -1   0  0  1   0  1  0       1  1  1   0  0 -1   0 -1  0
                       0  1  0   1  0  0   0  0  1       0 -1  0  -1  0  0   0  0 -1
                       0  0  1  -1 -1 -1   0  1  0       0  0 -1   1  1  1   0 -1  0
                       1  0  0   0  1  0  -1 -1 -1      -1  0  0   0 -1  0   1  1  1
                      -1 -1 -1   0  0  1   1  0  0       1  1  1   0  0 -1  -1  0  0
           tolwfr      1.00000000E-20
            typat      1  1  2  3  3  3  3
           useylm           1
              wtk        0.50000    0.50000
           xangst      1.2305467975E+00  1.3390133196E+00 -4.2388812716E+00
                       2.2603264905E+00  2.4595629224E+00 -7.7861773705E+00
                       0.0000000000E+00  0.0000000000E+00  0.0000000000E+00
                       1.9060687386E+00  0.0000000000E+00  5.5333155892E-01
                      -1.6063209466E-01  1.8992881210E+00  5.5333155892E-01
                       5.3396048726E-01  5.8102642340E-01 -1.8393409448E+00
                       2.9569128007E+00  3.2175498186E+00 -1.0185717697E+01
            xcart      2.3253964410E+00  2.5303684624E+00 -8.0103247131E+00
                       4.2713980379E+00  4.6479003299E+00 -1.4713742852E+01
                       0.0000000000E+00  0.0000000000E+00  0.0000000000E+00
                       3.6019479065E+00  0.0000000000E+00  1.0456451071E+00
                      -3.0355066705E-01  3.5891343961E+00  1.0456451071E+00
                       1.0090390867E+00  1.0979808162E+00 -3.4758506507E+00
                       5.5877553922E+00  6.0802879761E+00 -1.9248216915E+01
             xred      3.5250400000E-01  3.5250400000E-01  1.1102230246E-16
                       6.4749600000E-01  6.4749600000E-01  2.2204460493E-16
                       0.0000000000E+00  0.0000000000E+00  0.0000000000E+00
                       5.0000000000E-01  0.0000000000E+00  5.0000000000E-01
                       0.0000000000E+00  5.0000000000E-01  5.0000000000E-01
                       1.5295900000E-01  1.5295900000E-01  1.3877787808E-17
                       8.4704100000E-01  8.4704100000E-01  0.0000000000E+00
            znucl       19.00000   12.00000    9.00000

 chkinp: Checking input parameters for consistency.

== DATASET  1 ==================================================================
-   mpi_nproc: 1, omp_nthreads: -1 (-1 if OMP is not activated)

--- !DatasetInfo
iteration_state: {dtset: 1, }
dimensions: {natom: 7, nkpt: 2, mband: 37, nsppol: 1, nspinor: 1, nspden: 1, mpw: 9048, }
cutoff_energies: {ecut:  42.0, pawecutdg:  -1.0, }
electrons: {nelect:   5.60000000E+01, charge:   0.00000000E+00, occopt:   1.00000000E+00, tsmear:   1.00000000E-02, }
meta: {optdriver: 1, rfelfd: 2, }
...

 Real(R)+Recip(G) space primitive vectors, cartesian coordinates (Bohr,Bohr^-1):
 R(1)=  7.2038958  0.0000000-11.3620338  G(1)=  0.1388138  0.0117402  0.0000000
 R(2)= -0.6071013  7.1782688-11.3620338  G(2)=  0.0000000  0.1393094  0.0000000
 R(3)=  0.0000000  0.0000000 13.4533240  G(3)=  0.1172355  0.1275692  0.0743311
 Unit cell volume ucvol=  6.9569157E+02 bohr^3
 Angles (23,13,12)=  1.47623985E+02  1.47623985E+02  4.64407509E+01 degrees

 getcut: wavevector=  0.0000  0.0000  0.0000  ngfft=  80  80  80
         ecut(hartree)=     42.000   => boxcut(ratio)=   2.03854

--- Pseudopotential description ------------------------------------------------
- pspini: atom type   1  psp file is /scratch/users/j/a/jabreu/pseudos/PBEsol/K.psp8
- pspatm: opening atomic psp file    /scratch/users/j/a/jabreu/pseudos/PBEsol/K.psp8
- K     ONCVPSP-3.3.0  r_core=   1.36296   1.46408   1.61068
- 19.00000   9.00000    180112                znucl, zion, pspdat
    8 -116133    2    4       400   0.00000   pspcod,pspxc,lmax,lloc,mmax,r2well
    3.99000000000000    5.00000000000000    0.00000000000000   rchrg,fchrg,qchrg
     nproj     2     2     2
     extension_switch     1
  pspatm : epsatm=    8.32487830
         --- l  ekb(1:nproj) -->
             0   10.921326    0.816676
             1    4.431000    0.560368
             2   -3.384038   -1.043186
 pspatm: atomic psp has been read  and splines computed

- pspini: atom type   2  psp file is /scratch/users/j/a/jabreu/pseudos/PBEsol/Mg.psp8
- pspatm: opening atomic psp file    /scratch/users/j/a/jabreu/pseudos/PBEsol/Mg.psp8
- Mg    ONCVPSP-3.3.0  r_core=   1.16056   1.56380
- 12.00000  10.00000    180112                znucl, zion, pspdat
    8 -116133    1    4       400   0.00000   pspcod,pspxc,lmax,lloc,mmax,r2well
    3.99000000000000    0.00000000000000    0.00000000000000   rchrg,fchrg,qchrg
     nproj     2     2
     extension_switch     1
  pspatm : epsatm=    9.18164846
         --- l  ekb(1:nproj) -->
             0    2.230603   -0.826587
             1   -6.503151   -2.501445
 pspatm: atomic psp has been read  and splines computed

- pspini: atom type   3  psp file is /scratch/users/j/a/jabreu/pseudos/PBEsol/F.psp8
- pspatm: opening atomic psp file    /scratch/users/j/a/jabreu/pseudos/PBEsol/F.psp8
- F     ONCVPSP-3.3.0  r_core=   1.30942   1.45782   1.60379
-  9.00000   7.00000    180112                znucl, zion, pspdat
    8 -116133    2    4       600   0.00000   pspcod,pspxc,lmax,lloc,mmax,r2well
    5.99000000000000    2.50000000000000    0.00000000000000   rchrg,fchrg,qchrg
     nproj     2     2     1
     extension_switch     1
  pspatm : epsatm=    4.89824824
         --- l  ekb(1:nproj) -->
             0    6.506434    1.065875
             1   -3.978753   -1.295852
             2   -2.394754
 pspatm: atomic psp has been read  and splines computed

   2.54376629E+03                                ecore*ucvol(ha*bohr**3)

-inwffil : will read wavefunctions from disk file /scratch/users/j/a/jabreu/flow_simple_7atoms/flow/w133/t1/indata/in_WFK

 ==>  initialize data related to q vector <==

 The list of irreducible perturbations for this q vector is:
    1)    idir= 1    ipert=   8
    2)    idir= 2    ipert=   8
    3)    idir= 3    ipert=   8

 Perturbation wavevector (in red.coord.)   0.000000  0.000000  0.000000
 Perturbation : derivative vs k along direction   1

 dfpt_looppert : COMMENT -
  In a d/dk calculation, iscf is set to -3 automatically.
 The set of symmetries contains only one element for this perturbation.
 symkpt : not enough symmetry to change the number of k points.

[...]

 Initialisation of the first-order wave-functions :
  ireadwf=   0

--- !BeginCycle
iteration_state: {dtset: 1, }
solver: {iscf: 7, nstep: 2000, nline: 4, wfoptalg: 0, }
tolerances: {tolwfr: 1.00E-20, }
...

     iter   2DEtotal(Ha)        deltaE(Ha) residm    vres2
-ETOT  1  -45.951762752458     -4.595E+01 2.700E-01 0.000E+00
 ETOT  2  -45.995477038108     -4.371E-02 5.412E-03 0.000E+00
 ETOT  3  -45.995674407947     -1.974E-04 7.648E-04 0.000E+00
 ETOT  4  -45.995675939601     -1.532E-06 5.268E-05 0.000E+00
 ETOT  5  -45.995675954133     -1.453E-08 1.468E-05 0.000E+00
 ETOT  6  -45.995675954283     -1.495E-10 1.379E-06 0.000E+00
 ETOT  7  -45.995675954284     -1.606E-12 3.889E-07 0.000E+00
 ETOT  8  -45.995675954284     -4.263E-14 4.108E-08 0.000E+00
 ETOT  9  -45.995675954284      7.105E-15 1.100E-08 0.000E+00
 ETOT 10  -45.995675954284      4.974E-14 1.246E-09 0.000E+00
 ETOT 11  -45.995675954284      0.000E+00 3.215E-10 0.000E+00
 ETOT 12  -45.995675954284      0.000E+00 3.804E-11 0.000E+00
 ETOT 13  -45.995675954284     -3.553E-14 9.579E-12 0.000E+00
 ETOT 14  -45.995675954284      0.000E+00 1.167E-12 0.000E+00
 ETOT 15  -45.995675954284      1.421E-14 2.890E-13 0.000E+00
 ETOT 16  -45.995675954284      0.000E+00 3.600E-14 0.000E+00
 ETOT 17  -45.995675954284      0.000E+00 8.797E-15 0.000E+00
 ETOT 18  -45.995675954284      1.421E-14 1.115E-15 0.000E+00
 ETOT 19  -45.995675954284     -2.842E-14 2.697E-16 0.000E+00
 ETOT 20  -45.995675954284      2.132E-14 3.465E-17 0.000E+00
 ETOT 21  -45.995675954284     -1.421E-14 8.313E-18 0.000E+00
 ETOT 22  -45.995675954284      1.421E-14 1.079E-18 0.000E+00
 ETOT 23  -45.995675954284      0.000E+00 2.573E-19 0.000E+00
 ETOT 24  -45.995675954284     -1.421E-14 3.369E-20 0.000E+00
 ETOT 25  -45.995675954284      0.000E+00 9.788E-21 0.000E+00

 At SCF step   25   max residual=  9.79E-21 < tolwfr=  1.00E-20 =>converged.

 ----iterations are completed or convergence reached----

 dfpt_looppert: DFPT cycle converged with prtwf=-1. Will skip output of the 1st-order WFK file.
 dfpt_looppert : ek2=    8.5810083826E+01
          f-sum rule ratio=    1.0436787627E+00
 prteigrs : about to open file /scratch/users/j/a/jabreu/flow_simple_7atoms/flow/w133/t1/tmpdata/tmp_1WF1_EIG
 Expectation of eigenvalue derivatives (hartree) for nkpt=   2  k points:
  (in case of degenerate eigenvalues, averaged derivative)
 kpt#   1, nband= 37, wtk=  0.50000, kpt=  0.0000  0.0000  0.5000 (reduced coord)
  -0.00000   -0.00000   -0.00000    0.00000   -0.00000    0.00000   -0.00000   -0.00000
   0.00000   -0.00000   -0.00000   -0.00000    0.00000    0.00000   -0.00000    0.00000
   0.00000   -0.00000   -0.00000   -0.00000   -0.00000    0.00000   -0.00000    0.00000
  -0.00000   -0.00000    0.00000    0.00000   -0.00000    0.00000    0.00000    0.00000
  -0.00000   -0.00000    0.00000    0.00017    0.00183
 prteigrs : prtvol=0 or 1, do not print more k-points.

 Eight components of 2nd-order total energy (hartree) are
 1,2,3: 0th-order hamiltonian combined with 1st-order wavefunctions
     kin0=   5.62505085E+01 eigvalue=   4.41012993E+00  local=  -2.40366242E+01
 4,5,6: 1st-order hamiltonian combined with 1st and 0th-order wfs
     kin1=  -8.95581621E+01  Hartree=   0.00000000E+00     xc=   0.00000000E+00
 7,8,9: eventually, occupation + non-local contributions
    edocc=   9.27209851E+00     enl0=   9.95632130E-02   enl1=  -2.43318979E+00
 1-9 gives the relaxation energy (to be shifted if some occ is /=2.0)
   erelax=  -4.59956760E+01
  No Ewald or frozen-wf contrib.: the relaxation energy is the total one
 2DEtotal=   -0.4599567595E+02 Ha. Also 2DEtotal=   -0.125160599429E+04 eV
    (  non-var. 2DEtotal :   -4.5995675954E+01 Ha)

 Perturbation wavevector (in red.coord.)   0.000000  0.000000  0.000000
 Perturbation : derivative vs k along direction   2
 The set of symmetries contains only one element for this perturbation.
 symkpt : not enough symmetry to change the number of k points.

[...]

 Perturbation wavevector (in red.coord.)   0.000000  0.000000  0.000000
 Perturbation : derivative vs k along direction   3
 The set of symmetries contains only one element for this perturbation.
 symkpt : not enough symmetry to change the number of k points.

-inwffil : will read wavefunctions from disk file /scratch/users/j/a/jabreu/flow_simple_7atoms/flow/w133/t1/indata/in_WFK

 Initialisation of the first-order wave-functions :
  ireadwf=   0

--- !BeginCycle
iteration_state: {dtset: 1, }
solver: {iscf: 7, nstep: 2000, nline: 4, wfoptalg: 0, }
tolerances: {tolwfr: 1.00E-20, }
...

     iter   2DEtotal(Ha)        deltaE(Ha) residm    vres2
-ETOT  1  -84.385662975192     -8.439E+01 2.189E-01 0.000E+00
 ETOT  2  -84.466363822316     -8.070E-02 3.180E-03 0.000E+00
 ETOT  3  -84.466688249517     -3.244E-04 3.226E-04 0.000E+00
 ETOT  4  -84.466690588835     -2.339E-06 4.008E-06 0.000E+00
 ETOT  5  -84.466690609826     -2.099E-08 1.545E-06 0.000E+00
 ETOT  6  -84.466690610031     -2.048E-10 2.921E-08 0.000E+00
 ETOT  7  -84.466690610033     -2.132E-12 8.548E-09 0.000E+00
 ETOT  8  -84.466690610033     -8.527E-14 1.156E-10 0.000E+00
 ETOT  9  -84.466690610033      7.105E-14 5.212E-11 0.000E+00
 ETOT 10  -84.466690610033     -8.527E-14 7.978E-13 0.000E+00
 ETOT 11  -84.466690610033      2.842E-14 3.792E-13 0.000E+00
 ETOT 12  -84.466690610033      1.421E-14 6.449E-15 0.000E+00
 ETOT 13  -84.466690610033      0.000E+00 3.520E-15 0.000E+00
 ETOT 14  -84.466690610033      2.842E-14 7.492E-17 0.000E+00
 ETOT 15  -84.466690610033     -2.842E-14 3.909E-17 0.000E+00
 ETOT 16  -84.466690610033      2.842E-14 9.915E-19 0.000E+00
 ETOT 17  -84.466690610033      0.000E+00 4.680E-19 0.000E+00
 ETOT 18  -84.466690610033     -5.684E-14 1.358E-20 0.000E+00
 ETOT 19  -84.466690610033      2.842E-14 9.909E-21 0.000E+00

 At SCF step   19   max residual=  9.91E-21 < tolwfr=  1.00E-20 =>converged.

 ----iterations are completed or convergence reached----

 dfpt_looppert: DFPT cycle converged with prtwf=-1. Will skip output of the 1st-order WFK file.
 dfpt_looppert : ek2=    1.5715704444E+02
          f-sum rule ratio=    1.0470422345E+00
 prteigrs : about to open file /scratch/users/j/a/jabreu/flow_simple_7atoms/flow/w133/t1/tmpdata/tmp_1WF1_EIG
 Expectation of eigenvalue derivatives (hartree) for nkpt=   2  k points:
  (in case of degenerate eigenvalues, averaged derivative)
 kpt#   1, nband= 37, wtk=  0.50000, kpt=  0.0000  0.0000  0.5000 (reduced coord)
  -0.00000   -0.00000   -0.00000   -0.00000   -0.00000   -0.00000    0.00000    0.00000
   0.00000   -0.00000    0.00000    0.00000   -0.00000    0.00000   -0.00000    0.00000
   0.00000   -0.00000   -0.00000   -0.00000   -0.00000    0.00000   -0.00000   -0.00000
  -0.00000   -0.00000   -0.00000    0.00000    0.00000    0.00000    0.00000    0.00000
  -0.00000   -0.00000   -0.00000   -0.00009    0.00316
 prteigrs : prtvol=0 or 1, do not print more k-points.

 Eight components of 2nd-order total energy (hartree) are
 1,2,3: 0th-order hamiltonian combined with 1st-order wavefunctions
     kin0=   1.03598863E+02 eigvalue=   8.12690867E+00  local=  -4.43554186E+01
 4,5,6: 1st-order hamiltonian combined with 1st and 0th-order wfs
     kin1=  -1.64550063E+02  Hartree=   0.00000000E+00     xc=   0.00000000E+00
 7,8,9: eventually, occupation + non-local contributions
    edocc=   1.69322881E+01     enl0=   1.64049818E-01   enl1=  -4.38331825E+00
 1-9 gives the relaxation energy (to be shifted if some occ is /=2.0)
   erelax=  -8.44666906E+01
  No Ewald or frozen-wf contrib.: the relaxation energy is the total one
 2DEtotal=   -0.8446669061E+02 Ha. Also 2DEtotal=   -0.229845554157E+04 eV
    (  non-var. 2DEtotal :   -8.4466690610E+01 Ha)

 CALCULATION OF EFFECTIVE MASSES
 NOTE : Additional infos (eff. mass eigenvalues, eigenvectors and, if degenerate, average mass) are available in stdout.

 K-point ( 0.000, 0.000, 0.500) | band =    28
 Effective mass tensor:
             -7.9200827127              4.5066373913             -0.0260800119
              4.5066373913             -7.1575651915             -0.0275713664
             -0.0260800119             -0.0275713664             -2.9448284744
 Effective mass tensor eigenvalues:
            -12.0615597520             -3.0325115167             -2.9284051099
 Angular average effective mass 1/(<1/m>)=  -3.9779858479
 Angular average effective mass for Frohlich model (<m**0.5>)**2=  -4.3682736717
 Effective masses along directions: (cart. coord. / red. coord. -> eff. mass)
    1:   1.000000  0.000000  0.000000 /   0.996468 -0.083976  0.000000 ->  -5.0819154444
    2:   0.000000  1.000000  0.000000 /   0.000000  1.000000  0.000000 ->  -4.5926149155
    3:   0.000000  0.000000  1.000000 /  -0.542167 -0.542167  0.641958 ->  -2.9443509940
    4:   0.577350  0.577350  0.577350 /  -0.279558 -0.322098  0.904489 ->  -3.0306435202
    5:   0.000000  0.707107  0.707107 /  -0.627754 -0.231154  0.743298 ->  -3.6290900762
    6:   0.707107  0.000000  0.707107 /  -0.224997 -0.647650  0.727960 ->  -3.7692891472
    7:   0.707107  0.707107  0.000000 /   0.738807  0.673917  0.000000 ->  -3.0196294974

 K-point ( 0.000, 0.000, 0.000) | band =    29
 Effective mass tensor:
              0.5362648386              0.0027856235             -0.0088183793
              0.0027856235              0.5367360263             -0.0095956752
             -0.0088183793             -0.0095956752              0.5640816552
 Effective mass tensor eigenvalues:
              0.5337048640              0.5337048640              0.5696727921
 Angular average effective mass 1/(<1/m>)=   0.5451786711
 Angular average effective mass for Frohlich model (<m**0.5>)**2=   0.5453315020
 Effective masses along directions: (cart. coord. / red. coord. -> eff. mass)
    1:   1.000000  0.000000  0.000000 /   0.996468 -0.083976  0.000000 ->   0.5361140335
    2:   0.000000  1.000000  0.000000 /   0.000000  1.000000  0.000000 ->   0.5365598361
    3:   0.000000  0.000000  1.000000 /  -0.542167 -0.542167  0.641958 ->   0.5637667247
    4:   0.577350  0.577350  0.577350 /  -0.279558 -0.322098  0.904489 ->   0.5351801372
    5:   0.000000  0.707107  0.707107 /  -0.627754 -0.231154  0.743298 ->   0.5404485088
    6:   0.707107  0.000000  0.707107 /  -0.224997 -0.647650  0.727960 ->   0.5409694166
    7:   0.707107  0.707107  0.000000 /   0.738807  0.673917  0.000000 ->   0.5389854058

 END OF EFFECTIVE MASSES SECTION

 ---- first-order wavefunction calculations are completed ----

 Total localisation tensor (bohr^2) in cartesian coordinates
  WARNING : still subject to testing - especially symmetries.
      direction              matrix element
   alpha     beta       real part   imaginary part
     1        1       0.4746905905    0.0000000000
     1        2      -0.0395831405    0.0000000000
     1        3      -0.6807514865    0.0000000000
     2        1      -0.0395831405    0.0000000000
     2        2       0.4680247045    0.0000000000
     2        3      -0.7408071023    0.0000000000
     3        1      -0.6807514865    0.0000000000
     3        2      -0.7408071023    0.0000000000
     3        3       5.3783141746    0.0000000000

 respfn : d/dk was computed, but no 2DTE, so no DDB output.

== END DATASET(S) ==============================================================

 -outvars: echo values of variables after computation  --------
            acell      1.0000000000E+00  1.0000000000E+00  1.0000000000E+00 Bohr
              amu      3.90983000E+01  2.43050000E+01  1.89984032E+01
             ecut      4.20000000E+01 Hartree
           etotal     -8.4466690610E+01
            fcart      0.0000000000E+00  0.0000000000E+00  0.0000000000E+00
                       0.0000000000E+00  0.0000000000E+00  0.0000000000E+00
                       0.0000000000E+00  0.0000000000E+00  0.0000000000E+00
                       0.0000000000E+00  0.0000000000E+00  0.0000000000E+00
                       0.0000000000E+00  0.0000000000E+00  0.0000000000E+00
                       0.0000000000E+00  0.0000000000E+00  0.0000000000E+00
                       0.0000000000E+00  0.0000000000E+00  0.0000000000E+00
-          fftalg         512
           irdden           1
           irdwfk           1
           istwfk        1    1
              ixc     -116133
              kpt      0.00000000E+00  0.00000000E+00  5.00000000E-01
                       0.00000000E+00  0.00000000E+00  0.00000000E+00
           kptopt           0
P           mkmem           2
P          mkqmem           2
P          mk1mem           2
            natom           7
            nband          37
           nbdbuf           4
            ngfft          80      80      80
             nkpt           2
            nstep        2000
             nsym          16
           ntypat           3
              occ      2.000000  2.000000  2.000000  2.000000  2.000000  2.000000
                       2.000000  2.000000  2.000000  2.000000  2.000000  2.000000
                       2.000000  2.000000  2.000000  2.000000  2.000000  2.000000
                       2.000000  2.000000  2.000000  2.000000  2.000000  2.000000
                       2.000000  2.000000  2.000000  2.000000  0.000000  0.000000
                       0.000000  0.000000  0.000000  0.000000  0.000000  0.000000
                       0.000000
        optdriver           1
            prtwf          -1
            rfdir           1       1       1
           rfelfd           2
            rprim      7.2038958130E+00  0.0000000000E+00 -1.1362033783E+01
                      -6.0710133410E-01  7.1782687923E+00 -1.1362033783E+01
                       0.0000000000E+00  0.0000000000E+00  1.3453323997E+01
          spgroup         139
           strten      0.0000000000E+00  0.0000000000E+00  0.0000000000E+00
                       0.0000000000E+00  0.0000000000E+00  0.0000000000E+00
           symrel      1  0  0   0  1  0   0  0  1      -1  0  0   0 -1  0   0  0 -1
                       0  0  1  -1 -1 -1   1  0  0       0  0 -1   1  1  1  -1  0  0
                       0  1  0   1  0  0  -1 -1 -1       0 -1  0  -1  0  0   1  1  1
                      -1 -1 -1   0  0  1   0  1  0       1  1  1   0  0 -1   0 -1  0
                       0  1  0   1  0  0   0  0  1       0 -1  0  -1  0  0   0  0 -1
                       0  0  1  -1 -1 -1   0  1  0       0  0 -1   1  1  1   0 -1  0
                       1  0  0   0  1  0  -1 -1 -1      -1  0  0   0 -1  0   1  1  1
                      -1 -1 -1   0  0  1   1  0  0       1  1  1   0  0 -1  -1  0  0
           tolwfr      1.00000000E-20
            typat      1  1  2  3  3  3  3
           useylm           1
              wtk        0.50000    0.50000
           xangst      1.2305467975E+00  1.3390133196E+00 -4.2388812716E+00
                       2.2603264905E+00  2.4595629224E+00 -7.7861773705E+00
                       0.0000000000E+00  0.0000000000E+00  0.0000000000E+00
                       1.9060687386E+00  0.0000000000E+00  5.5333155892E-01
                      -1.6063209466E-01  1.8992881210E+00  5.5333155892E-01
                       5.3396048726E-01  5.8102642340E-01 -1.8393409448E+00
                       2.9569128007E+00  3.2175498186E+00 -1.0185717697E+01
            xcart      2.3253964410E+00  2.5303684624E+00 -8.0103247131E+00
                       4.2713980379E+00  4.6479003299E+00 -1.4713742852E+01
                       0.0000000000E+00  0.0000000000E+00  0.0000000000E+00
                       3.6019479065E+00  0.0000000000E+00  1.0456451071E+00
                      -3.0355066705E-01  3.5891343961E+00  1.0456451071E+00
                       1.0090390867E+00  1.0979808162E+00 -3.4758506507E+00
                       5.5877553922E+00  6.0802879761E+00 -1.9248216915E+01
             xred      3.5250400000E-01  3.5250400000E-01  1.1102230246E-16
                       6.4749600000E-01  6.4749600000E-01  2.2204460493E-16
                       0.0000000000E+00  0.0000000000E+00  0.0000000000E+00
                       5.0000000000E-01  0.0000000000E+00  5.0000000000E-01
                       0.0000000000E+00  5.0000000000E-01  5.0000000000E-01
                       1.5295900000E-01  1.5295900000E-01  1.3877787808E-17
                       8.4704100000E-01  8.4704100000E-01  0.0000000000E+00
            znucl       19.00000   12.00000    9.00000

- Timing analysis has been suppressed with timopt=0

 Suggested references for the acknowledgment of ABINIT usage.

 Calculation completed.
.Delivered  14 WARNINGs and   9 COMMENTs to log file.