.Version 9.5.1 of ABINIT

 ABINIT is a project of the Universite Catholique de Louvain,
 Corning Inc. and other collaborators, see ~abinit/doc/developers/contributors.txt .
 acknowledgments of the ABINIT effort.

.Starting date : Sat  1 May 2021.
- ( at 05h10 )

- input  file    -> /scratch/users/j/a/jabreu/flow_simple_6atoms/flow/w154/t1/run.abi
- output file    -> /scratch/users/j/a/jabreu/flow_simple_6atoms/flow/w154/t1/run.abo
- root for input  files -> /scratch/users/j/a/jabreu/flow_simple_6atoms/flow/w154/t1/indata/in
- root for output files -> /scratch/users/j/a/jabreu/flow_simple_6atoms/flow/w154/t1/outdata/out

 Symmetries : space group I-4 (# 82); Bravais tI (body-center tetrag.)
     intxc =       0      iscf =       7    lmnmax =      18     lnmax =       6
     mgfft =      54  mpssoang =       3    mqgrid =    3001     natom =       6
  nloc_mem =       1    nspden =       1   nspinor =       1    nsppol =       1
      nsym =       4    n1xccc =    2501    ntypat =       3    occopt =       1
   xclevel =       2
-    mband =          30        mffmem =           1         mkmem =           2
-   mkqmem =           2        mk1mem =           2           mpw =        6510
      nfft =      157464          nkpt =           2
  Rough estimation (10% accuracy) of disk space for files :

------------- Echo of variables that govern the present computation ------------
-
- outvars: echo of selected default values
-   iomode0 =  0 , fftalg0 =512 , wfoptalg0 =  0
-
- outvars: echo of global parameters not present in the input file
-  max_nthreads =    0
-
 -outvars: echo values of preprocessed input variables --------
            acell      1.0000000000E+00  1.0000000000E+00  1.0000000000E+00 Bohr
              amu      1.08110000E+01  7.49215900E+01  1.59994000E+01
             ecut      4.40000000E+01 Hartree
-          fftalg         512
           irdden           1
           irdwfk           1
           istwfk        1    1
              ixc     -116133
              kpt      0.00000000E+00  5.00000000E-01  2.77555756E-17
                       0.00000000E+00  0.00000000E+00  0.00000000E+00
           kptopt           0
P           mkmem           2
P          mkqmem           2
P          mk1mem           2
            natom           6
            nband          30
           nbdbuf           4
            ngfft          54      54      54
             nkpt           2
            nstep        1000
             nsym           4
           ntypat           3
              occ      2.000000  2.000000  2.000000  2.000000  2.000000  2.000000
                       2.000000  2.000000  2.000000  2.000000  2.000000  2.000000
                       2.000000  2.000000  2.000000  2.000000  2.000000  2.000000
                       2.000000  2.000000  2.000000  0.000000  0.000000  0.000000
                       0.000000  0.000000  0.000000  0.000000  0.000000  0.000000
        optdriver           1
            prtwf          -1
            rfdir           1       1       1
           rfelfd           2
            rprim      7.4595169862E+00  0.0000000000E+00 -4.6788581645E+00
                      -2.2828333411E+00  7.1016241525E+00 -4.6788581645E+00
                       0.0000000000E+00  0.0000000000E+00  8.8054589540E+00
          spgroup          82
           symrel      1  0  0   0  1  0   0  0  1       0  1  0   1  0  0  -1 -1 -1
                       0  0  1  -1 -1 -1   0  1  0      -1 -1 -1   0  0  1   1  0  0
           tolwfr      1.00000000E-20
            typat      1  2  3  3  3  3
           useylm           1
              wtk        0.50000    0.50000
           xangst      0.0000000000E+00  0.0000000000E+00  0.0000000000E+00
                       2.6585489384E+00  9.3950441137E-01 -1.4612100806E-01
                       2.7301902221E+00  3.9971684934E-01 -1.7531686921E+00
                       2.3693959052E+00  3.6028660080E+00 -1.7074564817E+00
                      -6.3325417092E-01  2.4769611029E+00  2.6222563467E+00
                       1.0124340458E+00  1.0364913308E+00  2.5388479475E-01
            xcart      0.0000000000E+00  0.0000000000E+00  0.0000000000E+00
                       5.0239294044E+00  1.7754060381E+00 -2.7612868750E-01
                       5.1593118105E+00  7.5535537595E-01 -3.3130086928E+00
                       4.4775093612E+00  6.8084300486E+00 -3.2266251342E+00
                      -1.1966769555E+00  4.6807781262E+00  4.9553463456E+00
                       1.9132230741E+00  1.9586847543E+00  4.7977273139E-01
             xred      0.0000000000E+00  0.0000000000E+00  0.0000000000E+00
                       7.5000000000E-01  2.5000000000E-01  5.0000000000E-01
                       7.2419200000E-01  1.0636375000E-01  6.5078250000E-02
                       8.9363625000E-01  9.5871450000E-01  6.1782825000E-01
                       4.1285500000E-02  6.5911375000E-01  9.3492175000E-01
                       3.4088625000E-01  2.7580800000E-01  3.8217175000E-01
            znucl        5.00000   33.00000    8.00000

 chkinp: Checking input parameters for consistency.

== DATASET  1 ==================================================================
-   mpi_nproc: 1, omp_nthreads: -1 (-1 if OMP is not activated)

--- !DatasetInfo
iteration_state: {dtset: 1, }
dimensions: {natom: 6, nkpt: 2, mband: 30, nsppol: 1, nspinor: 1, nspden: 1, mpw: 6510, }
cutoff_energies: {ecut:  44.0, pawecutdg:  -1.0, }
electrons: {nelect:   4.20000000E+01, charge:   0.00000000E+00, occopt:   1.00000000E+00, tsmear:   1.00000000E-02, }
meta: {optdriver: 1, rfelfd: 2, }
...

 Real(R)+Recip(G) space primitive vectors, cartesian coordinates (Bohr,Bohr^-1):
 R(1)=  7.4595170  0.0000000 -4.6788582  G(1)=  0.1340569  0.0430929  0.0000000
 R(2)= -2.2828333  7.1016242 -4.6788582  G(2)=  0.0000000  0.1408129  0.0000000
 R(3)=  0.0000000  0.0000000  8.8054590  G(3)=  0.0712323  0.0977199  0.1135659
 Unit cell volume ucvol=  4.6646642E+02 bohr^3
 Angles (23,13,12)=  1.22097310E+02  1.22097310E+02  8.64041854E+01 degrees

 getcut: wavevector=  0.0000  0.0000  0.0000  ngfft=  54  54  54
         ecut(hartree)=     44.000   => boxcut(ratio)=   2.05444

--- Pseudopotential description ------------------------------------------------
- pspini: atom type   1  psp file is /scratch/users/j/a/jabreu/pseudos/PBEsol/B.psp8
- pspatm: opening atomic psp file    /scratch/users/j/a/jabreu/pseudos/PBEsol/B.psp8
- B     ONCVPSP-3.3.0  r_core=   1.20849   1.20849
-  5.00000   3.00000    180112                znucl, zion, pspdat
    8 -116133    1    4       600   0.00000   pspcod,pspxc,lmax,lloc,mmax,r2well
    5.99000000000000    2.90000000000000    0.00000000000000   rchrg,fchrg,qchrg
     nproj     2     2
     extension_switch     1
  pspatm : epsatm=    3.20154566
         --- l  ekb(1:nproj) -->
             0    8.466603    1.247630
             1   -3.609180   -0.822621
 pspatm: atomic psp has been read  and splines computed

- pspini: atom type   2  psp file is /scratch/users/j/a/jabreu/pseudos/PBEsol/As.psp8
- pspatm: opening atomic psp file    /scratch/users/j/a/jabreu/pseudos/PBEsol/As.psp8
- As    ONCVPSP-3.3.0  r_core=   1.76603   1.70395   1.80867
- 33.00000  15.00000    180112                znucl, zion, pspdat
    8 -116133    2    4       600   0.00000   pspcod,pspxc,lmax,lloc,mmax,r2well
    5.99000000000000    5.00000000000000    0.00000000000000   rchrg,fchrg,qchrg
     nproj     2     2     2
     extension_switch     1
  pspatm : epsatm=   28.79155382
         --- l  ekb(1:nproj) -->
             0    8.270760    0.868950
             1    4.919053    0.756587
             2  -10.048665   -4.076802
 pspatm: atomic psp has been read  and splines computed

- pspini: atom type   3  psp file is /scratch/users/j/a/jabreu/pseudos/PBEsol/O.psp8
- pspatm: opening atomic psp file    /scratch/users/j/a/jabreu/pseudos/PBEsol/O.psp8
- O     ONCVPSP-3.3.0  r_core=   1.35509   1.45563   1.26150
-  8.00000   6.00000    180112                znucl, zion, pspdat
    8 -116133    2    4       600   0.00000   pspcod,pspxc,lmax,lloc,mmax,r2well
    5.99000000000000    4.00000000000000    0.00000000000000   rchrg,fchrg,qchrg
     nproj     2     2     1
     extension_switch     1
  pspatm : epsatm=    6.22910522
         --- l  ekb(1:nproj) -->
             0    6.050032    0.820363
             1   -4.739617   -1.153841
             2   -1.335834
 pspatm: atomic psp has been read  and splines computed

   2.39019985E+03                                ecore*ucvol(ha*bohr**3)

-inwffil : will read wavefunctions from disk file /scratch/users/j/a/jabreu/flow_simple_6atoms/flow/w154/t1/indata/in_WFK

 ==>  initialize data related to q vector <==

 The list of irreducible perturbations for this q vector is:
    1)    idir= 1    ipert=   7
    2)    idir= 2    ipert=   7
    3)    idir= 3    ipert=   7

 Perturbation wavevector (in red.coord.)   0.000000  0.000000  0.000000
 Perturbation : derivative vs k along direction   1

 dfpt_looppert : COMMENT -
  In a d/dk calculation, iscf is set to -3 automatically.
 The set of symmetries contains only one element for this perturbation.
 symkpt : not enough symmetry to change the number of k points.

[...]

 Initialisation of the first-order wave-functions :
  ireadwf=   0

--- !BeginCycle
iteration_state: {dtset: 1, }
solver: {iscf: 7, nstep: 1000, nline: 4, wfoptalg: 0, }
tolerances: {tolwfr: 1.00E-20, }
...

     iter   2DEtotal(Ha)        deltaE(Ha) residm    vres2
-ETOT  1  -52.301868751587     -5.230E+01 1.180E-01 0.000E+00
 ETOT  2  -52.357384635380     -5.552E-02 9.907E-03 0.000E+00
 ETOT  3  -52.357632645324     -2.480E-04 2.646E-04 0.000E+00
 ETOT  4  -52.357635659994     -3.015E-06 4.077E-05 0.000E+00
 ETOT  5  -52.357635708615     -4.862E-08 1.226E-06 0.000E+00
 ETOT  6  -52.357635709532     -9.174E-10 2.699E-07 0.000E+00
 ETOT  7  -52.357635709551     -1.911E-11 8.016E-09 0.000E+00
 ETOT  8  -52.357635709552     -3.908E-13 1.859E-09 0.000E+00
 ETOT  9  -52.357635709552     -2.132E-14 6.559E-11 0.000E+00
 ETOT 10  -52.357635709552      4.263E-14 1.303E-11 0.000E+00
 ETOT 11  -52.357635709552     -1.421E-14 5.797E-13 0.000E+00
 ETOT 12  -52.357635709552     -3.553E-14 1.143E-13 0.000E+00
 ETOT 13  -52.357635709552      2.132E-14 5.152E-15 0.000E+00
 ETOT 14  -52.357635709552      0.000E+00 1.019E-15 0.000E+00
 ETOT 15  -52.357635709552      0.000E+00 4.592E-17 0.000E+00
 ETOT 16  -52.357635709552     -1.421E-14 9.096E-18 0.000E+00
 ETOT 17  -52.357635709552      1.421E-14 4.102E-19 0.000E+00
 ETOT 18  -52.357635709552      0.000E+00 8.135E-20 0.000E+00
 ETOT 19  -52.357635709552     -1.421E-14 9.991E-21 0.000E+00

 At SCF step   19   max residual=  9.99E-21 < tolwfr=  1.00E-20 =>converged.

 ----iterations are completed or convergence reached----

 dfpt_looppert: DFPT cycle converged with prtwf=-1. Will skip output of the 1st-order WFK file.
 dfpt_looppert : ek2=    6.5754223723E+01
          f-sum rule ratio=    1.0233916784E+00
 prteigrs : about to open file /scratch/users/j/a/jabreu/flow_simple_6atoms/flow/w154/t1/tmpdata/tmp_1WF1_EIG
 Expectation of eigenvalue derivatives (hartree) for nkpt=   2  k points:
  (in case of degenerate eigenvalues, averaged derivative)
 kpt#   1, nband= 30, wtk=  0.50000, kpt=  0.0000  0.5000  0.0000 (reduced coord)
   0.00000   -0.00000    0.00000   -0.00000    0.00000    0.00000    0.00000   -0.00000
  -0.00000   -0.00000    0.00000    0.00000   -0.00000    0.00000   -0.00000    0.00000
   0.00000   -0.00000   -0.00000    0.00000   -0.00000   -0.00000    0.00000    0.00000
  -0.00000    0.00000    0.00000    0.00000    0.00000    0.00022
 prteigrs : prtvol=0 or 1, do not print more k-points.

 Eight components of 2nd-order total energy (hartree) are
 1,2,3: 0th-order hamiltonian combined with 1st-order wavefunctions
     kin0=   5.74831881E+01 eigvalue=   6.02457499E+00  local=  -2.16899559E+01
 4,5,6: 1st-order hamiltonian combined with 1st and 0th-order wfs
     kin1=  -6.72923254E+01  Hartree=   0.00000000E+00     xc=   0.00000000E+00
 7,8,9: eventually, occupation + non-local contributions
    edocc=   1.00400925E+01     enl0=   4.99735955E-01   enl1=  -3.74229460E+01
 1-9 gives the relaxation energy (to be shifted if some occ is /=2.0)
   erelax=  -5.23576357E+01
  No Ewald or frozen-wf contrib.: the relaxation energy is the total one
 2DEtotal=   -0.5235763571E+02 Ha. Also 2DEtotal=   -0.142472372329E+04 eV
    (  non-var. 2DEtotal :   -5.2357635709E+01 Ha)

 Perturbation wavevector (in red.coord.)   0.000000  0.000000  0.000000
 Perturbation : derivative vs k along direction   2
 The set of symmetries contains only one element for this perturbation.
 symkpt : not enough symmetry to change the number of k points.

[...]

 Perturbation wavevector (in red.coord.)   0.000000  0.000000  0.000000
 Perturbation : derivative vs k along direction   3
 The set of symmetries contains only one element for this perturbation.
 symkpt : not enough symmetry to change the number of k points.

-inwffil : will read wavefunctions from disk file /scratch/users/j/a/jabreu/flow_simple_6atoms/flow/w154/t1/indata/in_WFK

 Initialisation of the first-order wave-functions :
  ireadwf=   0

--- !BeginCycle
iteration_state: {dtset: 1, }
solver: {iscf: 7, nstep: 1000, nline: 4, wfoptalg: 0, }
tolerances: {tolwfr: 1.00E-20, }
...

     iter   2DEtotal(Ha)        deltaE(Ha) residm    vres2
-ETOT  1  -72.578958914126     -7.258E+01 1.999E-01 0.000E+00
 ETOT  2  -72.655698995126     -7.674E-02 2.367E-02 0.000E+00
 ETOT  3  -72.656167486633     -4.685E-04 9.184E-04 0.000E+00
 ETOT  4  -72.656174213988     -6.727E-06 1.549E-04 0.000E+00
 ETOT  5  -72.656174329399     -1.154E-07 8.451E-06 0.000E+00
 ETOT  6  -72.656174331576     -2.177E-09 1.706E-06 0.000E+00
 ETOT  7  -72.656174331620     -4.405E-11 9.342E-08 0.000E+00
 ETOT  8  -72.656174331621     -9.095E-13 1.955E-08 0.000E+00
 ETOT  9  -72.656174331621     -1.421E-14 1.062E-09 0.000E+00
 ETOT 10  -72.656174331621     -2.842E-14 2.266E-10 0.000E+00
 ETOT 11  -72.656174331621     -1.421E-14 1.219E-11 0.000E+00
 ETOT 12  -72.656174331621      2.842E-14 2.641E-12 0.000E+00
 ETOT 13  -72.656174331621     -1.421E-14 1.409E-13 0.000E+00
 ETOT 14  -72.656174331621     -1.421E-14 3.086E-14 0.000E+00
 ETOT 15  -72.656174331621      0.000E+00 1.635E-15 0.000E+00
 ETOT 16  -72.656174331621      0.000E+00 3.613E-16 0.000E+00
 ETOT 17  -72.656174331621      0.000E+00 1.902E-17 0.000E+00
 ETOT 18  -72.656174331621      1.421E-14 4.237E-18 0.000E+00
 ETOT 19  -72.656174331621      1.421E-14 2.217E-19 0.000E+00
 ETOT 20  -72.656174331621     -1.421E-14 4.975E-20 0.000E+00
 ETOT 21  -72.656174331621     -1.421E-14 8.905E-21 0.000E+00

 At SCF step   21   max residual=  8.91E-21 < tolwfr=  1.00E-20 =>converged.

 ----iterations are completed or convergence reached----

 dfpt_looppert: DFPT cycle converged with prtwf=-1. Will skip output of the 1st-order WFK file.
 dfpt_looppert : ek2=    9.1262963877E+01
          f-sum rule ratio=    1.0219954239E+00
 prteigrs : about to open file /scratch/users/j/a/jabreu/flow_simple_6atoms/flow/w154/t1/tmpdata/tmp_1WF1_EIG
 Expectation of eigenvalue derivatives (hartree) for nkpt=   2  k points:
  (in case of degenerate eigenvalues, averaged derivative)
 kpt#   1, nband= 30, wtk=  0.50000, kpt=  0.0000  0.5000  0.0000 (reduced coord)
  -0.00000   -0.00000    0.00000   -0.00000    0.00000    0.00000    0.00000    0.00000
  -0.00000   -0.00000   -0.00000    0.00000    0.00000    0.00000   -0.00000    0.00000
  -0.00000   -0.00000   -0.00000    0.00000   -0.00000   -0.00000    0.00000   -0.00000
  -0.00000    0.00000    0.00000    0.00000    0.00000    0.00029
 prteigrs : prtvol=0 or 1, do not print more k-points.

 Eight components of 2nd-order total energy (hartree) are
 1,2,3: 0th-order hamiltonian combined with 1st-order wavefunctions
     kin0=   8.07372462E+01 eigvalue=   8.40647116E+00  local=  -3.07996437E+01
 4,5,6: 1st-order hamiltonian combined with 1st and 0th-order wfs
     kin1=  -9.32703315E+01  Hartree=   0.00000000E+00     xc=   0.00000000E+00
 7,8,9: eventually, occupation + non-local contributions
    edocc=   1.38897721E+01     enl0=   4.22328555E-01   enl1=  -5.20420172E+01
 1-9 gives the relaxation energy (to be shifted if some occ is /=2.0)
   erelax=  -7.26561743E+01
  No Ewald or frozen-wf contrib.: the relaxation energy is the total one
 2DEtotal=   -0.7265617433E+02 Ha. Also 2DEtotal=   -0.197707504954E+04 eV
    (  non-var. 2DEtotal :   -7.2656174331E+01 Ha)

 CALCULATION OF EFFECTIVE MASSES
 NOTE : Additional infos (eff. mass eigenvalues, eigenvectors and, if degenerate, average mass) are available in stdout.

 K-point ( 0.000, 0.500, 0.000) | band =    21
 Effective mass tensor:
             -2.8282154773              0.4319142115             -1.0855529432
              0.4319142115             -2.8578888826              0.5895674320
             -1.0855529432              0.5895674320             -2.1739753055
 Effective mass tensor eigenvalues:
             -4.0499733787             -2.4781546288             -1.3319516579
 Angular average effective mass 1/(<1/m>)=  -2.1409925332
 Angular average effective mass for Frohlich model (<m**0.5>)**2=  -2.2775161917
 Effective masses along directions: (cart. coord. / red. coord. -> eff. mass)
    1:   1.000000  0.000000  0.000000 /   0.956225 -0.292633  0.000000 ->  -2.2791459179
    2:   0.000000  1.000000  0.000000 /   0.000000  1.000000  0.000000 ->  -2.6897299300
    3:   0.000000  0.000000  1.000000 /  -0.424790 -0.424790  0.799441 ->  -1.6929815695
    4:   0.577350  0.577350  0.577350 /   0.301096  0.015152  0.953474 ->  -2.5016428369
    5:   0.000000  0.707107  0.707107 /  -0.455964  0.236103  0.858110 ->  -1.7516588712
    6:   0.707107  0.000000  0.707107 /   0.240452 -0.601998  0.761434 ->  -3.3146445283
    7:   0.707107  0.707107  0.000000 /   0.839979  0.542620  0.000000 ->  -2.3384333914

 K-point ( 0.000, 0.000, 0.000) | band =    22
 Effective mass tensor:
              0.6889791062             -0.0207661330              0.0273630893
             -0.0207661330              0.6756290044              0.0375382028
              0.0273630893              0.0375382028              0.6546529619
 Effective mass tensor eigenvalues:
              0.6110278599              0.7041163376              0.7041168750
 Angular average effective mass 1/(<1/m>)=   0.6700878066
 Angular average effective mass for Frohlich model (<m**0.5>)**2=   0.6710081673
 Effective masses along directions: (cart. coord. / red. coord. -> eff. mass)
    1:   1.000000  0.000000  0.000000 /   0.956225 -0.292633  0.000000 ->   0.6870946658
    2:   0.000000  1.000000  0.000000 /   0.000000  1.000000  0.000000 ->   0.6727512817
    3:   0.000000  0.000000  1.000000 /  -0.424790 -0.424790  0.799441 ->   0.6513859170
    4:   0.577350  0.577350  0.577350 /   0.301096  0.015152  0.953474 ->   0.7022706377
    5:   0.000000  0.707107  0.707107 /  -0.455964  0.236103  0.858110 ->   0.7024640579
    6:   0.707107  0.000000  0.707107 /   0.240452 -0.601998  0.761434 ->   0.6984725538
    7:   0.707107  0.707107  0.000000 /   0.839979  0.542620  0.000000 ->   0.6582474938

 END OF EFFECTIVE MASSES SECTION

 ---- first-order wavefunction calculations are completed ----

 Total localisation tensor (bohr^2) in cartesian coordinates
  WARNING : still subject to testing - especially symmetries.
      direction              matrix element
   alpha     beta       real part   imaginary part
     1        1       0.7424610429    0.0000000000
     1        2      -0.1957058637    0.0000000000
     1        3      -0.2972975307    0.0000000000
     2        1      -0.1957058637    0.0000000000
     2        2       0.6088177633    0.0000000000
     2        3      -0.4011155619    0.0000000000
     3        1      -0.2972975307    0.0000000000
     3        2      -0.4011155619    0.0000000000
     3        3       1.8509907063    0.0000000000

 respfn : d/dk was computed, but no 2DTE, so no DDB output.

== END DATASET(S) ==============================================================

 -outvars: echo values of variables after computation  --------
            acell      1.0000000000E+00  1.0000000000E+00  1.0000000000E+00 Bohr
              amu      1.08110000E+01  7.49215900E+01  1.59994000E+01
             ecut      4.40000000E+01 Hartree
           etotal     -7.2656174332E+01
            fcart      0.0000000000E+00  0.0000000000E+00  0.0000000000E+00
                       0.0000000000E+00  0.0000000000E+00  0.0000000000E+00
                       0.0000000000E+00  0.0000000000E+00  0.0000000000E+00
                       0.0000000000E+00  0.0000000000E+00  0.0000000000E+00
                       0.0000000000E+00  0.0000000000E+00  0.0000000000E+00
                       0.0000000000E+00  0.0000000000E+00  0.0000000000E+00
-          fftalg         512
           irdden           1
           irdwfk           1
           istwfk        1    1
              ixc     -116133
              kpt      0.00000000E+00  5.00000000E-01  2.77555756E-17
                       0.00000000E+00  0.00000000E+00  0.00000000E+00
           kptopt           0
P           mkmem           2
P          mkqmem           2
P          mk1mem           2
            natom           6
            nband          30
           nbdbuf           4
            ngfft          54      54      54
             nkpt           2
            nstep        1000
             nsym           4
           ntypat           3
              occ      2.000000  2.000000  2.000000  2.000000  2.000000  2.000000
                       2.000000  2.000000  2.000000  2.000000  2.000000  2.000000
                       2.000000  2.000000  2.000000  2.000000  2.000000  2.000000
                       2.000000  2.000000  2.000000  0.000000  0.000000  0.000000
                       0.000000  0.000000  0.000000  0.000000  0.000000  0.000000
        optdriver           1
            prtwf          -1
            rfdir           1       1       1
           rfelfd           2
            rprim      7.4595169862E+00  0.0000000000E+00 -4.6788581645E+00
                      -2.2828333411E+00  7.1016241525E+00 -4.6788581645E+00
                       0.0000000000E+00  0.0000000000E+00  8.8054589540E+00
          spgroup          82
           strten      0.0000000000E+00  0.0000000000E+00  0.0000000000E+00
                       0.0000000000E+00  0.0000000000E+00  0.0000000000E+00
           symrel      1  0  0   0  1  0   0  0  1       0  1  0   1  0  0  -1 -1 -1
                       0  0  1  -1 -1 -1   0  1  0      -1 -1 -1   0  0  1   1  0  0
           tolwfr      1.00000000E-20
            typat      1  2  3  3  3  3
           useylm           1
              wtk        0.50000    0.50000
           xangst      0.0000000000E+00  0.0000000000E+00  0.0000000000E+00
                       2.6585489384E+00  9.3950441137E-01 -1.4612100806E-01
                       2.7301902221E+00  3.9971684934E-01 -1.7531686921E+00
                       2.3693959052E+00  3.6028660080E+00 -1.7074564817E+00
                      -6.3325417092E-01  2.4769611029E+00  2.6222563467E+00
                       1.0124340458E+00  1.0364913308E+00  2.5388479475E-01
            xcart      0.0000000000E+00  0.0000000000E+00  0.0000000000E+00
                       5.0239294044E+00  1.7754060381E+00 -2.7612868750E-01
                       5.1593118105E+00  7.5535537595E-01 -3.3130086928E+00
                       4.4775093612E+00  6.8084300486E+00 -3.2266251342E+00
                      -1.1966769555E+00  4.6807781262E+00  4.9553463456E+00
                       1.9132230741E+00  1.9586847543E+00  4.7977273139E-01
             xred      0.0000000000E+00  0.0000000000E+00  0.0000000000E+00
                       7.5000000000E-01  2.5000000000E-01  5.0000000000E-01
                       7.2419200000E-01  1.0636375000E-01  6.5078250000E-02
                       8.9363625000E-01  9.5871450000E-01  6.1782825000E-01
                       4.1285500000E-02  6.5911375000E-01  9.3492175000E-01
                       3.4088625000E-01  2.7580800000E-01  3.8217175000E-01
            znucl        5.00000   33.00000    8.00000

- Timing analysis has been suppressed with timopt=0

 Suggested references for the acknowledgment of ABINIT usage.

 Calculation completed.
.Delivered  14 WARNINGs and   9 COMMENTs to log file.