.Version 9.5.2 of ABINIT

 ABINIT is a project of the Universite Catholique de Louvain,
 Corning Inc. and other collaborators, see ~abinit/doc/developers/contributors.txt .
 acknowledgments of the ABINIT effort.

.Starting date : Mon 31 May 2021.
- ( at 22h11 )

- input  file    -> /scratch/users/j/a/jabreu/flow_simple_11atoms/flow/w350/t1/run.abi
- output file    -> /scratch/users/j/a/jabreu/flow_simple_11atoms/flow/w350/t1/run.abo
- root for input  files -> /scratch/users/j/a/jabreu/flow_simple_11atoms/flow/w350/t1/indata/in
- root for output files -> /scratch/users/j/a/jabreu/flow_simple_11atoms/flow/w350/t1/outdata/out

 Symmetries : space group P3_1 2 1 (#152); Bravais hP (primitive hexag.)
     intxc =       0      iscf =       7    lmnmax =      32     lnmax =       8
     mgfft =      90  mpssoang =       4    mqgrid =    4433     natom =      12
  nloc_mem =       1    nspden =       1   nspinor =       1    nsppol =       1
      nsym =       6    n1xccc =    2501    ntypat =       3    occopt =       1
   xclevel =       2
-    mband =          48        mffmem =           1         mkmem =           2
-   mkqmem =           2        mk1mem =           2           mpw =       22160
      nfft =      466560          nkpt =           2
  Rough estimation (10% accuracy) of disk space for files :

------------- Echo of variables that govern the present computation ------------
-
- outvars: echo of selected default values
-   iomode0 =  0 , fftalg0 =512 , wfoptalg0 =  0
-
- outvars: echo of global parameters not present in the input file
-  max_nthreads =    0
-
 -outvars: echo values of preprocessed input variables --------
            acell      1.0000000000E+00  1.0000000000E+00  1.0000000000E+00 Bohr
              amu      1.32905430E+02  1.40067400E+01  1.59994000E+01
             ecut      4.40000000E+01 Hartree
-          fftalg         512
           irdden           1
           irdwfk           1
           istwfk        1    1
              ixc     -116133
              kpt      0.00000000E+00  0.00000000E+00  5.00000000E-01
                       5.00000000E-01  0.00000000E+00  5.00000000E-01
           kptopt           0
P           mkmem           2
P          mkqmem           2
P          mk1mem           2
            natom          12
            nband          48
           nbdbuf           4
            ngfft          72      72      90
             nkpt           2
            nstep        2000
             nsym           6
           ntypat           3
              occ      2.000000  2.000000  2.000000  2.000000  2.000000  2.000000
                       2.000000  2.000000  2.000000  2.000000  2.000000  2.000000
                       2.000000  2.000000  2.000000  2.000000  2.000000  2.000000
                       2.000000  2.000000  2.000000  2.000000  2.000000  2.000000
                       2.000000  2.000000  2.000000  2.000000  2.000000  2.000000
                       2.000000  2.000000  2.000000  2.000000  2.000000  2.000000
                       2.000000  2.000000  2.000000  0.000000  0.000000  0.000000
                       0.000000  0.000000  0.000000  0.000000  0.000000  0.000000
        optdriver           1
            prtwf          -1
            rfdir           1       1       1
           rfelfd           2
            rprim      1.1117850011E+01  0.0000000000E+00  0.0000000000E+00
                      -5.5589250054E+00  9.6283405449E+00  0.0000000000E+00
                       0.0000000000E+00  0.0000000000E+00  1.4844867916E+01
          spgroup         152
           symrel      1  0  0   0  1  0   0  0  1       1  0  0  -1 -1  0   0  0 -1
                       0  1  0  -1 -1  0   0  0  1       0  1  0   1  0  0   0  0 -1
                      -1 -1  0   1  0  0   0  0  1      -1 -1  0   0  1  0   0  0 -1
            tnons      0.0000000  0.0000000  0.0000000     0.0000000  0.0000000 -0.3333333
                       0.0000000  0.0000000  0.3333333    -0.0000000  0.0000000  0.0000000
                      -0.0000000  0.0000000 -0.3333333     0.0000000  0.0000000  0.3333333
           tolwfr      1.00000000E-20
            typat      1  1  1  2  2  2  3  3  3  3  3  3
           useylm           1
              wtk        0.50000    0.50000
           xangst      4.1018574747E+00  3.7711303509E-16  2.6185219219E+00
                      -2.0509287373E+00  3.5523127758E+00  5.2370438438E+00
                       8.9072767981E-01  1.5427855971E+00 -7.2678583204E-17
                      -2.0260099658E+00  3.5091521975E+00  1.3092609609E+00
                       4.0520199317E+00  3.7711303509E-16  6.5463048047E+00
                       9.1564645132E-01  1.5859461754E+00  3.9277828828E+00
                       4.3310595763E-01  4.5459113062E+00  7.4572309739E+00
                       7.7866527860E-01  2.4470619580E+00  4.8387090520E+00
                      -1.2117712362E+00  3.1972234816E+00  2.2201871301E+00
                       1.7298851810E+00  1.8978748913E+00  3.0168567137E+00
                       3.7203216957E+00  2.6480364149E+00  3.9833479180E-01
                       3.3747623748E+00  5.4918706669E-01  5.6353786356E+00
            xcart      7.7513872633E+00  7.1264035746E-16  4.9482893053E+00
                      -3.8756936316E+00  6.7128982846E+00  9.8965786107E+00
                       1.6832313738E+00  2.9154422603E+00 -1.3734261798E-16
                      -3.8286039779E+00  6.6313366118E+00  2.4741446527E+00
                       7.6572079559E+00  7.1264035746E-16  1.2370723263E+01
                       1.7303210275E+00  2.9970039331E+00  7.4224339580E+00
                       8.1845164645E-01  8.5905273931E+00  1.4092124250E+01
                       1.4714641257E+00  4.6242769308E+00  9.1438349450E+00
                      -2.2899157721E+00  6.0418767659E+00  4.1955456396E+00
                       3.2690092333E+00  3.5864637790E+00  5.7010329710E+00
                       7.0303891312E+00  5.0040636141E+00  7.5274366571E-01
                       6.3773766519E+00  1.0378131518E+00  1.0649322276E+01
             xred      6.9720200000E-01  7.4014868308E-17  3.3333333333E-01
                       0.0000000000E+00  6.9720200000E-01  6.6666666667E-01
                       3.0279800000E-01  3.0279800000E-01 -9.2518585385E-18
                       0.0000000000E+00  6.8873100000E-01  1.6666666667E-01
                       6.8873100000E-01  7.4014868308E-17  8.3333333333E-01
                       3.1126900000E-01  3.1126900000E-01  5.0000000000E-01
                       5.1972233333E-01  8.9221266667E-01  9.4929266667E-01
                       3.7249033333E-01  4.8027766667E-01  6.1595933333E-01
                       1.0778733333E-01  6.2750966667E-01  2.8262600000E-01
                       4.8027766667E-01  3.7249033333E-01  3.8404066667E-01
                       8.9221266667E-01  5.1972233333E-01  5.0707333333E-02
                       6.2750966667E-01  1.0778733333E-01  7.1737400000E-01
            znucl       55.00000    7.00000    8.00000

 chkinp: Checking input parameters for consistency.

== DATASET  1 ==================================================================
-   mpi_nproc: 1, omp_nthreads: -1 (-1 if OMP is not activated)

--- !DatasetInfo
iteration_state: {dtset: 1, }
dimensions: {natom: 12, nkpt: 2, mband: 48, nsppol: 1, nspinor: 1, nspden: 1, mpw: 22160, }
cutoff_energies: {ecut:  44.0, pawecutdg:  -1.0, }
electrons: {nelect:   7.80000000E+01, charge:   0.00000000E+00, occopt:   1.00000000E+00, tsmear:   1.00000000E-02, }
meta: {optdriver: 1, rfelfd: 2, }
...

 Real(R)+Recip(G) space primitive vectors, cartesian coordinates (Bohr,Bohr^-1):
 R(1)= 11.1178500  0.0000000  0.0000000  G(1)=  0.0899454  0.0519300  0.0000000
 R(2)= -5.5589250  9.6283405  0.0000000  G(2)=  0.0000000  0.1038601  0.0000000
 R(3)=  0.0000000  0.0000000 14.8448679  G(3)=  0.0000000  0.0000000  0.0673633
 Unit cell volume ucvol=  1.5890904E+03 bohr^3
 Angles (23,13,12)=  9.00000000E+01  9.00000000E+01  1.20000000E+02 degrees

 getcut: wavevector=  0.0000  0.0000  0.0000  ngfft=  72  72  90
         ecut(hartree)=     44.000   => boxcut(ratio)=   2.03037

--- Pseudopotential description ------------------------------------------------
- pspini: atom type   1  psp file is /scratch/users/j/a/jabreu/pseudos/PBEsol/Cs.psp8
- pspatm: opening atomic psp file    /scratch/users/j/a/jabreu/pseudos/PBEsol/Cs.psp8
- Cs    ONCVPSP-3.3.0  r_core=   2.27353   1.85623   2.01788   1.90105
- 55.00000   9.00000    180112                znucl, zion, pspdat
    8 -116133    3    4       600   0.00000   pspcod,pspxc,lmax,lloc,mmax,r2well
    5.99000000000000    5.00000000000000    0.00000000000000   rchrg,fchrg,qchrg
     nproj     2     2     2     2
     extension_switch     1
  pspatm : epsatm=   22.12462445
         --- l  ekb(1:nproj) -->
             0    6.214110    0.767882
             1    6.311966    0.793598
             2    3.769790    0.913105
             3   -9.247129   -2.432478
 pspatm: atomic psp has been read  and splines computed

- pspini: atom type   2  psp file is /scratch/users/j/a/jabreu/pseudos/PBEsol/N.psp8
- pspatm: opening atomic psp file    /scratch/users/j/a/jabreu/pseudos/PBEsol/N.psp8
- N     ONCVPSP-3.3.0  r_core=   1.20551   1.35824
-  7.00000   5.00000    180112                znucl, zion, pspdat
    8 -116133    1    4       600   0.00000   pspcod,pspxc,lmax,lloc,mmax,r2well
    5.99000000000000    4.00000000000000    0.00000000000000   rchrg,fchrg,qchrg
     nproj     2     2
     extension_switch     1
  pspatm : epsatm=    5.26508895
         --- l  ekb(1:nproj) -->
             0    7.464189    0.625868
             1   -4.309714   -1.012941
 pspatm: atomic psp has been read  and splines computed

- pspini: atom type   3  psp file is /scratch/users/j/a/jabreu/pseudos/PBEsol/O.psp8
- pspatm: opening atomic psp file    /scratch/users/j/a/jabreu/pseudos/PBEsol/O.psp8
- O     ONCVPSP-3.3.0  r_core=   1.35509   1.45563   1.26150
-  8.00000   6.00000    180112                znucl, zion, pspdat
    8 -116133    2    4       600   0.00000   pspcod,pspxc,lmax,lloc,mmax,r2well
    5.99000000000000    4.00000000000000    0.00000000000000   rchrg,fchrg,qchrg
     nproj     2     2     1
     extension_switch     1
  pspatm : epsatm=    6.22910522
         --- l  ekb(1:nproj) -->
             0    6.050032    0.820363
             1   -4.739617   -1.153841
             2   -1.335834
 pspatm: atomic psp has been read  and splines computed

   9.32441418E+03                                ecore*ucvol(ha*bohr**3)

 ==>  initialize data related to q vector <==

 The list of irreducible perturbations for this q vector is:
    1)    idir= 1    ipert=  13
    2)    idir= 2    ipert=  13
    3)    idir= 3    ipert=  13

 Perturbation wavevector (in red.coord.)   0.000000  0.000000  0.000000
 Perturbation : derivative vs k along direction   1

 dfpt_looppert : COMMENT -
  In a d/dk calculation, iscf is set to -3 automatically.
 The set of symmetries contains only one element for this perturbation.
 symkpt : not enough symmetry to change the number of k points.

[...]
          f-sum rule ratio=    9.9877151772E-01
 prteigrs : about to open file /scratch/users/j/a/jabreu/flow_simple_11atoms/flow/w350/t1/tmpdata/tmp_1WF1_EIG
 Expectation of eigenvalue derivatives (hartree) for nkpt=   2  k points:
  (in case of degenerate eigenvalues, averaged derivative)
 kpt#   1, nband= 48, wtk=  0.50000, kpt=  0.0000  0.0000  0.5000 (reduced coord)
  -0.00000   -0.00000    0.00000   -0.00000   -0.00000    0.00000    0.00000   -0.00000
  -0.00000    0.00000    0.00000    0.00000   -0.00000   -0.00000   -0.00000   -0.00000
   0.00000    0.00000   -0.00000   -0.00000    0.00000    0.00000   -0.00000   -0.00000
  -0.00000   -0.00000   -0.00000   -0.00000   -0.00000   -0.00000    0.00000    0.00000
   0.00000    0.00000   -0.00000   -0.00000    0.00000    0.00000    0.00000    0.00000
   0.00000   -0.00000   -0.00000   -0.00000    0.00000    0.00000   -0.00000    0.00165
 prteigrs : prtvol=0 or 1, do not print more k-points.

 Eight components of 2nd-order total energy (hartree) are
 1,2,3: 0th-order hamiltonian combined with 1st-order wavefunctions
     kin0=   5.29652918E+01 eigvalue=   3.78796708E+00  local=  -2.74839970E+01
 4,5,6: 1st-order hamiltonian combined with 1st and 0th-order wfs
     kin1=  -6.63510193E+01  Hartree=   0.00000000E+00     xc=   0.00000000E+00
 7,8,9: eventually, occupation + non-local contributions
    edocc=   5.05064829E+00     enl0=   1.01782157E+00   enl1=  -4.32444415E+00
 1-9 gives the relaxation energy (to be shifted if some occ is /=2.0)
   erelax=  -3.53377317E+01
  No Ewald or frozen-wf contrib.: the relaxation energy is the total one
 2DEtotal=   -0.3533773174E+02 Ha. Also 2DEtotal=   -0.961588583018E+03 eV
    (  non-var. 2DEtotal :   -3.5337731736E+01 Ha)

 Perturbation wavevector (in red.coord.)   0.000000  0.000000  0.000000
 Perturbation : derivative vs k along direction   2
 The set of symmetries contains only one element for this perturbation.
 symkpt : not enough symmetry to change the number of k points.

[...]

 Perturbation wavevector (in red.coord.)   0.000000  0.000000  0.000000
 Perturbation : derivative vs k along direction   3
 The set of symmetries contains only one element for this perturbation.
 symkpt : not enough symmetry to change the number of k points.

 Initialisation of the first-order wave-functions :
  ireadwf=   0

--- !BeginCycle
iteration_state: {dtset: 1, }
solver: {iscf: 7, nstep: 2000, nline: 4, wfoptalg: 0, }
tolerances: {tolwfr: 1.00E-20, }
...

     iter   2DEtotal(Ha)        deltaE(Ha) residm    vres2
-ETOT  1  -14.696170954879     -1.470E+01 1.979E-02 0.000E+00
 ETOT  2  -14.748836201281     -5.267E-02 2.113E-03 0.000E+00
 ETOT  3  -14.749602455955     -7.663E-04 2.968E-04 0.000E+00
 ETOT  4  -14.749627527740     -2.507E-05 7.141E-05 0.000E+00
 ETOT  5  -14.749628805226     -1.277E-06 1.429E-05 0.000E+00
 ETOT  6  -14.749628882502     -7.728E-08 3.156E-06 0.000E+00
 ETOT  7  -14.749628887404     -4.903E-09 7.836E-07 0.000E+00
 ETOT  8  -14.749628887724     -3.195E-10 1.653E-07 0.000E+00
 ETOT  9  -14.749628887745     -2.128E-11 4.683E-08 0.000E+00
 ETOT 10  -14.749628887747     -1.444E-12 9.657E-09 0.000E+00
 ETOT 11  -14.749628887747     -1.013E-13 2.884E-09 0.000E+00
 ETOT 12  -14.749628887747     -1.066E-14 5.817E-10 0.000E+00
 ETOT 13  -14.749628887747      1.066E-14 1.742E-10 0.000E+00
 ETOT 14  -14.749628887747      0.000E+00 3.460E-11 0.000E+00
 ETOT 15  -14.749628887747     -1.599E-14 1.032E-11 0.000E+00
 ETOT 16  -14.749628887747     -5.329E-15 2.038E-12 0.000E+00
 ETOT 17  -14.749628887747      5.329E-15 6.071E-13 0.000E+00
 ETOT 18  -14.749628887747      1.776E-15 1.198E-13 0.000E+00
 ETOT 19  -14.749628887747     -1.776E-15 3.573E-14 0.000E+00
 ETOT 20  -14.749628887747      1.776E-15 7.049E-15 0.000E+00
 ETOT 21  -14.749628887747     -1.776E-15 2.106E-15 0.000E+00
 ETOT 22  -14.749628887747      3.553E-15 4.152E-16 0.000E+00
 ETOT 23  -14.749628887747     -1.776E-15 1.243E-16 0.000E+00
 ETOT 24  -14.749628887747     -3.553E-15 2.449E-17 0.000E+00
 ETOT 25  -14.749628887747      1.776E-15 7.344E-18 0.000E+00
 ETOT 26  -14.749628887747      1.776E-15 1.445E-18 0.000E+00
 ETOT 27  -14.749628887747     -1.776E-15 4.344E-19 0.000E+00
 ETOT 28  -14.749628887747      0.000E+00 8.537E-20 0.000E+00
 ETOT 29  -14.749628887747      3.553E-15 2.571E-20 0.000E+00
 ETOT 30  -14.749628887747     -3.553E-15 9.979E-21 0.000E+00

 At SCF step   30   max residual=  9.98E-21 < tolwfr=  1.00E-20 =>converged.

 ----iterations are completed or convergence reached----

 dfpt_looppert: DFPT cycle converged with prtwf=-1. Will skip output of the 1st-order WFK file.
 dfpt_looppert : ek2=    2.7946772498E+01
          f-sum rule ratio=    9.9238450781E-01
 prteigrs : about to open file /scratch/users/j/a/jabreu/flow_simple_11atoms/flow/w350/t1/tmpdata/tmp_1WF1_EIG
 Expectation of eigenvalue derivatives (hartree) for nkpt=   2  k points:
  (in case of degenerate eigenvalues, averaged derivative)
 kpt#   1, nband= 48, wtk=  0.50000, kpt=  0.0000  0.0000  0.5000 (reduced coord)
  -0.00000   -0.00000    0.00000    0.00000    0.00000   -0.00000   -0.00000   -0.00000
  -0.00000   -0.00000    0.00000    0.00000   -0.00000    0.00000    0.00000    0.00000
   0.00000    0.00000   -0.00000   -0.00000    0.00000    0.00000    0.00000    0.00000
   0.00000    0.00000    0.00000    0.00000    0.00000   -0.00000   -0.00000   -0.00000
  -0.00000    0.00000    0.00000    0.00000    0.00000    0.00000   -0.00000   -0.00000
  -0.00000    0.00000    0.00000    0.00000    0.00000   -0.00000   -0.00575    0.00533
 prteigrs : prtvol=0 or 1, do not print more k-points.

 Eight components of 2nd-order total energy (hartree) are
 1,2,3: 0th-order hamiltonian combined with 1st-order wavefunctions
     kin0=   2.39494965E+01 eigvalue=   1.51643808E+00  local=  -1.30686589E+01
 4,5,6: 1st-order hamiltonian combined with 1st and 0th-order wfs
     kin1=  -2.77339441E+01  Hartree=   0.00000000E+00     xc=   0.00000000E+00
 7,8,9: eventually, occupation + non-local contributions
    edocc=   2.57722135E+00     enl0=  -2.24868146E-01   enl1=  -1.76531371E+00
 1-9 gives the relaxation energy (to be shifted if some occ is /=2.0)
   erelax=  -1.47496289E+01
  No Ewald or frozen-wf contrib.: the relaxation energy is the total one
 2DEtotal=   -0.1474962889E+02 Ha. Also 2DEtotal=   -0.401357813457E+03 eV
    (  non-var. 2DEtotal :   -1.4749628888E+01 Ha)

 CALCULATION OF EFFECTIVE MASSES
 NOTE : Additional infos (eff. mass eigenvalues, eigenvectors and, if degenerate, average mass) are available in stdout.

 K-point ( 0.000, 0.000, 0.500) | band =    39
 Effective mass tensor:
             -6.5309156764              0.0000120134              0.0000646554
              0.0000120134             -6.5308218715              0.0000388134
              0.0000646554              0.0000388134             -3.5526036704
 Effective mass tensor eigenvalues:
             -6.5309171917             -6.5308203581             -3.5526036685
 Angular average effective mass 1/(<1/m>)=  -5.1044570690
 Angular average effective mass for Frohlich model (<m**0.5>)**2=  -5.2435844954
 Effective masses along directions: (cart. coord. / red. coord. -> eff. mass)
    1:   1.000000  0.000000  0.000000 /   0.894427 -0.447214  0.000000 ->  -6.5309156752
    2:   0.000000  1.000000  0.000000 /   0.000000  1.000000  0.000000 ->  -6.5308218710
    3:   0.000000  0.000000  1.000000 /   0.000000  0.000000  1.000000 ->  -3.5526036695
    4:   0.577350  0.577350  0.577350 /   0.585526  0.214317  0.781811 ->  -5.1043747136
    5:   0.000000  0.707107  0.707107 /   0.000000  0.544161  0.838981 ->  -4.6018573820
    6:   0.707107  0.000000  0.707107 /   0.574216 -0.287108  0.766710 ->  -4.6018570828
    7:   0.707107  0.707107  0.000000 /   0.939071  0.343724  0.000000 ->  -6.5308567586

 K-point ( 0.500, 0.000, 0.500) | band =    40
 Effective mass tensor:
              3.5736255693              0.0334657722             -2.7736044214
              0.0334657722              3.5349891633             -1.6013450246
             -2.7736044214             -1.6013450246              7.1815089011
 Effective mass tensor eigenvalues:
              1.7161760114              3.5156660559              9.0582815665
 Angular average effective mass 1/(<1/m>)=   3.0689653175
 Angular average effective mass for Frohlich model (<m**0.5>)**2=   3.4658476778
 Effective masses along directions: (cart. coord. / red. coord. -> eff. mass)
    1:   1.000000  0.000000  0.000000 /   0.894427 -0.447214  0.000000 ->   2.3947313288
    2:   0.000000  1.000000  0.000000 /   0.000000  1.000000  0.000000 ->   3.0411621373
    3:   0.000000  0.000000  1.000000 /   0.000000  0.000000  1.000000 ->   4.3266984662
    4:   0.577350  0.577350  0.577350 /   0.585526  0.214317  0.781811 ->   1.7708302102
    5:   0.000000  0.707107  0.707107 /   0.000000  0.544161  0.838981 ->   2.6110905052
    6:   0.707107  0.000000  0.707107 /   0.574216 -0.287108  0.766710 ->   1.9889787129
    7:   0.707107  0.707107  0.000000 /   0.939071  0.343724  0.000000 ->   2.2218664327

 END OF EFFECTIVE MASSES SECTION

 ---- first-order wavefunction calculations are completed ----

 Total localisation tensor (bohr^2) in cartesian coordinates
  WARNING : still subject to testing - especially symmetries.
      direction              matrix element
   alpha     beta       real part   imaginary part
     1        1       1.2044439522    0.0000000000
     1        2      -0.4175088602    0.0000000000
     1        3       0.0000000000    0.0000000000
     2        1      -0.4175088602    0.0000000000
     2        2       0.7231465586    0.0000000000
     2        3       0.0000000000    0.0000000000
     3        1       0.0000000000    0.0000000000
     3        2       0.0000000000    0.0000000000
     3        3       0.8046653208    0.0000000000

 respfn : d/dk was computed, but no 2DTE, so no DDB output.

== END DATASET(S) ==============================================================

 -outvars: echo values of variables after computation  --------
            acell      1.0000000000E+00  1.0000000000E+00  1.0000000000E+00 Bohr
              amu      1.32905430E+02  1.40067400E+01  1.59994000E+01
             ecut      4.40000000E+01 Hartree
           etotal     -1.4749628888E+01
            fcart      0.0000000000E+00  0.0000000000E+00  0.0000000000E+00
                       0.0000000000E+00  0.0000000000E+00  0.0000000000E+00
                       0.0000000000E+00  0.0000000000E+00  0.0000000000E+00
                       0.0000000000E+00  0.0000000000E+00  0.0000000000E+00
                       0.0000000000E+00  0.0000000000E+00  0.0000000000E+00
                       0.0000000000E+00  0.0000000000E+00  0.0000000000E+00
                       0.0000000000E+00  0.0000000000E+00  0.0000000000E+00
                       0.0000000000E+00  0.0000000000E+00  0.0000000000E+00
                       0.0000000000E+00  0.0000000000E+00  0.0000000000E+00
                       0.0000000000E+00  0.0000000000E+00  0.0000000000E+00
                       0.0000000000E+00  0.0000000000E+00  0.0000000000E+00
                       0.0000000000E+00  0.0000000000E+00  0.0000000000E+00
-          fftalg         512
           irdden           1
           irdwfk           1
           istwfk        1    1
              ixc     -116133
              kpt      0.00000000E+00  0.00000000E+00  5.00000000E-01
                       5.00000000E-01  0.00000000E+00  5.00000000E-01
           kptopt           0
P           mkmem           2
P          mkqmem           2
P          mk1mem           2
            natom          12
            nband          48
           nbdbuf           4
            ngfft          72      72      90
             nkpt           2
            nstep        2000
             nsym           6
           ntypat           3
              occ      2.000000  2.000000  2.000000  2.000000  2.000000  2.000000
                       2.000000  2.000000  2.000000  2.000000  2.000000  2.000000
                       2.000000  2.000000  2.000000  2.000000  2.000000  2.000000
                       2.000000  2.000000  2.000000  2.000000  2.000000  2.000000
                       2.000000  2.000000  2.000000  2.000000  2.000000  2.000000
                       2.000000  2.000000  2.000000  2.000000  2.000000  2.000000
                       2.000000  2.000000  2.000000  0.000000  0.000000  0.000000
                       0.000000  0.000000  0.000000  0.000000  0.000000  0.000000
        optdriver           1
            prtwf          -1
            rfdir           1       1       1
           rfelfd           2
            rprim      1.1117850011E+01  0.0000000000E+00  0.0000000000E+00
                      -5.5589250054E+00  9.6283405449E+00  0.0000000000E+00
                       0.0000000000E+00  0.0000000000E+00  1.4844867916E+01
          spgroup         152
           strten      0.0000000000E+00  0.0000000000E+00  0.0000000000E+00
                       0.0000000000E+00  0.0000000000E+00  0.0000000000E+00
           symrel      1  0  0   0  1  0   0  0  1       1  0  0  -1 -1  0   0  0 -1
                       0  1  0  -1 -1  0   0  0  1       0  1  0   1  0  0   0  0 -1
                      -1 -1  0   1  0  0   0  0  1      -1 -1  0   0  1  0   0  0 -1
            tnons      0.0000000  0.0000000  0.0000000     0.0000000  0.0000000 -0.3333333
                       0.0000000  0.0000000  0.3333333    -0.0000000  0.0000000  0.0000000
                      -0.0000000  0.0000000 -0.3333333     0.0000000  0.0000000  0.3333333
           tolwfr      1.00000000E-20
            typat      1  1  1  2  2  2  3  3  3  3  3  3
           useylm           1
              wtk        0.50000    0.50000
           xangst      4.1018574747E+00  3.7711303509E-16  2.6185219219E+00
                      -2.0509287373E+00  3.5523127758E+00  5.2370438438E+00
                       8.9072767981E-01  1.5427855971E+00 -7.2678583204E-17
                      -2.0260099658E+00  3.5091521975E+00  1.3092609609E+00
                       4.0520199317E+00  3.7711303509E-16  6.5463048047E+00
                       9.1564645132E-01  1.5859461754E+00  3.9277828828E+00
                       4.3310595763E-01  4.5459113062E+00  7.4572309739E+00
                       7.7866527860E-01  2.4470619580E+00  4.8387090520E+00
                      -1.2117712362E+00  3.1972234816E+00  2.2201871301E+00
                       1.7298851810E+00  1.8978748913E+00  3.0168567137E+00
                       3.7203216957E+00  2.6480364149E+00  3.9833479180E-01
                       3.3747623748E+00  5.4918706669E-01  5.6353786356E+00
            xcart      7.7513872633E+00  7.1264035746E-16  4.9482893053E+00
                      -3.8756936316E+00  6.7128982846E+00  9.8965786107E+00
                       1.6832313738E+00  2.9154422603E+00 -1.3734261798E-16
                      -3.8286039779E+00  6.6313366118E+00  2.4741446527E+00
                       7.6572079559E+00  7.1264035746E-16  1.2370723263E+01
                       1.7303210275E+00  2.9970039331E+00  7.4224339580E+00
                       8.1845164645E-01  8.5905273931E+00  1.4092124250E+01
                       1.4714641257E+00  4.6242769308E+00  9.1438349450E+00
                      -2.2899157721E+00  6.0418767659E+00  4.1955456396E+00
                       3.2690092333E+00  3.5864637790E+00  5.7010329710E+00
                       7.0303891312E+00  5.0040636141E+00  7.5274366571E-01
                       6.3773766519E+00  1.0378131518E+00  1.0649322276E+01
             xred      6.9720200000E-01  7.4014868308E-17  3.3333333333E-01
                       0.0000000000E+00  6.9720200000E-01  6.6666666667E-01
                       3.0279800000E-01  3.0279800000E-01 -9.2518585385E-18
                       0.0000000000E+00  6.8873100000E-01  1.6666666667E-01
                       6.8873100000E-01  7.4014868308E-17  8.3333333333E-01
                       3.1126900000E-01  3.1126900000E-01  5.0000000000E-01
                       5.1972233333E-01  8.9221266667E-01  9.4929266667E-01
                       3.7249033333E-01  4.8027766667E-01  6.1595933333E-01
                       1.0778733333E-01  6.2750966667E-01  2.8262600000E-01
                       4.8027766667E-01  3.7249033333E-01  3.8404066667E-01
                       8.9221266667E-01  5.1972233333E-01  5.0707333333E-02
                       6.2750966667E-01  1.0778733333E-01  7.1737400000E-01
            znucl       55.00000    7.00000    8.00000

- Timing analysis has been suppressed with timopt=0

 Suggested references for the acknowledgment of ABINIT usage.

 Calculation completed.
.Delivered   2 WARNINGs and   5 COMMENTs to log file.