.Version 9.5.1 of ABINIT

 ABINIT is a project of the Universite Catholique de Louvain,
 Corning Inc. and other collaborators, see ~abinit/doc/developers/contributors.txt .
 acknowledgments of the ABINIT effort.

.Starting date : Wed  5 May 2021.
- ( at 19h41 )

- input  file    -> /scratch/users/j/a/jabreu/flow_simple_7atoms/flow/w120/t1/run.abi
- output file    -> /scratch/users/j/a/jabreu/flow_simple_7atoms/flow/w120/t1/run.abo
- root for input  files -> /scratch/users/j/a/jabreu/flow_simple_7atoms/flow/w120/t1/indata/in
- root for output files -> /scratch/users/j/a/jabreu/flow_simple_7atoms/flow/w120/t1/outdata/out

 Symmetries : space group C2/m (# 12); Bravais mC (1-face-center monocl.)
     intxc =       0      iscf =       7    lmnmax =      18     lnmax =       6
     mgfft =      80  mpssoang =       3    mqgrid =    3629     natom =       7
  nloc_mem =       1    nspden =       1   nspinor =       1    nsppol =       1
      nsym =       4    n1xccc =    2501    ntypat =       2    occopt =       1
   xclevel =       2
-    mband =          58        mffmem =           1         mkmem =           2
-   mkqmem =           2        mk1mem =           2           mpw =       21570
      nfft =      409600          nkpt =           2
  Rough estimation (10% accuracy) of disk space for files :

------------- Echo of variables that govern the present computation ------------
-
- outvars: echo of selected default values
-   iomode0 =  0 , fftalg0 =512 , wfoptalg0 =  0
-
- outvars: echo of global parameters not present in the input file
-  max_nthreads =    0
-
 -outvars: echo values of preprocessed input variables --------
            acell      1.0000000000E+00  1.0000000000E+00  1.0000000000E+00 Bohr
              amu      8.54678000E+01  1.27600000E+02
             ecut      4.00000000E+01 Hartree
-          fftalg         512
           irdden           1
           irdwfk           1
              ixc     -116133
              kpt      6.65189169E-01  3.34810831E-01  5.00000000E-01
                       6.41590716E-01  3.58409284E-01  5.00000000E-01
           kptopt           0
P           mkmem           2
P          mkqmem           2
P          mk1mem           2
            natom           7
            nband          58
           nbdbuf           4
            ngfft          80      80      64
             nkpt           2
            nstep        2000
             nsym           4
           ntypat           2
              occ      2.000000  2.000000  2.000000  2.000000  2.000000  2.000000
                       2.000000  2.000000  2.000000  2.000000  2.000000  2.000000
                       2.000000  2.000000  2.000000  2.000000  2.000000  2.000000
                       2.000000  2.000000  2.000000  2.000000  2.000000  2.000000
                       2.000000  2.000000  2.000000  2.000000  2.000000  2.000000
                       2.000000  2.000000  2.000000  2.000000  2.000000  2.000000
                       2.000000  2.000000  2.000000  2.000000  2.000000  2.000000
                       2.000000  2.000000  2.000000  2.000000  2.000000  2.000000
                       2.000000  0.000000  0.000000  0.000000  0.000000  0.000000
                       0.000000  0.000000  0.000000  0.000000
        optdriver           1
            prtwf          -1
            rfdir           1       1       1
           rfelfd           2
            rprim      1.2799674553E+01  0.0000000000E+00  5.1068558293E+00
                       1.2003345548E+00  1.2743267462E+01  5.1068558293E+00
                       0.0000000000E+00  0.0000000000E+00  1.0954978031E+01
          spgroup          12
           symrel      1  0  0   0  1  0   0  0  1      -1  0  0   0 -1  0   0  0 -1
                       0 -1  0  -1  0  0   0  0 -1       0  1  0   1  0  0   0  0  1
           tolwfr      1.00000000E-20
            typat      1  1  2  2  2  2  2
           useylm           1
              wtk        0.50000    0.50000
           xangst      2.3504754536E+00  2.1394798488E+00  3.7971058051E+00
                       5.0580102860E+00  4.6039668550E+00  7.4048823144E+00
                       0.0000000000E+00  0.0000000000E+00  0.0000000000E+00
                       2.8300095103E+00  5.7798149133E+00  4.5531937856E+00
                       1.3887478775E+00  4.4679313047E+00  6.6487943339E+00
                       4.5784762293E+00  9.6363179053E-01  6.6487943339E+00
                       6.0197378621E+00  2.2755153992E+00  4.5531937856E+00
            xcart      4.4417548895E+00  4.0430309811E+00  7.1754900693E+00
                       9.5582542178E+00  8.7002364809E+00  1.3993199620E+01
                       0.0000000000E+00  0.0000000000E+00  0.0000000000E+00
                       5.3479429279E+00  1.0922267285E+01  8.6042892847E+00
                       2.6243531562E+00  8.4431665464E+00  1.2564400405E+01
                       8.6520661794E+00  1.8210001771E+00  1.2564400405E+01
                       1.1375655951E+01  4.3001009156E+00  8.6042892847E+00
             xred      3.1726800000E-01  3.1726800000E-01  3.5919800000E-01
                       6.8273200000E-01  6.8273200000E-01  6.4080200000E-01
                       0.0000000000E+00  0.0000000000E+00  0.0000000000E+00
                       3.3744100000E-01  8.5710100000E-01  2.2856600000E-01
                       1.4289900000E-01  6.6255900000E-01  7.7143400000E-01
                       6.6255900000E-01  1.4289900000E-01  7.7143400000E-01
                       8.5710100000E-01  3.3744100000E-01  2.2856600000E-01
            znucl       37.00000   52.00000

 chkinp: Checking input parameters for consistency.

== DATASET  1 ==================================================================
-   mpi_nproc: 1, omp_nthreads: -1 (-1 if OMP is not activated)

--- !DatasetInfo
iteration_state: {dtset: 1, }
dimensions: {natom: 7, nkpt: 2, mband: 58, nsppol: 1, nspinor: 1, nspden: 1, mpw: 21570, }
cutoff_energies: {ecut:  40.0, pawecutdg:  -1.0, }
electrons: {nelect:   9.80000000E+01, charge:   0.00000000E+00, occopt:   1.00000000E+00, tsmear:   1.00000000E-02, }
meta: {optdriver: 1, rfelfd: 2, }
...

 Real(R)+Recip(G) space primitive vectors, cartesian coordinates (Bohr,Bohr^-1):
 R(1)= 12.7996746  0.0000000  5.1068558  G(1)=  0.0781270 -0.0073591  0.0000000
 R(2)=  1.2003346 12.7432675  5.1068558  G(2)=  0.0000000  0.0784728  0.0000000
 R(3)=  0.0000000  0.0000000 10.9549780  G(3)= -0.0364203 -0.0331509  0.0912827
 Unit cell volume ucvol=  1.7868629E+03 bohr^3
 Angles (23,13,12)=  6.82488281E+01  6.82488281E+01  7.73950765E+01 degrees

 getcut: wavevector=  0.0000  0.0000  0.0000  ngfft=  80  80  64
         ecut(hartree)=     40.000   => boxcut(ratio)=   2.03909

--- Pseudopotential description ------------------------------------------------
- pspini: atom type   1  psp file is /scratch/users/j/a/jabreu/pseudos/PBEsol/Rb.psp8
- pspatm: opening atomic psp file    /scratch/users/j/a/jabreu/pseudos/PBEsol/Rb.psp8
- Rb    ONCVPSP-3.3.0  r_core=   1.71227   1.75361   1.90633
- 37.00000   9.00000    180112                znucl, zion, pspdat
    8 -116133    2    4       600   0.00000   pspcod,pspxc,lmax,lloc,mmax,r2well
    5.99000000000000    7.00000000000000    0.00000000000000   rchrg,fchrg,qchrg
     nproj     2     2     2
     extension_switch     1
  pspatm : epsatm=   34.48400912
         --- l  ekb(1:nproj) -->
             0    8.196957   -0.477221
             1    3.231347   -0.378736
             2   -1.047201    0.996637
 pspatm: atomic psp has been read  and splines computed

- pspini: atom type   2  psp file is /scratch/users/j/a/jabreu/pseudos/PBEsol/Te.psp8
- pspatm: opening atomic psp file    /scratch/users/j/a/jabreu/pseudos/PBEsol/Te.psp8
- Te    ONCVPSP-3.3.0  r_core=   2.26547   1.91704   1.80604
- 52.00000  16.00000    180112                znucl, zion, pspdat
    8 -116133    2    4       600   0.00000   pspcod,pspxc,lmax,lloc,mmax,r2well
    5.99000000000000    5.00000000000000    0.00000000000000   rchrg,fchrg,qchrg
     nproj     2     2     2
     extension_switch     1
  pspatm : epsatm=   36.82679836
         --- l  ekb(1:nproj) -->
             0    6.345999    0.785432
             1    5.709019    1.070069
             2   -6.035173   -1.870937
 pspatm: atomic psp has been read  and splines computed

   2.48039970E+04                                ecore*ucvol(ha*bohr**3)

-inwffil : will read wavefunctions from disk file /scratch/users/j/a/jabreu/flow_simple_7atoms/flow/w120/t1/indata/in_WFK

 ==>  initialize data related to q vector <==

 The list of irreducible perturbations for this q vector is:
    1)    idir= 1    ipert=   8
    2)    idir= 2    ipert=   8
    3)    idir= 3    ipert=   8

 Perturbation wavevector (in red.coord.)   0.000000  0.000000  0.000000
 Perturbation : derivative vs k along direction   1

 dfpt_looppert : COMMENT -
  In a d/dk calculation, iscf is set to -3 automatically.
 The set of symmetries contains only one element for this perturbation.
 symkpt : not enough symmetry to change the number of k points.

[...]

 Initialisation of the first-order wave-functions :
  ireadwf=   0

--- !BeginCycle
iteration_state: {dtset: 1, }
solver: {iscf: 7, nstep: 2000, nline: 4, wfoptalg: 0, }
tolerances: {tolwfr: 1.00E-20, }
...

     iter   2DEtotal(Ha)        deltaE(Ha) residm    vres2
-ETOT  1  -58.280443064110     -5.828E+01 2.517E-02 0.000E+00
 ETOT  2  -58.310928133567     -3.049E-02 6.161E-04 0.000E+00
 ETOT  3  -58.310957041700     -2.891E-05 2.339E-05 0.000E+00
 ETOT  4  -58.310957125306     -8.361E-08 1.083E-06 0.000E+00
 ETOT  5  -58.310957125710     -4.038E-10 5.279E-08 0.000E+00
 ETOT  6  -58.310957125712     -2.458E-12 2.940E-09 0.000E+00
 ETOT  7  -58.310957125712     -1.137E-13 1.657E-10 0.000E+00
 ETOT  8  -58.310957125712      1.350E-13 1.221E-11 0.000E+00
 ETOT  9  -58.310957125712     -8.527E-14 7.046E-13 0.000E+00
 ETOT 10  -58.310957125712     -7.105E-15 6.390E-14 0.000E+00
 ETOT 11  -58.310957125712      1.421E-14 3.698E-15 0.000E+00
 ETOT 12  -58.310957125712     -1.421E-14 3.639E-16 0.000E+00
 ETOT 13  -58.310957125712     -7.105E-15 2.123E-17 0.000E+00
 ETOT 14  -58.310957125712      7.105E-15 2.125E-18 0.000E+00
 ETOT 15  -58.310957125712      0.000E+00 1.252E-19 0.000E+00
 ETOT 16  -58.310957125712      0.000E+00 1.253E-20 0.000E+00
 ETOT 17  -58.310957125712      0.000E+00 9.998E-21 0.000E+00

 At SCF step   17   max residual=  1.00E-20 < tolwfr=  1.00E-20 =>converged.

 ----iterations are completed or convergence reached----

 dfpt_looppert: DFPT cycle converged with prtwf=-1. Will skip output of the 1st-order WFK file.
 dfpt_looppert : ek2=    4.7649046155E+01
          f-sum rule ratio=    1.3067119448E+00
 prteigrs : about to open file /scratch/users/j/a/jabreu/flow_simple_7atoms/flow/w120/t1/tmpdata/tmp_1WF1_EIG
 Expectation of eigenvalue derivatives (hartree) for nkpt=   2  k points:
  (in case of degenerate eigenvalues, averaged derivative)
 kpt#   1, nband= 58, wtk=  0.50000, kpt=  0.6652  0.3348  0.5000 (reduced coord)
  -0.00000   -0.00000    0.00000    0.00000   -0.00000    0.00008   -0.00007    0.00004
   0.00003   -0.00002   -0.00005    0.00003   -0.00005    0.00000    0.00000   -0.00001
  -0.00000    0.00001   -0.00002    0.00001   -0.00001    0.00004   -0.00003    0.00002
  -0.00001    0.00014   -0.00014    0.01752   -0.01829    0.00011    0.00729    0.00452
  -0.00382    0.00066   -0.01339   -0.00771    0.02620   -0.02733    0.01527   -0.00113
  -0.00442    0.04798   -0.02540   -0.03271   -0.02824    0.02153    0.04064    0.05528
  -0.00968   -0.00965    0.03693   -0.06039    0.01934   -0.00814   -0.02160   -0.09322
  -0.00916    0.06806
 prteigrs : prtvol=0 or 1, do not print more k-points.

 Eight components of 2nd-order total energy (hartree) are
 1,2,3: 0th-order hamiltonian combined with 1st-order wavefunctions
     kin0=   5.67586579E+01 eigvalue=   1.08041537E+01  local=  -3.02217595E+01
 4,5,6: 1st-order hamiltonian combined with 1st and 0th-order wfs
     kin1=  -6.22635778E+01  Hartree=   0.00000000E+00     xc=   0.00000000E+00
 7,8,9: eventually, occupation + non-local contributions
    edocc=   1.39417550E+01     enl0=   7.02814995E+00   enl1=  -5.43583365E+01
 1-9 gives the relaxation energy (to be shifted if some occ is /=2.0)
   erelax=  -5.83109571E+01
  No Ewald or frozen-wf contrib.: the relaxation energy is the total one
 2DEtotal=   -0.5831095713E+02 Ha. Also 2DEtotal=   -0.158672183759E+04 eV
    (  non-var. 2DEtotal :   -5.8310957126E+01 Ha)

 Perturbation wavevector (in red.coord.)   0.000000  0.000000  0.000000
 Perturbation : derivative vs k along direction   2
 The set of symmetries contains only one element for this perturbation.
 symkpt : not enough symmetry to change the number of k points.

[...]

 Perturbation wavevector (in red.coord.)   0.000000  0.000000  0.000000
 Perturbation : derivative vs k along direction   3
 The set of symmetries contains only one element for this perturbation.
 symkpt : not enough symmetry to change the number of k points.

-inwffil : will read wavefunctions from disk file /scratch/users/j/a/jabreu/flow_simple_7atoms/flow/w120/t1/indata/in_WFK

 Initialisation of the first-order wave-functions :
  ireadwf=   0

--- !BeginCycle
iteration_state: {dtset: 1, }
solver: {iscf: 7, nstep: 2000, nline: 4, wfoptalg: 0, }
tolerances: {tolwfr: 1.00E-20, }
...

     iter   2DEtotal(Ha)        deltaE(Ha) residm    vres2
-ETOT  1  -113.13271553652     -1.131E+02 7.381E-02 0.000E+00
 ETOT  2  -113.18434344968     -5.163E-02 1.718E-03 0.000E+00
 ETOT  3  -113.18438610273     -4.265E-05 5.505E-05 0.000E+00
 ETOT  4  -113.18438622046     -1.177E-07 3.001E-06 0.000E+00
 ETOT  5  -113.18438622102     -5.636E-10 2.079E-07 0.000E+00
 ETOT  6  -113.18438622103     -3.325E-12 1.398E-08 0.000E+00
 ETOT  7  -113.18438622103     -1.990E-13 1.002E-09 0.000E+00
 ETOT  8  -113.18438622103      1.421E-14 7.040E-11 0.000E+00
 ETOT  9  -113.18438622103     -2.842E-14 5.115E-12 0.000E+00
 ETOT 10  -113.18438622103     -1.421E-14 3.651E-13 0.000E+00
 ETOT 11  -113.18438622103      1.421E-14 2.687E-14 0.000E+00
 ETOT 12  -113.18438622103     -1.421E-14 1.930E-15 0.000E+00
 ETOT 13  -113.18438622103     -2.842E-14 1.438E-16 0.000E+00
 ETOT 14  -113.18438622103      2.842E-14 1.037E-17 0.000E+00
 ETOT 15  -113.18438622103      1.421E-14 7.802E-19 0.000E+00
 ETOT 16  -113.18438622103      1.421E-14 5.639E-20 0.000E+00
 ETOT 17  -113.18438622103     -2.842E-14 9.771E-21 0.000E+00

 At SCF step   17   max residual=  9.77E-21 < tolwfr=  1.00E-20 =>converged.

 ----iterations are completed or convergence reached----

 dfpt_looppert: DFPT cycle converged with prtwf=-1. Will skip output of the 1st-order WFK file.
 dfpt_looppert : ek2=    8.3242553491E+01
          f-sum rule ratio=    1.5477244323E+00
 prteigrs : about to open file /scratch/users/j/a/jabreu/flow_simple_7atoms/flow/w120/t1/tmpdata/tmp_1WF1_EIG
 Expectation of eigenvalue derivatives (hartree) for nkpt=   2  k points:
  (in case of degenerate eigenvalues, averaged derivative)
 kpt#   1, nband= 58, wtk=  0.50000, kpt=  0.6652  0.3348  0.5000 (reduced coord)
  -0.00000    0.00000   -0.00000    0.00000    0.00000   -0.00000    0.00000    0.00000
  -0.00000   -0.00000    0.00000    0.00000   -0.00000    0.00000    0.00000   -0.00000
   0.00000   -0.00000   -0.00000    0.00000    0.00000   -0.00000    0.00000   -0.00000
   0.00000    0.00000   -0.00000   -0.00000    0.00000   -0.00000    0.00000   -0.00000
   0.00000   -0.00000   -0.00000    0.00000   -0.00000   -0.00000    0.00000   -0.00000
   0.00000    0.00000   -0.00000    0.00000    0.00000   -0.00000    0.00000   -0.00000
   0.00000    0.00000    0.00000   -0.00000    0.00000    0.00000    0.00000   -0.00000
  -0.00000    0.00033
 prteigrs : prtvol=0 or 1, do not print more k-points.

 Eight components of 2nd-order total energy (hartree) are
 1,2,3: 0th-order hamiltonian combined with 1st-order wavefunctions
     kin0=   9.58000747E+01 eigvalue=   1.90152017E+01  local=  -5.13957955E+01
 4,5,6: 1st-order hamiltonian combined with 1st and 0th-order wfs
     kin1=  -1.28836534E+02  Hartree=   0.00000000E+00     xc=   0.00000000E+00
 7,8,9: eventually, occupation + non-local contributions
    edocc=   3.71861846E+01     enl0=   1.25787206E+01   enl1=  -9.75322386E+01
 1-9 gives the relaxation energy (to be shifted if some occ is /=2.0)
   erelax=  -1.13184386E+02
  No Ewald or frozen-wf contrib.: the relaxation energy is the total one
 2DEtotal=   -0.1131843862E+03 Ha. Also 2DEtotal=   -0.307990378042E+04 eV
    (  non-var. 2DEtotal :   -1.1318438622E+02 Ha)

 CALCULATION OF EFFECTIVE MASSES
 NOTE : Additional infos (eff. mass eigenvalues, eigenvectors and, if degenerate, average mass) are available in stdout.

 K-point ( 0.665, 0.335, 0.500) | band =    50
 Effective mass tensor:
              0.9304127825             -0.7937309045              0.3308758185
             -0.7937309045              1.0799412491              0.3011734852
              0.3308758185              0.3011734852              1.0849749979
 Effective mass tensor eigenvalues:
              0.0199675893              1.2729401461              1.8024212941
 Angular average effective mass 1/(<1/m>)=   0.0583412980
 Angular average effective mass for Frohlich model (<m**0.5>)**2=   0.1644325666
 Effective masses along directions: (cart. coord. / red. coord. -> eff. mass)
    1:   1.000000  0.000000  0.000000 /   0.995632  0.093369  0.000000 ->   0.0423801718
    2:   0.000000  1.000000  0.000000 /   0.000000  1.000000  0.000000 ->   0.0509037111
    3:   0.000000  0.000000  1.000000 /   0.389200  0.389200  0.834893 ->   0.1222392698
    4:   0.577350  0.577350  0.577350 /   0.631681  0.672035  0.386454 ->   0.0687539954
    5:   0.000000  0.707107  0.707107 /   0.236897  0.828030  0.508179 ->   0.4845536132
    6:   0.707107  0.000000  0.707107 /   0.816947  0.287752  0.499797 ->   0.3483465597
    7:   0.707107  0.707107  0.000000 /   0.676242  0.736679  0.000000 ->   0.0234779097

 K-point ( 0.642, 0.358, 0.500) | band =    50
 Effective mass tensor:
              2.2430027397             -2.2102993475              0.3844099697
             -2.2102993475              2.6593878305              0.3498901754
              0.3844099697              0.3498901754              1.3005719381
 Effective mass tensor eigenvalues:
              0.0201010003              1.5115834898              4.6712780181
 Angular average effective mass 1/(<1/m>)=   0.0592599617
 Angular average effective mass for Frohlich model (<m**0.5>)**2=   0.1940709945
 Effective masses along directions: (cart. coord. / red. coord. -> eff. mass)
    1:   1.000000  0.000000  0.000000 /   0.995632  0.093369  0.000000 ->   0.0425422215
    2:   0.000000  1.000000  0.000000 /   0.000000  1.000000  0.000000 ->   0.0512504195
    3:   0.000000  0.000000  1.000000 /   0.389200  0.389200  0.834893 ->   0.1314698833
    4:   0.577350  0.577350  0.577350 /   0.631681  0.672035  0.386454 ->   0.0671253591
    5:   0.000000  0.707107  0.707107 /   0.236897  0.828030  0.508179 ->   0.4893633373
    6:   0.707107  0.000000  0.707107 /   0.816947  0.287752  0.499797 ->   0.3442575451
    7:   0.707107  0.707107  0.000000 /   0.676242  0.736679  0.000000 ->   0.0234136241

 END OF EFFECTIVE MASSES SECTION

 ---- first-order wavefunction calculations are completed ----

 Total localisation tensor (bohr^2) in cartesian coordinates
  WARNING : still subject to testing - especially symmetries.
      direction              matrix element
   alpha     beta       real part   imaginary part
     1        1      19.8731335319    0.0000000000
     1        2       1.8392850364    0.0000000000
     1        3       8.5970163405    0.0000000000
     2        1       1.8392850364    0.0000000000
     2        2      19.5266403554    0.0000000000
     2        3       7.8252879352    0.0000000000
     3        1       8.5970163405    0.0000000000
     3        2       7.8252879352    0.0000000000
     3        3      43.6080909470    0.0000000000

 respfn : d/dk was computed, but no 2DTE, so no DDB output.

== END DATASET(S) ==============================================================

 -outvars: echo values of variables after computation  --------
            acell      1.0000000000E+00  1.0000000000E+00  1.0000000000E+00 Bohr
              amu      8.54678000E+01  1.27600000E+02
             ecut      4.00000000E+01 Hartree
           etotal     -1.1318438622E+02
            fcart      0.0000000000E+00  0.0000000000E+00  0.0000000000E+00
                       0.0000000000E+00  0.0000000000E+00  0.0000000000E+00
                       0.0000000000E+00  0.0000000000E+00  0.0000000000E+00
                       0.0000000000E+00  0.0000000000E+00  0.0000000000E+00
                       0.0000000000E+00  0.0000000000E+00  0.0000000000E+00
                       0.0000000000E+00  0.0000000000E+00  0.0000000000E+00
                       0.0000000000E+00  0.0000000000E+00  0.0000000000E+00
-          fftalg         512
           irdden           1
           irdwfk           1
              ixc     -116133
              kpt      6.65189169E-01  3.34810831E-01  5.00000000E-01
                       6.41590716E-01  3.58409284E-01  5.00000000E-01
           kptopt           0
P           mkmem           2
P          mkqmem           2
P          mk1mem           2
            natom           7
            nband          58
           nbdbuf           4
            ngfft          80      80      64
             nkpt           2
            nstep        2000
             nsym           4
           ntypat           2
              occ      2.000000  2.000000  2.000000  2.000000  2.000000  2.000000
                       2.000000  2.000000  2.000000  2.000000  2.000000  2.000000
                       2.000000  2.000000  2.000000  2.000000  2.000000  2.000000
                       2.000000  2.000000  2.000000  2.000000  2.000000  2.000000
                       2.000000  2.000000  2.000000  2.000000  2.000000  2.000000
                       2.000000  2.000000  2.000000  2.000000  2.000000  2.000000
                       2.000000  2.000000  2.000000  2.000000  2.000000  2.000000
                       2.000000  2.000000  2.000000  2.000000  2.000000  2.000000
                       2.000000  0.000000  0.000000  0.000000  0.000000  0.000000
                       0.000000  0.000000  0.000000  0.000000
        optdriver           1
            prtwf          -1
            rfdir           1       1       1
           rfelfd           2
            rprim      1.2799674553E+01  0.0000000000E+00  5.1068558293E+00
                       1.2003345548E+00  1.2743267462E+01  5.1068558293E+00
                       0.0000000000E+00  0.0000000000E+00  1.0954978031E+01
          spgroup          12
           strten      0.0000000000E+00  0.0000000000E+00  0.0000000000E+00
                       0.0000000000E+00  0.0000000000E+00  0.0000000000E+00
           symrel      1  0  0   0  1  0   0  0  1      -1  0  0   0 -1  0   0  0 -1
                       0 -1  0  -1  0  0   0  0 -1       0  1  0   1  0  0   0  0  1
           tolwfr      1.00000000E-20
            typat      1  1  2  2  2  2  2
           useylm           1
              wtk        0.50000    0.50000
           xangst      2.3504754536E+00  2.1394798488E+00  3.7971058051E+00
                       5.0580102860E+00  4.6039668550E+00  7.4048823144E+00
                       0.0000000000E+00  0.0000000000E+00  0.0000000000E+00
                       2.8300095103E+00  5.7798149133E+00  4.5531937856E+00
                       1.3887478775E+00  4.4679313047E+00  6.6487943339E+00
                       4.5784762293E+00  9.6363179053E-01  6.6487943339E+00
                       6.0197378621E+00  2.2755153992E+00  4.5531937856E+00
            xcart      4.4417548895E+00  4.0430309811E+00  7.1754900693E+00
                       9.5582542178E+00  8.7002364809E+00  1.3993199620E+01
                       0.0000000000E+00  0.0000000000E+00  0.0000000000E+00
                       5.3479429279E+00  1.0922267285E+01  8.6042892847E+00
                       2.6243531562E+00  8.4431665464E+00  1.2564400405E+01
                       8.6520661794E+00  1.8210001771E+00  1.2564400405E+01
                       1.1375655951E+01  4.3001009156E+00  8.6042892847E+00
             xred      3.1726800000E-01  3.1726800000E-01  3.5919800000E-01
                       6.8273200000E-01  6.8273200000E-01  6.4080200000E-01
                       0.0000000000E+00  0.0000000000E+00  0.0000000000E+00
                       3.3744100000E-01  8.5710100000E-01  2.2856600000E-01
                       1.4289900000E-01  6.6255900000E-01  7.7143400000E-01
                       6.6255900000E-01  1.4289900000E-01  7.7143400000E-01
                       8.5710100000E-01  3.3744100000E-01  2.2856600000E-01
            znucl       37.00000   52.00000

- Timing analysis has been suppressed with timopt=0

 Suggested references for the acknowledgment of ABINIT usage.

 Calculation completed.
.Delivered  14 WARNINGs and   9 COMMENTs to log file.