.Version 9.7.2 of ABINIT

 ABINIT is a project of the Universite Catholique de Louvain,
 Corning Inc. and other collaborators, see ~abinit/doc/developers/contributors.txt .
 acknowledgments of the ABINIT effort.

.Starting date : Wed  1 Dec 2021.
- ( at 21h49 )

- input  file    -> /scratch/users/j/a/jabreu/flow_simple_remain_atoms/flow/w253/t1/run.abi
- output file    -> /scratch/users/j/a/jabreu/flow_simple_remain_atoms/flow/w253/t1/run.abo
- root for input  files -> /scratch/users/j/a/jabreu/flow_simple_remain_atoms/flow/w253/t1/indata/in
- root for output files -> /scratch/users/j/a/jabreu/flow_simple_remain_atoms/flow/w253/t1/outdata/out

 Symmetries : space group Pm -3 m (#221); Bravais cP (primitive cubic)
     intxc =       0      iscf =       7    lmnmax =      18     lnmax =       6
     mgfft =      45  mpssoang =       3    mqgrid =    3001     natom =       5
  nloc_mem =       1    nspden =       1   nspinor =       1    nsppol =       1
      nsym =      48    n1xccc =    2501    ntypat =       3    occopt =       1
   xclevel =       2
-    mband =          29        mffmem =           1         mkmem =           2
-   mkqmem =           2        mk1mem =           2           mpw =        5616
      nfft =       91125          nkpt =           2
  Rough estimation (10% accuracy) of disk space for files :

------------- Echo of variables that govern the present computation ------------
-
- outvars: echo of selected default values
-   iomode0 =  0 , fftalg0 =512 , wfoptalg0 =  0
-
- outvars: echo of global parameters not present in the input file
-  max_nthreads =    0
-
 -outvars: echo values of preprocessed input variables --------
            acell      1.0000000000E+00  1.0000000000E+00  1.0000000000E+00 Bohr
              amu      3.90983000E+01  2.43050000E+01  1.89984032E+01
             ecut      4.20000000E+01 Hartree
-          fftalg         512
           irdden           1
           irdwfk           1
           istwfk        1    1
              ixc     -116133
              kpt      5.00000000E-01  5.00000000E-01  5.00000000E-01
                       0.00000000E+00  0.00000000E+00  0.00000000E+00
           kptopt           0
P           mkmem           2
P          mkqmem           2
P          mk1mem           2
            natom           5
            nband          29
           nbdbuf           4
            ngfft          45      45      45
             nkpt           2
            nstep        2000
             nsym          48
           ntypat           3
              occ      2.000000  2.000000  2.000000  2.000000  2.000000  2.000000
                       2.000000  2.000000  2.000000  2.000000  2.000000  2.000000
                       2.000000  2.000000  2.000000  2.000000  2.000000  2.000000
                       2.000000  2.000000  0.000000  0.000000  0.000000  0.000000
                       0.000000  0.000000  0.000000  0.000000  0.000000
        optdriver           1
            prtwf          -1
            rfdir           1       1       1
           rfelfd           2
            rprim      7.5378857929E+00  0.0000000000E+00  0.0000000000E+00
                       0.0000000000E+00  7.5378857929E+00  0.0000000000E+00
                       0.0000000000E+00  0.0000000000E+00  7.5378857929E+00
          spgroup         221
           symrel      1  0  0   0  1  0   0  0  1      -1  0  0   0 -1  0   0  0 -1
                      -1  0  0   0  1  0   0  0 -1       1  0  0   0 -1  0   0  0  1
                      -1  0  0   0 -1  0   0  0  1       1  0  0   0  1  0   0  0 -1
                       1  0  0   0 -1  0   0  0 -1      -1  0  0   0  1  0   0  0  1
                       0  1  0   1  0  0   0  0  1       0 -1  0  -1  0  0   0  0 -1
                       0 -1  0   1  0  0   0  0 -1       0  1  0  -1  0  0   0  0  1
                       0 -1  0  -1  0  0   0  0  1       0  1  0   1  0  0   0  0 -1
                       0  1  0  -1  0  0   0  0 -1       0 -1  0   1  0  0   0  0  1
                       0  0  1   1  0  0   0  1  0       0  0 -1  -1  0  0   0 -1  0
                       0  0 -1   1  0  0   0 -1  0       0  0  1  -1  0  0   0  1  0
                       0  0 -1  -1  0  0   0  1  0       0  0  1   1  0  0   0 -1  0
                       0  0  1  -1  0  0   0 -1  0       0  0 -1   1  0  0   0  1  0
                       1  0  0   0  0  1   0  1  0      -1  0  0   0  0 -1   0 -1  0
                      -1  0  0   0  0  1   0 -1  0       1  0  0   0  0 -1   0  1  0
                      -1  0  0   0  0 -1   0  1  0       1  0  0   0  0  1   0 -1  0
                       1  0  0   0  0 -1   0 -1  0      -1  0  0   0  0  1   0  1  0
                       0  1  0   0  0  1   1  0  0       0 -1  0   0  0 -1  -1  0  0
                       0 -1  0   0  0  1  -1  0  0       0  1  0   0  0 -1   1  0  0
                       0 -1  0   0  0 -1   1  0  0       0  1  0   0  0  1  -1  0  0
                       0  1  0   0  0 -1  -1  0  0       0 -1  0   0  0  1   1  0  0
                       0  0  1   0  1  0   1  0  0       0  0 -1   0 -1  0  -1  0  0
                       0  0 -1   0  1  0  -1  0  0       0  0  1   0 -1  0   1  0  0
                       0  0 -1   0 -1  0   1  0  0       0  0  1   0  1  0  -1  0  0
                       0  0  1   0 -1  0  -1  0  0       0  0 -1   0  1  0   1  0  0
           tolwfr      1.00000000E-20
            typat      1  2  3  3  3
           useylm           1
              wtk        0.50000    0.50000
           xangst      1.9944386813E+00  1.9944386813E+00  1.9944386813E+00
                       0.0000000000E+00  0.0000000000E+00  0.0000000000E+00
                       0.0000000000E+00  1.9944386813E+00  0.0000000000E+00
                       0.0000000000E+00  0.0000000000E+00  1.9944386813E+00
                       1.9944386813E+00  0.0000000000E+00  0.0000000000E+00
            xcart      3.7689428965E+00  3.7689428965E+00  3.7689428965E+00
                       0.0000000000E+00  0.0000000000E+00  0.0000000000E+00
                       0.0000000000E+00  3.7689428965E+00  0.0000000000E+00
                       0.0000000000E+00  0.0000000000E+00  3.7689428965E+00
                       3.7689428965E+00  0.0000000000E+00  0.0000000000E+00
             xred      5.0000000000E-01  5.0000000000E-01  5.0000000000E-01
                       0.0000000000E+00  0.0000000000E+00  0.0000000000E+00
                       0.0000000000E+00  5.0000000000E-01  0.0000000000E+00
                       0.0000000000E+00  0.0000000000E+00  5.0000000000E-01
                       5.0000000000E-01  0.0000000000E+00  0.0000000000E+00
            znucl       19.00000   12.00000    9.00000

 chkinp: Checking input parameters for consistency.

== DATASET  1 ==================================================================
-   mpi_nproc: 1, omp_nthreads: -1 (-1 if OMP is not activated)

--- !DatasetInfo
iteration_state: {dtset: 1, }
dimensions: {natom: 5, nkpt: 2, mband: 29, nsppol: 1, nspinor: 1, nspden: 1, mpw: 5616, }
cutoff_energies: {ecut:  42.0, pawecutdg:  -1.0, }
electrons: {nelect:   4.00000000E+01, charge:   0.00000000E+00, occopt:   1.00000000E+00, tsmear:   1.00000000E-02, }
meta: {optdriver: 1, rfelfd: 2, }
...

 Real(R)+Recip(G) space primitive vectors, cartesian coordinates (Bohr,Bohr^-1):
 R(1)=  7.5378858  0.0000000  0.0000000  G(1)=  0.1326632  0.0000000  0.0000000
 R(2)=  0.0000000  7.5378858  0.0000000  G(2)=  0.0000000  0.1326632  0.0000000
 R(3)=  0.0000000  0.0000000  7.5378858  G(3)=  0.0000000  0.0000000  0.1326632
 Unit cell volume ucvol=  4.2830058E+02 bohr^3
 Angles (23,13,12)=  9.00000000E+01  9.00000000E+01  9.00000000E+01 degrees

 getcut: wavevector=  0.0000  0.0000  0.0000  ngfft=  45  45  45
         ecut(hartree)=     42.000   => boxcut(ratio)=   2.00084

--- Pseudopotential description ------------------------------------------------
- pspini: atom type   1  psp file is /scratch/users/j/a/jabreu/pseudos/PBEsol/K.psp8
- pspatm: opening atomic psp file    /scratch/users/j/a/jabreu/pseudos/PBEsol/K.psp8
- K     ONCVPSP-3.3.0  r_core=   1.36296   1.46408   1.61068
- 19.00000   9.00000    180112                znucl, zion, pspdat
    8 -116133    2    4       400   0.00000   pspcod,pspxc,lmax,lloc,mmax,r2well
    3.99000000000000    5.00000000000000    0.00000000000000   rchrg,fchrg,qchrg
     nproj     2     2     2
     extension_switch     1
  pspatm : epsatm=    8.32487830
         --- l  ekb(1:nproj) -->
             0   10.921326    0.816676
             1    4.431000    0.560368
             2   -3.384038   -1.043186
 pspatm: atomic psp has been read  and splines computed

- pspini: atom type   2  psp file is /scratch/users/j/a/jabreu/pseudos/PBEsol/Mg.psp8
- pspatm: opening atomic psp file    /scratch/users/j/a/jabreu/pseudos/PBEsol/Mg.psp8
- Mg    ONCVPSP-3.3.0  r_core=   1.16056   1.56380
- 12.00000  10.00000    180112                znucl, zion, pspdat
    8 -116133    1    4       400   0.00000   pspcod,pspxc,lmax,lloc,mmax,r2well
    3.99000000000000    0.00000000000000    0.00000000000000   rchrg,fchrg,qchrg
     nproj     2     2
     extension_switch     1
  pspatm : epsatm=    9.18164846
         --- l  ekb(1:nproj) -->
             0    2.230603   -0.826587
             1   -6.503151   -2.501445
 pspatm: atomic psp has been read  and splines computed

- pspini: atom type   3  psp file is /scratch/users/j/a/jabreu/pseudos/PBEsol/F.psp8
- pspatm: opening atomic psp file    /scratch/users/j/a/jabreu/pseudos/PBEsol/F.psp8
- F     ONCVPSP-3.3.0  r_core=   1.30942   1.45782   1.60379
-  9.00000   7.00000    180112                znucl, zion, pspdat
    8 -116133    2    4       600   0.00000   pspcod,pspxc,lmax,lloc,mmax,r2well
    5.99000000000000    2.50000000000000    0.00000000000000   rchrg,fchrg,qchrg
     nproj     2     2     1
     extension_switch     1
  pspatm : epsatm=    4.89824824
         --- l  ekb(1:nproj) -->
             0    6.506434    1.065875
             1   -3.978753   -1.295852
             2   -2.394754
 pspatm: atomic psp has been read  and splines computed

   1.28805086E+03                                ecore*ucvol(ha*bohr**3)

 ==>  initialize data related to q vector <==

 The list of irreducible perturbations for this q vector is:
    1)    idir= 1    ipert=   6
    2)    idir= 2    ipert=   6
    3)    idir= 3    ipert=   6

 Perturbation wavevector (in red.coord.)   0.000000  0.000000  0.000000
 Perturbation : derivative vs k along direction   1

 dfpt_looppert : COMMENT -
  In a d/dk calculation, iscf is set to -3 automatically.
 The set of symmetries contains only one element for this perturbation.
 symkpt : not enough symmetry to change the number of k points.

 Initialisation of the first-order wave-functions :
  ireadwf=   0

--- !BeginCycle
iteration_state: {dtset: 1, }
solver: {iscf: 7, nstep: 2000, nline: 4, wfoptalg: 0, }
tolerances: {tolwfr: 1.00E-20, }
...

     iter   2DEtotal(Ha)        deltaE(Ha) residm    vres2
-ETOT  1  -31.300818469225     -3.130E+01 7.491E-02 0.000E+00
 ETOT  2  -31.321159823428     -2.034E-02 1.419E-03 0.000E+00
[...]
    edocc=   7.74144002E+00     enl0=  -3.63614013E-01   enl1=  -2.82913443E+00
 1-9 gives the relaxation energy (to be shifted if some occ is /=2.0)
   erelax=  -3.13211730E+01
  No Ewald or frozen-wf contrib.: the relaxation energy is the total one
 2DEtotal=   -0.3132117302E+02 Ha. Also 2DEtotal=   -0.852292461953E+03 eV
    (  non-var. 2DEtotal :   -3.1321173018E+01 Ha)

 Perturbation wavevector (in red.coord.)   0.000000  0.000000  0.000000
 Perturbation : derivative vs k along direction   2
 The set of symmetries contains only one element for this perturbation.
 symkpt : not enough symmetry to change the number of k points.

[...]

 Perturbation wavevector (in red.coord.)   0.000000  0.000000  0.000000
 Perturbation : derivative vs k along direction   3
 The set of symmetries contains only one element for this perturbation.
 symkpt : not enough symmetry to change the number of k points.

 Initialisation of the first-order wave-functions :
  ireadwf=   0

--- !BeginCycle
iteration_state: {dtset: 1, }
solver: {iscf: 7, nstep: 2000, nline: 4, wfoptalg: 0, }
tolerances: {tolwfr: 1.00E-20, }
...

     iter   2DEtotal(Ha)        deltaE(Ha) residm    vres2
-ETOT  1  -31.300827878363     -3.130E+01 7.491E-02 0.000E+00
 ETOT  2  -31.321161344339     -2.033E-02 7.894E-04 0.000E+00
 ETOT  3  -31.321174489522     -1.315E-05 9.270E-06 0.000E+00
 ETOT  4  -31.321174507836     -1.831E-08 9.294E-06 0.000E+00
 ETOT  5  -31.321174507872     -3.575E-11 2.073E-07 0.000E+00
 ETOT  6  -31.321174507872     -9.592E-14 2.726E-07 0.000E+00
 ETOT  7  -31.321174507872     -1.421E-14 6.781E-09 0.000E+00
 ETOT  8  -31.321174507872     -7.105E-15 8.707E-09 0.000E+00
 ETOT  9  -31.321174507872     -7.105E-15 3.236E-10 0.000E+00
 ETOT 10  -31.321174507872      0.000E+00 3.039E-10 0.000E+00
 ETOT 11  -31.321174507872      0.000E+00 4.265E-11 0.000E+00
 ETOT 12  -31.321174507872      7.105E-15 2.137E-11 0.000E+00
 ETOT 13  -31.321174507872      3.553E-15 6.827E-12 0.000E+00
 ETOT 14  -31.321174507872     -1.776E-14 3.346E-12 0.000E+00
 ETOT 15  -31.321174507872      1.066E-14 1.229E-12 0.000E+00
 ETOT 16  -31.321174507872      3.553E-15 6.136E-13 0.000E+00
 ETOT 17  -31.321174507872     -1.066E-14 2.247E-13 0.000E+00
 ETOT 18  -31.321174507872      1.776E-14 1.132E-13 0.000E+00
 ETOT 19  -31.321174507872     -7.105E-15 4.119E-14 0.000E+00
 ETOT 20  -31.321174507872      0.000E+00 2.088E-14 0.000E+00
 ETOT 21  -31.321174507872     -7.105E-15 7.566E-15 0.000E+00
 ETOT 22  -31.321174507872      0.000E+00 3.851E-15 0.000E+00
 ETOT 23  -31.321174507872      3.553E-15 1.391E-15 0.000E+00
 ETOT 24  -31.321174507872     -7.105E-15 7.103E-16 0.000E+00
 ETOT 25  -31.321174507872      7.105E-15 2.561E-16 0.000E+00
 ETOT 26  -31.321174507872     -7.105E-15 1.310E-16 0.000E+00
 ETOT 27  -31.321174507872      0.000E+00 4.717E-17 0.000E+00
 ETOT 28  -31.321174507872      1.421E-14 2.417E-17 0.000E+00
 ETOT 29  -31.321174507872     -1.421E-14 8.692E-18 0.000E+00
 ETOT 30  -31.321174507872      1.066E-14 4.457E-18 0.000E+00
 ETOT 31  -31.321174507872      0.000E+00 1.602E-18 0.000E+00
 ETOT 32  -31.321174507872     -7.105E-15 8.222E-19 0.000E+00
 ETOT 33  -31.321174507872      1.066E-14 2.953E-19 0.000E+00
 ETOT 34  -31.321174507872     -1.066E-14 1.517E-19 0.000E+00
 ETOT 35  -31.321174507872      0.000E+00 5.446E-20 0.000E+00
 ETOT 36  -31.321174507872      0.000E+00 2.797E-20 0.000E+00
 ETOT 37  -31.321174507872      1.421E-14 1.004E-20 0.000E+00
 ETOT 38  -31.321174507872     -3.553E-15 9.626E-21 0.000E+00

 At SCF step   38   max residual=  9.63E-21 < tolwfr=  1.00E-20 =>converged.

 ----iterations are completed or convergence reached----

 dfpt_looppert: DFPT cycle converged with prtwf=-1. Will skip output of the 1st-order WFK file.
 dfpt_looppert : ek2=    5.5584105036E+01
          f-sum rule ratio=    1.0760848758E+00
 prteigrs : about to open file /scratch/users/j/a/jabreu/flow_simple_remain_atoms/flow/w253/t1/tmpdata/tmp_1WF1_EIG
 Expectation of eigenvalue derivatives (hartree) for nkpt=   2  k points:
  (in case of degenerate eigenvalues, averaged derivative)
 kpt#   1, nband= 29, wtk=  0.50000, kpt=  0.5000  0.5000  0.5000 (reduced coord)
   0.00000   -0.00000   -0.00000   -0.00000    0.00000   -0.00000   -0.00000   -0.00000
   0.00000    0.00000    0.00000    0.00000    0.00000    0.00000    0.00000    0.00000
   0.00000   -0.00000   -0.00000   -0.00000   -0.00000   -0.00000   -0.00000   -0.00000
   0.00000    0.00000   -0.00000   -0.00000    0.00027
 prteigrs : prtvol=0 or 1, do not print more k-points.

 Eight components of 2nd-order total energy (hartree) are
 1,2,3: 0th-order hamiltonian combined with 1st-order wavefunctions
     kin0=   3.47662979E+01 eigvalue=   2.57281498E+00  local=  -1.34463887E+01
 4,5,6: 1st-order hamiltonian combined with 1st and 0th-order wfs
     kin1=  -5.98132148E+01  Hartree=   0.00000000E+00     xc=   0.00000000E+00
 7,8,9: eventually, occupation + non-local contributions
    edocc=   7.76478342E+00     enl0=  -3.36333107E-01   enl1=  -2.82913425E+00
 1-9 gives the relaxation energy (to be shifted if some occ is /=2.0)
   erelax=  -3.13211745E+01
  No Ewald or frozen-wf contrib.: the relaxation energy is the total one
 2DEtotal=   -0.3132117451E+02 Ha. Also 2DEtotal=   -0.852292502480E+03 eV
    (  non-var. 2DEtotal :   -3.1321174508E+01 Ha)

 CALCULATION OF EFFECTIVE MASSES
 NOTE : Additional infos (eff. mass eigenvalues, eigenvectors and, if degenerate, average mass) are available in stdout.

 COMMENTS:
 - At k-point ( 0.500, 0.500, 0.500), bands    18 through    20
   are DEGENERATE (effective mass tensor is therefore not defined).
   See Section IIIB Eqs. (67)-(70) and Appendix E of PRB 93 205147 (2016).
 - Angular average effective mass for Frohlich model is to be averaged over degenerate bands. See later.
 - Associated theta integrals calculated with ntheta=   1000 points.

 K-point ( 0.500, 0.500, 0.500) | band =    18
 Transport equivalent effective mass tensor:
             -1.8137742993             -0.0000000640              0.0000000594
             -0.0000000640             -1.8137750920              0.0000000655
              0.0000000594              0.0000000655             -1.8137714430
 Transport equivalent effective mass tensor eigenvalues:
             -1.8137750985             -1.8137742952             -1.8137714406
 Angular average effective mass 1/(<1/m>)=  -1.7486867991
 Angular average effective mass for Frohlich model (<m**0.5>)**2=  -1.7512682089
 Effective masses along directions: (cart. coord. / red. coord. -> eff. mass)
    1:   1.000000  0.000000  0.000000 /   1.000000  0.000000  0.000000 ->  -1.6795368281
    2:   0.000000  1.000000  0.000000 /   0.000000  1.000000  0.000000 ->  -1.6795370659
    3:   0.000000  0.000000  1.000000 /   0.000000  0.000000  1.000000 ->  -1.6795368682
    4:   0.577350  0.577350  0.577350 /   0.577350  0.577350  0.577350 ->  -2.0382734541
    5:   0.000000  0.707107  0.707107 /   0.000000  0.707107  0.707107 ->  -1.6795369815
    6:   0.707107  0.000000  0.707107 /   0.707107  0.000000  0.707107 ->  -1.6795370441
    7:   0.707107  0.707107  0.000000 /   0.707107  0.707107  0.000000 ->  -1.6795370798

[...]

 K-point ( 0.500, 0.500, 0.500) | band =    20
 Transport equivalent effective mass tensor:
            -82.2999832720             -0.0000004740              0.0000000562
             -0.0000004740            -82.2999857003              0.0000002816
              0.0000000562              0.0000002816            -82.2999833387
 Transport equivalent effective mass tensor eigenvalues:
            -82.2999858227            -82.2999833056            -82.2999831827
 Angular average effective mass 1/(<1/m>)=  -7.2634751008
 Angular average effective mass for Frohlich model (<m**0.5>)**2=  -8.9163156579
 Effective masses along directions: (cart. coord. / red. coord. -> eff. mass)
    1:   1.000000  0.000000  0.000000 /   1.000000  0.000000  0.000000 -> -45.8822037469
    2:   0.000000  1.000000  0.000000 /   0.000000  1.000000  0.000000 -> -45.8822041233
    3:   0.000000  0.000000  1.000000 /   0.000000  0.000000  1.000000 -> -45.8822038941
    4:   0.577350  0.577350  0.577350 /   0.577350  0.577350  0.577350 ->  -4.3219548154
    5:   0.000000  0.707107  0.707107 /   0.000000  0.707107  0.707107 ->  -5.5871751673
    6:   0.707107  0.000000  0.707107 /   0.707107  0.000000  0.707107 ->  -5.5871751396
    7:   0.707107  0.707107  0.000000 /   0.707107  0.707107  0.000000 ->  -5.5871751783

 Angular average effective mass for Frohlich model, averaged over degenerate bands.
 Value of     (<<m**0.5>>)**2 =     3.639347E+00
 Absolute Value of <<m**0.5>> =     1.907707E+00

 K-point ( 0.000, 0.000, 0.000) | band =    21
 Effective mass tensor:
              0.5120810330             -0.0000000000             -0.0000000002
             -0.0000000000              0.5120810332             -0.0000000001
             -0.0000000002             -0.0000000001              0.5120810330
 Effective mass tensor eigenvalues:
              0.5120810328              0.5120810332              0.5120810333
 Angular average effective mass 1/(<1/m>)=   0.5120810331
 Angular average effective mass for Frohlich model (<m**0.5>)**2=   0.5120810331
 Effective masses along directions: (cart. coord. / red. coord. -> eff. mass)
    1:   1.000000  0.000000  0.000000 /   1.000000  0.000000  0.000000 ->   0.5120810330
    2:   0.000000  1.000000  0.000000 /   0.000000  1.000000  0.000000 ->   0.5120810332
    3:   0.000000  0.000000  1.000000 /   0.000000  0.000000  1.000000 ->   0.5120810330
    4:   0.577350  0.577350  0.577350 /   0.577350  0.577350  0.577350 ->   0.5120810329
    5:   0.000000  0.707107  0.707107 /   0.000000  0.707107  0.707107 ->   0.5120810331
    6:   0.707107  0.000000  0.707107 /   0.707107  0.000000  0.707107 ->   0.5120810328
    7:   0.707107  0.707107  0.000000 /   0.707107  0.707107  0.000000 ->   0.5120810331

 END OF EFFECTIVE MASSES SECTION

 ---- first-order wavefunction calculations are completed ----

 Total localisation tensor (bohr^2) in cartesian coordinates
  WARNING : still subject to testing - especially symmetries.
      direction              matrix element
   alpha     beta       real part   imaginary part
     1        1       0.4764483984    0.0000000000
     1        2       0.0000000000    0.0000000000
     1        3       0.0000000000    0.0000000000
     2        1       0.0000000000    0.0000000000
     2        2       0.4764484317    0.0000000000
     2        3       0.0000000000    0.0000000000
     3        1       0.0000000000    0.0000000000
     3        2       0.0000000000    0.0000000000
     3        3       0.4764484177    0.0000000000

 respfn : d/dk was computed, but no 2DTE, so no DDB output.

== END DATASET(S) ==============================================================

 -outvars: echo values of variables after computation  --------
            acell      1.0000000000E+00  1.0000000000E+00  1.0000000000E+00 Bohr
              amu      3.90983000E+01  2.43050000E+01  1.89984032E+01
             ecut      4.20000000E+01 Hartree
           etotal     -3.1321174508E+01
            fcart      0.0000000000E+00  0.0000000000E+00  0.0000000000E+00
                       0.0000000000E+00  0.0000000000E+00  0.0000000000E+00
                       0.0000000000E+00  0.0000000000E+00  0.0000000000E+00
                       0.0000000000E+00  0.0000000000E+00  0.0000000000E+00
                       0.0000000000E+00  0.0000000000E+00  0.0000000000E+00
-          fftalg         512
           irdden           1
           irdwfk           1
           istwfk        1    1
              ixc     -116133
              kpt      5.00000000E-01  5.00000000E-01  5.00000000E-01
                       0.00000000E+00  0.00000000E+00  0.00000000E+00
           kptopt           0
P           mkmem           2
P          mkqmem           2
P          mk1mem           2
            natom           5
            nband          29
           nbdbuf           4
            ngfft          45      45      45
             nkpt           2
            nstep        2000
             nsym          48
           ntypat           3
              occ      2.000000  2.000000  2.000000  2.000000  2.000000  2.000000
                       2.000000  2.000000  2.000000  2.000000  2.000000  2.000000
                       2.000000  2.000000  2.000000  2.000000  2.000000  2.000000
                       2.000000  2.000000  0.000000  0.000000  0.000000  0.000000
                       0.000000  0.000000  0.000000  0.000000  0.000000
        optdriver           1
            prtwf          -1
            rfdir           1       1       1
           rfelfd           2
            rprim      7.5378857929E+00  0.0000000000E+00  0.0000000000E+00
                       0.0000000000E+00  7.5378857929E+00  0.0000000000E+00
                       0.0000000000E+00  0.0000000000E+00  7.5378857929E+00
          spgroup         221
           strten      0.0000000000E+00  0.0000000000E+00  0.0000000000E+00
                       0.0000000000E+00  0.0000000000E+00  0.0000000000E+00
           symrel      1  0  0   0  1  0   0  0  1      -1  0  0   0 -1  0   0  0 -1
                      -1  0  0   0  1  0   0  0 -1       1  0  0   0 -1  0   0  0  1
                      -1  0  0   0 -1  0   0  0  1       1  0  0   0  1  0   0  0 -1
                       1  0  0   0 -1  0   0  0 -1      -1  0  0   0  1  0   0  0  1
                       0  1  0   1  0  0   0  0  1       0 -1  0  -1  0  0   0  0 -1
                       0 -1  0   1  0  0   0  0 -1       0  1  0  -1  0  0   0  0  1
                       0 -1  0  -1  0  0   0  0  1       0  1  0   1  0  0   0  0 -1
                       0  1  0  -1  0  0   0  0 -1       0 -1  0   1  0  0   0  0  1
                       0  0  1   1  0  0   0  1  0       0  0 -1  -1  0  0   0 -1  0
                       0  0 -1   1  0  0   0 -1  0       0  0  1  -1  0  0   0  1  0
                       0  0 -1  -1  0  0   0  1  0       0  0  1   1  0  0   0 -1  0
                       0  0  1  -1  0  0   0 -1  0       0  0 -1   1  0  0   0  1  0
                       1  0  0   0  0  1   0  1  0      -1  0  0   0  0 -1   0 -1  0
                      -1  0  0   0  0  1   0 -1  0       1  0  0   0  0 -1   0  1  0
                      -1  0  0   0  0 -1   0  1  0       1  0  0   0  0  1   0 -1  0
                       1  0  0   0  0 -1   0 -1  0      -1  0  0   0  0  1   0  1  0
                       0  1  0   0  0  1   1  0  0       0 -1  0   0  0 -1  -1  0  0
                       0 -1  0   0  0  1  -1  0  0       0  1  0   0  0 -1   1  0  0
                       0 -1  0   0  0 -1   1  0  0       0  1  0   0  0  1  -1  0  0
                       0  1  0   0  0 -1  -1  0  0       0 -1  0   0  0  1   1  0  0
                       0  0  1   0  1  0   1  0  0       0  0 -1   0 -1  0  -1  0  0
                       0  0 -1   0  1  0  -1  0  0       0  0  1   0 -1  0   1  0  0
                       0  0 -1   0 -1  0   1  0  0       0  0  1   0  1  0  -1  0  0
                       0  0  1   0 -1  0  -1  0  0       0  0 -1   0  1  0   1  0  0
           tolwfr      1.00000000E-20
            typat      1  2  3  3  3
           useylm           1
              wtk        0.50000    0.50000
           xangst      1.9944386813E+00  1.9944386813E+00  1.9944386813E+00
                       0.0000000000E+00  0.0000000000E+00  0.0000000000E+00
                       0.0000000000E+00  1.9944386813E+00  0.0000000000E+00
                       0.0000000000E+00  0.0000000000E+00  1.9944386813E+00
                       1.9944386813E+00  0.0000000000E+00  0.0000000000E+00
            xcart      3.7689428965E+00  3.7689428965E+00  3.7689428965E+00
                       0.0000000000E+00  0.0000000000E+00  0.0000000000E+00
                       0.0000000000E+00  3.7689428965E+00  0.0000000000E+00
                       0.0000000000E+00  0.0000000000E+00  3.7689428965E+00
                       3.7689428965E+00  0.0000000000E+00  0.0000000000E+00
             xred      5.0000000000E-01  5.0000000000E-01  5.0000000000E-01
                       0.0000000000E+00  0.0000000000E+00  0.0000000000E+00
                       0.0000000000E+00  5.0000000000E-01  0.0000000000E+00
                       0.0000000000E+00  0.0000000000E+00  5.0000000000E-01
                       5.0000000000E-01  0.0000000000E+00  0.0000000000E+00
            znucl       19.00000   12.00000    9.00000

- Timing analysis has been suppressed with timopt=0

 Suggested references for the acknowledgment of ABINIT usage.

 Calculation completed.
.Delivered   2 WARNINGs and   5 COMMENTs to log file.