.Version 9.5.1 of ABINIT

 ABINIT is a project of the Universite Catholique de Louvain,
 Corning Inc. and other collaborators, see ~abinit/doc/developers/contributors.txt .
 acknowledgments of the ABINIT effort.

.Starting date : Mon 26 Apr 2021.
- ( at 00h47 )

- input  file    -> /scratch/users/j/a/jabreu/flow_simple/flow/w99/t1/run.abi
- output file    -> /scratch/users/j/a/jabreu/flow_simple/flow/w99/t1/run.abo
- root for input  files -> /scratch/users/j/a/jabreu/flow_simple/flow/w99/t1/indata/in
- root for output files -> /scratch/users/j/a/jabreu/flow_simple/flow/w99/t1/outdata/out

 Symmetries : space group I4 m m (#107); Bravais tI (body-center tetrag.)
     intxc =       0      iscf =       7    lmnmax =      18     lnmax =       6
     mgfft =      45  mpssoang =       3    mqgrid =    3001     natom =       3
  nloc_mem =       1    nspden =       1   nspinor =       1    nsppol =       1
      nsym =       8    n1xccc =    2501    ntypat =       3    occopt =       1
   xclevel =       2
-    mband =          17        mffmem =           1         mkmem =           1
-   mkqmem =           1        mk1mem =           1           mpw =        3055
      nfft =       91125          nkpt =           1
  Rough estimation (10% accuracy) of disk space for files :

------------- Echo of variables that govern the present computation ------------
-
- outvars: echo of selected default values
-   iomode0 =  0 , fftalg0 =512 , wfoptalg0 =  0
-
- outvars: echo of global parameters not present in the input file
-  max_nthreads =    0
-
 -outvars: echo values of preprocessed input variables --------
            acell      1.0000000000E+00  1.0000000000E+00  1.0000000000E+00 Bohr
              amu      4.00780000E+01  1.00794000E+00  1.40067400E+01
             ecut      4.20000000E+01 Hartree
-          fftalg         512
           irdden           1
           irdwfk           1
           istwfk        1
              ixc     -116133
           kptopt           0
P           mkmem           1
P          mkqmem           1
P          mk1mem           1
            natom           3
            nband          17
           nbdbuf           4
            ngfft          45      45      45
             nkpt           1
            nstep         100
             nsym           8
           ntypat           3
              occ      2.000000  2.000000  2.000000  2.000000  2.000000  2.000000
                       2.000000  2.000000  0.000000  0.000000  0.000000  0.000000
                       0.000000  0.000000  0.000000  0.000000  0.000000
        optdriver           1
            prtwf          -1
            rfdir           1       1       1
           rfelfd           2
            rprim      5.8384857364E+00  0.0000000000E+00 -3.9960454801E+00
                      -1.6237519472E+00  5.6081499007E+00 -3.9960454801E+00
                       0.0000000000E+00  0.0000000000E+00  7.0750473619E+00
          spgroup         107
           symrel      1  0  0   0  1  0   0  0  1       0  0 -1   1  1  1  -1  0  0
                       0  1  0   1  0  0  -1 -1 -1       1  1  1   0  0 -1   0 -1  0
                       0  1  0   1  0  0   0  0  1       0  0 -1   1  1  1   0 -1  0
                       1  0  0   0  1  0  -1 -1 -1       1  1  1   0  0 -1  -1  0  0
           tolwfr      1.00000000E-20
            typat      1  2  3
           useylm           1
           xangst      2.1132191614E+00  2.8118620114E+00 -4.0071427049E+00
                       8.0065452529E-01  1.0653556834E+00 -1.5182225293E+00
                       1.2122572772E+00  1.6130367583E+00 -2.2987146783E+00
            xcart      3.9934054737E+00  5.3136491250E+00 -7.5724022876E+00
                       1.5130177798E+00  2.0132304758E+00 -2.8690247892E+00
                       2.2908342564E+00  3.0481977155E+00 -4.3439411996E+00
             xred      9.4748700000E-01  9.4748700000E-01  0.0000000000E+00
                       3.5898300000E-01  3.5898300000E-01  2.7755575616E-17
                       5.4353000000E-01  5.4353000000E-01  5.5511151231E-17
            znucl       20.00000    1.00000    7.00000

 chkinp: Checking input parameters for consistency.

== DATASET  1 ==================================================================
-   mpi_nproc: 1, omp_nthreads: -1 (-1 if OMP is not activated)

--- !DatasetInfo
iteration_state: {dtset: 1, }
dimensions: {natom: 3, nkpt: 1, mband: 17, nsppol: 1, nspinor: 1, nspden: 1, mpw: 3055, }
cutoff_energies: {ecut:  42.0, pawecutdg:  -1.0, }
electrons: {nelect:   1.60000000E+01, charge:   0.00000000E+00, occopt:   1.00000000E+00, tsmear:   1.00000000E-02, }
meta: {optdriver: 1, rfelfd: 2, }
...

 Real(R)+Recip(G) space primitive vectors, cartesian coordinates (Bohr,Bohr^-1):
 R(1)=  5.8384857  0.0000000 -3.9960455  G(1)=  0.1712773  0.0495907  0.0000000
 R(2)= -1.6237519  5.6081499 -3.9960455  G(2)=  0.0000000  0.1783119  0.0000000
 R(3)=  0.0000000  0.0000000  7.0750474  G(3)=  0.0967388  0.1287213  0.1413418
 Unit cell volume ucvol=  2.3165901E+02 bohr^3
 Angles (23,13,12)=  1.24388980E+02  1.24388980E+02  8.25525622E+01 degrees

 getcut: wavevector=  0.0000  0.0000  0.0000  ngfft=  45  45  45
         ecut(hartree)=     42.000   => boxcut(ratio)=   2.13305

--- Pseudopotential description ------------------------------------------------
- pspini: atom type   1  psp file is /scratch/users/j/a/jabreu/pseudos/PBEsol/Ca.psp8
- pspatm: opening atomic psp file    /scratch/users/j/a/jabreu/pseudos/PBEsol/Ca.psp8
- Ca    ONCVPSP-3.3.0  r_core=   1.45885   1.45885   1.85192
- 20.00000  10.00000    180112                znucl, zion, pspdat
    8 -116133    2    4       400   0.00000   pspcod,pspxc,lmax,lloc,mmax,r2well
    3.99000000000000    6.00000000000000    0.00000000000000   rchrg,fchrg,qchrg
     nproj     2     2     2
     extension_switch     1
  pspatm : epsatm=   12.46045226
         --- l  ekb(1:nproj) -->
             0   10.054847    0.973777
             1    2.998958    0.458102
             2   -3.447298   -1.091650
 pspatm: atomic psp has been read  and splines computed

- pspini: atom type   2  psp file is /scratch/users/j/a/jabreu/pseudos/PBEsol/H.psp8
- pspatm: opening atomic psp file    /scratch/users/j/a/jabreu/pseudos/PBEsol/H.psp8
- H     ONCVPSP-3.3.0  r_core=   1.00957   0.70586
-  1.00000   1.00000    180112                znucl, zion, pspdat
    8 -116133    1    4       300   0.00000   pspcod,pspxc,lmax,lloc,mmax,r2well
    2.99000000000000    0.00000000000000    0.00000000000000   rchrg,fchrg,qchrg
     nproj     2     1
     extension_switch     1
  pspatm : epsatm=    0.35627032
         --- l  ekb(1:nproj) -->
             0   -1.674911   -0.523609
             1   -0.494138
 pspatm: atomic psp has been read  and splines computed

- pspini: atom type   3  psp file is /scratch/users/j/a/jabreu/pseudos/PBEsol/N.psp8
- pspatm: opening atomic psp file    /scratch/users/j/a/jabreu/pseudos/PBEsol/N.psp8
- N     ONCVPSP-3.3.0  r_core=   1.20551   1.35824
-  7.00000   5.00000    180112                znucl, zion, pspdat
    8 -116133    1    4       600   0.00000   pspcod,pspxc,lmax,lloc,mmax,r2well
    5.99000000000000    4.00000000000000    0.00000000000000   rchrg,fchrg,qchrg
     nproj     2     2
     extension_switch     1
  pspatm : epsatm=    5.26508895
         --- l  ekb(1:nproj) -->
             0    7.464189    0.625868
             1   -4.309714   -1.012941
 pspatm: atomic psp has been read  and splines computed

   2.89308985E+02                                ecore*ucvol(ha*bohr**3)

-inwffil : will read wavefunctions from disk file /scratch/users/j/a/jabreu/flow_simple/flow/w99/t1/indata/in_WFK

 ==>  initialize data related to q vector <==

 The list of irreducible perturbations for this q vector is:
    1)    idir= 1    ipert=   4
    2)    idir= 2    ipert=   4
    3)    idir= 3    ipert=   4

 Perturbation wavevector (in red.coord.)   0.000000  0.000000  0.000000
 Perturbation : derivative vs k along direction   1

 dfpt_looppert : COMMENT -
  In a d/dk calculation, iscf is set to -3 automatically.
 The set of symmetries contains only one element for this perturbation.
 symkpt : not enough symmetry to change the number of k points.

[...]

 Initialisation of the first-order wave-functions :
  ireadwf=   0

--- !BeginCycle
iteration_state: {dtset: 1, }
solver: {iscf: 7, nstep: 100, nline: 4, wfoptalg: 0, }
tolerances: {tolwfr: 1.00E-20, }
...

     iter   2DEtotal(Ha)        deltaE(Ha) residm    vres2
-ETOT  1  -27.997124585156     -2.800E+01 1.823E-02 0.000E+00
 ETOT  2  -28.000394986397     -3.270E-03 6.727E-05 0.000E+00
 ETOT  3  -28.000398613925     -3.628E-06 1.044E-07 0.000E+00
 ETOT  4  -28.000398619268     -5.343E-09 9.421E-10 0.000E+00
 ETOT  5  -28.000398619277     -8.924E-12 2.707E-12 0.000E+00
 ETOT  6  -28.000398619277     -7.105E-15 3.087E-14 0.000E+00
 ETOT  7  -28.000398619277     -3.553E-14 9.258E-17 0.000E+00
 ETOT  8  -28.000398619277      4.263E-14 1.142E-18 0.000E+00
 ETOT  9  -28.000398619277     -7.105E-15 7.004E-21 0.000E+00

 At SCF step    9   max residual=  7.00E-21 < tolwfr=  1.00E-20 =>converged.

 ----iterations are completed or convergence reached----

 dfpt_looppert: DFPT cycle converged with prtwf=-1. Will skip output of the 1st-order WFK file.
 dfpt_looppert : ek2=    4.0167100992E+01
          f-sum rule ratio=    1.5360691231E+00
 prteigrs : about to open file /scratch/users/j/a/jabreu/flow_simple/flow/w99/t1/tmpdata/tmp_1WF1_EIG
 Expectation of eigenvalue derivatives (hartree) for nkpt=   1  k points:
  (in case of degenerate eigenvalues, averaged derivative)
 kpt#   1, nband= 17, wtk=  1.00000, kpt=  0.0000  0.0000  0.0000 (reduced coord)
  -0.00000   -0.00000    0.00000    0.00000   -0.00000    0.00000   -0.00000   -0.00000
  -0.00000    0.00000   -0.00000   -0.00000   -0.00000    0.00000    0.00000   -0.00021
   0.00000

 Eight components of 2nd-order total energy (hartree) are
 1,2,3: 0th-order hamiltonian combined with 1st-order wavefunctions
     kin0=   1.37183712E+01 eigvalue=  -1.46095776E-02  local=  -5.84794664E+00
 4,5,6: 1st-order hamiltonian combined with 1st and 0th-order wfs
     kin1=  -6.16994436E+01  Hartree=   0.00000000E+00     xc=   0.00000000E+00
 7,8,9: eventually, occupation + non-local contributions
    edocc=   2.05650985E+01     enl0=  -4.20514787E-01   enl1=   5.69864636E+00
 1-9 gives the relaxation energy (to be shifted if some occ is /=2.0)
   erelax=  -2.80003986E+01
  No Ewald or frozen-wf contrib.: the relaxation energy is the total one
 2DEtotal=   -0.2800039862E+02 Ha. Also 2DEtotal=   -0.761929595062E+03 eV
    (  non-var. 2DEtotal :   -2.8000398619E+01 Ha)

 Perturbation wavevector (in red.coord.)   0.000000  0.000000  0.000000
 Perturbation : derivative vs k along direction   2
 The set of symmetries contains only one element for this perturbation.
 symkpt : not enough symmetry to change the number of k points.

[...]

 Perturbation wavevector (in red.coord.)   0.000000  0.000000  0.000000
 Perturbation : derivative vs k along direction   3
 The set of symmetries contains only one element for this perturbation.
 symkpt : not enough symmetry to change the number of k points.

-inwffil : will read wavefunctions from disk file /scratch/users/j/a/jabreu/flow_simple/flow/w99/t1/indata/in_WFK

 Initialisation of the first-order wave-functions :
  ireadwf=   0

--- !BeginCycle
iteration_state: {dtset: 1, }
solver: {iscf: 7, nstep: 100, nline: 4, wfoptalg: 0, }
tolerances: {tolwfr: 1.00E-20, }
...

     iter   2DEtotal(Ha)        deltaE(Ha) residm    vres2
-ETOT  1  -42.074767476488     -4.207E+01 4.041E-02 0.000E+00
 ETOT  2  -42.079844201829     -5.077E-03 5.167E-05 0.000E+00
 ETOT  3  -42.079845606590     -1.405E-06 6.047E-08 0.000E+00
 ETOT  4  -42.079845607554     -9.637E-10 3.006E-10 0.000E+00
 ETOT  5  -42.079845607555     -1.172E-12 5.388E-13 0.000E+00
 ETOT  6  -42.079845607555     -2.132E-14 5.074E-15 0.000E+00
 ETOT  7  -42.079845607555      2.132E-14 1.019E-17 0.000E+00
 ETOT  8  -42.079845607555      4.974E-14 1.048E-19 0.000E+00
 ETOT  9  -42.079845607555     -2.842E-14 9.483E-21 0.000E+00

 At SCF step    9   max residual=  9.48E-21 < tolwfr=  1.00E-20 =>converged.

 ----iterations are completed or convergence reached----

 dfpt_looppert: DFPT cycle converged with prtwf=-1. Will skip output of the 1st-order WFK file.
 dfpt_looppert : ek2=    5.7992310120E+01
          f-sum rule ratio=    1.6096981967E+00
 prteigrs : about to open file /scratch/users/j/a/jabreu/flow_simple/flow/w99/t1/tmpdata/tmp_1WF1_EIG
 Expectation of eigenvalue derivatives (hartree) for nkpt=   1  k points:
  (in case of degenerate eigenvalues, averaged derivative)
 kpt#   1, nband= 17, wtk=  1.00000, kpt=  0.0000  0.0000  0.0000 (reduced coord)
  -0.00000    0.00000   -0.00000   -0.00000    0.00000   -0.00000    0.00000    0.00000
  -0.00000   -0.00000    0.00000    0.00000    0.00000    0.00000   -0.00000    0.00157
   0.00000

 Eight components of 2nd-order total energy (hartree) are
 1,2,3: 0th-order hamiltonian combined with 1st-order wavefunctions
     kin0=   1.95810068E+01 eigvalue=  -3.23959358E-02  local=  -8.18018734E+00
 4,5,6: 1st-order hamiltonian combined with 1st and 0th-order wfs
     kin1=  -9.33501170E+01  Hartree=   0.00000000E+00     xc=   0.00000000E+00
 7,8,9: eventually, occupation + non-local contributions
    edocc=   3.13294345E+01     enl0=  -6.18012454E-01   enl1=   9.19042580E+00
 1-9 gives the relaxation energy (to be shifted if some occ is /=2.0)
   erelax=  -4.20798456E+01
  No Ewald or frozen-wf contrib.: the relaxation energy is the total one
 2DEtotal=   -0.4207984561E+02 Ha. Also 2DEtotal=   -0.114505083160E+04 eV
    (  non-var. 2DEtotal :   -4.2079845607E+01 Ha)

 CALCULATION OF EFFECTIVE MASSES
 NOTE : Additional infos (eff. mass eigenvalues, eigenvectors and, if degenerate, average mass) are available in stdout.

 COMMENTS:
 - At k-point ( 0.000, 0.000, 0.000), bands     7 through     8
   are DEGENERATE (effective mass tensor is therefore not defined).
   See Section IIIB Eqs. (67)-(70) and Appendix E of PRB 93 205147 (2016).
 - Angular average effective mass for Frohlich model is to be averaged over degenerate bands. See later.
 - Associated theta integrals calculated with ntheta=   1000 points.

 K-point ( 0.000, 0.000, 0.000) | band =     7
 Transport equivalent effective mass tensor:
             -1.1822471735             -1.1807456548              1.6826262382
             -1.1807456548             -1.8662667103              2.2391834560
              1.6826262382              2.2391834560             -3.4859491239
 Transport equivalent effective mass tensor eigenvalues:
             -5.9445053544             -0.2949834885             -0.2949741647
 Angular average effective mass 1/(<1/m>)=  -0.4314341766
 Angular average effective mass for Frohlich model (<m**0.5>)**2=  -0.5620561960
 Effective masses along directions: (cart. coord. / red. coord. -> eff. mass)
    1:   1.000000  0.000000  0.000000 /   0.963435 -0.267943  0.000000 ->  -0.3437190636
    2:   0.000000  1.000000  0.000000 /   0.000000  1.000000  0.000000 ->  -0.3941049214
    3:   0.000000  0.000000  1.000000 /  -0.441308 -0.441308  0.781341 ->  -0.6468674560
    4:   0.577350  0.577350  0.577350 /   0.252009 -0.001593  0.967724 ->  -0.3022253124
    5:   0.000000  0.707107  0.707107 /  -0.482385  0.194606  0.854069 ->  -0.3008552674
    6:   0.707107  0.000000  0.707107 /   0.199802 -0.609434  0.767248 ->  -0.3093706069
    7:   0.707107  0.707107  0.000000 /   0.825989  0.563686  0.000000 ->  -0.5018404870

 K-point ( 0.000, 0.000, 0.000) | band =     8
 Transport equivalent effective mass tensor:
             -2.1610230273             -0.9760313513              1.3909326123
             -0.9760313513             -2.7262147591              1.8507806064
              1.3909326123              1.8507806064             -4.0650154417
 Transport equivalent effective mass tensor eigenvalues:
             -6.0972583373             -1.4275006589             -1.4274942318
 Angular average effective mass 1/(<1/m>)=  -1.8833070901
 Angular average effective mass for Frohlich model (<m**0.5>)**2=  -2.0812211285
 Effective masses along directions: (cart. coord. / red. coord. -> eff. mass)
    1:   1.000000  0.000000  0.000000 /   0.963435 -0.267943  0.000000 ->  -1.6565425577
    2:   0.000000  1.000000  0.000000 /   0.000000  1.000000  0.000000 ->  -1.9249660483
    3:   0.000000  0.000000  1.000000 /  -0.441308 -0.441308  0.781341 ->  -2.3219197504
    4:   0.577350  0.577350  0.577350 /   0.252009 -0.001593  0.967724 ->  -1.3178795417
    5:   0.000000  0.707107  0.707107 /  -0.482385  0.194606  0.854069 ->  -1.4570502097
    6:   0.707107  0.000000  0.707107 /   0.199802 -0.609434  0.767248 ->  -1.5756465566
    7:   0.707107  0.707107  0.000000 /   0.825989  0.563686  0.000000 ->  -1.9811628153

 Angular average effective mass for Frohlich model, averaged over degenerate bands.
 Value of     (<<m**0.5>>)**2 =     1.201597E+00
 Absolute Value of <<m**0.5>> =     1.096174E+00

 K-point ( 0.000, 0.000, 0.000) | band =     9
 Effective mass tensor:
              0.3546397260             -0.0193193402              0.0275291707
             -0.0193193402              0.3434508143              0.0366321366
              0.0275291707              0.0366321366              0.3169592074
 Effective mass tensor eigenvalues:
              0.2767330857              0.3691582818              0.3691583801
 Angular average effective mass 1/(<1/m>)=   0.3321773607
 Angular average effective mass for Frohlich model (<m**0.5>)**2=   0.3341076462
 Effective masses along directions: (cart. coord. / red. coord. -> eff. mass)
    1:   1.000000  0.000000  0.000000 /   0.963435 -0.267943  0.000000 ->   0.3507561697
    2:   0.000000  1.000000  0.000000 /   0.000000  1.000000  0.000000 ->   0.3377797832
    3:   0.000000  0.000000  1.000000 /  -0.441308 -0.441308  0.781341 ->   0.3105756166
    4:   0.577350  0.577350  0.577350 /   0.252009 -0.001593  0.967724 ->   0.3679433856
    5:   0.000000  0.707107  0.707107 /  -0.482385  0.194606  0.854069 ->   0.3660876447
    6:   0.707107  0.000000  0.707107 /   0.199802 -0.609434  0.767248 ->   0.3615420542
    7:   0.707107  0.707107  0.000000 /   0.825989  0.563686  0.000000 ->   0.3231166232

 END OF EFFECTIVE MASSES SECTION

 ---- first-order wavefunction calculations are completed ----

 Total localisation tensor (bohr^2) in cartesian coordinates
  WARNING : still subject to testing - especially symmetries.
      direction              matrix element
   alpha     beta       real part   imaginary part
     1        1       2.8634962148    0.0000000000
     1        2      -0.7100361999    0.0000000000
     1        3      -1.3132315465    0.0000000000
     2        1      -0.7100361999    0.0000000000
     2        2       2.4523385181    0.0000000000
     2        3      -1.7473955626    0.0000000000
     3        1      -1.3132315465    0.0000000000
     3        2      -1.7473955626    0.0000000000
     3        3       8.9415232881    0.0000000000

 respfn : d/dk was computed, but no 2DTE, so no DDB output.

== END DATASET(S) ==============================================================

 -outvars: echo values of variables after computation  --------
            acell      1.0000000000E+00  1.0000000000E+00  1.0000000000E+00 Bohr
              amu      4.00780000E+01  1.00794000E+00  1.40067400E+01
             ecut      4.20000000E+01 Hartree
           etotal     -4.2079845608E+01
            fcart      0.0000000000E+00  0.0000000000E+00  0.0000000000E+00
                       0.0000000000E+00  0.0000000000E+00  0.0000000000E+00
                       0.0000000000E+00  0.0000000000E+00  0.0000000000E+00
-          fftalg         512
           irdden           1
           irdwfk           1
           istwfk        1
              ixc     -116133
           kptopt           0
P           mkmem           1
P          mkqmem           1
P          mk1mem           1
            natom           3
            nband          17
           nbdbuf           4
            ngfft          45      45      45
             nkpt           1
            nstep         100
             nsym           8
           ntypat           3
              occ      2.000000  2.000000  2.000000  2.000000  2.000000  2.000000
                       2.000000  2.000000  0.000000  0.000000  0.000000  0.000000
                       0.000000  0.000000  0.000000  0.000000  0.000000
        optdriver           1
            prtwf          -1
            rfdir           1       1       1
           rfelfd           2
            rprim      5.8384857364E+00  0.0000000000E+00 -3.9960454801E+00
                      -1.6237519472E+00  5.6081499007E+00 -3.9960454801E+00
                       0.0000000000E+00  0.0000000000E+00  7.0750473619E+00
          spgroup         107
           strten      0.0000000000E+00  0.0000000000E+00  0.0000000000E+00
                       0.0000000000E+00  0.0000000000E+00  0.0000000000E+00
           symrel      1  0  0   0  1  0   0  0  1       0  0 -1   1  1  1  -1  0  0
                       0  1  0   1  0  0  -1 -1 -1       1  1  1   0  0 -1   0 -1  0
                       0  1  0   1  0  0   0  0  1       0  0 -1   1  1  1   0 -1  0
                       1  0  0   0  1  0  -1 -1 -1       1  1  1   0  0 -1  -1  0  0
           tolwfr      1.00000000E-20
            typat      1  2  3
           useylm           1
           xangst      2.1132191614E+00  2.8118620114E+00 -4.0071427049E+00
                       8.0065452529E-01  1.0653556834E+00 -1.5182225293E+00
                       1.2122572772E+00  1.6130367583E+00 -2.2987146783E+00
            xcart      3.9934054737E+00  5.3136491250E+00 -7.5724022876E+00
                       1.5130177798E+00  2.0132304758E+00 -2.8690247892E+00
                       2.2908342564E+00  3.0481977155E+00 -4.3439411996E+00
             xred      9.4748700000E-01  9.4748700000E-01  0.0000000000E+00
                       3.5898300000E-01  3.5898300000E-01  2.7755575616E-17
                       5.4353000000E-01  5.4353000000E-01  5.5511151231E-17
            znucl       20.00000    1.00000    7.00000

- Timing analysis has been suppressed with timopt=0

 Suggested references for the acknowledgment of ABINIT usage.

 Calculation completed.
.Delivered   6 WARNINGs and   5 COMMENTs to log file.