.Version 9.5.1 of ABINIT

 ABINIT is a project of the Universite Catholique de Louvain,
 Corning Inc. and other collaborators, see ~abinit/doc/developers/contributors.txt .
 acknowledgments of the ABINIT effort.

.Starting date : Wed 19 May 2021.
- ( at 07h48 )

- input  file    -> /scratch/users/j/a/jabreu/flow_simple_9atoms/flow/w120/t1/run.abi
- output file    -> /scratch/users/j/a/jabreu/flow_simple_9atoms/flow/w120/t1/run.abo
- root for input  files -> /scratch/users/j/a/jabreu/flow_simple_9atoms/flow/w120/t1/indata/in
- root for output files -> /scratch/users/j/a/jabreu/flow_simple_9atoms/flow/w120/t1/outdata/out

 Symmetries : space group Fm -3 m (#225); Bravais cF (face-center cubic)
     intxc =       0      iscf =       7    lmnmax =      18     lnmax =       6
     mgfft =      64  mpssoang =       3    mqgrid =    3001     natom =       9
  nloc_mem =       1    nspden =       1   nspinor =       1    nsppol =       1
      nsym =      48    n1xccc =    2501    ntypat =       3    occopt =       1
   xclevel =       2
-    mband =          41        mffmem =           1         mkmem =           1
-   mkqmem =           1        mk1mem =           1           mpw =       11575
      nfft =      262144          nkpt =           1
  Rough estimation (10% accuracy) of disk space for files :

------------- Echo of variables that govern the present computation ------------
-
- outvars: echo of selected default values
-   iomode0 =  0 , fftalg0 =512 , wfoptalg0 =  0
-
- outvars: echo of global parameters not present in the input file
-  max_nthreads =    0
-
 -outvars: echo values of preprocessed input variables --------
            acell      1.0000000000E+00  1.0000000000E+00  1.0000000000E+00 Bohr
              amu      3.90983000E+01  2.80855000E+01  1.89984032E+01
             ecut      4.20000000E+01 Hartree
-          fftalg         512
           irdden           1
           irdwfk           1
           istwfk        1
              ixc     -116133
           kptopt           0
P           mkmem           1
P          mkqmem           1
P          mk1mem           1
            natom           9
            nband          41
           nbdbuf           4
            ngfft          64      64      64
             nkpt           1
            nstep        2000
             nsym          48
           ntypat           3
              occ      2.000000  2.000000  2.000000  2.000000  2.000000  2.000000
                       2.000000  2.000000  2.000000  2.000000  2.000000  2.000000
                       2.000000  2.000000  2.000000  2.000000  2.000000  2.000000
                       2.000000  2.000000  2.000000  2.000000  2.000000  2.000000
                       2.000000  2.000000  2.000000  2.000000  2.000000  2.000000
                       2.000000  2.000000  0.000000  0.000000  0.000000  0.000000
                       0.000000  0.000000  0.000000  0.000000  0.000000
        optdriver           1
            prtwf          -1
            rfdir           1       1       1
           rfelfd           2
            rprim      9.3508228143E+00  0.0000000000E+00  5.3987000690E+00
                       3.1169409381E+00  8.8160402955E+00  5.3987000690E+00
                       0.0000000000E+00  0.0000000000E+00  1.0797400138E+01
          spgroup         225
           symrel      1  0  0   0  1  0   0  0  1      -1  0  0   0 -1  0   0  0 -1
                       0 -1  1   0 -1  0   1 -1  0       0  1 -1   0  1  0  -1  1  0
                      -1  0  0  -1  0  1  -1  1  0       1  0  0   1  0 -1   1 -1  0
                       0  1 -1   1  0 -1   0  0 -1       0 -1  1  -1  0  1   0  0  1
                      -1  0  0  -1  1  0  -1  0  1       1  0  0   1 -1  0   1  0 -1
                       0 -1  1   1 -1  0   0 -1  0       0  1 -1  -1  1  0   0  1  0
                       1  0  0   0  0  1   0  1  0      -1  0  0   0  0 -1   0 -1  0
                       0  1 -1   0  0 -1   1  0 -1       0 -1  1   0  0  1  -1  0  1
                      -1  0  1  -1  1  0  -1  0  0       1  0 -1   1 -1  0   1  0  0
                       0 -1  0   1 -1  0   0 -1  1       0  1  0  -1  1  0   0  1 -1
                       1  0 -1   0  0 -1   0  1 -1      -1  0  1   0  0  1   0 -1  1
                       0  1  0   0  0  1   1  0  0       0 -1  0   0  0 -1  -1  0  0
                       1  0 -1   0  1 -1   0  0 -1      -1  0  1   0 -1  1   0  0  1
                       0 -1  0   0 -1  1   1 -1  0       0  1  0   0  1 -1  -1  1  0
                      -1  0  1  -1  0  0  -1  1  0       1  0 -1   1  0  0   1 -1  0
                       0  1  0   1  0  0   0  0  1       0 -1  0  -1  0  0   0  0 -1
                       0  0 -1   0  1 -1   1  0 -1       0  0  1   0 -1  1  -1  0  1
                       1 -1  0   0 -1  1   0 -1  0      -1  1  0   0  1 -1   0  1  0
                       0  0  1   1  0  0   0  1  0       0  0 -1  -1  0  0   0 -1  0
                      -1  1  0  -1  0  0  -1  0  1       1 -1  0   1  0  0   1  0 -1
                       0  0  1   0  1  0   1  0  0       0  0 -1   0 -1  0  -1  0  0
                       1 -1  0   0 -1  0   0 -1  1      -1  1  0   0  1  0   0  1 -1
                       0  0 -1   1  0 -1   0  1 -1       0  0  1  -1  0  1   0 -1  1
                      -1  1  0  -1  0  1  -1  0  0       1 -1  0   1  0 -1   1  0  0
           tolwfr      1.00000000E-20
            typat      1  1  2  3  3  3  3  3  3
           useylm           1
           xangst      1.6494141050E+00  1.1663118986E+00  2.8568690325E+00
                       4.9482423149E+00  3.4989356958E+00  8.5706070975E+00
                       0.0000000000E+00  0.0000000000E+00  0.0000000000E+00
                       4.2536905294E+00  9.8224455476E-01  4.0598680134E+00
                       1.3891035709E+00  9.8224455476E-01  5.7137380650E+00
                       5.2085528489E+00  3.6830030396E+00  5.7137380650E+00
                       2.3439658904E+00  3.6830030396E+00  7.3676081166E+00
                       4.2536905294E+00  9.8224455476E-01  7.3676081166E+00
                       2.3439658904E+00  3.6830030396E+00  4.0598680134E+00
            xcart      3.1169409381E+00  2.2040100739E+00  5.3987000690E+00
                       9.3508228143E+00  6.6120302216E+00  1.6196100207E+01
                       0.0000000000E+00  0.0000000000E+00  0.0000000000E+00
                       8.0383101547E+00  1.8561732040E+00  7.6720386810E+00
                       2.6250253192E+00  1.8561732040E+00  1.0797400138E+01
                       9.8427384332E+00  6.9598670915E+00  1.0797400138E+01
                       4.4294535977E+00  6.9598670915E+00  1.3922761595E+01
                       8.0383101547E+00  1.8561732040E+00  1.3922761595E+01
                       4.4294535977E+00  6.9598670915E+00  7.6720386810E+00
             xred      2.5000000000E-01  2.5000000000E-01  2.5000000000E-01
                       7.5000000000E-01  7.5000000000E-01  7.5000000000E-01
                       0.0000000000E+00  0.0000000000E+00  0.0000000000E+00
                       7.8945500000E-01  2.1054500000E-01  2.1054500000E-01
                       2.1054500000E-01  2.1054500000E-01  7.8945500000E-01
                       7.8945500000E-01  7.8945500000E-01  2.1054500000E-01
                       2.1054500000E-01  7.8945500000E-01  7.8945500000E-01
                       7.8945500000E-01  2.1054500000E-01  7.8945500000E-01
                       2.1054500000E-01  7.8945500000E-01  2.1054500000E-01
            znucl       19.00000   14.00000    9.00000

 chkinp: Checking input parameters for consistency.

== DATASET  1 ==================================================================
-   mpi_nproc: 1, omp_nthreads: -1 (-1 if OMP is not activated)

--- !DatasetInfo
iteration_state: {dtset: 1, }
dimensions: {natom: 9, nkpt: 1, mband: 41, nsppol: 1, nspinor: 1, nspden: 1, mpw: 11575, }
cutoff_energies: {ecut:  42.0, pawecutdg:  -1.0, }
electrons: {nelect:   6.40000000E+01, charge:   0.00000000E+00, occopt:   1.00000000E+00, tsmear:   1.00000000E-02, }
meta: {optdriver: 1, rfelfd: 2, }
...

 Real(R)+Recip(G) space primitive vectors, cartesian coordinates (Bohr,Bohr^-1):
 R(1)=  9.3508228  0.0000000  5.3987001  G(1)=  0.1069425 -0.0378099  0.0000000
 R(2)=  3.1169409  8.8160403  5.3987001  G(2)=  0.0000000  0.1134296  0.0000000
 R(3)=  0.0000000  0.0000000 10.7974001  G(3)= -0.0534712 -0.0378099  0.0926149
 Unit cell volume ucvol=  8.9010777E+02 bohr^3
 Angles (23,13,12)=  6.00000000E+01  6.00000000E+01  6.00000000E+01 degrees

 getcut: wavevector=  0.0000  0.0000  0.0000  ngfft=  64  64  64
         ecut(hartree)=     42.000   => boxcut(ratio)=   2.03175

--- Pseudopotential description ------------------------------------------------
- pspini: atom type   1  psp file is /scratch/users/j/a/jabreu/pseudos/PBEsol/K.psp8
- pspatm: opening atomic psp file    /scratch/users/j/a/jabreu/pseudos/PBEsol/K.psp8
- K     ONCVPSP-3.3.0  r_core=   1.36296   1.46408   1.61068
- 19.00000   9.00000    180112                znucl, zion, pspdat
    8 -116133    2    4       400   0.00000   pspcod,pspxc,lmax,lloc,mmax,r2well
    3.99000000000000    5.00000000000000    0.00000000000000   rchrg,fchrg,qchrg
     nproj     2     2     2
     extension_switch     1
  pspatm : epsatm=    8.32487830
         --- l  ekb(1:nproj) -->
             0   10.921326    0.816676
             1    4.431000    0.560368
             2   -3.384038   -1.043186
 pspatm: atomic psp has been read  and splines computed

- pspini: atom type   2  psp file is /scratch/users/j/a/jabreu/pseudos/PBEsol/Si.psp8
- pspatm: opening atomic psp file    /scratch/users/j/a/jabreu/pseudos/PBEsol/Si.psp8
- Si    ONCVPSP-3.3.0  r_core=   1.60303   1.72197   1.91712
- 14.00000   4.00000    180112                znucl, zion, pspdat
    8 -116133    2    4       600   0.00000   pspcod,pspxc,lmax,lloc,mmax,r2well
    5.99000000000000    4.00000000000000    0.00000000000000   rchrg,fchrg,qchrg
     nproj     2     2     2
     extension_switch     1
  pspatm : epsatm=    7.86468782
         --- l  ekb(1:nproj) -->
             0    5.384426    0.843824
             1    2.663259    0.615854
             2   -2.267219   -0.458043
 pspatm: atomic psp has been read  and splines computed

- pspini: atom type   3  psp file is /scratch/users/j/a/jabreu/pseudos/PBEsol/F.psp8
- pspatm: opening atomic psp file    /scratch/users/j/a/jabreu/pseudos/PBEsol/F.psp8
- F     ONCVPSP-3.3.0  r_core=   1.30942   1.45782   1.60379
-  9.00000   7.00000    180112                znucl, zion, pspdat
    8 -116133    2    4       600   0.00000   pspcod,pspxc,lmax,lloc,mmax,r2well
    5.99000000000000    2.50000000000000    0.00000000000000   rchrg,fchrg,qchrg
     nproj     2     2     1
     extension_switch     1
  pspatm : epsatm=    4.89824824
         --- l  ekb(1:nproj) -->
             0    6.506434    1.065875
             1   -3.978753   -1.295852
             2   -2.394754
 pspatm: atomic psp has been read  and splines computed

   3.44985177E+03                                ecore*ucvol(ha*bohr**3)

[...]
...

     iter   2DEtotal(Ha)        deltaE(Ha) residm    vres2
-ETOT  1  -34.327978551223     -3.433E+01 1.133E-01 0.000E+00
 ETOT  2  -34.368951648678     -4.097E-02 3.502E-03 0.000E+00
 ETOT  3  -34.369207050849     -2.554E-04 6.712E-04 0.000E+00
 ETOT  4  -34.369209896885     -2.846E-06 1.464E-04 0.000E+00
 ETOT  5  -34.369209937439     -4.055E-08 5.295E-05 0.000E+00
 ETOT  6  -34.369209938108     -6.695E-10 7.761E-06 0.000E+00
 ETOT  7  -34.369209938121     -1.226E-11 4.620E-06 0.000E+00
 ETOT  8  -34.369209938121     -2.345E-13 7.365E-07 0.000E+00
 ETOT  9  -34.369209938121     -1.421E-14 4.389E-07 0.000E+00
 ETOT 10  -34.369209938121      2.132E-14 7.466E-08 0.000E+00
 ETOT 11  -34.369209938121     -7.105E-15 4.257E-08 0.000E+00
 ETOT 12  -34.369209938121     -1.421E-14 7.572E-09 0.000E+00
 ETOT 13  -34.369209938121      7.105E-15 4.181E-09 0.000E+00
 ETOT 14  -34.369209938121      0.000E+00 7.669E-10 0.000E+00
 ETOT 15  -34.369209938121      0.000E+00 4.137E-10 0.000E+00
 ETOT 16  -34.369209938121      0.000E+00 7.765E-11 0.000E+00
 ETOT 17  -34.369209938121      0.000E+00 4.112E-11 0.000E+00
 ETOT 18  -34.369209938121      0.000E+00 7.867E-12 0.000E+00
 ETOT 19  -34.369209938121     -7.105E-15 4.099E-12 0.000E+00
 ETOT 20  -34.369209938121      7.105E-15 7.977E-13 0.000E+00
 ETOT 21  -34.369209938121     -1.421E-14 4.094E-13 0.000E+00
 ETOT 22  -34.369209938121      1.421E-14 8.096E-14 0.000E+00
 ETOT 23  -34.369209938121      0.000E+00 4.096E-14 0.000E+00
 ETOT 24  -34.369209938121      0.000E+00 8.224E-15 0.000E+00
 ETOT 25  -34.369209938121      0.000E+00 4.104E-15 0.000E+00
 ETOT 26  -34.369209938121      0.000E+00 8.361E-16 0.000E+00
 ETOT 27  -34.369209938121      0.000E+00 4.117E-16 0.000E+00
 ETOT 28  -34.369209938121      0.000E+00 8.506E-17 0.000E+00
 ETOT 29  -34.369209938121     -7.105E-15 4.134E-17 0.000E+00
 ETOT 30  -34.369209938121      7.105E-15 8.658E-18 0.000E+00
 ETOT 31  -34.369209938121      0.000E+00 4.155E-18 0.000E+00
 ETOT 32  -34.369209938121     -1.421E-14 8.818E-19 0.000E+00
 ETOT 33  -34.369209938121     -7.105E-15 4.181E-19 0.000E+00
 ETOT 34  -34.369209938121      2.132E-14 8.984E-20 0.000E+00
 ETOT 35  -34.369209938121     -7.105E-15 4.210E-20 0.000E+00
 ETOT 36  -34.369209938121     -7.105E-15 9.950E-21 0.000E+00

 At SCF step   36   max residual=  9.95E-21 < tolwfr=  1.00E-20 =>converged.

 ----iterations are completed or convergence reached----

 dfpt_looppert: DFPT cycle converged with prtwf=-1. Will skip output of the 1st-order WFK file.
 dfpt_looppert : ek2=    6.5016348294E+01
          f-sum rule ratio=    1.0620058065E+00
 prteigrs : about to open file /scratch/users/j/a/jabreu/flow_simple_9atoms/flow/w120/t1/tmpdata/tmp_1WF1_EIG
 Expectation of eigenvalue derivatives (hartree) for nkpt=   1  k points:
  (in case of degenerate eigenvalues, averaged derivative)
 kpt#   1, nband= 41, wtk=  1.00000, kpt=  0.0000  0.0000  0.0000 (reduced coord)
   0.00000    0.00000   -0.00000   -0.00000   -0.00000   -0.00000   -0.00000   -0.00000
  -0.00000   -0.00000   -0.00000   -0.00000   -0.00000   -0.00000   -0.00000    0.00000
   0.00000    0.00000   -0.00000   -0.00000   -0.00000   -0.00000   -0.00000   -0.00000
  -0.00000   -0.00000    0.00000    0.00000    0.00000   -0.00000   -0.00000   -0.00000
  -0.00000   -0.00000   -0.00000    0.00000    0.00000    0.00000   -0.00000    0.00000
   0.00000

 Eight components of 2nd-order total energy (hartree) are
 1,2,3: 0th-order hamiltonian combined with 1st-order wavefunctions
     kin0=   4.46640519E+01 eigvalue=   3.00804488E+00  local=  -2.03626998E+01
 4,5,6: 1st-order hamiltonian combined with 1st and 0th-order wfs
     kin1=  -6.90477394E+01  Hartree=   0.00000000E+00     xc=   0.00000000E+00
 7,8,9: eventually, occupation + non-local contributions
    edocc=   6.82980158E+00     enl0=   2.30011356E-01   enl1=   3.09319528E-01
 1-9 gives the relaxation energy (to be shifted if some occ is /=2.0)
   erelax=  -3.43692099E+01
  No Ewald or frozen-wf contrib.: the relaxation energy is the total one
 2DEtotal=   -0.3436920994E+02 Ha. Also 2DEtotal=   -0.935233764591E+03 eV
    (  non-var. 2DEtotal :   -3.4369209938E+01 Ha)

 CALCULATION OF EFFECTIVE MASSES
 NOTE : Additional infos (eff. mass eigenvalues, eigenvectors and, if degenerate, average mass) are available in stdout.

 COMMENTS:
 - At k-point ( 0.000, 0.000, 0.000), bands    30 through    32
   are DEGENERATE (effective mass tensor is therefore not defined).
   See Section IIIB Eqs. (67)-(70) and Appendix E of PRB 93 205147 (2016).
 - Angular average effective mass for Frohlich model is to be averaged over degenerate bands. See later.
 - Associated theta integrals calculated with ntheta=   1000 points.

 K-point ( 0.000, 0.000, 0.000) | band =    30
 Transport equivalent effective mass tensor:
             -4.2033923047             -0.0000012134             -0.0000000145
             -0.0000012134             -4.2033911416             -0.0000000104
             -0.0000000145             -0.0000000104             -4.2033858646
 Transport equivalent effective mass tensor eigenvalues:
             -4.2033930688             -4.2033903775             -4.2033858646
 Angular average effective mass 1/(<1/m>)=  -4.0176895738
 Angular average effective mass for Frohlich model (<m**0.5>)**2=  -4.0249224923
 Effective masses along directions: (cart. coord. / red. coord. -> eff. mass)
    1:   1.000000  0.000000  0.000000 /   0.948683  0.316228  0.000000 ->  -4.2572313884
    2:   0.000000  1.000000  0.000000 /   0.000000  1.000000  0.000000 ->  -4.7692979521
    3:   0.000000  0.000000  1.000000 /   0.408248  0.408248  0.816497 ->  -3.8444619610
    4:   0.577350  0.577350  0.577350 /   0.585539  0.688047  0.428644 ->  -4.1253746585
    5:   0.000000  0.707107  0.707107 /   0.289489  0.762222  0.578977 ->  -3.8685153816
    6:   0.707107  0.000000  0.707107 /   0.731423  0.422287  0.535439 ->  -3.9739860974
    7:   0.707107  0.707107  0.000000 /   0.616798  0.787122  0.000000 ->  -3.8767069036

[...]

 K-point ( 0.000, 0.000, 0.000) | band =    32
 Transport equivalent effective mass tensor:
            -99.4475763761             -0.0000000833             -0.0000001882
             -0.0000000833            -99.4475762596              0.0000000069
             -0.0000001882              0.0000000069            -99.4475766084
 Transport equivalent effective mass tensor eigenvalues:
            -99.4475767161            -99.4475763403            -99.4475761877
 Angular average effective mass 1/(<1/m>)= -14.1670877291
 Angular average effective mass for Frohlich model (<m**0.5>)**2= -16.6908789922
 Effective masses along directions: (cart. coord. / red. coord. -> eff. mass)
    1:   1.000000  0.000000  0.000000 /   0.948683  0.316228  0.000000 -> -12.2640648164
    2:   0.000000  1.000000  0.000000 /   0.000000  1.000000  0.000000 ->  -8.5699533995
    3:   0.000000  0.000000  1.000000 /   0.408248  0.408248  0.816497 -> -10.9329323180
    4:   0.577350  0.577350  0.577350 /   0.585539  0.688047  0.428644 -> -11.9000287354
    5:   0.000000  0.707107  0.707107 /   0.289489  0.762222  0.578977 -> -19.5432603110
    6:   0.707107  0.000000  0.707107 /   0.731423  0.422287  0.535439 -> -11.6098557179
    7:   0.707107  0.707107  0.000000 /   0.616798  0.787122  0.000000 -> -45.9465718808

 Angular average effective mass for Frohlich model, averaged over degenerate bands.
 Value of     (<<m**0.5>>)**2 =     7.558871E+00
 Absolute Value of <<m**0.5>> =     2.749340E+00

 K-point ( 0.000, 0.000, 0.000) | band =    33
 Effective mass tensor:
              0.5666357366              0.0000000000              0.0000000000
              0.0000000000              0.5666357366              0.0000000000
              0.0000000000              0.0000000000              0.5666357367
 Effective mass tensor eigenvalues:
              0.5666357366              0.5666357366              0.5666357367
 Angular average effective mass 1/(<1/m>)=   0.5666357366
 Angular average effective mass for Frohlich model (<m**0.5>)**2=   0.5666357366
 Effective masses along directions: (cart. coord. / red. coord. -> eff. mass)
    1:   1.000000  0.000000  0.000000 /   0.948683  0.316228  0.000000 ->   0.5666357366
    2:   0.000000  1.000000  0.000000 /   0.000000  1.000000  0.000000 ->   0.5666357366
    3:   0.000000  0.000000  1.000000 /   0.408248  0.408248  0.816497 ->   0.5666357367
    4:   0.577350  0.577350  0.577350 /   0.585539  0.688047  0.428644 ->   0.5666357367
    5:   0.000000  0.707107  0.707107 /   0.289489  0.762222  0.578977 ->   0.5666357367
    6:   0.707107  0.000000  0.707107 /   0.731423  0.422287  0.535439 ->   0.5666357367
    7:   0.707107  0.707107  0.000000 /   0.616798  0.787122  0.000000 ->   0.5666357366

 END OF EFFECTIVE MASSES SECTION

 ---- first-order wavefunction calculations are completed ----

 Total localisation tensor (bohr^2) in cartesian coordinates
  WARNING : still subject to testing - especially symmetries.
      direction              matrix element
   alpha     beta       real part   imaginary part
     1        1       0.6343673748    0.0000000000
     1        2       0.1794268041    0.0000000000
     1        3       0.4395028606    0.0000000000
     2        1       0.1794268041    0.0000000000
     2        2       0.5074956397    0.0000000000
     2        3       0.3107763410    0.0000000000
     3        1       0.4395028606    0.0000000000
     3        2       0.3107763410    0.0000000000
     3        3       1.1418516227    0.0000000000

 respfn : d/dk was computed, but no 2DTE, so no DDB output.

== END DATASET(S) ==============================================================

 -outvars: echo values of variables after computation  --------
            acell      1.0000000000E+00  1.0000000000E+00  1.0000000000E+00 Bohr
              amu      3.90983000E+01  2.80855000E+01  1.89984032E+01
             ecut      4.20000000E+01 Hartree
           etotal     -3.4369209938E+01
            fcart      0.0000000000E+00  0.0000000000E+00  0.0000000000E+00
                       0.0000000000E+00  0.0000000000E+00  0.0000000000E+00
                       0.0000000000E+00  0.0000000000E+00  0.0000000000E+00
                       0.0000000000E+00  0.0000000000E+00  0.0000000000E+00
                       0.0000000000E+00  0.0000000000E+00  0.0000000000E+00
                       0.0000000000E+00  0.0000000000E+00  0.0000000000E+00
                       0.0000000000E+00  0.0000000000E+00  0.0000000000E+00
                       0.0000000000E+00  0.0000000000E+00  0.0000000000E+00
                       0.0000000000E+00  0.0000000000E+00  0.0000000000E+00
-          fftalg         512
           irdden           1
           irdwfk           1
           istwfk        1
              ixc     -116133
           kptopt           0
P           mkmem           1
P          mkqmem           1
P          mk1mem           1
            natom           9
            nband          41
           nbdbuf           4
            ngfft          64      64      64
             nkpt           1
            nstep        2000
             nsym          48
           ntypat           3
              occ      2.000000  2.000000  2.000000  2.000000  2.000000  2.000000
                       2.000000  2.000000  2.000000  2.000000  2.000000  2.000000
                       2.000000  2.000000  2.000000  2.000000  2.000000  2.000000
                       2.000000  2.000000  2.000000  2.000000  2.000000  2.000000
                       2.000000  2.000000  2.000000  2.000000  2.000000  2.000000
                       2.000000  2.000000  0.000000  0.000000  0.000000  0.000000
                       0.000000  0.000000  0.000000  0.000000  0.000000
        optdriver           1
            prtwf          -1
            rfdir           1       1       1
           rfelfd           2
            rprim      9.3508228143E+00  0.0000000000E+00  5.3987000690E+00
                       3.1169409381E+00  8.8160402955E+00  5.3987000690E+00
                       0.0000000000E+00  0.0000000000E+00  1.0797400138E+01
          spgroup         225
           strten      0.0000000000E+00  0.0000000000E+00  0.0000000000E+00
                       0.0000000000E+00  0.0000000000E+00  0.0000000000E+00
           symrel      1  0  0   0  1  0   0  0  1      -1  0  0   0 -1  0   0  0 -1
                       0 -1  1   0 -1  0   1 -1  0       0  1 -1   0  1  0  -1  1  0
                      -1  0  0  -1  0  1  -1  1  0       1  0  0   1  0 -1   1 -1  0
                       0  1 -1   1  0 -1   0  0 -1       0 -1  1  -1  0  1   0  0  1
                      -1  0  0  -1  1  0  -1  0  1       1  0  0   1 -1  0   1  0 -1
                       0 -1  1   1 -1  0   0 -1  0       0  1 -1  -1  1  0   0  1  0
                       1  0  0   0  0  1   0  1  0      -1  0  0   0  0 -1   0 -1  0
                       0  1 -1   0  0 -1   1  0 -1       0 -1  1   0  0  1  -1  0  1
                      -1  0  1  -1  1  0  -1  0  0       1  0 -1   1 -1  0   1  0  0
                       0 -1  0   1 -1  0   0 -1  1       0  1  0  -1  1  0   0  1 -1
                       1  0 -1   0  0 -1   0  1 -1      -1  0  1   0  0  1   0 -1  1
                       0  1  0   0  0  1   1  0  0       0 -1  0   0  0 -1  -1  0  0
                       1  0 -1   0  1 -1   0  0 -1      -1  0  1   0 -1  1   0  0  1
                       0 -1  0   0 -1  1   1 -1  0       0  1  0   0  1 -1  -1  1  0
                      -1  0  1  -1  0  0  -1  1  0       1  0 -1   1  0  0   1 -1  0
                       0  1  0   1  0  0   0  0  1       0 -1  0  -1  0  0   0  0 -1
                       0  0 -1   0  1 -1   1  0 -1       0  0  1   0 -1  1  -1  0  1
                       1 -1  0   0 -1  1   0 -1  0      -1  1  0   0  1 -1   0  1  0
                       0  0  1   1  0  0   0  1  0       0  0 -1  -1  0  0   0 -1  0
                      -1  1  0  -1  0  0  -1  0  1       1 -1  0   1  0  0   1  0 -1
                       0  0  1   0  1  0   1  0  0       0  0 -1   0 -1  0  -1  0  0
                       1 -1  0   0 -1  0   0 -1  1      -1  1  0   0  1  0   0  1 -1
                       0  0 -1   1  0 -1   0  1 -1       0  0  1  -1  0  1   0 -1  1
                      -1  1  0  -1  0  1  -1  0  0       1 -1  0   1  0 -1   1  0  0
           tolwfr      1.00000000E-20
            typat      1  1  2  3  3  3  3  3  3
           useylm           1
           xangst      1.6494141050E+00  1.1663118986E+00  2.8568690325E+00
                       4.9482423149E+00  3.4989356958E+00  8.5706070975E+00
                       0.0000000000E+00  0.0000000000E+00  0.0000000000E+00
                       4.2536905294E+00  9.8224455476E-01  4.0598680134E+00
                       1.3891035709E+00  9.8224455476E-01  5.7137380650E+00
                       5.2085528489E+00  3.6830030396E+00  5.7137380650E+00
                       2.3439658904E+00  3.6830030396E+00  7.3676081166E+00
                       4.2536905294E+00  9.8224455476E-01  7.3676081166E+00
                       2.3439658904E+00  3.6830030396E+00  4.0598680134E+00
            xcart      3.1169409381E+00  2.2040100739E+00  5.3987000690E+00
                       9.3508228143E+00  6.6120302216E+00  1.6196100207E+01
                       0.0000000000E+00  0.0000000000E+00  0.0000000000E+00
                       8.0383101547E+00  1.8561732040E+00  7.6720386810E+00
                       2.6250253192E+00  1.8561732040E+00  1.0797400138E+01
                       9.8427384332E+00  6.9598670915E+00  1.0797400138E+01
                       4.4294535977E+00  6.9598670915E+00  1.3922761595E+01
                       8.0383101547E+00  1.8561732040E+00  1.3922761595E+01
                       4.4294535977E+00  6.9598670915E+00  7.6720386810E+00
             xred      2.5000000000E-01  2.5000000000E-01  2.5000000000E-01
                       7.5000000000E-01  7.5000000000E-01  7.5000000000E-01
                       0.0000000000E+00  0.0000000000E+00  0.0000000000E+00
                       7.8945500000E-01  2.1054500000E-01  2.1054500000E-01
                       2.1054500000E-01  2.1054500000E-01  7.8945500000E-01
                       7.8945500000E-01  7.8945500000E-01  2.1054500000E-01
                       2.1054500000E-01  7.8945500000E-01  7.8945500000E-01
                       7.8945500000E-01  2.1054500000E-01  7.8945500000E-01
                       2.1054500000E-01  7.8945500000E-01  2.1054500000E-01
            znucl       19.00000   14.00000    9.00000

- Timing analysis has been suppressed with timopt=0

 Suggested references for the acknowledgment of ABINIT usage.

 Calculation completed.
.Delivered   6 WARNINGs and   5 COMMENTs to log file.