.Version 9.5.1 of ABINIT

 ABINIT is a project of the Universite Catholique de Louvain,
 Corning Inc. and other collaborators, see ~abinit/doc/developers/contributors.txt .
 acknowledgments of the ABINIT effort.

.Starting date : Sat  1 May 2021.
- ( at 04h38 )

- input  file    -> /scratch/users/j/a/jabreu/flow_simple_6atoms/flow/w141/t1/run.abi
- output file    -> /scratch/users/j/a/jabreu/flow_simple_6atoms/flow/w141/t1/run.abo
- root for input  files -> /scratch/users/j/a/jabreu/flow_simple_6atoms/flow/w141/t1/indata/in
- root for output files -> /scratch/users/j/a/jabreu/flow_simple_6atoms/flow/w141/t1/outdata/out

 Symmetries : space group P6_3 m c (#186); Bravais hP (primitive hexag.)
     intxc =       0      iscf =       7    lmnmax =      18     lnmax =       6
     mgfft =     144  mpssoang =       3    mqgrid =    7005     natom =       6
  nloc_mem =       1    nspden =       1   nspinor =       1    nsppol =       1
      nsym =      12    n1xccc =    2501    ntypat =       3    occopt =       1
   xclevel =       2
-    mband =          47        mffmem =           1         mkmem =           2
-   mkqmem =           2        mk1mem =           2           mpw =       16319
      nfft =      331776          nkpt =           2
  Rough estimation (10% accuracy) of disk space for files :

------------- Echo of variables that govern the present computation ------------
-
- outvars: echo of selected default values
-   iomode0 =  0 , fftalg0 =512 , wfoptalg0 =  0
-
- outvars: echo of global parameters not present in the input file
-  max_nthreads =    0
-
 -outvars: echo values of preprocessed input variables --------
            acell      1.0000000000E+00  1.0000000000E+00  1.0000000000E+00 Bohr
              amu      3.90983000E+01  1.18710000E+02  7.49215900E+01
             ecut      4.20000000E+01 Hartree
-          fftalg         512
           irdden           1
           irdwfk           1
           istwfk        0    1
              ixc     -116133
              kpt      3.22580645E-02  3.22580645E-02  0.00000000E+00
                       0.00000000E+00  0.00000000E+00  0.00000000E+00
           kptopt           0
P           mkmem           2
P          mkqmem           2
P          mk1mem           2
            natom           6
            nband          47
           nbdbuf           4
            ngfft          48      48     144
             nkpt           2
            nstep        1000
             nsym          12
           ntypat           3
              occ      2.000000  2.000000  2.000000  2.000000  2.000000  2.000000
                       2.000000  2.000000  2.000000  2.000000  2.000000  2.000000
                       2.000000  2.000000  2.000000  2.000000  2.000000  2.000000
                       2.000000  2.000000  2.000000  2.000000  2.000000  2.000000
                       2.000000  2.000000  2.000000  2.000000  2.000000  2.000000
                       2.000000  2.000000  2.000000  2.000000  2.000000  2.000000
                       2.000000  2.000000  0.000000  0.000000  0.000000  0.000000
                       0.000000  0.000000  0.000000  0.000000  0.000000
        optdriver           1
            prtwf          -1
            rfdir           1       1       1
           rfelfd           2
            rprim      7.7613108905E+00  0.0000000000E+00  0.0000000000E+00
                      -3.8806554453E+00  6.7214923979E+00  0.0000000000E+00
                       0.0000000000E+00  0.0000000000E+00  2.4008983982E+01
          spgroup         186
           symrel      1  0  0   0  1  0   0  0  1       0  1  0   1  0  0   0  0  1
                       1  1  0  -1  0  0   0  0  1      -1  0  0   1  1  0   0  0  1
                       0  1  0  -1 -1  0   0  0  1      -1 -1  0   0  1  0   0  0  1
                      -1  0  0   0 -1  0   0  0  1       0 -1  0  -1  0  0   0  0  1
                      -1 -1  0   1  0  0   0  0  1       1  0  0  -1 -1  0   0  0  1
                       0 -1  0   1  1  0   0  0  1       1  1  0   0 -1  0   0  0  1
            tnons      0.0000000  0.0000000  0.0000000     0.0000000 -0.0000000  0.5000000
                      -0.0000000 -0.0000000  0.5000000     0.0000000  0.0000000  0.0000000
                      -0.0000000 -0.0000000  0.0000000    -0.0000000  0.0000000  0.5000000
                      -0.0000000 -0.0000000  0.5000000    -0.0000000 -0.0000000  0.0000000
                       0.0000000 -0.0000000  0.0000000    -0.0000000 -0.0000000  0.5000000
                       0.0000000  0.0000000  0.5000000     0.0000000 -0.0000000  0.0000000
           tolwfr      1.00000000E-20
            typat      1  1  2  2  3  3
           useylm           1
              wtk        0.50000    0.50000
           xangst     -1.7639006744E-11  2.3712403898E+00  1.2647707542E+01
                       2.0535544160E+00  1.1856201949E+00  6.2952039801E+00
                      -1.8999194958E-16 -3.2907570971E-16  3.5205828842E+00
                      -1.8999194958E-16 -3.2907570971E-16  9.8730864464E+00
                      -1.7639006744E-11  2.3712403898E+00  8.5442189313E+00
                       2.0535544160E+00  1.1856201949E+00  2.1917153690E+00
            xcart     -3.3332892002E-11  4.4809949319E+00  2.3900703464E+01
                       3.8806554452E+00  2.2404974660E+00  1.1896211473E+01
                      -3.5903275216E-16 -6.2186296833E-16  6.6529374793E+00
                      -3.5903275216E-16 -6.2186296833E-16  1.8657429470E+01
                      -3.3332892002E-11  4.4809949319E+00  1.6146233799E+01
                       3.8806554452E+00  2.2404974660E+00  4.1417418087E+00
             xred      3.3333333333E-01  6.6666666667E-01  9.9549000000E-01
                       6.6666666667E-01  3.3333333333E-01  4.9549000000E-01
                      -9.2518585385E-17 -9.2518585385E-17  2.7710200000E-01
                      -9.2518585385E-17 -9.2518585385E-17  7.7710200000E-01
                       3.3333333333E-01  6.6666666667E-01  6.7250800000E-01
                       6.6666666667E-01  3.3333333333E-01  1.7250800000E-01
            znucl       19.00000   50.00000   33.00000

 chkinp: Checking input parameters for consistency.

== DATASET  1 ==================================================================
-   mpi_nproc: 1, omp_nthreads: -1 (-1 if OMP is not activated)

--- !DatasetInfo
iteration_state: {dtset: 1, }
dimensions: {natom: 6, nkpt: 2, mband: 47, nsppol: 1, nspinor: 1, nspden: 1, mpw: 16319, }
cutoff_energies: {ecut:  42.0, pawecutdg:  -1.0, }
electrons: {nelect:   7.60000000E+01, charge:   0.00000000E+00, occopt:   1.00000000E+00, tsmear:   1.00000000E-02, }
meta: {optdriver: 1, rfelfd: 2, }
...

 Real(R)+Recip(G) space primitive vectors, cartesian coordinates (Bohr,Bohr^-1):
 R(1)=  7.7613109  0.0000000  0.0000000  G(1)=  0.1288442  0.0743882  0.0000000
 R(2)= -3.8806554  6.7214924  0.0000000  G(2)=  0.0000000  0.1487765  0.0000000
 R(3)=  0.0000000  0.0000000 24.0089840  G(3)=  0.0000000  0.0000000  0.0416511
 Unit cell volume ucvol=  1.2524909E+03 bohr^3
 Angles (23,13,12)=  9.00000000E+01  9.00000000E+01  1.20000000E+02 degrees

 getcut: wavevector=  0.0000  0.0000  0.0000  ngfft=  48  48 144
         ecut(hartree)=     42.000   => boxcut(ratio)=   2.05589

--- Pseudopotential description ------------------------------------------------
- pspini: atom type   1  psp file is /scratch/users/j/a/jabreu/pseudos/PBEsol/K.psp8
- pspatm: opening atomic psp file    /scratch/users/j/a/jabreu/pseudos/PBEsol/K.psp8
- K     ONCVPSP-3.3.0  r_core=   1.36296   1.46408   1.61068
- 19.00000   9.00000    180112                znucl, zion, pspdat
    8 -116133    2    4       400   0.00000   pspcod,pspxc,lmax,lloc,mmax,r2well
    3.99000000000000    5.00000000000000    0.00000000000000   rchrg,fchrg,qchrg
     nproj     2     2     2
     extension_switch     1
  pspatm : epsatm=    8.32487830
         --- l  ekb(1:nproj) -->
             0   10.921326    0.816676
             1    4.431000    0.560368
             2   -3.384038   -1.043186
 pspatm: atomic psp has been read  and splines computed

- pspini: atom type   2  psp file is /scratch/users/j/a/jabreu/pseudos/PBEsol/Sn.psp8
- pspatm: opening atomic psp file    /scratch/users/j/a/jabreu/pseudos/PBEsol/Sn.psp8
- Sn    ONCVPSP-3.3.0  r_core=   2.27326   2.62311   1.85601
- 50.00000  14.00000    180112                znucl, zion, pspdat
    8 -116133    2    4       600   0.00000   pspcod,pspxc,lmax,lloc,mmax,r2well
    5.99000000000000    6.50000000000000    0.00000000000000   rchrg,fchrg,qchrg
     nproj     2     2     2
     extension_switch     1
  pspatm : epsatm=   32.44586081
         --- l  ekb(1:nproj) -->
             0    5.587869    0.749373
             1    4.197111    0.728791
             2   -5.271877   -1.523486
 pspatm: atomic psp has been read  and splines computed

- pspini: atom type   3  psp file is /scratch/users/j/a/jabreu/pseudos/PBEsol/As.psp8
- pspatm: opening atomic psp file    /scratch/users/j/a/jabreu/pseudos/PBEsol/As.psp8
- As    ONCVPSP-3.3.0  r_core=   1.76603   1.70395   1.80867
- 33.00000  15.00000    180112                znucl, zion, pspdat
    8 -116133    2    4       600   0.00000   pspcod,pspxc,lmax,lloc,mmax,r2well
    5.99000000000000    5.00000000000000    0.00000000000000   rchrg,fchrg,qchrg
     nproj     2     2     2
     extension_switch     1
  pspatm : epsatm=   28.79155382
         --- l  ekb(1:nproj) -->
             0    8.270760    0.868950
             1    4.919053    0.756587
             2  -10.048665   -4.076802
 pspatm: atomic psp has been read  and splines computed

   1.05734685E+04                                ecore*ucvol(ha*bohr**3)

-inwffil : will read wavefunctions from disk file /scratch/users/j/a/jabreu/flow_simple_6atoms/flow/w141/t1/indata/in_WFK

 ==>  initialize data related to q vector <==

 The list of irreducible perturbations for this q vector is:
    1)    idir= 1    ipert=   7
    2)    idir= 2    ipert=   7
    3)    idir= 3    ipert=   7

 Perturbation wavevector (in red.coord.)   0.000000  0.000000  0.000000
 Perturbation : derivative vs k along direction   1

 dfpt_looppert : COMMENT -
  In a d/dk calculation, iscf is set to -3 automatically.
 The set of symmetries contains only one element for this perturbation.
 symkpt : not enough symmetry to change the number of k points.

[...]

 Initialisation of the first-order wave-functions :
  ireadwf=   0

--- !BeginCycle
iteration_state: {dtset: 1, }
solver: {iscf: 7, nstep: 1000, nline: 4, wfoptalg: 0, }
tolerances: {tolwfr: 1.00E-20, }
...

     iter   2DEtotal(Ha)        deltaE(Ha) residm    vres2
-ETOT  1  -166.19389027369     -1.662E+02 2.595E-01 0.000E+00
 ETOT  2  -166.41402924756     -2.201E-01 2.052E-02 0.000E+00
 ETOT  3  -166.41894411380     -4.915E-03 2.333E-03 0.000E+00
 ETOT  4  -166.41920905670     -2.649E-04 5.293E-04 0.000E+00
 ETOT  5  -166.41922772901     -1.867E-05 9.463E-05 0.000E+00
 ETOT  6  -166.41922919420     -1.465E-06 2.229E-05 0.000E+00
 ETOT  7  -166.41922931803     -1.238E-07 4.417E-06 0.000E+00
 ETOT  8  -166.41922932903     -1.100E-08 1.057E-06 0.000E+00
[...]
 ETOT 14  -166.41922933016     -8.527E-14 1.713E-10 0.000E+00
 ETOT 15  -166.41922933016     -2.842E-14 4.337E-11 0.000E+00
 ETOT 16  -166.41922933016      2.558E-13 9.803E-12 0.000E+00
 ETOT 17  -166.41922933016     -1.137E-13 2.462E-12 0.000E+00
 ETOT 18  -166.41922933016     -2.842E-14 5.614E-13 0.000E+00
 ETOT 19  -166.41922933016     -5.684E-14 1.400E-13 0.000E+00
 ETOT 20  -166.41922933016      5.684E-14 3.215E-14 0.000E+00
 ETOT 21  -166.41922933016     -2.842E-14 7.973E-15 0.000E+00
 ETOT 22  -166.41922933016      2.842E-14 1.842E-15 0.000E+00
 ETOT 23  -166.41922933016     -2.842E-14 4.546E-16 0.000E+00
 ETOT 24  -166.41922933016      0.000E+00 1.055E-16 0.000E+00
 ETOT 25  -166.41922933016      0.000E+00 2.595E-17 0.000E+00
 ETOT 26  -166.41922933016     -2.842E-14 6.044E-18 0.000E+00
 ETOT 27  -166.41922933016      5.684E-14 1.482E-18 0.000E+00
 ETOT 28  -166.41922933016     -8.527E-14 3.463E-19 0.000E+00
 ETOT 29  -166.41922933016      5.684E-14 8.480E-20 0.000E+00
 ETOT 30  -166.41922933016      2.842E-14 1.984E-20 0.000E+00
 ETOT 31  -166.41922933016     -5.684E-14 9.998E-21 0.000E+00

 At SCF step   31   max residual=  1.00E-20 < tolwfr=  1.00E-20 =>converged.

 ----iterations are completed or convergence reached----

 dfpt_looppert: DFPT cycle converged with prtwf=-1. Will skip output of the 1st-order WFK file.
 dfpt_looppert : ek2=    1.3282257670E+02
          f-sum rule ratio=    1.3840041533E+00
 prteigrs : about to open file /scratch/users/j/a/jabreu/flow_simple_6atoms/flow/w141/t1/tmpdata/tmp_1WF1_EIG
 Expectation of eigenvalue derivatives (hartree) for nkpt=   2  k points:
  (in case of degenerate eigenvalues, averaged derivative)
 kpt#   1, nband= 47, wtk=  0.50000, kpt=  0.0323  0.0323  0.0000 (reduced coord)
   0.00000    0.00000    0.00003    0.00003   -0.00001   -0.00001   -0.00000   -0.00000
   0.00002    0.00002    0.00060    0.00060   -0.00039   -0.00039    0.00080    0.00080
  -0.00053   -0.00055   -0.00010   -0.00010    0.00056    0.00055    0.00380    0.00243
  -0.00846   -0.00814   -0.00174   -0.00176    0.03356    0.02943    0.01312   -0.00992
   0.01873   -0.37681   -0.26051   -0.06941   -0.07247    0.00707    0.28975    0.24697
   0.05911   -0.06876   -0.00456   -0.07661    0.09013   -0.02464   -0.15035
 prteigrs : prtvol=0 or 1, do not print more k-points.

 Eight components of 2nd-order total energy (hartree) are
 1,2,3: 0th-order hamiltonian combined with 1st-order wavefunctions
     kin0=   1.61334796E+02 eigvalue=   2.03015703E+01  local=  -7.34699750E+01
 4,5,6: 1st-order hamiltonian combined with 1st and 0th-order wfs
     kin1=  -1.83826998E+02  Hartree=   0.00000000E+00     xc=   0.00000000E+00
 7,8,9: eventually, occupation + non-local contributions
    edocc=   4.37026306E+01     enl0=   1.45502076E+01   enl1=  -1.49011461E+02
 1-9 gives the relaxation energy (to be shifted if some occ is /=2.0)
   erelax=  -1.66419229E+02
  No Ewald or frozen-wf contrib.: the relaxation energy is the total one
 2DEtotal=   -0.1664192293E+03 Ha. Also 2DEtotal=   -0.452849753099E+04 eV
    (  non-var. 2DEtotal :   -1.6641922933E+02 Ha)

 Perturbation wavevector (in red.coord.)   0.000000  0.000000  0.000000
 Perturbation : derivative vs k along direction   2
 The set of symmetries contains only one element for this perturbation.
 symkpt : not enough symmetry to change the number of k points.

[...]

 Perturbation wavevector (in red.coord.)   0.000000  0.000000  0.000000
 Perturbation : derivative vs k along direction   3
 The set of symmetries contains only one element for this perturbation.
 symkpt : not enough symmetry to change the number of k points.

-inwffil : will read wavefunctions from disk file /scratch/users/j/a/jabreu/flow_simple_6atoms/flow/w141/t1/indata/in_WFK

 Initialisation of the first-order wave-functions :
  ireadwf=   0

--- !BeginCycle
iteration_state: {dtset: 1, }
solver: {iscf: 7, nstep: 1000, nline: 4, wfoptalg: 0, }
tolerances: {tolwfr: 1.00E-20, }
...

     iter   2DEtotal(Ha)        deltaE(Ha) residm    vres2
-ETOT  1  -11.960044018983     -1.196E+01 1.132E-02 0.000E+00
 ETOT  2  -11.976365952566     -1.632E-02 1.116E-03 0.000E+00
 ETOT  3  -11.976785129519     -4.192E-04 4.437E-05 0.000E+00
 ETOT  4  -11.976807321368     -2.219E-05 7.587E-06 0.000E+00
 ETOT  5  -11.976808749612     -1.428E-06 1.432E-06 0.000E+00
 ETOT  6  -11.976808855627     -1.060E-07 2.987E-07 0.000E+00
 ETOT  7  -11.976808864265     -8.638E-09 5.967E-08 0.000E+00
 ETOT  8  -11.976808865023     -7.577E-10 1.306E-08 0.000E+00
 ETOT  9  -11.976808865092     -6.903E-11 2.663E-09 0.000E+00
 ETOT 10  -11.976808865099     -6.478E-12 5.975E-10 0.000E+00
 ETOT 11  -11.976808865099     -6.164E-13 1.222E-10 0.000E+00
 ETOT 12  -11.976808865099     -6.040E-14 2.788E-11 0.000E+00
 ETOT 13  -11.976808865099     -3.553E-15 5.663E-12 0.000E+00
 ETOT 14  -11.976808865099     -1.421E-14 1.312E-12 0.000E+00
 ETOT 15  -11.976808865099      1.066E-14 2.830E-13 0.000E+00
 ETOT 16  -11.976808865099     -5.329E-15 6.203E-14 0.000E+00
 ETOT 17  -11.976808865099      0.000E+00 1.439E-14 0.000E+00
 ETOT 18  -11.976808865099     -1.776E-15 2.943E-15 0.000E+00
 ETOT 19  -11.976808865099     -1.776E-15 7.345E-16 0.000E+00
 ETOT 20  -11.976808865099      0.000E+00 1.400E-16 0.000E+00
 ETOT 21  -11.976808865099     -3.553E-15 3.759E-17 0.000E+00
 ETOT 22  -11.976808865099      0.000E+00 6.723E-18 0.000E+00
 ETOT 23  -11.976808865099      0.000E+00 1.927E-18 0.000E+00
 ETOT 24  -11.976808865099      1.776E-15 3.448E-19 0.000E+00
 ETOT 25  -11.976808865099      0.000E+00 9.892E-20 0.000E+00
 ETOT 26  -11.976808865099     -1.776E-15 1.770E-20 0.000E+00
 ETOT 27  -11.976808865099      0.000E+00 9.959E-21 0.000E+00

 At SCF step   27   max residual=  9.96E-21 < tolwfr=  1.00E-20 =>converged.

 ----iterations are completed or convergence reached----

 dfpt_looppert: DFPT cycle converged with prtwf=-1. Will skip output of the 1st-order WFK file.
 dfpt_looppert : ek2=    1.0410120604E+01
          f-sum rule ratio=    1.2131742049E+00
 prteigrs : about to open file /scratch/users/j/a/jabreu/flow_simple_6atoms/flow/w141/t1/tmpdata/tmp_1WF1_EIG
 Expectation of eigenvalue derivatives (hartree) for nkpt=   2  k points:
  (in case of degenerate eigenvalues, averaged derivative)
 kpt#   1, nband= 47, wtk=  0.50000, kpt=  0.0323  0.0323  0.0000 (reduced coord)
   0.00000    0.00000   -0.00000    0.00000   -0.00000   -0.00000    0.00000    0.00000
  -0.00000    0.00000   -0.00000    0.00000    0.00000    0.00000    0.00000    0.00000
  -0.00000    0.00000   -0.00000    0.00000    0.00000    0.00000   -0.00000   -0.00000
  -0.00000   -0.00000   -0.00000    0.00000   -0.00000    0.00000   -0.00000   -0.00000
  -0.00000   -0.00000   -0.00000   -0.00000    0.00000    0.00000   -0.00000    0.00000
   0.00000    0.00000    0.00000   -0.00000    0.00000    0.00000    0.00068
 prteigrs : prtvol=0 or 1, do not print more k-points.

 Eight components of 2nd-order total energy (hartree) are
 1,2,3: 0th-order hamiltonian combined with 1st-order wavefunctions
     kin0=   1.31399647E+01 eigvalue=   1.59476921E+00  local=  -6.11965371E+00
 4,5,6: 1st-order hamiltonian combined with 1st and 0th-order wfs
     kin1=  -1.26292898E+01  Hartree=   0.00000000E+00     xc=   0.00000000E+00
 7,8,9: eventually, occupation + non-local contributions
    edocc=   2.18911005E+00     enl0=   1.17261866E+00   enl1=  -1.13243279E+01
 1-9 gives the relaxation energy (to be shifted if some occ is /=2.0)
   erelax=  -1.19768089E+01
  No Ewald or frozen-wf contrib.: the relaxation energy is the total one
 2DEtotal=   -0.1197680887E+02 Ha. Also 2DEtotal=   -0.325905543446E+03 eV
    (  non-var. 2DEtotal :   -1.1976808865E+01 Ha)

 CALCULATION OF EFFECTIVE MASSES
 NOTE : Additional infos (eff. mass eigenvalues, eigenvectors and, if degenerate, average mass) are available in stdout.

--- !WARNING
src_file: m_efmas.F90
src_line: 0
message: |

    Band(s)    38,
    are not band extrema, but saddle points;
    the transport equivalent formalism breaks down in these conditions.
    The associated tensor(s) will therefore not be printed.
...

 K-point ( 0.032, 0.032, 0.000) | band =    38
 Effective mass tensor:
     *** SADDLE POINT: TRANSPORT EQV. EFF. MASS NOT DEFINED (see WARNING above) ***
 Angular average effective mass 1/(<1/m>)=  -0.2869827870
 Angular average effective mass for Frohlich model (<m**0.5>)**2=  -0.6734249191
 Effective masses along directions: (cart. coord. / red. coord. -> eff. mass)
    1:   1.000000  0.000000  0.000000 /   0.894427 -0.447214  0.000000 ->  -2.5643007357
    2:   0.000000  1.000000  0.000000 /   0.000000  1.000000  0.000000 ->  -0.7151847596
    3:   0.000000  0.000000  1.000000 /   0.000000  0.000000  1.000000 ->  -0.1154017656
    4:   0.577350  0.577350  0.577350 /   0.305663  0.111880  0.945544 ->  -0.2459056416
    5:   0.000000  0.707107  0.707107 /   0.000000  0.269592  0.962975 ->  -0.1987361458
    6:   0.707107  0.000000  0.707107 /   0.304020 -0.152010  0.940460 ->  -0.2208690159
    7:   0.707107  0.707107  0.000000 /   0.939071  0.343724  0.000000 ->  -0.5658261069

 K-point ( 0.000, 0.000, 0.000) | band =    39
 Effective mass tensor:
              0.0996246809             -0.0000001014              0.0000000404
             -0.0000001014              0.0996248724              0.0000000174
              0.0000000404              0.0000000174              0.0953292701
 Effective mass tensor eigenvalues:
              0.0953292701              0.0996246372              0.0996249161
 Angular average effective mass 1/(<1/m>)=   0.0981505656
 Angular average effective mass for Frohlich model (<m**0.5>)**2=   0.0981633738
 Effective masses along directions: (cart. coord. / red. coord. -> eff. mass)
    1:   1.000000  0.000000  0.000000 /   0.894427 -0.447214  0.000000 ->   0.0996246809
    2:   0.000000  1.000000  0.000000 /   0.000000  1.000000  0.000000 ->   0.0996248724
    3:   0.000000  0.000000  1.000000 /   0.000000  0.000000  1.000000 ->   0.0953292701
    4:   0.577350  0.577350  0.577350 /   0.305663  0.111880  0.945544 ->   0.0981505391
    5:   0.000000  0.707107  0.707107 /   0.000000  0.269592  0.962975 ->   0.0974297642
    6:   0.707107  0.000000  0.707107 /   0.304020 -0.152010  0.940460 ->   0.0974296956
    7:   0.707107  0.707107  0.000000 /   0.939071  0.343724  0.000000 ->   0.0996246753

 END OF EFFECTIVE MASSES SECTION

 ---- first-order wavefunction calculations are completed ----

 Total localisation tensor (bohr^2) in cartesian coordinates
  WARNING : still subject to testing - especially symmetries.
      direction              matrix element
   alpha     beta       real part   imaginary part
     1        1       7.7884978157    0.0000000000
     1        2      -2.6980173349    0.0000000000
     1        3       0.0000000000    0.0000000000
     2        1      -2.6980173349    0.0000000000
     2        2       4.6731031038    0.0000000000
     2        3       0.0000000000    0.0000000000
     3        1       0.0000000000    0.0000000000
     3        2       0.0000000000    0.0000000000
     3        3       7.1840885278    0.0000000000

 respfn : d/dk was computed, but no 2DTE, so no DDB output.

== END DATASET(S) ==============================================================

 -outvars: echo values of variables after computation  --------
            acell      1.0000000000E+00  1.0000000000E+00  1.0000000000E+00 Bohr
              amu      3.90983000E+01  1.18710000E+02  7.49215900E+01
             ecut      4.20000000E+01 Hartree
           etotal     -1.1976808865E+01
            fcart      0.0000000000E+00  0.0000000000E+00  0.0000000000E+00
                       0.0000000000E+00  0.0000000000E+00  0.0000000000E+00
                       0.0000000000E+00  0.0000000000E+00  0.0000000000E+00
                       0.0000000000E+00  0.0000000000E+00  0.0000000000E+00
                       0.0000000000E+00  0.0000000000E+00  0.0000000000E+00
                       0.0000000000E+00  0.0000000000E+00  0.0000000000E+00
-          fftalg         512
           irdden           1
           irdwfk           1
           istwfk        0    1
              ixc     -116133
              kpt      3.22580645E-02  3.22580645E-02  0.00000000E+00
                       0.00000000E+00  0.00000000E+00  0.00000000E+00
           kptopt           0
P           mkmem           2
P          mkqmem           2
P          mk1mem           2
            natom           6
            nband          47
           nbdbuf           4
            ngfft          48      48     144
             nkpt           2
            nstep        1000
             nsym          12
           ntypat           3
              occ      2.000000  2.000000  2.000000  2.000000  2.000000  2.000000
                       2.000000  2.000000  2.000000  2.000000  2.000000  2.000000
                       2.000000  2.000000  2.000000  2.000000  2.000000  2.000000
                       2.000000  2.000000  2.000000  2.000000  2.000000  2.000000
                       2.000000  2.000000  2.000000  2.000000  2.000000  2.000000
                       2.000000  2.000000  2.000000  2.000000  2.000000  2.000000
                       2.000000  2.000000  0.000000  0.000000  0.000000  0.000000
                       0.000000  0.000000  0.000000  0.000000  0.000000
        optdriver           1
            prtwf          -1
            rfdir           1       1       1
           rfelfd           2
            rprim      7.7613108905E+00  0.0000000000E+00  0.0000000000E+00
                      -3.8806554453E+00  6.7214923979E+00  0.0000000000E+00
                       0.0000000000E+00  0.0000000000E+00  2.4008983982E+01
          spgroup         186
           strten      0.0000000000E+00  0.0000000000E+00  0.0000000000E+00
                       0.0000000000E+00  0.0000000000E+00  0.0000000000E+00
           symrel      1  0  0   0  1  0   0  0  1       0  1  0   1  0  0   0  0  1
                       1  1  0  -1  0  0   0  0  1      -1  0  0   1  1  0   0  0  1
                       0  1  0  -1 -1  0   0  0  1      -1 -1  0   0  1  0   0  0  1
                      -1  0  0   0 -1  0   0  0  1       0 -1  0  -1  0  0   0  0  1
                      -1 -1  0   1  0  0   0  0  1       1  0  0  -1 -1  0   0  0  1
                       0 -1  0   1  1  0   0  0  1       1  1  0   0 -1  0   0  0  1
            tnons      0.0000000  0.0000000  0.0000000     0.0000000 -0.0000000  0.5000000
                      -0.0000000 -0.0000000  0.5000000     0.0000000  0.0000000  0.0000000
                      -0.0000000 -0.0000000  0.0000000    -0.0000000  0.0000000  0.5000000
                      -0.0000000 -0.0000000  0.5000000    -0.0000000 -0.0000000  0.0000000
                       0.0000000 -0.0000000  0.0000000    -0.0000000 -0.0000000  0.5000000
                       0.0000000  0.0000000  0.5000000     0.0000000 -0.0000000  0.0000000
           tolwfr      1.00000000E-20
            typat      1  1  2  2  3  3
           useylm           1
              wtk        0.50000    0.50000
           xangst     -1.7639006744E-11  2.3712403898E+00  1.2647707542E+01
                       2.0535544160E+00  1.1856201949E+00  6.2952039801E+00
                      -1.8999194958E-16 -3.2907570971E-16  3.5205828842E+00
                      -1.8999194958E-16 -3.2907570971E-16  9.8730864464E+00
                      -1.7639006744E-11  2.3712403898E+00  8.5442189313E+00
                       2.0535544160E+00  1.1856201949E+00  2.1917153690E+00
            xcart     -3.3332892002E-11  4.4809949319E+00  2.3900703464E+01
                       3.8806554452E+00  2.2404974660E+00  1.1896211473E+01
                      -3.5903275216E-16 -6.2186296833E-16  6.6529374793E+00
                      -3.5903275216E-16 -6.2186296833E-16  1.8657429470E+01
                      -3.3332892002E-11  4.4809949319E+00  1.6146233799E+01
                       3.8806554452E+00  2.2404974660E+00  4.1417418087E+00
             xred      3.3333333333E-01  6.6666666667E-01  9.9549000000E-01
                       6.6666666667E-01  3.3333333333E-01  4.9549000000E-01
                      -9.2518585385E-17 -9.2518585385E-17  2.7710200000E-01
                      -9.2518585385E-17 -9.2518585385E-17  7.7710200000E-01
                       3.3333333333E-01  6.6666666667E-01  6.7250800000E-01
                       6.6666666667E-01  3.3333333333E-01  1.7250800000E-01
            znucl       19.00000   50.00000   33.00000

- Timing analysis has been suppressed with timopt=0

 Suggested references for the acknowledgment of ABINIT usage.

 Calculation completed.
.Delivered  15 WARNINGs and   9 COMMENTs to log file.