.Version 9.5.2 of ABINIT

 ABINIT is a project of the Universite Catholique de Louvain,
 Corning Inc. and other collaborators, see ~abinit/doc/developers/contributors.txt .
 acknowledgments of the ABINIT effort.

.Starting date : Mon 31 May 2021.
- ( at 22h07 )

- input  file    -> /scratch/users/j/a/jabreu/flow_simple_11atoms/flow/w342/t1/run.abi
- output file    -> /scratch/users/j/a/jabreu/flow_simple_11atoms/flow/w342/t1/run.abo
- root for input  files -> /scratch/users/j/a/jabreu/flow_simple_11atoms/flow/w342/t1/indata/in
- root for output files -> /scratch/users/j/a/jabreu/flow_simple_11atoms/flow/w342/t1/outdata/out

 Symmetries : space group I4_1/a (# 88); Bravais tI (body-center tetrag.)
     intxc =       0      iscf =       7    lmnmax =      18     lnmax =       6
     mgfft =      72  mpssoang =       3    mqgrid =    3001     natom =      12
  nloc_mem =       1    nspden =       1   nspinor =       1    nsppol =       1
      nsym =       8    n1xccc =    2501    ntypat =       3    occopt =       1
   xclevel =       2
-    mband =          51        mffmem =           1         mkmem =           2
-   mkqmem =           2        mk1mem =           2           mpw =       12426
      nfft =      373248          nkpt =           2
  Rough estimation (10% accuracy) of disk space for files :

------------- Echo of variables that govern the present computation ------------
-
- outvars: echo of selected default values
-   iomode0 =  0 , fftalg0 =512 , wfoptalg0 =  0
-
- outvars: echo of global parameters not present in the input file
-  max_nthreads =    0
-
 -outvars: echo values of preprocessed input variables --------
            acell      1.0000000000E+00  1.0000000000E+00  1.0000000000E+00 Bohr
              amu      6.94100000E+00  8.89058500E+01  1.89984032E+01
             ecut      4.20000000E+01 Hartree
-          fftalg         512
           irdden           1
           irdwfk           1
           istwfk        0    1
              ixc     -116133
              kpt      5.00000000E-01  5.00000000E-01 -5.00000000E-01
                       0.00000000E+00  0.00000000E+00  0.00000000E+00
           kptopt           0
P           mkmem           2
P          mkqmem           2
P          mk1mem           2
            natom          12
            nband          51
           nbdbuf           4
            ngfft          72      72      72
             nkpt           2
            nstep        2000
             nsym           8
           ntypat           3
              occ      2.000000  2.000000  2.000000  2.000000  2.000000  2.000000
                       2.000000  2.000000  2.000000  2.000000  2.000000  2.000000
                       2.000000  2.000000  2.000000  2.000000  2.000000  2.000000
                       2.000000  2.000000  2.000000  2.000000  2.000000  2.000000
                       2.000000  2.000000  2.000000  2.000000  2.000000  2.000000
                       2.000000  2.000000  2.000000  2.000000  2.000000  2.000000
                       2.000000  2.000000  2.000000  2.000000  2.000000  2.000000
                       0.000000  0.000000  0.000000  0.000000  0.000000  0.000000
                       0.000000  0.000000  0.000000
        optdriver           1
            prtwf          -1
            rfdir           1       1       1
           rfelfd           2
            rprim      8.9341325856E+00  0.0000000000E+00 -8.3141749822E+00
                      -1.6938238697E+00  8.7720969988E+00 -8.3141749822E+00
                       0.0000000000E+00  0.0000000000E+00  1.2204271002E+01
          spgroup          88
           symrel      1  0  0   0  1  0   0  0  1      -1  0  0   0 -1  0   0  0 -1
                       0  1  0   1  0  0  -1 -1 -1       0 -1  0  -1  0  0   1  1  1
                       0  0  1  -1 -1 -1   0  1  0       0  0 -1   1  1  1   0 -1  0
                      -1 -1 -1   0  0  1   1  0  0       1  1  1   0  0 -1  -1  0  0
            tnons      0.0000000  0.0000000  0.0000000    -0.2500000  0.2500000  0.5000000
                      -0.0000000  0.0000000  0.0000000    -0.2500000  0.2500000  0.5000000
                      -0.0000000  0.0000000  0.0000000    -0.2500000  0.2500000  0.5000000
                      -0.0000000 -0.0000000 -0.0000000    -0.2500000  0.2500000  0.5000000
           tolwfr      1.00000000E-20
            typat      1  1  2  2  3  3  3  3  3  3  3  3
           useylm           1
              wtk        0.50000    0.50000
           xangst      1.9157031778E+00  2.3209969017E+00 -4.3996719088E+00
                       5.0968509530E-01  3.4814953525E+00 -1.1705608779E+00
                       3.3217212603E+00  1.1604984508E+00 -1.1705608779E+00
                      -1.8835609308E-16 -1.2884121001E-16  4.1017882955E-16
                      -8.3528686323E-01  4.4123775798E+00 -2.1659667486E-01
                       4.2097632124E-01  1.1769044174E+00  1.8526788239E+00
                       1.1927734510E+00  4.0055230699E+00 -4.8743119722E+00
                      -3.6299952951E-01  3.0910468092E+00 -2.8050364735E+00
                       2.0044119519E+00  4.6255878367E+00 -9.6468954889E-01
                       3.2606751363E+00  1.3901146743E+00  1.1045859499E+00
                       1.2326148221E+00  1.7969691842E+00 -6.9592081450E-01
                       2.7883878026E+00  2.7114454449E+00 -2.7651963133E+00
            xcart      3.6201543579E+00  4.3860484994E+00 -8.3141749822E+00
                       9.6316524412E-01  6.5790727491E+00 -2.2120394812E+00
                       6.2771434718E+00  2.1930242497E+00 -2.2120394812E+00
                      -3.5594143138E-16 -2.4347460156E-16  7.7512565337E-16
                      -1.5784634139E+00  8.3381852208E+00 -4.0930839678E-01
                       7.9552995557E-01  2.2240270335E+00  3.5010555894E+00
                       2.2540151610E+00  7.5693416211E+00 -9.2111147138E+00
                      -6.8596969714E-01  5.8412319333E+00 -5.3007507276E+00
                       3.7877896465E+00  8.7410942150E+00 -1.8229990507E+00
                       6.1617830160E+00  2.6269360277E+00  2.0873649355E+00
                       2.3293044410E+00  3.3957796274E+00 -1.3150997496E+00
                       5.2692892992E+00  5.1238893152E+00 -5.2254637358E+00
             xred      5.0000000000E-01  5.0000000000E-01  1.3877787808E-17
                       2.5000000000E-01  7.5000000000E-01  5.0000000000E-01
                       7.5000000000E-01  2.5000000000E-01  5.0000000000E-01
                      -4.5102810375E-17 -2.7755575616E-17  1.3877787808E-17
                       3.5342500000E-03  9.5053500000E-01  6.1642275000E-01
                       1.3711150000E-01  2.5353425000E-01  5.5299925000E-01
                       4.1588775000E-01  8.6288850000E-01  1.1642275000E-01
                       4.9465000000E-02  6.6588775000E-01  5.2999250000E-02
                       6.1288850000E-01  9.9646575000E-01  9.4700075000E-01
                       7.4646575000E-01  2.9946500000E-01  8.8357725000E-01
                       3.3411225000E-01  3.8711150000E-01  3.8357725000E-01
                       7.0053500000E-01  5.8411225000E-01  4.4700075000E-01
            znucl        3.00000   39.00000    9.00000

 chkinp: Checking input parameters for consistency.

== DATASET  1 ==================================================================
-   mpi_nproc: 1, omp_nthreads: -1 (-1 if OMP is not activated)

--- !DatasetInfo
iteration_state: {dtset: 1, }
dimensions: {natom: 12, nkpt: 2, mband: 51, nsppol: 1, nspinor: 1, nspden: 1, mpw: 12426, }
cutoff_energies: {ecut:  42.0, pawecutdg:  -1.0, }
electrons: {nelect:   8.40000000E+01, charge:   0.00000000E+00, occopt:   1.00000000E+00, tsmear:   1.00000000E-02, }
meta: {optdriver: 1, rfelfd: 2, }
...

 Real(R)+Recip(G) space primitive vectors, cartesian coordinates (Bohr,Bohr^-1):
 R(1)=  8.9341326  0.0000000 -8.3141750  G(1)=  0.1119303  0.0216129  0.0000000
 R(2)= -1.6938239  8.7720970 -8.3141750  G(2)=  0.0000000  0.1139978  0.0000000
 R(3)=  0.0000000  0.0000000 12.2042710  G(3)=  0.0762526  0.0923850  0.0819385
 Unit cell volume ucvol=  9.5646187E+02 bohr^3
 Angles (23,13,12)=  1.32941498E+02  1.32941498E+02  6.87460360E+01 degrees

 getcut: wavevector=  0.0000  0.0000  0.0000  ngfft=  72  72  72
         ecut(hartree)=     42.000   => boxcut(ratio)=   2.02285

--- Pseudopotential description ------------------------------------------------
- pspini: atom type   1  psp file is /scratch/users/j/a/jabreu/pseudos/PBEsol/Li.psp8
- pspatm: opening atomic psp file    /scratch/users/j/a/jabreu/pseudos/PBEsol/Li.psp8
- Li    ONCVPSP-3.3.0  r_core=   1.40824   1.10935
-  3.00000   3.00000    180112                znucl, zion, pspdat
    8 -116133    1    4       400   0.00000   pspcod,pspxc,lmax,lloc,mmax,r2well
    3.99000000000000    0.00000000000000    0.00000000000000   rchrg,fchrg,qchrg
     nproj     2     2
     extension_switch     1
  pspatm : epsatm=    2.60859637
         --- l  ekb(1:nproj) -->
             0   -4.855856   -1.482423
             1   -2.171544   -0.427615
 pspatm: atomic psp has been read  and splines computed

- pspini: atom type   2  psp file is /scratch/users/j/a/jabreu/pseudos/PBEsol/Y.psp8
- pspatm: opening atomic psp file    /scratch/users/j/a/jabreu/pseudos/PBEsol/Y.psp8
- Y     ONCVPSP-3.3.0  r_core=   1.60520   1.51226   1.56736
- 39.00000  11.00000    180112                znucl, zion, pspdat
    8 -116133    2    4       600   0.00000   pspcod,pspxc,lmax,lloc,mmax,r2well
    5.99000000000000    4.00000000000000    0.00000000000000   rchrg,fchrg,qchrg
     nproj     2     2     2
     extension_switch     1
  pspatm : epsatm=   18.54790046
         --- l  ekb(1:nproj) -->
             0   10.130768    0.866504
             1    5.598307    0.427135
             2    1.217602    0.315447
 pspatm: atomic psp has been read  and splines computed

- pspini: atom type   3  psp file is /scratch/users/j/a/jabreu/pseudos/PBEsol/F.psp8
- pspatm: opening atomic psp file    /scratch/users/j/a/jabreu/pseudos/PBEsol/F.psp8
- F     ONCVPSP-3.3.0  r_core=   1.30942   1.45782   1.60379
-  9.00000   7.00000    180112                znucl, zion, pspdat
    8 -116133    2    4       600   0.00000   pspcod,pspxc,lmax,lloc,mmax,r2well
    5.99000000000000    2.50000000000000    0.00000000000000   rchrg,fchrg,qchrg
     nproj     2     2     1
     extension_switch     1
  pspatm : epsatm=    4.89824824
         --- l  ekb(1:nproj) -->
             0    6.506434    1.065875
             1   -3.978753   -1.295852
             2   -2.394754
 pspatm: atomic psp has been read  and splines computed

   6.84591428E+03                                ecore*ucvol(ha*bohr**3)

 ==>  initialize data related to q vector <==

 The list of irreducible perturbations for this q vector is:
    1)    idir= 1    ipert=  13
    2)    idir= 2    ipert=  13
    3)    idir= 3    ipert=  13

 Perturbation wavevector (in red.coord.)   0.000000  0.000000  0.000000
 Perturbation : derivative vs k along direction   1

 dfpt_looppert : COMMENT -
  In a d/dk calculation, iscf is set to -3 automatically.
[...]
 ETOT 25  -73.276938418462      1.421E-14 2.248E-10 0.000E+00
 ETOT 26  -73.276938418462     -1.421E-14 5.919E-11 0.000E+00
 ETOT 27  -73.276938418462      1.421E-14 5.447E-11 0.000E+00
 ETOT 28  -73.276938418462      0.000E+00 1.464E-11 0.000E+00
 ETOT 29  -73.276938418462     -4.263E-14 1.322E-11 0.000E+00
 ETOT 30  -73.276938418462      1.421E-14 3.628E-12 0.000E+00
 ETOT 31  -73.276938418462      0.000E+00 3.215E-12 0.000E+00
 ETOT 32  -73.276938418462      0.000E+00 9.002E-13 0.000E+00
 ETOT 33  -73.276938418462      1.421E-14 7.830E-13 0.000E+00
 ETOT 34  -73.276938418462     -1.421E-14 2.236E-13 0.000E+00
 ETOT 35  -73.276938418462      0.000E+00 1.910E-13 0.000E+00
 ETOT 36  -73.276938418462      0.000E+00 5.558E-14 0.000E+00
 ETOT 37  -73.276938418462      0.000E+00 4.668E-14 0.000E+00
 ETOT 38  -73.276938418462      0.000E+00 1.382E-14 0.000E+00
 ETOT 39  -73.276938418462     -1.421E-14 1.143E-14 0.000E+00
 ETOT 40  -73.276938418462      0.000E+00 3.440E-15 0.000E+00
 ETOT 41  -73.276938418462      1.421E-14 2.804E-15 0.000E+00
 ETOT 42  -73.276938418462      0.000E+00 8.562E-16 0.000E+00
 ETOT 43  -73.276938418462      0.000E+00 6.894E-16 0.000E+00
 ETOT 44  -73.276938418462      0.000E+00 2.132E-16 0.000E+00
 ETOT 45  -73.276938418462     -1.421E-14 1.698E-16 0.000E+00
 ETOT 46  -73.276938418462      1.421E-14 5.308E-17 0.000E+00
 ETOT 47  -73.276938418462     -1.421E-14 4.191E-17 0.000E+00
 ETOT 48  -73.276938418462      0.000E+00 1.322E-17 0.000E+00
 ETOT 49  -73.276938418462      0.000E+00 1.036E-17 0.000E+00
 ETOT 50  -73.276938418462      0.000E+00 3.292E-18 0.000E+00
 ETOT 51  -73.276938418462      1.421E-14 2.566E-18 0.000E+00
 ETOT 52  -73.276938418462     -1.421E-14 8.201E-19 0.000E+00
 ETOT 53  -73.276938418462      1.421E-14 6.366E-19 0.000E+00
 ETOT 54  -73.276938418462      0.000E+00 2.043E-19 0.000E+00
 ETOT 55  -73.276938418462     -1.421E-14 1.581E-19 0.000E+00
 ETOT 56  -73.276938418462      1.421E-14 5.090E-20 0.000E+00
 ETOT 57  -73.276938418462      1.421E-14 3.932E-20 0.000E+00
 ETOT 58  -73.276938418462     -2.842E-14 1.268E-20 0.000E+00
 ETOT 59  -73.276938418462      2.842E-14 9.928E-21 0.000E+00

 At SCF step   59   max residual=  9.93E-21 < tolwfr=  1.00E-20 =>converged.

 ----iterations are completed or convergence reached----

 dfpt_looppert: DFPT cycle converged with prtwf=-1. Will skip output of the 1st-order WFK file.
 dfpt_looppert : ek2=    1.3970014418E+02
          f-sum rule ratio=    1.0085912805E+00
 prteigrs : about to open file /scratch/users/j/a/jabreu/flow_simple_11atoms/flow/w342/t1/tmpdata/tmp_1WF1_EIG
 Expectation of eigenvalue derivatives (hartree) for nkpt=   2  k points:
  (in case of degenerate eigenvalues, averaged derivative)
 kpt#   1, nband= 51, wtk=  0.50000, kpt=  0.5000  0.5000 -0.5000 (reduced coord)
  -0.00000   -0.00000   -0.00000   -0.00000    0.00000    0.00000    0.00000    0.00000
   0.00000    0.00000   -0.00000   -0.00000    0.00000    0.00000    0.00000    0.00000
  -0.00000   -0.00000   -0.00000   -0.00000    0.00000    0.00000    0.00000    0.00000
   0.00000    0.00000    0.00000    0.00000    0.00000    0.00000   -0.00000   -0.00000
   0.00000    0.00000   -0.00000   -0.00000   -0.00000   -0.00000   -0.00000   -0.00000
  -0.00000   -0.00000   -0.00000   -0.00000    0.00000    0.00000    0.00000    0.00000
   0.00000    0.00000    0.00000
 prteigrs : prtvol=0 or 1, do not print more k-points.

 Eight components of 2nd-order total energy (hartree) are
 1,2,3: 0th-order hamiltonian combined with 1st-order wavefunctions
     kin0=   9.83626295E+01 eigvalue=   5.39244624E+00  local=  -4.30891591E+01
 4,5,6: 1st-order hamiltonian combined with 1st and 0th-order wfs
     kin1=  -1.40900347E+02  Hartree=   0.00000000E+00     xc=   0.00000000E+00
 7,8,9: eventually, occupation + non-local contributions
    edocc=   1.20037211E+01     enl0=   6.07300655E-01   enl1=  -5.65352953E+00
 1-9 gives the relaxation energy (to be shifted if some occ is /=2.0)
   erelax=  -7.32769384E+01
  No Ewald or frozen-wf contrib.: the relaxation energy is the total one
 2DEtotal=   -0.7327693842E+02 Ha. Also 2DEtotal=   -0.199396689939E+04 eV
    (  non-var. 2DEtotal :   -7.3276938418E+01 Ha)

 CALCULATION OF EFFECTIVE MASSES
 NOTE : Additional infos (eff. mass eigenvalues, eigenvectors and, if degenerate, average mass) are available in stdout.

 COMMENTS:
 - At k-point ( 0.500, 0.500,-0.500), bands    41 through    42
   are DEGENERATE (effective mass tensor is therefore not defined).
   See Section IIIB Eqs. (67)-(70) and Appendix E of PRB 93 205147 (2016).
 - Angular average effective mass for Frohlich model is to be averaged over degenerate bands. See later.
 - Associated theta integrals calculated with ntheta=   1000 points.

 K-point ( 0.500, 0.500,-0.500) | band =    41
 Transport equivalent effective mass tensor:
             -9.4859573846              0.3849457062             -0.7299217854
              0.3849457062             -9.3374757504             -0.8845962662
             -0.7299217854             -0.8845962662             -8.1271071135
 Transport equivalent effective mass tensor eigenvalues:
             -9.8041041252             -9.8036806760             -7.3427554474
 Angular average effective mass 1/(<1/m>)=  -6.8361465176
 Angular average effective mass for Frohlich model (<m**0.5>)**2=  -6.9968243365
 Effective masses along directions: (cart. coord. / red. coord. -> eff. mass)
    1:   1.000000  0.000000  0.000000 /   0.982498 -0.186272  0.000000 ->  -6.6585328544
    2:   0.000000  1.000000  0.000000 /   0.000000  1.000000  0.000000 ->  -6.9721349430
    3:   0.000000  0.000000  1.000000 /  -0.490603 -0.490603  0.720150 ->  -5.8986046070
    4:   0.577350  0.577350  0.577350 /   0.050476 -0.100624  0.993643 ->  -8.5801098228
    5:   0.000000  0.707107  0.707107 /  -0.562746  0.030995  0.826048 ->  -6.6431744060
    6:   0.707107  0.000000  0.707107 /   0.039250 -0.633610  0.772657 ->  -8.0717128196
    7:   0.707107  0.707107  0.000000 /   0.783814  0.620995  0.000000 ->  -7.2990949845

 K-point ( 0.500, 0.500,-0.500) | band =    42
 Transport equivalent effective mass tensor:
            -54.2902468831              6.0347605065            -11.4388375479
              6.0347605065            -51.9588941268            -13.8581890066
            -11.4388375479            -13.8581890066            -33.0003066619
 Transport equivalent effective mass tensor eigenvalues:
            -59.2711522855            -59.2696293820            -20.7086660043
 Angular average effective mass 1/(<1/m>)= -10.9224710912
 Angular average effective mass for Frohlich model (<m**0.5>)**2= -13.8695691189
 Effective masses along directions: (cart. coord. / red. coord. -> eff. mass)
    1:   1.000000  0.000000  0.000000 /   0.982498 -0.186272  0.000000 -> -22.8343282831
    2:   0.000000  1.000000  0.000000 /   0.000000  1.000000  0.000000 -> -15.7405598466
    3:   0.000000  0.000000  1.000000 /  -0.490603 -0.490603  0.720150 ->  -6.9910491943
    4:   0.577350  0.577350  0.577350 /   0.050476 -0.100624  0.993643 -> -20.1001886485
    5:   0.000000  0.707107  0.707107 /  -0.562746  0.030995  0.826048 -> -31.2159302222
    6:   0.707107  0.000000  0.707107 /   0.039250 -0.633610  0.772657 -> -15.2286001589
    7:   0.707107  0.707107  0.000000 /   0.783814  0.620995  0.000000 -> -10.3009411078

 Angular average effective mass for Frohlich model, averaged over degenerate bands.
 Value of     (<<m**0.5>>)**2 =     1.014212E+01
 Absolute Value of <<m**0.5>> =     3.184669E+00

 K-point ( 0.000, 0.000, 0.000) | band =    43
 Effective mass tensor:
              0.6054965051              0.0106517066             -0.0201913297
              0.0106517066              0.6096100288             -0.0244630875
             -0.0201913297             -0.0244630875              0.6430769297
 Effective mass tensor eigenvalues:
              0.5967048050              0.5967048053              0.6647738533
 Angular average effective mass 1/(<1/m>)=   0.6177908922
 Angular average effective mass for Frohlich model (<m**0.5>)**2=   0.6182624005
 Effective masses along directions: (cart. coord. / red. coord. -> eff. mass)
    1:   1.000000  0.000000  0.000000 /   0.982498 -0.186272  0.000000 ->   0.6047020496
    2:   0.000000  1.000000  0.000000 /   0.000000  1.000000  0.000000 ->   0.6085179353
    3:   0.000000  0.000000  1.000000 /  -0.490603 -0.490603  0.720150 ->   0.6414499413
    4:   0.577350  0.577350  0.577350 /   0.050476 -0.100624  0.993643 ->   0.5967238430
    5:   0.000000  0.707107  0.707107 /  -0.562746  0.030995  0.826048 ->   0.6013868936
    6:   0.707107  0.000000  0.707107 /   0.039250 -0.633610  0.772657 ->   0.6034132145
    7:   0.707107  0.707107  0.000000 /   0.783814  0.620995  0.000000 ->   0.6166484995

 END OF EFFECTIVE MASSES SECTION

 ---- first-order wavefunction calculations are completed ----

 Total localisation tensor (bohr^2) in cartesian coordinates
  WARNING : still subject to testing - especially symmetries.
      direction              matrix element
   alpha     beta       real part   imaginary part
     1        1       0.5004112756    0.0000000000
     1        2      -0.0899202511    0.0000000000
     1        3      -0.3643024415    0.0000000000
     2        1      -0.0899202511    0.0000000000
     2        2       0.4656854700    0.0000000000
     2        3      -0.4413757035    0.0000000000
     3        1      -0.3643024415    0.0000000000
     3        2      -0.4413757035    0.0000000000
     3        3       2.2984030329    0.0000000000

 respfn : d/dk was computed, but no 2DTE, so no DDB output.

== END DATASET(S) ==============================================================

 -outvars: echo values of variables after computation  --------
            acell      1.0000000000E+00  1.0000000000E+00  1.0000000000E+00 Bohr
              amu      6.94100000E+00  8.89058500E+01  1.89984032E+01
             ecut      4.20000000E+01 Hartree
           etotal     -7.3276938418E+01
            fcart      0.0000000000E+00  0.0000000000E+00  0.0000000000E+00
                       0.0000000000E+00  0.0000000000E+00  0.0000000000E+00
                       0.0000000000E+00  0.0000000000E+00  0.0000000000E+00
                       0.0000000000E+00  0.0000000000E+00  0.0000000000E+00
                       0.0000000000E+00  0.0000000000E+00  0.0000000000E+00
                       0.0000000000E+00  0.0000000000E+00  0.0000000000E+00
                       0.0000000000E+00  0.0000000000E+00  0.0000000000E+00
                       0.0000000000E+00  0.0000000000E+00  0.0000000000E+00
                       0.0000000000E+00  0.0000000000E+00  0.0000000000E+00
                       0.0000000000E+00  0.0000000000E+00  0.0000000000E+00
                       0.0000000000E+00  0.0000000000E+00  0.0000000000E+00
                       0.0000000000E+00  0.0000000000E+00  0.0000000000E+00
-          fftalg         512
           irdden           1
           irdwfk           1
           istwfk        0    1
              ixc     -116133
              kpt      5.00000000E-01  5.00000000E-01 -5.00000000E-01
                       0.00000000E+00  0.00000000E+00  0.00000000E+00
           kptopt           0
P           mkmem           2
P          mkqmem           2
P          mk1mem           2
            natom          12
            nband          51
           nbdbuf           4
            ngfft          72      72      72
             nkpt           2
            nstep        2000
             nsym           8
           ntypat           3
              occ      2.000000  2.000000  2.000000  2.000000  2.000000  2.000000
                       2.000000  2.000000  2.000000  2.000000  2.000000  2.000000
                       2.000000  2.000000  2.000000  2.000000  2.000000  2.000000
                       2.000000  2.000000  2.000000  2.000000  2.000000  2.000000
                       2.000000  2.000000  2.000000  2.000000  2.000000  2.000000
                       2.000000  2.000000  2.000000  2.000000  2.000000  2.000000
                       2.000000  2.000000  2.000000  2.000000  2.000000  2.000000
                       0.000000  0.000000  0.000000  0.000000  0.000000  0.000000
                       0.000000  0.000000  0.000000
        optdriver           1
            prtwf          -1
            rfdir           1       1       1
           rfelfd           2
            rprim      8.9341325856E+00  0.0000000000E+00 -8.3141749822E+00
                      -1.6938238697E+00  8.7720969988E+00 -8.3141749822E+00
                       0.0000000000E+00  0.0000000000E+00  1.2204271002E+01
          spgroup          88
           strten      0.0000000000E+00  0.0000000000E+00  0.0000000000E+00
                       0.0000000000E+00  0.0000000000E+00  0.0000000000E+00
           symrel      1  0  0   0  1  0   0  0  1      -1  0  0   0 -1  0   0  0 -1
                       0  1  0   1  0  0  -1 -1 -1       0 -1  0  -1  0  0   1  1  1
                       0  0  1  -1 -1 -1   0  1  0       0  0 -1   1  1  1   0 -1  0
                      -1 -1 -1   0  0  1   1  0  0       1  1  1   0  0 -1  -1  0  0
            tnons      0.0000000  0.0000000  0.0000000    -0.2500000  0.2500000  0.5000000
                      -0.0000000  0.0000000  0.0000000    -0.2500000  0.2500000  0.5000000
                      -0.0000000  0.0000000  0.0000000    -0.2500000  0.2500000  0.5000000
                      -0.0000000 -0.0000000 -0.0000000    -0.2500000  0.2500000  0.5000000
           tolwfr      1.00000000E-20
            typat      1  1  2  2  3  3  3  3  3  3  3  3
           useylm           1
              wtk        0.50000    0.50000
           xangst      1.9157031778E+00  2.3209969017E+00 -4.3996719088E+00
                       5.0968509530E-01  3.4814953525E+00 -1.1705608779E+00
                       3.3217212603E+00  1.1604984508E+00 -1.1705608779E+00
                      -1.8835609308E-16 -1.2884121001E-16  4.1017882955E-16
                      -8.3528686323E-01  4.4123775798E+00 -2.1659667486E-01
                       4.2097632124E-01  1.1769044174E+00  1.8526788239E+00
                       1.1927734510E+00  4.0055230699E+00 -4.8743119722E+00
                      -3.6299952951E-01  3.0910468092E+00 -2.8050364735E+00
                       2.0044119519E+00  4.6255878367E+00 -9.6468954889E-01
                       3.2606751363E+00  1.3901146743E+00  1.1045859499E+00
                       1.2326148221E+00  1.7969691842E+00 -6.9592081450E-01
                       2.7883878026E+00  2.7114454449E+00 -2.7651963133E+00
            xcart      3.6201543579E+00  4.3860484994E+00 -8.3141749822E+00
                       9.6316524412E-01  6.5790727491E+00 -2.2120394812E+00
                       6.2771434718E+00  2.1930242497E+00 -2.2120394812E+00
                      -3.5594143138E-16 -2.4347460156E-16  7.7512565337E-16
                      -1.5784634139E+00  8.3381852208E+00 -4.0930839678E-01
                       7.9552995557E-01  2.2240270335E+00  3.5010555894E+00
                       2.2540151610E+00  7.5693416211E+00 -9.2111147138E+00
                      -6.8596969714E-01  5.8412319333E+00 -5.3007507276E+00
                       3.7877896465E+00  8.7410942150E+00 -1.8229990507E+00
                       6.1617830160E+00  2.6269360277E+00  2.0873649355E+00
                       2.3293044410E+00  3.3957796274E+00 -1.3150997496E+00
                       5.2692892992E+00  5.1238893152E+00 -5.2254637358E+00
             xred      5.0000000000E-01  5.0000000000E-01  1.3877787808E-17
                       2.5000000000E-01  7.5000000000E-01  5.0000000000E-01
                       7.5000000000E-01  2.5000000000E-01  5.0000000000E-01
                      -4.5102810375E-17 -2.7755575616E-17  1.3877787808E-17
                       3.5342500000E-03  9.5053500000E-01  6.1642275000E-01
                       1.3711150000E-01  2.5353425000E-01  5.5299925000E-01
                       4.1588775000E-01  8.6288850000E-01  1.1642275000E-01
                       4.9465000000E-02  6.6588775000E-01  5.2999250000E-02
                       6.1288850000E-01  9.9646575000E-01  9.4700075000E-01
                       7.4646575000E-01  2.9946500000E-01  8.8357725000E-01
                       3.3411225000E-01  3.8711150000E-01  3.8357725000E-01
                       7.0053500000E-01  5.8411225000E-01  4.4700075000E-01
            znucl        3.00000   39.00000    9.00000

- Timing analysis has been suppressed with timopt=0

 Suggested references for the acknowledgment of ABINIT usage.

 Calculation completed.
.Delivered   2 WARNINGs and   5 COMMENTs to log file.