.Version 9.5.1 of ABINIT

 ABINIT is a project of the Universite Catholique de Louvain,
 Corning Inc. and other collaborators, see ~abinit/doc/developers/contributors.txt .
 acknowledgments of the ABINIT effort.

.Starting date : Tue 11 May 2021.
- ( at 21h49 )

- input  file    -> /scratch/users/j/a/jabreu/flow_simple_8atoms/flow/w359/t1/run.abi
- output file    -> /scratch/users/j/a/jabreu/flow_simple_8atoms/flow/w359/t1/run.abo
- root for input  files -> /scratch/users/j/a/jabreu/flow_simple_8atoms/flow/w359/t1/indata/in
- root for output files -> /scratch/users/j/a/jabreu/flow_simple_8atoms/flow/w359/t1/outdata/out

 Symmetries : space group I-4 2 d (#122); Bravais tI (body-center tetrag.)
     intxc =       0      iscf =       7    lmnmax =      18     lnmax =       6
     mgfft =      90  mpssoang =       3    mqgrid =    3071     natom =       8
  nloc_mem =       1    nspden =       1   nspinor =       1    nsppol =       1
      nsym =       8    n1xccc =    2501    ntypat =       3    occopt =       1
   xclevel =       2
-    mband =          53        mffmem =           1         mkmem =           1
-   mkqmem =           1        mk1mem =           1           mpw =       20785
      nfft =      729000          nkpt =           1
  Rough estimation (10% accuracy) of disk space for files :

------------- Echo of variables that govern the present computation ------------
-
- outvars: echo of selected default values
-   iomode0 =  0 , fftalg0 =512 , wfoptalg0 =  0
-
- outvars: echo of global parameters not present in the input file
-  max_nthreads =    0
-
 -outvars: echo values of preprocessed input variables --------
            acell      1.0000000000E+00  1.0000000000E+00  1.0000000000E+00 Bohr
              amu      1.12411000E+02  7.26100000E+01  3.09737620E+01
             ecut      5.10000000E+01 Hartree
-          fftalg         512
           irdden           1
           irdwfk           1
           istwfk        1
              ixc     -116133
           kptopt           0
P           mkmem           1
P          mkqmem           1
P          mk1mem           1
            natom           8
            nband          53
           nbdbuf           4
            ngfft          90      90      90
             nkpt           1
            nstep        2000
             nsym           8
           ntypat           3
              occ      2.000000  2.000000  2.000000  2.000000  2.000000  2.000000
                       2.000000  2.000000  2.000000  2.000000  2.000000  2.000000
                       2.000000  2.000000  2.000000  2.000000  2.000000  2.000000
                       2.000000  2.000000  2.000000  2.000000  2.000000  2.000000
                       2.000000  2.000000  2.000000  2.000000  2.000000  2.000000
                       2.000000  2.000000  2.000000  2.000000  2.000000  2.000000
                       2.000000  2.000000  2.000000  2.000000  2.000000  2.000000
                       2.000000  2.000000  0.000000  0.000000  0.000000  0.000000
                       0.000000  0.000000  0.000000  0.000000  0.000000
        optdriver           1
            prtwf          -1
            rfdir           1       1       1
           rfelfd           2
            rprim      9.7853535405E+00  0.0000000000E+00 -8.2140655819E+00
                      -2.1266962662E+00  9.5514557479E+00 -8.2140655819E+00
                       0.0000000000E+00  0.0000000000E+00  1.2775915517E+01
          spgroup         122
           symrel      1  0  0   0  1  0   0  0  1       0  0  1  -1 -1 -1   1  0  0
                       0  1  0   1  0  0  -1 -1 -1      -1 -1 -1   0  0  1   0  1  0
                       0  1  0   1  0  0   0  0  1       0  0  1  -1 -1 -1   0  1  0
                       1  0  0   0  1  0  -1 -1 -1      -1 -1 -1   0  0  1   1  0  0
            tnons      0.0000000  0.0000000  0.0000000    -0.2500000  0.2500000  0.5000000
                       0.0000000  0.0000000  0.0000000    -0.2500000  0.2500000  0.5000000
                      -0.2500000  0.2500000  0.5000000     0.0000000  0.0000000  0.0000000
                      -0.2500000  0.2500000  0.5000000     0.0000000  0.0000000  0.0000000
           tolwfr      1.00000000E-20
            typat      1  1  2  2  3  3  3  3
           useylm           1
           xangst      0.0000000000E+00  0.0000000000E+00  0.0000000000E+00
                       3.6022897553E+00  1.2636031727E+00 -9.6633464057E-01
                       4.5049712266E-01  3.7908095180E+00 -9.6633464057E-01
                       2.0263934390E+00  2.5272063453E+00 -4.3466962958E+00
                       6.6073742454E-01  6.3180158633E-01  2.3655459234E+00
                       4.0753883573E+00  2.0458594616E+00 -5.3615120276E+00
                       2.3788527339E+00  3.1590079317E+00 -2.1248670567E+00
                       9.9059524020E-01  4.2721564018E+00  1.2554945986E+00
            xcart      0.0000000000E+00  0.0000000000E+00  0.0000000000E+00
                       6.8073410888E+00  2.3878639370E+00 -1.8261078234E+00
                       8.5131618547E-01  7.1635918109E+00 -1.8261078234E+00
                       3.8293286372E+00  4.7757278740E+00 -8.2140655819E+00
                       1.2486127781E+00  1.1939319685E+00  4.4702339500E+00
                       7.7013678804E+00  3.8661140887E+00 -1.0131789390E+01
                       4.4953801776E+00  5.9696598424E+00 -4.0154168059E+00
                       1.8719537125E+00  8.0732055962E+00  2.3725409526E+00
             xred      0.0000000000E+00  0.0000000000E+00  0.0000000000E+00
                       7.5000000000E-01  2.5000000000E-01  5.0000000000E-01
                       2.5000000000E-01  7.5000000000E-01  5.0000000000E-01
                       5.0000000000E-01  5.0000000000E-01 -5.5511151231E-17
                       1.5476700000E-01  1.2500000000E-01  5.2976700000E-01
                       8.7500000000E-01  4.0476700000E-01  2.9767000000E-02
                       5.9523300000E-01  6.2500000000E-01  4.7023300000E-01
                       3.7500000000E-01  8.4523300000E-01  9.7023300000E-01
            znucl       48.00000   32.00000   15.00000

 chkinp: Checking input parameters for consistency.

== DATASET  1 ==================================================================
-   mpi_nproc: 1, omp_nthreads: -1 (-1 if OMP is not activated)

--- !DatasetInfo
iteration_state: {dtset: 1, }
dimensions: {natom: 8, nkpt: 1, mband: 53, nsppol: 1, nspinor: 1, nspden: 1, mpw: 20785, }
cutoff_energies: {ecut:  51.0, pawecutdg:  -1.0, }
electrons: {nelect:   8.80000000E+01, charge:   0.00000000E+00, occopt:   1.00000000E+00, tsmear:   1.00000000E-02, }
meta: {optdriver: 1, rfelfd: 2, }
...

 Real(R)+Recip(G) space primitive vectors, cartesian coordinates (Bohr,Bohr^-1):
 R(1)=  9.7853535  0.0000000 -8.2140656  G(1)=  0.1021935  0.0227541  0.0000000
 R(2)= -2.1266963  9.5514557 -8.2140656  G(2)=  0.0000000  0.1046961  0.0000000
 R(3)=  0.0000000  0.0000000 12.7759155  G(3)=  0.0657037  0.0819420  0.0782723
 Unit cell volume ucvol=  1.1940929E+03 bohr^3
 Angles (23,13,12)=  1.30010921E+02  1.30010921E+02  7.33893056E+01 degrees

 getcut: wavevector=  0.0000  0.0000  0.0000  ngfft=  90  90  90
         ecut(hartree)=     51.000   => boxcut(ratio)=   2.19130

--- Pseudopotential description ------------------------------------------------
- pspini: atom type   1  psp file is /scratch/users/j/a/jabreu/pseudos/PBEsol/Cd.psp8
- pspatm: opening atomic psp file    /scratch/users/j/a/jabreu/pseudos/PBEsol/Cd.psp8
- Cd    ONCVPSP-3.3.0  r_core=   1.25838   1.30423   1.35174
- 48.00000  20.00000    180112                znucl, zion, pspdat
    8 -116133    2    4       600   0.00000   pspcod,pspxc,lmax,lloc,mmax,r2well
    5.99000000000000    6.00000000000000    0.00000000000000   rchrg,fchrg,qchrg
     nproj     2     2     2
     extension_switch     1
  pspatm : epsatm=   23.26728021
         --- l  ekb(1:nproj) -->
             0   63.701523    3.700425
             1    8.703569    1.290373
             2    0.983656   -0.721725
 pspatm: atomic psp has been read  and splines computed

- pspini: atom type   2  psp file is /scratch/users/j/a/jabreu/pseudos/PBEsol/Ge.psp8
- pspatm: opening atomic psp file    /scratch/users/j/a/jabreu/pseudos/PBEsol/Ge.psp8
- Ge    ONCVPSP-3.3.0  r_core=   1.91022   1.82122   1.91022
- 32.00000  14.00000    180112                znucl, zion, pspdat
    8 -116133    2    4       600   0.00000   pspcod,pspxc,lmax,lloc,mmax,r2well
    5.99000000000000    5.00000000000000    0.00000000000000   rchrg,fchrg,qchrg
     nproj     2     2     2
     extension_switch     1
  pspatm : epsatm=   30.86751540
         --- l  ekb(1:nproj) -->
             0    6.339734    0.583066
             1    3.813259    0.738801
             2   -9.332373   -3.602819
 pspatm: atomic psp has been read  and splines computed

- pspini: atom type   3  psp file is /scratch/users/j/a/jabreu/pseudos/PBEsol/P.psp8
- pspatm: opening atomic psp file    /scratch/users/j/a/jabreu/pseudos/PBEsol/P.psp8
- P     ONCVPSP-3.3.0  r_core=   1.46089   1.55067   1.70594
- 15.00000   5.00000    180112                znucl, zion, pspdat
    8 -116133    2    4       600   0.00000   pspcod,pspxc,lmax,lloc,mmax,r2well
    5.99000000000000    5.00000000000000    0.00000000000000   rchrg,fchrg,qchrg
     nproj     2     2     2
     extension_switch     1
  pspatm : epsatm=    7.31221086
         --- l  ekb(1:nproj) -->
             0    6.742364    1.063650
             1    3.449117    0.910422
             2   -3.077645   -0.799176
 pspatm: atomic psp has been read  and splines computed

   1.21016223E+04                                ecore*ucvol(ha*bohr**3)

-inwffil : will read wavefunctions from disk file /scratch/users/j/a/jabreu/flow_simple_8atoms/flow/w359/t1/indata/in_WFK

 ==>  initialize data related to q vector <==

 The list of irreducible perturbations for this q vector is:
    1)    idir= 1    ipert=   9
    2)    idir= 2    ipert=   9
    3)    idir= 3    ipert=   9

 Perturbation wavevector (in red.coord.)   0.000000  0.000000  0.000000
 Perturbation : derivative vs k along direction   1

 dfpt_looppert : COMMENT -
  In a d/dk calculation, iscf is set to -3 automatically.
 The set of symmetries contains only one element for this perturbation.
 symkpt : not enough symmetry to change the number of k points.

[...]

 Initialisation of the first-order wave-functions :
  ireadwf=   0

--- !BeginCycle
iteration_state: {dtset: 1, }
solver: {iscf: 7, nstep: 2000, nline: 4, wfoptalg: 0, }
tolerances: {tolwfr: 1.00E-20, }
...

     iter   2DEtotal(Ha)        deltaE(Ha) residm    vres2
-ETOT  1  -70.983919631906     -7.098E+01 2.087E-01 0.000E+00
 ETOT  2  -71.149600673221     -1.657E-01 3.942E-02 0.000E+00
 ETOT  3  -71.152292948861     -2.692E-03 3.981E-03 0.000E+00
 ETOT  4  -71.152382414159     -8.947E-05 1.286E-03 0.000E+00
 ETOT  5  -71.152386277105     -3.863E-06 1.771E-04 0.000E+00
 ETOT  6  -71.152386478036     -2.009E-07 6.658E-05 0.000E+00
 ETOT  7  -71.152386489842     -1.181E-08 9.523E-06 0.000E+00
 ETOT  8  -71.152386490607     -7.646E-10 3.744E-06 0.000E+00
[...]
 ETOT 26  -71.152386490664      1.421E-14 3.140E-17 0.000E+00
 ETOT 27  -71.152386490664      0.000E+00 4.253E-18 0.000E+00
 ETOT 28  -71.152386490664      0.000E+00 1.867E-18 0.000E+00
 ETOT 29  -71.152386490664     -1.421E-14 2.513E-19 0.000E+00
 ETOT 30  -71.152386490664      0.000E+00 1.111E-19 0.000E+00
 ETOT 31  -71.152386490664     -2.842E-14 1.486E-20 0.000E+00
 ETOT 32  -71.152386490664      1.421E-14 9.638E-21 0.000E+00

 At SCF step   32   max residual=  9.64E-21 < tolwfr=  1.00E-20 =>converged.

 ----iterations are completed or convergence reached----

 dfpt_looppert: DFPT cycle converged with prtwf=-1. Will skip output of the 1st-order WFK file.
 dfpt_looppert : ek2=    7.6161110646E+01
          f-sum rule ratio=    1.3678166099E+00
 prteigrs : about to open file /scratch/users/j/a/jabreu/flow_simple_8atoms/flow/w359/t1/tmpdata/tmp_1WF1_EIG
 Expectation of eigenvalue derivatives (hartree) for nkpt=   1  k points:
  (in case of degenerate eigenvalues, averaged derivative)
 kpt#   1, nband= 53, wtk=  1.00000, kpt=  0.0000  0.0000  0.0000 (reduced coord)
  -0.00000   -0.00000    0.00000   -0.00000    0.00000    0.00000    0.00000    0.00000
   0.00000    0.00000    0.00000   -0.00000   -0.00000   -0.00000    0.00000    0.00000
  -0.00000   -0.00000   -0.00000   -0.00000   -0.00000   -0.00000   -0.00000   -0.00000
   0.00000    0.00000   -0.00000   -0.00000    0.00000    0.00000   -0.00000    0.00000
   0.00000    0.00000    0.00000    0.00000    0.00000   -0.00000    0.00000   -0.00000
  -0.00000    0.00000    0.00000    0.00000   -0.00000    0.00000   -0.00000   -0.00000
  -0.00000   -0.00000   -0.00000   -0.00000    0.04129

 Eight components of 2nd-order total energy (hartree) are
 1,2,3: 0th-order hamiltonian combined with 1st-order wavefunctions
     kin0=   7.13673553E+01 eigvalue=   3.69527144E+00  local=  -3.22167518E+01
 4,5,6: 1st-order hamiltonian combined with 1st and 0th-order wfs
     kin1=  -1.04174432E+02  Hartree=   0.00000000E+00     xc=   0.00000000E+00
 7,8,9: eventually, occupation + non-local contributions
    edocc=   2.33385182E+01     enl0=   4.96799335E+00   enl1=  -3.81303408E+01
 1-9 gives the relaxation energy (to be shifted if some occ is /=2.0)
   erelax=  -7.11523865E+01
  No Ewald or frozen-wf contrib.: the relaxation energy is the total one
 2DEtotal=   -0.7115238649E+02 Ha. Also 2DEtotal=   -0.193615490135E+04 eV
    (  non-var. 2DEtotal :   -7.1152386490E+01 Ha)

 Perturbation wavevector (in red.coord.)   0.000000  0.000000  0.000000
 Perturbation : derivative vs k along direction   2
 The set of symmetries contains only one element for this perturbation.
 symkpt : not enough symmetry to change the number of k points.

[...]

 Perturbation wavevector (in red.coord.)   0.000000  0.000000  0.000000
 Perturbation : derivative vs k along direction   3
 The set of symmetries contains only one element for this perturbation.
 symkpt : not enough symmetry to change the number of k points.

-inwffil : will read wavefunctions from disk file /scratch/users/j/a/jabreu/flow_simple_8atoms/flow/w359/t1/indata/in_WFK

 Initialisation of the first-order wave-functions :
  ireadwf=   0

--- !BeginCycle
iteration_state: {dtset: 1, }
solver: {iscf: 7, nstep: 2000, nline: 4, wfoptalg: 0, }
tolerances: {tolwfr: 1.00E-20, }
...

     iter   2DEtotal(Ha)        deltaE(Ha) residm    vres2
-ETOT  1  -111.48659714552     -1.115E+02 3.147E-01 0.000E+00
 ETOT  2  -111.71868224221     -2.321E-01 3.780E-02 0.000E+00
 ETOT  3  -111.72186586717     -3.184E-03 4.651E-03 0.000E+00
 ETOT  4  -111.72194905424     -8.319E-05 1.401E-03 0.000E+00
 ETOT  5  -111.72195190375     -2.850E-06 3.284E-04 0.000E+00
 ETOT  6  -111.72195201997     -1.162E-07 1.002E-04 0.000E+00
 ETOT  7  -111.72195202516     -5.199E-09 2.348E-05 0.000E+00
 ETOT  8  -111.72195202544     -2.765E-10 7.263E-06 0.000E+00
 ETOT  9  -111.72195202546     -1.583E-11 1.695E-06 0.000E+00
 ETOT 10  -111.72195202546     -1.492E-12 5.297E-07 0.000E+00
 ETOT 11  -111.72195202546      8.527E-14 1.231E-07 0.000E+00
 ETOT 12  -111.72195202546     -1.421E-14 3.877E-08 0.000E+00
 ETOT 13  -111.72195202546     -1.563E-13 8.968E-09 0.000E+00
 ETOT 14  -111.72195202546      5.684E-14 2.844E-09 0.000E+00
 ETOT 15  -111.72195202546      8.527E-14 6.550E-10 0.000E+00
 ETOT 16  -111.72195202546     -2.842E-14 2.089E-10 0.000E+00
 ETOT 17  -111.72195202546      1.421E-14 4.791E-11 0.000E+00
 ETOT 18  -111.72195202546     -1.421E-14 1.537E-11 0.000E+00
 ETOT 19  -111.72195202546      1.421E-14 3.509E-12 0.000E+00
 ETOT 20  -111.72195202546      1.421E-14 1.131E-12 0.000E+00
 ETOT 21  -111.72195202546     -1.421E-14 2.573E-13 0.000E+00
 ETOT 22  -111.72195202546     -1.421E-14 8.328E-14 0.000E+00
 ETOT 23  -111.72195202546      2.842E-14 1.888E-14 0.000E+00
 ETOT 24  -111.72195202546     -1.421E-14 6.136E-15 0.000E+00
 ETOT 25  -111.72195202546     -1.421E-14 1.386E-15 0.000E+00
 ETOT 26  -111.72195202546      2.842E-14 4.522E-16 0.000E+00
 ETOT 27  -111.72195202546      0.000E+00 1.018E-16 0.000E+00
 ETOT 28  -111.72195202546      0.000E+00 3.334E-17 0.000E+00
 ETOT 29  -111.72195202546     -1.421E-14 7.484E-18 0.000E+00
 ETOT 30  -111.72195202546      1.421E-14 2.458E-18 0.000E+00
 ETOT 31  -111.72195202546     -2.842E-14 5.504E-19 0.000E+00
 ETOT 32  -111.72195202546      2.842E-14 1.813E-19 0.000E+00
 ETOT 33  -111.72195202546     -2.842E-14 4.049E-20 0.000E+00
 ETOT 34  -111.72195202546      1.421E-14 1.337E-20 0.000E+00
 ETOT 35  -111.72195202546     -5.684E-14 9.838E-21 0.000E+00

 At SCF step   35   max residual=  9.84E-21 < tolwfr=  1.00E-20 =>converged.

 ----iterations are completed or convergence reached----

 dfpt_looppert: DFPT cycle converged with prtwf=-1. Will skip output of the 1st-order WFK file.
 dfpt_looppert : ek2=    1.1921732653E+02
          f-sum rule ratio=    1.3739097403E+00
 prteigrs : about to open file /scratch/users/j/a/jabreu/flow_simple_8atoms/flow/w359/t1/tmpdata/tmp_1WF1_EIG
 Expectation of eigenvalue derivatives (hartree) for nkpt=   1  k points:
  (in case of degenerate eigenvalues, averaged derivative)
 kpt#   1, nband= 53, wtk=  1.00000, kpt=  0.0000  0.0000  0.0000 (reduced coord)
  -0.00000   -0.00000    0.00000   -0.00000    0.00000    0.00000    0.00000    0.00000
   0.00000    0.00000    0.00000   -0.00000   -0.00000   -0.00000   -0.00000    0.00000
   0.00000   -0.00000   -0.00000   -0.00000   -0.00000   -0.00000   -0.00000   -0.00000
   0.00000    0.00000    0.00000   -0.00000   -0.00000    0.00000   -0.00000   -0.00000
  -0.00000    0.00000    0.00000    0.00000   -0.00000   -0.00000    0.00000    0.00000
   0.00000   -0.00000   -0.00000    0.00000   -0.00000   -0.00000   -0.00000   -0.00000
  -0.00000   -0.00000   -0.00000   -0.00000    0.04371

 Eight components of 2nd-order total energy (hartree) are
 1,2,3: 0th-order hamiltonian combined with 1st-order wavefunctions
     kin0=   1.11035569E+02 eigvalue=   5.76060307E+00  local=  -4.98499248E+01
 4,5,6: 1st-order hamiltonian combined with 1st and 0th-order wfs
     kin1=  -1.63793846E+02  Hartree=   0.00000000E+00     xc=   0.00000000E+00
 7,8,9: eventually, occupation + non-local contributions
    edocc=   3.72091872E+01     enl0=   7.56651723E+00   enl1=  -5.96500579E+01
 1-9 gives the relaxation energy (to be shifted if some occ is /=2.0)
   erelax=  -1.11721952E+02
  No Ewald or frozen-wf contrib.: the relaxation energy is the total one
 2DEtotal=   -0.1117219520E+03 Ha. Also 2DEtotal=   -0.304010892215E+04 eV
    (  non-var. 2DEtotal :   -1.1172195203E+02 Ha)

 CALCULATION OF EFFECTIVE MASSES
 NOTE : Additional infos (eff. mass eigenvalues, eigenvectors and, if degenerate, average mass) are available in stdout.

 K-point ( 0.000, 0.000, 0.000) | band =    44
 Effective mass tensor:
             -0.3379161876              0.0554828936             -0.0954710822
              0.0554828936             -0.3131965616             -0.1190516019
             -0.0954710822             -0.1190516019             -0.1776742980
 Effective mass tensor eigenvalues:
             -0.3824446013             -0.3823969362             -0.0639455097
 Angular average effective mass 1/(<1/m>)=  -0.1437597064
 Angular average effective mass for Frohlich model (<m**0.5>)**2=  -0.1827407497
 Effective masses along directions: (cart. coord. / red. coord. -> eff. mass)
    1:   1.000000  0.000000  0.000000 /   0.977188 -0.212377  0.000000 ->  -0.2254863515
    2:   0.000000  1.000000  0.000000 /   0.000000  1.000000  0.000000 ->  -0.1836402927
    3:   0.000000  0.000000  1.000000 /  -0.475696 -0.475696  0.739883 ->  -0.0910094506
    4:   0.577350  0.577350  0.577350 /   0.121840 -0.061204  0.990661 ->  -0.3815197463
    5:   0.000000  0.707107  0.707107 /  -0.538719  0.087713  0.837907 ->  -0.2986483589
    6:   0.707107  0.000000  0.707107 /   0.095164 -0.626282  0.773766 ->  -0.2626290000
    7:   0.707107  0.707107  0.000000 /   0.796637  0.604458  0.000000 ->  -0.1387029811

 K-point ( 0.000, 0.000, 0.000) | band =    45
 Effective mass tensor:
              0.0774927727             -0.0027854166              0.0047898579
             -0.0027854166              0.0762517769              0.0059733309
              0.0047898579              0.0059733309              0.0694506238
 Effective mass tensor eigenvalues:
              0.0637446103              0.0797245077              0.0797260554
 Angular average effective mass 1/(<1/m>)=   0.0735767567
 Angular average effective mass for Frohlich model (<m**0.5>)**2=   0.0738317116
 Effective masses along directions: (cart. coord. / red. coord. -> eff. mass)
    1:   1.000000  0.000000  0.000000 /   0.977188 -0.212377  0.000000 ->   0.0770274447
    2:   0.000000  1.000000  0.000000 /   0.000000  1.000000  0.000000 ->   0.0756055305
    3:   0.000000  0.000000  1.000000 /  -0.475696 -0.475696  0.739883 ->   0.0686586143
    4:   0.577350  0.577350  0.577350 /   0.121840 -0.061204  0.990661 ->   0.0797149607
    5:   0.000000  0.707107  0.707107 /  -0.538719  0.087713  0.837907 ->   0.0786145710
    6:   0.707107  0.000000  0.707107 /   0.095164 -0.626282  0.773766 ->   0.0779356714
    7:   0.707107  0.707107  0.000000 /   0.796637  0.604458  0.000000 ->   0.0732464710

 END OF EFFECTIVE MASSES SECTION

 ---- first-order wavefunction calculations are completed ----

 Total localisation tensor (bohr^2) in cartesian coordinates
  WARNING : still subject to testing - especially symmetries.
      direction              matrix element
   alpha     beta       real part   imaginary part
     1        1       6.0523342061    0.0000000000
     1        2      -1.2260428633    0.0000000000
     1        3      -3.7969529617    0.0000000000
     2        1      -1.2260428633    0.0000000000
     2        2       5.5064253134    0.0000000000
     2        3      -4.7354183320    0.0000000000
     3        1      -3.7969529617    0.0000000000
     3        2      -4.7354183320    0.0000000000
     3        3      22.5189862853    0.0000000000

 respfn : d/dk was computed, but no 2DTE, so no DDB output.

== END DATASET(S) ==============================================================

 -outvars: echo values of variables after computation  --------
            acell      1.0000000000E+00  1.0000000000E+00  1.0000000000E+00 Bohr
              amu      1.12411000E+02  7.26100000E+01  3.09737620E+01
             ecut      5.10000000E+01 Hartree
           etotal     -1.1172195203E+02
            fcart      0.0000000000E+00  0.0000000000E+00  0.0000000000E+00
                       0.0000000000E+00  0.0000000000E+00  0.0000000000E+00
                       0.0000000000E+00  0.0000000000E+00  0.0000000000E+00
                       0.0000000000E+00  0.0000000000E+00  0.0000000000E+00
                       0.0000000000E+00  0.0000000000E+00  0.0000000000E+00
                       0.0000000000E+00  0.0000000000E+00  0.0000000000E+00
                       0.0000000000E+00  0.0000000000E+00  0.0000000000E+00
                       0.0000000000E+00  0.0000000000E+00  0.0000000000E+00
-          fftalg         512
           irdden           1
           irdwfk           1
           istwfk        1
              ixc     -116133
           kptopt           0
P           mkmem           1
P          mkqmem           1
P          mk1mem           1
            natom           8
            nband          53
           nbdbuf           4
            ngfft          90      90      90
             nkpt           1
            nstep        2000
             nsym           8
           ntypat           3
              occ      2.000000  2.000000  2.000000  2.000000  2.000000  2.000000
                       2.000000  2.000000  2.000000  2.000000  2.000000  2.000000
                       2.000000  2.000000  2.000000  2.000000  2.000000  2.000000
                       2.000000  2.000000  2.000000  2.000000  2.000000  2.000000
                       2.000000  2.000000  2.000000  2.000000  2.000000  2.000000
                       2.000000  2.000000  2.000000  2.000000  2.000000  2.000000
                       2.000000  2.000000  2.000000  2.000000  2.000000  2.000000
                       2.000000  2.000000  0.000000  0.000000  0.000000  0.000000
                       0.000000  0.000000  0.000000  0.000000  0.000000
        optdriver           1
            prtwf          -1
            rfdir           1       1       1
           rfelfd           2
            rprim      9.7853535405E+00  0.0000000000E+00 -8.2140655819E+00
                      -2.1266962662E+00  9.5514557479E+00 -8.2140655819E+00
                       0.0000000000E+00  0.0000000000E+00  1.2775915517E+01
          spgroup         122
           strten      0.0000000000E+00  0.0000000000E+00  0.0000000000E+00
                       0.0000000000E+00  0.0000000000E+00  0.0000000000E+00
           symrel      1  0  0   0  1  0   0  0  1       0  0  1  -1 -1 -1   1  0  0
                       0  1  0   1  0  0  -1 -1 -1      -1 -1 -1   0  0  1   0  1  0
                       0  1  0   1  0  0   0  0  1       0  0  1  -1 -1 -1   0  1  0
                       1  0  0   0  1  0  -1 -1 -1      -1 -1 -1   0  0  1   1  0  0
            tnons      0.0000000  0.0000000  0.0000000    -0.2500000  0.2500000  0.5000000
                       0.0000000  0.0000000  0.0000000    -0.2500000  0.2500000  0.5000000
                      -0.2500000  0.2500000  0.5000000     0.0000000  0.0000000  0.0000000
                      -0.2500000  0.2500000  0.5000000     0.0000000  0.0000000  0.0000000
           tolwfr      1.00000000E-20
            typat      1  1  2  2  3  3  3  3
           useylm           1
           xangst      0.0000000000E+00  0.0000000000E+00  0.0000000000E+00
                       3.6022897553E+00  1.2636031727E+00 -9.6633464057E-01
                       4.5049712266E-01  3.7908095180E+00 -9.6633464057E-01
                       2.0263934390E+00  2.5272063453E+00 -4.3466962958E+00
                       6.6073742454E-01  6.3180158633E-01  2.3655459234E+00
                       4.0753883573E+00  2.0458594616E+00 -5.3615120276E+00
                       2.3788527339E+00  3.1590079317E+00 -2.1248670567E+00
                       9.9059524020E-01  4.2721564018E+00  1.2554945986E+00
            xcart      0.0000000000E+00  0.0000000000E+00  0.0000000000E+00
                       6.8073410888E+00  2.3878639370E+00 -1.8261078234E+00
                       8.5131618547E-01  7.1635918109E+00 -1.8261078234E+00
                       3.8293286372E+00  4.7757278740E+00 -8.2140655819E+00
                       1.2486127781E+00  1.1939319685E+00  4.4702339500E+00
                       7.7013678804E+00  3.8661140887E+00 -1.0131789390E+01
                       4.4953801776E+00  5.9696598424E+00 -4.0154168059E+00
                       1.8719537125E+00  8.0732055962E+00  2.3725409526E+00
             xred      0.0000000000E+00  0.0000000000E+00  0.0000000000E+00
                       7.5000000000E-01  2.5000000000E-01  5.0000000000E-01
                       2.5000000000E-01  7.5000000000E-01  5.0000000000E-01
                       5.0000000000E-01  5.0000000000E-01 -5.5511151231E-17
                       1.5476700000E-01  1.2500000000E-01  5.2976700000E-01
                       8.7500000000E-01  4.0476700000E-01  2.9767000000E-02
                       5.9523300000E-01  6.2500000000E-01  4.7023300000E-01
                       3.7500000000E-01  8.4523300000E-01  9.7023300000E-01
            znucl       48.00000   32.00000   15.00000

- Timing analysis has been suppressed with timopt=0

 Suggested references for the acknowledgment of ABINIT usage.

 Calculation completed.
.Delivered   6 WARNINGs and   5 COMMENTs to log file.