.Version 9.5.1 of ABINIT

 ABINIT is a project of the Universite Catholique de Louvain,
 Corning Inc. and other collaborators, see ~abinit/doc/developers/contributors.txt .
 acknowledgments of the ABINIT effort.

.Starting date : Tue 11 May 2021.
- ( at 21h56 )

- input  file    -> /scratch/users/j/a/jabreu/flow_simple_8atoms/flow/w373/t1/run.abi
- output file    -> /scratch/users/j/a/jabreu/flow_simple_8atoms/flow/w373/t1/run.abo
- root for input  files -> /scratch/users/j/a/jabreu/flow_simple_8atoms/flow/w373/t1/indata/in
- root for output files -> /scratch/users/j/a/jabreu/flow_simple_8atoms/flow/w373/t1/outdata/out

 Symmetries : space group C2/c (# 15); Bravais mC (1-face-center monocl.)
     intxc =       0      iscf =       7    lmnmax =      18     lnmax =       6
     mgfft =      72  mpssoang =       3    mqgrid =    3001     natom =       8
  nloc_mem =       1    nspden =       1   nspinor =       1    nsppol =       1
      nsym =       4    n1xccc =    2501    ntypat =       3    occopt =       1
   xclevel =       2
-    mband =          45        mffmem =           1         mkmem =           1
-   mkqmem =           1        mk1mem =           1           mpw =       14064
      nfft =      294912          nkpt =           1
  Rough estimation (10% accuracy) of disk space for files :

------------- Echo of variables that govern the present computation ------------
-
- outvars: echo of selected default values
-   iomode0 =  0 , fftalg0 =512 , wfoptalg0 =  0
-
- outvars: echo of global parameters not present in the input file
-  max_nthreads =    0
-
 -outvars: echo values of preprocessed input variables --------
            acell      1.0000000000E+00  1.0000000000E+00  1.0000000000E+00 Bohr
              amu      3.90983000E+01  2.08980370E+02  1.59994000E+01
             ecut      4.40000000E+01 Hartree
-          fftalg         512
           irdden           1
           irdwfk           1
              ixc     -116133
              kpt      5.00000000E-01 -5.00000000E-01  0.00000000E+00
           kptopt           0
P           mkmem           1
P          mkqmem           1
P          mk1mem           1
            natom           8
            nband          45
           nbdbuf           4
            ngfft          64      64      72
             nkpt           1
            nstep        2000
             nsym           4
           ntypat           3
              occ      2.000000  2.000000  2.000000  2.000000  2.000000  2.000000
                       2.000000  2.000000  2.000000  2.000000  2.000000  2.000000
                       2.000000  2.000000  2.000000  2.000000  2.000000  2.000000
                       2.000000  2.000000  2.000000  2.000000  2.000000  2.000000
                       2.000000  2.000000  2.000000  2.000000  2.000000  2.000000
                       2.000000  2.000000  2.000000  2.000000  2.000000  2.000000
                       0.000000  0.000000  0.000000  0.000000  0.000000  0.000000
                       0.000000  0.000000  0.000000
        optdriver           1
            prtwf          -1
            rfdir           1       1       1
           rfelfd           2
            rprim      9.5419635902E+00  0.0000000000E+00  4.2099160930E+00
                      -1.9433505745E+00  9.3419729020E+00  4.2099160930E+00
                       0.0000000000E+00  0.0000000000E+00  1.1335036234E+01
          spgroup          15
           symrel      1  0  0   0  1  0   0  0  1      -1  0  0   0 -1  0   0  0 -1
                       0 -1  0  -1  0  0   0  0 -1       0  1  0   1  0  0   0  0  1
            tnons      0.0000000  0.0000000  0.0000000     0.0000000  0.0000000  0.0000000
                       0.0000000  0.0000000  0.5000000     0.0000000  0.0000000  0.5000000
           tolwfr      1.00000000E-20
            typat      1  1  2  2  3  3  3  3
           useylm           1
           xangst     -2.3979878585E-01  4.3021422313E+00  3.7273523549E+00
                       4.2608116107E+00  6.4141691169E-01  6.7264737718E+00
                       1.3662935534E+00  2.9957721229E+00  6.7264737718E+00
                       2.6547192715E+00  1.9477870201E+00  3.7273523549E+00
                       3.2070841740E+00  3.0915041457E+00  7.7567157313E+00
                       1.6474700137E+00  1.1740656351E+00  5.6962318123E+00
                       2.3735428111E+00  3.7694935079E+00  4.7575943144E+00
                       8.1392865077E-01  1.8520549973E+00  2.6971103954E+00
            xcart     -4.5315403226E-01  8.1298706019E+00  7.0436751516E+00
                       8.0517670480E+00  1.2121023001E+00  1.2711193269E+01
                       2.5819206330E+00  5.6611888687E+00  1.2711193269E+01
                       5.0166923827E+00  3.6807840333E+00  7.0436751516E+00
                       6.0605107740E+00  5.8420961740E+00  1.4658068423E+01
                       3.1132671381E+00  2.2186625124E+00  1.0764318115E+01
                       4.4853458776E+00  7.1233103896E+00  8.9905503057E+00
                       1.5381022417E+00  3.4998767280E+00  5.0967999975E+00
             xred      1.2974800000E-01  8.7025200000E-01  2.5000000000E-01
                       8.7025200000E-01  1.2974800000E-01  7.5000000000E-01
                       3.9400500000E-01  6.0599500000E-01  7.5000000000E-01
                       6.0599500000E-01  3.9400500000E-01  2.5000000000E-01
                       7.6250600000E-01  6.2536000000E-01  7.7770100000E-01
                       3.7464000000E-01  2.3749400000E-01  7.2229900000E-01
                       6.2536000000E-01  7.6250600000E-01  2.7770100000E-01
                       2.3749400000E-01  3.7464000000E-01  2.2229900000E-01
            znucl       19.00000   83.00000    8.00000

 chkinp: Checking input parameters for consistency.

== DATASET  1 ==================================================================
-   mpi_nproc: 1, omp_nthreads: -1 (-1 if OMP is not activated)

--- !DatasetInfo
iteration_state: {dtset: 1, }
dimensions: {natom: 8, nkpt: 1, mband: 45, nsppol: 1, nspinor: 1, nspden: 1, mpw: 14064, }
cutoff_energies: {ecut:  44.0, pawecutdg:  -1.0, }
electrons: {nelect:   7.20000000E+01, charge:   0.00000000E+00, occopt:   1.00000000E+00, tsmear:   1.00000000E-02, }
meta: {optdriver: 1, rfelfd: 2, }
...

 Real(R)+Recip(G) space primitive vectors, cartesian coordinates (Bohr,Bohr^-1):
 R(1)=  9.5419636  0.0000000  4.2099161  G(1)=  0.1048002  0.0218009  0.0000000
 R(2)= -1.9433506  9.3419729  4.2099161  G(2)=  0.0000000  0.1070438  0.0000000
 R(3)=  0.0000000  0.0000000 11.3350362  G(3)= -0.0389236 -0.0478539  0.0882220
 Unit cell volume ucvol=  1.0104138E+03 bohr^3
 Angles (23,13,12)=  6.61929192E+01  6.61929192E+01  9.04319313E+01 degrees

 getcut: wavevector=  0.0000  0.0000  0.0000  ngfft=  64  64  72
         ecut(hartree)=     44.000   => boxcut(ratio)=   2.05517

--- Pseudopotential description ------------------------------------------------
- pspini: atom type   1  psp file is /scratch/users/j/a/jabreu/pseudos/PBEsol/K.psp8
- pspatm: opening atomic psp file    /scratch/users/j/a/jabreu/pseudos/PBEsol/K.psp8
- K     ONCVPSP-3.3.0  r_core=   1.36296   1.46408   1.61068
- 19.00000   9.00000    180112                znucl, zion, pspdat
    8 -116133    2    4       400   0.00000   pspcod,pspxc,lmax,lloc,mmax,r2well
    3.99000000000000    5.00000000000000    0.00000000000000   rchrg,fchrg,qchrg
     nproj     2     2     2
     extension_switch     1
  pspatm : epsatm=    8.32487830
         --- l  ekb(1:nproj) -->
             0   10.921326    0.816676
             1    4.431000    0.560368
             2   -3.384038   -1.043186
 pspatm: atomic psp has been read  and splines computed

- pspini: atom type   2  psp file is /scratch/users/j/a/jabreu/pseudos/PBEsol/Bi.psp8
- pspatm: opening atomic psp file    /scratch/users/j/a/jabreu/pseudos/PBEsol/Bi.psp8
- Bi    ONCVPSP-3.3.0  r_core=   2.42776   2.51622   2.10397
- 83.00000  15.00000    180112                znucl, zion, pspdat
    8 -116133    2    4       600   0.00000   pspcod,pspxc,lmax,lloc,mmax,r2well
    5.99000000000000    6.00000000000000    0.00000000000000   rchrg,fchrg,qchrg
     nproj     2     2     2
     extension_switch     1
  pspatm : epsatm=   42.90078186
         --- l  ekb(1:nproj) -->
             0    6.017688    0.961606
             1    4.379371    0.528498
             2   -3.458170   -0.753782
 pspatm: atomic psp has been read  and splines computed

- pspini: atom type   3  psp file is /scratch/users/j/a/jabreu/pseudos/PBEsol/O.psp8
- pspatm: opening atomic psp file    /scratch/users/j/a/jabreu/pseudos/PBEsol/O.psp8
- O     ONCVPSP-3.3.0  r_core=   1.35509   1.45563   1.26150
-  8.00000   6.00000    180112                znucl, zion, pspdat
    8 -116133    2    4       600   0.00000   pspcod,pspxc,lmax,lloc,mmax,r2well
    5.99000000000000    4.00000000000000    0.00000000000000   rchrg,fchrg,qchrg
     nproj     2     2     1
     extension_switch     1
  pspatm : epsatm=    6.22910522
         --- l  ekb(1:nproj) -->
             0    6.050032    0.820363
             1   -4.739617   -1.153841
             2   -1.335834
 pspatm: atomic psp has been read  and splines computed

   9.17047737E+03                                ecore*ucvol(ha*bohr**3)

-inwffil : will read wavefunctions from disk file /scratch/users/j/a/jabreu/flow_simple_8atoms/flow/w373/t1/indata/in_WFK

 ==>  initialize data related to q vector <==

 The list of irreducible perturbations for this q vector is:
    1)    idir= 1    ipert=   9
    2)    idir= 2    ipert=   9
    3)    idir= 3    ipert=   9

 Perturbation wavevector (in red.coord.)   0.000000  0.000000  0.000000
 Perturbation : derivative vs k along direction   1

 dfpt_looppert : COMMENT -
  In a d/dk calculation, iscf is set to -3 automatically.
 The set of symmetries contains only one element for this perturbation.
 symkpt : not enough symmetry to change the number of k points.

[...]

 Initialisation of the first-order wave-functions :
  ireadwf=   0

--- !BeginCycle
iteration_state: {dtset: 1, }
solver: {iscf: 7, nstep: 2000, nline: 4, wfoptalg: 0, }
tolerances: {tolwfr: 1.00E-20, }
...

     iter   2DEtotal(Ha)        deltaE(Ha) residm    vres2
-ETOT  1  -52.237604262207     -5.224E+01 2.881E-02 0.000E+00
 ETOT  2  -52.321565015261     -8.396E-02 2.770E-03 0.000E+00
 ETOT  3  -52.322521724951     -9.567E-04 6.348E-05 0.000E+00
 ETOT  4  -52.322540213448     -1.849E-05 5.719E-06 0.000E+00
 ETOT  5  -52.322540674901     -4.615E-07 1.877E-07 0.000E+00
 ETOT  6  -52.322540688032     -1.313E-08 4.231E-08 0.000E+00
 ETOT  7  -52.322540688442     -4.097E-10 1.507E-09 0.000E+00
 ETOT  8  -52.322540688455     -1.352E-11 3.961E-10 0.000E+00
 ETOT  9  -52.322540688456     -4.832E-13 1.320E-11 0.000E+00
 ETOT 10  -52.322540688456     -2.132E-14 3.587E-12 0.000E+00
 ETOT 11  -52.322540688456      0.000E+00 1.185E-13 0.000E+00
 ETOT 12  -52.322540688456     -3.553E-14 3.291E-14 0.000E+00
 ETOT 13  -52.322540688456      0.000E+00 1.085E-15 0.000E+00
 ETOT 14  -52.322540688456      1.421E-14 3.062E-16 0.000E+00
 ETOT 15  -52.322540688456      0.000E+00 1.011E-17 0.000E+00
 ETOT 16  -52.322540688456      0.000E+00 2.887E-18 0.000E+00
 ETOT 17  -52.322540688456     -1.421E-14 9.649E-20 0.000E+00
 ETOT 18  -52.322540688456      1.421E-14 2.763E-20 0.000E+00
 ETOT 19  -52.322540688456      0.000E+00 9.810E-21 0.000E+00

 At SCF step   19   max residual=  9.81E-21 < tolwfr=  1.00E-20 =>converged.

 ----iterations are completed or convergence reached----

 dfpt_looppert: DFPT cycle converged with prtwf=-1. Will skip output of the 1st-order WFK file.
 dfpt_looppert : ek2=    6.5139590253E+01
          f-sum rule ratio=    1.0928071130E+00
 prteigrs : about to open file /scratch/users/j/a/jabreu/flow_simple_8atoms/flow/w373/t1/tmpdata/tmp_1WF1_EIG
 Expectation of eigenvalue derivatives (hartree) for nkpt=   1  k points:
  (in case of degenerate eigenvalues, averaged derivative)
 kpt#   1, nband= 45, wtk=  1.00000, kpt=  0.5000 -0.5000  0.0000 (reduced coord)
   0.00000    0.00000    0.00000    0.00000    0.00000    0.00000    0.00000   -0.00000
  -0.00000    0.00000    0.00000   -0.00000    0.00000    0.00000   -0.00000    0.00000
   0.00000    0.00000   -0.00000    0.00000    0.00000    0.00000   -0.00000    0.00000
   0.00000   -0.00000   -0.00000   -0.00000    0.00000   -0.00000   -0.00000   -0.00000
   0.00000   -0.00000   -0.00000    0.00000    0.00000    0.00000    0.00000    0.00000
   0.00000   -0.00000   -0.00000   -0.00000   -0.00020

 Eight components of 2nd-order total energy (hartree) are
 1,2,3: 0th-order hamiltonian combined with 1st-order wavefunctions
     kin0=   6.24234869E+01 eigvalue=   6.36724566E+00  local=  -3.13886825E+01
 4,5,6: 1st-order hamiltonian combined with 1st and 0th-order wfs
     kin1=  -7.11850076E+01  Hartree=   0.00000000E+00     xc=   0.00000000E+00
 7,8,9: eventually, occupation + non-local contributions
    edocc=   1.06494732E+01     enl0=   4.27101751E+00   enl1=  -3.34600738E+01
 1-9 gives the relaxation energy (to be shifted if some occ is /=2.0)
   erelax=  -5.23225407E+01
  No Ewald or frozen-wf contrib.: the relaxation energy is the total one
 2DEtotal=   -0.5232254069E+02 Ha. Also 2DEtotal=   -0.142376873920E+04 eV
    (  non-var. 2DEtotal :   -5.2322540688E+01 Ha)

 Perturbation wavevector (in red.coord.)   0.000000  0.000000  0.000000
 Perturbation : derivative vs k along direction   2
 The set of symmetries contains only one element for this perturbation.
 symkpt : not enough symmetry to change the number of k points.

[...]

 Perturbation wavevector (in red.coord.)   0.000000  0.000000  0.000000
 Perturbation : derivative vs k along direction   3
 The set of symmetries contains only one element for this perturbation.
 symkpt : not enough symmetry to change the number of k points.

-inwffil : will read wavefunctions from disk file /scratch/users/j/a/jabreu/flow_simple_8atoms/flow/w373/t1/indata/in_WFK

 Initialisation of the first-order wave-functions :
  ireadwf=   0

--- !BeginCycle
iteration_state: {dtset: 1, }
solver: {iscf: 7, nstep: 2000, nline: 4, wfoptalg: 0, }
tolerances: {tolwfr: 1.00E-20, }
...

     iter   2DEtotal(Ha)        deltaE(Ha) residm    vres2
-ETOT  1  -50.216700925477     -5.022E+01 6.251E-02 0.000E+00
 ETOT  2  -50.298762804333     -8.206E-02 2.208E-03 0.000E+00
 ETOT  3  -50.299525831278     -7.630E-04 1.858E-04 0.000E+00
 ETOT  4  -50.299538142722     -1.231E-05 7.799E-06 0.000E+00
 ETOT  5  -50.299538383974     -2.413E-07 8.003E-07 0.000E+00
 ETOT  6  -50.299538389182     -5.208E-09 3.546E-08 0.000E+00
 ETOT  7  -50.299538389302     -1.205E-10 3.768E-09 0.000E+00
 ETOT  8  -50.299538389305     -2.913E-12 1.668E-10 0.000E+00
 ETOT  9  -50.299538389305     -8.527E-14 1.823E-11 0.000E+00
 ETOT 10  -50.299538389305     -7.105E-15 8.011E-13 0.000E+00
 ETOT 11  -50.299538389305      3.553E-14 8.980E-14 0.000E+00
 ETOT 12  -50.299538389305     -7.105E-15 3.908E-15 0.000E+00
 ETOT 13  -50.299538389305     -1.421E-14 4.479E-16 0.000E+00
 ETOT 14  -50.299538389305      0.000E+00 2.677E-17 0.000E+00
 ETOT 15  -50.299538389305      0.000E+00 2.667E-18 0.000E+00
 ETOT 16  -50.299538389305      7.105E-15 2.956E-19 0.000E+00
 ETOT 17  -50.299538389305     -1.421E-14 2.870E-20 0.000E+00
 ETOT 18  -50.299538389305      0.000E+00 9.904E-21 0.000E+00

 At SCF step   18   max residual=  9.90E-21 < tolwfr=  1.00E-20 =>converged.

 ----iterations are completed or convergence reached----

 dfpt_looppert: DFPT cycle converged with prtwf=-1. Will skip output of the 1st-order WFK file.
 dfpt_looppert : ek2=    6.5877472411E+01
          f-sum rule ratio=    1.0195734104E+00
 prteigrs : about to open file /scratch/users/j/a/jabreu/flow_simple_8atoms/flow/w373/t1/tmpdata/tmp_1WF1_EIG
 Expectation of eigenvalue derivatives (hartree) for nkpt=   1  k points:
  (in case of degenerate eigenvalues, averaged derivative)
 kpt#   1, nband= 45, wtk=  1.00000, kpt=  0.5000 -0.5000  0.0000 (reduced coord)
  -0.00000    0.00000   -0.00000   -0.00000    0.00000    0.00000   -0.00000   -0.00000
   0.00000   -0.00000   -0.00000   -0.00000    0.00000   -0.00000   -0.00000   -0.00000
  -0.00000    0.00000    0.00000    0.00000    0.00000   -0.00000    0.00000   -0.00000
  -0.00000    0.00000    0.00000   -0.00000   -0.00000    0.00000   -0.00000    0.00000
   0.00000    0.00000   -0.00000   -0.00000   -0.00000    0.00000   -0.00000   -0.00000
  -0.00000    0.00000    0.00000   -0.00001   -0.00064

 Eight components of 2nd-order total energy (hartree) are
 1,2,3: 0th-order hamiltonian combined with 1st-order wavefunctions
     kin0=   6.50464721E+01 eigvalue=   6.43441938E+00  local=  -3.31734434E+01
 4,5,6: 1st-order hamiltonian combined with 1st and 0th-order wfs
     kin1=  -6.71669192E+01  Hartree=   0.00000000E+00     xc=   0.00000000E+00
 7,8,9: eventually, occupation + non-local contributions
    edocc=   7.51035410E+00     enl0=   4.48173618E+00   enl1=  -3.34321576E+01
 1-9 gives the relaxation energy (to be shifted if some occ is /=2.0)
   erelax=  -5.02995384E+01
  No Ewald or frozen-wf contrib.: the relaxation energy is the total one
 2DEtotal=   -0.5029953839E+02 Ha. Also 2DEtotal=   -0.136872004709E+04 eV
    (  non-var. 2DEtotal :   -5.0299538389E+01 Ha)

 CALCULATION OF EFFECTIVE MASSES
 NOTE : Additional infos (eff. mass eigenvalues, eigenvectors and, if degenerate, average mass) are available in stdout.

 K-point ( 0.500,-0.500, 0.000) | band =    36
 Effective mass tensor:
             -1.9267575341             -0.8642040637              0.7766469107
             -0.8642040637             -2.2860479809              0.9547176448
              0.7766469107              0.9547176448             -1.1603675659
 Effective mass tensor eigenvalues:
             -3.6079283381             -1.2237244075             -0.5415203353
 Angular average effective mass 1/(<1/m>)=  -1.0200620552
 Angular average effective mass for Frohlich model (<m**0.5>)**2=  -1.1892678971
 Effective masses along directions: (cart. coord. / red. coord. -> eff. mass)
    1:   1.000000  0.000000  0.000000 /   0.979884 -0.199567  0.000000 ->  -1.3731408331
    2:   0.000000  1.000000  0.000000 /   0.000000  1.000000  0.000000 ->  -1.4644866179
    3:   0.000000  0.000000  1.000000 /   0.328810  0.328810  0.885307 ->  -0.6536345095
    4:   0.577350  0.577350  0.577350 /   0.646580  0.545805  0.532946 ->  -0.6674476027
    5:   0.000000  0.707107  0.707107 /   0.231797  0.746165  0.624105 ->  -0.6269466796
    6:   0.707107  0.000000  0.707107 /   0.765490  0.126167  0.630958 ->  -0.6550563388
    7:   0.707107  0.707107  0.000000 /   0.790271  0.612758  0.000000 ->  -1.6771545496

 K-point ( 0.500,-0.500, 0.000) | band =    37
 Effective mass tensor:
              0.7288446506              0.3090896280             -0.8699999181
              0.3090896280              0.8573581805             -1.0694103622
             -0.8699999181             -1.0694103622              3.1020002613
 Effective mass tensor eigenvalues:
              0.4042971505              0.4774032559              3.8065026858
 Angular average effective mass 1/(<1/m>)=   0.6210149170
 Angular average effective mass for Frohlich model (<m**0.5>)**2=   0.7435728341
 Effective masses along directions: (cart. coord. / red. coord. -> eff. mass)
    1:   1.000000  0.000000  0.000000 /   0.979884 -0.199567  0.000000 ->   0.4846692124
    2:   0.000000  1.000000  0.000000 /   0.000000  1.000000  0.000000 ->   0.4885074202
    3:   0.000000  0.000000  1.000000 /   0.328810  0.328810  0.885307 ->   1.3879498421
    4:   0.577350  0.577350  0.577350 /   0.646580  0.545805  0.532946 ->   0.4124337703
    5:   0.000000  0.707107  0.707107 /   0.231797  0.746165  0.624105 ->   0.4810831060
    6:   0.707107  0.000000  0.707107 /   0.765490  0.126167  0.630958 ->   0.5109298790
    7:   0.707107  0.707107  0.000000 /   0.790271  0.612758  0.000000 ->   0.4959112573

 END OF EFFECTIVE MASSES SECTION

 ---- first-order wavefunction calculations are completed ----

 Total localisation tensor (bohr^2) in cartesian coordinates
  WARNING : still subject to testing - especially symmetries.
      direction              matrix element
   alpha     beta       real part   imaginary part
     1        1       1.2532285384    0.0000000000
     1        2      -0.2399333495    0.0000000000
     1        3       0.4227787359    0.0000000000
     2        1      -0.2399333495    0.0000000000
     2        2       1.1533950071    0.0000000000
     2        3       0.5197720281    0.0000000000
     3        1       0.4227787359    0.0000000000
     3        2       0.5197720281    0.0000000000
     3        3       1.9410168952    0.0000000000

 respfn : d/dk was computed, but no 2DTE, so no DDB output.

== END DATASET(S) ==============================================================

 -outvars: echo values of variables after computation  --------
            acell      1.0000000000E+00  1.0000000000E+00  1.0000000000E+00 Bohr
              amu      3.90983000E+01  2.08980370E+02  1.59994000E+01
             ecut      4.40000000E+01 Hartree
           etotal     -5.0299538389E+01
            fcart      0.0000000000E+00  0.0000000000E+00  0.0000000000E+00
                       0.0000000000E+00  0.0000000000E+00  0.0000000000E+00
                       0.0000000000E+00  0.0000000000E+00  0.0000000000E+00
                       0.0000000000E+00  0.0000000000E+00  0.0000000000E+00
                       0.0000000000E+00  0.0000000000E+00  0.0000000000E+00
                       0.0000000000E+00  0.0000000000E+00  0.0000000000E+00
                       0.0000000000E+00  0.0000000000E+00  0.0000000000E+00
                       0.0000000000E+00  0.0000000000E+00  0.0000000000E+00
-          fftalg         512
           irdden           1
           irdwfk           1
              ixc     -116133
              kpt      5.00000000E-01 -5.00000000E-01  0.00000000E+00
           kptopt           0
P           mkmem           1
P          mkqmem           1
P          mk1mem           1
            natom           8
            nband          45
           nbdbuf           4
            ngfft          64      64      72
             nkpt           1
            nstep        2000
             nsym           4
           ntypat           3
              occ      2.000000  2.000000  2.000000  2.000000  2.000000  2.000000
                       2.000000  2.000000  2.000000  2.000000  2.000000  2.000000
                       2.000000  2.000000  2.000000  2.000000  2.000000  2.000000
                       2.000000  2.000000  2.000000  2.000000  2.000000  2.000000
                       2.000000  2.000000  2.000000  2.000000  2.000000  2.000000
                       2.000000  2.000000  2.000000  2.000000  2.000000  2.000000
                       0.000000  0.000000  0.000000  0.000000  0.000000  0.000000
                       0.000000  0.000000  0.000000
        optdriver           1
            prtwf          -1
            rfdir           1       1       1
           rfelfd           2
            rprim      9.5419635902E+00  0.0000000000E+00  4.2099160930E+00
                      -1.9433505745E+00  9.3419729020E+00  4.2099160930E+00
                       0.0000000000E+00  0.0000000000E+00  1.1335036234E+01
          spgroup          15
           strten      0.0000000000E+00  0.0000000000E+00  0.0000000000E+00
                       0.0000000000E+00  0.0000000000E+00  0.0000000000E+00
           symrel      1  0  0   0  1  0   0  0  1      -1  0  0   0 -1  0   0  0 -1
                       0 -1  0  -1  0  0   0  0 -1       0  1  0   1  0  0   0  0  1
            tnons      0.0000000  0.0000000  0.0000000     0.0000000  0.0000000  0.0000000
                       0.0000000  0.0000000  0.5000000     0.0000000  0.0000000  0.5000000
           tolwfr      1.00000000E-20
            typat      1  1  2  2  3  3  3  3
           useylm           1
           xangst     -2.3979878585E-01  4.3021422313E+00  3.7273523549E+00
                       4.2608116107E+00  6.4141691169E-01  6.7264737718E+00
                       1.3662935534E+00  2.9957721229E+00  6.7264737718E+00
                       2.6547192715E+00  1.9477870201E+00  3.7273523549E+00
                       3.2070841740E+00  3.0915041457E+00  7.7567157313E+00
                       1.6474700137E+00  1.1740656351E+00  5.6962318123E+00
                       2.3735428111E+00  3.7694935079E+00  4.7575943144E+00
                       8.1392865077E-01  1.8520549973E+00  2.6971103954E+00
            xcart     -4.5315403226E-01  8.1298706019E+00  7.0436751516E+00
                       8.0517670480E+00  1.2121023001E+00  1.2711193269E+01
                       2.5819206330E+00  5.6611888687E+00  1.2711193269E+01
                       5.0166923827E+00  3.6807840333E+00  7.0436751516E+00
                       6.0605107740E+00  5.8420961740E+00  1.4658068423E+01
                       3.1132671381E+00  2.2186625124E+00  1.0764318115E+01
                       4.4853458776E+00  7.1233103896E+00  8.9905503057E+00
                       1.5381022417E+00  3.4998767280E+00  5.0967999975E+00
             xred      1.2974800000E-01  8.7025200000E-01  2.5000000000E-01
                       8.7025200000E-01  1.2974800000E-01  7.5000000000E-01
                       3.9400500000E-01  6.0599500000E-01  7.5000000000E-01
                       6.0599500000E-01  3.9400500000E-01  2.5000000000E-01
                       7.6250600000E-01  6.2536000000E-01  7.7770100000E-01
                       3.7464000000E-01  2.3749400000E-01  7.2229900000E-01
                       6.2536000000E-01  7.6250600000E-01  2.7770100000E-01
                       2.3749400000E-01  3.7464000000E-01  2.2229900000E-01
            znucl       19.00000   83.00000    8.00000

- Timing analysis has been suppressed with timopt=0

 Suggested references for the acknowledgment of ABINIT usage.

 Calculation completed.
.Delivered   6 WARNINGs and   5 COMMENTs to log file.