.Version 9.5.1 of ABINIT

 ABINIT is a project of the Universite Catholique de Louvain,
 Corning Inc. and other collaborators, see ~abinit/doc/developers/contributors.txt .
 acknowledgments of the ABINIT effort.

.Starting date : Tue 11 May 2021.
- ( at 22h12 )

- input  file    -> /scratch/users/j/a/jabreu/flow_simple_8atoms/flow/w396/t1/run.abi
- output file    -> /scratch/users/j/a/jabreu/flow_simple_8atoms/flow/w396/t1/run.abo
- root for input  files -> /scratch/users/j/a/jabreu/flow_simple_8atoms/flow/w396/t1/indata/in
- root for output files -> /scratch/users/j/a/jabreu/flow_simple_8atoms/flow/w396/t1/outdata/out

 Symmetries : space group Cm c m (# 63); Bravais oC (1-face-center ortho.)
     intxc =       0      iscf =       7    lmnmax =      18     lnmax =       6
     mgfft =      72  mpssoang =       3    mqgrid =    3116     natom =       8
  nloc_mem =       1    nspden =       1   nspinor =       1    nsppol =       1
      nsym =       8    n1xccc =    2501    ntypat =       3    occopt =       1
   xclevel =       2
-    mband =          49        mffmem =           1         mkmem =           2
-   mkqmem =           2        mk1mem =           2           mpw =       13906
      nfft =      331776          nkpt =           2
  Rough estimation (10% accuracy) of disk space for files :

------------- Echo of variables that govern the present computation ------------
-
- outvars: echo of selected default values
-   iomode0 =  0 , fftalg0 =512 , wfoptalg0 =  0
-
- outvars: echo of global parameters not present in the input file
-  max_nthreads =    0
-
 -outvars: echo values of preprocessed input variables --------
            acell      1.0000000000E+00  1.0000000000E+00  1.0000000000E+00 Bohr
              amu      3.90983000E+01  6.35460000E+01  1.59994000E+01
             ecut      4.60000000E+01 Hartree
-          fftalg         512
           irdden           1
           irdwfk           1
           istwfk        1    0
              ixc     -116133
              kpt      0.00000000E+00  0.00000000E+00  0.00000000E+00
                      -5.00000000E-01  5.00000000E-01  4.72222222E-01
           kptopt           0
P           mkmem           2
P          mkqmem           2
P          mk1mem           2
            natom           8
            nband          49
           nbdbuf           4
            ngfft          72      72      64
             nkpt           2
            nstep        2000
             nsym           8
           ntypat           3
              occ      2.000000  2.000000  2.000000  2.000000  2.000000  2.000000
                       2.000000  2.000000  2.000000  2.000000  2.000000  2.000000
                       2.000000  2.000000  2.000000  2.000000  2.000000  2.000000
                       2.000000  2.000000  2.000000  2.000000  2.000000  2.000000
                       2.000000  2.000000  2.000000  2.000000  2.000000  2.000000
                       2.000000  2.000000  2.000000  2.000000  2.000000  2.000000
                       2.000000  2.000000  2.000000  2.000000  0.000000  0.000000
                       0.000000  0.000000  0.000000  0.000000  0.000000  0.000000
                       0.000000
        optdriver           1
            prtwf          -1
            rfdir           1       1       1
           rfelfd           2
            rprim      1.1602404324E+01  0.0000000000E+00  0.0000000000E+00
                      -8.5228471839E+00  7.8725384711E+00  0.0000000000E+00
                       0.0000000000E+00  0.0000000000E+00  1.0203652082E+01
          spgroup          63
           symrel      1  0  0   0  1  0   0  0  1      -1  0  0   0 -1  0   0  0 -1
                       0  1  0   1  0  0   0  0 -1       0 -1  0  -1  0  0   0  0  1
                      -1  0  0   0 -1  0   0  0  1       1  0  0   0  1  0   0  0 -1
                       0 -1  0  -1  0  0   0  0 -1       0  1  0   1  0  0   0  0  1
            tnons      0.0000000  0.0000000  0.0000000     0.0000000  0.0000000  0.0000000
                      -0.0000000 -0.0000000  0.0000000     0.0000000  0.0000000  0.0000000
                       0.0000000  0.0000000  0.5000000     0.0000000  0.0000000  0.5000000
                       0.0000000  0.0000000  0.5000000    -0.0000000 -0.0000000  0.5000000
           tolwfr      1.00000000E-20
            typat      1  1  2  2  3  3  3  3
           useylm           1
              wtk        0.50000    0.50000
           xangst     -2.4188330609E+00  3.3479134736E+00  4.0496550948E+00
                       4.0484645120E+00  8.1805445906E-01  1.3498850316E+00
                       8.4179173082E-01  2.0724315696E+00  1.3498850316E+00
                       7.8783972033E-01  2.0935363631E+00  4.0496550948E+00
                       1.9478398953E+00  1.6397708039E+00  5.3733631559E+00
                      -3.1820844413E-01  2.5261971287E+00  2.6176970533E-02
                       1.9478398953E+00  1.6397708039E+00  2.7259470337E+00
                      -3.1820844413E-01  2.5261971287E+00  2.6735930927E+00
            xcart     -4.5709320463E+00  6.3266395817E+00  7.6527390618E+00
                       7.6504891865E+00  1.5458988894E+00  2.5509130206E+00
                       1.5907558322E+00  3.9163280956E+00  2.5509130206E+00
                       1.4888013080E+00  3.9562103755E+00  7.6527390618E+00
                       3.6808839528E+00  3.0987177401E+00  1.0154184777E+01
                      -6.0132681258E-01  4.7738207310E+00  4.9467305295E-02
                       3.6808839528E+00  3.0987177401E+00  5.1512933465E+00
                      -6.0132681258E-01  4.7738207310E+00  5.0523587359E+00
             xred      1.9636600000E-01  8.0363400000E-01  7.5000000000E-01
                       8.0363400000E-01  1.9636600000E-01  2.5000000000E-01
                       5.0253300000E-01  4.9746700000E-01  2.5000000000E-01
                       4.9746700000E-01  5.0253300000E-01  7.5000000000E-01
                       6.0638900000E-01  3.9361100000E-01  9.9515200000E-01
                       3.9361100000E-01  6.0638900000E-01  4.8480000000E-03
                       6.0638900000E-01  3.9361100000E-01  5.0484800000E-01
                       3.9361100000E-01  6.0638900000E-01  4.9515200000E-01
            znucl       19.00000   29.00000    8.00000

 chkinp: Checking input parameters for consistency.

== DATASET  1 ==================================================================
-   mpi_nproc: 1, omp_nthreads: -1 (-1 if OMP is not activated)

--- !DatasetInfo
iteration_state: {dtset: 1, }
dimensions: {natom: 8, nkpt: 2, mband: 49, nsppol: 1, nspinor: 1, nspden: 1, mpw: 13906, }
cutoff_energies: {ecut:  46.0, pawecutdg:  -1.0, }
electrons: {nelect:   8.00000000E+01, charge:   0.00000000E+00, occopt:   1.00000000E+00, tsmear:   1.00000000E-02, }
meta: {optdriver: 1, rfelfd: 2, }
...

 Real(R)+Recip(G) space primitive vectors, cartesian coordinates (Bohr,Bohr^-1):
 R(1)= 11.6024043  0.0000000  0.0000000  G(1)=  0.0861890  0.0933087  0.0000000
 R(2)= -8.5228472  7.8725385  0.0000000  G(2)=  0.0000000  0.1270238  0.0000000
 R(3)=  0.0000000  0.0000000 10.2036521  G(3)=  0.0000000  0.0000000  0.0980041
 Unit cell volume ucvol=  9.3200540E+02 bohr^3
 Angles (23,13,12)=  9.00000000E+01  9.00000000E+01  1.37271397E+02 degrees

 getcut: wavevector=  0.0000  0.0000  0.0000  ngfft=  72  72  64
         ecut(hartree)=     46.000   => boxcut(ratio)=   2.03288

--- Pseudopotential description ------------------------------------------------
- pspini: atom type   1  psp file is /scratch/users/j/a/jabreu/pseudos/PBEsol/K.psp8
- pspatm: opening atomic psp file    /scratch/users/j/a/jabreu/pseudos/PBEsol/K.psp8
- K     ONCVPSP-3.3.0  r_core=   1.36296   1.46408   1.61068
- 19.00000   9.00000    180112                znucl, zion, pspdat
    8 -116133    2    4       400   0.00000   pspcod,pspxc,lmax,lloc,mmax,r2well
    3.99000000000000    5.00000000000000    0.00000000000000   rchrg,fchrg,qchrg
     nproj     2     2     2
     extension_switch     1
  pspatm : epsatm=    8.32487830
         --- l  ekb(1:nproj) -->
             0   10.921326    0.816676
             1    4.431000    0.560368
             2   -3.384038   -1.043186
 pspatm: atomic psp has been read  and splines computed

- pspini: atom type   2  psp file is /scratch/users/j/a/jabreu/pseudos/PBEsol/Cu.psp8
- pspatm: opening atomic psp file    /scratch/users/j/a/jabreu/pseudos/PBEsol/Cu.psp8
- Cu    ONCVPSP-3.3.0  r_core=   1.26204   1.45626   1.76249
- 29.00000  19.00000    180112                znucl, zion, pspdat
    8 -116133    2    4       600   0.00000   pspcod,pspxc,lmax,lloc,mmax,r2well
    5.99000000000000    3.50000000000000    0.00000000000000   rchrg,fchrg,qchrg
     nproj     2     2     2
     extension_switch     1
  pspatm : epsatm=   21.63488701
         --- l  ekb(1:nproj) -->
             0    5.008230   -0.401634
             1   -3.496700   -0.765945
             2   -6.895851   -2.521180
 pspatm: atomic psp has been read  and splines computed

- pspini: atom type   3  psp file is /scratch/users/j/a/jabreu/pseudos/PBEsol/O.psp8
- pspatm: opening atomic psp file    /scratch/users/j/a/jabreu/pseudos/PBEsol/O.psp8
- O     ONCVPSP-3.3.0  r_core=   1.35509   1.45563   1.26150
-  8.00000   6.00000    180112                znucl, zion, pspdat
    8 -116133    2    4       600   0.00000   pspcod,pspxc,lmax,lloc,mmax,r2well
    5.99000000000000    4.00000000000000    0.00000000000000   rchrg,fchrg,qchrg
     nproj     2     2     1
     extension_switch     1
  pspatm : epsatm=    6.22910522
         --- l  ekb(1:nproj) -->
             0    6.050032    0.820363
             1   -4.739617   -1.153841
             2   -1.335834
 pspatm: atomic psp has been read  and splines computed

   6.78687612E+03                                ecore*ucvol(ha*bohr**3)

-inwffil : will read wavefunctions from disk file /scratch/users/j/a/jabreu/flow_simple_8atoms/flow/w396/t1/indata/in_WFK

 ==>  initialize data related to q vector <==

 The list of irreducible perturbations for this q vector is:
    1)    idir= 1    ipert=   9
    2)    idir= 2    ipert=   9
    3)    idir= 3    ipert=   9

 Perturbation wavevector (in red.coord.)   0.000000  0.000000  0.000000
 Perturbation : derivative vs k along direction   1

 dfpt_looppert : COMMENT -
  In a d/dk calculation, iscf is set to -3 automatically.
 The set of symmetries contains only one element for this perturbation.
 symkpt : not enough symmetry to change the number of k points.

[...]

 Initialisation of the first-order wave-functions :
  ireadwf=   0

--- !BeginCycle
iteration_state: {dtset: 1, }
solver: {iscf: 7, nstep: 2000, nline: 4, wfoptalg: 0, }
tolerances: {tolwfr: 1.00E-20, }
...

     iter   2DEtotal(Ha)        deltaE(Ha) residm    vres2
-ETOT  1  -54.387062812707     -5.439E+01 2.017E-01 0.000E+00
 ETOT  2  -54.519986380582     -1.329E-01 6.619E-03 0.000E+00
 ETOT  3  -54.521828351387     -1.842E-03 9.210E-04 0.000E+00
 ETOT  4  -54.521870543579     -4.219E-05 3.792E-05 0.000E+00
 ETOT  5  -54.521871729634     -1.186E-06 1.433E-05 0.000E+00
[...]
 ETOT 17  -54.521871768435     -1.421E-14 8.573E-14 0.000E+00
 ETOT 18  -54.521871768435      0.000E+00 9.523E-15 0.000E+00
 ETOT 19  -54.521871768435      0.000E+00 3.936E-15 0.000E+00
 ETOT 20  -54.521871768435     -1.421E-14 4.338E-16 0.000E+00
 ETOT 21  -54.521871768435      2.132E-14 1.817E-16 0.000E+00
 ETOT 22  -54.521871768435     -7.105E-15 1.988E-17 0.000E+00
 ETOT 23  -54.521871768435     -1.421E-14 8.418E-18 0.000E+00
 ETOT 24  -54.521871768435      7.105E-15 9.150E-19 0.000E+00
 ETOT 25  -54.521871768435      7.105E-15 3.910E-19 0.000E+00
 ETOT 26  -54.521871768435     -7.105E-15 4.228E-20 0.000E+00
 ETOT 27  -54.521871768435      0.000E+00 1.819E-20 0.000E+00
 ETOT 28  -54.521871768435      7.105E-15 9.735E-21 0.000E+00

 At SCF step   28   max residual=  9.74E-21 < tolwfr=  1.00E-20 =>converged.

 ----iterations are completed or convergence reached----

 dfpt_looppert: DFPT cycle converged with prtwf=-1. Will skip output of the 1st-order WFK file.
 dfpt_looppert : ek2=    1.0191782247E+02
          f-sum rule ratio=    1.0096830891E+00
 prteigrs : about to open file /scratch/users/j/a/jabreu/flow_simple_8atoms/flow/w396/t1/tmpdata/tmp_1WF1_EIG
 Expectation of eigenvalue derivatives (hartree) for nkpt=   2  k points:
  (in case of degenerate eigenvalues, averaged derivative)
 kpt#   1, nband= 49, wtk=  0.50000, kpt=  0.0000  0.0000  0.0000 (reduced coord)
  -0.00000   -0.00000    0.00000   -0.00000    0.00000   -0.00000    0.00000   -0.00000
  -0.00000    0.00000    0.00000    0.00000    0.00000   -0.00000    0.00000   -0.00000
  -0.00000   -0.00000    0.00000    0.00000    0.00000    0.00000   -0.00000   -0.00000
   0.00000   -0.00000    0.00000   -0.00000    0.00000    0.00000    0.00000    0.00000
   0.00000    0.00000   -0.00000    0.00000   -0.00000   -0.00000   -0.00000    0.00000
  -0.00000   -0.00000    0.00000   -0.00000   -0.00000   -0.00000    0.00000    0.00000
  -0.00006
 prteigrs : prtvol=0 or 1, do not print more k-points.

 Eight components of 2nd-order total energy (hartree) are
 1,2,3: 0th-order hamiltonian combined with 1st-order wavefunctions
     kin0=   8.30116917E+01 eigvalue=   3.54126476E+00  local=  -3.57451960E+01
 4,5,6: 1st-order hamiltonian combined with 1st and 0th-order wfs
     kin1=  -1.02904702E+02  Hartree=   0.00000000E+00     xc=   0.00000000E+00
 7,8,9: eventually, occupation + non-local contributions
    edocc=   6.35730623E+00     enl0=  -2.64319491E+00   enl1=  -6.13904170E+00
 1-9 gives the relaxation energy (to be shifted if some occ is /=2.0)
   erelax=  -5.45218718E+01
  No Ewald or frozen-wf contrib.: the relaxation energy is the total one
 2DEtotal=   -0.5452187177E+02 Ha. Also 2DEtotal=   -0.148361558146E+04 eV
    (  non-var. 2DEtotal :   -5.4521871768E+01 Ha)

 Perturbation wavevector (in red.coord.)   0.000000  0.000000  0.000000
 Perturbation : derivative vs k along direction   2
 The set of symmetries contains only one element for this perturbation.
 symkpt : not enough symmetry to change the number of k points.

[...]

 Perturbation wavevector (in red.coord.)   0.000000  0.000000  0.000000
 Perturbation : derivative vs k along direction   3
 The set of symmetries contains only one element for this perturbation.
 symkpt : not enough symmetry to change the number of k points.

-inwffil : will read wavefunctions from disk file /scratch/users/j/a/jabreu/flow_simple_8atoms/flow/w396/t1/indata/in_WFK

 Initialisation of the first-order wave-functions :
  ireadwf=   0

--- !BeginCycle
iteration_state: {dtset: 1, }
solver: {iscf: 7, nstep: 2000, nline: 4, wfoptalg: 0, }
tolerances: {tolwfr: 1.00E-20, }
...

     iter   2DEtotal(Ha)        deltaE(Ha) residm    vres2
-ETOT  1  -32.532782032245     -3.253E+01 8.606E-02 0.000E+00
 ETOT  2  -32.601320360488     -6.854E-02 5.624E-03 0.000E+00
 ETOT  3  -32.601996043116     -6.757E-04 1.259E-03 0.000E+00
 ETOT  4  -32.602007564191     -1.152E-05 7.780E-05 0.000E+00
 ETOT  5  -32.602007850269     -2.861E-07 2.478E-05 0.000E+00
 ETOT  6  -32.602007859279     -9.010E-09 2.342E-06 0.000E+00
 ETOT  7  -32.602007859603     -3.238E-10 7.464E-07 0.000E+00
 ETOT  8  -32.602007859616     -1.278E-11 8.722E-08 0.000E+00
 ETOT  9  -32.602007859616     -5.116E-13 2.558E-08 0.000E+00
 ETOT 10  -32.602007859616      1.421E-14 3.380E-09 0.000E+00
 ETOT 11  -32.602007859616     -1.421E-14 9.254E-10 0.000E+00
 ETOT 12  -32.602007859616     -7.105E-15 1.315E-10 0.000E+00
 ETOT 13  -32.602007859616     -1.421E-14 3.440E-11 0.000E+00
 ETOT 14  -32.602007859616      0.000E+00 5.106E-12 0.000E+00
 ETOT 15  -32.602007859616      7.105E-15 1.298E-12 0.000E+00
 ETOT 16  -32.602007859616      0.000E+00 1.979E-13 0.000E+00
 ETOT 17  -32.602007859616      0.000E+00 4.942E-14 0.000E+00
 ETOT 18  -32.602007859616      0.000E+00 7.662E-15 0.000E+00
 ETOT 19  -32.602007859616     -7.105E-15 1.894E-15 0.000E+00
 ETOT 20  -32.602007859616      1.421E-14 2.968E-16 0.000E+00
 ETOT 21  -32.602007859616     -1.421E-14 7.289E-17 0.000E+00
 ETOT 22  -32.602007859616      7.105E-15 1.150E-17 0.000E+00
 ETOT 23  -32.602007859616     -7.105E-15 2.815E-18 0.000E+00
 ETOT 24  -32.602007859616      7.105E-15 4.464E-19 0.000E+00
 ETOT 25  -32.602007859616      0.000E+00 1.090E-19 0.000E+00
 ETOT 26  -32.602007859616     -7.105E-15 1.734E-20 0.000E+00
 ETOT 27  -32.602007859616      0.000E+00 9.948E-21 0.000E+00

 At SCF step   27   max residual=  9.95E-21 < tolwfr=  1.00E-20 =>converged.

 ----iterations are completed or convergence reached----

 dfpt_looppert: DFPT cycle converged with prtwf=-1. Will skip output of the 1st-order WFK file.
 dfpt_looppert : ek2=    6.0669223374E+01
          f-sum rule ratio=    1.0268302131E+00
 prteigrs : about to open file /scratch/users/j/a/jabreu/flow_simple_8atoms/flow/w396/t1/tmpdata/tmp_1WF1_EIG
 Expectation of eigenvalue derivatives (hartree) for nkpt=   2  k points:
  (in case of degenerate eigenvalues, averaged derivative)
 kpt#   1, nband= 49, wtk=  0.50000, kpt=  0.0000  0.0000  0.0000 (reduced coord)
   0.00000   -0.00000    0.00000    0.00000   -0.00000    0.00000   -0.00000   -0.00000
   0.00000    0.00000    0.00000    0.00000   -0.00000    0.00000    0.00000    0.00000
  -0.00000   -0.00000    0.00000    0.00000    0.00000    0.00000   -0.00000   -0.00000
   0.00000   -0.00000    0.00000   -0.00000   -0.00000   -0.00000    0.00000    0.00000
   0.00000    0.00000    0.00000   -0.00000   -0.00000   -0.00000    0.00000    0.00000
   0.00000   -0.00000   -0.00000    0.00000   -0.00000    0.00000    0.00000   -0.00000
   0.01133
 prteigrs : prtvol=0 or 1, do not print more k-points.

 Eight components of 2nd-order total energy (hartree) are
 1,2,3: 0th-order hamiltonian combined with 1st-order wavefunctions
     kin0=   5.01758973E+01 eigvalue=   2.10758278E+00  local=  -2.26517404E+01
 4,5,6: 1st-order hamiltonian combined with 1st and 0th-order wfs
     kin1=  -6.22969916E+01  Hartree=   0.00000000E+00     xc=   0.00000000E+00
 7,8,9: eventually, occupation + non-local contributions
    edocc=   5.03823777E+00     enl0=  -2.06796953E+00   enl1=  -2.90702415E+00
 1-9 gives the relaxation energy (to be shifted if some occ is /=2.0)
   erelax=  -3.26020079E+01
  No Ewald or frozen-wf contrib.: the relaxation energy is the total one
 2DEtotal=   -0.3260200786E+02 Ha. Also 2DEtotal=   -0.887145750475E+03 eV
    (  non-var. 2DEtotal :   -3.2602007859E+01 Ha)

 CALCULATION OF EFFECTIVE MASSES
 NOTE : Additional infos (eff. mass eigenvalues, eigenvectors and, if degenerate, average mass) are available in stdout.

 K-point ( 0.000, 0.000, 0.000) | band =    40
 Effective mass tensor:
            -19.9201174950            -40.3477543026              0.0000049424
            -40.3477543026           -107.2305041843             -0.0000040714
              0.0000049424             -0.0000040714             -1.2026287571
 Effective mass tensor eigenvalues:
           -123.0203878707             -4.1302338087             -1.2026287571
 Angular average effective mass 1/(<1/m>)=  -2.7732646091
 Angular average effective mass for Frohlich model (<m**0.5>)**2=  -4.4508087548
 Effective masses along directions: (cart. coord. / red. coord. -> eff. mass)
    1:   1.000000  0.000000  0.000000 /   0.805927 -0.592015  0.000000 ->  -4.7384181302
    2:   0.000000  1.000000  0.000000 /   0.000000  1.000000  0.000000 -> -25.5070265156
    3:   0.000000  0.000000  1.000000 /   0.000000  0.000000  1.000000 ->  -1.2026287571
    4:   0.577350  0.577350  0.577350 /   0.750257 -0.042051  0.659808 ->  -3.2504761903
    5:   0.000000  0.707107  0.707107 /   0.000000  0.610859  0.791739 ->  -2.2969608278
    6:   0.707107  0.000000  0.707107 /   0.657522 -0.483000  0.578253 ->  -1.9183640845
    7:   0.707107  0.707107  0.000000 /   0.998433 -0.055962  0.000000 -> -21.8750071420

 K-point (-0.500, 0.500, 0.472) | band =    41
 Effective mass tensor:
              2.9338682321              0.7790721777              0.0000047824
              0.7790721777              4.6210623752             -0.0000062450
              0.0000047824             -0.0000062450              0.6278104179
 Effective mass tensor eigenvalues:
              0.6278104179              2.6291580811              4.9257725261
 Angular average effective mass 1/(<1/m>)=   1.3785489590
 Angular average effective mass for Frohlich model (<m**0.5>)**2=   1.7357338256
 Effective masses along directions: (cart. coord. / red. coord. -> eff. mass)
    1:   1.000000  0.000000  0.000000 /   0.805927 -0.592015  0.000000 ->   2.8025232276
    2:   0.000000  1.000000  0.000000 /   0.000000  1.000000  0.000000 ->   4.4141841481
    3:   0.000000  0.000000  1.000000 /   0.000000  0.000000  1.000000 ->   0.6278104179
    4:   0.577350  0.577350  0.577350 /   0.750257 -0.042051  0.659808 ->   1.4592249270
    5:   0.000000  0.707107  0.707107 /   0.000000  0.610859  0.791739 ->   1.0992723206
    6:   0.707107  0.000000  0.707107 /   0.657522 -0.483000  0.578253 ->   1.0258239847
    7:   0.707107  0.707107  0.000000 /   0.998433 -0.055962  0.000000 ->   4.3191916800

 END OF EFFECTIVE MASSES SECTION

 ---- first-order wavefunction calculations are completed ----

 Total localisation tensor (bohr^2) in cartesian coordinates
  WARNING : still subject to testing - especially symmetries.
      direction              matrix element
   alpha     beta       real part   imaginary part
     1        1       1.5757389719    0.0000000000
     1        2      -0.5101294227    0.0000000000
     1        3       0.0000000000    0.0000000000
     2        1      -0.5101294227    0.0000000000
     2        2       0.4712056216    0.0000000000
     2        3       0.0000000000    0.0000000000
     3        1       0.0000000000    0.0000000000
     3        2       0.0000000000    0.0000000000
     3        3       0.7181665840    0.0000000000

 respfn : d/dk was computed, but no 2DTE, so no DDB output.

== END DATASET(S) ==============================================================

 -outvars: echo values of variables after computation  --------
            acell      1.0000000000E+00  1.0000000000E+00  1.0000000000E+00 Bohr
              amu      3.90983000E+01  6.35460000E+01  1.59994000E+01
             ecut      4.60000000E+01 Hartree
           etotal     -3.2602007860E+01
            fcart      0.0000000000E+00  0.0000000000E+00  0.0000000000E+00
                       0.0000000000E+00  0.0000000000E+00  0.0000000000E+00
                       0.0000000000E+00  0.0000000000E+00  0.0000000000E+00
                       0.0000000000E+00  0.0000000000E+00  0.0000000000E+00
                       0.0000000000E+00  0.0000000000E+00  0.0000000000E+00
                       0.0000000000E+00  0.0000000000E+00  0.0000000000E+00
                       0.0000000000E+00  0.0000000000E+00  0.0000000000E+00
                       0.0000000000E+00  0.0000000000E+00  0.0000000000E+00
-          fftalg         512
           irdden           1
           irdwfk           1
           istwfk        1    0
              ixc     -116133
              kpt      0.00000000E+00  0.00000000E+00  0.00000000E+00
                      -5.00000000E-01  5.00000000E-01  4.72222222E-01
           kptopt           0
P           mkmem           2
P          mkqmem           2
P          mk1mem           2
            natom           8
            nband          49
           nbdbuf           4
            ngfft          72      72      64
             nkpt           2
            nstep        2000
             nsym           8
           ntypat           3
              occ      2.000000  2.000000  2.000000  2.000000  2.000000  2.000000
                       2.000000  2.000000  2.000000  2.000000  2.000000  2.000000
                       2.000000  2.000000  2.000000  2.000000  2.000000  2.000000
                       2.000000  2.000000  2.000000  2.000000  2.000000  2.000000
                       2.000000  2.000000  2.000000  2.000000  2.000000  2.000000
                       2.000000  2.000000  2.000000  2.000000  2.000000  2.000000
                       2.000000  2.000000  2.000000  2.000000  0.000000  0.000000
                       0.000000  0.000000  0.000000  0.000000  0.000000  0.000000
                       0.000000
        optdriver           1
            prtwf          -1
            rfdir           1       1       1
           rfelfd           2
            rprim      1.1602404324E+01  0.0000000000E+00  0.0000000000E+00
                      -8.5228471839E+00  7.8725384711E+00  0.0000000000E+00
                       0.0000000000E+00  0.0000000000E+00  1.0203652082E+01
          spgroup          63
           strten      0.0000000000E+00  0.0000000000E+00  0.0000000000E+00
                       0.0000000000E+00  0.0000000000E+00  0.0000000000E+00
           symrel      1  0  0   0  1  0   0  0  1      -1  0  0   0 -1  0   0  0 -1
                       0  1  0   1  0  0   0  0 -1       0 -1  0  -1  0  0   0  0  1
                      -1  0  0   0 -1  0   0  0  1       1  0  0   0  1  0   0  0 -1
                       0 -1  0  -1  0  0   0  0 -1       0  1  0   1  0  0   0  0  1
            tnons      0.0000000  0.0000000  0.0000000     0.0000000  0.0000000  0.0000000
                      -0.0000000 -0.0000000  0.0000000     0.0000000  0.0000000  0.0000000
                       0.0000000  0.0000000  0.5000000     0.0000000  0.0000000  0.5000000
                       0.0000000  0.0000000  0.5000000    -0.0000000 -0.0000000  0.5000000
           tolwfr      1.00000000E-20
            typat      1  1  2  2  3  3  3  3
           useylm           1
              wtk        0.50000    0.50000
           xangst     -2.4188330609E+00  3.3479134736E+00  4.0496550948E+00
                       4.0484645120E+00  8.1805445906E-01  1.3498850316E+00
                       8.4179173082E-01  2.0724315696E+00  1.3498850316E+00
                       7.8783972033E-01  2.0935363631E+00  4.0496550948E+00
                       1.9478398953E+00  1.6397708039E+00  5.3733631559E+00
                      -3.1820844413E-01  2.5261971287E+00  2.6176970533E-02
                       1.9478398953E+00  1.6397708039E+00  2.7259470337E+00
                      -3.1820844413E-01  2.5261971287E+00  2.6735930927E+00
            xcart     -4.5709320463E+00  6.3266395817E+00  7.6527390618E+00
                       7.6504891865E+00  1.5458988894E+00  2.5509130206E+00
                       1.5907558322E+00  3.9163280956E+00  2.5509130206E+00
                       1.4888013080E+00  3.9562103755E+00  7.6527390618E+00
                       3.6808839528E+00  3.0987177401E+00  1.0154184777E+01
                      -6.0132681258E-01  4.7738207310E+00  4.9467305295E-02
                       3.6808839528E+00  3.0987177401E+00  5.1512933465E+00
                      -6.0132681258E-01  4.7738207310E+00  5.0523587359E+00
             xred      1.9636600000E-01  8.0363400000E-01  7.5000000000E-01
                       8.0363400000E-01  1.9636600000E-01  2.5000000000E-01
                       5.0253300000E-01  4.9746700000E-01  2.5000000000E-01
                       4.9746700000E-01  5.0253300000E-01  7.5000000000E-01
                       6.0638900000E-01  3.9361100000E-01  9.9515200000E-01
                       3.9361100000E-01  6.0638900000E-01  4.8480000000E-03
                       6.0638900000E-01  3.9361100000E-01  5.0484800000E-01
                       3.9361100000E-01  6.0638900000E-01  4.9515200000E-01
            znucl       19.00000   29.00000    8.00000

- Timing analysis has been suppressed with timopt=0

 Suggested references for the acknowledgment of ABINIT usage.

 Calculation completed.
.Delivered  14 WARNINGs and   9 COMMENTs to log file.