.Version 9.5.1 of ABINIT

 ABINIT is a project of the Universite Catholique de Louvain,
 Corning Inc. and other collaborators, see ~abinit/doc/developers/contributors.txt .
 acknowledgments of the ABINIT effort.

.Starting date : Mon 26 Apr 2021.
- ( at 00h50 )

- input  file    -> /scratch/users/j/a/jabreu/flow_simple/flow/w120/t1/run.abi
- output file    -> /scratch/users/j/a/jabreu/flow_simple/flow/w120/t1/run.abo
- root for input  files -> /scratch/users/j/a/jabreu/flow_simple/flow/w120/t1/indata/in
- root for output files -> /scratch/users/j/a/jabreu/flow_simple/flow/w120/t1/outdata/out

 Symmetries : space group F-4 3 m (#216); Bravais cF (face-center cubic)
     intxc =       0      iscf =       7    lmnmax =      32     lnmax =       8
     mgfft =      50  mpssoang =       4    mqgrid =    3001     natom =       3
  nloc_mem =       1    nspden =       1   nspinor =       1    nsppol =       1
      nsym =      24    n1xccc =    2501    ntypat =       3    occopt =       1
   xclevel =       2
-    mband =          31        mffmem =           1         mkmem =           2
-   mkqmem =           2        mk1mem =           2           mpw =        5444
      nfft =      125000          nkpt =           2
  Rough estimation (10% accuracy) of disk space for files :

------------- Echo of variables that govern the present computation ------------
-
- outvars: echo of selected default values
-   iomode0 =  0 , fftalg0 =512 , wfoptalg0 =  0
-
- outvars: echo of global parameters not present in the input file
-  max_nthreads =    0
-
 -outvars: echo values of preprocessed input variables --------
            acell      1.0000000000E+00  1.0000000000E+00  1.0000000000E+00 Bohr
              amu      1.80947900E+02  1.21753000E+02  1.01070000E+02
             ecut      4.40000000E+01 Hartree
-          fftalg         512
           irdden           1
           irdwfk           1
           istwfk        1    1
              ixc     -116133
              kpt      5.00000000E-01  5.00000000E-01  5.00000000E-01
                       5.00000000E-01  2.46519033E-32  5.00000000E-01
           kptopt           0
P           mkmem           2
P          mkqmem           2
P          mk1mem           2
            natom           3
            nband          31
           nbdbuf           4
            ngfft          50      50      50
             nkpt           2
            nstep         100
             nsym          24
           ntypat           3
              occ      2.000000  2.000000  2.000000  2.000000  2.000000  2.000000
                       2.000000  2.000000  2.000000  2.000000  2.000000  2.000000
                       2.000000  2.000000  2.000000  2.000000  2.000000  2.000000
                       2.000000  2.000000  2.000000  2.000000  0.000000  0.000000
                       0.000000  0.000000  0.000000  0.000000  0.000000  0.000000
                       0.000000
        optdriver           1
            prtwf          -1
            rfdir           1       1       1
           rfelfd           2
            rprim      7.0895391616E+00  0.0000000000E+00  4.0931473434E+00
                       2.3631797205E+00  6.6840816223E+00  4.0931473434E+00
                       0.0000000000E+00  0.0000000000E+00  8.1862946868E+00
          spgroup         216
           symrel      1  0  0   0  1  0   0  0  1       0 -1  1   0 -1  0   1 -1  0
                      -1  0  0  -1  0  1  -1  1  0       0  1 -1   1  0 -1   0  0 -1
                      -1  0  0  -1  1  0  -1  0  1       0 -1  1   1 -1  0   0 -1  0
                       1  0  0   0  0  1   0  1  0       0  1 -1   0  0 -1   1  0 -1
                      -1  0  1  -1  1  0  -1  0  0       0 -1  0   1 -1  0   0 -1  1
                       1  0 -1   0  0 -1   0  1 -1       0  1  0   0  0  1   1  0  0
                       1  0 -1   0  1 -1   0  0 -1       0 -1  0   0 -1  1   1 -1  0
                      -1  0  1  -1  0  0  -1  1  0       0  1  0   1  0  0   0  0  1
                       0  0 -1   0  1 -1   1  0 -1       1 -1  0   0 -1  1   0 -1  0
                       0  0  1   1  0  0   0  1  0      -1  1  0  -1  0  0  -1  0  1
                       0  0  1   0  1  0   1  0  0       1 -1  0   0 -1  0   0 -1  1
                       0  0 -1   1  0 -1   0  1 -1      -1  1  0  -1  0  1  -1  0  0
           tolwfr      1.00000000E-20
            typat      1  2  3
           useylm           1
              wtk        0.50000    0.50000
           xangst      0.0000000000E+00  0.0000000000E+00  0.0000000000E+00
                       2.5010816958E+00  1.7685318274E+00  4.3320005711E+00
                       1.2505408479E+00  8.8426591372E-01  2.1660002855E+00
            xcart      0.0000000000E+00  0.0000000000E+00  0.0000000000E+00
                       4.7263594411E+00  3.3420408112E+00  8.1862946868E+00
                       2.3631797205E+00  1.6710204056E+00  4.0931473434E+00
             xred      0.0000000000E+00  0.0000000000E+00  0.0000000000E+00
                       5.0000000000E-01  5.0000000000E-01  5.0000000000E-01
                       2.5000000000E-01  2.5000000000E-01  2.5000000000E-01
            znucl       73.00000   51.00000   44.00000

 chkinp: Checking input parameters for consistency.

== DATASET  1 ==================================================================
-   mpi_nproc: 1, omp_nthreads: -1 (-1 if OMP is not activated)

--- !DatasetInfo
iteration_state: {dtset: 1, }
dimensions: {natom: 3, nkpt: 2, mband: 31, nsppol: 1, nspinor: 1, nspden: 1, mpw: 5444, }
cutoff_energies: {ecut:  44.0, pawecutdg:  -1.0, }
electrons: {nelect:   4.40000000E+01, charge:   0.00000000E+00, occopt:   1.00000000E+00, tsmear:   1.00000000E-02, }
meta: {optdriver: 1, rfelfd: 2, }
...

 Real(R)+Recip(G) space primitive vectors, cartesian coordinates (Bohr,Bohr^-1):
 R(1)=  7.0895392  0.0000000  4.0931473  G(1)=  0.1410529 -0.0498697  0.0000000
 R(2)=  2.3631797  6.6840816  4.0931473  G(2)=  0.0000000  0.1496092  0.0000000
 R(3)=  0.0000000  0.0000000  8.1862947  G(3)= -0.0705264 -0.0498697  0.1221554
 Unit cell volume ucvol=  3.8792442E+02 bohr^3
 Angles (23,13,12)=  6.00000000E+01  6.00000000E+01  6.00000000E+01 degrees

 getcut: wavevector=  0.0000  0.0000  0.0000  ngfft=  50  50  50
         ecut(hartree)=     44.000   => boxcut(ratio)=   2.04628

--- Pseudopotential description ------------------------------------------------
- pspini: atom type   1  psp file is /scratch/users/j/a/jabreu/pseudos/PBEsol/Ta.psp8
- pspatm: opening atomic psp file    /scratch/users/j/a/jabreu/pseudos/PBEsol/Ta.psp8
- Ta    ONCVPSP-3.3.0  r_core=   1.71294   1.71294   1.71294   2.25368
- 73.00000  13.00000    180112                znucl, zion, pspdat
    8 -116133    3    4       600   0.00000   pspcod,pspxc,lmax,lloc,mmax,r2well
    5.99000000000000    5.00000000000000    0.00000000000000   rchrg,fchrg,qchrg
     nproj     2     2     2     2
     extension_switch     1
  pspatm : epsatm=   21.70781236
         --- l  ekb(1:nproj) -->
             0   11.480337    1.447149
             1    5.630373    0.817168
             2    1.844704    0.232364
             3    4.923559    0.251242
 pspatm: atomic psp has been read  and splines computed

- pspini: atom type   2  psp file is /scratch/users/j/a/jabreu/pseudos/PBEsol/Sb.psp8
- pspatm: opening atomic psp file    /scratch/users/j/a/jabreu/pseudos/PBEsol/Sb.psp8
- Sb    ONCVPSP-3.3.0  r_core=   1.81962   2.12485   1.81962
- 51.00000  15.00000    180112                znucl, zion, pspdat
    8 -116133    2    4       600   0.00000   pspcod,pspxc,lmax,lloc,mmax,r2well
    5.99000000000000    5.00000000000000    0.00000000000000   rchrg,fchrg,qchrg
     nproj     2     2     2
     extension_switch     1
  pspatm : epsatm=   26.35641246
         --- l  ekb(1:nproj) -->
             0    9.727814    1.485032
             1    5.505335    0.704623
             2   -4.710637   -1.436443
 pspatm: atomic psp has been read  and splines computed

- pspini: atom type   3  psp file is /scratch/users/j/a/jabreu/pseudos/PBEsol/Ru.psp8
- pspatm: opening atomic psp file    /scratch/users/j/a/jabreu/pseudos/PBEsol/Ru.psp8
- Ru    ONCVPSP-3.3.0  r_core=   1.35650   1.40592   1.30881
- 44.00000  16.00000    180112                znucl, zion, pspdat
    8 -116133    2    4       600   0.00000   pspcod,pspxc,lmax,lloc,mmax,r2well
    5.99000000000000    7.00000000000000    0.00000000000000   rchrg,fchrg,qchrg
     nproj     2     2     2
     extension_switch     1
  pspatm : epsatm=   20.24388641
         --- l  ekb(1:nproj) -->
             0   14.596908    1.144598
             1    7.305594    1.039251
             2    1.509539    0.405296
 pspatm: atomic psp has been read  and splines computed

   3.00555689E+03                                ecore*ucvol(ha*bohr**3)

-inwffil : will read wavefunctions from disk file /scratch/users/j/a/jabreu/flow_simple/flow/w120/t1/indata/in_WFK

 ==>  initialize data related to q vector <==

 The list of irreducible perturbations for this q vector is:
    1)    idir= 1    ipert=   4
    2)    idir= 2    ipert=   4
    3)    idir= 3    ipert=   4

 Perturbation wavevector (in red.coord.)   0.000000  0.000000  0.000000
 Perturbation : derivative vs k along direction   1

 dfpt_looppert : COMMENT -
  In a d/dk calculation, iscf is set to -3 automatically.
 The set of symmetries contains only one element for this perturbation.
 symkpt : not enough symmetry to change the number of k points.

[...]

 Initialisation of the first-order wave-functions :
  ireadwf=   0

--- !BeginCycle
iteration_state: {dtset: 1, }
solver: {iscf: 7, nstep: 100, nline: 4, wfoptalg: 0, }
tolerances: {tolwfr: 1.00E-20, }
...

     iter   2DEtotal(Ha)        deltaE(Ha) residm    vres2
-ETOT  1  -58.041457167638     -5.804E+01 2.968E-01 0.000E+00
 ETOT  2  -58.077124584678     -3.567E-02 6.016E-03 0.000E+00
 ETOT  3  -58.077195676866     -7.109E-05 2.335E-04 0.000E+00
 ETOT  4  -58.077196122018     -4.452E-07 9.293E-06 0.000E+00
 ETOT  5  -58.077196125819     -3.801E-09 4.752E-07 0.000E+00
 ETOT  6  -58.077196125856     -3.670E-11 2.103E-08 0.000E+00
 ETOT  7  -58.077196125856     -3.908E-13 1.147E-09 0.000E+00
 ETOT  8  -58.077196125856     -4.263E-14 5.225E-11 0.000E+00
 ETOT  9  -58.077196125856      2.842E-14 2.880E-12 0.000E+00
 ETOT 10  -58.077196125856      0.000E+00 1.331E-13 0.000E+00
 ETOT 11  -58.077196125856      7.105E-15 7.354E-15 0.000E+00
 ETOT 12  -58.077196125856     -1.421E-14 3.432E-16 0.000E+00
 ETOT 13  -58.077196125856      2.132E-14 1.896E-17 0.000E+00
 ETOT 14  -58.077196125856     -7.105E-15 8.912E-19 0.000E+00
 ETOT 15  -58.077196125856      0.000E+00 4.921E-20 0.000E+00
 ETOT 16  -58.077196125856     -7.105E-15 9.243E-21 0.000E+00

 At SCF step   16   max residual=  9.24E-21 < tolwfr=  1.00E-20 =>converged.

 ----iterations are completed or convergence reached----

 dfpt_looppert: DFPT cycle converged with prtwf=-1. Will skip output of the 1st-order WFK file.
 dfpt_looppert : ek2=    7.7760477655E+01
          f-sum rule ratio=    1.0703067554E+00
 prteigrs : about to open file /scratch/users/j/a/jabreu/flow_simple/flow/w120/t1/tmpdata/tmp_1WF1_EIG
 Expectation of eigenvalue derivatives (hartree) for nkpt=   2  k points:
  (in case of degenerate eigenvalues, averaged derivative)
 kpt#   1, nband= 31, wtk=  0.50000, kpt=  0.5000  0.5000  0.5000 (reduced coord)
  -0.00000   -0.00000   -0.00000   -0.00000    0.00000    0.00000   -0.00000   -0.00000
   0.00000    0.00000    0.00000    0.00000    0.00000    0.00000   -0.00000   -0.00000
  -0.00000   -0.00000   -0.00000    0.00000    0.00000    0.00000    0.00000   -0.00000
  -0.00000   -0.00000    0.00000    0.00000   -0.00000   -0.00000    0.00000
 prteigrs : prtvol=0 or 1, do not print more k-points.

 Eight components of 2nd-order total energy (hartree) are
 1,2,3: 0th-order hamiltonian combined with 1st-order wavefunctions
     kin0=   5.48707006E+01 eigvalue=   1.07146948E+00  local=  -2.75726604E+01
 4,5,6: 1st-order hamiltonian combined with 1st and 0th-order wfs
     kin1=  -8.32275645E+01  Hartree=   0.00000000E+00     xc=   0.00000000E+00
 7,8,9: eventually, occupation + non-local contributions
    edocc=   2.17386355E+01     enl0=   7.96905092E+00   enl1=  -3.29268277E+01
 1-9 gives the relaxation energy (to be shifted if some occ is /=2.0)
   erelax=  -5.80771961E+01
  No Ewald or frozen-wf contrib.: the relaxation energy is the total one
 2DEtotal=   -0.5807719613E+02 Ha. Also 2DEtotal=   -0.158036087729E+04 eV
    (  non-var. 2DEtotal :   -5.8077196126E+01 Ha)

 Perturbation wavevector (in red.coord.)   0.000000  0.000000  0.000000
 Perturbation : derivative vs k along direction   2
 The set of symmetries contains only one element for this perturbation.
 symkpt : not enough symmetry to change the number of k points.

[...]

 Perturbation wavevector (in red.coord.)   0.000000  0.000000  0.000000
 Perturbation : derivative vs k along direction   3
 The set of symmetries contains only one element for this perturbation.
 symkpt : not enough symmetry to change the number of k points.

-inwffil : will read wavefunctions from disk file /scratch/users/j/a/jabreu/flow_simple/flow/w120/t1/indata/in_WFK

 Initialisation of the first-order wave-functions :
  ireadwf=   0

--- !BeginCycle
iteration_state: {dtset: 1, }
solver: {iscf: 7, nstep: 100, nline: 4, wfoptalg: 0, }
tolerances: {tolwfr: 1.00E-20, }
...

     iter   2DEtotal(Ha)        deltaE(Ha) residm    vres2
-ETOT  1  -58.041258543950     -5.804E+01 2.197E-01 0.000E+00
 ETOT  2  -58.076464425000     -3.521E-02 1.028E-02 0.000E+00
 ETOT  3  -58.076543133025     -7.871E-05 3.712E-04 0.000E+00
 ETOT  4  -58.076543695263     -5.622E-07 2.021E-05 0.000E+00
 ETOT  5  -58.076543700473     -5.210E-09 8.319E-07 0.000E+00
 ETOT  6  -58.076543700526     -5.272E-11 4.738E-08 0.000E+00
 ETOT  7  -58.076543700527     -6.608E-13 2.026E-09 0.000E+00
 ETOT  8  -58.076543700527      2.842E-14 1.179E-10 0.000E+00
 ETOT  9  -58.076543700527     -3.553E-14 5.127E-12 0.000E+00
 ETOT 10  -58.076543700527      5.684E-14 3.028E-13 0.000E+00
 ETOT 11  -58.076543700527     -7.105E-15 1.330E-14 0.000E+00
 ETOT 12  -58.076543700527      2.132E-14 7.937E-16 0.000E+00
 ETOT 13  -58.076543700527     -2.132E-14 3.506E-17 0.000E+00
 ETOT 14  -58.076543700527      7.105E-15 2.110E-18 0.000E+00
 ETOT 15  -58.076543700527     -2.132E-14 9.353E-20 0.000E+00
 ETOT 16  -58.076543700527      0.000E+00 9.012E-21 0.000E+00

 At SCF step   16   max residual=  9.01E-21 < tolwfr=  1.00E-20 =>converged.

 ----iterations are completed or convergence reached----

 dfpt_looppert: DFPT cycle converged with prtwf=-1. Will skip output of the 1st-order WFK file.
 dfpt_looppert : ek2=    7.7760477655E+01
          f-sum rule ratio=    1.0702957020E+00
 prteigrs : about to open file /scratch/users/j/a/jabreu/flow_simple/flow/w120/t1/tmpdata/tmp_1WF1_EIG
 Expectation of eigenvalue derivatives (hartree) for nkpt=   2  k points:
  (in case of degenerate eigenvalues, averaged derivative)
 kpt#   1, nband= 31, wtk=  0.50000, kpt=  0.5000  0.5000  0.5000 (reduced coord)
   0.00000   -0.00000    0.00000    0.00000   -0.00000    0.00000    0.00000    0.00000
   0.00000   -0.00000   -0.00000   -0.00000   -0.00000    0.00000    0.00000    0.00000
   0.00000    0.00000    0.00000    0.00000   -0.00000   -0.00000   -0.00000    0.00000
   0.00000   -0.00000    0.00000    0.00000    0.00000    0.00000    0.00000
 prteigrs : prtvol=0 or 1, do not print more k-points.

 Eight components of 2nd-order total energy (hartree) are
 1,2,3: 0th-order hamiltonian combined with 1st-order wavefunctions
     kin0=   5.48800456E+01 eigvalue=   1.07985312E+00  local=  -2.75767480E+01
 4,5,6: 1st-order hamiltonian combined with 1st and 0th-order wfs
     kin1=  -8.32267050E+01  Hartree=   0.00000000E+00     xc=   0.00000000E+00
 7,8,9: eventually, occupation + non-local contributions
    edocc=   2.17172345E+01     enl0=   7.97615845E+00   enl1=  -3.29263824E+01
 1-9 gives the relaxation energy (to be shifted if some occ is /=2.0)
   erelax=  -5.80765437E+01
  No Ewald or frozen-wf contrib.: the relaxation energy is the total one
 2DEtotal=   -0.5807654370E+02 Ha. Also 2DEtotal=   -0.158034312390E+04 eV
    (  non-var. 2DEtotal :   -5.8076543701E+01 Ha)

 CALCULATION OF EFFECTIVE MASSES
 NOTE : Additional infos (eff. mass eigenvalues, eigenvectors and, if degenerate, average mass) are available in stdout.

 COMMENTS:
 - At k-point ( 0.500, 0.500, 0.500), bands    21 through    22
   are DEGENERATE (effective mass tensor is therefore not defined).
   See Section IIIB Eqs. (67)-(70) and Appendix E of PRB 93 205147 (2016).
 - Angular average effective mass for Frohlich model is to be averaged over degenerate bands. See later.
 - Associated theta integrals calculated with ntheta=   1000 points.

 K-point ( 0.500, 0.500, 0.500) | band =    21
 Transport equivalent effective mass tensor:
             -0.5690225025             -0.0155916881             -0.0381907132
             -0.0155916881             -0.5579975152             -0.0270048423
             -0.0381907132             -0.0270048423             -0.6131226096
 Transport equivalent effective mass tensor eigenvalues:
             -0.6461963692             -0.5469737326             -0.5469725255
 Angular average effective mass 1/(<1/m>)=  -0.5479991591
 Angular average effective mass for Frohlich model (<m**0.5>)**2=  -0.5505751650
 Effective masses along directions: (cart. coord. / red. coord. -> eff. mass)
    1:   1.000000  0.000000  0.000000 /   0.948683  0.316228  0.000000 ->  -0.5007296028
    2:   0.000000  1.000000  0.000000 /   0.000000  1.000000  0.000000 ->  -0.4898108437
    3:   0.000000  0.000000  1.000000 /   0.408248  0.408248  0.816497 ->  -0.5366766216
    4:   0.577350  0.577350  0.577350 /   0.585539  0.688047  0.428644 ->  -0.6237140676
    5:   0.000000  0.707107  0.707107 /   0.289489  0.762222  0.578977 ->  -0.5703797419
    6:   0.707107  0.000000  0.707107 /   0.731423  0.422287  0.535439 ->  -0.5940707093
    7:   0.707107  0.707107  0.000000 /   0.616798  0.787122  0.000000 ->  -0.5748720769

 K-point ( 0.500, 0.500, 0.500) | band =    22
 Transport equivalent effective mass tensor:
             -0.9180013566             -0.0288198605             -0.0705961152
             -0.0288198605             -0.8976225597             -0.0499190759
             -0.0705961152             -0.0499190759             -0.9995168431
 Transport equivalent effective mass tensor eigenvalues:
             -1.0606553299             -0.8772438691             -0.8772415605
 Angular average effective mass 1/(<1/m>)=  -0.8362670140
 Angular average effective mass for Frohlich model (<m**0.5>)**2=  -0.8447379267
 Effective masses along directions: (cart. coord. / red. coord. -> eff. mass)
    1:   1.000000  0.000000  0.000000 /   0.948683  0.316228  0.000000 ->  -0.9243216856
    2:   0.000000  1.000000  0.000000 /   0.000000  1.000000  0.000000 ->  -0.9126540447
    3:   0.000000  0.000000  1.000000 /   0.408248  0.408248  0.816497 ->  -1.0180787644
    4:   0.577350  0.577350  0.577350 /   0.585539  0.688047  0.428644 ->  -0.8831877654
    5:   0.000000  0.707107  0.707107 /   0.289489  0.762222  0.578977 ->  -0.9129993335
    6:   0.707107  0.000000  0.707107 /   0.731423  0.422287  0.535439 ->  -0.9286511250
    7:   0.707107  0.707107  0.000000 /   0.616798  0.787122  0.000000 ->  -0.7775452293

 Angular average effective mass for Frohlich model, averaged over degenerate bands.
 Value of     (<<m**0.5>>)**2 =     6.898164E-01
 Absolute Value of <<m**0.5>> =     8.305519E-01

 K-point ( 0.500, 0.000, 0.500) | band =    23
 Effective mass tensor:
              0.2963316614             -0.0419513250              0.0512041342
             -0.0419513250              0.3258202231             -0.0725577783
              0.0512041342             -0.0725577783              0.3555257079
 Effective mass tensor eigenvalues:
              0.2665370737              0.2668003702              0.4443401485
 Angular average effective mass 1/(<1/m>)=   0.3076774083
 Angular average effective mass for Frohlich model (<m**0.5>)**2=   0.3125407574
 Effective masses along directions: (cart. coord. / red. coord. -> eff. mass)
    1:   1.000000  0.000000  0.000000 /   0.948683  0.316228  0.000000 ->   0.2857664022
    2:   0.000000  1.000000  0.000000 /   0.000000  1.000000  0.000000 ->   0.3075780235
    3:   0.000000  0.000000  1.000000 /   0.408248  0.408248  0.816497 ->   0.3333441247
    4:   0.577350  0.577350  0.577350 /   0.585539  0.688047  0.428644 ->   0.2772388899
    5:   0.000000  0.707107  0.707107 /   0.289489  0.762222  0.578977 ->   0.2675203495
    6:   0.707107  0.000000  0.707107 /   0.731423  0.422287  0.535439 ->   0.3548645136
    7:   0.707107  0.707107  0.000000 /   0.616798  0.787122  0.000000 ->   0.2681164886

 END OF EFFECTIVE MASSES SECTION

 ---- first-order wavefunction calculations are completed ----

 Total localisation tensor (bohr^2) in cartesian coordinates
  WARNING : still subject to testing - especially symmetries.
      direction              matrix element
   alpha     beta       real part   imaginary part
     1        1       1.8985954206    0.0000000000
     1        2       0.5370026216    0.0000000000
     1        3       1.3153849794    0.0000000000
     2        1       0.5370026216    0.0000000000
     2        2       1.5188727809    0.0000000000
     2        3       0.9301158244    0.0000000000
     3        1       1.3153849794    0.0000000000
     3        2       0.9301158244    0.0000000000
     3        3       3.4174438434    0.0000000000

 respfn : d/dk was computed, but no 2DTE, so no DDB output.

== END DATASET(S) ==============================================================

 -outvars: echo values of variables after computation  --------
            acell      1.0000000000E+00  1.0000000000E+00  1.0000000000E+00 Bohr
              amu      1.80947900E+02  1.21753000E+02  1.01070000E+02
             ecut      4.40000000E+01 Hartree
           etotal     -5.8076543701E+01
            fcart      0.0000000000E+00  0.0000000000E+00  0.0000000000E+00
                       0.0000000000E+00  0.0000000000E+00  0.0000000000E+00
                       0.0000000000E+00  0.0000000000E+00  0.0000000000E+00
-          fftalg         512
           irdden           1
           irdwfk           1
           istwfk        1    1
              ixc     -116133
              kpt      5.00000000E-01  5.00000000E-01  5.00000000E-01
                       5.00000000E-01  2.46519033E-32  5.00000000E-01
           kptopt           0
P           mkmem           2
P          mkqmem           2
P          mk1mem           2
            natom           3
            nband          31
           nbdbuf           4
            ngfft          50      50      50
             nkpt           2
            nstep         100
             nsym          24
           ntypat           3
              occ      2.000000  2.000000  2.000000  2.000000  2.000000  2.000000
                       2.000000  2.000000  2.000000  2.000000  2.000000  2.000000
                       2.000000  2.000000  2.000000  2.000000  2.000000  2.000000
                       2.000000  2.000000  2.000000  2.000000  0.000000  0.000000
                       0.000000  0.000000  0.000000  0.000000  0.000000  0.000000
                       0.000000
        optdriver           1
            prtwf          -1
            rfdir           1       1       1
           rfelfd           2
            rprim      7.0895391616E+00  0.0000000000E+00  4.0931473434E+00
                       2.3631797205E+00  6.6840816223E+00  4.0931473434E+00
                       0.0000000000E+00  0.0000000000E+00  8.1862946868E+00
          spgroup         216
           strten      0.0000000000E+00  0.0000000000E+00  0.0000000000E+00
                       0.0000000000E+00  0.0000000000E+00  0.0000000000E+00
           symrel      1  0  0   0  1  0   0  0  1       0 -1  1   0 -1  0   1 -1  0
                      -1  0  0  -1  0  1  -1  1  0       0  1 -1   1  0 -1   0  0 -1
                      -1  0  0  -1  1  0  -1  0  1       0 -1  1   1 -1  0   0 -1  0
                       1  0  0   0  0  1   0  1  0       0  1 -1   0  0 -1   1  0 -1
                      -1  0  1  -1  1  0  -1  0  0       0 -1  0   1 -1  0   0 -1  1
                       1  0 -1   0  0 -1   0  1 -1       0  1  0   0  0  1   1  0  0
                       1  0 -1   0  1 -1   0  0 -1       0 -1  0   0 -1  1   1 -1  0
                      -1  0  1  -1  0  0  -1  1  0       0  1  0   1  0  0   0  0  1
                       0  0 -1   0  1 -1   1  0 -1       1 -1  0   0 -1  1   0 -1  0
                       0  0  1   1  0  0   0  1  0      -1  1  0  -1  0  0  -1  0  1
                       0  0  1   0  1  0   1  0  0       1 -1  0   0 -1  0   0 -1  1
                       0  0 -1   1  0 -1   0  1 -1      -1  1  0  -1  0  1  -1  0  0
           tolwfr      1.00000000E-20
            typat      1  2  3
           useylm           1
              wtk        0.50000    0.50000
           xangst      0.0000000000E+00  0.0000000000E+00  0.0000000000E+00
                       2.5010816958E+00  1.7685318274E+00  4.3320005711E+00
                       1.2505408479E+00  8.8426591372E-01  2.1660002855E+00
            xcart      0.0000000000E+00  0.0000000000E+00  0.0000000000E+00
                       4.7263594411E+00  3.3420408112E+00  8.1862946868E+00
                       2.3631797205E+00  1.6710204056E+00  4.0931473434E+00
             xred      0.0000000000E+00  0.0000000000E+00  0.0000000000E+00
                       5.0000000000E-01  5.0000000000E-01  5.0000000000E-01
                       2.5000000000E-01  2.5000000000E-01  2.5000000000E-01
            znucl       73.00000   51.00000   44.00000

- Timing analysis has been suppressed with timopt=0

 Suggested references for the acknowledgment of ABINIT usage.

 Calculation completed.
.Delivered  14 WARNINGs and   9 COMMENTs to log file.