.Version 9.5.1 of ABINIT

 ABINIT is a project of the Universite Catholique de Louvain,
 Corning Inc. and other collaborators, see ~abinit/doc/developers/contributors.txt .
 acknowledgments of the ABINIT effort.

.Starting date : Wed 19 May 2021.
- ( at 01h20 )

- input  file    -> /scratch/users/j/a/jabreu/flow_simple_8atoms/flow/w406/t1/run.abi
- output file    -> /scratch/users/j/a/jabreu/flow_simple_8atoms/flow/w406/t1/run.abo
- root for input  files -> /scratch/users/j/a/jabreu/flow_simple_8atoms/flow/w406/t1/indata/in
- root for output files -> /scratch/users/j/a/jabreu/flow_simple_8atoms/flow/w406/t1/outdata/out

 Symmetries : space group R-3 (#148); Bravais hR (rhombohedral)
     intxc =       0      iscf =       7    lmnmax =      18     lnmax =       6
     mgfft =      75  mpssoang =       3    mqgrid =    3001     natom =       8
  nloc_mem =       1    nspden =       1   nspinor =       1    nsppol =       1
      nsym =       6    n1xccc =    2501    ntypat =       3    occopt =       1
   xclevel =       2
-    mband =          47        mffmem =           1         mkmem =           1
-   mkqmem =           1        mk1mem =           1           mpw =       15319
      nfft =      421875          nkpt =           1
  Rough estimation (10% accuracy) of disk space for files :

------------- Echo of variables that govern the present computation ------------
-
- outvars: echo of selected default values
-   iomode0 =  0 , fftalg0 =512 , wfoptalg0 =  0
-
- outvars: echo of global parameters not present in the input file
-  max_nthreads =    0
-
 -outvars: echo values of preprocessed input variables --------
            acell      1.0000000000E+00  1.0000000000E+00  1.0000000000E+00 Bohr
              amu      1.12411000E+02  2.07200000E+02  1.89984032E+01
             ecut      5.10000000E+01 Hartree
-          fftalg         512
           irdden           1
           irdwfk           1
           istwfk        1
              ixc     -116133
           kptopt           0
P           mkmem           1
P          mkqmem           1
P          mk1mem           1
            natom           8
            nband          47
           nbdbuf           4
            ngfft          75      75      75
             nkpt           1
            nstep        2000
             nsym           6
           ntypat           3
              occ      2.000000  2.000000  2.000000  2.000000  2.000000  2.000000
                       2.000000  2.000000  2.000000  2.000000  2.000000  2.000000
                       2.000000  2.000000  2.000000  2.000000  2.000000  2.000000
                       2.000000  2.000000  2.000000  2.000000  2.000000  2.000000
                       2.000000  2.000000  2.000000  2.000000  2.000000  2.000000
                       2.000000  2.000000  2.000000  2.000000  2.000000  2.000000
                       2.000000  2.000000  0.000000  0.000000  0.000000  0.000000
                       0.000000  0.000000  0.000000  0.000000  0.000000
        optdriver           1
            prtwf          -1
            rfdir           1       1       1
           rfelfd           2
            rprim      9.1639207476E+00  0.0000000000E+00  6.4889448635E+00
                       3.3562110100E+00  8.5272088707E+00  6.4889448635E+00
                       0.0000000000E+00  0.0000000000E+00  1.1228706467E+01
          spgroup         148
           symrel      1  0  0   0  1  0   0  0  1      -1  0  0   0 -1  0   0  0 -1
                       0  0  1   1  0  0   0  1  0       0  0 -1  -1  0  0   0 -1  0
                       0  1  0   0  0  1   1  0  0       0 -1  0   0  0 -1  -1  0  0
           tolwfr      1.00000000E-20
            typat      1  2  3  3  3  3  3  3
           useylm           1
           xangst      3.3126841873E+00  2.2562022936E+00  6.4047895016E+00
                       0.0000000000E+00  0.0000000000E+00  0.0000000000E+00
                       3.8607670428E+00  4.6827929845E-01  5.2162962144E+00
                       1.1777510438E+00  1.7137345514E+00  6.1652713016E+00
                       3.1881686974E+00  3.4210163642E+00  4.5240226844E+00
                       3.4371996772E+00  1.0913882231E+00  8.2855563188E+00
                       5.4476173309E+00  2.7986700359E+00  6.6443077016E+00
                       2.7646013319E+00  4.0441252888E+00  7.5932827888E+00
            xcart      6.2600658788E+00  4.2636044353E+00  1.2103298097E+01
                       0.0000000000E+00  0.0000000000E+00  0.0000000000E+00
                       7.2957923737E+00  8.8491962777E-01  9.8573712732E+00
                       2.2256269255E+00  3.2384889665E+00  1.1650674295E+01
                       6.0247657036E+00  6.4647840244E+00  8.5491638924E+00
                       6.4953660540E+00  2.0624248463E+00  1.5657432301E+01
                       1.0294504832E+01  5.2887199042E+00  1.2555921899E+01
                       5.2243393839E+00  7.6422892429E+00  1.4349224920E+01
             xred      5.0000000000E-01  5.0000000000E-01  5.0000000000E-01
                       0.0000000000E+00  0.0000000000E+00  0.0000000000E+00
                       7.5813600000E-01  1.0377600000E-01  3.7978300000E-01
                       1.0377600000E-01  3.7978300000E-01  7.5813600000E-01
                       3.7978300000E-01  7.5813600000E-01  1.0377600000E-01
                       6.2021700000E-01  2.4186400000E-01  8.9622400000E-01
                       8.9622400000E-01  6.2021700000E-01  2.4186400000E-01
                       2.4186400000E-01  8.9622400000E-01  6.2021700000E-01
            znucl       48.00000   82.00000    9.00000

 chkinp: Checking input parameters for consistency.

== DATASET  1 ==================================================================
-   mpi_nproc: 1, omp_nthreads: -1 (-1 if OMP is not activated)

--- !DatasetInfo
iteration_state: {dtset: 1, }
dimensions: {natom: 8, nkpt: 1, mband: 47, nsppol: 1, nspinor: 1, nspden: 1, mpw: 15319, }
cutoff_energies: {ecut:  51.0, pawecutdg:  -1.0, }
electrons: {nelect:   7.60000000E+01, charge:   0.00000000E+00, occopt:   1.00000000E+00, tsmear:   1.00000000E-02, }
meta: {optdriver: 1, rfelfd: 2, }
...

 Real(R)+Recip(G) space primitive vectors, cartesian coordinates (Bohr,Bohr^-1):
 R(1)=  9.1639207  0.0000000  6.4889449  G(1)=  0.1091236 -0.0429498  0.0000000
 R(2)=  3.3562110  8.5272089  6.4889449  G(2)=  0.0000000  0.1172717  0.0000000
 R(3)=  0.0000000  0.0000000 11.2287065  G(3)= -0.0630613 -0.0429498  0.0890575
 Unit cell volume ucvol=  8.7744106E+02 bohr^3
 Angles (23,13,12)=  5.46978041E+01  5.46978041E+01  5.46978041E+01 degrees

 getcut: wavevector=  0.0000  0.0000  0.0000  ngfft=  75  75  75
         ecut(hartree)=     51.000   => boxcut(ratio)=   2.05023

--- Pseudopotential description ------------------------------------------------
- pspini: atom type   1  psp file is /scratch/users/j/a/jabreu/pseudos/PBEsol/Cd.psp8
- pspatm: opening atomic psp file    /scratch/users/j/a/jabreu/pseudos/PBEsol/Cd.psp8
- Cd    ONCVPSP-3.3.0  r_core=   1.25838   1.30423   1.35174
- 48.00000  20.00000    180112                znucl, zion, pspdat
    8 -116133    2    4       600   0.00000   pspcod,pspxc,lmax,lloc,mmax,r2well
    5.99000000000000    6.00000000000000    0.00000000000000   rchrg,fchrg,qchrg
     nproj     2     2     2
     extension_switch     1
  pspatm : epsatm=   23.26728021
         --- l  ekb(1:nproj) -->
             0   63.701523    3.700425
             1    8.703569    1.290373
             2    0.983656   -0.721725
 pspatm: atomic psp has been read  and splines computed

- pspini: atom type   2  psp file is /scratch/users/j/a/jabreu/pseudos/PBEsol/Pb.psp8
- pspatm: opening atomic psp file    /scratch/users/j/a/jabreu/pseudos/PBEsol/Pb.psp8
- Pb    ONCVPSP-3.3.0  r_core=   2.42823   2.42823   2.10438
- 82.00000  14.00000    180112                znucl, zion, pspdat
    8 -116133    2    4       600   0.00000   pspcod,pspxc,lmax,lloc,mmax,r2well
    5.99000000000000    6.00000000000000    0.00000000000000   rchrg,fchrg,qchrg
     nproj     2     2     2
     extension_switch     1
  pspatm : epsatm=   44.32675151
         --- l  ekb(1:nproj) -->
             0    6.256780    1.206521
             1    4.272336    0.573876
             2   -3.251371   -0.847363
 pspatm: atomic psp has been read  and splines computed

- pspini: atom type   3  psp file is /scratch/users/j/a/jabreu/pseudos/PBEsol/F.psp8
- pspatm: opening atomic psp file    /scratch/users/j/a/jabreu/pseudos/PBEsol/F.psp8
- F     ONCVPSP-3.3.0  r_core=   1.30942   1.45782   1.60379
-  9.00000   7.00000    180112                znucl, zion, pspdat
    8 -116133    2    4       600   0.00000   pspcod,pspxc,lmax,lloc,mmax,r2well
    5.99000000000000    2.50000000000000    0.00000000000000   rchrg,fchrg,qchrg
     nproj     2     2     1
     extension_switch     1
  pspatm : epsatm=    4.89824824
         --- l  ekb(1:nproj) -->
             0    6.506434    1.065875
             1   -3.978753   -1.295852
             2   -2.394754
 pspatm: atomic psp has been read  and splines computed

   7.37074761E+03                                ecore*ucvol(ha*bohr**3)

-inwffil : will read wavefunctions from disk file /scratch/users/j/a/jabreu/flow_simple_8atoms/flow/w406/t1/indata/in_WFK

 ==>  initialize data related to q vector <==

 The list of irreducible perturbations for this q vector is:
    1)    idir= 1    ipert=   9
    2)    idir= 2    ipert=   9
    3)    idir= 3    ipert=   9

 Perturbation wavevector (in red.coord.)   0.000000  0.000000  0.000000
 Perturbation : derivative vs k along direction   1

 dfpt_looppert : COMMENT -
  In a d/dk calculation, iscf is set to -3 automatically.
 The set of symmetries contains only one element for this perturbation.
 symkpt : not enough symmetry to change the number of k points.

[...]

 Initialisation of the first-order wave-functions :
  ireadwf=   0

--- !BeginCycle
iteration_state: {dtset: 1, }
solver: {iscf: 7, nstep: 2000, nline: 4, wfoptalg: 0, }
tolerances: {tolwfr: 1.00E-20, }
...

     iter   2DEtotal(Ha)        deltaE(Ha) residm    vres2
-ETOT  1  -54.205789493926     -5.421E+01 3.379E-01 0.000E+00
 ETOT  2  -54.289120441417     -8.333E-02 2.794E-02 0.000E+00
 ETOT  3  -54.289798796370     -6.784E-04 2.648E-03 0.000E+00
 ETOT  4  -54.289809032427     -1.024E-05 2.626E-04 0.000E+00
 ETOT  5  -54.289809240332     -2.079E-07 3.867E-05 0.000E+00
 ETOT  6  -54.289809245311     -4.979E-09 4.790E-06 0.000E+00
 ETOT  7  -54.289809245444     -1.323E-10 7.272E-07 0.000E+00
 ETOT  8  -54.289809245447     -3.773E-12 9.582E-08 0.000E+00
 ETOT  9  -54.289809245448     -1.350E-13 1.474E-08 0.000E+00
 ETOT 10  -54.289809245448     -1.421E-14 1.986E-09 0.000E+00
 ETOT 11  -54.289809245448      0.000E+00 3.096E-10 0.000E+00
 ETOT 12  -54.289809245448     -3.553E-14 4.212E-11 0.000E+00
 ETOT 13  -54.289809245448     -1.421E-14 6.980E-12 0.000E+00
 ETOT 14  -54.289809245448      4.263E-14 8.896E-13 0.000E+00
 ETOT 15  -54.289809245448      7.105E-15 1.824E-13 0.000E+00
 ETOT 16  -54.289809245448      0.000E+00 2.108E-14 0.000E+00
 ETOT 17  -54.289809245448     -7.105E-15 4.841E-15 0.000E+00
[...]
 dfpt_looppert : ek2=    8.2525758126E+01
          f-sum rule ratio=    1.0333082780E+00
 prteigrs : about to open file /scratch/users/j/a/jabreu/flow_simple_8atoms/flow/w406/t1/tmpdata/tmp_1WF1_EIG
 Expectation of eigenvalue derivatives (hartree) for nkpt=   1  k points:
  (in case of degenerate eigenvalues, averaged derivative)
 kpt#   1, nband= 47, wtk=  1.00000, kpt=  0.0000  0.0000  0.0000 (reduced coord)
   0.00000   -0.00000   -0.00000    0.00000    0.00000   -0.00000   -0.00000    0.00000
  -0.00000   -0.00000    0.00000    0.00000    0.00000   -0.00000   -0.00000   -0.00000
   0.00000    0.00000   -0.00000   -0.00000   -0.00000    0.00000    0.00000   -0.00000
   0.00000    0.00000    0.00000    0.00000    0.00000    0.00000    0.00000   -0.00000
   0.00000    0.00000   -0.00000   -0.00000   -0.00000   -0.00000    0.00000   -0.00000
   0.00000   -0.00000   -0.00000   -0.00000    0.00020    0.00013    0.00002

 Eight components of 2nd-order total energy (hartree) are
 1,2,3: 0th-order hamiltonian combined with 1st-order wavefunctions
     kin0=   7.13581136E+01 eigvalue=   5.77313576E+00  local=  -3.32610112E+01
 4,5,6: 1st-order hamiltonian combined with 1st and 0th-order wfs
     kin1=  -8.52745490E+01  Hartree=   0.00000000E+00     xc=   0.00000000E+00
 7,8,9: eventually, occupation + non-local contributions
    edocc=   7.25122223E+00     enl0=   3.16834887E+00   enl1=  -2.33050695E+01
 1-9 gives the relaxation energy (to be shifted if some occ is /=2.0)
   erelax=  -5.42898092E+01
  No Ewald or frozen-wf contrib.: the relaxation energy is the total one
 2DEtotal=   -0.5428980925E+02 Ha. Also 2DEtotal=   -0.147730083906E+04 eV
    (  non-var. 2DEtotal :   -5.4289809246E+01 Ha)

 Perturbation wavevector (in red.coord.)   0.000000  0.000000  0.000000
 Perturbation : derivative vs k along direction   2
 The set of symmetries contains only one element for this perturbation.
 symkpt : not enough symmetry to change the number of k points.

[...]

 Perturbation wavevector (in red.coord.)   0.000000  0.000000  0.000000
 Perturbation : derivative vs k along direction   3
 The set of symmetries contains only one element for this perturbation.
 symkpt : not enough symmetry to change the number of k points.

-inwffil : will read wavefunctions from disk file /scratch/users/j/a/jabreu/flow_simple_8atoms/flow/w406/t1/indata/in_WFK

 Initialisation of the first-order wave-functions :
  ireadwf=   0

--- !BeginCycle
iteration_state: {dtset: 1, }
solver: {iscf: 7, nstep: 2000, nline: 4, wfoptalg: 0, }
tolerances: {tolwfr: 1.00E-20, }
...

     iter   2DEtotal(Ha)        deltaE(Ha) residm    vres2
-ETOT  1  -54.202995510871     -5.420E+01 2.911E-01 0.000E+00
 ETOT  2  -54.289471370300     -8.648E-02 3.769E-02 0.000E+00
 ETOT  3  -54.290149777567     -6.784E-04 2.185E-03 0.000E+00
 ETOT  4  -54.290159538111     -9.761E-06 4.787E-04 0.000E+00
 ETOT  5  -54.290159725205     -1.871E-07 3.431E-05 0.000E+00
 ETOT  6  -54.290159729487     -4.282E-09 9.325E-06 0.000E+00
 ETOT  7  -54.290159729596     -1.089E-10 7.059E-07 0.000E+00
 ETOT  8  -54.290159729599     -2.998E-12 2.049E-07 0.000E+00
 ETOT  9  -54.290159729599     -4.263E-14 1.622E-08 0.000E+00
 ETOT 10  -54.290159729599     -1.421E-14 4.616E-09 0.000E+00
 ETOT 11  -54.290159729599     -2.842E-14 4.700E-10 0.000E+00
 ETOT 12  -54.290159729599      4.263E-14 1.194E-10 0.000E+00
 ETOT 13  -54.290159729599      0.000E+00 1.559E-11 0.000E+00
 ETOT 14  -54.290159729599     -1.421E-14 3.702E-12 0.000E+00
 ETOT 15  -54.290159729599      2.842E-14 4.863E-13 0.000E+00
 ETOT 16  -54.290159729599     -1.421E-14 1.165E-13 0.000E+00
 ETOT 17  -54.290159729599      7.105E-15 1.522E-14 0.000E+00
 ETOT 18  -54.290159729599      0.000E+00 3.675E-15 0.000E+00
 ETOT 19  -54.290159729599     -7.105E-15 4.777E-16 0.000E+00
 ETOT 20  -54.290159729599     -1.421E-14 1.163E-16 0.000E+00
 ETOT 21  -54.290159729599     -7.105E-15 1.504E-17 0.000E+00
 ETOT 22  -54.290159729599      1.421E-14 3.686E-18 0.000E+00
 ETOT 23  -54.290159729599      7.105E-15 4.746E-19 0.000E+00
 ETOT 24  -54.290159729599     -1.421E-14 1.171E-19 0.000E+00
 ETOT 25  -54.290159729599      1.421E-14 1.501E-20 0.000E+00
 ETOT 26  -54.290159729599      1.421E-14 9.044E-21 0.000E+00

 At SCF step   26   max residual=  9.04E-21 < tolwfr=  1.00E-20 =>converged.

 ----iterations are completed or convergence reached----

 dfpt_looppert: DFPT cycle converged with prtwf=-1. Will skip output of the 1st-order WFK file.
 dfpt_looppert : ek2=    8.2525758125E+01
          f-sum rule ratio=    1.0333099067E+00
 prteigrs : about to open file /scratch/users/j/a/jabreu/flow_simple_8atoms/flow/w406/t1/tmpdata/tmp_1WF1_EIG
 Expectation of eigenvalue derivatives (hartree) for nkpt=   1  k points:
  (in case of degenerate eigenvalues, averaged derivative)
 kpt#   1, nband= 47, wtk=  1.00000, kpt=  0.0000  0.0000  0.0000 (reduced coord)
  -0.00000   -0.00000   -0.00000    0.00000   -0.00000    0.00000    0.00000    0.00000
  -0.00000   -0.00000    0.00000    0.00000   -0.00000    0.00000    0.00000    0.00000
   0.00000    0.00000    0.00000    0.00000    0.00000   -0.00000   -0.00000    0.00000
  -0.00000   -0.00000    0.00000   -0.00000   -0.00000   -0.00000   -0.00000    0.00000
   0.00000    0.00000   -0.00000   -0.00000   -0.00000   -0.00000    0.00000    0.00000
   0.00000    0.00000    0.00000   -0.00000   -0.00008    0.00013    0.00011

 Eight components of 2nd-order total energy (hartree) are
 1,2,3: 0th-order hamiltonian combined with 1st-order wavefunctions
     kin0=   7.13574800E+01 eigvalue=   5.77292597E+00  local=  -3.32609401E+01
 4,5,6: 1st-order hamiltonian combined with 1st and 0th-order wfs
     kin1=  -8.52746834E+01  Hartree=   0.00000000E+00     xc=   0.00000000E+00
 7,8,9: eventually, occupation + non-local contributions
    edocc=   7.25234576E+00     enl0=   3.16834803E+00   enl1=  -2.33056360E+01
 1-9 gives the relaxation energy (to be shifted if some occ is /=2.0)
   erelax=  -5.42901597E+01
  No Ewald or frozen-wf contrib.: the relaxation energy is the total one
 2DEtotal=   -0.5429015973E+02 Ha. Also 2DEtotal=   -0.147731037622E+04 eV
    (  non-var. 2DEtotal :   -5.4290159730E+01 Ha)

 CALCULATION OF EFFECTIVE MASSES
 NOTE : Additional infos (eff. mass eigenvalues, eigenvectors and, if degenerate, average mass) are available in stdout.

 COMMENTS:
 - At k-point ( 0.000, 0.000, 0.000), bands    37 through    38
   are DEGENERATE (effective mass tensor is therefore not defined).
   See Section IIIB Eqs. (67)-(70) and Appendix E of PRB 93 205147 (2016).
 - Angular average effective mass for Frohlich model is to be averaged over degenerate bands. See later.
 - Associated theta integrals calculated with ntheta=   1000 points.

 K-point ( 0.000, 0.000, 0.000) | band =    37
 Transport equivalent effective mass tensor:
             -1.7562336503              0.0679504435              0.1929990741
              0.0679504435             -1.8101268323              0.1316860401
              0.1929990741              0.1316860401             -1.4827739039
 Transport equivalent effective mass tensor eigenvalues:
             -1.8565280839             -1.8559995535             -1.3366067492
 Angular average effective mass 1/(<1/m>)=  -1.2968589946
 Angular average effective mass for Frohlich model (<m**0.5>)**2=  -1.3219979157
 Effective masses along directions: (cart. coord. / red. coord. -> eff. mass)
    1:   1.000000  0.000000  0.000000 /   0.939005  0.343903  0.000000 ->  -1.2931901740
    2:   0.000000  1.000000  0.000000 /   0.000000  1.000000  0.000000 ->  -1.9262719825
    3:   0.000000  0.000000  1.000000 /   0.447464  0.447464  0.774308 ->  -1.2260319153
    4:   0.577350  0.577350  0.577350 /   0.588005  0.690164  0.421810 ->  -1.2000706956
    5:   0.000000  0.707107  0.707107 /   0.327043  0.756815  0.565927 ->  -1.0929998603
    6:   0.707107  0.000000  0.707107 /   0.723536  0.455081  0.519034 ->  -1.2477880720
    7:   0.707107  0.707107  0.000000 /   0.610666  0.791888  0.000000 ->  -1.1115438895

 K-point ( 0.000, 0.000, 0.000) | band =    38
 Transport equivalent effective mass tensor:
           -117.1503445788              4.0186843808             11.3683519436
              4.0186843808           -120.3575739620              7.8309709454
             11.3683519436              7.8309709454           -101.0406043001
 Transport equivalent effective mass tensor eigenvalues:
           -123.1341051068           -123.0220015524            -92.3924161817
 Angular average effective mass 1/(<1/m>)=  -4.7189838701
 Angular average effective mass for Frohlich model (<m**0.5>)**2=  -6.3563627874
 Effective masses along directions: (cart. coord. / red. coord. -> eff. mass)
    1:   1.000000  0.000000  0.000000 /   0.939005  0.343903  0.000000 ->  -5.9182175809
    2:   0.000000  1.000000  0.000000 /   0.000000  1.000000  0.000000 ->  -2.5436313999
    3:   0.000000  0.000000  1.000000 /   0.447464  0.447464  0.774308 ->  -3.5862254066
    4:   0.577350  0.577350  0.577350 /   0.588005  0.690164  0.421810 ->  -3.3845504285
    5:   0.000000  0.707107  0.707107 /   0.327043  0.756815  0.565927 ->  -6.1803426969
    6:   0.707107  0.000000  0.707107 /   0.723536  0.455081  0.519034 ->  -3.0827023270
    7:   0.707107  0.707107  0.000000 /   0.610666  0.791888  0.000000 -> -15.2794125640

 Angular average effective mass for Frohlich model, averaged over degenerate bands.
 Value of     (<<m**0.5>>)**2 =     3.368995E+00
 Absolute Value of <<m**0.5>> =     1.835482E+00

 K-point ( 0.000, 0.000, 0.000) | band =    39
 Effective mass tensor:
              0.6462685449             -0.0117485301             -0.0333058151
             -0.0117485301              0.6555070151             -0.0226766652
             -0.0333058151             -0.0226766652              0.5991265590
 Effective mass tensor eigenvalues:
              0.5739018793              0.6634865198              0.6635137199
 Angular average effective mass 1/(<1/m>)=   0.6306793191
 Angular average effective mass for Frohlich model (<m**0.5>)**2=   0.6315864528
 Effective masses along directions: (cart. coord. / red. coord. -> eff. mass)
    1:   1.000000  0.000000  0.000000 /   0.939005  0.343903  0.000000 ->   0.6441585372
    2:   0.000000  1.000000  0.000000 /   0.000000  1.000000  0.000000 ->   0.6543860923
    3:   0.000000  0.000000  1.000000 /   0.447464  0.447464  0.774308 ->   0.5965829265
    4:   0.577350  0.577350  0.577350 /   0.588005  0.690164  0.421810 ->   0.5867949554
    5:   0.000000  0.707107  0.707107 /   0.327043  0.756815  0.565927 ->   0.6017802778
    6:   0.707107  0.000000  0.707107 /   0.723536  0.455081  0.519034 ->   0.5876199830
    7:   0.707107  0.707107  0.000000 /   0.610666  0.791888  0.000000 ->   0.6364842420

 END OF EFFECTIVE MASSES SECTION

 ---- first-order wavefunction calculations are completed ----

 Total localisation tensor (bohr^2) in cartesian coordinates
  WARNING : still subject to testing - especially symmetries.
      direction              matrix element
   alpha     beta       real part   imaginary part
     1        1       0.7648224037    0.0000000000
     1        2       0.2298198980    0.0000000000
     1        3       0.6524038291    0.0000000000
     2        1       0.2298198980    0.0000000000
     2        2       0.5839091364    0.0000000000
     2        3       0.4443369746    0.0000000000
     3        1       0.6524038291    0.0000000000
     3        2       0.4443369746    0.0000000000
     3        3       1.6887645513    0.0000000000

 respfn : d/dk was computed, but no 2DTE, so no DDB output.

== END DATASET(S) ==============================================================

 -outvars: echo values of variables after computation  --------
            acell      1.0000000000E+00  1.0000000000E+00  1.0000000000E+00 Bohr
              amu      1.12411000E+02  2.07200000E+02  1.89984032E+01
             ecut      5.10000000E+01 Hartree
           etotal     -5.4290159730E+01
            fcart      0.0000000000E+00  0.0000000000E+00  0.0000000000E+00
                       0.0000000000E+00  0.0000000000E+00  0.0000000000E+00
                       0.0000000000E+00  0.0000000000E+00  0.0000000000E+00
                       0.0000000000E+00  0.0000000000E+00  0.0000000000E+00
                       0.0000000000E+00  0.0000000000E+00  0.0000000000E+00
                       0.0000000000E+00  0.0000000000E+00  0.0000000000E+00
                       0.0000000000E+00  0.0000000000E+00  0.0000000000E+00
                       0.0000000000E+00  0.0000000000E+00  0.0000000000E+00
-          fftalg         512
           irdden           1
           irdwfk           1
           istwfk        1
              ixc     -116133
           kptopt           0
P           mkmem           1
P          mkqmem           1
P          mk1mem           1
            natom           8
            nband          47
           nbdbuf           4
            ngfft          75      75      75
             nkpt           1
            nstep        2000
             nsym           6
           ntypat           3
              occ      2.000000  2.000000  2.000000  2.000000  2.000000  2.000000
                       2.000000  2.000000  2.000000  2.000000  2.000000  2.000000
                       2.000000  2.000000  2.000000  2.000000  2.000000  2.000000
                       2.000000  2.000000  2.000000  2.000000  2.000000  2.000000
                       2.000000  2.000000  2.000000  2.000000  2.000000  2.000000
                       2.000000  2.000000  2.000000  2.000000  2.000000  2.000000
                       2.000000  2.000000  0.000000  0.000000  0.000000  0.000000
                       0.000000  0.000000  0.000000  0.000000  0.000000
        optdriver           1
            prtwf          -1
            rfdir           1       1       1
           rfelfd           2
            rprim      9.1639207476E+00  0.0000000000E+00  6.4889448635E+00
                       3.3562110100E+00  8.5272088707E+00  6.4889448635E+00
                       0.0000000000E+00  0.0000000000E+00  1.1228706467E+01
          spgroup         148
           strten      0.0000000000E+00  0.0000000000E+00  0.0000000000E+00
                       0.0000000000E+00  0.0000000000E+00  0.0000000000E+00
           symrel      1  0  0   0  1  0   0  0  1      -1  0  0   0 -1  0   0  0 -1
                       0  0  1   1  0  0   0  1  0       0  0 -1  -1  0  0   0 -1  0
                       0  1  0   0  0  1   1  0  0       0 -1  0   0  0 -1  -1  0  0
           tolwfr      1.00000000E-20
            typat      1  2  3  3  3  3  3  3
           useylm           1
           xangst      3.3126841873E+00  2.2562022936E+00  6.4047895016E+00
                       0.0000000000E+00  0.0000000000E+00  0.0000000000E+00
                       3.8607670428E+00  4.6827929845E-01  5.2162962144E+00
                       1.1777510438E+00  1.7137345514E+00  6.1652713016E+00
                       3.1881686974E+00  3.4210163642E+00  4.5240226844E+00
                       3.4371996772E+00  1.0913882231E+00  8.2855563188E+00
                       5.4476173309E+00  2.7986700359E+00  6.6443077016E+00
                       2.7646013319E+00  4.0441252888E+00  7.5932827888E+00
            xcart      6.2600658788E+00  4.2636044353E+00  1.2103298097E+01
                       0.0000000000E+00  0.0000000000E+00  0.0000000000E+00
                       7.2957923737E+00  8.8491962777E-01  9.8573712732E+00
                       2.2256269255E+00  3.2384889665E+00  1.1650674295E+01
                       6.0247657036E+00  6.4647840244E+00  8.5491638924E+00
                       6.4953660540E+00  2.0624248463E+00  1.5657432301E+01
                       1.0294504832E+01  5.2887199042E+00  1.2555921899E+01
                       5.2243393839E+00  7.6422892429E+00  1.4349224920E+01
             xred      5.0000000000E-01  5.0000000000E-01  5.0000000000E-01
                       0.0000000000E+00  0.0000000000E+00  0.0000000000E+00
                       7.5813600000E-01  1.0377600000E-01  3.7978300000E-01
                       1.0377600000E-01  3.7978300000E-01  7.5813600000E-01
                       3.7978300000E-01  7.5813600000E-01  1.0377600000E-01
                       6.2021700000E-01  2.4186400000E-01  8.9622400000E-01
                       8.9622400000E-01  6.2021700000E-01  2.4186400000E-01
                       2.4186400000E-01  8.9622400000E-01  6.2021700000E-01
            znucl       48.00000   82.00000    9.00000

- Timing analysis has been suppressed with timopt=0

 Suggested references for the acknowledgment of ABINIT usage.

 Calculation completed.
.Delivered   6 WARNINGs and   5 COMMENTs to log file.