.Version 9.5.1 of ABINIT

 ABINIT is a project of the Universite Catholique de Louvain,
 Corning Inc. and other collaborators, see ~abinit/doc/developers/contributors.txt .
 acknowledgments of the ABINIT effort.

.Starting date : Mon 26 Apr 2021.
- ( at 00h47 )

- input  file    -> /scratch/users/j/a/jabreu/flow_simple/flow/w105/t1/run.abi
- output file    -> /scratch/users/j/a/jabreu/flow_simple/flow/w105/t1/run.abo
- root for input  files -> /scratch/users/j/a/jabreu/flow_simple/flow/w105/t1/indata/in
- root for output files -> /scratch/users/j/a/jabreu/flow_simple/flow/w105/t1/outdata/out

 Symmetries : space group F-4 3 m (#216); Bravais cF (face-center cubic)
     intxc =       0      iscf =       7    lmnmax =      18     lnmax =       6
     mgfft =      54  mpssoang =       3    mqgrid =    3001     natom =       3
  nloc_mem =       1    nspden =       1   nspinor =       1    nsppol =       1
      nsym =      24    n1xccc =    2501    ntypat =       3    occopt =       1
   xclevel =       2
-    mband =          31        mffmem =           1         mkmem =           2
-   mkqmem =           2        mk1mem =           2           mpw =        6466
      nfft =      157464          nkpt =           2
  Rough estimation (10% accuracy) of disk space for files :

------------- Echo of variables that govern the present computation ------------
-
- outvars: echo of selected default values
-   iomode0 =  0 , fftalg0 =512 , wfoptalg0 =  0
-
- outvars: echo of global parameters not present in the input file
-  max_nthreads =    0
-
 -outvars: echo values of preprocessed input variables --------
            acell      1.0000000000E+00  1.0000000000E+00  1.0000000000E+00 Bohr
              amu      4.49559100E+01  5.86900000E+01  2.08980370E+02
             ecut      4.90000000E+01 Hartree
-          fftalg         512
           irdden           1
           irdwfk           1
           istwfk        1    1
              ixc     -116133
              kpt      0.00000000E+00  0.00000000E+00  0.00000000E+00
                       5.00000000E-01  7.39557099E-32  5.00000000E-01
           kptopt           0
P           mkmem           2
P          mkqmem           2
P          mk1mem           2
            natom           3
            nband          31
           nbdbuf           4
            ngfft          54      54      54
             nkpt           2
            nstep         100
             nsym          24
           ntypat           3
              occ      2.000000  2.000000  2.000000  2.000000  2.000000  2.000000
                       2.000000  2.000000  2.000000  2.000000  2.000000  2.000000
                       2.000000  2.000000  2.000000  2.000000  2.000000  2.000000
                       2.000000  2.000000  2.000000  2.000000  0.000000  0.000000
                       0.000000  0.000000  0.000000  0.000000  0.000000  0.000000
                       0.000000
        optdriver           1
            prtwf          -1
            rfdir           1       1       1
           rfelfd           2
            rprim      7.1387382165E+00  0.0000000000E+00  4.1215524309E+00
                       2.3795794055E+00  6.7304669360E+00  4.1215524309E+00
                       0.0000000000E+00  0.0000000000E+00  8.2431048619E+00
          spgroup         216
           symrel      1  0  0   0  1  0   0  0  1       0 -1  1   0 -1  0   1 -1  0
                      -1  0  0  -1  0  1  -1  1  0       0  1 -1   1  0 -1   0  0 -1
                      -1  0  0  -1  1  0  -1  0  1       0 -1  1   1 -1  0   0 -1  0
                       1  0  0   0  0  1   0  1  0       0  1 -1   0  0 -1   1  0 -1
                      -1  0  1  -1  1  0  -1  0  0       0 -1  0   1 -1  0   0 -1  1
                       1  0 -1   0  0 -1   0  1 -1       0  1  0   0  0  1   1  0  0
                       1  0 -1   0  1 -1   0  0 -1       0 -1  0   0 -1  1   1 -1  0
                      -1  0  1  -1  0  0  -1  1  0       0  1  0   1  0  0   0  0  1
                       0  0 -1   0  1 -1   1  0 -1       1 -1  0   0 -1  1   0 -1  0
                       0  0  1   1  0  0   0  1  0      -1  1  0  -1  0  0  -1  0  1
                       0  0  1   0  1  0   1  0  0       1 -1  0   0 -1  0   0 -1  1
                       0  0 -1   1  0 -1   0  1 -1      -1  1  0  -1  0  1  -1  0  0
           tolwfr      1.00000000E-20
            typat      1  2  3
           useylm           1
              wtk        0.50000    0.50000
           xangst      2.5184383748E+00  1.7808048528E+00  4.3620632209E+00
                       3.7776575623E+00  2.6712072793E+00  6.5430948314E+00
                       0.0000000000E+00  0.0000000000E+00  0.0000000000E+00
            xcart      4.7591588110E+00  3.3652334680E+00  8.2431048619E+00
                       7.1387382165E+00  5.0478502020E+00  1.2364657293E+01
                       0.0000000000E+00  0.0000000000E+00  0.0000000000E+00
             xred      5.0000000000E-01  5.0000000000E-01  5.0000000000E-01
                       7.5000000000E-01  7.5000000000E-01  7.5000000000E-01
                       0.0000000000E+00  0.0000000000E+00  0.0000000000E+00
            znucl       21.00000   28.00000   83.00000

 chkinp: Checking input parameters for consistency.

== DATASET  1 ==================================================================
-   mpi_nproc: 1, omp_nthreads: -1 (-1 if OMP is not activated)

--- !DatasetInfo
iteration_state: {dtset: 1, }
dimensions: {natom: 3, nkpt: 2, mband: 31, nsppol: 1, nspinor: 1, nspden: 1, mpw: 6466, }
cutoff_energies: {ecut:  49.0, pawecutdg:  -1.0, }
electrons: {nelect:   4.40000000E+01, charge:   0.00000000E+00, occopt:   1.00000000E+00, tsmear:   1.00000000E-02, }
meta: {optdriver: 1, rfelfd: 2, }
...

 Real(R)+Recip(G) space primitive vectors, cartesian coordinates (Bohr,Bohr^-1):
 R(1)=  7.1387382  0.0000000  4.1215524  G(1)=  0.1400808 -0.0495260  0.0000000
 R(2)=  2.3795794  6.7304669  4.1215524  G(2)=  0.0000000  0.1485781  0.0000000
 R(3)=  0.0000000  0.0000000  8.2431049  G(3)= -0.0700404 -0.0495260  0.1213135
 Unit cell volume ucvol=  3.9605680E+02 bohr^3
 Angles (23,13,12)=  6.00000000E+01  6.00000000E+01  6.00000000E+01 degrees

 getcut: wavevector=  0.0000  0.0000  0.0000  ngfft=  54  54  54
         ecut(hartree)=     49.000   => boxcut(ratio)=   2.07964

--- Pseudopotential description ------------------------------------------------
- pspini: atom type   1  psp file is /scratch/users/j/a/jabreu/pseudos/PBEsol/Sc.psp8
- pspatm: opening atomic psp file    /scratch/users/j/a/jabreu/pseudos/PBEsol/Sc.psp8
- Sc    ONCVPSP-3.3.0  r_core=   1.35663   1.35663   1.66161
- 21.00000  11.00000    180112                znucl, zion, pspdat
    8 -116133    2    4       600   0.00000   pspcod,pspxc,lmax,lloc,mmax,r2well
    5.99000000000000    5.00000000000000    0.00000000000000   rchrg,fchrg,qchrg
     nproj     2     2     2
     extension_switch     1
  pspatm : epsatm=   13.58981094
         --- l  ekb(1:nproj) -->
             0   10.810997    0.948773
             1    2.871172    0.364831
             2   -4.789751   -1.321945
 pspatm: atomic psp has been read  and splines computed

- pspini: atom type   2  psp file is /scratch/users/j/a/jabreu/pseudos/PBEsol/Ni.psp8
- pspatm: opening atomic psp file    /scratch/users/j/a/jabreu/pseudos/PBEsol/Ni.psp8
- Ni    ONCVPSP-3.3.0  r_core=   1.26116   1.35474   1.65929
- 28.00000  18.00000    180112                znucl, zion, pspdat
    8 -116133    2    4       600   0.00000   pspcod,pspxc,lmax,lloc,mmax,r2well
    5.99000000000000    3.00000000000000    0.00000000000000   rchrg,fchrg,qchrg
     nproj     2     2     2
     extension_switch     1
  pspatm : epsatm=   19.57179442
         --- l  ekb(1:nproj) -->
             0    6.241516   -0.251675
             1   -2.865987   -0.396303
             2   -7.254374   -2.547636
 pspatm: atomic psp has been read  and splines computed

- pspini: atom type   3  psp file is /scratch/users/j/a/jabreu/pseudos/PBEsol/Bi.psp8
- pspatm: opening atomic psp file    /scratch/users/j/a/jabreu/pseudos/PBEsol/Bi.psp8
- Bi    ONCVPSP-3.3.0  r_core=   2.42776   2.51622   2.10397
- 83.00000  15.00000    180112                znucl, zion, pspdat
    8 -116133    2    4       600   0.00000   pspcod,pspxc,lmax,lloc,mmax,r2well
    5.99000000000000    6.00000000000000    0.00000000000000   rchrg,fchrg,qchrg
     nproj     2     2     2
     extension_switch     1
  pspatm : epsatm=   42.90078186
         --- l  ekb(1:nproj) -->
             0    6.017688    0.961606
             1    4.379371    0.528498
             2   -3.458170   -0.753782
 pspatm: atomic psp has been read  and splines computed

   3.34674504E+03                                ecore*ucvol(ha*bohr**3)

-inwffil : will read wavefunctions from disk file /scratch/users/j/a/jabreu/flow_simple/flow/w105/t1/indata/in_WFK

 ==>  initialize data related to q vector <==

 The list of irreducible perturbations for this q vector is:
    1)    idir= 1    ipert=   4
    2)    idir= 2    ipert=   4
    3)    idir= 3    ipert=   4

 Perturbation wavevector (in red.coord.)   0.000000  0.000000  0.000000
 Perturbation : derivative vs k along direction   1

 dfpt_looppert : COMMENT -
  In a d/dk calculation, iscf is set to -3 automatically.
 The set of symmetries contains only one element for this perturbation.
 symkpt : not enough symmetry to change the number of k points.

[...]

 Initialisation of the first-order wave-functions :
  ireadwf=   0

--- !BeginCycle
iteration_state: {dtset: 1, }
solver: {iscf: 7, nstep: 100, nline: 4, wfoptalg: 0, }
tolerances: {tolwfr: 1.00E-20, }
...

     iter   2DEtotal(Ha)        deltaE(Ha) residm    vres2
-ETOT  1  -66.264529597604     -6.626E+01 1.581E-01 0.000E+00
 ETOT  2  -66.354189530064     -8.966E-02 3.813E-03 0.000E+00
 ETOT  3  -66.355352892718     -1.163E-03 5.049E-04 0.000E+00
 ETOT  4  -66.355389287968     -3.640E-05 3.475E-05 0.000E+00
 ETOT  5  -66.355390631824     -1.344E-06 5.825E-06 0.000E+00
 ETOT  6  -66.355390685131     -5.331E-08 3.771E-07 0.000E+00
 ETOT  7  -66.355390687328     -2.197E-09 6.943E-08 0.000E+00
 ETOT  8  -66.355390687424     -9.545E-11 4.568E-09 0.000E+00
 ETOT  9  -66.355390687428     -4.349E-12 8.792E-10 0.000E+00
 ETOT 10  -66.355390687428     -1.705E-13 5.898E-11 0.000E+00
 ETOT 11  -66.355390687428     -1.421E-14 1.148E-11 0.000E+00
 ETOT 12  -66.355390687428     -2.842E-14 7.826E-13 0.000E+00
 ETOT 13  -66.355390687428      0.000E+00 1.523E-13 0.000E+00
 ETOT 14  -66.355390687428     -7.105E-14 1.053E-14 0.000E+00
 ETOT 15  -66.355390687428      4.263E-14 2.038E-15 0.000E+00
 ETOT 16  -66.355390687428      0.000E+00 1.428E-16 0.000E+00
 ETOT 17  -66.355390687428      0.000E+00 2.748E-17 0.000E+00
 ETOT 18  -66.355390687428      0.000E+00 1.948E-18 0.000E+00
 ETOT 19  -66.355390687428      1.421E-14 3.725E-19 0.000E+00
 ETOT 20  -66.355390687428     -1.421E-14 2.665E-20 0.000E+00
 ETOT 21  -66.355390687428      0.000E+00 9.723E-21 0.000E+00

 At SCF step   21   max residual=  9.72E-21 < tolwfr=  1.00E-20 =>converged.

 ----iterations are completed or convergence reached----

 dfpt_looppert: DFPT cycle converged with prtwf=-1. Will skip output of the 1st-order WFK file.
 dfpt_looppert : ek2=    7.6692345252E+01
          f-sum rule ratio=    1.2810344355E+00
 prteigrs : about to open file /scratch/users/j/a/jabreu/flow_simple/flow/w105/t1/tmpdata/tmp_1WF1_EIG
 Expectation of eigenvalue derivatives (hartree) for nkpt=   2  k points:
  (in case of degenerate eigenvalues, averaged derivative)
 kpt#   1, nband= 31, wtk=  0.50000, kpt=  0.0000  0.0000  0.0000 (reduced coord)
  -0.00000   -0.00000   -0.00000   -0.00000   -0.00000   -0.00000   -0.00000   -0.00000
  -0.00000   -0.00000    0.00000    0.00000    0.00000   -0.00000    0.00000    0.00000
   0.00000   -0.00000   -0.00000   -0.00000   -0.00000   -0.00000   -0.00000   -0.00000
  -0.00000   -0.00000   -0.00000   -0.00000    0.00000    0.00000    0.00000
 prteigrs : prtvol=0 or 1, do not print more k-points.

 Eight components of 2nd-order total energy (hartree) are
 1,2,3: 0th-order hamiltonian combined with 1st-order wavefunctions
     kin0=   6.17206987E+01 eigvalue=   2.84348036E+00  local=  -2.76879381E+01
 4,5,6: 1st-order hamiltonian combined with 1st and 0th-order wfs
     kin1=  -9.82455352E+01  Hartree=   0.00000000E+00     xc=   0.00000000E+00
 7,8,9: eventually, occupation + non-local contributions
    edocc=   2.52804842E+01     enl0=   4.19866562E+00   enl1=  -3.44652462E+01
 1-9 gives the relaxation energy (to be shifted if some occ is /=2.0)
   erelax=  -6.63553907E+01
  No Ewald or frozen-wf contrib.: the relaxation energy is the total one
 2DEtotal=   -0.6635539069E+02 Ha. Also 2DEtotal=   -0.180562200718E+04 eV
    (  non-var. 2DEtotal :   -6.6355390687E+01 Ha)

 Perturbation wavevector (in red.coord.)   0.000000  0.000000  0.000000
 Perturbation : derivative vs k along direction   2
 The set of symmetries contains only one element for this perturbation.
 symkpt : not enough symmetry to change the number of k points.

[...]

 Perturbation wavevector (in red.coord.)   0.000000  0.000000  0.000000
 Perturbation : derivative vs k along direction   3
 The set of symmetries contains only one element for this perturbation.
 symkpt : not enough symmetry to change the number of k points.

-inwffil : will read wavefunctions from disk file /scratch/users/j/a/jabreu/flow_simple/flow/w105/t1/indata/in_WFK

 Initialisation of the first-order wave-functions :
  ireadwf=   0

--- !BeginCycle
iteration_state: {dtset: 1, }
solver: {iscf: 7, nstep: 100, nline: 4, wfoptalg: 0, }
tolerances: {tolwfr: 1.00E-20, }
...

     iter   2DEtotal(Ha)        deltaE(Ha) residm    vres2
-ETOT  1  -66.263624433886     -6.626E+01 1.341E-01 0.000E+00
 ETOT  2  -66.354338953269     -9.071E-02 4.228E-03 0.000E+00
 ETOT  3  -66.355579573705     -1.241E-03 6.166E-04 0.000E+00
 ETOT  4  -66.355618865322     -3.929E-05 3.649E-05 0.000E+00
 ETOT  5  -66.355620325232     -1.460E-06 6.511E-06 0.000E+00
 ETOT  6  -66.355620383560     -5.833E-08 3.891E-07 0.000E+00
 ETOT  7  -66.355620385992     -2.432E-09 7.034E-08 0.000E+00
 ETOT  8  -66.355620386098     -1.065E-10 4.316E-09 0.000E+00
 ETOT  9  -66.355620386103     -4.718E-12 7.871E-10 0.000E+00
 ETOT 10  -66.355620386103     -3.126E-13 4.930E-11 0.000E+00
 ETOT 11  -66.355620386103      2.842E-14 9.058E-12 0.000E+00
 ETOT 12  -66.355620386103     -1.421E-14 5.731E-13 0.000E+00
 ETOT 13  -66.355620386103     -1.421E-14 1.062E-13 0.000E+00
 ETOT 14  -66.355620386103      5.684E-14 7.432E-15 0.000E+00
 ETOT 15  -66.355620386103     -5.684E-14 1.257E-15 0.000E+00
 ETOT 16  -66.355620386103      0.000E+00 9.956E-17 0.000E+00
 ETOT 17  -66.355620386103     -1.421E-14 1.643E-17 0.000E+00
 ETOT 18  -66.355620386103      2.842E-14 1.341E-18 0.000E+00
 ETOT 19  -66.355620386103     -1.421E-14 2.207E-19 0.000E+00
 ETOT 20  -66.355620386103      0.000E+00 1.814E-20 0.000E+00
 ETOT 21  -66.355620386103      0.000E+00 9.820E-21 0.000E+00

 At SCF step   21   max residual=  9.82E-21 < tolwfr=  1.00E-20 =>converged.

 ----iterations are completed or convergence reached----

 dfpt_looppert: DFPT cycle converged with prtwf=-1. Will skip output of the 1st-order WFK file.
 dfpt_looppert : ek2=    7.6692345252E+01
          f-sum rule ratio=    1.2810359688E+00
 prteigrs : about to open file /scratch/users/j/a/jabreu/flow_simple/flow/w105/t1/tmpdata/tmp_1WF1_EIG
 Expectation of eigenvalue derivatives (hartree) for nkpt=   2  k points:
  (in case of degenerate eigenvalues, averaged derivative)
 kpt#   1, nband= 31, wtk=  0.50000, kpt=  0.0000  0.0000  0.0000 (reduced coord)
  -0.00000    0.00000    0.00000    0.00000    0.00000    0.00000    0.00000    0.00000
  -0.00000   -0.00000    0.00000    0.00000    0.00000   -0.00000   -0.00000   -0.00000
  -0.00000    0.00000    0.00000    0.00000    0.00000    0.00000   -0.00000    0.00000
   0.00000    0.00000    0.00000    0.00000   -0.00000   -0.00001   -0.00001
 prteigrs : prtvol=0 or 1, do not print more k-points.

 Eight components of 2nd-order total energy (hartree) are
 1,2,3: 0th-order hamiltonian combined with 1st-order wavefunctions
     kin0=   6.18414277E+01 eigvalue=   2.86523558E+00  local=  -2.77799124E+01
 4,5,6: 1st-order hamiltonian combined with 1st and 0th-order wfs
     kin1=  -9.82456528E+01  Hartree=   0.00000000E+00     xc=   0.00000000E+00
 7,8,9: eventually, occupation + non-local contributions
    edocc=   2.52211705E+01     enl0=   4.20769906E+00   enl1=  -3.44655880E+01
 1-9 gives the relaxation energy (to be shifted if some occ is /=2.0)
   erelax=  -6.63556204E+01
  No Ewald or frozen-wf contrib.: the relaxation energy is the total one
 2DEtotal=   -0.6635562039E+02 Ha. Also 2DEtotal=   -0.180562825759E+04 eV
    (  non-var. 2DEtotal :   -6.6355620386E+01 Ha)

 CALCULATION OF EFFECTIVE MASSES
 NOTE : Additional infos (eff. mass eigenvalues, eigenvectors and, if degenerate, average mass) are available in stdout.

 COMMENTS:
 - At k-point ( 0.000, 0.000, 0.000), bands    20 through    22
   are DEGENERATE (effective mass tensor is therefore not defined).
   See Section IIIB Eqs. (67)-(70) and Appendix E of PRB 93 205147 (2016).
 - Angular average effective mass for Frohlich model is to be averaged over degenerate bands. See later.
 - Associated theta integrals calculated with ntheta=   1000 points.

 K-point ( 0.000, 0.000, 0.000) | band =    20
 Transport equivalent effective mass tensor:
             -0.1709909945              0.0000000007              0.0000000019
              0.0000000007             -0.1709909889              0.0000000007
              0.0000000019              0.0000000007             -0.1709909899
 Transport equivalent effective mass tensor eigenvalues:
             -0.1709909952             -0.1709909900             -0.1709909881
 Angular average effective mass 1/(<1/m>)=  -0.1450874417
 Angular average effective mass for Frohlich model (<m**0.5>)**2=  -0.1466034621
 Effective masses along directions: (cart. coord. / red. coord. -> eff. mass)
    1:   1.000000  0.000000  0.000000 /   0.948683  0.316228  0.000000 ->  -0.1349605828
    2:   0.000000  1.000000  0.000000 /   0.000000  1.000000  0.000000 ->  -0.1248034137
    3:   0.000000  0.000000  1.000000 /   0.408248  0.408248  0.816497 ->  -0.1389544512
    4:   0.577350  0.577350  0.577350 /   0.585539  0.688047  0.428644 ->  -0.1351541657
    5:   0.000000  0.707107  0.707107 /   0.289489  0.762222  0.578977 ->  -0.1542289581
    6:   0.707107  0.000000  0.707107 /   0.731423  0.422287  0.535439 ->  -0.1368531331
    7:   0.707107  0.707107  0.000000 /   0.616798  0.787122  0.000000 ->  -0.1904280204

[...]

 K-point ( 0.000, 0.000, 0.000) | band =    22
 Transport equivalent effective mass tensor:
             -9.7156925946              0.0000106474             -0.0000000470
              0.0000106474             -9.7156898962             -0.0000001439
             -0.0000000470             -0.0000001439             -9.7156765917
 Transport equivalent effective mass tensor eigenvalues:
             -9.7157019781             -9.7156805178             -9.7156765866
 Angular average effective mass 1/(<1/m>)=  -0.9582109658
 Angular average effective mass for Frohlich model (<m**0.5>)**2=  -1.1589068215
 Effective masses along directions: (cart. coord. / red. coord. -> eff. mass)
    1:   1.000000  0.000000  0.000000 /   0.948683  0.316228  0.000000 ->  -1.0598556890
    2:   0.000000  1.000000  0.000000 /   0.000000  1.000000  0.000000 ->  -0.8646834157
    3:   0.000000  0.000000  1.000000 /   0.408248  0.408248  0.816497 ->  -2.9369059377
    4:   0.577350  0.577350  0.577350 /   0.585539  0.688047  0.428644 ->  -1.2655841601
    5:   0.000000  0.707107  0.707107 /   0.289489  0.762222  0.578977 ->  -0.8897451258
    6:   0.707107  0.000000  0.707107 /   0.731423  0.422287  0.535439 ->  -1.7292199955
    7:   0.707107  0.707107  0.000000 /   0.616798  0.787122  0.000000 ->  -0.4244895228

 Angular average effective mass for Frohlich model, averaged over degenerate bands.
 Value of     (<<m**0.5>>)**2 =     4.967771E-01
 Absolute Value of <<m**0.5>> =     7.048242E-01

 K-point ( 0.500, 0.000, 0.500) | band =    23
 Effective mass tensor:
              2.2152146797             -2.3733725928              2.9067005802
             -2.3733725928              3.8935409705             -4.1107748025
              2.9067005802             -4.1107748025              5.5715464749
 Effective mass tensor eigenvalues:
              0.5370195961              0.5370233500             10.6062591790
 Angular average effective mass 1/(<1/m>)=   0.7856426810
 Angular average effective mass for Frohlich model (<m**0.5>)**2=   1.0215272319
 Effective masses along directions: (cart. coord. / red. coord. -> eff. mass)
    1:   1.000000  0.000000  0.000000 /   0.948683  0.316228  0.000000 ->   0.6379628987
    2:   0.000000  1.000000  0.000000 /   0.000000  1.000000  0.000000 ->   0.7856547947
    3:   0.000000  0.000000  1.000000 /   0.408248  0.408248  0.816497 ->   1.0222681748
    4:   0.577350  0.577350  0.577350 /   0.585539  0.688047  0.428644 ->   0.5911672132
    5:   0.000000  0.707107  0.707107 /   0.289489  0.762222  0.578977 ->   0.5413484550
    6:   0.707107  0.000000  0.707107 /   0.731423  0.422287  0.535439 ->   1.3114244992
    7:   0.707107  0.707107  0.000000 /   0.616798  0.787122  0.000000 ->   0.5444104358

 END OF EFFECTIVE MASSES SECTION

 ---- first-order wavefunction calculations are completed ----

 Total localisation tensor (bohr^2) in cartesian coordinates
  WARNING : still subject to testing - especially symmetries.
      direction              matrix element
   alpha     beta       real part   imaginary part
     1        1       4.0774216523    0.0000000000
     1        2       1.1532640486    0.0000000000
     1        3       2.8249185648    0.0000000000
     2        1       1.1532640486    0.0000000000
     2        2       3.2619233172    0.0000000000
     2        3       1.9975119268    0.0000000000
     3        1       2.8249185648    0.0000000000
     3        2       1.9975119268    0.0000000000
     3        3       7.3393619961    0.0000000000

 respfn : d/dk was computed, but no 2DTE, so no DDB output.

== END DATASET(S) ==============================================================

 -outvars: echo values of variables after computation  --------
            acell      1.0000000000E+00  1.0000000000E+00  1.0000000000E+00 Bohr
              amu      4.49559100E+01  5.86900000E+01  2.08980370E+02
             ecut      4.90000000E+01 Hartree
           etotal     -6.6355620386E+01
            fcart      0.0000000000E+00  0.0000000000E+00  0.0000000000E+00
                       0.0000000000E+00  0.0000000000E+00  0.0000000000E+00
                       0.0000000000E+00  0.0000000000E+00  0.0000000000E+00
-          fftalg         512
           irdden           1
           irdwfk           1
           istwfk        1    1
              ixc     -116133
              kpt      0.00000000E+00  0.00000000E+00  0.00000000E+00
                       5.00000000E-01  7.39557099E-32  5.00000000E-01
           kptopt           0
P           mkmem           2
P          mkqmem           2
P          mk1mem           2
            natom           3
            nband          31
           nbdbuf           4
            ngfft          54      54      54
             nkpt           2
            nstep         100
             nsym          24
           ntypat           3
              occ      2.000000  2.000000  2.000000  2.000000  2.000000  2.000000
                       2.000000  2.000000  2.000000  2.000000  2.000000  2.000000
                       2.000000  2.000000  2.000000  2.000000  2.000000  2.000000
                       2.000000  2.000000  2.000000  2.000000  0.000000  0.000000
                       0.000000  0.000000  0.000000  0.000000  0.000000  0.000000
                       0.000000
        optdriver           1
            prtwf          -1
            rfdir           1       1       1
           rfelfd           2
            rprim      7.1387382165E+00  0.0000000000E+00  4.1215524309E+00
                       2.3795794055E+00  6.7304669360E+00  4.1215524309E+00
                       0.0000000000E+00  0.0000000000E+00  8.2431048619E+00
          spgroup         216
           strten      0.0000000000E+00  0.0000000000E+00  0.0000000000E+00
                       0.0000000000E+00  0.0000000000E+00  0.0000000000E+00
           symrel      1  0  0   0  1  0   0  0  1       0 -1  1   0 -1  0   1 -1  0
                      -1  0  0  -1  0  1  -1  1  0       0  1 -1   1  0 -1   0  0 -1
                      -1  0  0  -1  1  0  -1  0  1       0 -1  1   1 -1  0   0 -1  0
                       1  0  0   0  0  1   0  1  0       0  1 -1   0  0 -1   1  0 -1
                      -1  0  1  -1  1  0  -1  0  0       0 -1  0   1 -1  0   0 -1  1
                       1  0 -1   0  0 -1   0  1 -1       0  1  0   0  0  1   1  0  0
                       1  0 -1   0  1 -1   0  0 -1       0 -1  0   0 -1  1   1 -1  0
                      -1  0  1  -1  0  0  -1  1  0       0  1  0   1  0  0   0  0  1
                       0  0 -1   0  1 -1   1  0 -1       1 -1  0   0 -1  1   0 -1  0
                       0  0  1   1  0  0   0  1  0      -1  1  0  -1  0  0  -1  0  1
                       0  0  1   0  1  0   1  0  0       1 -1  0   0 -1  0   0 -1  1
                       0  0 -1   1  0 -1   0  1 -1      -1  1  0  -1  0  1  -1  0  0
           tolwfr      1.00000000E-20
            typat      1  2  3
           useylm           1
              wtk        0.50000    0.50000
           xangst      2.5184383748E+00  1.7808048528E+00  4.3620632209E+00
                       3.7776575623E+00  2.6712072793E+00  6.5430948314E+00
                       0.0000000000E+00  0.0000000000E+00  0.0000000000E+00
            xcart      4.7591588110E+00  3.3652334680E+00  8.2431048619E+00
                       7.1387382165E+00  5.0478502020E+00  1.2364657293E+01
                       0.0000000000E+00  0.0000000000E+00  0.0000000000E+00
             xred      5.0000000000E-01  5.0000000000E-01  5.0000000000E-01
                       7.5000000000E-01  7.5000000000E-01  7.5000000000E-01
                       0.0000000000E+00  0.0000000000E+00  0.0000000000E+00
            znucl       21.00000   28.00000   83.00000

- Timing analysis has been suppressed with timopt=0

 Suggested references for the acknowledgment of ABINIT usage.

 Calculation completed.
.Delivered  14 WARNINGs and   9 COMMENTs to log file.