.Version 9.7.2 of ABINIT

 ABINIT is a project of the Universite Catholique de Louvain,
 Corning Inc. and other collaborators, see ~abinit/doc/developers/contributors.txt .
 acknowledgments of the ABINIT effort.

.Starting date : Wed  1 Dec 2021.
- ( at 22h11 )

- input  file    -> /scratch/users/j/a/jabreu/flow_simple_remain_atoms/flow/w291/t1/run.abi
- output file    -> /scratch/users/j/a/jabreu/flow_simple_remain_atoms/flow/w291/t1/run.abo
- root for input  files -> /scratch/users/j/a/jabreu/flow_simple_remain_atoms/flow/w291/t1/indata/in
- root for output files -> /scratch/users/j/a/jabreu/flow_simple_remain_atoms/flow/w291/t1/outdata/out

 Symmetries : space group I4_1/a m d (#141); Bravais tI (body-center tetrag.)
     intxc =       0      iscf =       7    lmnmax =      18     lnmax =       6
     mgfft =      72  mpssoang =       3    mqgrid =    3001     natom =       8
  nloc_mem =       1    nspden =       1   nspinor =       1    nsppol =       1
      nsym =      16    n1xccc =    2501    ntypat =       3    occopt =       1
   xclevel =       2
-    mband =          39        mffmem =           1         mkmem =           2
-   mkqmem =           2        mk1mem =           2           mpw =       12222
      nfft =      373248          nkpt =           2
  Rough estimation (10% accuracy) of disk space for files :

------------- Echo of variables that govern the present computation ------------
-
- outvars: echo of selected default values
-   iomode0 =  0 , fftalg0 =512 , wfoptalg0 =  0
-
- outvars: echo of global parameters not present in the input file
-  max_nthreads =    0
-
 -outvars: echo values of preprocessed input variables --------
            acell      1.0000000000E+00  1.0000000000E+00  1.0000000000E+00 Bohr
              amu      6.94100000E+00  2.08980370E+02  3.20660000E+01
             ecut      3.70000000E+01 Hartree
-          fftalg         512
           irdden           1
           irdwfk           1
              ixc     -116133
              kpt      0.00000000E+00  0.00000000E+00  4.40000000E-01
                      -3.57323598E-02  3.57323598E-02  5.00000000E-01
           kptopt           0
P           mkmem           2
P          mkqmem           2
P          mk1mem           2
            natom           8
            nband          39
           nbdbuf           4
            ngfft          72      72      72
             nkpt           2
            nstep        2000
             nsym          16
           ntypat           3
              occ      2.000000  2.000000  2.000000  2.000000  2.000000  2.000000
                       2.000000  2.000000  2.000000  2.000000  2.000000  2.000000
                       2.000000  2.000000  2.000000  2.000000  2.000000  2.000000
                       2.000000  2.000000  2.000000  2.000000  2.000000  2.000000
                       2.000000  2.000000  2.000000  2.000000  2.000000  2.000000
                       0.000000  0.000000  0.000000  0.000000  0.000000  0.000000
                       0.000000  0.000000  0.000000
        optdriver           1
            prtwf          -1
            rfdir           1       1       1
           rfelfd           2
            rprim      9.5240942770E+00  0.0000000000E+00 -8.5160232142E+00
                      -1.9055899663E+00  9.3315110608E+00 -8.5160232142E+00
                       0.0000000000E+00  0.0000000000E+00  1.2776189697E+01
          spgroup         141
           symrel      1  0  0   0  1  0   0  0  1      -1  0  0   0 -1  0   0  0 -1
                      -1 -1 -1   0  0  1   0  1  0       1  1  1   0  0 -1   0 -1  0
                       0  1  0   1  0  0  -1 -1 -1       0 -1  0  -1  0  0   1  1  1
                       0  0  1  -1 -1 -1   1  0  0       0  0 -1   1  1  1  -1  0  0
                       0  1  0   1  0  0   0  0  1       0 -1  0  -1  0  0   0  0 -1
                      -1 -1 -1   0  0  1   1  0  0       1  1  1   0  0 -1  -1  0  0
                       1  0  0   0  1  0  -1 -1 -1      -1  0  0   0 -1  0   1  1  1
                       0  0  1  -1 -1 -1   0  1  0       0  0 -1   1  1  1   0 -1  0
            tnons      0.0000000  0.0000000  0.0000000    -0.2500000  0.2500000  0.5000000
                      -0.2500000  0.2500000  0.5000000     0.0000000 -0.0000000 -0.0000000
                      -0.0000000 -0.0000000 -0.0000000    -0.2500000  0.2500000  0.5000000
                      -0.2500000  0.2500000  0.5000000    -0.0000000  0.0000000 -0.0000000
                      -0.2500000  0.2500000  0.5000000     0.0000000  0.0000000 -0.0000000
                       0.0000000  0.0000000 -0.0000000    -0.2500000  0.2500000  0.5000000
                      -0.2500000  0.2500000  0.5000000     0.0000000  0.0000000  0.0000000
                       0.0000000  0.0000000 -0.0000000    -0.2500000  0.2500000  0.5000000
           tolwfr      1.00000000E-20
            typat      1  1  2  2  3  3  3  3
           useylm           1
              wtk        0.50000    0.50000
           xangst      3.5278515231E+00  1.2345057438E+00 -1.1260511926E+00
                       0.0000000000E+00  0.0000000000E+00  0.0000000000E+00
                       2.0157694224E+00  2.4690114875E+00 -4.5064853928E+00
                       5.0368732165E-01  3.7035172313E+00 -1.1260511926E+00
                       9.9505635459E-01  1.2187929547E+00 -2.2245634233E+00
                       2.5327951685E+00  1.5712789107E-02  1.0985122308E+00
                       3.0364824902E+00  3.7192300204E+00 -6.7884073622E+00
                       4.5229078777E+00  2.4532986984E+00 -3.3506146159E+00
            xcart      6.6666732162E+00  2.3328777652E+00 -2.1279283656E+00
                       0.0000000000E+00  0.0000000000E+00  0.0000000000E+00
                       3.8092521553E+00  4.6657555304E+00 -8.5160232142E+00
                       9.5183109452E-01  6.9986332956E+00 -2.1279283656E+00
                       1.8803839970E+00  2.3031848970E+00 -4.2038156354E+00
                       4.7862892192E+00  2.9692868195E-02  2.0758872698E+00
                       5.7381203137E+00  7.0283261638E+00 -1.2828230793E+01
                       8.5470572131E+00  4.6360626622E+00 -6.3317440009E+00
             xred      7.5000000000E-01  2.5000000000E-01  5.0000000000E-01
                       0.0000000000E+00  0.0000000000E+00  0.0000000000E+00
                       5.0000000000E-01  5.0000000000E-01  0.0000000000E+00
                       2.5000000000E-01  7.5000000000E-01  5.0000000000E-01
                       2.4681800000E-01  2.4681800000E-01 -2.7755575616E-17
                       5.0318200000E-01  3.1820000000E-03  5.0000000000E-01
                       7.5318200000E-01  7.5318200000E-01  0.0000000000E+00
                       9.9681800000E-01  4.9681800000E-01  5.0000000000E-01
            znucl        3.00000   83.00000   16.00000

 chkinp: Checking input parameters for consistency.

== DATASET  1 ==================================================================
-   mpi_nproc: 1, omp_nthreads: -1 (-1 if OMP is not activated)

--- !DatasetInfo
iteration_state: {dtset: 1, }
dimensions: {natom: 8, nkpt: 2, mband: 39, nsppol: 1, nspinor: 1, nspden: 1, mpw: 12222, }
cutoff_energies: {ecut:  37.0, pawecutdg:  -1.0, }
electrons: {nelect:   6.00000000E+01, charge:   0.00000000E+00, occopt:   1.00000000E+00, tsmear:   1.00000000E-02, }
meta: {optdriver: 1, rfelfd: 2, }
...

 Real(R)+Recip(G) space primitive vectors, cartesian coordinates (Bohr,Bohr^-1):
 R(1)=  9.5240943  0.0000000 -8.5160232  G(1)=  0.1049969  0.0214414  0.0000000
 R(2)= -1.9055900  9.3315111 -8.5160232  G(2)=  0.0000000  0.1071638  0.0000000
 R(3)=  0.0000000  0.0000000 12.7761897  G(3)=  0.0699861  0.0857223  0.0782706
 Unit cell volume ucvol=  1.1354735E+03 bohr^3
 Angles (23,13,12)=  1.31801672E+02  1.31801672E+02  7.05424453E+01 degrees

 getcut: wavevector=  0.0000  0.0000  0.0000  ngfft=  72  72  72
         ecut(hartree)=     37.000   => boxcut(ratio)=   2.05809

--- Pseudopotential description ------------------------------------------------
- pspini: atom type   1  psp file is /scratch/users/j/a/jabreu/pseudos/PBEsol/Li.psp8
- pspatm: opening atomic psp file    /scratch/users/j/a/jabreu/pseudos/PBEsol/Li.psp8
- Li    ONCVPSP-3.3.0  r_core=   1.40824   1.10935
-  3.00000   3.00000    180112                znucl, zion, pspdat
    8 -116133    1    4       400   0.00000   pspcod,pspxc,lmax,lloc,mmax,r2well
    3.99000000000000    0.00000000000000    0.00000000000000   rchrg,fchrg,qchrg
     nproj     2     2
     extension_switch     1
  pspatm : epsatm=    2.60859637
         --- l  ekb(1:nproj) -->
             0   -4.855856   -1.482423
             1   -2.171544   -0.427615
 pspatm: atomic psp has been read  and splines computed

- pspini: atom type   2  psp file is /scratch/users/j/a/jabreu/pseudos/PBEsol/Bi.psp8
- pspatm: opening atomic psp file    /scratch/users/j/a/jabreu/pseudos/PBEsol/Bi.psp8
- Bi    ONCVPSP-3.3.0  r_core=   2.42776   2.51622   2.10397
- 83.00000  15.00000    180112                znucl, zion, pspdat
    8 -116133    2    4       600   0.00000   pspcod,pspxc,lmax,lloc,mmax,r2well
    5.99000000000000    6.00000000000000    0.00000000000000   rchrg,fchrg,qchrg
     nproj     2     2     2
     extension_switch     1
  pspatm : epsatm=   42.90078186
         --- l  ekb(1:nproj) -->
             0    6.017688    0.961606
             1    4.379371    0.528498
             2   -3.458170   -0.753782
 pspatm: atomic psp has been read  and splines computed

- pspini: atom type   3  psp file is /scratch/users/j/a/jabreu/pseudos/PBEsol/S.psp8
- pspatm: opening atomic psp file    /scratch/users/j/a/jabreu/pseudos/PBEsol/S.psp8
- S     ONCVPSP-3.3.0  r_core=   1.45376   1.45376   1.61851
- 16.00000   6.00000    180112                znucl, zion, pspdat
    8 -116133    2    4       600   0.00000   pspcod,pspxc,lmax,lloc,mmax,r2well
    5.99000000000000    6.00000000000000    0.00000000000000   rchrg,fchrg,qchrg
     nproj     2     2     2
     extension_switch     1
  pspatm : epsatm=    8.71840985
         --- l  ekb(1:nproj) -->
             0    6.834532    0.579453
             1    3.282851    0.896984
             2   -3.496974   -0.974265
 pspatm: atomic psp has been read  and splines computed

   7.55354375E+03                                ecore*ucvol(ha*bohr**3)

 ==>  initialize data related to q vector <==

 The list of irreducible perturbations for this q vector is:
    1)    idir= 1    ipert=   9
    2)    idir= 2    ipert=   9
    3)    idir= 3    ipert=   9

 Perturbation wavevector (in red.coord.)   0.000000  0.000000  0.000000
 Perturbation : derivative vs k along direction   1

 dfpt_looppert : COMMENT -
  In a d/dk calculation, iscf is set to -3 automatically.
 The set of symmetries contains only one element for this perturbation.
 symkpt : not enough symmetry to change the number of k points.

 Initialisation of the first-order wave-functions :
  ireadwf=   0

--- !BeginCycle
iteration_state: {dtset: 1, }
solver: {iscf: 7, nstep: 2000, nline: 4, wfoptalg: 0, }
tolerances: {tolwfr: 1.00E-20, }
...

[...]
  -0.16069   -0.22363   -0.01336   -0.03363    0.02793    0.00594   -0.03371
 prteigrs : prtvol=0 or 1, do not print more k-points.

 Eight components of 2nd-order total energy (hartree) are
 1,2,3: 0th-order hamiltonian combined with 1st-order wavefunctions
     kin0=   4.60926949E+01 eigvalue=   5.41565169E+00  local=  -2.43157355E+01
 4,5,6: 1st-order hamiltonian combined with 1st and 0th-order wfs
     kin1=  -8.41605135E+01  Hartree=   0.00000000E+00     xc=   0.00000000E+00
 7,8,9: eventually, occupation + non-local contributions
    edocc=   2.73239524E+01     enl0=   5.83068760E+00   enl1=  -3.65339889E+01
 1-9 gives the relaxation energy (to be shifted if some occ is /=2.0)
   erelax=  -6.03472512E+01
  No Ewald or frozen-wf contrib.: the relaxation energy is the total one
 2DEtotal=   -0.6034725117E+02 Ha. Also 2DEtotal=   -0.164213221644E+04 eV
    (  non-var. 2DEtotal :   -6.0347251169E+01 Ha)

 Perturbation wavevector (in red.coord.)   0.000000  0.000000  0.000000
 Perturbation : derivative vs k along direction   2
 The set of symmetries contains only one element for this perturbation.
 symkpt : not enough symmetry to change the number of k points.

[...]

 Perturbation wavevector (in red.coord.)   0.000000  0.000000  0.000000
 Perturbation : derivative vs k along direction   3
 The set of symmetries contains only one element for this perturbation.
 symkpt : not enough symmetry to change the number of k points.

 Initialisation of the first-order wave-functions :
  ireadwf=   0

--- !BeginCycle
iteration_state: {dtset: 1, }
solver: {iscf: 7, nstep: 2000, nline: 4, wfoptalg: 0, }
tolerances: {tolwfr: 1.00E-20, }
...

     iter   2DEtotal(Ha)        deltaE(Ha) residm    vres2
-ETOT  1  -102.04033422745     -1.020E+02 2.712E-02 0.000E+00
 ETOT  2  -102.09569917833     -5.536E-02 2.788E-04 0.000E+00
 ETOT  3  -102.09589292240     -1.937E-04 1.890E-06 0.000E+00
 ETOT  4  -102.09589434627     -1.424E-06 4.359E-08 0.000E+00
 ETOT  5  -102.09589435860     -1.233E-08 5.610E-10 0.000E+00
 ETOT  6  -102.09589435872     -1.178E-10 2.669E-11 0.000E+00
 ETOT  7  -102.09589435872     -1.009E-12 3.767E-13 0.000E+00
 ETOT  8  -102.09589435872      1.421E-14 2.036E-14 0.000E+00
 ETOT  9  -102.09589435872      0.000E+00 2.936E-16 0.000E+00
 ETOT 10  -102.09589435872      0.000E+00 1.662E-17 0.000E+00
 ETOT 11  -102.09589435872     -4.263E-14 2.389E-19 0.000E+00
 ETOT 12  -102.09589435872     -1.421E-14 1.381E-20 0.000E+00
 ETOT 13  -102.09589435872      8.527E-14 9.994E-21 0.000E+00

 At SCF step   13   max residual=  9.99E-21 < tolwfr=  1.00E-20 =>converged.

 ----iterations are completed or convergence reached----

 dfpt_looppert: DFPT cycle converged with prtwf=-1. Will skip output of the 1st-order WFK file.
 dfpt_looppert : ek2=    8.7038833145E+01
          f-sum rule ratio=    1.6646747502E+00
 prteigrs : about to open file /scratch/users/j/a/jabreu/flow_simple_remain_atoms/flow/w291/t1/tmpdata/tmp_1WF1_EIG
 Expectation of eigenvalue derivatives (hartree) for nkpt=   2  k points:
  (in case of degenerate eigenvalues, averaged derivative)
 kpt#   1, nband= 39, wtk=  0.50000, kpt=  0.0000  0.0000  0.4400 (reduced coord)
   0.00004   -0.00004    0.00089   -0.00032    0.00224   -0.00222    0.00088   -0.00097
   0.00179    0.00184   -0.00145   -0.00158    0.20190   -0.22194   -0.01964   -0.01967
   0.14377   -0.19789    0.21075   -0.01051   -0.06625   -0.22853    0.31238    0.18629
   0.24620    0.11498   -0.00996    0.10194    0.20505    0.04493   -0.25559   -0.19495
  -0.32137   -0.44727   -0.02672   -0.06727    0.05589    0.01141   -0.06770
 prteigrs : prtvol=0 or 1, do not print more k-points.

 Eight components of 2nd-order total energy (hartree) are
 1,2,3: 0th-order hamiltonian combined with 1st-order wavefunctions
     kin0=   7.67941251E+01 eigvalue=   8.12375274E+00  local=  -4.04795839E+01
 4,5,6: 1st-order hamiltonian combined with 1st and 0th-order wfs
     kin1=  -1.44891348E+02  Hartree=   0.00000000E+00     xc=   0.00000000E+00
 7,8,9: eventually, occupation + non-local contributions
    edocc=   4.80843767E+01     enl0=   9.57322376E+00   enl1=  -5.93004409E+01
 1-9 gives the relaxation energy (to be shifted if some occ is /=2.0)
   erelax=  -1.02095894E+02
  No Ewald or frozen-wf contrib.: the relaxation energy is the total one
 2DEtotal=   -0.1020958944E+03 Ha. Also 2DEtotal=   -0.277817057193E+04 eV
    (  non-var. 2DEtotal :   -1.0209589436E+02 Ha)

 CALCULATION OF EFFECTIVE MASSES
 NOTE : Additional infos (eff. mass eigenvalues, eigenvectors and, if degenerate, average mass) are available in stdout.

--- !WARNING
src_file: m_efmas.F90
src_line: 0
message: |
    Effective masses calculations require given k-point(s) to be band extrema for given bands, but max abs gradient of band(s) was found to be greater than 1e-5. Abinit will continue anyway.
...

[...]

--- !WARNING
src_file: m_efmas.F90
src_line: 0
message: |
    Effective masses calculations require given k-point(s) to be band extrema for given bands, but max abs gradient of band(s) was found to be greater than 1e-5. Abinit will continue anyway.
...

 K-point ( 0.000, 0.000, 0.440) | band =    30
 Effective mass tensor:
             -0.1643845983             -0.0759504986              0.1542799154
             -0.0759504986             -0.1954387503              0.1890091994
              0.1542799154              0.1890091994             -0.4298215389
 Effective mass tensor eigenvalues:
             -0.6023862994             -0.1023902688             -0.0848683193
 Angular average effective mass 1/(<1/m>)=  -0.1292569856
 Angular average effective mass for Frohlich model (<m**0.5>)**2=  -0.1498827955
 Effective masses along directions: (cart. coord. / red. coord. -> eff. mass)
    1:   1.000000  0.000000  0.000000 /   0.980565 -0.196192  0.000000 ->  -0.1084222319
    2:   0.000000  1.000000  0.000000 /   0.000000  1.000000  0.000000 ->  -0.1117210545
    3:   0.000000  0.000000  1.000000 /  -0.485028 -0.485028  0.727665 ->  -0.1985895240
    4:   0.577350  0.577350  0.577350 /   0.078375 -0.084753  0.993315 ->  -0.0849668020
    5:   0.000000  0.707107  0.707107 /  -0.553855  0.053037  0.830922 ->  -0.0935429982
    6:   0.707107  0.000000  0.707107 /   0.061027 -0.630910  0.773452 ->  -0.0985495806
    7:   0.707107  0.707107  0.000000 /   0.788618  0.614884  0.000000 ->  -0.1187465839

 COMMENTS:
 - At k-point (-0.036, 0.036, 0.500), bands    31 through    32
   are DEGENERATE (effective mass tensor is therefore not defined).
   See Section IIIB Eqs. (67)-(70) and Appendix E of PRB 93 205147 (2016).
 - Angular average effective mass for Frohlich model is to be averaged over degenerate bands. See later.
 - Associated theta integrals calculated with ntheta=   1000 points.

 K-point (-0.036, 0.036, 0.500) | band =    31
 Transport equivalent effective mass tensor:
              1.5328350537              0.8218609006             -1.7068198616
              0.8218609006              1.8688920805             -2.0908909466
             -1.7068198616             -2.0908909466              4.4468282943
 Transport equivalent effective mass tensor eigenvalues:
              6.3558489529              0.8620019049              0.6307045708
 Angular average effective mass 1/(<1/m>)=   0.3164870778
 Angular average effective mass for Frohlich model (<m**0.5>)**2=   0.4294181554
 Effective masses along directions: (cart. coord. / red. coord. -> eff. mass)
    1:   1.000000  0.000000  0.000000 /   0.980565 -0.196192  0.000000 ->   0.6603591815
    2:   0.000000  1.000000  0.000000 /   0.000000  1.000000  0.000000 ->   0.6571910999
    3:   0.000000  0.000000  1.000000 /  -0.485028 -0.485028  0.727665 ->   0.2427324278
    4:   0.577350  0.577350  0.577350 /   0.078375 -0.084753  0.993315 ->   0.1060094961
    5:   0.000000  0.707107  0.707107 /  -0.553855  0.053037  0.830922 ->   0.2677967878
    6:   0.707107  0.000000  0.707107 /   0.061027 -0.630910  0.773452 ->   0.4043622301
    7:   0.707107  0.707107  0.000000 /   0.788618  0.614884  0.000000 ->   0.1615777328

 K-point (-0.036, 0.036, 0.500) | band =    32
 Transport equivalent effective mass tensor:
              0.2813780321              0.2228884039             -0.4253158867
              0.2228884039              0.3722481056             -0.5208103328
             -0.4253158867             -0.5208103328              1.0293972710
 Transport equivalent effective mass tensor eigenvalues:
              1.5049820976              0.0993409245              0.0787003866
 Angular average effective mass 1/(<1/m>)=   0.1063019665
 Angular average effective mass for Frohlich model (<m**0.5>)**2=   0.1376785533
 Effective masses along directions: (cart. coord. / red. coord. -> eff. mass)
    1:   1.000000  0.000000  0.000000 /   0.980565 -0.196192  0.000000 ->   0.0757066951
    2:   0.000000  1.000000  0.000000 /   0.000000  1.000000  0.000000 ->   0.0756651450
    3:   0.000000  0.000000  1.000000 /  -0.485028 -0.485028  0.727665 ->   0.2427280280
    4:   0.577350  0.577350  0.577350 /   0.078375 -0.084753  0.993315 ->   0.0845827223
    5:   0.000000  0.707107  0.707107 /  -0.553855  0.053037  0.830922 ->   0.0670677334
    6:   0.707107  0.000000  0.707107 /   0.061027 -0.630910  0.773452 ->   0.0673377076
    7:   0.707107  0.707107  0.000000 /   0.788618  0.614884  0.000000 ->   0.1165898897

 Angular average effective mass for Frohlich model, averaged over degenerate bands.
 Value of     (<<m**0.5>>)**2 =     2.633489E-01
 Absolute Value of <<m**0.5>> =     5.131753E-01

 END OF EFFECTIVE MASSES SECTION

 ---- first-order wavefunction calculations are completed ----

 Total localisation tensor (bohr^2) in cartesian coordinates
  WARNING : still subject to testing - especially symmetries.
      direction              matrix element
   alpha     beta       real part   imaginary part
     1        1       8.1929115163    0.0000000000
     1        2      -1.5442226233    0.0000000000
     1        3      -5.6344982554    0.0000000000
     2        1      -1.5442226233    0.0000000000
     2        2       7.5619260933    0.0000000000
     2        3      -6.9010836225    0.0000000000
     3        1      -5.6344982554    0.0000000000
     3        2      -6.9010836225    0.0000000000
     3        3      39.0851317089    0.0000000000

 respfn : d/dk was computed, but no 2DTE, so no DDB output.

== END DATASET(S) ==============================================================

 -outvars: echo values of variables after computation  --------
            acell      1.0000000000E+00  1.0000000000E+00  1.0000000000E+00 Bohr
              amu      6.94100000E+00  2.08980370E+02  3.20660000E+01
             ecut      3.70000000E+01 Hartree
           etotal     -1.0209589436E+02
            fcart      0.0000000000E+00  0.0000000000E+00  0.0000000000E+00
                       0.0000000000E+00  0.0000000000E+00  0.0000000000E+00
                       0.0000000000E+00  0.0000000000E+00  0.0000000000E+00
                       0.0000000000E+00  0.0000000000E+00  0.0000000000E+00
                       0.0000000000E+00  0.0000000000E+00  0.0000000000E+00
                       0.0000000000E+00  0.0000000000E+00  0.0000000000E+00
                       0.0000000000E+00  0.0000000000E+00  0.0000000000E+00
                       0.0000000000E+00  0.0000000000E+00  0.0000000000E+00
-          fftalg         512
           irdden           1
           irdwfk           1
              ixc     -116133
              kpt      0.00000000E+00  0.00000000E+00  4.40000000E-01
                      -3.57323598E-02  3.57323598E-02  5.00000000E-01
           kptopt           0
P           mkmem           2
P          mkqmem           2
P          mk1mem           2
            natom           8
            nband          39
           nbdbuf           4
            ngfft          72      72      72
             nkpt           2
            nstep        2000
             nsym          16
           ntypat           3
              occ      2.000000  2.000000  2.000000  2.000000  2.000000  2.000000
                       2.000000  2.000000  2.000000  2.000000  2.000000  2.000000
                       2.000000  2.000000  2.000000  2.000000  2.000000  2.000000
                       2.000000  2.000000  2.000000  2.000000  2.000000  2.000000
                       2.000000  2.000000  2.000000  2.000000  2.000000  2.000000
                       0.000000  0.000000  0.000000  0.000000  0.000000  0.000000
                       0.000000  0.000000  0.000000
        optdriver           1
            prtwf          -1
            rfdir           1       1       1
           rfelfd           2
            rprim      9.5240942770E+00  0.0000000000E+00 -8.5160232142E+00
                      -1.9055899663E+00  9.3315110608E+00 -8.5160232142E+00
                       0.0000000000E+00  0.0000000000E+00  1.2776189697E+01
          spgroup         141
           strten      0.0000000000E+00  0.0000000000E+00  0.0000000000E+00
                       0.0000000000E+00  0.0000000000E+00  0.0000000000E+00
           symrel      1  0  0   0  1  0   0  0  1      -1  0  0   0 -1  0   0  0 -1
                      -1 -1 -1   0  0  1   0  1  0       1  1  1   0  0 -1   0 -1  0
                       0  1  0   1  0  0  -1 -1 -1       0 -1  0  -1  0  0   1  1  1
                       0  0  1  -1 -1 -1   1  0  0       0  0 -1   1  1  1  -1  0  0
                       0  1  0   1  0  0   0  0  1       0 -1  0  -1  0  0   0  0 -1
                      -1 -1 -1   0  0  1   1  0  0       1  1  1   0  0 -1  -1  0  0
                       1  0  0   0  1  0  -1 -1 -1      -1  0  0   0 -1  0   1  1  1
                       0  0  1  -1 -1 -1   0  1  0       0  0 -1   1  1  1   0 -1  0
            tnons      0.0000000  0.0000000  0.0000000    -0.2500000  0.2500000  0.5000000
                      -0.2500000  0.2500000  0.5000000     0.0000000 -0.0000000 -0.0000000
                      -0.0000000 -0.0000000 -0.0000000    -0.2500000  0.2500000  0.5000000
                      -0.2500000  0.2500000  0.5000000    -0.0000000  0.0000000 -0.0000000
                      -0.2500000  0.2500000  0.5000000     0.0000000  0.0000000 -0.0000000
                       0.0000000  0.0000000 -0.0000000    -0.2500000  0.2500000  0.5000000
                      -0.2500000  0.2500000  0.5000000     0.0000000  0.0000000  0.0000000
                       0.0000000  0.0000000 -0.0000000    -0.2500000  0.2500000  0.5000000
           tolwfr      1.00000000E-20
            typat      1  1  2  2  3  3  3  3
           useylm           1
              wtk        0.50000    0.50000
           xangst      3.5278515231E+00  1.2345057438E+00 -1.1260511926E+00
                       0.0000000000E+00  0.0000000000E+00  0.0000000000E+00
                       2.0157694224E+00  2.4690114875E+00 -4.5064853928E+00
                       5.0368732165E-01  3.7035172313E+00 -1.1260511926E+00
                       9.9505635459E-01  1.2187929547E+00 -2.2245634233E+00
                       2.5327951685E+00  1.5712789107E-02  1.0985122308E+00
                       3.0364824902E+00  3.7192300204E+00 -6.7884073622E+00
                       4.5229078777E+00  2.4532986984E+00 -3.3506146159E+00
            xcart      6.6666732162E+00  2.3328777652E+00 -2.1279283656E+00
                       0.0000000000E+00  0.0000000000E+00  0.0000000000E+00
                       3.8092521553E+00  4.6657555304E+00 -8.5160232142E+00
                       9.5183109452E-01  6.9986332956E+00 -2.1279283656E+00
                       1.8803839970E+00  2.3031848970E+00 -4.2038156354E+00
                       4.7862892192E+00  2.9692868195E-02  2.0758872698E+00
                       5.7381203137E+00  7.0283261638E+00 -1.2828230793E+01
                       8.5470572131E+00  4.6360626622E+00 -6.3317440009E+00
             xred      7.5000000000E-01  2.5000000000E-01  5.0000000000E-01
                       0.0000000000E+00  0.0000000000E+00  0.0000000000E+00
                       5.0000000000E-01  5.0000000000E-01  0.0000000000E+00
                       2.5000000000E-01  7.5000000000E-01  5.0000000000E-01
                       2.4681800000E-01  2.4681800000E-01 -2.7755575616E-17
                       5.0318200000E-01  3.1820000000E-03  5.0000000000E-01
                       7.5318200000E-01  7.5318200000E-01  0.0000000000E+00
                       9.9681800000E-01  4.9681800000E-01  5.0000000000E-01
            znucl        3.00000   83.00000   16.00000

- Timing analysis has been suppressed with timopt=0

 Suggested references for the acknowledgment of ABINIT usage.

 Calculation completed.
.Delivered   8 WARNINGs and   5 COMMENTs to log file.