.Version 9.5.1 of ABINIT

 ABINIT is a project of the Universite Catholique de Louvain,
 Corning Inc. and other collaborators, see ~abinit/doc/developers/contributors.txt .
 acknowledgments of the ABINIT effort.

.Starting date : Tue 27 Apr 2021.
- ( at 18h38 )

- input  file    -> /scratch/users/j/a/jabreu/flow_simple_4atoms/flow/w219/t1/run.abi
- output file    -> /scratch/users/j/a/jabreu/flow_simple_4atoms/flow/w219/t1/run.abo
- root for input  files -> /scratch/users/j/a/jabreu/flow_simple_4atoms/flow/w219/t1/indata/in
- root for output files -> /scratch/users/j/a/jabreu/flow_simple_4atoms/flow/w219/t1/outdata/out

 Symmetries : space group R-3 m (#166); Bravais hR (rhombohedral)
     intxc =       0      iscf =       7    lmnmax =      18     lnmax =       6
     mgfft =      72  mpssoang =       3    mqgrid =    3001     natom =       4
  nloc_mem =       1    nspden =       1   nspinor =       1    nsppol =       1
      nsym =      12    n1xccc =    2501    ntypat =       3    occopt =       1
   xclevel =       2
-    mband =          26        mffmem =           1         mkmem =           2
-   mkqmem =           2        mk1mem =           2           mpw =        3975
      nfft =      373248          nkpt =           2
  Rough estimation (10% accuracy) of disk space for files :

------------- Echo of variables that govern the present computation ------------
-
- outvars: echo of selected default values
-   iomode0 =  0 , fftalg0 =512 , wfoptalg0 =  0
-
- outvars: echo of global parameters not present in the input file
-  max_nthreads =    0
-
 -outvars: echo values of preprocessed input variables --------
            acell      1.0000000000E+00  1.0000000000E+00  1.0000000000E+00 Bohr
              amu      2.69815390E+01  6.35460000E+01  1.59994000E+01
             ecut      4.60000000E+01 Hartree
-          fftalg         512
           irdden           1
           irdwfk           1
           istwfk        0    1
              ixc     -116133
              kpt      5.58026572E-01  4.41973428E-01  0.00000000E+00
                       0.00000000E+00  0.00000000E+00  0.00000000E+00
           kptopt           0
P           mkmem           2
P          mkqmem           2
P          mk1mem           2
            natom           4
            nband          26
           nbdbuf           4
            ngfft          72      72      72
             nkpt           2
            nstep         100
             nsym          12
           ntypat           3
              occ      2.000000  2.000000  2.000000  2.000000  2.000000  2.000000
                       2.000000  2.000000  2.000000  2.000000  2.000000  2.000000
                       2.000000  2.000000  2.000000  2.000000  2.000000  0.000000
                       0.000000  0.000000  0.000000  0.000000  0.000000  0.000000
                       0.000000  0.000000
        optdriver           1
            prtwf          -1
            rfdir           1       1       1
           rfelfd           2
            rprim      5.2171238298E+00  0.0000000000E+00  9.7810405551E+00
                       2.4454954195E+00  4.6084632155E+00  9.7810405551E+00
                       0.0000000000E+00  0.0000000000E+00  1.1085447009E+01
          spgroup         166
           symrel      1  0  0   0  1  0   0  0  1      -1  0  0   0 -1  0   0  0 -1
                       0  1  0   1  0  0   0  0  1       0 -1  0  -1  0  0   0  0 -1
                       0  0  1   1  0  0   0  1  0       0  0 -1  -1  0  0   0 -1  0
                       1  0  0   0  0  1   0  1  0      -1  0  0   0  0 -1   0 -1  0
                       0  1  0   0  0  1   1  0  0       0 -1  0   0  0 -1  -1  0  0
                       0  0  1   0  1  0   1  0  0       0  0 -1   0 -1  0  -1  0  0
           tolwfr      1.00000000E-20
            typat      1  2  3  3
           useylm           1
              wtk        0.50000    0.50000
           xangst      2.0274417324E+00  1.2193468501E+00  8.1089866902E+00
                       0.0000000000E+00  0.0000000000E+00  0.0000000000E+00
                       3.6105331152E+00  2.1714518898E+00  1.4440742986E+01
                       4.4435034961E-01  2.6724181045E-01  1.7772303949E+00
            xcart      3.8313096247E+00  2.3042316077E+00  1.5323764060E+01
                       0.0000000000E+00  0.0000000000E+00  0.0000000000E+00
                       6.8229187815E+00  4.1034493825E+00  2.7289049398E+01
                       8.3970046782E-01  5.0501383301E-01  3.3584787214E+00
             xred      5.0000000000E-01  5.0000000000E-01  5.0000000000E-01
                       0.0000000000E+00  0.0000000000E+00  0.0000000000E+00
                       8.9041600000E-01  8.9041600000E-01  8.9041600000E-01
                       1.0958400000E-01  1.0958400000E-01  1.0958400000E-01
            znucl       13.00000   29.00000    8.00000

 chkinp: Checking input parameters for consistency.

== DATASET  1 ==================================================================
-   mpi_nproc: 1, omp_nthreads: -1 (-1 if OMP is not activated)

--- !DatasetInfo
iteration_state: {dtset: 1, }
dimensions: {natom: 4, nkpt: 2, mband: 26, nsppol: 1, nspinor: 1, nspden: 1, mpw: 3975, }
cutoff_energies: {ecut:  46.0, pawecutdg:  -1.0, }
electrons: {nelect:   3.40000000E+01, charge:   0.00000000E+00, occopt:   1.00000000E+00, tsmear:   1.00000000E-02, }
meta: {optdriver: 1, rfelfd: 2, }
...

 Real(R)+Recip(G) space primitive vectors, cartesian coordinates (Bohr,Bohr^-1):
 R(1)=  5.2171238  0.0000000  9.7810406  G(1)=  0.1916765 -0.1017137  0.0000000
 R(2)=  2.4454954  4.6084632  9.7810406  G(2)=  0.0000000  0.2169921  0.0000000
 R(3)=  0.0000000  0.0000000 11.0854470  G(3)= -0.1691222 -0.1017137  0.0902084
 Unit cell volume ucvol=  2.6652655E+02 bohr^3
 Angles (23,13,12)=  2.80750812E+01  2.80750812E+01  2.80750813E+01 degrees

 getcut: wavevector=  0.0000  0.0000  0.0000  ngfft=  72  72  72
         ecut(hartree)=     46.000   => boxcut(ratio)=   2.12761

--- Pseudopotential description ------------------------------------------------
- pspini: atom type   1  psp file is /scratch/users/j/a/jabreu/pseudos/PBEsol/Al.psp8
- pspatm: opening atomic psp file    /scratch/users/j/a/jabreu/pseudos/PBEsol/Al.psp8
- Al    ONCVPSP-3.3.0  r_core=   1.76802   1.76802   1.70587
- 13.00000   3.00000    180112                znucl, zion, pspdat
    8 -116133    2    4       600   0.00000   pspcod,pspxc,lmax,lloc,mmax,r2well
    5.99000000000000    5.00000000000000    0.00000000000000   rchrg,fchrg,qchrg
     nproj     2     2     2
     extension_switch     1
  pspatm : epsatm=    0.68509324
         --- l  ekb(1:nproj) -->
             0    5.834965    0.726662
             1    6.225605    0.924840
             2   -2.432733   -0.548689
 pspatm: atomic psp has been read  and splines computed

- pspini: atom type   2  psp file is /scratch/users/j/a/jabreu/pseudos/PBEsol/Cu.psp8
- pspatm: opening atomic psp file    /scratch/users/j/a/jabreu/pseudos/PBEsol/Cu.psp8
- Cu    ONCVPSP-3.3.0  r_core=   1.26204   1.45626   1.76249
- 29.00000  19.00000    180112                znucl, zion, pspdat
    8 -116133    2    4       600   0.00000   pspcod,pspxc,lmax,lloc,mmax,r2well
    5.99000000000000    3.50000000000000    0.00000000000000   rchrg,fchrg,qchrg
     nproj     2     2     2
     extension_switch     1
  pspatm : epsatm=   21.63488701
         --- l  ekb(1:nproj) -->
             0    5.008230   -0.401634
             1   -3.496700   -0.765945
             2   -6.895851   -2.521180
 pspatm: atomic psp has been read  and splines computed

- pspini: atom type   3  psp file is /scratch/users/j/a/jabreu/pseudos/PBEsol/O.psp8
- pspatm: opening atomic psp file    /scratch/users/j/a/jabreu/pseudos/PBEsol/O.psp8
- O     ONCVPSP-3.3.0  r_core=   1.35509   1.45563   1.26150
-  8.00000   6.00000    180112                znucl, zion, pspdat
    8 -116133    2    4       600   0.00000   pspcod,pspxc,lmax,lloc,mmax,r2well
    5.99000000000000    4.00000000000000    0.00000000000000   rchrg,fchrg,qchrg
     nproj     2     2     1
     extension_switch     1
  pspatm : epsatm=    6.22910522
         --- l  ekb(1:nproj) -->
             0    6.050032    0.820363
             1   -4.739617   -1.153841
             2   -1.335834
 pspatm: atomic psp has been read  and splines computed

   1.18245848E+03                                ecore*ucvol(ha*bohr**3)

-inwffil : will read wavefunctions from disk file /scratch/users/j/a/jabreu/flow_simple_4atoms/flow/w219/t1/indata/in_WFK

 ==>  initialize data related to q vector <==

 The list of irreducible perturbations for this q vector is:
    1)    idir= 1    ipert=   5
    2)    idir= 2    ipert=   5
    3)    idir= 3    ipert=   5

 Perturbation wavevector (in red.coord.)   0.000000  0.000000  0.000000
 Perturbation : derivative vs k along direction   1

 dfpt_looppert : COMMENT -
  In a d/dk calculation, iscf is set to -3 automatically.
 The set of symmetries contains only one element for this perturbation.
 symkpt : not enough symmetry to change the number of k points.

[...]

 Initialisation of the first-order wave-functions :
  ireadwf=   0

--- !BeginCycle
iteration_state: {dtset: 1, }
solver: {iscf: 7, nstep: 100, nline: 4, wfoptalg: 0, }
tolerances: {tolwfr: 1.00E-20, }
...

     iter   2DEtotal(Ha)        deltaE(Ha) residm    vres2
-ETOT  1  -75.715059010032     -7.572E+01 1.133E-01 0.000E+00
 ETOT  2  -75.770787173355     -5.573E-02 9.851E-04 0.000E+00
 ETOT  3  -75.771045175393     -2.580E-04 7.783E-06 0.000E+00
 ETOT  4  -75.771047530980     -2.356E-06 1.557E-07 0.000E+00
 ETOT  5  -75.771047556828     -2.585E-08 9.252E-10 0.000E+00
 ETOT  6  -75.771047557134     -3.059E-10 2.869E-11 0.000E+00
 ETOT  7  -75.771047557138     -3.823E-12 1.216E-13 0.000E+00
 ETOT  8  -75.771047557138     -1.421E-13 5.650E-15 0.000E+00
 ETOT  9  -75.771047557138      1.421E-14 1.673E-17 0.000E+00
 ETOT 10  -75.771047557138      7.105E-14 1.164E-18 0.000E+00
 ETOT 11  -75.771047557138     -2.842E-14 9.572E-21 0.000E+00

 At SCF step   11   max residual=  9.57E-21 < tolwfr=  1.00E-20 =>converged.

 ----iterations are completed or convergence reached----

 dfpt_looppert: DFPT cycle converged with prtwf=-1. Will skip output of the 1st-order WFK file.
 dfpt_looppert : ek2=    1.2640271399E+02
          f-sum rule ratio=    1.1259035712E+00
 prteigrs : about to open file /scratch/users/j/a/jabreu/flow_simple_4atoms/flow/w219/t1/tmpdata/tmp_1WF1_EIG
 Expectation of eigenvalue derivatives (hartree) for nkpt=   2  k points:
  (in case of degenerate eigenvalues, averaged derivative)
 kpt#   1, nband= 26, wtk=  0.50000, kpt=  0.5580  0.4420  0.0000 (reduced coord)
   0.00003    0.00004    0.00054   -0.00104    0.04025    0.00159    0.08486    0.06570
  -0.23548   -0.02415   -0.05697   -0.10351    0.10464    0.02283   -0.09336   -0.04030
  -0.00019    0.24258   -0.03955    0.25877    0.34111   -0.31222   -0.05701   -0.20061
  -0.10769   -0.11108
 prteigrs : prtvol=0 or 1, do not print more k-points.

 Eight components of 2nd-order total energy (hartree) are
 1,2,3: 0th-order hamiltonian combined with 1st-order wavefunctions
     kin0=   8.42393941E+01 eigvalue=  -1.75502374E+00  local=  -2.82592254E+01
 4,5,6: 1st-order hamiltonian combined with 1st and 0th-order wfs
     kin1=  -1.42317267E+02  Hartree=   0.00000000E+00     xc=   0.00000000E+00
 7,8,9: eventually, occupation + non-local contributions
    edocc=   2.40111178E+01     enl0=  -2.46521519E+00   enl1=  -9.22482802E+00
 1-9 gives the relaxation energy (to be shifted if some occ is /=2.0)
   erelax=  -7.57710476E+01
  No Ewald or frozen-wf contrib.: the relaxation energy is the total one
 2DEtotal=   -0.7577104756E+02 Ha. Also 2DEtotal=   -0.206183506055E+04 eV
    (  non-var. 2DEtotal :   -7.5771047557E+01 Ha)

 Perturbation wavevector (in red.coord.)   0.000000  0.000000  0.000000
 Perturbation : derivative vs k along direction   2
 The set of symmetries contains only one element for this perturbation.
 symkpt : not enough symmetry to change the number of k points.

[...]

 Perturbation wavevector (in red.coord.)   0.000000  0.000000  0.000000
 Perturbation : derivative vs k along direction   3
 The set of symmetries contains only one element for this perturbation.
 symkpt : not enough symmetry to change the number of k points.

-inwffil : will read wavefunctions from disk file /scratch/users/j/a/jabreu/flow_simple_4atoms/flow/w219/t1/indata/in_WFK

 Initialisation of the first-order wave-functions :
  ireadwf=   0

--- !BeginCycle
iteration_state: {dtset: 1, }
solver: {iscf: 7, nstep: 100, nline: 4, wfoptalg: 0, }
tolerances: {tolwfr: 1.00E-20, }
...

     iter   2DEtotal(Ha)        deltaE(Ha) residm    vres2
-ETOT  1  -74.572760286357     -7.457E+01 1.554E-01 0.000E+00
 ETOT  2  -74.626393626341     -5.363E-02 4.681E-04 0.000E+00
 ETOT  3  -74.626526020558     -1.324E-04 8.597E-06 0.000E+00
 ETOT  4  -74.626526789272     -7.687E-07 2.801E-08 0.000E+00
 ETOT  5  -74.626526794937     -5.664E-09 1.309E-09 0.000E+00
 ETOT  6  -74.626526794986     -4.974E-11 5.065E-12 0.000E+00
 ETOT  7  -74.626526794987     -5.258E-13 2.293E-13 0.000E+00
 ETOT  8  -74.626526794987      5.684E-14 1.697E-15 0.000E+00
 ETOT  9  -74.626526794987      2.842E-14 4.138E-17 0.000E+00
 ETOT 10  -74.626526794987     -2.842E-14 6.172E-19 0.000E+00
 ETOT 11  -74.626526794987     -2.842E-14 9.390E-21 0.000E+00

 At SCF step   11   max residual=  9.39E-21 < tolwfr=  1.00E-20 =>converged.

 ----iterations are completed or convergence reached----

 dfpt_looppert: DFPT cycle converged with prtwf=-1. Will skip output of the 1st-order WFK file.
 dfpt_looppert : ek2=    1.2640271399E+02
          f-sum rule ratio=    1.1038903982E+00
 prteigrs : about to open file /scratch/users/j/a/jabreu/flow_simple_4atoms/flow/w219/t1/tmpdata/tmp_1WF1_EIG
 Expectation of eigenvalue derivatives (hartree) for nkpt=   2  k points:
  (in case of degenerate eigenvalues, averaged derivative)
 kpt#   1, nband= 26, wtk=  0.50000, kpt=  0.5580  0.4420  0.0000 (reduced coord)
  -0.00000   -0.00000    0.00000   -0.00000    0.00000   -0.00000   -0.00000    0.00000
  -0.00000    0.00000   -0.00000   -0.00000   -0.00000   -0.00000   -0.00000   -0.00000
   0.00000   -0.00000    0.00000    0.00000   -0.00000    0.00000   -0.00000    0.00000
   0.00000   -0.00084
 prteigrs : prtvol=0 or 1, do not print more k-points.

 Eight components of 2nd-order total energy (hartree) are
 1,2,3: 0th-order hamiltonian combined with 1st-order wavefunctions
     kin0=   8.33626795E+01 eigvalue=  -1.71553196E+00  local=  -2.78842366E+01
 4,5,6: 1st-order hamiltonian combined with 1st and 0th-order wfs
     kin1=  -1.39534742E+02  Hartree=   0.00000000E+00     xc=   0.00000000E+00
 7,8,9: eventually, occupation + non-local contributions
    edocc=   2.29643934E+01     enl0=  -2.10077750E+00   enl1=  -9.71831131E+00
 1-9 gives the relaxation energy (to be shifted if some occ is /=2.0)
   erelax=  -7.46265268E+01
  No Ewald or frozen-wf contrib.: the relaxation energy is the total one
 2DEtotal=   -0.7462652679E+02 Ha. Also 2DEtotal=   -0.203069106676E+04 eV
    (  non-var. 2DEtotal :   -7.4626526795E+01 Ha)

 CALCULATION OF EFFECTIVE MASSES
 NOTE : Additional infos (eff. mass eigenvalues, eigenvectors and, if degenerate, average mass) are available in stdout.

 K-point ( 0.558, 0.442, 0.000) | band =    17
 Effective mass tensor:
             -6.8827261353             10.3478303658              0.6292572828
             10.3478303658            -17.8650240517              0.3785765949
              0.6292572828              0.3785765949             -6.6414806845
 Effective mass tensor eigenvalues:
            -24.0884092360             -6.7303107995             -0.5705108360
 Angular average effective mass 1/(<1/m>)=  -1.5440753403
 Angular average effective mass for Frohlich model (<m**0.5>)**2=  -2.8663859783
 Effective masses along directions: (cart. coord. / red. coord. -> eff. mass)
    1:   1.000000  0.000000  0.000000 /   0.905461  0.424429  0.000000 ->  -0.7804831480
    2:   0.000000  1.000000  0.000000 /   0.000000  1.000000  0.000000 ->  -2.0410803149
    3:   0.000000  0.000000  1.000000 /   0.551779  0.551779  0.625364 ->  -5.8235655332
    4:   0.577350  0.577350  0.577350 /   0.596950  0.670058  0.441218 ->  -0.7577561486
    5:   0.000000  0.707107  0.707107 /   0.474108  0.697490  0.537335 ->  -2.3288454838
    6:   0.707107  0.000000  0.707107 /   0.672543  0.548258  0.497090 ->  -1.1231127486
    7:   0.707107  0.707107  0.000000 /   0.594636  0.803995  0.000000 ->  -0.6130441231

 K-point ( 0.000, 0.000, 0.000) | band =    18
 Effective mass tensor:
              1.0922801025             -0.0257216076             -0.1710556547
             -0.0257216076              1.1195786056             -0.1028765316
             -0.1710556547             -0.1028765316              0.4508913417
 Effective mass tensor eigenvalues:
              0.3926537880              1.1350481309              1.1350481309
 Angular average effective mass 1/(<1/m>)=   0.6962474919
 Angular average effective mass for Frohlich model (<m**0.5>)**2=   0.7576087058
 Effective masses along directions: (cart. coord. / red. coord. -> eff. mass)
    1:   1.000000  0.000000  0.000000 /   0.905461  0.424429  0.000000 ->   1.0235613636
    2:   0.000000  1.000000  0.000000 /   0.000000  1.000000  0.000000 ->   1.0920252130
    3:   0.000000  0.000000  1.000000 /   0.551779  0.551779  0.625364 ->   0.4138898314
    4:   0.577350  0.577350  0.577350 /   0.596950  0.670058  0.441218 ->   0.5306434583
    5:   0.000000  0.707107  0.707107 /   0.474108  0.697490  0.537335 ->   0.5272187701
    6:   0.707107  0.000000  0.707107 /   0.672543  0.548258  0.497090 ->   0.4806886096
    7:   0.707107  0.707107  0.000000 /   0.594636  0.803995  0.000000 ->   0.9959480494

 END OF EFFECTIVE MASSES SECTION

 ---- first-order wavefunction calculations are completed ----

 Total localisation tensor (bohr^2) in cartesian coordinates
  WARNING : still subject to testing - especially symmetries.
      direction              matrix element
   alpha     beta       real part   imaginary part
     1        1       1.0387796102    0.0000000000
     1        2       0.3526334558    0.0000000000
     1        3       2.3451084860    0.0000000000
     2        1       0.3526334558    0.0000000000
     2        2       0.6645272352    0.0000000000
     2        3       1.4103981161    0.0000000000
     3        1       2.3451084860    0.0000000000
     3        2       1.4103981161    0.0000000000
     3        3      10.3388884438    0.0000000000

 respfn : d/dk was computed, but no 2DTE, so no DDB output.

== END DATASET(S) ==============================================================

 -outvars: echo values of variables after computation  --------
            acell      1.0000000000E+00  1.0000000000E+00  1.0000000000E+00 Bohr
              amu      2.69815390E+01  6.35460000E+01  1.59994000E+01
             ecut      4.60000000E+01 Hartree
           etotal     -7.4626526795E+01
            fcart      0.0000000000E+00  0.0000000000E+00  0.0000000000E+00
                       0.0000000000E+00  0.0000000000E+00  0.0000000000E+00
                       0.0000000000E+00  0.0000000000E+00  0.0000000000E+00
                       0.0000000000E+00  0.0000000000E+00  0.0000000000E+00
-          fftalg         512
           irdden           1
           irdwfk           1
           istwfk        0    1
              ixc     -116133
              kpt      5.58026572E-01  4.41973428E-01  0.00000000E+00
                       0.00000000E+00  0.00000000E+00  0.00000000E+00
           kptopt           0
P           mkmem           2
P          mkqmem           2
P          mk1mem           2
            natom           4
            nband          26
           nbdbuf           4
            ngfft          72      72      72
             nkpt           2
            nstep         100
             nsym          12
           ntypat           3
              occ      2.000000  2.000000  2.000000  2.000000  2.000000  2.000000
                       2.000000  2.000000  2.000000  2.000000  2.000000  2.000000
                       2.000000  2.000000  2.000000  2.000000  2.000000  0.000000
                       0.000000  0.000000  0.000000  0.000000  0.000000  0.000000
                       0.000000  0.000000
        optdriver           1
            prtwf          -1
            rfdir           1       1       1
           rfelfd           2
            rprim      5.2171238298E+00  0.0000000000E+00  9.7810405551E+00
                       2.4454954195E+00  4.6084632155E+00  9.7810405551E+00
                       0.0000000000E+00  0.0000000000E+00  1.1085447009E+01
          spgroup         166
           strten      0.0000000000E+00  0.0000000000E+00  0.0000000000E+00
                       0.0000000000E+00  0.0000000000E+00  0.0000000000E+00
           symrel      1  0  0   0  1  0   0  0  1      -1  0  0   0 -1  0   0  0 -1
                       0  1  0   1  0  0   0  0  1       0 -1  0  -1  0  0   0  0 -1
                       0  0  1   1  0  0   0  1  0       0  0 -1  -1  0  0   0 -1  0
                       1  0  0   0  0  1   0  1  0      -1  0  0   0  0 -1   0 -1  0
                       0  1  0   0  0  1   1  0  0       0 -1  0   0  0 -1  -1  0  0
                       0  0  1   0  1  0   1  0  0       0  0 -1   0 -1  0  -1  0  0
           tolwfr      1.00000000E-20
            typat      1  2  3  3
           useylm           1
              wtk        0.50000    0.50000
           xangst      2.0274417324E+00  1.2193468501E+00  8.1089866902E+00
                       0.0000000000E+00  0.0000000000E+00  0.0000000000E+00
                       3.6105331152E+00  2.1714518898E+00  1.4440742986E+01
                       4.4435034961E-01  2.6724181045E-01  1.7772303949E+00
            xcart      3.8313096247E+00  2.3042316077E+00  1.5323764060E+01
                       0.0000000000E+00  0.0000000000E+00  0.0000000000E+00
                       6.8229187815E+00  4.1034493825E+00  2.7289049398E+01
                       8.3970046782E-01  5.0501383301E-01  3.3584787214E+00
             xred      5.0000000000E-01  5.0000000000E-01  5.0000000000E-01
                       0.0000000000E+00  0.0000000000E+00  0.0000000000E+00
                       8.9041600000E-01  8.9041600000E-01  8.9041600000E-01
                       1.0958400000E-01  1.0958400000E-01  1.0958400000E-01
            znucl       13.00000   29.00000    8.00000

- Timing analysis has been suppressed with timopt=0

 Suggested references for the acknowledgment of ABINIT usage.

 Calculation completed.
.Delivered  14 WARNINGs and   9 COMMENTs to log file.