.Version 9.5.2 of ABINIT

 ABINIT is a project of the Universite Catholique de Louvain,
 Corning Inc. and other collaborators, see ~abinit/doc/developers/contributors.txt .
 acknowledgments of the ABINIT effort.

.Starting date : Mon 24 May 2021.
- ( at 10h48 )

- input  file    -> /scratch/users/j/a/jabreu/flow_simple_10atoms/flow/w255/t1/run.abi
- output file    -> /scratch/users/j/a/jabreu/flow_simple_10atoms/flow/w255/t1/run.abo
- root for input  files -> /scratch/users/j/a/jabreu/flow_simple_10atoms/flow/w255/t1/indata/in
- root for output files -> /scratch/users/j/a/jabreu/flow_simple_10atoms/flow/w255/t1/outdata/out

 Symmetries : space group R3 c (#161); Bravais hR (rhombohedral)
     intxc =       0      iscf =       7    lmnmax =      32     lnmax =       8
     mgfft =      64  mpssoang =       4    mqgrid =    3001     natom =      10
  nloc_mem =       1    nspden =       1   nspinor =       1    nsppol =       1
      nsym =       6    n1xccc =    2501    ntypat =       3    occopt =       1
   xclevel =       2
-    mband =          43        mffmem =           1         mkmem =           2
-   mkqmem =           2        mk1mem =           2           mpw =        9895
      nfft =      262144          nkpt =           2
  Rough estimation (10% accuracy) of disk space for files :

------------- Echo of variables that govern the present computation ------------
-
- outvars: echo of selected default values
-   iomode0 =  0 , fftalg0 =512 , wfoptalg0 =  0
-
- outvars: echo of global parameters not present in the input file
-  max_nthreads =    0
-
 -outvars: echo values of preprocessed input variables --------
            acell      1.0000000000E+00  1.0000000000E+00  1.0000000000E+00 Bohr
              amu      6.94100000E+00  1.80947900E+02  1.59994000E+01
             ecut      4.40000000E+01 Hartree
-          fftalg         512
           irdden           1
           irdwfk           1
           istwfk        0    1
              ixc     -116133
              kpt      1.66666667E-01  1.66666667E-01  1.66666667E-01
                       0.00000000E+00  0.00000000E+00  0.00000000E+00
           kptopt           0
P           mkmem           2
P          mkqmem           2
P          mk1mem           2
            natom          10
            nband          43
           nbdbuf           4
            ngfft          64      64      64
             nkpt           2
            nstep        2000
             nsym           6
           ntypat           3
              occ      2.000000  2.000000  2.000000  2.000000  2.000000  2.000000
                       2.000000  2.000000  2.000000  2.000000  2.000000  2.000000
                       2.000000  2.000000  2.000000  2.000000  2.000000  2.000000
                       2.000000  2.000000  2.000000  2.000000  2.000000  2.000000
                       2.000000  2.000000  2.000000  2.000000  2.000000  2.000000
                       2.000000  2.000000  2.000000  2.000000  0.000000  0.000000
                       0.000000  0.000000  0.000000  0.000000  0.000000  0.000000
                       0.000000
        optdriver           1
            prtwf          -1
            rfdir           1       1       1
           rfelfd           2
            rprim      8.5578433174E+00  0.0000000000E+00  5.7525724086E+00
                       3.0645625613E+00  7.9903152974E+00  5.7525724086E+00
                       0.0000000000E+00  0.0000000000E+00  1.0311584338E+01
          spgroup         161
           symrel      1  0  0   0  1  0   0  0  1       0  1  0   1  0  0   0  0  1
                       0  0  1   1  0  0   0  1  0       1  0  0   0  0  1   0  1  0
                       0  1  0   0  0  1   1  0  0       0  0  1   0  1  0   1  0  0
            tnons      0.0000000  0.0000000  0.0000000     0.5000000  0.5000000  0.5000000
                      -0.0000000  0.0000000  0.0000000     0.5000000  0.5000000  0.5000000
                      -0.0000000  0.0000000 -0.0000000     0.5000000  0.5000000  0.5000000
           tolwfr      1.00000000E-20
            typat      1  1  2  2  3  3  3  3  3  3
           useylm           1
              wtk        0.50000    0.50000
           xangst      4.4139868830E+00  3.0345822786E+00  8.2856129210E+00
                       1.3388307330E+00  9.2043590616E-01  2.5131550035E+00
                       4.1391601779E-03  2.8456410173E-03  7.7697283569E-03
                       3.0792953102E+00  2.1169920134E+00  5.7802276458E+00
                       1.8720089626E+00  3.2763476011E+00  4.8606406625E+00
                       4.3111697375E+00  3.7322463532E+00  6.1225848869E+00
                       2.2759776789E+00  2.6887502150E+00  7.5889683706E+00
                       4.4430809756E+00  1.1622012287E+00  6.9935836873E+00
                       4.1296540646E+00  1.6180999808E+00  4.2652559793E+00
                       1.9534092148E+00  5.7460384256E-01  5.8067823856E+00
            xcart      8.3412263631E+00  5.7345294342E+00  1.5657539264E+01
                       2.5300234237E+00  1.7393717855E+00  4.7491746861E+00
                       7.8218791564E-03  5.3774821952E-03  1.4682658721E-02
                       5.8190248185E+00  4.0005351309E+00  1.0923047236E+01
                       3.5375842576E+00  6.1913996823E+00  9.1852796825E+00
                       8.1469301162E+00  7.0529234680E+00  1.1570008662E+01
                       4.3009744977E+00  5.0810015460E+00  1.4341071852E+01
                       8.3962062301E+00  2.1962420336E+00  1.3215957856E+01
                       7.8039152057E+00  3.0577658193E+00  8.0601656875E+00
                       3.6914084413E+00  1.0858438973E+00  1.0973228422E+01
             xred      7.1768500000E-01  7.1768500000E-01  7.1768500000E-01
                       2.1768500000E-01  2.1768500000E-01  2.1768500000E-01
                       6.7300000000E-04  6.7300000000E-04  6.7300000000E-04
                       5.0067300000E-01  5.0067300000E-01  5.0067300000E-01
                       1.3589500000E-01  7.7486300000E-01  3.8268400000E-01
                       6.3589500000E-01  8.8268400000E-01  2.7486300000E-01
                       2.7486300000E-01  6.3589500000E-01  8.8268400000E-01
                       8.8268400000E-01  2.7486300000E-01  6.3589500000E-01
                       7.7486300000E-01  3.8268400000E-01  1.3589500000E-01
                       3.8268400000E-01  1.3589500000E-01  7.7486300000E-01
            znucl        3.00000   73.00000    8.00000

 chkinp: Checking input parameters for consistency.

== DATASET  1 ==================================================================
-   mpi_nproc: 1, omp_nthreads: -1 (-1 if OMP is not activated)

--- !DatasetInfo
iteration_state: {dtset: 1, }
dimensions: {natom: 10, nkpt: 2, mband: 43, nsppol: 1, nspinor: 1, nspden: 1, mpw: 9895, }
cutoff_energies: {ecut:  44.0, pawecutdg:  -1.0, }
electrons: {nelect:   6.80000000E+01, charge:   0.00000000E+00, occopt:   1.00000000E+00, tsmear:   1.00000000E-02, }
meta: {optdriver: 1, rfelfd: 2, }
...

 Real(R)+Recip(G) space primitive vectors, cartesian coordinates (Bohr,Bohr^-1):
 R(1)=  8.5578433  0.0000000  5.7525724  G(1)=  0.1168519 -0.0448167  0.0000000
 R(2)=  3.0645626  7.9903153  5.7525724  G(2)=  0.0000000  0.1251515  0.0000000
 R(3)=  0.0000000  0.0000000 10.3115843  G(3)= -0.0651887 -0.0448167  0.0969783
 Unit cell volume ucvol=  7.0510476E+02 bohr^3
 Angles (23,13,12)=  5.60910512E+01  5.60910513E+01  5.60910512E+01 degrees

 getcut: wavevector=  0.0000  0.0000  0.0000  ngfft=  64  64  64
         ecut(hartree)=     44.000   => boxcut(ratio)=   2.07861

--- Pseudopotential description ------------------------------------------------
- pspini: atom type   1  psp file is /scratch/users/j/a/jabreu/pseudos/PBEsol/Li.psp8
- pspatm: opening atomic psp file    /scratch/users/j/a/jabreu/pseudos/PBEsol/Li.psp8
- Li    ONCVPSP-3.3.0  r_core=   1.40824   1.10935
-  3.00000   3.00000    180112                znucl, zion, pspdat
    8 -116133    1    4       400   0.00000   pspcod,pspxc,lmax,lloc,mmax,r2well
    3.99000000000000    0.00000000000000    0.00000000000000   rchrg,fchrg,qchrg
     nproj     2     2
     extension_switch     1
  pspatm : epsatm=    2.60859637
         --- l  ekb(1:nproj) -->
             0   -4.855856   -1.482423
             1   -2.171544   -0.427615
 pspatm: atomic psp has been read  and splines computed

- pspini: atom type   2  psp file is /scratch/users/j/a/jabreu/pseudos/PBEsol/Ta.psp8
- pspatm: opening atomic psp file    /scratch/users/j/a/jabreu/pseudos/PBEsol/Ta.psp8
- Ta    ONCVPSP-3.3.0  r_core=   1.71294   1.71294   1.71294   2.25368
- 73.00000  13.00000    180112                znucl, zion, pspdat
    8 -116133    3    4       600   0.00000   pspcod,pspxc,lmax,lloc,mmax,r2well
    5.99000000000000    5.00000000000000    0.00000000000000   rchrg,fchrg,qchrg
     nproj     2     2     2     2
     extension_switch     1
  pspatm : epsatm=   21.70781236
         --- l  ekb(1:nproj) -->
             0   11.480337    1.447149
             1    5.630373    0.817168
             2    1.844704    0.232364
             3    4.923559    0.251242
 pspatm: atomic psp has been read  and splines computed

- pspini: atom type   3  psp file is /scratch/users/j/a/jabreu/pseudos/PBEsol/O.psp8
- pspatm: opening atomic psp file    /scratch/users/j/a/jabreu/pseudos/PBEsol/O.psp8
- O     ONCVPSP-3.3.0  r_core=   1.35509   1.45563   1.26150
-  8.00000   6.00000    180112                znucl, zion, pspdat
    8 -116133    2    4       600   0.00000   pspcod,pspxc,lmax,lloc,mmax,r2well
    5.99000000000000    4.00000000000000    0.00000000000000   rchrg,fchrg,qchrg
     nproj     2     2     1
     extension_switch     1
  pspatm : epsatm=    6.22910522
         --- l  ekb(1:nproj) -->
             0    6.050032    0.820363
             1   -4.739617   -1.153841
             2   -1.335834
 pspatm: atomic psp has been read  and splines computed

   5.84850652E+03                                ecore*ucvol(ha*bohr**3)

 ==>  initialize data related to q vector <==

 The list of irreducible perturbations for this q vector is:
    1)    idir= 1    ipert=  11
    2)    idir= 2    ipert=  11
    3)    idir= 3    ipert=  11

 Perturbation wavevector (in red.coord.)   0.000000  0.000000  0.000000
 Perturbation : derivative vs k along direction   1

 dfpt_looppert : COMMENT -
  In a d/dk calculation, iscf is set to -3 automatically.
 The set of symmetries contains only one element for this perturbation.
 symkpt : not enough symmetry to change the number of k points.

 Initialisation of the first-order wave-functions :
  ireadwf=   0

--- !BeginCycle
iteration_state: {dtset: 1, }
solver: {iscf: 7, nstep: 2000, nline: 4, wfoptalg: 0, }
tolerances: {tolwfr: 1.00E-20, }
...

     iter   2DEtotal(Ha)        deltaE(Ha) residm    vres2
-ETOT  1  -46.505422812227     -4.651E+01 5.573E-02 0.000E+00
 ETOT  2  -46.567865590710     -6.244E-02 5.484E-03 0.000E+00
 ETOT  3  -46.568262854992     -3.973E-04 1.142E-04 0.000E+00
 ETOT  4  -46.568266402682     -3.548E-06 8.085E-06 0.000E+00
[...]
 kpt#   1, nband= 43, wtk=  0.50000, kpt=  0.1667  0.1667  0.1667 (reduced coord)
   0.00005   -0.00005    0.00003   -0.00003    0.00112    0.00112    0.00130   -0.00118
  -0.00118   -0.00142    0.01626    0.01027    0.01027   -0.02200   -0.01284   -0.01284
   0.01772    0.01772    0.02784    0.02994    0.02994    0.02013   -0.02710   -0.02710
  -0.03682    0.01423   -0.04872   -0.04872   -0.03300   -0.00686   -0.00379   -0.00379
  -0.00061   -0.00061    0.04190    0.04190    0.02203    0.00792    0.00792   -0.02848
   0.04947    0.00398    0.00398
 prteigrs : prtvol=0 or 1, do not print more k-points.

 Eight components of 2nd-order total energy (hartree) are
 1,2,3: 0th-order hamiltonian combined with 1st-order wavefunctions
     kin0=   5.78639019E+01 eigvalue=   5.24842988E-01  local=  -2.46607719E+01
 4,5,6: 1st-order hamiltonian combined with 1st and 0th-order wfs
     kin1=  -8.95848503E+01  Hartree=   0.00000000E+00     xc=   0.00000000E+00
 7,8,9: eventually, occupation + non-local contributions
    edocc=   1.41036262E+01     enl0=  -1.26333273E+00   enl1=  -3.55168257E+00
 1-9 gives the relaxation energy (to be shifted if some occ is /=2.0)
   erelax=  -4.65682664E+01
  No Ewald or frozen-wf contrib.: the relaxation energy is the total one
 2DEtotal=   -0.4656826644E+02 Ha. Also 2DEtotal=   -0.126718697384E+04 eV
    (  non-var. 2DEtotal :   -4.6568266441E+01 Ha)

 Perturbation wavevector (in red.coord.)   0.000000  0.000000  0.000000
 Perturbation : derivative vs k along direction   2
 The set of symmetries contains only one element for this perturbation.
 symkpt : not enough symmetry to change the number of k points.

[...]

 Perturbation wavevector (in red.coord.)   0.000000  0.000000  0.000000
 Perturbation : derivative vs k along direction   3
 The set of symmetries contains only one element for this perturbation.
 symkpt : not enough symmetry to change the number of k points.

 Initialisation of the first-order wave-functions :
  ireadwf=   0

--- !BeginCycle
iteration_state: {dtset: 1, }
solver: {iscf: 7, nstep: 2000, nline: 4, wfoptalg: 0, }
tolerances: {tolwfr: 1.00E-20, }
...

     iter   2DEtotal(Ha)        deltaE(Ha) residm    vres2
-ETOT  1  -46.507705290439     -4.651E+01 5.578E-02 0.000E+00
 ETOT  2  -46.567875978405     -6.017E-02 5.475E-03 0.000E+00
 ETOT  3  -46.568267754333     -3.918E-04 1.142E-04 0.000E+00
 ETOT  4  -46.568271282507     -3.528E-06 8.099E-06 0.000E+00
 ETOT  5  -46.568271321197     -3.869E-08 4.499E-07 0.000E+00
 ETOT  6  -46.568271321659     -4.616E-10 3.346E-08 0.000E+00
 ETOT  7  -46.568271321665     -5.940E-12 2.381E-09 0.000E+00
 ETOT  8  -46.568271321665     -3.553E-14 1.761E-10 0.000E+00
 ETOT  9  -46.568271321665     -2.132E-14 1.436E-11 0.000E+00
 ETOT 10  -46.568271321665     -3.553E-14 1.079E-12 0.000E+00
 ETOT 11  -46.568271321665      0.000E+00 9.183E-14 0.000E+00
 ETOT 12  -46.568271321665     -7.105E-15 7.053E-15 0.000E+00
 ETOT 13  -46.568271321665     -7.105E-15 6.037E-16 0.000E+00
 ETOT 14  -46.568271321665      7.105E-15 4.719E-17 0.000E+00
 ETOT 15  -46.568271321665      0.000E+00 4.030E-18 0.000E+00
 ETOT 16  -46.568271321665      7.105E-15 3.192E-19 0.000E+00
 ETOT 17  -46.568271321665     -7.105E-15 2.717E-20 0.000E+00
 ETOT 18  -46.568271321665      0.000E+00 9.693E-21 0.000E+00

 At SCF step   18   max residual=  9.69E-21 < tolwfr=  1.00E-20 =>converged.

 ----iterations are completed or convergence reached----

 dfpt_looppert: DFPT cycle converged with prtwf=-1. Will skip output of the 1st-order WFK file.
 dfpt_looppert : ek2=    8.4095123231E+01
          f-sum rule ratio=    1.0652800761E+00
 prteigrs : about to open file /scratch/users/j/a/jabreu/flow_simple_10atoms/flow/w255/t1/tmpdata/tmp_1WF1_EIG
 Expectation of eigenvalue derivatives (hartree) for nkpt=   2  k points:
  (in case of degenerate eigenvalues, averaged derivative)
 kpt#   1, nband= 43, wtk=  0.50000, kpt=  0.1667  0.1667  0.1667 (reduced coord)
   0.00005   -0.00005    0.00003   -0.00003    0.00112    0.00112    0.00130   -0.00118
  -0.00118   -0.00142    0.01626    0.01027    0.01027   -0.02200   -0.01284   -0.01284
   0.01772    0.01772    0.02784    0.02994    0.02994    0.02013   -0.02710   -0.02710
  -0.03682    0.01423   -0.04872   -0.04872   -0.03300   -0.00686   -0.00379   -0.00379
  -0.00061   -0.00061    0.04190    0.04190    0.02203    0.00792    0.00792   -0.02848
   0.04947    0.00399    0.00399
 prteigrs : prtvol=0 or 1, do not print more k-points.

 Eight components of 2nd-order total energy (hartree) are
 1,2,3: 0th-order hamiltonian combined with 1st-order wavefunctions
     kin0=   5.78639049E+01 eigvalue=   5.24828878E-01  local=  -2.46608127E+01
 4,5,6: 1st-order hamiltonian combined with 1st and 0th-order wfs
     kin1=  -8.95848593E+01  Hartree=   0.00000000E+00     xc=   0.00000000E+00
 7,8,9: eventually, occupation + non-local contributions
    edocc=   1.41036537E+01     enl0=  -1.26330341E+00   enl1=  -3.55168337E+00
 1-9 gives the relaxation energy (to be shifted if some occ is /=2.0)
   erelax=  -4.65682713E+01
  No Ewald or frozen-wf contrib.: the relaxation energy is the total one
 2DEtotal=   -0.4656827132E+02 Ha. Also 2DEtotal=   -0.126718710663E+04 eV
    (  non-var. 2DEtotal :   -4.6568271321E+01 Ha)

 CALCULATION OF EFFECTIVE MASSES
 NOTE : Additional infos (eff. mass eigenvalues, eigenvectors and, if degenerate, average mass) are available in stdout.

--- !WARNING
src_file: m_efmas.F90
src_line: 0
message: |
    Effective masses calculations require given k-point(s) to be band extrema for given bands, but max abs gradient of band(s) was found to be greater than 1e-5. Abinit will continue anyway.
...

[...]

--- !WARNING
src_file: m_efmas.F90
src_line: 0
message: |
    Effective masses calculations require given k-point(s) to be band extrema for given bands, but max abs gradient of band(s) was found to be greater than 1e-5. Abinit will continue anyway.
...

 COMMENTS:
 - At k-point ( 0.167, 0.167, 0.167), bands    33 through    34
   are DEGENERATE (effective mass tensor is therefore not defined).
   See Section IIIB Eqs. (67)-(70) and Appendix E of PRB 93 205147 (2016).
 - Angular average effective mass for Frohlich model is to be averaged over degenerate bands. See later.
 - Associated theta integrals calculated with ntheta=   1000 points.

 K-point ( 0.167, 0.167, 0.167) | band =    33
 Transport equivalent effective mass tensor:
             -1.7293530342             -0.1474414526             -0.4025656307
             -0.1474414526             -1.6162598816             -0.2767576215
             -0.4025656307             -0.2767576215             -2.2705984292
 Transport equivalent effective mass tensor eigenvalues:
             -2.5864081639             -1.5149102925             -1.5148928886
 Angular average effective mass 1/(<1/m>)=  -1.7528794685
 Angular average effective mass for Frohlich model (<m**0.5>)**2=  -1.7829894168
 Effective masses along directions: (cart. coord. / red. coord. -> eff. mass)
    1:   1.000000  0.000000  0.000000 /   0.941456  0.337135  0.000000 ->  -1.6636536631
    2:   0.000000  1.000000  0.000000 /   0.000000  1.000000  0.000000 ->  -1.6128811075
    3:   0.000000  0.000000  1.000000 /   0.437977  0.437977  0.785081 ->  -2.1672403874
    4:   0.577350  0.577350  0.577350 /   0.587358  0.689846  0.423229 ->  -2.3118545047
    5:   0.000000  0.707107  0.707107 /   0.317493  0.758491  0.569112 ->  -2.0487642422
    6:   0.707107  0.000000  0.707107 /   0.725699  0.447128  0.522913 ->  -2.3111820623
    7:   0.707107  0.707107  0.000000 /   0.612139  0.790750  0.000000 ->  -1.6749602160

[...]

 Angular average effective mass for Frohlich model, averaged over degenerate bands.
 Value of     (<<m**0.5>>)**2 =     1.870112E+00
 Absolute Value of <<m**0.5>> =     1.367520E+00

 COMMENTS:
 - At k-point ( 0.000, 0.000, 0.000), bands    35 through    36
   are DEGENERATE (effective mass tensor is therefore not defined).
   See Section IIIB Eqs. (67)-(70) and Appendix E of PRB 93 205147 (2016).
 - Angular average effective mass for Frohlich model is to be averaged over degenerate bands. See later.
 - Associated theta integrals calculated with ntheta=   1000 points.

[...]

 K-point ( 0.000, 0.000, 0.000) | band =    36
 Transport equivalent effective mass tensor:
              1.1028987646             -0.1141253786             -0.3115885697
             -0.1141253786              1.1904938866             -0.2142284502
             -0.3115885697             -0.2142284502              0.6839980416
 Transport equivalent effective mass tensor eigenvalues:
              1.2689527666              1.2688906632              0.4395472630
 Angular average effective mass 1/(<1/m>)=   0.6424132753
 Angular average effective mass for Frohlich model (<m**0.5>)**2=   0.6880529710
 Effective masses along directions: (cart. coord. / red. coord. -> eff. mass)
    1:   1.000000  0.000000  0.000000 /   0.941456  0.337135  0.000000 ->   0.7070054593
    2:   0.000000  1.000000  0.000000 /   0.000000  1.000000  0.000000 ->   1.0291277269
    3:   0.000000  0.000000  1.000000 /   0.437977  0.437977  0.785081 ->   0.4957659456
    4:   0.577350  0.577350  0.577350 /   0.587358  0.689846  0.423229 ->   0.4733223651
    5:   0.000000  0.707107  0.707107 /   0.317493  0.758491  0.569112 ->   0.4765853250
    6:   0.707107  0.000000  0.707107 /   0.725699  0.447128  0.522913 ->   0.4824202711
    7:   0.707107  0.707107  0.000000 /   0.612139  0.790750  0.000000 ->   0.5552972579

 Angular average effective mass for Frohlich model, averaged over degenerate bands.
 Value of     (<<m**0.5>>)**2 =     1.635382E+00
 Absolute Value of <<m**0.5>> =     1.278821E+00

 END OF EFFECTIVE MASSES SECTION

 ---- first-order wavefunction calculations are completed ----

 Total localisation tensor (bohr^2) in cartesian coordinates
  WARNING : still subject to testing - especially symmetries.
      direction              matrix element
   alpha     beta       real part   imaginary part
     1        1       1.0689292636    0.0000000000
     1        2       0.3167760916    0.0000000000
     1        3       0.8649252522    0.0000000000
     2        1       0.3167760916    0.0000000000
     2        2       0.8259387107    0.0000000000
     2        3       0.5946288803    0.0000000000
     3        1       0.8649252522    0.0000000000
     3        2       0.5946288803    0.0000000000
     3        3       2.2317331361    0.0000000000

 respfn : d/dk was computed, but no 2DTE, so no DDB output.

== END DATASET(S) ==============================================================

 -outvars: echo values of variables after computation  --------
            acell      1.0000000000E+00  1.0000000000E+00  1.0000000000E+00 Bohr
              amu      6.94100000E+00  1.80947900E+02  1.59994000E+01
             ecut      4.40000000E+01 Hartree
           etotal     -4.6568271322E+01
            fcart      0.0000000000E+00  0.0000000000E+00  0.0000000000E+00
                       0.0000000000E+00  0.0000000000E+00  0.0000000000E+00
                       0.0000000000E+00  0.0000000000E+00  0.0000000000E+00
                       0.0000000000E+00  0.0000000000E+00  0.0000000000E+00
                       0.0000000000E+00  0.0000000000E+00  0.0000000000E+00
                       0.0000000000E+00  0.0000000000E+00  0.0000000000E+00
                       0.0000000000E+00  0.0000000000E+00  0.0000000000E+00
                       0.0000000000E+00  0.0000000000E+00  0.0000000000E+00
                       0.0000000000E+00  0.0000000000E+00  0.0000000000E+00
                       0.0000000000E+00  0.0000000000E+00  0.0000000000E+00
-          fftalg         512
           irdden           1
           irdwfk           1
           istwfk        0    1
              ixc     -116133
              kpt      1.66666667E-01  1.66666667E-01  1.66666667E-01
                       0.00000000E+00  0.00000000E+00  0.00000000E+00
           kptopt           0
P           mkmem           2
P          mkqmem           2
P          mk1mem           2
            natom          10
            nband          43
           nbdbuf           4
            ngfft          64      64      64
             nkpt           2
            nstep        2000
             nsym           6
           ntypat           3
              occ      2.000000  2.000000  2.000000  2.000000  2.000000  2.000000
                       2.000000  2.000000  2.000000  2.000000  2.000000  2.000000
                       2.000000  2.000000  2.000000  2.000000  2.000000  2.000000
                       2.000000  2.000000  2.000000  2.000000  2.000000  2.000000
                       2.000000  2.000000  2.000000  2.000000  2.000000  2.000000
                       2.000000  2.000000  2.000000  2.000000  0.000000  0.000000
                       0.000000  0.000000  0.000000  0.000000  0.000000  0.000000
                       0.000000
        optdriver           1
            prtwf          -1
            rfdir           1       1       1
           rfelfd           2
            rprim      8.5578433174E+00  0.0000000000E+00  5.7525724086E+00
                       3.0645625613E+00  7.9903152974E+00  5.7525724086E+00
                       0.0000000000E+00  0.0000000000E+00  1.0311584338E+01
          spgroup         161
           strten      0.0000000000E+00  0.0000000000E+00  0.0000000000E+00
                       0.0000000000E+00  0.0000000000E+00  0.0000000000E+00
           symrel      1  0  0   0  1  0   0  0  1       0  1  0   1  0  0   0  0  1
                       0  0  1   1  0  0   0  1  0       1  0  0   0  0  1   0  1  0
                       0  1  0   0  0  1   1  0  0       0  0  1   0  1  0   1  0  0
            tnons      0.0000000  0.0000000  0.0000000     0.5000000  0.5000000  0.5000000
                      -0.0000000  0.0000000  0.0000000     0.5000000  0.5000000  0.5000000
                      -0.0000000  0.0000000 -0.0000000     0.5000000  0.5000000  0.5000000
           tolwfr      1.00000000E-20
            typat      1  1  2  2  3  3  3  3  3  3
           useylm           1
              wtk        0.50000    0.50000
           xangst      4.4139868830E+00  3.0345822786E+00  8.2856129210E+00
                       1.3388307330E+00  9.2043590616E-01  2.5131550035E+00
                       4.1391601779E-03  2.8456410173E-03  7.7697283569E-03
                       3.0792953102E+00  2.1169920134E+00  5.7802276458E+00
                       1.8720089626E+00  3.2763476011E+00  4.8606406625E+00
                       4.3111697375E+00  3.7322463532E+00  6.1225848869E+00
                       2.2759776789E+00  2.6887502150E+00  7.5889683706E+00
                       4.4430809756E+00  1.1622012287E+00  6.9935836873E+00
                       4.1296540646E+00  1.6180999808E+00  4.2652559793E+00
                       1.9534092148E+00  5.7460384256E-01  5.8067823856E+00
            xcart      8.3412263631E+00  5.7345294342E+00  1.5657539264E+01
                       2.5300234237E+00  1.7393717855E+00  4.7491746861E+00
                       7.8218791564E-03  5.3774821952E-03  1.4682658721E-02
                       5.8190248185E+00  4.0005351309E+00  1.0923047236E+01
                       3.5375842576E+00  6.1913996823E+00  9.1852796825E+00
                       8.1469301162E+00  7.0529234680E+00  1.1570008662E+01
                       4.3009744977E+00  5.0810015460E+00  1.4341071852E+01
                       8.3962062301E+00  2.1962420336E+00  1.3215957856E+01
                       7.8039152057E+00  3.0577658193E+00  8.0601656875E+00
                       3.6914084413E+00  1.0858438973E+00  1.0973228422E+01
             xred      7.1768500000E-01  7.1768500000E-01  7.1768500000E-01
                       2.1768500000E-01  2.1768500000E-01  2.1768500000E-01
                       6.7300000000E-04  6.7300000000E-04  6.7300000000E-04
                       5.0067300000E-01  5.0067300000E-01  5.0067300000E-01
                       1.3589500000E-01  7.7486300000E-01  3.8268400000E-01
                       6.3589500000E-01  8.8268400000E-01  2.7486300000E-01
                       2.7486300000E-01  6.3589500000E-01  8.8268400000E-01
                       8.8268400000E-01  2.7486300000E-01  6.3589500000E-01
                       7.7486300000E-01  3.8268400000E-01  1.3589500000E-01
                       3.8268400000E-01  1.3589500000E-01  7.7486300000E-01
            znucl        3.00000   73.00000    8.00000

- Timing analysis has been suppressed with timopt=0

 Suggested references for the acknowledgment of ABINIT usage.

 Calculation completed.
.Delivered  14 WARNINGs and   5 COMMENTs to log file.