.Version 9.5.2 of ABINIT

 ABINIT is a project of the Universite Catholique de Louvain,
 Corning Inc. and other collaborators, see ~abinit/doc/developers/contributors.txt .
 acknowledgments of the ABINIT effort.

.Starting date : Mon 24 May 2021.
- ( at 22h59 )

- input  file    -> /scratch/users/j/a/jabreu/flow_simple_10atoms/flow/w464/t1/run.abi
- output file    -> /scratch/users/j/a/jabreu/flow_simple_10atoms/flow/w464/t1/run.abo
- root for input  files -> /scratch/users/j/a/jabreu/flow_simple_10atoms/flow/w464/t1/indata/in
- root for output files -> /scratch/users/j/a/jabreu/flow_simple_10atoms/flow/w464/t1/outdata/out

 Symmetries : space group R-3 c (#167); Bravais hR (rhombohedral)
     intxc =       0      iscf =       7    lmnmax =      18     lnmax =       6
     mgfft =      72  mpssoang =       3    mqgrid =    3001     natom =      10
  nloc_mem =       1    nspden =       1   nspinor =       1    nsppol =       1
      nsym =      12    n1xccc =    2501    ntypat =       3    occopt =       1
   xclevel =       2
-    mband =          41        mffmem =           1         mkmem =           2
-   mkqmem =           2        mk1mem =           2           mpw =       11441
      nfft =      373248          nkpt =           2
  Rough estimation (10% accuracy) of disk space for files :

------------- Echo of variables that govern the present computation ------------
-
- outvars: echo of selected default values
-   iomode0 =  0 , fftalg0 =512 , wfoptalg0 =  0
-
- outvars: echo of global parameters not present in the input file
-  max_nthreads =    0
-
 -outvars: echo values of preprocessed input variables --------
            acell      1.0000000000E+00  1.0000000000E+00  1.0000000000E+00 Bohr
              amu      4.00780000E+01  1.20110000E+01  1.59994000E+01
             ecut      4.40000000E+01 Hartree
-          fftalg         512
           irdden           1
           irdwfk           1
           istwfk        1    0
              ixc     -116133
              kpt      5.00000000E-01  5.00000000E-01  0.00000000E+00
                       3.82352941E-01  3.82352941E-01  3.82352941E-01
           kptopt           0
P           mkmem           2
P          mkqmem           2
P          mk1mem           2
            natom          10
            nband          41
           nbdbuf           4
            ngfft          72      72      72
             nkpt           2
            nstep        2000
             nsym          12
           ntypat           3
              occ      2.000000  2.000000  2.000000  2.000000  2.000000  2.000000
                       2.000000  2.000000  2.000000  2.000000  2.000000  2.000000
                       2.000000  2.000000  2.000000  2.000000  2.000000  2.000000
                       2.000000  2.000000  2.000000  2.000000  2.000000  2.000000
                       2.000000  2.000000  2.000000  2.000000  2.000000  2.000000
                       2.000000  2.000000  0.000000  0.000000  0.000000  0.000000
                       0.000000  0.000000  0.000000  0.000000  0.000000
        optdriver           1
            prtwf          -1
            rfdir           1       1       1
           rfelfd           2
            rprim      8.6653619584E+00  0.0000000000E+00  8.2014874934E+00
                       3.5300280800E+00  7.9137475083E+00  8.2014874934E+00
                       0.0000000000E+00  0.0000000000E+00  1.1931173244E+01
          spgroup         167
           symrel      1  0  0   0  1  0   0  0  1      -1  0  0   0 -1  0   0  0 -1
                       0  1  0   1  0  0   0  0  1       0 -1  0  -1  0  0   0  0 -1
                       0  0  1   1  0  0   0  1  0       0  0 -1  -1  0  0   0 -1  0
                       1  0  0   0  0  1   0  1  0      -1  0  0   0  0 -1   0 -1  0
                       0  1  0   0  0  1   1  0  0       0 -1  0   0  0 -1  -1  0  0
                       0  0  1   0  1  0   1  0  0       0  0 -1   0 -1  0  -1  0  0
            tnons      0.0000000  0.0000000  0.0000000     0.0000000  0.0000000  0.0000000
                       0.5000000  0.5000000  0.5000000     0.5000000  0.5000000  0.5000000
                      -0.0000000  0.0000000  0.0000000     0.0000000  0.0000000  0.0000000
                       0.5000000  0.5000000  0.5000000     0.5000000  0.5000000  0.5000000
                      -0.0000000  0.0000000  0.0000000     0.0000000  0.0000000  0.0000000
                       0.5000000  0.5000000  0.5000000     0.5000000  0.5000000  0.5000000
           tolwfr      1.00000000E-20
            typat      1  1  2  2  3  3  3  3  3  3
           useylm           1
              wtk        0.50000    0.50000
           xangst      3.2267612291E+00  2.0938874080E+00  7.4968927342E+00
                       0.0000000000E+00  0.0000000000E+00  0.0000000000E+00
                       1.6133806145E+00  1.0469437040E+00  3.7484463671E+00
                       4.8401418436E+00  3.1408311119E+00  1.1245339101E+01
                       2.9986429591E+00  4.1524760620E+00  8.5985388185E+00
                       5.4966114340E+00  2.1291861619E+00  8.0884866252E+00
                       3.6551125494E+00  3.1408311119E+00  5.4416863423E+00
                       3.4548794991E+00  3.5298753923E-02  6.3952466500E+00
                       9.5691102419E-01  2.0585886540E+00  6.9052988433E+00
                       2.7984099088E+00  1.0469437040E+00  9.5520991262E+00
            xcart      6.0976950192E+00  3.9568737542E+00  1.4167074115E+01
                       0.0000000000E+00  0.0000000000E+00  0.0000000000E+00
                       3.0488475096E+00  1.9784368771E+00  7.0835370577E+00
                       9.1465425288E+00  5.9353106312E+00  2.1250611173E+01
                       5.6666139629E+00  7.8470425306E+00  1.6248883510E+01
                       1.0387090269E+01  4.0235787319E+00  1.5285024551E+01
                       6.9071617033E+00  5.9353106312E+00  1.0283296888E+01
                       6.5287760755E+00  6.6704977747E-02  1.2085264721E+01
                       1.8082997693E+00  3.8901687764E+00  1.3049123680E+01
                       5.2882283351E+00  1.9784368771E+00  1.8050851343E+01
             xred      5.0000000000E-01  5.0000000000E-01  5.0000000000E-01
                       0.0000000000E+00  0.0000000000E+00  0.0000000000E+00
                       2.5000000000E-01  2.5000000000E-01  2.5000000000E-01
                       7.5000000000E-01  7.5000000000E-01  7.5000000000E-01
                       2.5000000000E-01  9.9157100000E-01  5.0842900000E-01
                       9.9157100000E-01  5.0842900000E-01  2.5000000000E-01
                       4.9157100000E-01  7.5000000000E-01  8.4290000000E-03
                       7.5000000000E-01  8.4290000000E-03  4.9157100000E-01
                       8.4290000000E-03  4.9157100000E-01  7.5000000000E-01
                       5.0842900000E-01  2.5000000000E-01  9.9157100000E-01
            znucl       20.00000    6.00000    8.00000

 chkinp: Checking input parameters for consistency.

== DATASET  1 ==================================================================
-   mpi_nproc: 1, omp_nthreads: -1 (-1 if OMP is not activated)

--- !DatasetInfo
iteration_state: {dtset: 1, }
dimensions: {natom: 10, nkpt: 2, mband: 41, nsppol: 1, nspinor: 1, nspden: 1, mpw: 11441, }
cutoff_energies: {ecut:  44.0, pawecutdg:  -1.0, }
electrons: {nelect:   6.40000000E+01, charge:   0.00000000E+00, occopt:   1.00000000E+00, tsmear:   1.00000000E-02, }
meta: {optdriver: 1, rfelfd: 2, }
...

 Real(R)+Recip(G) space primitive vectors, cartesian coordinates (Bohr,Bohr^-1):
 R(1)=  8.6653620  0.0000000  8.2014875  G(1)=  0.1154020 -0.0514765  0.0000000
 R(2)=  3.5300281  7.9137475  8.2014875  G(2)=  0.0000000  0.1263624  0.0000000
 R(3)=  0.0000000  0.0000000 11.9311732  G(3)= -0.0793273 -0.0514765  0.0838141
 Unit cell volume ucvol=  8.1818601E+02 bohr^3
 Angles (23,13,12)=  4.65753595E+01  4.65753595E+01  4.65753595E+01 degrees

 getcut: wavevector=  0.0000  0.0000  0.0000  ngfft=  72  72  72
         ecut(hartree)=     44.000   => boxcut(ratio)=   2.02110

--- Pseudopotential description ------------------------------------------------
- pspini: atom type   1  psp file is /scratch/users/j/a/jabreu/pseudos/PBEsol/Ca.psp8
- pspatm: opening atomic psp file    /scratch/users/j/a/jabreu/pseudos/PBEsol/Ca.psp8
- Ca    ONCVPSP-3.3.0  r_core=   1.45885   1.45885   1.85192
- 20.00000  10.00000    180112                znucl, zion, pspdat
    8 -116133    2    4       400   0.00000   pspcod,pspxc,lmax,lloc,mmax,r2well
    3.99000000000000    6.00000000000000    0.00000000000000   rchrg,fchrg,qchrg
     nproj     2     2     2
     extension_switch     1
  pspatm : epsatm=   12.46045226
         --- l  ekb(1:nproj) -->
             0   10.054847    0.973777
             1    2.998958    0.458102
             2   -3.447298   -1.091650
 pspatm: atomic psp has been read  and splines computed

- pspini: atom type   2  psp file is /scratch/users/j/a/jabreu/pseudos/PBEsol/C.psp8
- pspatm: opening atomic psp file    /scratch/users/j/a/jabreu/pseudos/PBEsol/C.psp8
- C     ONCVPSP-3.3.0  r_core=   1.20440   1.26326
-  6.00000   4.00000    180112                znucl, zion, pspdat
    8 -116133    1    4       600   0.00000   pspcod,pspxc,lmax,lloc,mmax,r2well
    5.99000000000000    4.00000000000000    0.00000000000000   rchrg,fchrg,qchrg
     nproj     2     2
     extension_switch     1
  pspatm : epsatm=    4.34909529
         --- l  ekb(1:nproj) -->
             0    6.468939    0.390031
             1   -4.179695   -0.878453
 pspatm: atomic psp has been read  and splines computed

- pspini: atom type   3  psp file is /scratch/users/j/a/jabreu/pseudos/PBEsol/O.psp8
- pspatm: opening atomic psp file    /scratch/users/j/a/jabreu/pseudos/PBEsol/O.psp8
- O     ONCVPSP-3.3.0  r_core=   1.35509   1.45563   1.26150
-  8.00000   6.00000    180112                znucl, zion, pspdat
    8 -116133    2    4       600   0.00000   pspcod,pspxc,lmax,lloc,mmax,r2well
    5.99000000000000    4.00000000000000    0.00000000000000   rchrg,fchrg,qchrg
     nproj     2     2     1
     extension_switch     1
  pspatm : epsatm=    6.22910522
         --- l  ekb(1:nproj) -->
             0    6.050032    0.820363
             1   -4.739617   -1.153841
             2   -1.335834
 pspatm: atomic psp has been read  and splines computed

   4.54359849E+03                                ecore*ucvol(ha*bohr**3)

 ==>  initialize data related to q vector <==

 The list of irreducible perturbations for this q vector is:
    1)    idir= 1    ipert=  11
    2)    idir= 2    ipert=  11
    3)    idir= 3    ipert=  11

 Perturbation wavevector (in red.coord.)   0.000000  0.000000  0.000000
 Perturbation : derivative vs k along direction   1

 dfpt_looppert : COMMENT -
  In a d/dk calculation, iscf is set to -3 automatically.
 The set of symmetries contains only one element for this perturbation.
 symkpt : not enough symmetry to change the number of k points.

 Initialisation of the first-order wave-functions :
  ireadwf=   0

--- !BeginCycle
iteration_state: {dtset: 1, }
[...]
 Expectation of eigenvalue derivatives (hartree) for nkpt=   2  k points:
  (in case of degenerate eigenvalues, averaged derivative)
 kpt#   1, nband= 41, wtk=  0.50000, kpt=  0.5000  0.5000  0.0000 (reduced coord)
  -0.00000   -0.00000   -0.00000    0.00000    0.00000   -0.00000    0.00000    0.00000
  -0.00000   -0.00000    0.00000    0.00000   -0.00000    0.00000    0.00000   -0.00000
   0.00000    0.00000   -0.00000   -0.00000    0.00000    0.00000    0.00000    0.00000
   0.00000    0.00000    0.00000    0.00000    0.00000   -0.00000    0.00000    0.00000
  -0.00000   -0.00000    0.00000    0.00000    0.00000   -0.00000   -0.00000    0.00000
  -0.00000
 prteigrs : prtvol=0 or 1, do not print more k-points.

 Eight components of 2nd-order total energy (hartree) are
 1,2,3: 0th-order hamiltonian combined with 1st-order wavefunctions
     kin0=   6.82592803E+01 eigvalue=   2.83667756E+00  local=  -3.48691893E+01
 4,5,6: 1st-order hamiltonian combined with 1st and 0th-order wfs
     kin1=  -8.17815056E+01  Hartree=   0.00000000E+00     xc=   0.00000000E+00
 7,8,9: eventually, occupation + non-local contributions
    edocc=   7.45799473E+00     enl0=  -3.94757224E+00   enl1=   2.30712363E+00
 1-9 gives the relaxation energy (to be shifted if some occ is /=2.0)
   erelax=  -3.97371910E+01
  No Ewald or frozen-wf contrib.: the relaxation energy is the total one
 2DEtotal=   -0.3973719098E+02 Ha. Also 2DEtotal=   -0.108130395738E+04 eV
    (  non-var. 2DEtotal :   -3.9737190984E+01 Ha)

 Perturbation wavevector (in red.coord.)   0.000000  0.000000  0.000000
 Perturbation : derivative vs k along direction   2
 The set of symmetries contains only one element for this perturbation.
 symkpt : not enough symmetry to change the number of k points.

[...]

 Perturbation wavevector (in red.coord.)   0.000000  0.000000  0.000000
 Perturbation : derivative vs k along direction   3
 The set of symmetries contains only one element for this perturbation.
 symkpt : not enough symmetry to change the number of k points.

 Initialisation of the first-order wave-functions :
  ireadwf=   0

--- !BeginCycle
iteration_state: {dtset: 1, }
solver: {iscf: 7, nstep: 2000, nline: 4, wfoptalg: 0, }
tolerances: {tolwfr: 1.00E-20, }
...

     iter   2DEtotal(Ha)        deltaE(Ha) residm    vres2
-ETOT  1  -39.440770412584     -3.944E+01 1.126E-01 0.000E+00
 ETOT  2  -39.552470379201     -1.117E-01 1.501E-02 0.000E+00
 ETOT  3  -39.554243386228     -1.773E-03 3.406E-03 0.000E+00
 ETOT  4  -39.554286976867     -4.359E-05 4.976E-04 0.000E+00
 ETOT  5  -39.554288327532     -1.351E-06 2.131E-04 0.000E+00
 ETOT  6  -39.554288373077     -4.555E-08 3.373E-05 0.000E+00
 ETOT  7  -39.554288374728     -1.651E-09 1.337E-05 0.000E+00
 ETOT  8  -39.554288374791     -6.266E-11 2.391E-06 0.000E+00
 ETOT  9  -39.554288374793     -2.508E-12 1.017E-06 0.000E+00
 ETOT 10  -39.554288374793     -7.816E-14 2.099E-07 0.000E+00
 ETOT 11  -39.554288374793      1.421E-14 9.556E-08 0.000E+00
 ETOT 12  -39.554288374793      3.553E-14 1.982E-08 0.000E+00
 ETOT 13  -39.554288374793     -2.842E-14 8.957E-09 0.000E+00
 ETOT 14  -39.554288374793      2.132E-14 1.894E-09 0.000E+00
 ETOT 15  -39.554288374793     -2.842E-14 8.058E-10 0.000E+00
 ETOT 16  -39.554288374793      0.000E+00 1.892E-10 0.000E+00
 ETOT 17  -39.554288374793      0.000E+00 7.216E-11 0.000E+00
 ETOT 18  -39.554288374793      0.000E+00 1.928E-11 0.000E+00
 ETOT 19  -39.554288374793      0.000E+00 6.481E-12 0.000E+00
 ETOT 20  -39.554288374793      7.105E-15 2.001E-12 0.000E+00
 ETOT 21  -39.554288374793     -7.105E-15 5.837E-13 0.000E+00
 ETOT 22  -39.554288374793      7.105E-15 2.108E-13 0.000E+00
 ETOT 23  -39.554288374793      3.553E-14 5.688E-14 0.000E+00
 ETOT 24  -39.554288374793     -1.421E-14 2.248E-14 0.000E+00
 ETOT 25  -39.554288374793      2.132E-14 6.068E-15 0.000E+00
 ETOT 26  -39.554288374793     -2.132E-14 2.422E-15 0.000E+00
 ETOT 27  -39.554288374793      7.105E-15 6.531E-16 0.000E+00
 ETOT 28  -39.554288374793     -7.105E-15 2.629E-16 0.000E+00
 ETOT 29  -39.554288374793      1.421E-14 7.079E-17 0.000E+00
 ETOT 30  -39.554288374793     -7.105E-15 2.871E-17 0.000E+00
 ETOT 31  -39.554288374793      7.105E-15 7.716E-18 0.000E+00
 ETOT 32  -39.554288374793     -1.421E-14 3.150E-18 0.000E+00
 ETOT 33  -39.554288374793     -7.105E-15 8.446E-19 0.000E+00
 ETOT 34  -39.554288374793      7.105E-15 3.467E-19 0.000E+00
 ETOT 35  -39.554288374793     -1.421E-14 9.278E-20 0.000E+00
 ETOT 36  -39.554288374793      7.105E-15 3.826E-20 0.000E+00
 ETOT 37  -39.554288374793      0.000E+00 1.022E-20 0.000E+00
 ETOT 38  -39.554288374793     -7.105E-15 9.826E-21 0.000E+00

 At SCF step   38   max residual=  9.83E-21 < tolwfr=  1.00E-20 =>converged.

 ----iterations are completed or convergence reached----

 dfpt_looppert: DFPT cycle converged with prtwf=-1. Will skip output of the 1st-order WFK file.
 dfpt_looppert : ek2=    8.0687326691E+01
          f-sum rule ratio=    1.0076998793E+00
 prteigrs : about to open file /scratch/users/j/a/jabreu/flow_simple_10atoms/flow/w464/t1/tmpdata/tmp_1WF1_EIG
 Expectation of eigenvalue derivatives (hartree) for nkpt=   2  k points:
  (in case of degenerate eigenvalues, averaged derivative)
 kpt#   1, nband= 41, wtk=  0.50000, kpt=  0.5000  0.5000  0.0000 (reduced coord)
   0.00000    0.00000    0.00000    0.00000   -0.00000    0.00000    0.00000    0.00000
   0.00000    0.00000    0.00000    0.00000   -0.00000   -0.00000    0.00000    0.00000
  -0.00000    0.00000   -0.00000   -0.00000    0.00000    0.00000   -0.00000   -0.00000
   0.00000   -0.00000    0.00000   -0.00000   -0.00000   -0.00000   -0.00000    0.00000
   0.00000    0.00000    0.00000    0.00000    0.00000    0.00000   -0.00000    0.00000
   0.00000
 prteigrs : prtvol=0 or 1, do not print more k-points.

 Eight components of 2nd-order total energy (hartree) are
 1,2,3: 0th-order hamiltonian combined with 1st-order wavefunctions
     kin0=   6.74945457E+01 eigvalue=   2.81442324E+00  local=  -3.42449950E+01
 4,5,6: 1st-order hamiltonian combined with 1st and 0th-order wfs
     kin1=  -8.13086094E+01  Hartree=   0.00000000E+00     xc=   0.00000000E+00
 7,8,9: eventually, occupation + non-local contributions
    edocc=   7.50143044E+00     enl0=  -4.01111595E+00   enl1=   2.20003262E+00
 1-9 gives the relaxation energy (to be shifted if some occ is /=2.0)
   erelax=  -3.95542884E+01
  No Ewald or frozen-wf contrib.: the relaxation energy is the total one
 2DEtotal=   -0.3955428837E+02 Ha. Also 2DEtotal=   -0.107632692428E+04 eV
    (  non-var. 2DEtotal :   -3.9554288375E+01 Ha)

 CALCULATION OF EFFECTIVE MASSES
 NOTE : Additional infos (eff. mass eigenvalues, eigenvectors and, if degenerate, average mass) are available in stdout.

 K-point ( 0.500, 0.500, 0.000) | band =    32
 Effective mass tensor:
             -3.4002013451              1.9078876542             -1.2595562900
              1.9078876542             -5.1023557259             -0.8174531623
             -1.2595562900             -0.8174531623             -3.5228590167
 Effective mass tensor eigenvalues:
             -6.3403854512             -4.4910235068             -1.1940071297
 Angular average effective mass 1/(<1/m>)=  -2.4632534991
 Angular average effective mass for Frohlich model (<m**0.5>)**2=  -2.9207744994
 Effective masses along directions: (cart. coord. / red. coord. -> eff. mass)
    1:   1.000000  0.000000  0.000000 /   0.926104  0.377269  0.000000 ->  -1.9645129371
    2:   0.000000  1.000000  0.000000 /   0.000000  1.000000  0.000000 ->  -3.2716809672
    3:   0.000000  0.000000  1.000000 /   0.492885  0.492885  0.717028 ->  -2.4800594133
    4:   0.577350  0.577350  0.577350 /   0.591626  0.689083  0.418501 ->  -3.3363590671
    5:   0.000000  0.707107  0.707107 /   0.378581  0.743880  0.550744 ->  -4.9504578893
    6:   0.707107  0.000000  0.707107 /   0.709926  0.493779  0.502183 ->  -4.5202526525
    7:   0.707107  0.707107  0.000000 /   0.603673  0.797232  0.000000 ->  -1.5740234969

 K-point ( 0.382, 0.382, 0.382) | band =    33
 Effective mass tensor:
              1.8169168676             -0.0121847693             -0.0436259709
             -0.0121847693              1.8277871966             -0.0283094778
             -0.0436259709             -0.0283094778              1.7343356781
 Effective mass tensor eigenvalues:
              1.7076516296              1.8356940559              1.8356940568
 Angular average effective mass 1/(<1/m>)=   1.7909317555
 Angular average effective mass for Frohlich model (<m**0.5>)**2=   1.7915637868
 Effective masses along directions: (cart. coord. / red. coord. -> eff. mass)
    1:   1.000000  0.000000  0.000000 /   0.926104  0.377269  0.000000 ->   1.8157284642
    2:   0.000000  1.000000  0.000000 /   0.000000  1.000000  0.000000 ->   1.8272335022
    3:   0.000000  0.000000  1.000000 /   0.492885  0.492885  0.717028 ->   1.7328405776
    4:   0.577350  0.577350  0.577350 /   0.591626  0.689083  0.418501 ->   1.7353322130
    5:   0.000000  0.707107  0.707107 /   0.378581  0.743880  0.550744 ->   1.7506628670
    6:   0.707107  0.000000  0.707107 /   0.709926  0.493779  0.502183 ->   1.7306064180
    7:   0.707107  0.707107  0.000000 /   0.603673  0.797232  0.000000 ->   1.8086573805

 END OF EFFECTIVE MASSES SECTION

 ---- first-order wavefunction calculations are completed ----

 Total localisation tensor (bohr^2) in cartesian coordinates
  WARNING : still subject to testing - especially symmetries.
      direction              matrix element
   alpha     beta       real part   imaginary part
     1        1       0.8457771697    0.0000000000
     1        2       0.2698744485    0.0000000000
     1        3       0.9662512422    0.0000000000
     2        1       0.2698744485    0.0000000000
     2        2       0.6050145200    0.0000000000
     2        3       0.6270125518    0.0000000000
     3        1       0.9662512422    0.0000000000
     3        2       0.6270125518    0.0000000000
     3        3       2.6565991058    0.0000000000

 respfn : d/dk was computed, but no 2DTE, so no DDB output.

== END DATASET(S) ==============================================================

 -outvars: echo values of variables after computation  --------
            acell      1.0000000000E+00  1.0000000000E+00  1.0000000000E+00 Bohr
              amu      4.00780000E+01  1.20110000E+01  1.59994000E+01
             ecut      4.40000000E+01 Hartree
           etotal     -3.9554288375E+01
            fcart      0.0000000000E+00  0.0000000000E+00  0.0000000000E+00
                       0.0000000000E+00  0.0000000000E+00  0.0000000000E+00
                       0.0000000000E+00  0.0000000000E+00  0.0000000000E+00
                       0.0000000000E+00  0.0000000000E+00  0.0000000000E+00
                       0.0000000000E+00  0.0000000000E+00  0.0000000000E+00
                       0.0000000000E+00  0.0000000000E+00  0.0000000000E+00
                       0.0000000000E+00  0.0000000000E+00  0.0000000000E+00
                       0.0000000000E+00  0.0000000000E+00  0.0000000000E+00
                       0.0000000000E+00  0.0000000000E+00  0.0000000000E+00
                       0.0000000000E+00  0.0000000000E+00  0.0000000000E+00
-          fftalg         512
           irdden           1
           irdwfk           1
           istwfk        1    0
              ixc     -116133
              kpt      5.00000000E-01  5.00000000E-01  0.00000000E+00
                       3.82352941E-01  3.82352941E-01  3.82352941E-01
           kptopt           0
P           mkmem           2
P          mkqmem           2
P          mk1mem           2
            natom          10
            nband          41
           nbdbuf           4
            ngfft          72      72      72
             nkpt           2
            nstep        2000
             nsym          12
           ntypat           3
              occ      2.000000  2.000000  2.000000  2.000000  2.000000  2.000000
                       2.000000  2.000000  2.000000  2.000000  2.000000  2.000000
                       2.000000  2.000000  2.000000  2.000000  2.000000  2.000000
                       2.000000  2.000000  2.000000  2.000000  2.000000  2.000000
                       2.000000  2.000000  2.000000  2.000000  2.000000  2.000000
                       2.000000  2.000000  0.000000  0.000000  0.000000  0.000000
                       0.000000  0.000000  0.000000  0.000000  0.000000
        optdriver           1
            prtwf          -1
            rfdir           1       1       1
           rfelfd           2
            rprim      8.6653619584E+00  0.0000000000E+00  8.2014874934E+00
                       3.5300280800E+00  7.9137475083E+00  8.2014874934E+00
                       0.0000000000E+00  0.0000000000E+00  1.1931173244E+01
          spgroup         167
           strten      0.0000000000E+00  0.0000000000E+00  0.0000000000E+00
                       0.0000000000E+00  0.0000000000E+00  0.0000000000E+00
           symrel      1  0  0   0  1  0   0  0  1      -1  0  0   0 -1  0   0  0 -1
                       0  1  0   1  0  0   0  0  1       0 -1  0  -1  0  0   0  0 -1
                       0  0  1   1  0  0   0  1  0       0  0 -1  -1  0  0   0 -1  0
                       1  0  0   0  0  1   0  1  0      -1  0  0   0  0 -1   0 -1  0
                       0  1  0   0  0  1   1  0  0       0 -1  0   0  0 -1  -1  0  0
                       0  0  1   0  1  0   1  0  0       0  0 -1   0 -1  0  -1  0  0
            tnons      0.0000000  0.0000000  0.0000000     0.0000000  0.0000000  0.0000000
                       0.5000000  0.5000000  0.5000000     0.5000000  0.5000000  0.5000000
                      -0.0000000  0.0000000  0.0000000     0.0000000  0.0000000  0.0000000
                       0.5000000  0.5000000  0.5000000     0.5000000  0.5000000  0.5000000
                      -0.0000000  0.0000000  0.0000000     0.0000000  0.0000000  0.0000000
                       0.5000000  0.5000000  0.5000000     0.5000000  0.5000000  0.5000000
           tolwfr      1.00000000E-20
            typat      1  1  2  2  3  3  3  3  3  3
           useylm           1
              wtk        0.50000    0.50000
           xangst      3.2267612291E+00  2.0938874080E+00  7.4968927342E+00
                       0.0000000000E+00  0.0000000000E+00  0.0000000000E+00
                       1.6133806145E+00  1.0469437040E+00  3.7484463671E+00
                       4.8401418436E+00  3.1408311119E+00  1.1245339101E+01
                       2.9986429591E+00  4.1524760620E+00  8.5985388185E+00
                       5.4966114340E+00  2.1291861619E+00  8.0884866252E+00
                       3.6551125494E+00  3.1408311119E+00  5.4416863423E+00
                       3.4548794991E+00  3.5298753923E-02  6.3952466500E+00
                       9.5691102419E-01  2.0585886540E+00  6.9052988433E+00
                       2.7984099088E+00  1.0469437040E+00  9.5520991262E+00
            xcart      6.0976950192E+00  3.9568737542E+00  1.4167074115E+01
                       0.0000000000E+00  0.0000000000E+00  0.0000000000E+00
                       3.0488475096E+00  1.9784368771E+00  7.0835370577E+00
                       9.1465425288E+00  5.9353106312E+00  2.1250611173E+01
                       5.6666139629E+00  7.8470425306E+00  1.6248883510E+01
                       1.0387090269E+01  4.0235787319E+00  1.5285024551E+01
                       6.9071617033E+00  5.9353106312E+00  1.0283296888E+01
                       6.5287760755E+00  6.6704977747E-02  1.2085264721E+01
                       1.8082997693E+00  3.8901687764E+00  1.3049123680E+01
                       5.2882283351E+00  1.9784368771E+00  1.8050851343E+01
             xred      5.0000000000E-01  5.0000000000E-01  5.0000000000E-01
                       0.0000000000E+00  0.0000000000E+00  0.0000000000E+00
                       2.5000000000E-01  2.5000000000E-01  2.5000000000E-01
                       7.5000000000E-01  7.5000000000E-01  7.5000000000E-01
                       2.5000000000E-01  9.9157100000E-01  5.0842900000E-01
                       9.9157100000E-01  5.0842900000E-01  2.5000000000E-01
                       4.9157100000E-01  7.5000000000E-01  8.4290000000E-03
                       7.5000000000E-01  8.4290000000E-03  4.9157100000E-01
                       8.4290000000E-03  4.9157100000E-01  7.5000000000E-01
                       5.0842900000E-01  2.5000000000E-01  9.9157100000E-01
            znucl       20.00000    6.00000    8.00000

- Timing analysis has been suppressed with timopt=0

 Suggested references for the acknowledgment of ABINIT usage.

 Calculation completed.
.Delivered   2 WARNINGs and   5 COMMENTs to log file.