.Version 9.5.1 of ABINIT

 ABINIT is a project of the Universite Catholique de Louvain,
 Corning Inc. and other collaborators, see ~abinit/doc/developers/contributors.txt .
 acknowledgments of the ABINIT effort.

.Starting date : Wed 19 May 2021.
- ( at 15h33 )

- input  file    -> /scratch/users/j/a/jabreu/flow_simple_9atoms/flow/w179/t1/run.abi
- output file    -> /scratch/users/j/a/jabreu/flow_simple_9atoms/flow/w179/t1/run.abo
- root for input  files -> /scratch/users/j/a/jabreu/flow_simple_9atoms/flow/w179/t1/indata/in
- root for output files -> /scratch/users/j/a/jabreu/flow_simple_9atoms/flow/w179/t1/outdata/out

 Symmetries : space group Fm -3 m (#225); Bravais cF (face-center cubic)
     intxc =       0      iscf =       7    lmnmax =      32     lnmax =       8
     mgfft =      90  mpssoang =       4    mqgrid =    3378     natom =       9
  nloc_mem =       1    nspden =       1   nspinor =       1    nsppol =       1
      nsym =      48    n1xccc =    2501    ntypat =       3    occopt =       1
   xclevel =       2
-    mband =          48        mffmem =           1         mkmem =           2
-   mkqmem =           2        mk1mem =           2           mpw =       26238
      nfft =      729000          nkpt =           2
  Rough estimation (10% accuracy) of disk space for files :

------------- Echo of variables that govern the present computation ------------
-
- outvars: echo of selected default values
-   iomode0 =  0 , fftalg0 =512 , wfoptalg0 =  0
-
- outvars: echo of global parameters not present in the input file
-  max_nthreads =    0
-
 -outvars: echo values of preprocessed input variables --------
            acell      1.0000000000E+00  1.0000000000E+00  1.0000000000E+00 Bohr
              amu      1.32905430E+02  1.95080000E+02  7.99040000E+01
             ecut      4.20000000E+01 Hartree
-          fftalg         512
           irdden           1
           irdwfk           1
           istwfk        1    1
              ixc     -116133
              kpt      0.00000000E+00  0.00000000E+00  0.00000000E+00
                       5.00000000E-01  0.00000000E+00  5.00000000E-01
           kptopt           0
P           mkmem           2
P          mkqmem           2
P          mk1mem           2
            natom           9
            nband          48
           nbdbuf           4
            ngfft          90      90      90
             nkpt           2
            nstep        2000
             nsym          48
           ntypat           3
              occ      2.000000  2.000000  2.000000  2.000000  2.000000  2.000000
                       2.000000  2.000000  2.000000  2.000000  2.000000  2.000000
                       2.000000  2.000000  2.000000  2.000000  2.000000  2.000000
                       2.000000  2.000000  2.000000  2.000000  2.000000  2.000000
                       2.000000  2.000000  2.000000  2.000000  2.000000  2.000000
                       2.000000  2.000000  2.000000  2.000000  2.000000  2.000000
                       2.000000  2.000000  2.000000  0.000000  0.000000  0.000000
                       0.000000  0.000000  0.000000  0.000000  0.000000  0.000000
        optdriver           1
            prtwf          -1
            rfdir           1       1       1
           rfelfd           2
            rprim      1.2278755398E+01  0.0000000000E+00  7.0891427346E+00
                       4.0929184662E+00  1.1576521609E+01  7.0891427346E+00
                       0.0000000000E+00  0.0000000000E+00  1.4178285469E+01
          spgroup         225
           symrel      1  0  0   0  1  0   0  0  1      -1  0  0   0 -1  0   0  0 -1
                       0 -1  1   0 -1  0   1 -1  0       0  1 -1   0  1  0  -1  1  0
                      -1  0  0  -1  0  1  -1  1  0       1  0  0   1  0 -1   1 -1  0
                       0  1 -1   1  0 -1   0  0 -1       0 -1  1  -1  0  1   0  0  1
                      -1  0  0  -1  1  0  -1  0  1       1  0  0   1 -1  0   1  0 -1
                       0 -1  1   1 -1  0   0 -1  0       0  1 -1  -1  1  0   0  1  0
                       1  0  0   0  0  1   0  1  0      -1  0  0   0  0 -1   0 -1  0
                       0  1 -1   0  0 -1   1  0 -1       0 -1  1   0  0  1  -1  0  1
                      -1  0  1  -1  1  0  -1  0  0       1  0 -1   1 -1  0   1  0  0
                       0 -1  0   1 -1  0   0 -1  1       0  1  0  -1  1  0   0  1 -1
                       1  0 -1   0  0 -1   0  1 -1      -1  0  1   0  0  1   0 -1  1
                       0  1  0   0  0  1   1  0  0       0 -1  0   0  0 -1  -1  0  0
                       1  0 -1   0  1 -1   0  0 -1      -1  0  1   0 -1  1   0  0  1
                       0 -1  0   0 -1  1   1 -1  0       0  1  0   0  1 -1  -1  1  0
                      -1  0  1  -1  0  0  -1  1  0       1  0 -1   1  0  0   1 -1  0
                       0  1  0   1  0  0   0  0  1       0 -1  0  -1  0  0   0  0 -1
                       0  0 -1   0  1 -1   1  0 -1       0  0  1   0 -1  1  -1  0  1
                       1 -1  0   0 -1  1   0 -1  0      -1  1  0   0  1 -1   0  1  0
                       0  0  1   1  0  0   0  1  0       0  0 -1  -1  0  0   0 -1  0
                      -1  1  0  -1  0  0  -1  0  1       1 -1  0   1  0  0   1  0 -1
                       0  0  1   0  1  0   1  0  0       0  0 -1   0 -1  0  -1  0  0
                       1 -1  0   0 -1  0   0 -1  1      -1  1  0   0  1  0   0  1 -1
                       0  0 -1   1  0 -1   0  1 -1       0  0  1  -1  0  1   0 -1  1
                      -1  1  0  -1  0  1  -1  0  0       1 -1  0   1  0 -1   1  0  0
           tolwfr      1.00000000E-20
            typat      1  1  2  3  3  3  3  3  3
           useylm           1
              wtk        0.50000    0.50000
           xangst      2.1658791689E+00  1.5315078476E+00  3.7514127636E+00
                       6.4976375068E+00  4.5945235427E+00  1.1254238291E+01
                       0.0000000000E+00  0.0000000000E+00  0.0000000000E+00
                       3.1764307398E+00  4.6968956533E+00  9.5039116264E+00
                       2.0211031417E+00  1.4291357370E+00  7.5028255272E+00
                       6.6424135339E+00  4.6968956533E+00  7.5028255272E+00
                       5.4870859359E+00  1.4291357370E+00  5.5017394280E+00
                       3.1764307398E+00  4.6968956533E+00  5.5017394280E+00
                       5.4870859359E+00  1.4291357370E+00  9.5039116264E+00
            xcart      4.0929184662E+00  2.8941304023E+00  7.0891427346E+00
                       1.2278755399E+01  8.6823912068E+00  2.1267428204E+01
                       0.0000000000E+00  0.0000000000E+00  0.0000000000E+00
                       6.0025841783E+00  8.8758464594E+00  1.7959790165E+01
                       3.8193314242E+00  2.7006751497E+00  1.4178285469E+01
                       1.2552342440E+01  8.8758464594E+00  1.4178285469E+01
                       1.0369089686E+01  2.7006751497E+00  1.0396780773E+01
                       6.0025841783E+00  8.8758464594E+00  1.0396780773E+01
                       1.0369089686E+01  2.7006751497E+00  1.7959790165E+01
             xred      2.5000000000E-01  2.5000000000E-01  2.5000000000E-01
                       7.5000000000E-01  7.5000000000E-01  7.5000000000E-01
                       0.0000000000E+00  0.0000000000E+00  0.0000000000E+00
                       2.3328900000E-01  7.6671100000E-01  7.6671100000E-01
                       2.3328900000E-01  2.3328900000E-01  7.6671100000E-01
                       7.6671100000E-01  7.6671100000E-01  2.3328900000E-01
                       7.6671100000E-01  2.3328900000E-01  2.3328900000E-01
                       2.3328900000E-01  7.6671100000E-01  2.3328900000E-01
                       7.6671100000E-01  2.3328900000E-01  7.6671100000E-01
            znucl       55.00000   78.00000   35.00000

 chkinp: Checking input parameters for consistency.

== DATASET  1 ==================================================================
-   mpi_nproc: 1, omp_nthreads: -1 (-1 if OMP is not activated)

--- !DatasetInfo
iteration_state: {dtset: 1, }
dimensions: {natom: 9, nkpt: 2, mband: 48, nsppol: 1, nspinor: 1, nspden: 1, mpw: 26238, }
cutoff_energies: {ecut:  42.0, pawecutdg:  -1.0, }
electrons: {nelect:   7.80000000E+01, charge:   0.00000000E+00, occopt:   1.00000000E+00, tsmear:   1.00000000E-02, }
meta: {optdriver: 1, rfelfd: 2, }
...

 Real(R)+Recip(G) space primitive vectors, cartesian coordinates (Bohr,Bohr^-1):
 R(1)= 12.2787554  0.0000000  7.0891427  G(1)=  0.0814415 -0.0287939  0.0000000
 R(2)=  4.0929185 11.5765216  7.0891427  G(2)=  0.0000000  0.0863817  0.0000000
 R(3)=  0.0000000  0.0000000 14.1782855  G(3)= -0.0407207 -0.0287939  0.0705304
 Unit cell volume ucvol=  2.0153763E+03 bohr^3
 Angles (23,13,12)=  6.00000000E+01  6.00000000E+01  6.00000000E+01 degrees

 getcut: wavevector=  0.0000  0.0000  0.0000  ngfft=  90  90  90
         ecut(hartree)=     42.000   => boxcut(ratio)=   2.17612

--- Pseudopotential description ------------------------------------------------
- pspini: atom type   1  psp file is /scratch/users/j/a/jabreu/pseudos/PBEsol/Cs.psp8
- pspatm: opening atomic psp file    /scratch/users/j/a/jabreu/pseudos/PBEsol/Cs.psp8
- Cs    ONCVPSP-3.3.0  r_core=   2.27353   1.85623   2.01788   1.90105
- 55.00000   9.00000    180112                znucl, zion, pspdat
    8 -116133    3    4       600   0.00000   pspcod,pspxc,lmax,lloc,mmax,r2well
    5.99000000000000    5.00000000000000    0.00000000000000   rchrg,fchrg,qchrg
     nproj     2     2     2     2
     extension_switch     1
  pspatm : epsatm=   22.12462445
         --- l  ekb(1:nproj) -->
             0    6.214110    0.767882
             1    6.311966    0.793598
             2    3.769790    0.913105
             3   -9.247129   -2.432478
 pspatm: atomic psp has been read  and splines computed

- pspini: atom type   2  psp file is /scratch/users/j/a/jabreu/pseudos/PBEsol/Pt.psp8
- pspatm: opening atomic psp file    /scratch/users/j/a/jabreu/pseudos/PBEsol/Pt.psp8
- Pt    ONCVPSP-3.3.0  r_core=   1.45722   1.45722   1.45722   1.91724
- 78.00000  18.00000    180112                znucl, zion, pspdat
    8 -116133    3    4       500   0.00000   pspcod,pspxc,lmax,lloc,mmax,r2well
    4.99000000000000    5.00000000000000    0.00000000000000   rchrg,fchrg,qchrg
     nproj     2     2     2     2
     extension_switch     1
  pspatm : epsatm=   26.54019552
         --- l  ekb(1:nproj) -->
             0   18.149684    1.747248
             1    8.048135    1.208190
             2    2.365973    0.348456
             3    3.491561    0.381218
 pspatm: atomic psp has been read  and splines computed

- pspini: atom type   3  psp file is /scratch/users/j/a/jabreu/pseudos/PBEsol/Br.psp8
- pspatm: opening atomic psp file    /scratch/users/j/a/jabreu/pseudos/PBEsol/Br.psp8
- Br    ONCVPSP-3.3.0  r_core=   1.81012   1.51356   1.92136
- 35.00000   7.00000    180112                znucl, zion, pspdat
    8 -116133    2    4       600   0.00000   pspcod,pspxc,lmax,lloc,mmax,r2well
    5.99000000000000    8.00000000000000    0.00000000000000   rchrg,fchrg,qchrg
     nproj     2     2     2
[...]
  ireadwf=   0

--- !BeginCycle
iteration_state: {dtset: 1, }
solver: {iscf: 7, nstep: 2000, nline: 4, wfoptalg: 0, }
tolerances: {tolwfr: 1.00E-20, }
...

     iter   2DEtotal(Ha)        deltaE(Ha) residm    vres2
-ETOT  1  -26.029325934447     -2.603E+01 3.493E-02 0.000E+00
 ETOT  2  -26.044087754855     -1.476E-02 1.985E-03 0.000E+00
 ETOT  3  -26.044420754945     -3.330E-04 1.193E-04 0.000E+00
 ETOT  4  -26.044444619075     -2.386E-05 2.259E-05 0.000E+00
 ETOT  5  -26.044446886174     -2.267E-06 2.621E-06 0.000E+00
 ETOT  6  -26.044447125060     -2.389E-07 7.138E-07 0.000E+00
 ETOT  7  -26.044447151741     -2.668E-08 9.304E-08 0.000E+00
 ETOT  8  -26.044447154829     -3.088E-09 2.835E-08 0.000E+00
 ETOT  9  -26.044447155195     -3.660E-10 3.728E-09 0.000E+00
 ETOT 10  -26.044447155239     -4.419E-11 1.170E-09 0.000E+00
 ETOT 11  -26.044447155244     -5.372E-12 1.524E-10 0.000E+00
 ETOT 12  -26.044447155245     -6.466E-13 4.880E-11 0.000E+00
 ETOT 13  -26.044447155245     -9.237E-14 6.285E-12 0.000E+00
 ETOT 14  -26.044447155245     -1.066E-14 2.043E-12 0.000E+00
 ETOT 15  -26.044447155245     -2.132E-14 2.605E-13 0.000E+00
 ETOT 16  -26.044447155245      3.553E-14 8.574E-14 0.000E+00
 ETOT 17  -26.044447155245     -2.132E-14 1.083E-14 0.000E+00
 ETOT 18  -26.044447155245      1.066E-14 3.602E-15 0.000E+00
 ETOT 19  -26.044447155245      7.105E-15 4.514E-16 0.000E+00
 ETOT 20  -26.044447155245      1.066E-14 1.515E-16 0.000E+00
 ETOT 21  -26.044447155245     -7.105E-15 1.885E-17 0.000E+00
 ETOT 22  -26.044447155245      3.553E-15 6.373E-18 0.000E+00
 ETOT 23  -26.044447155245      0.000E+00 7.888E-19 0.000E+00
 ETOT 24  -26.044447155245     -1.421E-14 2.683E-19 0.000E+00
 ETOT 25  -26.044447155245      7.105E-15 3.305E-20 0.000E+00
 ETOT 26  -26.044447155245     -7.105E-15 1.131E-20 0.000E+00
 ETOT 27  -26.044447155245      3.553E-15 9.968E-21 0.000E+00

 At SCF step   27   max residual=  9.97E-21 < tolwfr=  1.00E-20 =>converged.

 ----iterations are completed or convergence reached----

 dfpt_looppert: DFPT cycle converged with prtwf=-1. Will skip output of the 1st-order WFK file.
 dfpt_looppert : ek2=    4.5954512309E+01
          f-sum rule ratio=    1.0549758462E+00
 prteigrs : about to open file /scratch/users/j/a/jabreu/flow_simple_9atoms/flow/w179/t1/tmpdata/tmp_1WF1_EIG
 Expectation of eigenvalue derivatives (hartree) for nkpt=   2  k points:
  (in case of degenerate eigenvalues, averaged derivative)
 kpt#   1, nband= 48, wtk=  0.50000, kpt=  0.0000  0.0000  0.0000 (reduced coord)
   0.00000   -0.00000   -0.00000   -0.00000   -0.00000   -0.00000    0.00000   -0.00000
  -0.00000   -0.00000    0.00000    0.00000   -0.00000   -0.00000   -0.00000    0.00000
   0.00000    0.00000   -0.00000    0.00000    0.00000    0.00000    0.00000    0.00000
  -0.00000   -0.00000   -0.00000    0.00000    0.00000    0.00000   -0.00000   -0.00000
  -0.00000    0.00000    0.00000    0.00000   -0.00000   -0.00000   -0.00000   -0.00000
  -0.00000   -0.00000   -0.00000    0.00000    0.00000    0.00000    0.00000    0.00000
 prteigrs : prtvol=0 or 1, do not print more k-points.

 Eight components of 2nd-order total energy (hartree) are
 1,2,3: 0th-order hamiltonian combined with 1st-order wavefunctions
     kin0=   3.32658462E+01 eigvalue=   6.97809778E-01  local=  -2.03265032E+01
 4,5,6: 1st-order hamiltonian combined with 1st and 0th-order wfs
     kin1=  -4.84809005E+01  Hartree=   0.00000000E+00     xc=   0.00000000E+00
 7,8,9: eventually, occupation + non-local contributions
    edocc=   7.14153350E+00     enl0=   5.26576085E+00   enl1=  -3.60799380E+00
 1-9 gives the relaxation energy (to be shifted if some occ is /=2.0)
   erelax=  -2.60444472E+01
  No Ewald or frozen-wf contrib.: the relaxation energy is the total one
 2DEtotal=   -0.2604444716E+02 Ha. Also 2DEtotal=   -0.708705448963E+03 eV
    (  non-var. 2DEtotal :   -2.6044447155E+01 Ha)

 CALCULATION OF EFFECTIVE MASSES
 NOTE : Additional infos (eff. mass eigenvalues, eigenvectors and, if degenerate, average mass) are available in stdout.

 COMMENTS:
 - At k-point ( 0.000, 0.000, 0.000), bands    37 through    39
   are DEGENERATE (effective mass tensor is therefore not defined).
   See Section IIIB Eqs. (67)-(70) and Appendix E of PRB 93 205147 (2016).
 - Angular average effective mass for Frohlich model is to be averaged over degenerate bands. See later.
 - Associated theta integrals calculated with ntheta=   1000 points.

 K-point ( 0.000, 0.000, 0.000) | band =    37
 Transport equivalent effective mass tensor:
             -0.9050115567             -0.0000002439             -0.0000000183
             -0.0000002439             -0.9050113043             -0.0000000136
             -0.0000000183             -0.0000000136             -0.9050101547
 Transport equivalent effective mass tensor eigenvalues:
             -0.9050117055             -0.9050111559             -0.9050101543
 Angular average effective mass 1/(<1/m>)=  -0.8648062015
 Angular average effective mass for Frohlich model (<m**0.5>)**2=  -0.8663749972
 Effective masses along directions: (cart. coord. / red. coord. -> eff. mass)
    1:   1.000000  0.000000  0.000000 /   0.948683  0.316228  0.000000 ->  -0.9164513136
    2:   0.000000  1.000000  0.000000 /   0.000000  1.000000  0.000000 ->  -1.0270650237
    3:   0.000000  0.000000  1.000000 /   0.408248  0.408248  0.816497 ->  -0.8273467733
    4:   0.577350  0.577350  0.577350 /   0.585539  0.688047  0.428644 ->  -0.8881598176
    5:   0.000000  0.707107  0.707107 /   0.289489  0.762222  0.578977 ->  -0.8325611503
    6:   0.707107  0.000000  0.707107 /   0.731423  0.422287  0.535439 ->  -0.8554165721
    7:   0.707107  0.707107  0.000000 /   0.616798  0.787122  0.000000 ->  -0.8343055679

[...]

 K-point ( 0.000, 0.000, 0.000) | band =    39
 Transport equivalent effective mass tensor:
            -37.2686776916              0.0000014794              0.0000000493
              0.0000014794            -37.2686794136             -0.0000000411
              0.0000000493             -0.0000000411            -37.2686758758
 Transport equivalent effective mass tensor eigenvalues:
            -37.2686802652            -37.2686768414            -37.2686758744
 Angular average effective mass 1/(<1/m>)=  -3.2807280058
 Angular average effective mass for Frohlich model (<m**0.5>)**2=  -4.0421320500
 Effective masses along directions: (cart. coord. / red. coord. -> eff. mass)
    1:   1.000000  0.000000  0.000000 /   0.948683  0.316228  0.000000 ->  -2.8046215858
    2:   0.000000  1.000000  0.000000 /   0.000000  1.000000  0.000000 ->  -1.9274093086
    3:   0.000000  0.000000  1.000000 /   0.408248  0.408248  0.816497 ->  -2.4918164056
    4:   0.577350  0.577350  0.577350 /   0.585539  0.688047  0.428644 ->  -2.7174195639
    5:   0.000000  0.707107  0.707107 /   0.289489  0.762222  0.578977 ->  -4.6602363537
    6:   0.707107  0.000000  0.707107 /   0.731423  0.422287  0.535439 ->  -2.6498786264
    7:   0.707107  0.707107  0.000000 /   0.616798  0.787122  0.000000 -> -13.0297004919

 Angular average effective mass for Frohlich model, averaged over degenerate bands.
 Value of     (<<m**0.5>>)**2 =     1.726844E+00
 Absolute Value of <<m**0.5>> =     1.314094E+00

 K-point ( 0.500, 0.000, 0.500) | band =    40
 Effective mass tensor:
              0.5394622125              0.0083671176             -0.0102475843
              0.0083671176              0.5335457669              0.0144922727
             -0.0102475843              0.0144922727              0.5276293214
 Effective mass tensor eigenvalues:
              0.5098799847              0.5453786580              0.5453786581
 Angular average effective mass 1/(<1/m>)=   0.5330090069
 Angular average effective mass for Frohlich model (<m**0.5>)**2=   0.5331718604
 Effective masses along directions: (cart. coord. / red. coord. -> eff. mass)
    1:   1.000000  0.000000  0.000000 /   0.948683  0.316228  0.000000 ->   0.5391228894
    2:   0.000000  1.000000  0.000000 /   0.000000  1.000000  0.000000 ->   0.5330090069
    3:   0.000000  0.000000  1.000000 /   0.408248  0.408248  0.816497 ->   0.5270322375
    4:   0.577350  0.577350  0.577350 /   0.585539  0.688047  0.428644 ->   0.5417396266
    5:   0.000000  0.707107  0.707107 /   0.289489  0.762222  0.578977 ->   0.5450591982
    6:   0.707107  0.000000  0.707107 /   0.731423  0.422287  0.535439 ->   0.5227412236
    7:   0.707107  0.707107  0.000000 /   0.616798  0.787122  0.000000 ->   0.5448363106

 END OF EFFECTIVE MASSES SECTION

 ---- first-order wavefunction calculations are completed ----

 Total localisation tensor (bohr^2) in cartesian coordinates
  WARNING : still subject to testing - especially symmetries.
      direction              matrix element
   alpha     beta       real part   imaginary part
     1        1       1.6755113745    0.0000000000
     1        2       0.4739061794    0.0000000000
     1        3       1.1608283307    0.0000000000
     2        1       0.4739061794    0.0000000000
     2        2       1.3404090924    0.0000000000
     2        3       0.8208295807    0.0000000000
     3        1       1.1608283307    0.0000000000
     3        2       0.8208295807    0.0000000000
     3        3       3.0159205439    0.0000000000

 respfn : d/dk was computed, but no 2DTE, so no DDB output.

== END DATASET(S) ==============================================================

 -outvars: echo values of variables after computation  --------
            acell      1.0000000000E+00  1.0000000000E+00  1.0000000000E+00 Bohr
              amu      1.32905430E+02  1.95080000E+02  7.99040000E+01
             ecut      4.20000000E+01 Hartree
           etotal     -2.6044447155E+01
            fcart      0.0000000000E+00  0.0000000000E+00  0.0000000000E+00
                       0.0000000000E+00  0.0000000000E+00  0.0000000000E+00
                       0.0000000000E+00  0.0000000000E+00  0.0000000000E+00
                       0.0000000000E+00  0.0000000000E+00  0.0000000000E+00
                       0.0000000000E+00  0.0000000000E+00  0.0000000000E+00
                       0.0000000000E+00  0.0000000000E+00  0.0000000000E+00
                       0.0000000000E+00  0.0000000000E+00  0.0000000000E+00
                       0.0000000000E+00  0.0000000000E+00  0.0000000000E+00
                       0.0000000000E+00  0.0000000000E+00  0.0000000000E+00
-          fftalg         512
           irdden           1
           irdwfk           1
           istwfk        1    1
              ixc     -116133
              kpt      0.00000000E+00  0.00000000E+00  0.00000000E+00
                       5.00000000E-01  0.00000000E+00  5.00000000E-01
           kptopt           0
P           mkmem           2
P          mkqmem           2
P          mk1mem           2
            natom           9
            nband          48
           nbdbuf           4
            ngfft          90      90      90
             nkpt           2
            nstep        2000
             nsym          48
           ntypat           3
              occ      2.000000  2.000000  2.000000  2.000000  2.000000  2.000000
                       2.000000  2.000000  2.000000  2.000000  2.000000  2.000000
                       2.000000  2.000000  2.000000  2.000000  2.000000  2.000000
                       2.000000  2.000000  2.000000  2.000000  2.000000  2.000000
                       2.000000  2.000000  2.000000  2.000000  2.000000  2.000000
                       2.000000  2.000000  2.000000  2.000000  2.000000  2.000000
                       2.000000  2.000000  2.000000  0.000000  0.000000  0.000000
                       0.000000  0.000000  0.000000  0.000000  0.000000  0.000000
        optdriver           1
            prtwf          -1
            rfdir           1       1       1
           rfelfd           2
            rprim      1.2278755398E+01  0.0000000000E+00  7.0891427346E+00
                       4.0929184662E+00  1.1576521609E+01  7.0891427346E+00
                       0.0000000000E+00  0.0000000000E+00  1.4178285469E+01
          spgroup         225
           strten      0.0000000000E+00  0.0000000000E+00  0.0000000000E+00
                       0.0000000000E+00  0.0000000000E+00  0.0000000000E+00
           symrel      1  0  0   0  1  0   0  0  1      -1  0  0   0 -1  0   0  0 -1
                       0 -1  1   0 -1  0   1 -1  0       0  1 -1   0  1  0  -1  1  0
                      -1  0  0  -1  0  1  -1  1  0       1  0  0   1  0 -1   1 -1  0
                       0  1 -1   1  0 -1   0  0 -1       0 -1  1  -1  0  1   0  0  1
                      -1  0  0  -1  1  0  -1  0  1       1  0  0   1 -1  0   1  0 -1
                       0 -1  1   1 -1  0   0 -1  0       0  1 -1  -1  1  0   0  1  0
                       1  0  0   0  0  1   0  1  0      -1  0  0   0  0 -1   0 -1  0
                       0  1 -1   0  0 -1   1  0 -1       0 -1  1   0  0  1  -1  0  1
                      -1  0  1  -1  1  0  -1  0  0       1  0 -1   1 -1  0   1  0  0
                       0 -1  0   1 -1  0   0 -1  1       0  1  0  -1  1  0   0  1 -1
                       1  0 -1   0  0 -1   0  1 -1      -1  0  1   0  0  1   0 -1  1
                       0  1  0   0  0  1   1  0  0       0 -1  0   0  0 -1  -1  0  0
                       1  0 -1   0  1 -1   0  0 -1      -1  0  1   0 -1  1   0  0  1
                       0 -1  0   0 -1  1   1 -1  0       0  1  0   0  1 -1  -1  1  0
                      -1  0  1  -1  0  0  -1  1  0       1  0 -1   1  0  0   1 -1  0
                       0  1  0   1  0  0   0  0  1       0 -1  0  -1  0  0   0  0 -1
                       0  0 -1   0  1 -1   1  0 -1       0  0  1   0 -1  1  -1  0  1
                       1 -1  0   0 -1  1   0 -1  0      -1  1  0   0  1 -1   0  1  0
                       0  0  1   1  0  0   0  1  0       0  0 -1  -1  0  0   0 -1  0
                      -1  1  0  -1  0  0  -1  0  1       1 -1  0   1  0  0   1  0 -1
                       0  0  1   0  1  0   1  0  0       0  0 -1   0 -1  0  -1  0  0
                       1 -1  0   0 -1  0   0 -1  1      -1  1  0   0  1  0   0  1 -1
                       0  0 -1   1  0 -1   0  1 -1       0  0  1  -1  0  1   0 -1  1
                      -1  1  0  -1  0  1  -1  0  0       1 -1  0   1  0 -1   1  0  0
           tolwfr      1.00000000E-20
            typat      1  1  2  3  3  3  3  3  3
           useylm           1
              wtk        0.50000    0.50000
           xangst      2.1658791689E+00  1.5315078476E+00  3.7514127636E+00
                       6.4976375068E+00  4.5945235427E+00  1.1254238291E+01
                       0.0000000000E+00  0.0000000000E+00  0.0000000000E+00
                       3.1764307398E+00  4.6968956533E+00  9.5039116264E+00
                       2.0211031417E+00  1.4291357370E+00  7.5028255272E+00
                       6.6424135339E+00  4.6968956533E+00  7.5028255272E+00
                       5.4870859359E+00  1.4291357370E+00  5.5017394280E+00
                       3.1764307398E+00  4.6968956533E+00  5.5017394280E+00
                       5.4870859359E+00  1.4291357370E+00  9.5039116264E+00
            xcart      4.0929184662E+00  2.8941304023E+00  7.0891427346E+00
                       1.2278755399E+01  8.6823912068E+00  2.1267428204E+01
                       0.0000000000E+00  0.0000000000E+00  0.0000000000E+00
                       6.0025841783E+00  8.8758464594E+00  1.7959790165E+01
                       3.8193314242E+00  2.7006751497E+00  1.4178285469E+01
                       1.2552342440E+01  8.8758464594E+00  1.4178285469E+01
                       1.0369089686E+01  2.7006751497E+00  1.0396780773E+01
                       6.0025841783E+00  8.8758464594E+00  1.0396780773E+01
                       1.0369089686E+01  2.7006751497E+00  1.7959790165E+01
             xred      2.5000000000E-01  2.5000000000E-01  2.5000000000E-01
                       7.5000000000E-01  7.5000000000E-01  7.5000000000E-01
                       0.0000000000E+00  0.0000000000E+00  0.0000000000E+00
                       2.3328900000E-01  7.6671100000E-01  7.6671100000E-01
                       2.3328900000E-01  2.3328900000E-01  7.6671100000E-01
                       7.6671100000E-01  7.6671100000E-01  2.3328900000E-01
                       7.6671100000E-01  2.3328900000E-01  2.3328900000E-01
                       2.3328900000E-01  7.6671100000E-01  2.3328900000E-01
                       7.6671100000E-01  2.3328900000E-01  7.6671100000E-01
            znucl       55.00000   78.00000   35.00000

- Timing analysis has been suppressed with timopt=0

 Suggested references for the acknowledgment of ABINIT usage.

 Calculation completed.
.Delivered  14 WARNINGs and  11 COMMENTs to log file.