.Version 9.5.1 of ABINIT

 ABINIT is a project of the Universite Catholique de Louvain,
 Corning Inc. and other collaborators, see ~abinit/doc/developers/contributors.txt .
 acknowledgments of the ABINIT effort.

.Starting date : Fri  7 May 2021.
- ( at 11h47 )

- input  file    -> /scratch/users/j/a/jabreu/flow_simple_7atoms/flow/w179/t1/run.abi
- output file    -> /scratch/users/j/a/jabreu/flow_simple_7atoms/flow/w179/t1/run.abo
- root for input  files -> /scratch/users/j/a/jabreu/flow_simple_7atoms/flow/w179/t1/indata/in
- root for output files -> /scratch/users/j/a/jabreu/flow_simple_7atoms/flow/w179/t1/outdata/out

 Symmetries : space group I4 2 2 (# 97); Bravais tI (body-center tetrag.)
     intxc =       0      iscf =       7    lmnmax =      18     lnmax =       6
     mgfft =      75  mpssoang =       3    mqgrid =    3207     natom =       7
  nloc_mem =       1    nspden =       1   nspinor =       1    nsppol =       1
      nsym =       8    n1xccc =    2501    ntypat =       3    occopt =       1
   xclevel =       2
-    mband =          59        mffmem =           1         mkmem =           2
-   mkqmem =           2        mk1mem =           2           mpw =       19301
      nfft =      421875          nkpt =           2
  Rough estimation (10% accuracy) of disk space for files :

------------- Echo of variables that govern the present computation ------------
-
- outvars: echo of selected default values
-   iomode0 =  0 , fftalg0 =512 , wfoptalg0 =  0
-
- outvars: echo of global parameters not present in the input file
-  max_nthreads =    0
-
 -outvars: echo values of preprocessed input variables --------
            acell      1.0000000000E+00  1.0000000000E+00  1.0000000000E+00 Bohr
              amu      1.37327000E+02  6.97230000E+01  1.27600000E+02
        autoparal           1
             ecut      4.00000000E+01 Hartree
-          fftalg         512
           irdden           1
           irdwfk           1
           istwfk        1    0
              ixc     -116133
              kpt      0.00000000E+00  0.00000000E+00  0.00000000E+00
                      -5.00000000E-01  5.00000000E-01  5.00000000E-01
           kptopt           0
P           mkmem           2
P          mkqmem           2
P          mk1mem           2
            natom           7
            nband          59
           nbdbuf           4
            ngfft          75      75      75
             nkpt           2
            nstep        2000
             nsym           8
           ntypat           3
              occ      2.000000  2.000000  2.000000  2.000000  2.000000  2.000000
                       2.000000  2.000000  2.000000  2.000000  2.000000  2.000000
                       2.000000  2.000000  2.000000  2.000000  2.000000  2.000000
                       2.000000  2.000000  2.000000  2.000000  2.000000  2.000000
                       2.000000  2.000000  2.000000  2.000000  2.000000  2.000000
                       2.000000  2.000000  2.000000  2.000000  2.000000  2.000000
                       2.000000  2.000000  2.000000  2.000000  2.000000  2.000000
                       2.000000  2.000000  2.000000  2.000000  2.000000  2.000000
                       2.000000  2.000000  0.000000  0.000000  0.000000  0.000000
                       0.000000  0.000000  0.000000  0.000000  0.000000
        optdriver           1
            prtwf          -1
            rfdir           1       1       1
           rfelfd           2
            rprim      1.2530424415E+01  0.0000000000E+00 -3.0718593593E+00
                      -7.7109271903E+00  9.8768992038E+00 -3.0718593593E+00
                       0.0000000000E+00  0.0000000000E+00  1.2901467201E+01
          spgroup          97
           symrel      1  0  0   0  1  0   0  0  1       0  0  1  -1 -1 -1   1  0  0
                       0  1  0   1  0  0  -1 -1 -1      -1 -1 -1   0  0  1   0  1  0
                      -1  0  0   0 -1  0   1  1  1       1  1  1   0  0 -1  -1  0  0
                       0 -1  0  -1  0  0   0  0 -1       0  0 -1   1  1  1   0 -1  0
           tolwfr      1.00000000E-20
            typat      1  2  2  3  3  3  3
           useylm           1
              wtk        0.50000    0.50000
           xangst      0.0000000000E+00  0.0000000000E+00  0.0000000000E+00
                      -2.0402234631E+00  2.6133149751E+00  2.6008022196E+00
                       3.3154075072E+00  0.0000000000E+00  2.6008022196E+00
                       3.5134843951E+00  4.0593144171E-01 -4.8033597171E-03
                      -3.2485460563E+00  4.8206985085E+00  1.7880232391E+00
                       4.4328317419E-01  3.0192464168E+00  1.7880232391E+00
                       4.3925146633E+00  2.2073835334E+00  3.5808498380E+00
            xcart      0.0000000000E+00  0.0000000000E+00  0.0000000000E+00
                      -3.8554635952E+00  4.9384496019E+00  4.9148039209E+00
                       6.2652122075E+00  0.0000000000E+00  4.9148039209E+00
                       6.6395232789E+00  7.6709925356E-01 -9.0770343831E-03
                      -6.1388623765E+00  9.1097999502E+00  3.3788742412E+00
                       8.3768379853E-01  5.7055488555E+00  3.3788742412E+00
                       8.3006497483E+00  4.1713503483E+00  6.7668255168E+00
             xred      0.0000000000E+00  0.0000000000E+00  0.0000000000E+00
                      -5.5511151231E-17  5.0000000000E-01  5.0000000000E-01
                       5.0000000000E-01  0.0000000000E+00  5.0000000000E-01
                       5.7766600000E-01  7.7666000000E-02  1.5533200000E-01
                       7.7666000000E-02  9.2233400000E-01  5.0000000000E-01
                       4.2233400000E-01  5.7766600000E-01  5.0000000000E-01
                       9.2233400000E-01  4.2233400000E-01  8.4466800000E-01
            znucl       56.00000   31.00000   52.00000

 chkinp: Checking input parameters for consistency.

== DATASET  1 ==================================================================
-   mpi_nproc: 1, omp_nthreads: -1 (-1 if OMP is not activated)

--- !DatasetInfo
iteration_state: {dtset: 1, }
dimensions: {natom: 7, nkpt: 2, mband: 59, nsppol: 1, nspinor: 1, nspden: 1, mpw: 19301, }
cutoff_energies: {ecut:  40.0, pawecutdg:  -1.0, }
electrons: {nelect:   1.00000000E+02, charge:   0.00000000E+00, occopt:   1.00000000E+00, tsmear:   1.00000000E-02, }
meta: {optdriver: 1, rfelfd: 2, }
...

 Real(R)+Recip(G) space primitive vectors, cartesian coordinates (Bohr,Bohr^-1):
 R(1)= 12.5304244  0.0000000 -3.0718594  G(1)=  0.0798058  0.0623046  0.0000000
 R(2)= -7.7109272  9.8768992 -3.0718594  G(2)=  0.0000000  0.1012464  0.0000000
 R(3)=  0.0000000  0.0000000 12.9014672  G(3)=  0.0190019  0.0389417  0.0775106
 Unit cell volume ucvol=  1.5967080E+03 bohr^3
 Angles (23,13,12)=  1.03774519E+02  1.03774519E+02  1.21587286E+02 degrees

 getcut: wavevector=  0.0000  0.0000  0.0000  ngfft=  75  75  75
         ecut(hartree)=     40.000   => boxcut(ratio)=   2.01479

--- Pseudopotential description ------------------------------------------------
- pspini: atom type   1  psp file is /scratch/users/j/a/jabreu/pseudos/PBEsol/Ba.psp8
- pspatm: opening atomic psp file    /scratch/users/j/a/jabreu/pseudos/PBEsol/Ba.psp8
- Ba    ONCVPSP-3.3.0  r_core=   2.15444   1.91218   2.15444
- 56.00000  10.00000    180112                znucl, zion, pspdat
    8 -116133    2    4       600   0.00000   pspcod,pspxc,lmax,lloc,mmax,r2well
    5.99000000000000    5.00000000000000    0.00000000000000   rchrg,fchrg,qchrg
     nproj     2     2     2
     extension_switch     1
  pspatm : epsatm=   26.37418029
         --- l  ekb(1:nproj) -->
             0    6.652372    0.677024
             1    5.027722    0.408462
             2    2.543237    0.416854
 pspatm: atomic psp has been read  and splines computed

- pspini: atom type   2  psp file is /scratch/users/j/a/jabreu/pseudos/PBEsol/Ga.psp8
- pspatm: opening atomic psp file    /scratch/users/j/a/jabreu/pseudos/PBEsol/Ga.psp8
- Ga    ONCVPSP-3.3.0  r_core=   1.66857   1.75011   1.90252
- 31.00000  13.00000    180112                znucl, zion, pspdat
    8 -116133    2    4       600   0.00000   pspcod,pspxc,lmax,lloc,mmax,r2well
    5.99000000000000    5.00000000000000    0.00000000000000   rchrg,fchrg,qchrg
     nproj     2     2     2
     extension_switch     1
  pspatm : epsatm=   24.50969055
         --- l  ekb(1:nproj) -->
             0    7.053021    1.156713
             1    6.846070    1.293139
             2   -8.368667   -2.819170
 pspatm: atomic psp has been read  and splines computed

- pspini: atom type   3  psp file is /scratch/users/j/a/jabreu/pseudos/PBEsol/Te.psp8
- pspatm: opening atomic psp file    /scratch/users/j/a/jabreu/pseudos/PBEsol/Te.psp8
- Te    ONCVPSP-3.3.0  r_core=   2.26547   1.91704   1.80604
- 52.00000  16.00000    180112                znucl, zion, pspdat
    8 -116133    2    4       600   0.00000   pspcod,pspxc,lmax,lloc,mmax,r2well
    5.99000000000000    5.00000000000000    0.00000000000000   rchrg,fchrg,qchrg
     nproj     2     2     2
     extension_switch     1
  pspatm : epsatm=   36.82679836
         --- l  ekb(1:nproj) -->
             0    6.345999    0.785432
             1    5.709019    1.070069
             2   -6.035173   -1.870937
 pspatm: atomic psp has been read  and splines computed

   2.22700755E+04                                ecore*ucvol(ha*bohr**3)

-inwffil : will read wavefunctions from disk file /scratch/users/j/a/jabreu/flow_simple_7atoms/flow/w179/t1/indata/in_WFK

 ==>  initialize data related to q vector <==

 The list of irreducible perturbations for this q vector is:
    1)    idir= 1    ipert=   8
    2)    idir= 2    ipert=   8
    3)    idir= 3    ipert=   8

 Perturbation wavevector (in red.coord.)   0.000000  0.000000  0.000000
 Perturbation : derivative vs k along direction   1

 dfpt_looppert : COMMENT -
  In a d/dk calculation, iscf is set to -3 automatically.
 The set of symmetries contains only one element for this perturbation.
 symkpt : not enough symmetry to change the number of k points.

[...]

 Initialisation of the first-order wave-functions :
  ireadwf=   0

--- !BeginCycle
iteration_state: {dtset: 1, }
solver: {iscf: 7, nstep: 2000, nline: 4, wfoptalg: 0, }
tolerances: {tolwfr: 1.00E-20, }
...

     iter   2DEtotal(Ha)        deltaE(Ha) residm    vres2
-ETOT  1  -93.522864460001     -9.352E+01 2.750E-01 0.000E+00
 ETOT  2  -93.599992403307     -7.713E-02 3.241E-02 0.000E+00
 ETOT  3  -93.600163702340     -1.713E-04 1.249E-02 0.000E+00
 ETOT  4  -93.600164820115     -1.118E-06 2.059E-03 0.000E+00
 ETOT  5  -93.600164829545     -9.430E-09 1.019E-03 0.000E+00
 ETOT  6  -93.600164829635     -9.037E-11 1.659E-04 0.000E+00
 ETOT  7  -93.600164829636     -9.379E-13 9.260E-05 0.000E+00
 ETOT  8  -93.600164829636     -4.263E-14 1.526E-05 0.000E+00
 ETOT  9  -93.600164829636      2.842E-14 8.972E-06 0.000E+00
 ETOT 10  -93.600164829636      4.263E-14 1.493E-06 0.000E+00
 ETOT 11  -93.600164829636      0.000E+00 8.952E-07 0.000E+00
 ETOT 12  -93.600164829636      0.000E+00 1.486E-07 0.000E+00
[...]
 ETOT 33  -93.600164829636      0.000E+00 1.162E-17 0.000E+00
 ETOT 34  -93.600164829636      0.000E+00 1.722E-18 0.000E+00
 ETOT 35  -93.600164829636      0.000E+00 1.200E-18 0.000E+00
 ETOT 36  -93.600164829636      0.000E+00 1.765E-19 0.000E+00
 ETOT 37  -93.600164829636     -2.842E-14 1.240E-19 0.000E+00
 ETOT 38  -93.600164829636      1.421E-14 1.812E-20 0.000E+00
 ETOT 39  -93.600164829636      1.421E-14 1.282E-20 0.000E+00
 ETOT 40  -93.600164829636     -1.421E-14 9.781E-21 0.000E+00

 At SCF step   40   max residual=  9.78E-21 < tolwfr=  1.00E-20 =>converged.

 ----iterations are completed or convergence reached----

 dfpt_looppert: DFPT cycle converged with prtwf=-1. Will skip output of the 1st-order WFK file.
 dfpt_looppert : ek2=    8.0937258321E+01
          f-sum rule ratio=    1.0434442588E+00
 prteigrs : about to open file /scratch/users/j/a/jabreu/flow_simple_7atoms/flow/w179/t1/tmpdata/tmp_1WF1_EIG
 Expectation of eigenvalue derivatives (hartree) for nkpt=   2  k points:
  (in case of degenerate eigenvalues, averaged derivative)
 kpt#   1, nband= 59, wtk=  0.50000, kpt=  0.0000  0.0000  0.0000 (reduced coord)
  -0.00000   -0.00000    0.00000    0.00000   -0.00000    0.00000    0.00000    0.00000
  -0.00000   -0.00000    0.00000    0.00000    0.00000    0.00000    0.00000   -0.00000
  -0.00000    0.00000   -0.00000   -0.00000    0.00000   -0.00000   -0.00000   -0.00000
   0.00000   -0.00000   -0.00000    0.00000    0.00000   -0.00000    0.00000    0.00000
   0.00000   -0.00000    0.00000   -0.00000    0.00000    0.00000   -0.00000    0.00000
   0.00000    0.00000    0.00000    0.00000    0.00000   -0.00000    0.00000    0.00000
   0.00000   -0.00000    0.00000    0.00000   -0.00000   -0.00000    0.00000    0.00000
  -0.00000    0.00000    0.00000
 prteigrs : prtvol=0 or 1, do not print more k-points.

 Eight components of 2nd-order total energy (hartree) are
 1,2,3: 0th-order hamiltonian combined with 1st-order wavefunctions
     kin0=   1.04314605E+02 eigvalue=   1.42801455E+01  local=  -5.13623006E+01
 4,5,6: 1st-order hamiltonian combined with 1st and 0th-order wfs
     kin1=  -8.44535175E+01  Hartree=   0.00000000E+00     xc=   0.00000000E+00
 7,8,9: eventually, occupation + non-local contributions
    edocc=   1.20804837E+01     enl0=   1.42872312E+01   enl1=  -1.02746812E+02
 1-9 gives the relaxation energy (to be shifted if some occ is /=2.0)
   erelax=  -9.36001648E+01
  No Ewald or frozen-wf contrib.: the relaxation energy is the total one
 2DEtotal=   -0.9360016483E+02 Ha. Also 2DEtotal=   -0.254699001454E+04 eV
    (  non-var. 2DEtotal :   -9.3600164830E+01 Ha)

 Perturbation wavevector (in red.coord.)   0.000000  0.000000  0.000000
 Perturbation : derivative vs k along direction   2
 The set of symmetries contains only one element for this perturbation.
 symkpt : not enough symmetry to change the number of k points.

[...]

 Perturbation wavevector (in red.coord.)   0.000000  0.000000  0.000000
 Perturbation : derivative vs k along direction   3
 The set of symmetries contains only one element for this perturbation.
 symkpt : not enough symmetry to change the number of k points.

-inwffil : will read wavefunctions from disk file /scratch/users/j/a/jabreu/flow_simple_7atoms/flow/w179/t1/indata/in_WFK

 Initialisation of the first-order wave-functions :
  ireadwf=   0

--- !BeginCycle
iteration_state: {dtset: 1, }
solver: {iscf: 7, nstep: 2000, nline: 4, wfoptalg: 0, }
tolerances: {tolwfr: 1.00E-20, }
...

     iter   2DEtotal(Ha)        deltaE(Ha) residm    vres2
-ETOT  1  -72.692400851763     -7.269E+01 2.347E-01 0.000E+00
 ETOT  2  -72.751949503043     -5.955E-02 1.887E-02 0.000E+00
 ETOT  3  -72.752071991501     -1.225E-04 1.060E-02 0.000E+00
 ETOT  4  -72.752072734370     -7.429E-07 7.687E-04 0.000E+00
 ETOT  5  -72.752072740433     -6.064E-09 7.993E-04 0.000E+00
 ETOT  6  -72.752072740491     -5.751E-11 5.702E-05 0.000E+00
 ETOT  7  -72.752072740491     -5.826E-13 6.541E-05 0.000E+00
 ETOT  8  -72.752072740491      0.000E+00 4.565E-06 0.000E+00
 ETOT  9  -72.752072740491      7.105E-14 5.546E-06 0.000E+00
 ETOT 10  -72.752072740491     -2.842E-14 3.753E-07 0.000E+00
 ETOT 11  -72.752072740491      0.000E+00 4.749E-07 0.000E+00
 ETOT 12  -72.752072740491      0.000E+00 3.114E-08 0.000E+00
 ETOT 13  -72.752072740491      0.000E+00 4.073E-08 0.000E+00
 ETOT 14  -72.752072740491     -1.421E-14 2.597E-09 0.000E+00
 ETOT 15  -72.752072740491      1.421E-14 3.493E-09 0.000E+00
 ETOT 16  -72.752072740491      0.000E+00 2.176E-10 0.000E+00
 ETOT 17  -72.752072740491     -1.421E-14 2.996E-10 0.000E+00
 ETOT 18  -72.752072740491      0.000E+00 1.832E-11 0.000E+00
 ETOT 19  -72.752072740491     -1.421E-14 2.569E-11 0.000E+00
 ETOT 20  -72.752072740491      1.421E-14 1.550E-12 0.000E+00
 ETOT 21  -72.752072740491      1.421E-14 2.205E-12 0.000E+00
 ETOT 22  -72.752072740491     -1.421E-14 1.316E-13 0.000E+00
 ETOT 23  -72.752072740491      0.000E+00 1.893E-13 0.000E+00
 ETOT 24  -72.752072740491      0.000E+00 1.121E-14 0.000E+00
 ETOT 25  -72.752072740491      0.000E+00 1.626E-14 0.000E+00
 ETOT 26  -72.752072740491      0.000E+00 9.582E-16 0.000E+00
 ETOT 27  -72.752072740491      2.842E-14 1.398E-15 0.000E+00
 ETOT 28  -72.752072740491     -1.421E-14 8.206E-17 0.000E+00
 ETOT 29  -72.752072740491      0.000E+00 1.202E-16 0.000E+00
 ETOT 30  -72.752072740491      1.421E-14 7.039E-18 0.000E+00
 ETOT 31  -72.752072740491     -1.421E-14 1.035E-17 0.000E+00
 ETOT 32  -72.752072740491      0.000E+00 6.045E-19 0.000E+00
 ETOT 33  -72.752072740491      0.000E+00 8.908E-19 0.000E+00
 ETOT 34  -72.752072740491     -1.421E-14 5.565E-20 0.000E+00
 ETOT 35  -72.752072740491     -1.421E-14 7.671E-20 0.000E+00
 ETOT 36  -72.752072740491      2.842E-14 9.952E-21 0.000E+00

 At SCF step   36   max residual=  9.95E-21 < tolwfr=  1.00E-20 =>converged.

 ----iterations are completed or convergence reached----

 dfpt_looppert: DFPT cycle converged with prtwf=-1. Will skip output of the 1st-order WFK file.
 dfpt_looppert : ek2=    6.2260762915E+01
          f-sum rule ratio=    1.0664802435E+00
 prteigrs : about to open file /scratch/users/j/a/jabreu/flow_simple_7atoms/flow/w179/t1/tmpdata/tmp_1WF1_EIG
 Expectation of eigenvalue derivatives (hartree) for nkpt=   2  k points:
  (in case of degenerate eigenvalues, averaged derivative)
 kpt#   1, nband= 59, wtk=  0.50000, kpt=  0.0000  0.0000  0.0000 (reduced coord)
  -0.00000   -0.00000   -0.00000    0.00000   -0.00000   -0.00000    0.00000    0.00000
  -0.00000   -0.00000    0.00000    0.00000    0.00000    0.00000   -0.00000   -0.00000
  -0.00000    0.00000   -0.00000   -0.00000    0.00000   -0.00000   -0.00000    0.00000
   0.00000   -0.00000   -0.00000    0.00000   -0.00000   -0.00000    0.00000    0.00000
   0.00000    0.00000    0.00000   -0.00000    0.00000    0.00000   -0.00000   -0.00000
  -0.00000   -0.00000   -0.00000    0.00000    0.00000   -0.00000    0.00000    0.00000
   0.00000    0.00000   -0.00000   -0.00000    0.00000   -0.00000    0.00000    0.00000
  -0.00000   -0.00000   -0.00000
 prteigrs : prtvol=0 or 1, do not print more k-points.

 Eight components of 2nd-order total energy (hartree) are
 1,2,3: 0th-order hamiltonian combined with 1st-order wavefunctions
     kin0=   8.14171888E+01 eigvalue=   1.07758582E+01  local=  -4.01753585E+01
 4,5,6: 1st-order hamiltonian combined with 1st and 0th-order wfs
     kin1=  -6.63998736E+01  Hartree=   0.00000000E+00     xc=   0.00000000E+00
 7,8,9: eventually, occupation + non-local contributions
    edocc=   9.61852031E+00     enl0=   1.11158639E+01   enl1=  -7.91042719E+01
 1-9 gives the relaxation energy (to be shifted if some occ is /=2.0)
   erelax=  -7.27520727E+01
  No Ewald or frozen-wf contrib.: the relaxation energy is the total one
 2DEtotal=   -0.7275207274E+02 Ha. Also 2DEtotal=   -0.197968457795E+04 eV
    (  non-var. 2DEtotal :   -7.2752072741E+01 Ha)

 CALCULATION OF EFFECTIVE MASSES
 NOTE : Additional infos (eff. mass eigenvalues, eigenvectors and, if degenerate, average mass) are available in stdout.

 K-point ( 0.000, 0.000, 0.000) | band =    50
 Effective mass tensor:
             -0.8480407342              0.2595085719             -0.1614218830
              0.2595085719             -0.4428423722             -0.3308120350
             -0.1614218830             -0.3308120350             -0.7688949240
 Effective mass tensor eigenvalues:
             -0.9746696366             -0.9746696301             -0.1104387636
 Angular average effective mass 1/(<1/m>)=  -0.2701055537
 Angular average effective mass for Frohlich model (<m**0.5>)**2=  -0.3824656471
 Effective masses along directions: (cart. coord. / red. coord. -> eff. mass)
    1:   1.000000  0.000000  0.000000 /   0.851661 -0.524092  0.000000 ->  -0.4540531133
    2:   0.000000  1.000000  0.000000 /   0.000000  1.000000  0.000000 ->  -0.1675961440
    3:   0.000000  0.000000  1.000000 /  -0.225652 -0.225652  0.947714 ->  -0.3404070915
    4:   0.577350  0.577350  0.577350 /   0.590316 -0.056537  0.805190 ->  -0.4423030936
    5:   0.000000  0.707107  0.707107 /  -0.206080  0.456526  0.865514 ->  -0.7252103021
    6:   0.707107  0.000000  0.707107 /   0.490285 -0.558926  0.668747 ->  -0.9342348459
    7:   0.707107  0.707107  0.000000 /   0.985387  0.170331  0.000000 ->  -0.1539546541

 K-point (-0.500, 0.500, 0.500) | band =    51
 Effective mass tensor:
              0.2047729673              0.0030882469             -0.0019209753
              0.0030882469              0.2095949238             -0.0039368011
             -0.0019209753             -0.0039368011              0.2057147781
 Effective mass tensor eigenvalues:
              0.2032659684              0.2032660338              0.2135506671
 Angular average effective mass 1/(<1/m>)=   0.2065823578
 Angular average effective mass for Frohlich model (<m**0.5>)**2=   0.2066156208
 Effective masses along directions: (cart. coord. / red. coord. -> eff. mass)
    1:   1.000000  0.000000  0.000000 /   0.851661 -0.524092  0.000000 ->   0.2047105867
    2:   0.000000  1.000000  0.000000 /   0.000000  1.000000  0.000000 ->   0.2094741080
    3:   0.000000  0.000000  1.000000 /  -0.225652 -0.225652  0.947714 ->   0.2056238810
    4:   0.577350  0.577350  0.577350 /   0.590316 -0.056537  0.805190 ->   0.2047829229
    5:   0.000000  0.707107  0.707107 /  -0.206080  0.456526  0.865514 ->   0.2036971903
    6:   0.707107  0.000000  0.707107 /   0.490285 -0.558926  0.668747 ->   0.2033201724
    7:   0.707107  0.707107  0.000000 /   0.985387  0.170331  0.000000 ->   0.2101609835

 END OF EFFECTIVE MASSES SECTION

 ---- first-order wavefunction calculations are completed ----

 Total localisation tensor (bohr^2) in cartesian coordinates
  WARNING : still subject to testing - especially symmetries.
      direction              matrix element
   alpha     beta       real part   imaginary part
     1        1       3.3219684000    0.0000000000
     1        2      -1.1687595082    0.0000000000
     1        3      -0.2271961252    0.0000000000
     2        1      -1.1687595082    0.0000000000
     2        2       1.4970598958    0.0000000000
     2        3      -0.4656074095    0.0000000000
     3        1      -0.2271961252    0.0000000000
     3        2      -0.4656074095    0.0000000000
     3        3       2.3158773794    0.0000000000

 respfn : d/dk was computed, but no 2DTE, so no DDB output.

== END DATASET(S) ==============================================================

 -outvars: echo values of variables after computation  --------
            acell      1.0000000000E+00  1.0000000000E+00  1.0000000000E+00 Bohr
              amu      1.37327000E+02  6.97230000E+01  1.27600000E+02
        autoparal           1
             ecut      4.00000000E+01 Hartree
           etotal     -7.2752072740E+01
            fcart      0.0000000000E+00  0.0000000000E+00  0.0000000000E+00
                       0.0000000000E+00  0.0000000000E+00  0.0000000000E+00
                       0.0000000000E+00  0.0000000000E+00  0.0000000000E+00
                       0.0000000000E+00  0.0000000000E+00  0.0000000000E+00
                       0.0000000000E+00  0.0000000000E+00  0.0000000000E+00
                       0.0000000000E+00  0.0000000000E+00  0.0000000000E+00
                       0.0000000000E+00  0.0000000000E+00  0.0000000000E+00
-          fftalg         512
           irdden           1
           irdwfk           1
           istwfk        1    0
              ixc     -116133
              kpt      0.00000000E+00  0.00000000E+00  0.00000000E+00
                      -5.00000000E-01  5.00000000E-01  5.00000000E-01
           kptopt           0
P           mkmem           2
P          mkqmem           2
P          mk1mem           2
            natom           7
            nband          59
           nbdbuf           4
            ngfft          75      75      75
             nkpt           2
            nstep        2000
             nsym           8
           ntypat           3
              occ      2.000000  2.000000  2.000000  2.000000  2.000000  2.000000
                       2.000000  2.000000  2.000000  2.000000  2.000000  2.000000
                       2.000000  2.000000  2.000000  2.000000  2.000000  2.000000
                       2.000000  2.000000  2.000000  2.000000  2.000000  2.000000
                       2.000000  2.000000  2.000000  2.000000  2.000000  2.000000
                       2.000000  2.000000  2.000000  2.000000  2.000000  2.000000
                       2.000000  2.000000  2.000000  2.000000  2.000000  2.000000
                       2.000000  2.000000  2.000000  2.000000  2.000000  2.000000
                       2.000000  2.000000  0.000000  0.000000  0.000000  0.000000
                       0.000000  0.000000  0.000000  0.000000  0.000000
        optdriver           1
            prtwf          -1
            rfdir           1       1       1
           rfelfd           2
            rprim      1.2530424415E+01  0.0000000000E+00 -3.0718593593E+00
                      -7.7109271903E+00  9.8768992038E+00 -3.0718593593E+00
                       0.0000000000E+00  0.0000000000E+00  1.2901467201E+01
          spgroup          97
           strten      0.0000000000E+00  0.0000000000E+00  0.0000000000E+00
                       0.0000000000E+00  0.0000000000E+00  0.0000000000E+00
           symrel      1  0  0   0  1  0   0  0  1       0  0  1  -1 -1 -1   1  0  0
                       0  1  0   1  0  0  -1 -1 -1      -1 -1 -1   0  0  1   0  1  0
                      -1  0  0   0 -1  0   1  1  1       1  1  1   0  0 -1  -1  0  0
                       0 -1  0  -1  0  0   0  0 -1       0  0 -1   1  1  1   0 -1  0
           tolwfr      1.00000000E-20
            typat      1  2  2  3  3  3  3
           useylm           1
              wtk        0.50000    0.50000
           xangst      0.0000000000E+00  0.0000000000E+00  0.0000000000E+00
                      -2.0402234631E+00  2.6133149751E+00  2.6008022196E+00
                       3.3154075072E+00  0.0000000000E+00  2.6008022196E+00
                       3.5134843951E+00  4.0593144171E-01 -4.8033597171E-03
                      -3.2485460563E+00  4.8206985085E+00  1.7880232391E+00
                       4.4328317419E-01  3.0192464168E+00  1.7880232391E+00
                       4.3925146633E+00  2.2073835334E+00  3.5808498380E+00
            xcart      0.0000000000E+00  0.0000000000E+00  0.0000000000E+00
                      -3.8554635952E+00  4.9384496019E+00  4.9148039209E+00
                       6.2652122075E+00  0.0000000000E+00  4.9148039209E+00
                       6.6395232789E+00  7.6709925356E-01 -9.0770343831E-03
                      -6.1388623765E+00  9.1097999502E+00  3.3788742412E+00
                       8.3768379853E-01  5.7055488555E+00  3.3788742412E+00
                       8.3006497483E+00  4.1713503483E+00  6.7668255168E+00
             xred      0.0000000000E+00  0.0000000000E+00  0.0000000000E+00
                      -5.5511151231E-17  5.0000000000E-01  5.0000000000E-01
                       5.0000000000E-01  0.0000000000E+00  5.0000000000E-01
                       5.7766600000E-01  7.7666000000E-02  1.5533200000E-01
                       7.7666000000E-02  9.2233400000E-01  5.0000000000E-01
                       4.2233400000E-01  5.7766600000E-01  5.0000000000E-01
                       9.2233400000E-01  4.2233400000E-01  8.4466800000E-01
            znucl       56.00000   31.00000   52.00000

- Timing analysis has been suppressed with timopt=0

 Suggested references for the acknowledgment of ABINIT usage.

 Calculation completed.
.Delivered  14 WARNINGs and   9 COMMENTs to log file.