.Version 9.5.1 of ABINIT

 ABINIT is a project of the Universite Catholique de Louvain,
 Corning Inc. and other collaborators, see ~abinit/doc/developers/contributors.txt .
 acknowledgments of the ABINIT effort.

.Starting date : Tue 11 May 2021.
- ( at 21h59 )

- input  file    -> /scratch/users/j/a/jabreu/flow_simple_8atoms/flow/w377/t1/run.abi
- output file    -> /scratch/users/j/a/jabreu/flow_simple_8atoms/flow/w377/t1/run.abo
- root for input  files -> /scratch/users/j/a/jabreu/flow_simple_8atoms/flow/w377/t1/indata/in
- root for output files -> /scratch/users/j/a/jabreu/flow_simple_8atoms/flow/w377/t1/outdata/out

 Symmetries : space group Fm -3 m (#225); Bravais cF (face-center cubic)
     intxc =       0      iscf =       7    lmnmax =      18     lnmax =       6
     mgfft =      72  mpssoang =       3    mqgrid =    3001     natom =       8
  nloc_mem =       1    nspden =       1   nspinor =       1    nsppol =       1
      nsym =      48    n1xccc =    2501    ntypat =       3    occopt =       1
   xclevel =       2
-    mband =          47        mffmem =           1         mkmem =           2
-   mkqmem =           2        mk1mem =           2           mpw =       13323
      nfft =      373248          nkpt =           2
  Rough estimation (10% accuracy) of disk space for files :

------------- Echo of variables that govern the present computation ------------
-
- outvars: echo of selected default values
-   iomode0 =  0 , fftalg0 =512 , wfoptalg0 =  0
-
- outvars: echo of global parameters not present in the input file
-  max_nthreads =    0
-
 -outvars: echo values of preprocessed input variables --------
            acell      1.0000000000E+00  1.0000000000E+00  1.0000000000E+00 Bohr
              amu      1.07868200E+02  7.49215900E+01  1.89984032E+01
             ecut      4.30000000E+01 Hartree
-          fftalg         512
           irdden           1
           irdwfk           1
           istwfk        1    1
              ixc     -116133
              kpt      5.00000000E-01 -1.23259516E-32  5.00000000E-01
                       0.00000000E+00  0.00000000E+00  0.00000000E+00
           kptopt           0
P           mkmem           2
P          mkqmem           2
P          mk1mem           2
            natom           8
            nband          47
           nbdbuf           4
            ngfft          72      72      72
             nkpt           2
            nstep        2000
             nsym          48
           ntypat           3
              occ      2.000000  2.000000  2.000000  2.000000  2.000000  2.000000
                       2.000000  2.000000  2.000000  2.000000  2.000000  2.000000
                       2.000000  2.000000  2.000000  2.000000  2.000000  2.000000
                       2.000000  2.000000  2.000000  2.000000  2.000000  2.000000
                       2.000000  2.000000  2.000000  2.000000  2.000000  2.000000
                       2.000000  2.000000  2.000000  2.000000  2.000000  2.000000
                       2.000000  2.000000  0.000000  0.000000  0.000000  0.000000
                       0.000000  0.000000  0.000000  0.000000  0.000000
        optdriver           1
            prtwf          -1
            rfdir           1       1       1
           rfelfd           2
            rprim      9.6342450239E+00  0.0000000000E+00  5.5623339580E+00
                       3.2114150080E+00  9.0832533174E+00  5.5623339580E+00
                       0.0000000000E+00  0.0000000000E+00  1.1124667916E+01
          spgroup         225
           symrel      1  0  0   0  1  0   0  0  1      -1  0  0   0 -1  0   0  0 -1
                       0 -1  1   0 -1  0   1 -1  0       0  1 -1   0  1  0  -1  1  0
                      -1  0  0  -1  0  1  -1  1  0       1  0  0   1  0 -1   1 -1  0
                       0  1 -1   1  0 -1   0  0 -1       0 -1  1  -1  0  1   0  0  1
                      -1  0  0  -1  1  0  -1  0  1       1  0  0   1 -1  0   1  0 -1
                       0 -1  1   1 -1  0   0 -1  0       0  1 -1  -1  1  0   0  1  0
                       1  0  0   0  0  1   0  1  0      -1  0  0   0  0 -1   0 -1  0
                       0  1 -1   0  0 -1   1  0 -1       0 -1  1   0  0  1  -1  0  1
                      -1  0  1  -1  1  0  -1  0  0       1  0 -1   1 -1  0   1  0  0
                       0 -1  0   1 -1  0   0 -1  1       0  1  0  -1  1  0   0  1 -1
                       1  0 -1   0  0 -1   0  1 -1      -1  0  1   0  0  1   0 -1  1
                       0  1  0   0  0  1   1  0  0       0 -1  0   0  0 -1  -1  0  0
                       1  0 -1   0  1 -1   0  0 -1      -1  0  1   0 -1  1   0  0  1
                       0 -1  0   0 -1  1   1 -1  0       0  1  0   0  1 -1  -1  1  0
                      -1  0  1  -1  0  0  -1  1  0       1  0 -1   1  0  0   1 -1  0
                       0  1  0   1  0  0   0  0  1       0 -1  0  -1  0  0   0  0 -1
                       0  0 -1   0  1 -1   1  0 -1       0  0  1   0 -1  1  -1  0  1
                       1 -1  0   0 -1  1   0 -1  0      -1  1  0   0  1 -1   0  1  0
                       0  0  1   1  0  0   0  1  0       0  0 -1  -1  0  0   0 -1  0
                      -1  1  0  -1  0  0  -1  0  1       1 -1  0   1  0  0   1  0 -1
                       0  0  1   0  1  0   1  0  0       0  0 -1   0 -1  0  -1  0  0
                       1 -1  0   0 -1  0   0 -1  1      -1  1  0   0  1  0   0  1 -1
                       0  0 -1   1  0 -1   0  1 -1       0  0  1  -1  0  1   0 -1  1
                      -1  1  0  -1  0  1  -1  0  0       1 -1  0   1  0 -1   1  0  0
           tolwfr      1.00000000E-20
            typat      1  2  3  3  3  3  3  3
           useylm           1
              wtk        0.50000    0.50000
           xangst      3.3988152591E+00  2.4033253177E+00  5.8869207143E+00
                       0.0000000000E+00  0.0000000000E+00  0.0000000000E+00
                       4.3807941661E+00  1.0145974294E+00  4.1860833554E+00
                       4.3807941661E+00  1.0145974294E+00  7.5877580732E+00
                       5.3627730731E+00  3.7920532060E+00  5.8869207143E+00
                       1.4348574450E+00  1.0145974294E+00  5.8869207143E+00
                       2.4168363521E+00  3.7920532060E+00  4.1860833554E+00
                       2.4168363521E+00  3.7920532060E+00  7.5877580732E+00
            xcart      6.4228300159E+00  4.5416266587E+00  1.1124667916E+01
                       0.0000000000E+00  0.0000000000E+00  0.0000000000E+00
                       8.2785012185E+00  1.9173112767E+00  7.9105511110E+00
                       8.2785012185E+00  1.9173112767E+00  1.4338784721E+01
                       1.0134172421E+01  7.1659420407E+00  1.1124667916E+01
                       2.7114876109E+00  1.9173112767E+00  1.1124667916E+01
                       4.5671588134E+00  7.1659420407E+00  7.9105511110E+00
                       4.5671588134E+00  7.1659420407E+00  1.4338784721E+01
             xred      5.0000000000E-01  5.0000000000E-01  5.0000000000E-01
                       0.0000000000E+00  0.0000000000E+00  0.0000000000E+00
                       7.8891800000E-01  2.1108200000E-01  2.1108200000E-01
                       7.8891800000E-01  2.1108200000E-01  7.8891800000E-01
                       7.8891800000E-01  7.8891800000E-01  2.1108200000E-01
                       2.1108200000E-01  2.1108200000E-01  7.8891800000E-01
                       2.1108200000E-01  7.8891800000E-01  2.1108200000E-01
                       2.1108200000E-01  7.8891800000E-01  7.8891800000E-01
            znucl       47.00000   33.00000    9.00000

 chkinp: Checking input parameters for consistency.

== DATASET  1 ==================================================================
-   mpi_nproc: 1, omp_nthreads: -1 (-1 if OMP is not activated)

--- !DatasetInfo
iteration_state: {dtset: 1, }
dimensions: {natom: 8, nkpt: 2, mband: 47, nsppol: 1, nspinor: 1, nspden: 1, mpw: 13323, }
cutoff_energies: {ecut:  43.0, pawecutdg:  -1.0, }
electrons: {nelect:   7.60000000E+01, charge:   0.00000000E+00, occopt:   1.00000000E+00, tsmear:   1.00000000E-02, }
meta: {optdriver: 1, rfelfd: 2, }
...

 Real(R)+Recip(G) space primitive vectors, cartesian coordinates (Bohr,Bohr^-1):
 R(1)=  9.6342450  0.0000000  5.5623340  G(1)=  0.1037964 -0.0366976  0.0000000
 R(2)=  3.2114150  9.0832533  5.5623340  G(2)=  0.0000000  0.1100927  0.0000000
 R(3)=  0.0000000  0.0000000 11.1246679  G(3)= -0.0518982 -0.0366976  0.0898903
 Unit cell volume ucvol=  9.7352289E+02 bohr^3
 Angles (23,13,12)=  6.00000000E+01  6.00000000E+01  6.00000000E+01 degrees

 getcut: wavevector=  0.0000  0.0000  0.0000  ngfft=  72  72  72
         ecut(hartree)=     43.000   => boxcut(ratio)=   2.19253

--- Pseudopotential description ------------------------------------------------
- pspini: atom type   1  psp file is /scratch/users/j/a/jabreu/pseudos/PBEsol/Ag.psp8
- pspatm: opening atomic psp file    /scratch/users/j/a/jabreu/pseudos/PBEsol/Ag.psp8
- Ag    ONCVPSP-3.3.0  r_core=   1.41384   1.46535   1.61207
- 47.00000  19.00000    180112                znucl, zion, pspdat
    8 -116133    2    4       600   0.00000   pspcod,pspxc,lmax,lloc,mmax,r2well
    5.99000000000000    7.00000000000000    0.00000000000000   rchrg,fchrg,qchrg
     nproj     2     2     2
     extension_switch     1
  pspatm : epsatm=   27.64581383
         --- l  ekb(1:nproj) -->
             0    9.559407   -0.398585
             1    3.418858   -0.136622
             2   -1.644397   -0.401551
 pspatm: atomic psp has been read  and splines computed

- pspini: atom type   2  psp file is /scratch/users/j/a/jabreu/pseudos/PBEsol/As.psp8
- pspatm: opening atomic psp file    /scratch/users/j/a/jabreu/pseudos/PBEsol/As.psp8
- As    ONCVPSP-3.3.0  r_core=   1.76603   1.70395   1.80867
- 33.00000  15.00000    180112                znucl, zion, pspdat
    8 -116133    2    4       600   0.00000   pspcod,pspxc,lmax,lloc,mmax,r2well
    5.99000000000000    5.00000000000000    0.00000000000000   rchrg,fchrg,qchrg
     nproj     2     2     2
     extension_switch     1
  pspatm : epsatm=   28.79155382
         --- l  ekb(1:nproj) -->
             0    8.270760    0.868950
             1    4.919053    0.756587
             2  -10.048665   -4.076802
 pspatm: atomic psp has been read  and splines computed

- pspini: atom type   3  psp file is /scratch/users/j/a/jabreu/pseudos/PBEsol/F.psp8
- pspatm: opening atomic psp file    /scratch/users/j/a/jabreu/pseudos/PBEsol/F.psp8
- F     ONCVPSP-3.3.0  r_core=   1.30942   1.45782   1.60379
-  9.00000   7.00000    180112                znucl, zion, pspdat
    8 -116133    2    4       600   0.00000   pspcod,pspxc,lmax,lloc,mmax,r2well
    5.99000000000000    2.50000000000000    0.00000000000000   rchrg,fchrg,qchrg
     nproj     2     2     1
     extension_switch     1
  pspatm : epsatm=    4.89824824
         --- l  ekb(1:nproj) -->
             0    6.506434    1.065875
             1   -3.978753   -1.295852
             2   -2.394754
 pspatm: atomic psp has been read  and splines computed

   6.52284114E+03                                ecore*ucvol(ha*bohr**3)

[...]
 ETOT 16  -49.703596467325      7.105E-15 1.407E-20 0.000E+00
 ETOT 17  -49.703596467325      7.105E-15 9.833E-21 0.000E+00

 At SCF step   17   max residual=  9.83E-21 < tolwfr=  1.00E-20 =>converged.

 ----iterations are completed or convergence reached----

 dfpt_looppert: DFPT cycle converged with prtwf=-1. Will skip output of the 1st-order WFK file.
 dfpt_looppert : ek2=    7.2731152990E+01
          f-sum rule ratio=    1.0126215212E+00
 prteigrs : about to open file /scratch/users/j/a/jabreu/flow_simple_8atoms/flow/w377/t1/tmpdata/tmp_1WF1_EIG
 Expectation of eigenvalue derivatives (hartree) for nkpt=   2  k points:
  (in case of degenerate eigenvalues, averaged derivative)
 kpt#   1, nband= 47, wtk=  0.50000, kpt=  0.5000  0.0000  0.5000 (reduced coord)
   0.00000   -0.00000   -0.00000   -0.00000   -0.00000    0.00000    0.00000   -0.00000
  -0.00000   -0.00000    0.00000   -0.00000   -0.00000   -0.00000   -0.00000   -0.00000
  -0.00000   -0.00000   -0.00000    0.00000   -0.00000   -0.00000   -0.00000   -0.00000
  -0.00000    0.00000    0.00000   -0.00000    0.00000    0.00000   -0.00000   -0.00000
   0.00000    0.00000    0.00000    0.00000    0.00000    0.00000   -0.00000    0.00000
  -0.00000    0.00000    0.00000    0.00000   -0.00004    0.00000    0.01239
 prteigrs : prtvol=0 or 1, do not print more k-points.

 Eight components of 2nd-order total energy (hartree) are
 1,2,3: 0th-order hamiltonian combined with 1st-order wavefunctions
     kin0=   6.51273161E+01 eigvalue=   6.48526235E+00  local=  -2.79710875E+01
 4,5,6: 1st-order hamiltonian combined with 1st and 0th-order wfs
     kin1=  -7.36491308E+01  Hartree=   0.00000000E+00     xc=   0.00000000E+00
 7,8,9: eventually, occupation + non-local contributions
    edocc=   4.85332350E+00     enl0=   1.20878203E+00   enl1=  -2.57580622E+01
 1-9 gives the relaxation energy (to be shifted if some occ is /=2.0)
   erelax=  -4.97035965E+01
  No Ewald or frozen-wf contrib.: the relaxation energy is the total one
 2DEtotal=   -0.4970359647E+02 Ha. Also 2DEtotal=   -0.135250364269E+04 eV
    (  non-var. 2DEtotal :   -4.9703596467E+01 Ha)

 Perturbation wavevector (in red.coord.)   0.000000  0.000000  0.000000
 Perturbation : derivative vs k along direction   2
 The set of symmetries contains only one element for this perturbation.
 symkpt : not enough symmetry to change the number of k points.

[...]

 Perturbation wavevector (in red.coord.)   0.000000  0.000000  0.000000
 Perturbation : derivative vs k along direction   3
 The set of symmetries contains only one element for this perturbation.
 symkpt : not enough symmetry to change the number of k points.

-inwffil : will read wavefunctions from disk file /scratch/users/j/a/jabreu/flow_simple_8atoms/flow/w377/t1/indata/in_WFK

 Initialisation of the first-order wave-functions :
  ireadwf=   0

--- !BeginCycle
iteration_state: {dtset: 1, }
solver: {iscf: 7, nstep: 2000, nline: 4, wfoptalg: 0, }
tolerances: {tolwfr: 1.00E-20, }
...

     iter   2DEtotal(Ha)        deltaE(Ha) residm    vres2
-ETOT  1  -49.664006261259     -4.966E+01 9.330E-02 0.000E+00
 ETOT  2  -49.703964267955     -3.996E-02 1.808E-03 0.000E+00
 ETOT  3  -49.704121760163     -1.575E-04 5.883E-05 0.000E+00
 ETOT  4  -49.704123703662     -1.943E-06 4.089E-06 0.000E+00
 ETOT  5  -49.704123736459     -3.280E-08 1.662E-07 0.000E+00
 ETOT  6  -49.704123737086     -6.272E-10 1.357E-08 0.000E+00
 ETOT  7  -49.704123737099     -1.275E-11 5.515E-10 0.000E+00
 ETOT  8  -49.704123737099     -2.487E-13 5.125E-11 0.000E+00
 ETOT  9  -49.704123737099     -7.105E-15 2.073E-12 0.000E+00
 ETOT 10  -49.704123737099     -2.842E-14 2.039E-13 0.000E+00
 ETOT 11  -49.704123737099      1.421E-14 8.253E-15 0.000E+00
 ETOT 12  -49.704123737099     -7.105E-15 8.287E-16 0.000E+00
 ETOT 13  -49.704123737099      1.421E-14 3.365E-17 0.000E+00
 ETOT 14  -49.704123737099      0.000E+00 3.405E-18 0.000E+00
 ETOT 15  -49.704123737099      7.105E-15 1.388E-19 0.000E+00
 ETOT 16  -49.704123737099     -7.105E-15 1.407E-20 0.000E+00
 ETOT 17  -49.704123737099      0.000E+00 9.803E-21 0.000E+00

 At SCF step   17   max residual=  9.80E-21 < tolwfr=  1.00E-20 =>converged.

 ----iterations are completed or convergence reached----

 dfpt_looppert: DFPT cycle converged with prtwf=-1. Will skip output of the 1st-order WFK file.
 dfpt_looppert : ek2=    7.2731152990E+01
          f-sum rule ratio=    1.0126396747E+00
 prteigrs : about to open file /scratch/users/j/a/jabreu/flow_simple_8atoms/flow/w377/t1/tmpdata/tmp_1WF1_EIG
 Expectation of eigenvalue derivatives (hartree) for nkpt=   2  k points:
  (in case of degenerate eigenvalues, averaged derivative)
 kpt#   1, nband= 47, wtk=  0.50000, kpt=  0.5000  0.0000  0.5000 (reduced coord)
  -0.00000   -0.00000   -0.00000   -0.00000   -0.00000   -0.00000   -0.00000   -0.00000
  -0.00000    0.00000   -0.00000    0.00000    0.00000    0.00000    0.00000    0.00000
   0.00000    0.00000   -0.00000   -0.00000   -0.00000    0.00000    0.00000    0.00000
  -0.00000   -0.00000   -0.00000    0.00000   -0.00000   -0.00000    0.00000    0.00000
  -0.00000   -0.00000   -0.00000   -0.00000   -0.00000    0.00000    0.00000    0.00000
  -0.00000   -0.00000   -0.00000    0.00000   -0.00004   -0.00000   -0.01209
 prteigrs : prtvol=0 or 1, do not print more k-points.

 Eight components of 2nd-order total energy (hartree) are
 1,2,3: 0th-order hamiltonian combined with 1st-order wavefunctions
     kin0=   6.52593673E+01 eigvalue=   6.50149847E+00  local=  -2.80907450E+01
 4,5,6: 1st-order hamiltonian combined with 1st and 0th-order wfs
     kin1=  -7.36504511E+01  Hartree=   0.00000000E+00     xc=   0.00000000E+00
 7,8,9: eventually, occupation + non-local contributions
    edocc=   4.80759397E+00     enl0=   1.22640898E+00   enl1=  -2.57577964E+01
 1-9 gives the relaxation energy (to be shifted if some occ is /=2.0)
   erelax=  -4.97041237E+01
  No Ewald or frozen-wf contrib.: the relaxation energy is the total one
 2DEtotal=   -0.4970412374E+02 Ha. Also 2DEtotal=   -0.135251799044E+04 eV
    (  non-var. 2DEtotal :   -4.9704123737E+01 Ha)

 CALCULATION OF EFFECTIVE MASSES
 NOTE : Additional infos (eff. mass eigenvalues, eigenvectors and, if degenerate, average mass) are available in stdout.

 K-point ( 0.500,-0.000, 0.500) | band =    38
 Effective mass tensor:
            -83.9560845483            115.9895194665           -142.0596511674
            115.9895194665           -165.9738678490            200.9033209297
           -142.0596511674            200.9033209297           -247.9985008697
 Effective mass tensor eigenvalues:
           -494.0495901612             -1.9394860119             -1.9393770939
 Angular average effective mass 1/(<1/m>)=  -2.9034484664
 Angular average effective mass for Frohlich model (<m**0.5>)**2=  -4.4283650480
 Effective masses along directions: (cart. coord. / red. coord. -> eff. mass)
    1:   1.000000  0.000000  0.000000 /   0.948683  0.316228  0.000000 ->  -2.3254348091
    2:   0.000000  1.000000  0.000000 /   0.000000  1.000000  0.000000 ->  -2.9034428280
    3:   0.000000  0.000000  1.000000 /   0.408248  0.408248  0.816497 ->  -3.8638639412
    4:   0.577350  0.577350  0.577350 /   0.585539  0.688047  0.428644 ->  -2.1456251478
    5:   0.000000  0.707107  0.707107 /   0.289489  0.762222  0.578977 ->  -1.9558775195
    6:   0.707107  0.000000  0.707107 /   0.731423  0.422287  0.535439 ->  -5.0978868036
    7:   0.707107  0.707107  0.000000 /   0.616798  0.787122  0.000000 ->  -1.9674008507

 K-point ( 0.000, 0.000, 0.000) | band =    39
 Effective mass tensor:
              0.5736231995             -0.0000784580             -0.0000408254
             -0.0000784580              0.5737372453             -0.0000383420
             -0.0000408254             -0.0000383420              0.5738481483
 Effective mass tensor eigenvalues:
              0.5735726854              0.5737744616              0.5738614461
 Angular average effective mass 1/(<1/m>)=   0.5737361722
 Angular average effective mass for Frohlich model (<m**0.5>)**2=   0.5737361799
 Effective masses along directions: (cart. coord. / red. coord. -> eff. mass)
    1:   1.000000  0.000000  0.000000 /   0.948683  0.316228  0.000000 ->   0.5736231859
    2:   0.000000  1.000000  0.000000 /   0.000000  1.000000  0.000000 ->   0.5737372320
    3:   0.000000  0.000000  1.000000 /   0.408248  0.408248  0.816497 ->   0.5738481428
    4:   0.577350  0.577350  0.577350 /   0.585539  0.688047  0.428644 ->   0.5736310936
    5:   0.000000  0.707107  0.707107 /   0.289489  0.762222  0.578977 ->   0.5737543370
    6:   0.707107  0.000000  0.707107 /   0.731423  0.422287  0.535439 ->   0.5736948146
    7:   0.707107  0.707107  0.000000 /   0.616798  0.787122  0.000000 ->   0.5736017533

 END OF EFFECTIVE MASSES SECTION

 ---- first-order wavefunction calculations are completed ----

 Total localisation tensor (bohr^2) in cartesian coordinates
  WARNING : still subject to testing - especially symmetries.
      direction              matrix element
   alpha     beta       real part   imaginary part
     1        1       0.5488731104    0.0000000000
     1        2       0.1552494711    0.0000000000
     1        3       0.3802723692    0.0000000000
     2        1       0.1552494711    0.0000000000
     2        2       0.4391118151    0.0000000000
     2        3       0.2688999717    0.0000000000
     3        1       0.3802723692    0.0000000000
     3        2       0.2688999717    0.0000000000
     3        3       0.9880100247    0.0000000000

 respfn : d/dk was computed, but no 2DTE, so no DDB output.

== END DATASET(S) ==============================================================

 -outvars: echo values of variables after computation  --------
            acell      1.0000000000E+00  1.0000000000E+00  1.0000000000E+00 Bohr
              amu      1.07868200E+02  7.49215900E+01  1.89984032E+01
             ecut      4.30000000E+01 Hartree
           etotal     -4.9704123737E+01
            fcart      0.0000000000E+00  0.0000000000E+00  0.0000000000E+00
                       0.0000000000E+00  0.0000000000E+00  0.0000000000E+00
                       0.0000000000E+00  0.0000000000E+00  0.0000000000E+00
                       0.0000000000E+00  0.0000000000E+00  0.0000000000E+00
                       0.0000000000E+00  0.0000000000E+00  0.0000000000E+00
                       0.0000000000E+00  0.0000000000E+00  0.0000000000E+00
                       0.0000000000E+00  0.0000000000E+00  0.0000000000E+00
                       0.0000000000E+00  0.0000000000E+00  0.0000000000E+00
-          fftalg         512
           irdden           1
           irdwfk           1
           istwfk        1    1
              ixc     -116133
              kpt      5.00000000E-01 -1.23259516E-32  5.00000000E-01
                       0.00000000E+00  0.00000000E+00  0.00000000E+00
           kptopt           0
P           mkmem           2
P          mkqmem           2
P          mk1mem           2
            natom           8
            nband          47
           nbdbuf           4
            ngfft          72      72      72
             nkpt           2
            nstep        2000
             nsym          48
           ntypat           3
              occ      2.000000  2.000000  2.000000  2.000000  2.000000  2.000000
                       2.000000  2.000000  2.000000  2.000000  2.000000  2.000000
                       2.000000  2.000000  2.000000  2.000000  2.000000  2.000000
                       2.000000  2.000000  2.000000  2.000000  2.000000  2.000000
                       2.000000  2.000000  2.000000  2.000000  2.000000  2.000000
                       2.000000  2.000000  2.000000  2.000000  2.000000  2.000000
                       2.000000  2.000000  0.000000  0.000000  0.000000  0.000000
                       0.000000  0.000000  0.000000  0.000000  0.000000
        optdriver           1
            prtwf          -1
            rfdir           1       1       1
           rfelfd           2
            rprim      9.6342450239E+00  0.0000000000E+00  5.5623339580E+00
                       3.2114150080E+00  9.0832533174E+00  5.5623339580E+00
                       0.0000000000E+00  0.0000000000E+00  1.1124667916E+01
          spgroup         225
           strten      0.0000000000E+00  0.0000000000E+00  0.0000000000E+00
                       0.0000000000E+00  0.0000000000E+00  0.0000000000E+00
           symrel      1  0  0   0  1  0   0  0  1      -1  0  0   0 -1  0   0  0 -1
                       0 -1  1   0 -1  0   1 -1  0       0  1 -1   0  1  0  -1  1  0
                      -1  0  0  -1  0  1  -1  1  0       1  0  0   1  0 -1   1 -1  0
                       0  1 -1   1  0 -1   0  0 -1       0 -1  1  -1  0  1   0  0  1
                      -1  0  0  -1  1  0  -1  0  1       1  0  0   1 -1  0   1  0 -1
                       0 -1  1   1 -1  0   0 -1  0       0  1 -1  -1  1  0   0  1  0
                       1  0  0   0  0  1   0  1  0      -1  0  0   0  0 -1   0 -1  0
                       0  1 -1   0  0 -1   1  0 -1       0 -1  1   0  0  1  -1  0  1
                      -1  0  1  -1  1  0  -1  0  0       1  0 -1   1 -1  0   1  0  0
                       0 -1  0   1 -1  0   0 -1  1       0  1  0  -1  1  0   0  1 -1
                       1  0 -1   0  0 -1   0  1 -1      -1  0  1   0  0  1   0 -1  1
                       0  1  0   0  0  1   1  0  0       0 -1  0   0  0 -1  -1  0  0
                       1  0 -1   0  1 -1   0  0 -1      -1  0  1   0 -1  1   0  0  1
                       0 -1  0   0 -1  1   1 -1  0       0  1  0   0  1 -1  -1  1  0
                      -1  0  1  -1  0  0  -1  1  0       1  0 -1   1  0  0   1 -1  0
                       0  1  0   1  0  0   0  0  1       0 -1  0  -1  0  0   0  0 -1
                       0  0 -1   0  1 -1   1  0 -1       0  0  1   0 -1  1  -1  0  1
                       1 -1  0   0 -1  1   0 -1  0      -1  1  0   0  1 -1   0  1  0
                       0  0  1   1  0  0   0  1  0       0  0 -1  -1  0  0   0 -1  0
                      -1  1  0  -1  0  0  -1  0  1       1 -1  0   1  0  0   1  0 -1
                       0  0  1   0  1  0   1  0  0       0  0 -1   0 -1  0  -1  0  0
                       1 -1  0   0 -1  0   0 -1  1      -1  1  0   0  1  0   0  1 -1
                       0  0 -1   1  0 -1   0  1 -1       0  0  1  -1  0  1   0 -1  1
                      -1  1  0  -1  0  1  -1  0  0       1 -1  0   1  0 -1   1  0  0
           tolwfr      1.00000000E-20
            typat      1  2  3  3  3  3  3  3
           useylm           1
              wtk        0.50000    0.50000
           xangst      3.3988152591E+00  2.4033253177E+00  5.8869207143E+00
                       0.0000000000E+00  0.0000000000E+00  0.0000000000E+00
                       4.3807941661E+00  1.0145974294E+00  4.1860833554E+00
                       4.3807941661E+00  1.0145974294E+00  7.5877580732E+00
                       5.3627730731E+00  3.7920532060E+00  5.8869207143E+00
                       1.4348574450E+00  1.0145974294E+00  5.8869207143E+00
                       2.4168363521E+00  3.7920532060E+00  4.1860833554E+00
                       2.4168363521E+00  3.7920532060E+00  7.5877580732E+00
            xcart      6.4228300159E+00  4.5416266587E+00  1.1124667916E+01
                       0.0000000000E+00  0.0000000000E+00  0.0000000000E+00
                       8.2785012185E+00  1.9173112767E+00  7.9105511110E+00
                       8.2785012185E+00  1.9173112767E+00  1.4338784721E+01
                       1.0134172421E+01  7.1659420407E+00  1.1124667916E+01
                       2.7114876109E+00  1.9173112767E+00  1.1124667916E+01
                       4.5671588134E+00  7.1659420407E+00  7.9105511110E+00
                       4.5671588134E+00  7.1659420407E+00  1.4338784721E+01
             xred      5.0000000000E-01  5.0000000000E-01  5.0000000000E-01
                       0.0000000000E+00  0.0000000000E+00  0.0000000000E+00
                       7.8891800000E-01  2.1108200000E-01  2.1108200000E-01
                       7.8891800000E-01  2.1108200000E-01  7.8891800000E-01
                       7.8891800000E-01  7.8891800000E-01  2.1108200000E-01
                       2.1108200000E-01  2.1108200000E-01  7.8891800000E-01
                       2.1108200000E-01  7.8891800000E-01  2.1108200000E-01
                       2.1108200000E-01  7.8891800000E-01  7.8891800000E-01
            znucl       47.00000   33.00000    9.00000

- Timing analysis has been suppressed with timopt=0

 Suggested references for the acknowledgment of ABINIT usage.

 Calculation completed.
.Delivered  14 WARNINGs and   9 COMMENTs to log file.