.Version 9.5.2 of ABINIT

 ABINIT is a project of the Universite Catholique de Louvain,
 Corning Inc. and other collaborators, see ~abinit/doc/developers/contributors.txt .
 acknowledgments of the ABINIT effort.

.Starting date : Mon 31 May 2021.
- ( at 22h11 )

- input  file    -> /scratch/users/j/a/jabreu/flow_simple_11atoms/flow/w345/t1/run.abi
- output file    -> /scratch/users/j/a/jabreu/flow_simple_11atoms/flow/w345/t1/run.abo
- root for input  files -> /scratch/users/j/a/jabreu/flow_simple_11atoms/flow/w345/t1/indata/in
- root for output files -> /scratch/users/j/a/jabreu/flow_simple_11atoms/flow/w345/t1/outdata/out

 Symmetries : space group I4/m m m (#139); Bravais tI (body-center tetrag.)
     intxc =       0      iscf =       7    lmnmax =      18     lnmax =       6
     mgfft =     125  mpssoang =       3    mqgrid =    3001     natom =      12
  nloc_mem =       1    nspden =       1   nspinor =       1    nsppol =       1
      nsym =      16    n1xccc =    2501    ntypat =       3    occopt =       1
   xclevel =       2
-    mband =          67        mffmem =           1         mkmem =           2
-   mkqmem =           2        mk1mem =           2           mpw =       15200
      nfft =     1953125          nkpt =           2
  Rough estimation (10% accuracy) of disk space for files :

------------- Echo of variables that govern the present computation ------------
-
- outvars: echo of selected default values
-   iomode0 =  0 , fftalg0 =512 , wfoptalg0 =  0
-
- outvars: echo of global parameters not present in the input file
-  max_nthreads =    0
-
 -outvars: echo values of preprocessed input variables --------
            acell      1.0000000000E+00  1.0000000000E+00  1.0000000000E+00 Bohr
              amu      3.90983000E+01  6.53900000E+01  1.89984032E+01
             ecut      4.20000000E+01 Hartree
-          fftalg         512
           irdden           1
           irdwfk           1
           istwfk        0    1
              ixc     -116133
              kpt      1.50000000E-01  1.50000000E-01  3.50000000E-01
                       0.00000000E+00  0.00000000E+00  0.00000000E+00
           kptopt           0
P           mkmem           2
P          mkqmem           2
P          mk1mem           2
            natom          12
            nband          67
           nbdbuf           4
            ngfft         125     125     125
             nkpt           2
            nstep        2000
             nsym          16
           ntypat           3
              occ      2.000000  2.000000  2.000000  2.000000  2.000000  2.000000
                       2.000000  2.000000  2.000000  2.000000  2.000000  2.000000
                       2.000000  2.000000  2.000000  2.000000  2.000000  2.000000
                       2.000000  2.000000  2.000000  2.000000  2.000000  2.000000
                       2.000000  2.000000  2.000000  2.000000  2.000000  2.000000
                       2.000000  2.000000  2.000000  2.000000  2.000000  2.000000
                       2.000000  2.000000  2.000000  2.000000  2.000000  2.000000
                       2.000000  2.000000  2.000000  2.000000  2.000000  2.000000
                       2.000000  2.000000  2.000000  2.000000  2.000000  2.000000
                       2.000000  2.000000  2.000000  2.000000  0.000000  0.000000
                       0.000000  0.000000  0.000000  0.000000  0.000000  0.000000
                       0.000000
        optdriver           1
            prtwf          -1
            rfdir           1       1       1
           rfelfd           2
            rprim      7.5295816028E+00  0.0000000000E+00 -1.9147991404E+01
                      -2.7053506520E-01  7.5247199211E+00 -1.9147991404E+01
                       0.0000000000E+00  0.0000000000E+00  2.0575232050E+01
          spgroup         139
           symrel      1  0  0   0  1  0   0  0  1      -1  0  0   0 -1  0   0  0 -1
                       0  0  1  -1 -1 -1   1  0  0       0  0 -1   1  1  1  -1  0  0
                       0  1  0   1  0  0  -1 -1 -1       0 -1  0  -1  0  0   1  1  1
                      -1 -1 -1   0  0  1   0  1  0       1  1  1   0  0 -1   0 -1  0
                       0  1  0   1  0  0   0  0  1       0 -1  0  -1  0  0   0  0 -1
                       0  0  1  -1 -1 -1   0  1  0       0  0 -1   1  1  1   0 -1  0
                       1  0  0   0  1  0  -1 -1 -1      -1  0  0   0 -1  0   1  1  1
                      -1 -1 -1   0  0  1   1  0  0       1  1  1   0  0 -1  -1  0  0
           tolwfr      1.00000000E-20
            typat      1  1  1  2  2  3  3  3  3  3  3  3
           useylm           1
              wtk        0.50000    0.50000
           xangst      1.2130126560E+00  1.2574076293E+00 -6.3993957858E+00
                       2.6283093278E+00  2.7245026540E+00 -1.3865965497E+01
                       1.9206609919E+00  1.9909551416E+00 -1.0132680641E+01
                       3.7192063579E-01  3.8553253554E-01 -1.9621125447E+00
                       3.4694013480E+00  3.5963777477E+00 -1.8303248738E+01
                       0.0000000000E+00  0.0000000000E+00  0.0000000000E+00
                       1.4837093148E+00  3.6031669048E+00 -7.8274889270E+00
                       3.5475312973E+00  1.6122117631E+00 -7.8274889270E+00
                       2.3576126690E+00  3.7874337850E-01 -1.5499284932E+00
                       2.9379068650E-01  2.3696985201E+00 -1.5499284932E+00
                       7.3759528204E-01  7.6459048495E-01 -3.8912736120E+00
                       3.1037267018E+00  3.2173197983E+00 -1.6374087671E+01
            xcart      2.2922617156E+00  2.3761560567E+00 -1.2093105451E+01
                       4.9667848220E+00  5.1485638644E+00 -2.6202877357E+01
                       3.6295232688E+00  3.7623599605E+00 -1.9147991404E+01
                       7.0282814482E-01  7.2855090748E-01 -3.7078553515E+00
                       6.5562183928E+00  6.7961690136E+00 -3.4588127457E+01
                       0.0000000000E+00  0.0000000000E+00  0.0000000000E+00
                       2.8038042657E+00  6.8089986611E+00 -1.4791810380E+01
                       6.7038625997E+00  3.0466387005E+00 -1.4791810380E+01
                       4.4552422719E+00  7.1572126002E-01 -2.9289403777E+00
                       5.5518393787E-01  4.4780812206E+00 -2.9289403777E+00
                       1.3938530800E+00  1.4448666204E+00 -7.3534414349E+00
                       5.8651934576E+00  6.0798533007E+00 -3.0942541373E+01
             xred      3.1578000000E-01  3.1578000000E-01 -5.5511151231E-17
                       6.8422000000E-01  6.8422000000E-01 -1.1102230246E-16
                       5.0000000000E-01  5.0000000000E-01  0.0000000000E+00
                       9.6821000000E-02  9.6821000000E-02  0.0000000000E+00
                       9.0317900000E-01  9.0317900000E-01 -1.1102230246E-16
                       0.0000000000E+00  0.0000000000E+00  0.0000000000E+00
                       4.0488400000E-01  9.0488400000E-01  5.0000000000E-01
                       9.0488400000E-01  4.0488400000E-01  5.0000000000E-01
                       5.9511600000E-01  9.5116000000E-02  5.0000000000E-01
                       9.5116000000E-02  5.9511600000E-01  5.0000000000E-01
                       1.9201600000E-01  1.9201600000E-01  2.7755575616E-17
                       8.0798400000E-01  8.0798400000E-01  1.1102230246E-16
            znucl       19.00000   30.00000    9.00000

 chkinp: Checking input parameters for consistency.

== DATASET  1 ==================================================================
-   mpi_nproc: 1, omp_nthreads: -1 (-1 if OMP is not activated)

--- !DatasetInfo
iteration_state: {dtset: 1, }
dimensions: {natom: 12, nkpt: 2, mband: 67, nsppol: 1, nspinor: 1, nspden: 1, mpw: 15200, }
cutoff_energies: {ecut:  42.0, pawecutdg:  -1.0, }
electrons: {nelect:   1.16000000E+02, charge:   0.00000000E+00, occopt:   1.00000000E+00, tsmear:   1.00000000E-02, }
meta: {optdriver: 1, rfelfd: 2, }
...

 Real(R)+Recip(G) space primitive vectors, cartesian coordinates (Bohr,Bohr^-1):
 R(1)=  7.5295816  0.0000000-19.1479914  G(1)=  0.1328095  0.0047749  0.0000000
 R(2)= -0.2705351  7.5247199-19.1479914  G(2)=  0.0000000  0.1328953  0.0000000
 R(3)=  0.0000000  0.0000000 20.5752321  G(3)=  0.1235969  0.1281204  0.0486021
 Unit cell volume ucvol=  1.1657513E+03 bohr^3
 Angles (23,13,12)=  1.58533715E+02  1.58533715E+02  3.05409560E+01 degrees

 getcut: wavevector=  0.0000  0.0000  0.0000  ngfft= 125 125 125
         ecut(hartree)=     42.000   => boxcut(ratio)=   2.06617

--- Pseudopotential description ------------------------------------------------
- pspini: atom type   1  psp file is /scratch/users/j/a/jabreu/pseudos/PBEsol/K.psp8
- pspatm: opening atomic psp file    /scratch/users/j/a/jabreu/pseudos/PBEsol/K.psp8
- K     ONCVPSP-3.3.0  r_core=   1.36296   1.46408   1.61068
- 19.00000   9.00000    180112                znucl, zion, pspdat
    8 -116133    2    4       400   0.00000   pspcod,pspxc,lmax,lloc,mmax,r2well
    3.99000000000000    5.00000000000000    0.00000000000000   rchrg,fchrg,qchrg
     nproj     2     2     2
     extension_switch     1
  pspatm : epsatm=    8.32487830
         --- l  ekb(1:nproj) -->
             0   10.921326    0.816676
             1    4.431000    0.560368
             2   -3.384038   -1.043186
 pspatm: atomic psp has been read  and splines computed

- pspini: atom type   2  psp file is /scratch/users/j/a/jabreu/pseudos/PBEsol/Zn.psp8
- pspatm: opening atomic psp file    /scratch/users/j/a/jabreu/pseudos/PBEsol/Zn.psp8
- Zn    ONCVPSP-3.3.0  r_core=   1.35823   1.66358   1.85211
- 30.00000  20.00000    180112                znucl, zion, pspdat
    8 -116133    2    4       600   0.00000   pspcod,pspxc,lmax,lloc,mmax,r2well
    5.99000000000000    2.50000000000000    0.00000000000000   rchrg,fchrg,qchrg
     nproj     2     2     2
     extension_switch     1
  pspatm : epsatm=   26.57343589
         --- l  ekb(1:nproj) -->
             0    2.830835   -1.519107
             1   -4.626739   -1.324150
             2   -6.948510   -2.555500
 pspatm: atomic psp has been read  and splines computed

- pspini: atom type   3  psp file is /scratch/users/j/a/jabreu/pseudos/PBEsol/F.psp8
- pspatm: opening atomic psp file    /scratch/users/j/a/jabreu/pseudos/PBEsol/F.psp8
- F     ONCVPSP-3.3.0  r_core=   1.30942   1.45782   1.60379
-  9.00000   7.00000    180112                znucl, zion, pspdat
    8 -116133    2    4       600   0.00000   pspcod,pspxc,lmax,lloc,mmax,r2well
    5.99000000000000    2.50000000000000    0.00000000000000   rchrg,fchrg,qchrg
     nproj     2     2     1
     extension_switch     1
  pspatm : epsatm=    4.89824824
         --- l  ekb(1:nproj) -->
             0    6.506434    1.065875
             1   -3.978753   -1.295852
             2   -2.394754
 pspatm: atomic psp has been read  and splines computed

   1.30394723E+04                                ecore*ucvol(ha*bohr**3)

 ==>  initialize data related to q vector <==

 The list of irreducible perturbations for this q vector is:
    1)    idir= 1    ipert=  13
[...]
   0.00027   -0.00025    0.00000   -0.00000    0.00000    0.00000    0.00000   -0.00005
   0.00059   -0.00060    0.00025   -0.00026    0.00031   -0.00030    0.00006   -0.00002
   0.00068    0.00134   -0.00154   -0.00070    0.00011   -0.00001    0.00044   -0.00118
   0.00606   -0.00824    0.00000    0.00000    0.00635   -0.00334    0.00005   -0.00001
   0.00000   -0.00000    0.00644   -0.00964    0.00005   -0.00032    0.00032    0.02056
  -0.02804    0.02564   -0.01513
 prteigrs : prtvol=0 or 1, do not print more k-points.

 Eight components of 2nd-order total energy (hartree) are
 1,2,3: 0th-order hamiltonian combined with 1st-order wavefunctions
     kin0=   1.33260828E+02 eigvalue=   5.67410442E+00  local=  -5.49859110E+01
 4,5,6: 1st-order hamiltonian combined with 1st and 0th-order wfs
     kin1=  -1.67236481E+02  Hartree=   0.00000000E+00     xc=   0.00000000E+00
 7,8,9: eventually, occupation + non-local contributions
    edocc=   9.61505480E+00     enl0=  -3.18820280E+00   enl1=  -1.35152655E+01
 1-9 gives the relaxation energy (to be shifted if some occ is /=2.0)
   erelax=  -9.03758734E+01
  No Ewald or frozen-wf contrib.: the relaxation energy is the total one
 2DEtotal=   -0.9037587337E+02 Ha. Also 2DEtotal=   -0.245925258204E+04 eV
    (  non-var. 2DEtotal :   -9.0375873373E+01 Ha)

 Perturbation wavevector (in red.coord.)   0.000000  0.000000  0.000000
 Perturbation : derivative vs k along direction   2
 The set of symmetries contains only one element for this perturbation.
 symkpt : not enough symmetry to change the number of k points.

[...]

 Perturbation wavevector (in red.coord.)   0.000000  0.000000  0.000000
 Perturbation : derivative vs k along direction   3
 The set of symmetries contains only one element for this perturbation.
 symkpt : not enough symmetry to change the number of k points.

 Initialisation of the first-order wave-functions :
  ireadwf=   0

--- !BeginCycle
iteration_state: {dtset: 1, }
solver: {iscf: 7, nstep: 2000, nline: 4, wfoptalg: 0, }
tolerances: {tolwfr: 1.00E-20, }
...

     iter   2DEtotal(Ha)        deltaE(Ha) residm    vres2
-ETOT  1  -174.09791274199     -1.741E+02 2.290E-01 0.000E+00
 ETOT  2  -174.41175154651     -3.138E-01 1.060E-02 0.000E+00
 ETOT  3  -174.41392715724     -2.176E-03 5.952E-04 0.000E+00
 ETOT  4  -174.41395274054     -2.558E-05 5.698E-05 0.000E+00
 ETOT  5  -174.41395312390     -3.834E-07 4.550E-06 0.000E+00
 ETOT  6  -174.41395313110     -7.198E-09 6.992E-07 0.000E+00
 ETOT  7  -174.41395313126     -1.604E-10 4.295E-08 0.000E+00
 ETOT  8  -174.41395313126     -4.178E-12 8.637E-09 0.000E+00
 ETOT  9  -174.41395313126     -1.705E-13 5.007E-10 0.000E+00
 ETOT 10  -174.41395313126      5.684E-14 1.222E-10 0.000E+00
 ETOT 11  -174.41395313126      2.842E-14 1.329E-11 0.000E+00
 ETOT 12  -174.41395313126      2.842E-14 5.422E-12 0.000E+00
 ETOT 13  -174.41395313126      2.842E-14 6.875E-13 0.000E+00
 ETOT 14  -174.41395313126      0.000E+00 2.849E-13 0.000E+00
 ETOT 15  -174.41395313126     -5.684E-14 3.637E-14 0.000E+00
 ETOT 16  -174.41395313126      0.000E+00 1.519E-14 0.000E+00
 ETOT 17  -174.41395313126      0.000E+00 1.946E-15 0.000E+00
 ETOT 18  -174.41395313126      5.684E-14 8.171E-16 0.000E+00
 ETOT 19  -174.41395313126     -5.684E-14 1.049E-16 0.000E+00
 ETOT 20  -174.41395313126      5.684E-14 4.419E-17 0.000E+00
 ETOT 21  -174.41395313126      0.000E+00 5.683E-18 0.000E+00
 ETOT 22  -174.41395313126     -2.842E-14 2.398E-18 0.000E+00
 ETOT 23  -174.41395313126     -2.842E-14 3.090E-19 0.000E+00
 ETOT 24  -174.41395313126      0.000E+00 1.305E-19 0.000E+00
 ETOT 25  -174.41395313126      2.842E-14 1.684E-20 0.000E+00
 ETOT 26  -174.41395313126      0.000E+00 9.999E-21 0.000E+00

 At SCF step   26   max residual=  1.00E-20 < tolwfr=  1.00E-20 =>converged.

 ----iterations are completed or convergence reached----

 dfpt_looppert: DFPT cycle converged with prtwf=-1. Will skip output of the 1st-order WFK file.
 dfpt_looppert : ek2=    3.1189310514E+02
          f-sum rule ratio=    1.0350884539E+00
 prteigrs : about to open file /scratch/users/j/a/jabreu/flow_simple_11atoms/flow/w345/t1/tmpdata/tmp_1WF1_EIG
 Expectation of eigenvalue derivatives (hartree) for nkpt=   2  k points:
  (in case of degenerate eigenvalues, averaged derivative)
 kpt#   1, nband= 67, wtk=  0.50000, kpt=  0.1500  0.1500  0.3500 (reduced coord)
   0.00000    0.00000    0.00000    0.00000    0.00000    0.00000    0.00000   -0.00000
   0.00000    0.00000    0.00000    0.00000   -0.00000    0.00000    0.00000    0.00000
   0.00000    0.00000   -0.00000    0.00000    0.00000    0.00000    0.00000   -0.00000
  -0.00000   -0.00000    0.00000   -0.00000    0.00000   -0.00000    0.00000    0.00000
   0.00000   -0.00000   -0.00000    0.00000   -0.00000    0.00000    0.00000    0.00000
  -0.00000    0.00000    0.00000   -0.00000    0.00000   -0.00000    0.00000    0.00000
  -0.00000    0.00000    0.00000    0.00000   -0.00000   -0.00000   -0.00000    0.00000
   0.00000   -0.00000    0.00000    0.00000   -0.00000    0.00000    0.00000   -0.00000
   0.00000   -0.00000    0.00074
 prteigrs : prtvol=0 or 1, do not print more k-points.

 Eight components of 2nd-order total energy (hartree) are
 1,2,3: 0th-order hamiltonian combined with 1st-order wavefunctions
     kin0=   2.57118617E+02 eigvalue=   1.09299254E+01  local=  -1.06119923E+02
 4,5,6: 1st-order hamiltonian combined with 1st and 0th-order wfs
     kin1=  -3.22836952E+02  Hartree=   0.00000000E+00     xc=   0.00000000E+00
 7,8,9: eventually, occupation + non-local contributions
    edocc=   1.86515459E+01     enl0=  -6.16621211E+00   enl1=  -2.59909543E+01
 1-9 gives the relaxation energy (to be shifted if some occ is /=2.0)
   erelax=  -1.74413953E+02
  No Ewald or frozen-wf contrib.: the relaxation energy is the total one
 2DEtotal=   -0.1744139531E+03 Ha. Also 2DEtotal=   -0.474604502919E+04 eV
    (  non-var. 2DEtotal :   -1.7441395313E+02 Ha)

 CALCULATION OF EFFECTIVE MASSES
 NOTE : Additional infos (eff. mass eigenvalues, eigenvectors and, if degenerate, average mass) are available in stdout.

--- !WARNING
src_file: m_efmas.F90
src_line: 0
message: |

    Band(s)    58,
    are not band extrema, but saddle points;
    the transport equivalent formalism breaks down in these conditions.
    The associated tensor(s) will therefore not be printed.
...

 K-point ( 0.150, 0.150, 0.350) | band =    58
 Effective mass tensor:
     *** SADDLE POINT: TRANSPORT EQV. EFF. MASS NOT DEFINED (see WARNING above) ***
 Angular average effective mass 1/(<1/m>)=  -1.1588612745
 Angular average effective mass for Frohlich model (<m**0.5>)**2=  -1.9136053769
 Effective masses along directions: (cart. coord. / red. coord. -> eff. mass)
    1:   1.000000  0.000000  0.000000 /   0.999355 -0.035906  0.000000 ->  -0.7994789809
    2:   0.000000  1.000000  0.000000 /   0.000000  1.000000  0.000000 ->  -0.8013638938
    3:   0.000000  0.000000  1.000000 /  -0.563022 -0.563022  0.604989 -> -11.1035852151
    4:   0.577350  0.577350  0.577350 /  -0.439200 -0.449611  0.777787 ->  -0.8721163833
    5:   0.000000  0.707107  0.707107 /  -0.629553 -0.382153  0.676478 ->  -1.1032588873
    6:   0.707107  0.000000  0.707107 /  -0.379880 -0.634916  0.672736 ->  -1.1117359247
    7:   0.707107  0.707107  0.000000 /   0.720154  0.693814  0.000000 ->  -0.8275211985

 K-point ( 0.000, 0.000, 0.000) | band =    59
 Effective mass tensor:
              0.4865967649              0.0021092237             -0.0107345920
              0.0021092237              0.4867484301             -0.0111274667
             -0.0107345920             -0.0111274667              0.5411936571
 Effective mass tensor eigenvalues:
              0.4845620108              0.4845620110              0.5454148301
 Angular average effective mass 1/(<1/m>)=   0.5032792385
 Angular average effective mass for Frohlich model (<m**0.5>)**2=   0.5037390609
 Effective masses along directions: (cart. coord. / red. coord. -> eff. mass)
    1:   1.000000  0.000000  0.000000 /   0.999355 -0.035906  0.000000 ->   0.4863765133
    2:   0.000000  1.000000  0.000000 /   0.000000  1.000000  0.000000 ->   0.4865123059
    3:   0.000000  0.000000  1.000000 /  -0.563022 -0.563022  0.604989 ->   0.5407045813
    4:   0.577350  0.577350  0.577350 /  -0.439200 -0.449611  0.777787 ->   0.4909673825
    5:   0.000000  0.707107  0.707107 /  -0.629553 -0.382153  0.676478 ->   0.5013671586
    6:   0.707107  0.000000  0.707107 /  -0.379880 -0.634916  0.672736 ->   0.5016688853
    7:   0.707107  0.707107  0.000000 /   0.720154  0.693814  0.000000 ->   0.4883402418

 END OF EFFECTIVE MASSES SECTION

 ---- first-order wavefunction calculations are completed ----

 Total localisation tensor (bohr^2) in cartesian coordinates
  WARNING : still subject to testing - especially symmetries.
      direction              matrix element
   alpha     beta       real part   imaginary part
     1        1       0.4341881573    0.0000000000
     1        2      -0.0155700476    0.0000000000
     1        3      -1.0631114662    0.0000000000
     2        1      -0.0155700476    0.0000000000
     2        2       0.4330686204    0.0000000000
     2        3      -1.1020203154    0.0000000000
     3        1      -1.0631114662    0.0000000000
     3        2      -1.1020203154    0.0000000000
     3        3      11.8713052727    0.0000000000

 respfn : d/dk was computed, but no 2DTE, so no DDB output.

== END DATASET(S) ==============================================================

 -outvars: echo values of variables after computation  --------
            acell      1.0000000000E+00  1.0000000000E+00  1.0000000000E+00 Bohr
              amu      3.90983000E+01  6.53900000E+01  1.89984032E+01
             ecut      4.20000000E+01 Hartree
           etotal     -1.7441395313E+02
            fcart      0.0000000000E+00  0.0000000000E+00  0.0000000000E+00
                       0.0000000000E+00  0.0000000000E+00  0.0000000000E+00
                       0.0000000000E+00  0.0000000000E+00  0.0000000000E+00
                       0.0000000000E+00  0.0000000000E+00  0.0000000000E+00
                       0.0000000000E+00  0.0000000000E+00  0.0000000000E+00
                       0.0000000000E+00  0.0000000000E+00  0.0000000000E+00
                       0.0000000000E+00  0.0000000000E+00  0.0000000000E+00
                       0.0000000000E+00  0.0000000000E+00  0.0000000000E+00
                       0.0000000000E+00  0.0000000000E+00  0.0000000000E+00
                       0.0000000000E+00  0.0000000000E+00  0.0000000000E+00
                       0.0000000000E+00  0.0000000000E+00  0.0000000000E+00
                       0.0000000000E+00  0.0000000000E+00  0.0000000000E+00
-          fftalg         512
           irdden           1
           irdwfk           1
           istwfk        0    1
              ixc     -116133
              kpt      1.50000000E-01  1.50000000E-01  3.50000000E-01
                       0.00000000E+00  0.00000000E+00  0.00000000E+00
           kptopt           0
P           mkmem           2
P          mkqmem           2
P          mk1mem           2
            natom          12
            nband          67
           nbdbuf           4
            ngfft         125     125     125
             nkpt           2
            nstep        2000
             nsym          16
           ntypat           3
              occ      2.000000  2.000000  2.000000  2.000000  2.000000  2.000000
                       2.000000  2.000000  2.000000  2.000000  2.000000  2.000000
                       2.000000  2.000000  2.000000  2.000000  2.000000  2.000000
                       2.000000  2.000000  2.000000  2.000000  2.000000  2.000000
                       2.000000  2.000000  2.000000  2.000000  2.000000  2.000000
                       2.000000  2.000000  2.000000  2.000000  2.000000  2.000000
                       2.000000  2.000000  2.000000  2.000000  2.000000  2.000000
                       2.000000  2.000000  2.000000  2.000000  2.000000  2.000000
                       2.000000  2.000000  2.000000  2.000000  2.000000  2.000000
                       2.000000  2.000000  2.000000  2.000000  0.000000  0.000000
                       0.000000  0.000000  0.000000  0.000000  0.000000  0.000000
                       0.000000
        optdriver           1
            prtwf          -1
            rfdir           1       1       1
           rfelfd           2
            rprim      7.5295816028E+00  0.0000000000E+00 -1.9147991404E+01
                      -2.7053506520E-01  7.5247199211E+00 -1.9147991404E+01
                       0.0000000000E+00  0.0000000000E+00  2.0575232050E+01
          spgroup         139
           strten      0.0000000000E+00  0.0000000000E+00  0.0000000000E+00
                       0.0000000000E+00  0.0000000000E+00  0.0000000000E+00
           symrel      1  0  0   0  1  0   0  0  1      -1  0  0   0 -1  0   0  0 -1
                       0  0  1  -1 -1 -1   1  0  0       0  0 -1   1  1  1  -1  0  0
                       0  1  0   1  0  0  -1 -1 -1       0 -1  0  -1  0  0   1  1  1
                      -1 -1 -1   0  0  1   0  1  0       1  1  1   0  0 -1   0 -1  0
                       0  1  0   1  0  0   0  0  1       0 -1  0  -1  0  0   0  0 -1
                       0  0  1  -1 -1 -1   0  1  0       0  0 -1   1  1  1   0 -1  0
                       1  0  0   0  1  0  -1 -1 -1      -1  0  0   0 -1  0   1  1  1
                      -1 -1 -1   0  0  1   1  0  0       1  1  1   0  0 -1  -1  0  0
           tolwfr      1.00000000E-20
            typat      1  1  1  2  2  3  3  3  3  3  3  3
           useylm           1
              wtk        0.50000    0.50000
           xangst      1.2130126560E+00  1.2574076293E+00 -6.3993957858E+00
                       2.6283093278E+00  2.7245026540E+00 -1.3865965497E+01
                       1.9206609919E+00  1.9909551416E+00 -1.0132680641E+01
                       3.7192063579E-01  3.8553253554E-01 -1.9621125447E+00
                       3.4694013480E+00  3.5963777477E+00 -1.8303248738E+01
                       0.0000000000E+00  0.0000000000E+00  0.0000000000E+00
                       1.4837093148E+00  3.6031669048E+00 -7.8274889270E+00
                       3.5475312973E+00  1.6122117631E+00 -7.8274889270E+00
                       2.3576126690E+00  3.7874337850E-01 -1.5499284932E+00
                       2.9379068650E-01  2.3696985201E+00 -1.5499284932E+00
                       7.3759528204E-01  7.6459048495E-01 -3.8912736120E+00
                       3.1037267018E+00  3.2173197983E+00 -1.6374087671E+01
            xcart      2.2922617156E+00  2.3761560567E+00 -1.2093105451E+01
                       4.9667848220E+00  5.1485638644E+00 -2.6202877357E+01
                       3.6295232688E+00  3.7623599605E+00 -1.9147991404E+01
                       7.0282814482E-01  7.2855090748E-01 -3.7078553515E+00
                       6.5562183928E+00  6.7961690136E+00 -3.4588127457E+01
                       0.0000000000E+00  0.0000000000E+00  0.0000000000E+00
                       2.8038042657E+00  6.8089986611E+00 -1.4791810380E+01
                       6.7038625997E+00  3.0466387005E+00 -1.4791810380E+01
                       4.4552422719E+00  7.1572126002E-01 -2.9289403777E+00
                       5.5518393787E-01  4.4780812206E+00 -2.9289403777E+00
                       1.3938530800E+00  1.4448666204E+00 -7.3534414349E+00
                       5.8651934576E+00  6.0798533007E+00 -3.0942541373E+01
             xred      3.1578000000E-01  3.1578000000E-01 -5.5511151231E-17
                       6.8422000000E-01  6.8422000000E-01 -1.1102230246E-16
                       5.0000000000E-01  5.0000000000E-01  0.0000000000E+00
                       9.6821000000E-02  9.6821000000E-02  0.0000000000E+00
                       9.0317900000E-01  9.0317900000E-01 -1.1102230246E-16
                       0.0000000000E+00  0.0000000000E+00  0.0000000000E+00
                       4.0488400000E-01  9.0488400000E-01  5.0000000000E-01
                       9.0488400000E-01  4.0488400000E-01  5.0000000000E-01
                       5.9511600000E-01  9.5116000000E-02  5.0000000000E-01
                       9.5116000000E-02  5.9511600000E-01  5.0000000000E-01
                       1.9201600000E-01  1.9201600000E-01  2.7755575616E-17
                       8.0798400000E-01  8.0798400000E-01  1.1102230246E-16
            znucl       19.00000   30.00000    9.00000

- Timing analysis has been suppressed with timopt=0

 Suggested references for the acknowledgment of ABINIT usage.

 Calculation completed.
.Delivered   3 WARNINGs and   5 COMMENTs to log file.