.Version 9.5.1 of ABINIT

 ABINIT is a project of the Universite Catholique de Louvain,
 Corning Inc. and other collaborators, see ~abinit/doc/developers/contributors.txt .
 acknowledgments of the ABINIT effort.

.Starting date : Tue 27 Apr 2021.
- ( at 18h28 )

- input  file    -> /scratch/users/j/a/jabreu/flow_simple_4atoms/flow/w167/t1/run.abi
- output file    -> /scratch/users/j/a/jabreu/flow_simple_4atoms/flow/w167/t1/run.abo
- root for input  files -> /scratch/users/j/a/jabreu/flow_simple_4atoms/flow/w167/t1/indata/in
- root for output files -> /scratch/users/j/a/jabreu/flow_simple_4atoms/flow/w167/t1/outdata/out

 Symmetries : space group P6_3 m c (#186); Bravais hP (primitive hexag.)
     intxc =       0      iscf =       7    lmnmax =      18     lnmax =       6
     mgfft =      75  mpssoang =       3    mqgrid =    3644     natom =       4
  nloc_mem =       1    nspden =       1   nspinor =       1    nsppol =       1
      nsym =      12    n1xccc =    2501    ntypat =       2    occopt =       1
   xclevel =       2
-    mband =          45        mffmem =           1         mkmem =           1
-   mkqmem =           1        mk1mem =           1           mpw =        8149
      nfft =      172800          nkpt =           1
  Rough estimation (10% accuracy) of disk space for files :

------------- Echo of variables that govern the present computation ------------
-
- outvars: echo of selected default values
-   iomode0 =  0 , fftalg0 =512 , wfoptalg0 =  0
-
- outvars: echo of global parameters not present in the input file
-  max_nthreads =    0
-
 -outvars: echo values of preprocessed input variables --------
            acell      1.0000000000E+00  1.0000000000E+00  1.0000000000E+00 Bohr
              amu      6.53900000E+01  7.89600000E+01
             ecut      4.30000000E+01 Hartree
-          fftalg         512
           irdden           1
           irdwfk           1
           istwfk        1
              ixc     -116133
           kptopt           0
P           mkmem           1
P          mkqmem           1
P          mk1mem           1
            natom           4
            nband          45
           nbdbuf           4
            ngfft          48      48      75
             nkpt           1
            nstep         100
             nsym          12
           ntypat           2
              occ      2.000000  2.000000  2.000000  2.000000  2.000000  2.000000
                       2.000000  2.000000  2.000000  2.000000  2.000000  2.000000
                       2.000000  2.000000  2.000000  2.000000  2.000000  2.000000
                       2.000000  2.000000  2.000000  2.000000  2.000000  2.000000
                       2.000000  2.000000  2.000000  2.000000  2.000000  2.000000
                       2.000000  2.000000  2.000000  2.000000  2.000000  2.000000
                       0.000000  0.000000  0.000000  0.000000  0.000000  0.000000
                       0.000000  0.000000  0.000000
        optdriver           1
            prtwf          -1
            rfdir           1       1       1
           rfelfd           2
            rprim      7.5125017066E+00  0.0000000000E+00  0.0000000000E+00
                      -3.7562508533E+00  6.5060173239E+00  0.0000000000E+00
                       0.0000000000E+00  0.0000000000E+00  1.2343751857E+01
          spgroup         186
           symrel      1  0  0   0  1  0   0  0  1       0  1  0   1  0  0   0  0  1
                       1  1  0  -1  0  0   0  0  1      -1  0  0   1  1  0   0  0  1
                       0  1  0  -1 -1  0   0  0  1      -1 -1  0   0  1  0   0  0  1
                      -1  0  0   0 -1  0   0  0  1       0 -1  0  -1  0  0   0  0  1
                      -1 -1  0   1  0  0   0  0  1       1  0  0  -1 -1  0   0  0  1
                       0 -1  0   1  1  0   0  0  1       1  1  0   0 -1  0   0  0  1
            tnons      0.0000000  0.0000000  0.0000000     0.0000000  0.0000000  0.5000000
                       0.0000000  0.0000000  0.5000000     0.0000000  0.0000000  0.0000000
                       0.0000000  0.0000000  0.0000000     0.0000000  0.0000000  0.5000000
                       0.0000000  0.0000000  0.5000000     0.0000000  0.0000000  0.0000000
                       0.0000000  0.0000000  0.0000000     0.0000000  0.0000000  0.5000000
                       0.0000000  0.0000000  0.5000000     0.0000000  0.0000000  0.0000000
           tolwfr      1.00000000E-20
            typat      1  1  2  2
           useylm           1
           xangst      1.9877223413E+00  1.1476120288E+00  3.1941637220E-03
                       0.0000000000E+00  2.2952240577E+00  3.2692102394E+00
                       1.9877223413E+00  1.1476120288E+00  2.4463178931E+00
                       0.0000000000E+00  2.2952240577E+00  5.7123339688E+00
            xcart      3.7562508533E+00  2.1686724413E+00  6.0360946583E-03
                       0.0000000000E+00  4.3373448826E+00  6.1779120234E+00
                       3.7562508533E+00  2.1686724413E+00  4.6228708519E+00
                       0.0000000000E+00  4.3373448826E+00  1.0794746781E+01
             xred      6.6666666667E-01  3.3333333333E-01  4.8900000000E-04
                       3.3333333333E-01  6.6666666667E-01  5.0048900000E-01
                       6.6666666667E-01  3.3333333333E-01  3.7451100000E-01
                       3.3333333333E-01  6.6666666667E-01  8.7451100000E-01
            znucl       30.00000   34.00000

 chkinp: Checking input parameters for consistency.

== DATASET  1 ==================================================================
-   mpi_nproc: 1, omp_nthreads: -1 (-1 if OMP is not activated)

--- !DatasetInfo
iteration_state: {dtset: 1, }
dimensions: {natom: 4, nkpt: 1, mband: 45, nsppol: 1, nspinor: 1, nspden: 1, mpw: 8149, }
cutoff_energies: {ecut:  43.0, pawecutdg:  -1.0, }
electrons: {nelect:   7.20000000E+01, charge:   0.00000000E+00, occopt:   1.00000000E+00, tsmear:   1.00000000E-02, }
meta: {optdriver: 1, rfelfd: 2, }
...

 Real(R)+Recip(G) space primitive vectors, cartesian coordinates (Bohr,Bohr^-1):
 R(1)=  7.5125017  0.0000000  0.0000000  G(1)=  0.1331115  0.0768519  0.0000000
 R(2)= -3.7562509  6.5060173  0.0000000  G(2)=  0.0000000  0.1537039  0.0000000
 R(3)=  0.0000000  0.0000000 12.3437519  G(3)=  0.0000000  0.0000000  0.0810126
 Unit cell volume ucvol=  6.0331897E+02 bohr^3
 Angles (23,13,12)=  9.00000000E+01  9.00000000E+01  1.20000000E+02 degrees

 getcut: wavevector=  0.0000  0.0000  0.0000  ngfft=  48  48  75
         ecut(hartree)=     43.000   => boxcut(ratio)=   2.03088

--- Pseudopotential description ------------------------------------------------
- pspini: atom type   1  psp file is /scratch/users/j/a/jabreu/pseudos/PBEsol/Zn.psp8
- pspatm: opening atomic psp file    /scratch/users/j/a/jabreu/pseudos/PBEsol/Zn.psp8
- Zn    ONCVPSP-3.3.0  r_core=   1.35823   1.66358   1.85211
- 30.00000  20.00000    180112                znucl, zion, pspdat
    8 -116133    2    4       600   0.00000   pspcod,pspxc,lmax,lloc,mmax,r2well
    5.99000000000000    2.50000000000000    0.00000000000000   rchrg,fchrg,qchrg
     nproj     2     2     2
     extension_switch     1
  pspatm : epsatm=   26.57343589
         --- l  ekb(1:nproj) -->
             0    2.830835   -1.519107
             1   -4.626739   -1.324150
             2   -6.948510   -2.555500
 pspatm: atomic psp has been read  and splines computed

- pspini: atom type   2  psp file is /scratch/users/j/a/jabreu/pseudos/PBEsol/Se.psp8
- pspatm: opening atomic psp file    /scratch/users/j/a/jabreu/pseudos/PBEsol/Se.psp8
- Se    ONCVPSP-3.3.0  r_core=   1.81943   1.50330   1.90835
- 34.00000  16.00000    180112                znucl, zion, pspdat
    8 -116133    2    4       600   0.00000   pspcod,pspxc,lmax,lloc,mmax,r2well
    5.99000000000000    5.00000000000000    0.00000000000000   rchrg,fchrg,qchrg
     nproj     2     2     2
     extension_switch     1
  pspatm : epsatm=   29.17862020
         --- l  ekb(1:nproj) -->
             0    8.973804    1.019550
             1    6.849857    1.297308
             2   -9.203962   -3.731027
 pspatm: atomic psp has been read  and splines computed

   8.02829608E+03                                ecore*ucvol(ha*bohr**3)

-inwffil : will read wavefunctions from disk file /scratch/users/j/a/jabreu/flow_simple_4atoms/flow/w167/t1/indata/in_WFK

 ==>  initialize data related to q vector <==

 The list of irreducible perturbations for this q vector is:
    1)    idir= 1    ipert=   5
    2)    idir= 2    ipert=   5
    3)    idir= 3    ipert=   5

 Perturbation wavevector (in red.coord.)   0.000000  0.000000  0.000000
 Perturbation : derivative vs k along direction   1

 dfpt_looppert : COMMENT -
  In a d/dk calculation, iscf is set to -3 automatically.
 The set of symmetries contains only one element for this perturbation.
 symkpt : not enough symmetry to change the number of k points.

[...]

 Initialisation of the first-order wave-functions :
  ireadwf=   0

--- !BeginCycle
iteration_state: {dtset: 1, }
solver: {iscf: 7, nstep: 100, nline: 4, wfoptalg: 0, }
tolerances: {tolwfr: 1.00E-20, }
...

     iter   2DEtotal(Ha)        deltaE(Ha) residm    vres2
-ETOT  1  -156.06915941787     -1.561E+02 2.829E-01 0.000E+00
 ETOT  2  -156.18483050329     -1.157E-01 2.419E-03 0.000E+00
 ETOT  3  -156.18565549090     -8.250E-04 6.291E-05 0.000E+00
 ETOT  4  -156.18567040074     -1.491E-05 6.094E-07 0.000E+00
 ETOT  5  -156.18567072940     -3.287E-07 2.576E-08 0.000E+00
 ETOT  6  -156.18567073735     -7.955E-09 2.510E-10 0.000E+00
 ETOT  7  -156.18567073756     -2.049E-10 1.157E-11 0.000E+00
 ETOT  8  -156.18567073756     -5.372E-12 1.273E-13 0.000E+00
 ETOT  9  -156.18567073756     -2.274E-13 6.272E-15 0.000E+00
 ETOT 10  -156.18567073756      5.684E-14 7.303E-17 0.000E+00
 ETOT 11  -156.18567073756      0.000E+00 3.648E-18 0.000E+00
 ETOT 12  -156.18567073756     -2.842E-14 7.042E-20 0.000E+00
 ETOT 13  -156.18567073756     -2.842E-14 9.545E-21 0.000E+00

 At SCF step   13   max residual=  9.54E-21 < tolwfr=  1.00E-20 =>converged.

 ----iterations are completed or convergence reached----

 dfpt_looppert: DFPT cycle converged with prtwf=-1. Will skip output of the 1st-order WFK file.
 dfpt_looppert : ek2=    1.3430488153E+02
          f-sum rule ratio=    1.4949644544E+00
 prteigrs : about to open file /scratch/users/j/a/jabreu/flow_simple_4atoms/flow/w167/t1/tmpdata/tmp_1WF1_EIG
 Expectation of eigenvalue derivatives (hartree) for nkpt=   1  k points:
  (in case of degenerate eigenvalues, averaged derivative)
 kpt#   1, nband= 45, wtk=  1.00000, kpt=  0.0000  0.0000  0.0000 (reduced coord)
   0.00000    0.00000   -0.00000   -0.00000   -0.00000   -0.00000   -0.00000    0.00000
  -0.00000    0.00000   -0.00000   -0.00000   -0.00000   -0.00000   -0.00000   -0.00000
   0.00000    0.00000   -0.00000    0.00000   -0.00000    0.00000    0.00000   -0.00000
  -0.00000   -0.00000   -0.00000    0.00000    0.00000   -0.00000    0.00000   -0.00000
  -0.00000    0.00000   -0.00000   -0.00000    0.00000    0.00000   -0.00000   -0.00000
  -0.00000   -0.00000   -0.00000   -0.00000   -0.00217

 Eight components of 2nd-order total energy (hartree) are
 1,2,3: 0th-order hamiltonian combined with 1st-order wavefunctions
     kin0=   1.46148393E+02 eigvalue=   1.53684390E+01  local=  -5.44086286E+01
 4,5,6: 1st-order hamiltonian combined with 1st and 0th-order wfs
     kin1=  -2.00781024E+02  Hartree=   0.00000000E+00     xc=   0.00000000E+00
 7,8,9: eventually, occupation + non-local contributions
    edocc=   4.46358162E+01     enl0=   4.44165152E+00   enl1=  -1.11590318E+02
 1-9 gives the relaxation energy (to be shifted if some occ is /=2.0)
   erelax=  -1.56185671E+02
  No Ewald or frozen-wf contrib.: the relaxation energy is the total one
 2DEtotal=   -0.1561856707E+03 Ha. Also 2DEtotal=   -0.425002823987E+04 eV
    (  non-var. 2DEtotal :   -1.5618567074E+02 Ha)

 Perturbation wavevector (in red.coord.)   0.000000  0.000000  0.000000
 Perturbation : derivative vs k along direction   2
 The set of symmetries contains only one element for this perturbation.
 symkpt : not enough symmetry to change the number of k points.

[...]

 Perturbation wavevector (in red.coord.)   0.000000  0.000000  0.000000
 Perturbation : derivative vs k along direction   3
 The set of symmetries contains only one element for this perturbation.
 symkpt : not enough symmetry to change the number of k points.

-inwffil : will read wavefunctions from disk file /scratch/users/j/a/jabreu/flow_simple_4atoms/flow/w167/t1/indata/in_WFK

 Initialisation of the first-order wave-functions :
  ireadwf=   0

--- !BeginCycle
iteration_state: {dtset: 1, }
solver: {iscf: 7, nstep: 100, nline: 4, wfoptalg: 0, }
tolerances: {tolwfr: 1.00E-20, }
...

     iter   2DEtotal(Ha)        deltaE(Ha) residm    vres2
-ETOT  1  -39.556255359736     -3.956E+01 8.010E-02 0.000E+00
 ETOT  2  -39.583449067301     -2.719E-02 5.112E-04 0.000E+00
 ETOT  3  -39.583612077156     -1.630E-04 1.296E-05 0.000E+00
 ETOT  4  -39.583614163206     -2.086E-06 2.866E-07 0.000E+00
 ETOT  5  -39.583614199140     -3.593E-08 7.675E-09 0.000E+00
 ETOT  6  -39.583614199857     -7.165E-10 1.796E-10 0.000E+00
 ETOT  7  -39.583614199873     -1.555E-11 4.988E-12 0.000E+00
 ETOT  8  -39.583614199873     -2.913E-13 1.185E-13 0.000E+00
 ETOT  9  -39.583614199873     -3.553E-14 3.221E-15 0.000E+00
 ETOT 10  -39.583614199873     -7.105E-15 7.910E-17 0.000E+00
 ETOT 11  -39.583614199873      1.421E-14 1.974E-18 0.000E+00
 ETOT 12  -39.583614199873     -7.105E-15 5.689E-20 0.000E+00
 ETOT 13  -39.583614199873     -1.421E-14 9.951E-21 0.000E+00

 At SCF step   13   max residual=  9.95E-21 < tolwfr=  1.00E-20 =>converged.

 ----iterations are completed or convergence reached----

 dfpt_looppert: DFPT cycle converged with prtwf=-1. Will skip output of the 1st-order WFK file.
 dfpt_looppert : ek2=    3.7310224607E+01
          f-sum rule ratio=    1.2859560922E+00
 prteigrs : about to open file /scratch/users/j/a/jabreu/flow_simple_4atoms/flow/w167/t1/tmpdata/tmp_1WF1_EIG
 Expectation of eigenvalue derivatives (hartree) for nkpt=   1  k points:
  (in case of degenerate eigenvalues, averaged derivative)
 kpt#   1, nband= 45, wtk=  1.00000, kpt=  0.0000  0.0000  0.0000 (reduced coord)
   0.00000    0.00000    0.00000    0.00000   -0.00000   -0.00000   -0.00000    0.00000
   0.00000   -0.00000   -0.00000   -0.00000    0.00000    0.00000    0.00000    0.00000
  -0.00000   -0.00000   -0.00000   -0.00000   -0.00000    0.00000    0.00000   -0.00000
  -0.00000   -0.00000   -0.00000   -0.00000   -0.00000   -0.00000    0.00000   -0.00000
  -0.00000   -0.00000   -0.00000   -0.00000   -0.00000    0.00000   -0.00000   -0.00000
   0.00000   -0.00000   -0.00000    0.00001    0.00001

 Eight components of 2nd-order total energy (hartree) are
 1,2,3: 0th-order hamiltonian combined with 1st-order wavefunctions
     kin0=   4.26032702E+01 eigvalue=   4.10661735E+00  local=  -1.58085763E+01
 4,5,6: 1st-order hamiltonian combined with 1st and 0th-order wfs
     kin1=  -4.79793106E+01  Hartree=   0.00000000E+00     xc=   0.00000000E+00
 7,8,9: eventually, occupation + non-local contributions
    edocc=   8.07666366E+00     enl0=   6.05639303E-01   enl1=  -3.11879178E+01
 1-9 gives the relaxation energy (to be shifted if some occ is /=2.0)
   erelax=  -3.95836142E+01
  No Ewald or frozen-wf contrib.: the relaxation energy is the total one
 2DEtotal=   -0.3958361420E+02 Ha. Also 2DEtotal=   -0.107712492056E+04 eV
    (  non-var. 2DEtotal :   -3.9583614200E+01 Ha)

 CALCULATION OF EFFECTIVE MASSES
 NOTE : Additional infos (eff. mass eigenvalues, eigenvectors and, if degenerate, average mass) are available in stdout.

 COMMENTS:
 - At k-point ( 0.000, 0.000, 0.000), bands    35 through    36
   are DEGENERATE (effective mass tensor is therefore not defined).
   See Section IIIB Eqs. (67)-(70) and Appendix E of PRB 93 205147 (2016).
 - Angular average effective mass for Frohlich model is to be averaged over degenerate bands. See later.
 - Associated theta integrals calculated with ntheta=   1000 points.

 K-point ( 0.000, 0.000, 0.000) | band =    35
 Transport equivalent effective mass tensor:
             -0.0970898333             -0.0000126318             -0.0000009520
             -0.0000126318             -0.0971072813             -0.0000015032
             -0.0000009520             -0.0000015032             -1.3485673577
 Transport equivalent effective mass tensor eigenvalues:
             -1.3485673577             -0.0971139089             -0.0970832057
 Angular average effective mass 1/(<1/m>)=  -0.1405863390
 Angular average effective mass for Frohlich model (<m**0.5>)**2=  -0.1765933706
 Effective masses along directions: (cart. coord. / red. coord. -> eff. mass)
    1:   1.000000  0.000000  0.000000 /   0.894427 -0.447214  0.000000 ->  -0.0970983381
    2:   0.000000  1.000000  0.000000 /   0.000000  1.000000  0.000000 ->  -0.0970983431
    3:   0.000000  0.000000  1.000000 /   0.000000  0.000000  1.000000 ->  -1.3476920154
    4:   0.577350  0.577350  0.577350 /   0.510727  0.186939  0.839173 ->  -0.1405891183
    5:   0.000000  0.707107  0.707107 /   0.000000  0.466269  0.884643 ->  -0.1811581723
    6:   0.707107  0.000000  0.707107 /   0.503170 -0.251585  0.826756 ->  -0.1811494326
    7:   0.707107  0.707107  0.000000 /   0.939071  0.343724  0.000000 ->  -0.0970983447

 K-point ( 0.000, 0.000, 0.000) | band =    36
 Transport equivalent effective mass tensor:
             -1.3881321721              0.0001809880              0.0000044131
              0.0001809880             -1.3878821674              0.0000069486
              0.0000044131              0.0000069486             -1.3485760434
 Transport equivalent effective mass tensor eigenvalues:
             -1.3882271294             -1.3877872119             -1.3485760417
 Angular average effective mass 1/(<1/m>)=  -1.3746070712
 Angular average effective mass for Frohlich model (<m**0.5>)**2=  -1.3746836180
 Effective masses along directions: (cart. coord. / red. coord. -> eff. mass)
    1:   1.000000  0.000000  0.000000 /   0.894427 -0.447214  0.000000 ->  -1.3880053397
    2:   0.000000  1.000000  0.000000 /   0.000000  1.000000  0.000000 ->  -1.3880053391
    3:   0.000000  0.000000  1.000000 /   0.000000  0.000000  1.000000 ->  -1.3494520721
    4:   0.577350  0.577350  0.577350 /   0.510727  0.186939  0.839173 ->  -1.3743579256
    5:   0.000000  0.707107  0.707107 /   0.000000  0.466269  0.884643 ->  -1.3677510039
    6:   0.707107  0.000000  0.707107 /   0.503170 -0.251585  0.826756 ->  -1.3682435575
    7:   0.707107  0.707107  0.000000 /   0.939071  0.343724  0.000000 ->  -1.3880053401

 Angular average effective mass for Frohlich model, averaged over degenerate bands.
 Value of     (<<m**0.5>>)**2 =     6.341727E-01
 Absolute Value of <<m**0.5>> =     7.963496E-01

 K-point ( 0.000, 0.000, 0.000) | band =    37
 Effective mass tensor:
              0.0987968962              0.0000000045             -0.0000000461
              0.0000000045              0.0987967741              0.0000000717
             -0.0000000461              0.0000000717              0.0887463268
 Effective mass tensor eigenvalues:
              0.0887463268              0.0987967739              0.0987968963
 Angular average effective mass 1/(<1/m>)=   0.0952029293
 Angular average effective mass for Frohlich model (<m**0.5>)**2=   0.0952773421
 Effective masses along directions: (cart. coord. / red. coord. -> eff. mass)
    1:   1.000000  0.000000  0.000000 /   0.894427 -0.447214  0.000000 ->   0.0987968962
    2:   0.000000  1.000000  0.000000 /   0.000000  1.000000  0.000000 ->   0.0987967741
    3:   0.000000  0.000000  1.000000 /   0.000000  0.000000  1.000000 ->   0.0887463268
    4:   0.577350  0.577350  0.577350 /   0.510727  0.186939  0.839173 ->   0.0952029497
    5:   0.000000  0.707107  0.707107 /   0.000000  0.466269  0.884643 ->   0.0935023198
    6:   0.707107  0.000000  0.707107 /   0.503170 -0.251585  0.826756 ->   0.0935022570
    7:   0.707107  0.707107  0.000000 /   0.939071  0.343724  0.000000 ->   0.0987968397

 END OF EFFECTIVE MASSES SECTION

 ---- first-order wavefunction calculations are completed ----

 Total localisation tensor (bohr^2) in cartesian coordinates
  WARNING : still subject to testing - especially symmetries.
      direction              matrix element
   alpha     beta       real part   imaginary part
     1        1       6.6403813940    0.0000000000
     1        2      -2.3002928792    0.0000000000
     1        3       0.0000000000    0.0000000000
     2        1      -2.3002928792    0.0000000000
     2        2       3.9842241391    0.0000000000
     2        3       0.0000000000    0.0000000000
     3        1       0.0000000000    0.0000000000
     3        2       0.0000000000    0.0000000000
     3        3       3.3208199013    0.0000000000

 respfn : d/dk was computed, but no 2DTE, so no DDB output.

== END DATASET(S) ==============================================================

 -outvars: echo values of variables after computation  --------
            acell      1.0000000000E+00  1.0000000000E+00  1.0000000000E+00 Bohr
              amu      6.53900000E+01  7.89600000E+01
             ecut      4.30000000E+01 Hartree
           etotal     -3.9583614200E+01
            fcart      0.0000000000E+00  0.0000000000E+00  0.0000000000E+00
                       0.0000000000E+00  0.0000000000E+00  0.0000000000E+00
                       0.0000000000E+00  0.0000000000E+00  0.0000000000E+00
                       0.0000000000E+00  0.0000000000E+00  0.0000000000E+00
-          fftalg         512
           irdden           1
           irdwfk           1
           istwfk        1
              ixc     -116133
           kptopt           0
P           mkmem           1
P          mkqmem           1
P          mk1mem           1
            natom           4
            nband          45
           nbdbuf           4
            ngfft          48      48      75
             nkpt           1
            nstep         100
             nsym          12
           ntypat           2
              occ      2.000000  2.000000  2.000000  2.000000  2.000000  2.000000
                       2.000000  2.000000  2.000000  2.000000  2.000000  2.000000
                       2.000000  2.000000  2.000000  2.000000  2.000000  2.000000
                       2.000000  2.000000  2.000000  2.000000  2.000000  2.000000
                       2.000000  2.000000  2.000000  2.000000  2.000000  2.000000
                       2.000000  2.000000  2.000000  2.000000  2.000000  2.000000
                       0.000000  0.000000  0.000000  0.000000  0.000000  0.000000
                       0.000000  0.000000  0.000000
        optdriver           1
            prtwf          -1
            rfdir           1       1       1
           rfelfd           2
            rprim      7.5125017066E+00  0.0000000000E+00  0.0000000000E+00
                      -3.7562508533E+00  6.5060173239E+00  0.0000000000E+00
                       0.0000000000E+00  0.0000000000E+00  1.2343751857E+01
          spgroup         186
           strten      0.0000000000E+00  0.0000000000E+00  0.0000000000E+00
                       0.0000000000E+00  0.0000000000E+00  0.0000000000E+00
           symrel      1  0  0   0  1  0   0  0  1       0  1  0   1  0  0   0  0  1
                       1  1  0  -1  0  0   0  0  1      -1  0  0   1  1  0   0  0  1
                       0  1  0  -1 -1  0   0  0  1      -1 -1  0   0  1  0   0  0  1
                      -1  0  0   0 -1  0   0  0  1       0 -1  0  -1  0  0   0  0  1
                      -1 -1  0   1  0  0   0  0  1       1  0  0  -1 -1  0   0  0  1
                       0 -1  0   1  1  0   0  0  1       1  1  0   0 -1  0   0  0  1
            tnons      0.0000000  0.0000000  0.0000000     0.0000000  0.0000000  0.5000000
                       0.0000000  0.0000000  0.5000000     0.0000000  0.0000000  0.0000000
                       0.0000000  0.0000000  0.0000000     0.0000000  0.0000000  0.5000000
                       0.0000000  0.0000000  0.5000000     0.0000000  0.0000000  0.0000000
                       0.0000000  0.0000000  0.0000000     0.0000000  0.0000000  0.5000000
                       0.0000000  0.0000000  0.5000000     0.0000000  0.0000000  0.0000000
           tolwfr      1.00000000E-20
            typat      1  1  2  2
           useylm           1
           xangst      1.9877223413E+00  1.1476120288E+00  3.1941637220E-03
                       0.0000000000E+00  2.2952240577E+00  3.2692102394E+00
                       1.9877223413E+00  1.1476120288E+00  2.4463178931E+00
                       0.0000000000E+00  2.2952240577E+00  5.7123339688E+00
            xcart      3.7562508533E+00  2.1686724413E+00  6.0360946583E-03
                       0.0000000000E+00  4.3373448826E+00  6.1779120234E+00
                       3.7562508533E+00  2.1686724413E+00  4.6228708519E+00
                       0.0000000000E+00  4.3373448826E+00  1.0794746781E+01
             xred      6.6666666667E-01  3.3333333333E-01  4.8900000000E-04
                       3.3333333333E-01  6.6666666667E-01  5.0048900000E-01
                       6.6666666667E-01  3.3333333333E-01  3.7451100000E-01
                       3.3333333333E-01  6.6666666667E-01  8.7451100000E-01
            znucl       30.00000   34.00000

- Timing analysis has been suppressed with timopt=0

 Suggested references for the acknowledgment of ABINIT usage.

 Calculation completed.
.Delivered   6 WARNINGs and   5 COMMENTs to log file.