.Version 9.5.1 of ABINIT

 ABINIT is a project of the Universite Catholique de Louvain,
 Corning Inc. and other collaborators, see ~abinit/doc/developers/contributors.txt .
 acknowledgments of the ABINIT effort.

.Starting date : Wed  5 May 2021.
- ( at 20h13 )

- input  file    -> /scratch/users/j/a/jabreu/flow_simple_7atoms/flow/w198/t1/run.abi
- output file    -> /scratch/users/j/a/jabreu/flow_simple_7atoms/flow/w198/t1/run.abo
- root for input  files -> /scratch/users/j/a/jabreu/flow_simple_7atoms/flow/w198/t1/indata/in
- root for output files -> /scratch/users/j/a/jabreu/flow_simple_7atoms/flow/w198/t1/outdata/out

 Symmetries : space group I-4 2 m (#121); Bravais tI (body-center tetrag.)
     intxc =       0      iscf =       7    lmnmax =      18     lnmax =       6
     mgfft =      90  mpssoang =       3    mqgrid =    3069     natom =       7
  nloc_mem =       1    nspden =       1   nspinor =       1    nsppol =       1
      nsym =       8    n1xccc =    2501    ntypat =       3    occopt =       1
   xclevel =       2
-    mband =          59        mffmem =           1         mkmem =           1
-   mkqmem =           1        mk1mem =           1           mpw =       21083
      nfft =      729000          nkpt =           1
  Rough estimation (10% accuracy) of disk space for files :

------------- Echo of variables that govern the present computation ------------
-
- outvars: echo of selected default values
-   iomode0 =  0 , fftalg0 =512 , wfoptalg0 =  0
-
- outvars: echo of global parameters not present in the input file
-  max_nthreads =    0
-
 -outvars: echo values of preprocessed input variables --------
            acell      1.0000000000E+00  1.0000000000E+00  1.0000000000E+00 Bohr
              amu      2.43050000E+01  1.14820000E+02  1.27600000E+02
             ecut      4.20000000E+01 Hartree
-          fftalg         512
           irdden           1
           irdwfk           1
           istwfk        1
              ixc     -116133
           kptopt           0
P           mkmem           1
P          mkqmem           1
P          mk1mem           1
            natom           7
            nband          59
           nbdbuf           4
            ngfft          90      90      90
             nkpt           1
            nstep        2000
             nsym           8
           ntypat           3
              occ      2.000000  2.000000  2.000000  2.000000  2.000000  2.000000
                       2.000000  2.000000  2.000000  2.000000  2.000000  2.000000
                       2.000000  2.000000  2.000000  2.000000  2.000000  2.000000
                       2.000000  2.000000  2.000000  2.000000  2.000000  2.000000
                       2.000000  2.000000  2.000000  2.000000  2.000000  2.000000
                       2.000000  2.000000  2.000000  2.000000  2.000000  2.000000
                       2.000000  2.000000  2.000000  2.000000  2.000000  2.000000
                       2.000000  2.000000  2.000000  2.000000  2.000000  2.000000
                       2.000000  2.000000  0.000000  0.000000  0.000000  0.000000
                       0.000000  0.000000  0.000000  0.000000  0.000000
        optdriver           1
            prtwf          -1
            rfdir           1       1       1
           rfelfd           2
            rprim      1.0734027588E+01  0.0000000000E+00 -9.5902378691E+00
                      -2.1499594558E+00  1.0516511902E+01 -9.5902378691E+00
                       0.0000000000E+00  0.0000000000E+00  1.4394165854E+01
          spgroup         121
           symrel      1  0  0   0  1  0   0  0  1      -1 -1 -1   0  0  1   0  1  0
                       0  1  0   1  0  0  -1 -1 -1       0  0  1  -1 -1 -1   1  0  0
                       0  1  0   1  0  0   0  0  1      -1 -1 -1   0  0  1   1  0  0
                       1  0  0   0  1  0  -1 -1 -1       0  0  1  -1 -1 -1   0  1  0
           tolwfr      1.00000000E-20
            typat      1  2  2  3  3  3  3
           useylm           1
           xangst      0.0000000000E+00  0.0000000000E+00  0.0000000000E+00
                       5.6676853140E-01  4.1738238094E+00 -1.2664030519E+00
                       3.9757246810E+00  1.3912746031E+00 -1.2664030519E+00
                       7.5973198977E-01  9.3076270950E-01  2.5323576364E+00
                       1.2569000216E+00  4.6343357031E+00 -6.1955926693E+00
                       2.7796787865E+00  3.4054395414E+00 -2.8238490123E+00
                       4.2886756270E+00  2.1596588712E+00 -6.1955926693E+00
            xcart      0.0000000000E+00  0.0000000000E+00  0.0000000000E+00
                       1.0710373051E+00  7.8873839267E+00 -2.3931549420E+00
                       7.5130308268E+00  2.6291279756E+00 -2.3931549420E+00
                       1.4356853951E+00  1.7588866157E+00  4.7854624033E+00
                       2.3751968172E+00  8.7576252866E+00 -1.1707973376E+01
                       5.2528316438E+00  6.4353480954E+00 -5.3363012738E+00
                       8.1044224077E+00  4.0811638069E+00 -1.1707973376E+01
             xred      0.0000000000E+00  0.0000000000E+00  0.0000000000E+00
                       2.5000000000E-01  7.5000000000E-01  5.0000000000E-01
                       7.5000000000E-01  2.5000000000E-01  5.0000000000E-01
                       1.6725000000E-01  1.6725000000E-01  5.5532200000E-01
                       3.8807200000E-01  8.3275000000E-01  0.0000000000E+00
                       6.1192800000E-01  6.1192800000E-01  4.4467800000E-01
                       8.3275000000E-01  3.8807200000E-01  1.1102230246E-16
            znucl       12.00000   49.00000   52.00000

 chkinp: Checking input parameters for consistency.

== DATASET  1 ==================================================================
-   mpi_nproc: 1, omp_nthreads: -1 (-1 if OMP is not activated)

--- !DatasetInfo
iteration_state: {dtset: 1, }
dimensions: {natom: 7, nkpt: 1, mband: 59, nsppol: 1, nspinor: 1, nspden: 1, mpw: 21083, }
cutoff_energies: {ecut:  42.0, pawecutdg:  -1.0, }
electrons: {nelect:   1.00000000E+02, charge:   0.00000000E+00, occopt:   1.00000000E+00, tsmear:   1.00000000E-02, }
meta: {optdriver: 1, rfelfd: 2, }
...

 Real(R)+Recip(G) space primitive vectors, cartesian coordinates (Bohr,Bohr^-1):
 R(1)= 10.7340276  0.0000000 -9.5902379  G(1)=  0.0931617  0.0190457  0.0000000
 R(2)= -2.1499595 10.5165119 -9.5902379  G(2)=  0.0000000  0.0950886  0.0000000
 R(3)=  0.0000000  0.0000000 14.3941659  G(3)=  0.0620698  0.0760429  0.0694726
 Unit cell volume ucvol=  1.6248786E+03 bohr^3
 Angles (23,13,12)=  1.31778960E+02  1.31778960E+02  7.05783602E+01 degrees

 getcut: wavevector=  0.0000  0.0000  0.0000  ngfft=  90  90  90
         ecut(hartree)=     42.000   => boxcut(ratio)=   2.14322

--- Pseudopotential description ------------------------------------------------
- pspini: atom type   1  psp file is /scratch/users/j/a/jabreu/pseudos/PBEsol/Mg.psp8
- pspatm: opening atomic psp file    /scratch/users/j/a/jabreu/pseudos/PBEsol/Mg.psp8
- Mg    ONCVPSP-3.3.0  r_core=   1.16056   1.56380
- 12.00000  10.00000    180112                znucl, zion, pspdat
    8 -116133    1    4       400   0.00000   pspcod,pspxc,lmax,lloc,mmax,r2well
    3.99000000000000    0.00000000000000    0.00000000000000   rchrg,fchrg,qchrg
     nproj     2     2
     extension_switch     1
  pspatm : epsatm=    9.18164846
         --- l  ekb(1:nproj) -->
             0    2.230603   -0.826587
             1   -6.503151   -2.501445
 pspatm: atomic psp has been read  and splines computed

- pspini: atom type   2  psp file is /scratch/users/j/a/jabreu/pseudos/PBEsol/In.psp8
- pspatm: opening atomic psp file    /scratch/users/j/a/jabreu/pseudos/PBEsol/In.psp8
- In    ONCVPSP-3.3.0  r_core=   2.10853   2.37566   1.87143
- 49.00000  13.00000    180112                znucl, zion, pspdat
    8 -116133    2    4       600   0.00000   pspcod,pspxc,lmax,lloc,mmax,r2well
    5.99000000000000    5.00000000000000    0.00000000000000   rchrg,fchrg,qchrg
     nproj     2     2     2
     extension_switch     1
  pspatm : epsatm=   25.17984752
         --- l  ekb(1:nproj) -->
             0   12.999887    1.931740
             1    5.981707    1.012544
             2   -4.048011   -1.239028
 pspatm: atomic psp has been read  and splines computed

- pspini: atom type   3  psp file is /scratch/users/j/a/jabreu/pseudos/PBEsol/Te.psp8
- pspatm: opening atomic psp file    /scratch/users/j/a/jabreu/pseudos/PBEsol/Te.psp8
- Te    ONCVPSP-3.3.0  r_core=   2.26547   1.91704   1.80604
- 52.00000  16.00000    180112                znucl, zion, pspdat
    8 -116133    2    4       600   0.00000   pspcod,pspxc,lmax,lloc,mmax,r2well
    5.99000000000000    5.00000000000000    0.00000000000000   rchrg,fchrg,qchrg
     nproj     2     2     2
     extension_switch     1
  pspatm : epsatm=   36.82679836
         --- l  ekb(1:nproj) -->
             0    6.345999    0.785432
             1    5.709019    1.070069
             2   -6.035173   -1.870937
 pspatm: atomic psp has been read  and splines computed

   2.06848537E+04                                ecore*ucvol(ha*bohr**3)

-inwffil : will read wavefunctions from disk file /scratch/users/j/a/jabreu/flow_simple_7atoms/flow/w198/t1/indata/in_WFK

 ==>  initialize data related to q vector <==

 The list of irreducible perturbations for this q vector is:
    1)    idir= 1    ipert=   8
    2)    idir= 2    ipert=   8
    3)    idir= 3    ipert=   8

 Perturbation wavevector (in red.coord.)   0.000000  0.000000  0.000000
 Perturbation : derivative vs k along direction   1

 dfpt_looppert : COMMENT -
  In a d/dk calculation, iscf is set to -3 automatically.
 The set of symmetries contains only one element for this perturbation.
 symkpt : not enough symmetry to change the number of k points.

[...]

 Initialisation of the first-order wave-functions :
  ireadwf=   0

--- !BeginCycle
iteration_state: {dtset: 1, }
solver: {iscf: 7, nstep: 2000, nline: 4, wfoptalg: 0, }
tolerances: {tolwfr: 1.00E-20, }
...

     iter   2DEtotal(Ha)        deltaE(Ha) residm    vres2
-ETOT  1  -87.002170313034     -8.700E+01 1.877E-01 0.000E+00
 ETOT  2  -87.055255905760     -5.309E-02 2.371E-02 0.000E+00
 ETOT  3  -87.055391243366     -1.353E-04 3.026E-03 0.000E+00
 ETOT  4  -87.055393139195     -1.896E-06 4.634E-04 0.000E+00
 ETOT  5  -87.055393247500     -1.083E-07 8.660E-05 0.000E+00
 ETOT  6  -87.055393255109     -7.608E-09 1.509E-05 0.000E+00
 ETOT  7  -87.055393255693     -5.848E-10 2.860E-06 0.000E+00
 ETOT  8  -87.055393255740     -4.646E-11 5.257E-07 0.000E+00
 ETOT  9  -87.055393255744     -3.823E-12 9.941E-08 0.000E+00
 ETOT 10  -87.055393255744     -2.700E-13 1.864E-08 0.000E+00
 ETOT 11  -87.055393255744     -7.105E-14 3.515E-09 0.000E+00
 ETOT 12  -87.055393255744      0.000E+00 6.653E-10 0.000E+00
 ETOT 13  -87.055393255744      0.000E+00 1.252E-10 0.000E+00
 ETOT 14  -87.055393255744     -1.421E-14 2.383E-11 0.000E+00
 ETOT 15  -87.055393255744     -4.263E-14 4.477E-12 0.000E+00
 ETOT 16  -87.055393255744      1.421E-14 8.552E-13 0.000E+00
 ETOT 17  -87.055393255744      1.421E-14 1.605E-13 0.000E+00
[...]
 dfpt_looppert : ek2=    7.1391465483E+01
          f-sum rule ratio=    1.2074802162E+00
 prteigrs : about to open file /scratch/users/j/a/jabreu/flow_simple_7atoms/flow/w198/t1/tmpdata/tmp_1WF1_EIG
 Expectation of eigenvalue derivatives (hartree) for nkpt=   1  k points:
  (in case of degenerate eigenvalues, averaged derivative)
 kpt#   1, nband= 59, wtk=  1.00000, kpt=  0.0000  0.0000  0.0000 (reduced coord)
   0.00000    0.00000    0.00000    0.00000   -0.00000    0.00000    0.00000    0.00000
  -0.00000    0.00000    0.00000    0.00000    0.00000    0.00000    0.00000   -0.00000
   0.00000    0.00000    0.00000   -0.00000   -0.00000   -0.00000   -0.00000   -0.00000
   0.00000    0.00000    0.00000    0.00000    0.00000   -0.00000   -0.00000   -0.00000
  -0.00000    0.00000   -0.00000   -0.00000    0.00000    0.00000    0.00000    0.00000
   0.00000    0.00000   -0.00000   -0.00000    0.00000    0.00000    0.00000   -0.00000
   0.00000    0.00000    0.00000   -0.00000   -0.00000   -0.00000   -0.00000   -0.00000
   0.00000    0.00000   -0.00000

 Eight components of 2nd-order total energy (hartree) are
 1,2,3: 0th-order hamiltonian combined with 1st-order wavefunctions
     kin0=   8.80483320E+01 eigvalue=   1.51077032E+01  local=  -4.68591983E+01
 4,5,6: 1st-order hamiltonian combined with 1st and 0th-order wfs
     kin1=  -8.62037822E+01  Hartree=   0.00000000E+00     xc=   0.00000000E+00
 7,8,9: eventually, occupation + non-local contributions
    edocc=   1.72668932E+01     enl0=   1.34916631E+01   enl1=  -8.79070043E+01
 1-9 gives the relaxation energy (to be shifted if some occ is /=2.0)
   erelax=  -8.70553933E+01
  No Ewald or frozen-wf contrib.: the relaxation energy is the total one
 2DEtotal=   -0.8705539326E+02 Ha. Also 2DEtotal=   -0.236889772297E+04 eV
    (  non-var. 2DEtotal :   -8.7055393256E+01 Ha)

 Perturbation wavevector (in red.coord.)   0.000000  0.000000  0.000000
 Perturbation : derivative vs k along direction   2
 The set of symmetries contains only one element for this perturbation.
 symkpt : not enough symmetry to change the number of k points.

[...]

 Perturbation wavevector (in red.coord.)   0.000000  0.000000  0.000000
 Perturbation : derivative vs k along direction   3
 The set of symmetries contains only one element for this perturbation.
 symkpt : not enough symmetry to change the number of k points.

-inwffil : will read wavefunctions from disk file /scratch/users/j/a/jabreu/flow_simple_7atoms/flow/w198/t1/indata/in_WFK

 Initialisation of the first-order wave-functions :
  ireadwf=   0

--- !BeginCycle
iteration_state: {dtset: 1, }
solver: {iscf: 7, nstep: 2000, nline: 4, wfoptalg: 0, }
tolerances: {tolwfr: 1.00E-20, }
...

     iter   2DEtotal(Ha)        deltaE(Ha) residm    vres2
-ETOT  1  -140.92452853070     -1.409E+02 4.047E-01 0.000E+00
 ETOT  2  -141.00599781486     -8.147E-02 8.422E-03 0.000E+00
 ETOT  3  -141.00614418220     -1.464E-04 1.487E-03 0.000E+00
 ETOT  4  -141.00614590972     -1.728E-06 8.604E-05 0.000E+00
 ETOT  5  -141.00614598148     -7.176E-08 2.203E-05 0.000E+00
 ETOT  6  -141.00614598561     -4.133E-09 1.146E-06 0.000E+00
 ETOT  7  -141.00614598587     -2.542E-10 3.697E-07 0.000E+00
 ETOT  8  -141.00614598588     -1.614E-11 1.745E-08 0.000E+00
 ETOT  9  -141.00614598588     -1.023E-12 6.213E-09 0.000E+00
 ETOT 10  -141.00614598588     -5.684E-14 2.817E-10 0.000E+00
 ETOT 11  -141.00614598588      0.000E+00 1.055E-10 0.000E+00
 ETOT 12  -141.00614598588      2.842E-14 4.659E-12 0.000E+00
 ETOT 13  -141.00614598588      1.421E-13 1.814E-12 0.000E+00
 ETOT 14  -141.00614598588     -1.705E-13 7.841E-14 0.000E+00
 ETOT 15  -141.00614598588      0.000E+00 3.148E-14 0.000E+00
 ETOT 16  -141.00614598588      8.527E-14 1.336E-15 0.000E+00
 ETOT 17  -141.00614598588     -8.527E-14 5.504E-16 0.000E+00
 ETOT 18  -141.00614598588      8.527E-14 2.301E-17 0.000E+00
 ETOT 19  -141.00614598588      0.000E+00 9.676E-18 0.000E+00
 ETOT 20  -141.00614598588     -2.842E-14 3.996E-19 0.000E+00
 ETOT 21  -141.00614598588      0.000E+00 1.708E-19 0.000E+00
 ETOT 22  -141.00614598588      2.842E-14 9.939E-21 0.000E+00

 At SCF step   22   max residual=  9.94E-21 < tolwfr=  1.00E-20 =>converged.

 ----iterations are completed or convergence reached----

 dfpt_looppert: DFPT cycle converged with prtwf=-1. Will skip output of the 1st-order WFK file.
 dfpt_looppert : ek2=    1.1418439145E+02
          f-sum rule ratio=    1.2356591619E+00
 prteigrs : about to open file /scratch/users/j/a/jabreu/flow_simple_7atoms/flow/w198/t1/tmpdata/tmp_1WF1_EIG
 Expectation of eigenvalue derivatives (hartree) for nkpt=   1  k points:
  (in case of degenerate eigenvalues, averaged derivative)
 kpt#   1, nband= 59, wtk=  1.00000, kpt=  0.0000  0.0000  0.0000 (reduced coord)
   0.00000   -0.00000    0.00000    0.00000   -0.00000   -0.00000   -0.00000   -0.00000
  -0.00000   -0.00000    0.00000    0.00000    0.00000    0.00000    0.00000    0.00000
   0.00000   -0.00000   -0.00000   -0.00000    0.00000   -0.00000    0.00000    0.00000
   0.00000    0.00000   -0.00000    0.00000    0.00000    0.00000   -0.00000    0.00000
   0.00000   -0.00000    0.00000   -0.00000   -0.00000   -0.00000    0.00000    0.00000
   0.00000    0.00000   -0.00000   -0.00000    0.00000    0.00000    0.00000   -0.00000
   0.00000    0.00000   -0.00000   -0.00000   -0.00000    0.00000   -0.00000   -0.00000
   0.00000    0.00000    0.00000

 Eight components of 2nd-order total energy (hartree) are
 1,2,3: 0th-order hamiltonian combined with 1st-order wavefunctions
     kin0=   1.40236311E+02 eigvalue=   2.42081390E+01  local=  -7.46376917E+01
 4,5,6: 1st-order hamiltonian combined with 1st and 0th-order wfs
     kin1=  -1.41092989E+02  Hartree=   0.00000000E+00     xc=   0.00000000E+00
 7,8,9: eventually, occupation + non-local contributions
    edocc=   2.95747046E+01     enl0=   2.16246835E+01   enl1=  -1.40919303E+02
 1-9 gives the relaxation energy (to be shifted if some occ is /=2.0)
   erelax=  -1.41006146E+02
  No Ewald or frozen-wf contrib.: the relaxation energy is the total one
 2DEtotal=   -0.1410061460E+03 Ha. Also 2DEtotal=   -0.383697236504E+04 eV
    (  non-var. 2DEtotal :   -1.4100614599E+02 Ha)

 CALCULATION OF EFFECTIVE MASSES
 NOTE : Additional infos (eff. mass eigenvalues, eigenvectors and, if degenerate, average mass) are available in stdout.

 COMMENTS:
 - At k-point ( 0.000, 0.000, 0.000), bands    49 through    50
   are DEGENERATE (effective mass tensor is therefore not defined).
   See Section IIIB Eqs. (67)-(70) and Appendix E of PRB 93 205147 (2016).
 - Angular average effective mass for Frohlich model is to be averaged over degenerate bands. See later.
 - Associated theta integrals calculated with ntheta=   1000 points.

 K-point ( 0.000, 0.000, 0.000) | band =    49
 Transport equivalent effective mass tensor:
             -0.1389826748             -0.0761559757              0.1388966315
             -0.0761559757             -0.1701207943              0.1701650025
              0.1388966315              0.1701650025             -0.3871750392
 Transport equivalent effective mass tensor eigenvalues:
             -0.5426372996             -0.0768206065             -0.0768206022
 Angular average effective mass 1/(<1/m>)=  -0.1067612941
 Angular average effective mass for Frohlich model (<m**0.5>)**2=  -0.1247174169
 Effective masses along directions: (cart. coord. / red. coord. -> eff. mass)
    1:   1.000000  0.000000  0.000000 /   0.980525 -0.196393  0.000000 ->  -0.0894754325
    2:   0.000000  1.000000  0.000000 /   0.000000  1.000000  0.000000 ->  -0.0973966623
    3:   0.000000  0.000000  1.000000 /  -0.484914 -0.484914  0.727816 ->  -0.1707883180
    4:   0.577350  0.577350  0.577350 /   0.078929 -0.084443  0.993297 ->  -0.0725426087
    5:   0.000000  0.707107  0.707107 /  -0.553672  0.053476  0.831016 ->  -0.0824117075
    6:   0.707107  0.000000  0.707107 /   0.061461 -0.630854  0.773464 ->  -0.0872340843
    7:   0.707107  0.707107  0.000000 /   0.788716  0.614758  0.000000 ->  -0.1018466566

 K-point ( 0.000, 0.000, 0.000) | band =    50
 Transport equivalent effective mass tensor:
             -6.7438984214             -0.0164489612              0.0300027596
             -0.0164489612             -6.7506233229              0.0367550061
              0.0300027596              0.0367550061             -6.7975118703
 Transport equivalent effective mass tensor eigenvalues:
             -6.8310901772             -6.7304721851             -6.7304712524
 Angular average effective mass 1/(<1/m>)=  -0.8250382733
 Angular average effective mass for Frohlich model (<m**0.5>)**2=  -1.0029253417
 Effective masses along directions: (cart. coord. / red. coord. -> eff. mass)
    1:   1.000000  0.000000  0.000000 /   0.980525 -0.196393  0.000000 ->  -0.6869888363
    2:   0.000000  1.000000  0.000000 /   0.000000  1.000000  0.000000 ->  -0.5959556966
    3:   0.000000  0.000000  1.000000 /  -0.484914 -0.484914  0.727816 ->  -0.7669207057
    4:   0.577350  0.577350  0.577350 /   0.078929 -0.084443  0.993297 ->  -4.5967994878
    5:   0.000000  0.707107  0.707107 /  -0.553672  0.053476  0.831016 ->  -0.8545431852
    6:   0.707107  0.000000  0.707107 /   0.061461 -0.630854  0.773464 ->  -0.6689732927
    7:   0.707107  0.707107  0.000000 /   0.788716  0.614758  0.000000 ->  -1.2648362589

 Angular average effective mass for Frohlich model, averaged over degenerate bands.
 Value of     (<<m**0.5>>)**2 =     4.587455E-01
 Absolute Value of <<m**0.5>> =     6.773076E-01

 K-point ( 0.000, 0.000, 0.000) | band =    51
 Effective mass tensor:
              0.0861802091              0.0101659159             -0.0185410450
              0.0101659159              0.0903367777             -0.0227150002
             -0.0185410450             -0.0227150002              0.1193109313
 Effective mass tensor eigenvalues:
              0.0778823133              0.0778823136              0.1400632912
 Angular average effective mass 1/(<1/m>)=   0.0914093471
 Angular average effective mass for Frohlich model (<m**0.5>)**2=   0.0932897159
 Effective masses along directions: (cart. coord. / red. coord. -> eff. mass)
    1:   1.000000  0.000000  0.000000 /   0.980525 -0.196393  0.000000 ->   0.0827869343
    2:   0.000000  1.000000  0.000000 /   0.000000  1.000000  0.000000 ->   0.0854835313
    3:   0.000000  0.000000  1.000000 /  -0.484914 -0.484914  0.727816 ->   0.1105945078
    4:   0.577350  0.577350  0.577350 /   0.078929 -0.084443  0.993297 ->   0.0778824468
    5:   0.000000  0.707107  0.707107 /  -0.553672  0.053476  0.831016 ->   0.0803056104
    6:   0.707107  0.000000  0.707107 /   0.061461 -0.630854  0.773464 ->   0.0815639682
    7:   0.707107  0.707107  0.000000 /   0.788716  0.614758  0.000000 ->   0.0912679389

 END OF EFFECTIVE MASSES SECTION

 ---- first-order wavefunction calculations are completed ----

 Total localisation tensor (bohr^2) in cartesian coordinates
  WARNING : still subject to testing - especially symmetries.
      direction              matrix element
   alpha     beta       real part   imaginary part
     1        1       5.5952051627    0.0000000000
     1        2      -1.0556261472    0.0000000000
     1        3      -3.8435336157    0.0000000000
     2        1      -1.0556261472    0.0000000000
     2        2       5.1635880441    0.0000000000
     2        3      -4.7087891937    0.0000000000
     3        1      -3.8435336157    0.0000000000
     3        2      -4.7087891937    0.0000000000
     3        3      25.6942141809    0.0000000000

 respfn : d/dk was computed, but no 2DTE, so no DDB output.

== END DATASET(S) ==============================================================

 -outvars: echo values of variables after computation  --------
            acell      1.0000000000E+00  1.0000000000E+00  1.0000000000E+00 Bohr
              amu      2.43050000E+01  1.14820000E+02  1.27600000E+02
             ecut      4.20000000E+01 Hartree
           etotal     -1.4100614599E+02
            fcart      0.0000000000E+00  0.0000000000E+00  0.0000000000E+00
                       0.0000000000E+00  0.0000000000E+00  0.0000000000E+00
                       0.0000000000E+00  0.0000000000E+00  0.0000000000E+00
                       0.0000000000E+00  0.0000000000E+00  0.0000000000E+00
                       0.0000000000E+00  0.0000000000E+00  0.0000000000E+00
                       0.0000000000E+00  0.0000000000E+00  0.0000000000E+00
                       0.0000000000E+00  0.0000000000E+00  0.0000000000E+00
-          fftalg         512
           irdden           1
           irdwfk           1
           istwfk        1
              ixc     -116133
           kptopt           0
P           mkmem           1
P          mkqmem           1
P          mk1mem           1
            natom           7
            nband          59
           nbdbuf           4
            ngfft          90      90      90
             nkpt           1
            nstep        2000
             nsym           8
           ntypat           3
              occ      2.000000  2.000000  2.000000  2.000000  2.000000  2.000000
                       2.000000  2.000000  2.000000  2.000000  2.000000  2.000000
                       2.000000  2.000000  2.000000  2.000000  2.000000  2.000000
                       2.000000  2.000000  2.000000  2.000000  2.000000  2.000000
                       2.000000  2.000000  2.000000  2.000000  2.000000  2.000000
                       2.000000  2.000000  2.000000  2.000000  2.000000  2.000000
                       2.000000  2.000000  2.000000  2.000000  2.000000  2.000000
                       2.000000  2.000000  2.000000  2.000000  2.000000  2.000000
                       2.000000  2.000000  0.000000  0.000000  0.000000  0.000000
                       0.000000  0.000000  0.000000  0.000000  0.000000
        optdriver           1
            prtwf          -1
            rfdir           1       1       1
           rfelfd           2
            rprim      1.0734027588E+01  0.0000000000E+00 -9.5902378691E+00
                      -2.1499594558E+00  1.0516511902E+01 -9.5902378691E+00
                       0.0000000000E+00  0.0000000000E+00  1.4394165854E+01
          spgroup         121
           strten      0.0000000000E+00  0.0000000000E+00  0.0000000000E+00
                       0.0000000000E+00  0.0000000000E+00  0.0000000000E+00
           symrel      1  0  0   0  1  0   0  0  1      -1 -1 -1   0  0  1   0  1  0
                       0  1  0   1  0  0  -1 -1 -1       0  0  1  -1 -1 -1   1  0  0
                       0  1  0   1  0  0   0  0  1      -1 -1 -1   0  0  1   1  0  0
                       1  0  0   0  1  0  -1 -1 -1       0  0  1  -1 -1 -1   0  1  0
           tolwfr      1.00000000E-20
            typat      1  2  2  3  3  3  3
           useylm           1
           xangst      0.0000000000E+00  0.0000000000E+00  0.0000000000E+00
                       5.6676853140E-01  4.1738238094E+00 -1.2664030519E+00
                       3.9757246810E+00  1.3912746031E+00 -1.2664030519E+00
                       7.5973198977E-01  9.3076270950E-01  2.5323576364E+00
                       1.2569000216E+00  4.6343357031E+00 -6.1955926693E+00
                       2.7796787865E+00  3.4054395414E+00 -2.8238490123E+00
                       4.2886756270E+00  2.1596588712E+00 -6.1955926693E+00
            xcart      0.0000000000E+00  0.0000000000E+00  0.0000000000E+00
                       1.0710373051E+00  7.8873839267E+00 -2.3931549420E+00
                       7.5130308268E+00  2.6291279756E+00 -2.3931549420E+00
                       1.4356853951E+00  1.7588866157E+00  4.7854624033E+00
                       2.3751968172E+00  8.7576252866E+00 -1.1707973376E+01
                       5.2528316438E+00  6.4353480954E+00 -5.3363012738E+00
                       8.1044224077E+00  4.0811638069E+00 -1.1707973376E+01
             xred      0.0000000000E+00  0.0000000000E+00  0.0000000000E+00
                       2.5000000000E-01  7.5000000000E-01  5.0000000000E-01
                       7.5000000000E-01  2.5000000000E-01  5.0000000000E-01
                       1.6725000000E-01  1.6725000000E-01  5.5532200000E-01
                       3.8807200000E-01  8.3275000000E-01  0.0000000000E+00
                       6.1192800000E-01  6.1192800000E-01  4.4467800000E-01
                       8.3275000000E-01  3.8807200000E-01  1.1102230246E-16
            znucl       12.00000   49.00000   52.00000

- Timing analysis has been suppressed with timopt=0

 Suggested references for the acknowledgment of ABINIT usage.

 Calculation completed.
.Delivered   6 WARNINGs and   5 COMMENTs to log file.