.Version 9.5.1 of ABINIT

 ABINIT is a project of the Universite Catholique de Louvain,
 Corning Inc. and other collaborators, see ~abinit/doc/developers/contributors.txt .
 acknowledgments of the ABINIT effort.

.Starting date : Tue 11 May 2021.
- ( at 21h12 )

- input  file    -> /scratch/users/j/a/jabreu/flow_simple_8atoms/flow/w268/t1/run.abi
- output file    -> /scratch/users/j/a/jabreu/flow_simple_8atoms/flow/w268/t1/run.abo
- root for input  files -> /scratch/users/j/a/jabreu/flow_simple_8atoms/flow/w268/t1/indata/in
- root for output files -> /scratch/users/j/a/jabreu/flow_simple_8atoms/flow/w268/t1/outdata/out

 Symmetries : space group R-3 (#148); Bravais hR (rhombohedral)
     intxc =       0      iscf =       7    lmnmax =      25     lnmax =       7
     mgfft =      72  mpssoang =       4    mqgrid =    3001     natom =       8
  nloc_mem =       1    nspden =       1   nspinor =       1    nsppol =       1
      nsym =       6    n1xccc =    2501    ntypat =       3    occopt =       1
   xclevel =       2
-    mband =          47        mffmem =           1         mkmem =           1
-   mkqmem =           1        mk1mem =           1           mpw =       11001
      nfft =      373248          nkpt =           1
  Rough estimation (10% accuracy) of disk space for files :

------------- Echo of variables that govern the present computation ------------
-
- outvars: echo of selected default values
-   iomode0 =  0 , fftalg0 =512 , wfoptalg0 =  0
-
- outvars: echo of global parameters not present in the input file
-  max_nthreads =    0
-
 -outvars: echo values of preprocessed input variables --------
            acell      1.0000000000E+00  1.0000000000E+00  1.0000000000E+00 Bohr
              amu      1.18710000E+02  2.00590000E+02  1.89984032E+01
             ecut      4.20000000E+01 Hartree
-          fftalg         512
           irdden           1
           irdwfk           1
           istwfk        1
              ixc     -116133
           kptopt           0
P           mkmem           1
P          mkqmem           1
P          mk1mem           1
            natom           8
            nband          47
           nbdbuf           4
            ngfft          72      72      72
             nkpt           1
            nstep        2000
             nsym           6
           ntypat           3
              occ      2.000000  2.000000  2.000000  2.000000  2.000000  2.000000
                       2.000000  2.000000  2.000000  2.000000  2.000000  2.000000
                       2.000000  2.000000  2.000000  2.000000  2.000000  2.000000
                       2.000000  2.000000  2.000000  2.000000  2.000000  2.000000
                       2.000000  2.000000  2.000000  2.000000  2.000000  2.000000
                       2.000000  2.000000  2.000000  2.000000  2.000000  2.000000
                       2.000000  2.000000  0.000000  0.000000  0.000000  0.000000
                       0.000000  0.000000  0.000000  0.000000  0.000000
        optdriver           1
            prtwf          -1
            rfdir           1       1       1
           rfelfd           2
            rprim      9.0525660376E+00  0.0000000000E+00  6.4998399251E+00
                       3.3348190216E+00  8.4159333385E+00  6.4998399251E+00
                       0.0000000000E+00  0.0000000000E+00  1.1144364985E+01
          spgroup         148
           symrel      1  0  0   0  1  0   0  0  1      -1  0  0   0 -1  0   0  0 -1
                       0  0  1   1  0  0   0  1  0       0  0 -1  -1  0  0   0 -1  0
                       0  1  0   0  0  1   1  0  0       0 -1  0   0  0 -1  -1  0  0
           tolwfr      1.00000000E-20
            typat      1  2  3  3  3  3  3  3
           useylm           1
           xangst      0.0000000000E+00  0.0000000000E+00  0.0000000000E+00
                       3.2775609237E+00  2.2267600559E+00  6.3882391250E+00
                       4.6154758626E+00  4.0692392219E+00  6.6503076625E+00
                       2.2039452870E+00  2.7918449553E+00  8.3328353042E+00
                       4.7814270784E+00  1.0204795984E+00  7.6278760984E+00
                       1.7736947690E+00  3.4330405133E+00  5.1486021516E+00
                       4.3511765604E+00  1.6616751565E+00  4.4436429457E+00
                       1.9396459848E+00  3.8428088988E-01  6.1261705874E+00
            xcart      0.0000000000E+00  0.0000000000E+00  0.0000000000E+00
                       6.1936925296E+00  4.2079666692E+00  1.2072022418E+01
                       8.7219853532E+00  7.6897476985E+00  1.2567260182E+01
                       4.1648530042E+00  5.2758223709E+00  1.5746776635E+01
                       9.0355877025E+00  1.9284269652E+00  1.4414596801E+01
                       3.3517973567E+00  6.4875063733E+00  9.7294480336E+00
                       8.2225320550E+00  3.1401109676E+00  8.3972681998E+00
                       3.6653997060E+00  7.2618563998E-01  1.1576784654E+01
             xred      0.0000000000E+00  0.0000000000E+00  0.0000000000E+00
                       5.0000000000E-01  5.0000000000E-01  5.0000000000E-01
                       6.2688500000E-01  9.1371300000E-01  2.2914000000E-01
                       2.2914000000E-01  6.2688500000E-01  9.1371300000E-01
                       9.1371300000E-01  2.2914000000E-01  6.2688500000E-01
                       8.6287000000E-02  7.7086000000E-01  3.7311500000E-01
                       7.7086000000E-01  3.7311500000E-01  8.6287000000E-02
                       3.7311500000E-01  8.6287000000E-02  7.7086000000E-01
            znucl       50.00000   80.00000    9.00000

 chkinp: Checking input parameters for consistency.

== DATASET  1 ==================================================================
-   mpi_nproc: 1, omp_nthreads: -1 (-1 if OMP is not activated)

--- !DatasetInfo
iteration_state: {dtset: 1, }
dimensions: {natom: 8, nkpt: 1, mband: 47, nsppol: 1, nspinor: 1, nspden: 1, mpw: 11001, }
cutoff_energies: {ecut:  42.0, pawecutdg:  -1.0, }
electrons: {nelect:   7.60000000E+01, charge:   0.00000000E+00, occopt:   1.00000000E+00, tsmear:   1.00000000E-02, }
meta: {optdriver: 1, rfelfd: 2, }
...

 Real(R)+Recip(G) space primitive vectors, cartesian coordinates (Bohr,Bohr^-1):
 R(1)=  9.0525660  0.0000000  6.4998399  G(1)=  0.1104659 -0.0437722  0.0000000
 R(2)=  3.3348190  8.4159333  6.4998399  G(2)=  0.0000000  0.1188222  0.0000000
 R(3)=  0.0000000  0.0000000 11.1443650  G(3)= -0.0644281 -0.0437722  0.0897314
 Unit cell volume ucvol=  8.4904228E+02 bohr^3
 Angles (23,13,12)=  5.43212457E+01  5.43212457E+01  5.43212457E+01 degrees

 getcut: wavevector=  0.0000  0.0000  0.0000  ngfft=  72  72  72
         ecut(hartree)=     42.000   => boxcut(ratio)=   2.21456

 getcut : COMMENT -
  Note that boxcut > 2.2 ; recall that boxcut=Gcut(box)/Gcut(sphere) = 2
  is sufficient for exact treatment of convolution.
  Such a large boxcut is a waste : you could raise ecut
  e.g. ecut=   51.494887 Hartrees makes boxcut=2

--- Pseudopotential description ------------------------------------------------
- pspini: atom type   1  psp file is /scratch/users/j/a/jabreu/pseudos/PBEsol/Sn.psp8
- pspatm: opening atomic psp file    /scratch/users/j/a/jabreu/pseudos/PBEsol/Sn.psp8
- Sn    ONCVPSP-3.3.0  r_core=   2.27326   2.62311   1.85601
- 50.00000  14.00000    180112                znucl, zion, pspdat
    8 -116133    2    4       600   0.00000   pspcod,pspxc,lmax,lloc,mmax,r2well
    5.99000000000000    6.50000000000000    0.00000000000000   rchrg,fchrg,qchrg
     nproj     2     2     2
     extension_switch     1
  pspatm : epsatm=   32.44586081
         --- l  ekb(1:nproj) -->
             0    5.587869    0.749373
             1    4.197111    0.728791
             2   -5.271877   -1.523486
 pspatm: atomic psp has been read  and splines computed

- pspini: atom type   2  psp file is /scratch/users/j/a/jabreu/pseudos/PBEsol/Hg.psp8
- pspatm: opening atomic psp file    /scratch/users/j/a/jabreu/pseudos/PBEsol/Hg.psp8
- Hg    ONCVPSP-3.3.0  r_core=   1.60079   1.60079   1.45509   1.60079
- 80.00000  20.00000    180112                znucl, zion, pspdat
    8 -116133    3    4       600   0.00000   pspcod,pspxc,lmax,lloc,mmax,r2well
    5.99000000000000    5.00000000000000    0.00000000000000   rchrg,fchrg,qchrg
     nproj     2     2     2     1
     extension_switch     1
  pspatm : epsatm=   30.52477316
         --- l  ekb(1:nproj) -->
             0   15.280580    2.063595
             1   11.999965    1.374025
             2    2.245749    0.205661
             3    0.961656
 pspatm: atomic psp has been read  and splines computed

- pspini: atom type   3  psp file is /scratch/users/j/a/jabreu/pseudos/PBEsol/F.psp8
- pspatm: opening atomic psp file    /scratch/users/j/a/jabreu/pseudos/PBEsol/F.psp8
- F     ONCVPSP-3.3.0  r_core=   1.30942   1.45782   1.60379
-  9.00000   7.00000    180112                znucl, zion, pspdat
    8 -116133    2    4       600   0.00000   pspcod,pspxc,lmax,lloc,mmax,r2well
    5.99000000000000    2.50000000000000    0.00000000000000   rchrg,fchrg,qchrg
     nproj     2     2     1
     extension_switch     1
  pspatm : epsatm=    4.89824824
         --- l  ekb(1:nproj) -->
             0    6.506434    1.065875
             1   -3.978753   -1.295852
             2   -2.394754
 pspatm: atomic psp has been read  and splines computed

   7.01936938E+03                                ecore*ucvol(ha*bohr**3)

-inwffil : will read wavefunctions from disk file /scratch/users/j/a/jabreu/flow_simple_8atoms/flow/w268/t1/indata/in_WFK

 ==>  initialize data related to q vector <==

 The list of irreducible perturbations for this q vector is:
    1)    idir= 1    ipert=   9
    2)    idir= 2    ipert=   9
    3)    idir= 3    ipert=   9

 Perturbation wavevector (in red.coord.)   0.000000  0.000000  0.000000
 Perturbation : derivative vs k along direction   1

 dfpt_looppert : COMMENT -
  In a d/dk calculation, iscf is set to -3 automatically.
 The set of symmetries contains only one element for this perturbation.
 symkpt : not enough symmetry to change the number of k points.

[...]

 Initialisation of the first-order wave-functions :
  ireadwf=   0

--- !BeginCycle
iteration_state: {dtset: 1, }
solver: {iscf: 7, nstep: 2000, nline: 4, wfoptalg: 0, }
tolerances: {tolwfr: 1.00E-20, }
...

     iter   2DEtotal(Ha)        deltaE(Ha) residm    vres2
-ETOT  1  -56.089191457676     -5.609E+01 2.634E-01 0.000E+00
 ETOT  2  -56.120984270601     -3.179E-02 3.668E-03 0.000E+00
 ETOT  3  -56.121034801552     -5.053E-05 3.158E-04 0.000E+00
 ETOT  4  -56.121034995332     -1.938E-07 8.644E-06 0.000E+00
 ETOT  5  -56.121034996351     -1.019E-09 9.463E-07 0.000E+00
 ETOT  6  -56.121034996357     -5.976E-12 2.784E-08 0.000E+00
 ETOT  7  -56.121034996357     -7.105E-14 3.254E-09 0.000E+00
 ETOT  8  -56.121034996357      2.132E-14 9.700E-11 0.000E+00
 ETOT  9  -56.121034996357     -2.132E-14 1.154E-11 0.000E+00
 ETOT 10  -56.121034996358     -1.421E-14 3.481E-13 0.000E+00
 ETOT 11  -56.121034996357      2.842E-14 4.148E-14 0.000E+00
 ETOT 12  -56.121034996357      0.000E+00 1.265E-15 0.000E+00
 ETOT 13  -56.121034996357     -1.421E-14 1.504E-16 0.000E+00
 ETOT 14  -56.121034996357      0.000E+00 4.628E-18 0.000E+00
 ETOT 15  -56.121034996358     -1.421E-14 5.480E-19 0.000E+00
 ETOT 16  -56.121034996357      1.421E-14 1.699E-20 0.000E+00
 ETOT 17  -56.121034996358     -1.421E-14 9.963E-21 0.000E+00

 At SCF step   17   max residual=  9.96E-21 < tolwfr=  1.00E-20 =>converged.

 ----iterations are completed or convergence reached----

 dfpt_looppert: DFPT cycle converged with prtwf=-1. Will skip output of the 1st-order WFK file.
 dfpt_looppert : ek2=    8.4722497756E+01
          f-sum rule ratio=    1.0341004013E+00
 prteigrs : about to open file /scratch/users/j/a/jabreu/flow_simple_8atoms/flow/w268/t1/tmpdata/tmp_1WF1_EIG
 Expectation of eigenvalue derivatives (hartree) for nkpt=   1  k points:
  (in case of degenerate eigenvalues, averaged derivative)
 kpt#   1, nband= 47, wtk=  1.00000, kpt=  0.0000  0.0000  0.0000 (reduced coord)
   0.00000    0.00000    0.00000   -0.00000    0.00000    0.00000    0.00000    0.00000
  -0.00000   -0.00000    0.00000    0.00000   -0.00000   -0.00000   -0.00000    0.00000
  -0.00000   -0.00000   -0.00000   -0.00000    0.00000    0.00000   -0.00000   -0.00000
  -0.00000    0.00000   -0.00000   -0.00000    0.00000    0.00000   -0.00000    0.00000
  -0.00000   -0.00000   -0.00000   -0.00000   -0.00000   -0.00000   -0.00000   -0.00000
  -0.00000   -0.00000   -0.00000    0.00000   -0.00001   -0.00001   -0.00002

 Eight components of 2nd-order total energy (hartree) are
 1,2,3: 0th-order hamiltonian combined with 1st-order wavefunctions
     kin0=   7.36774269E+01 eigvalue=   5.73769893E+00  local=  -3.43364564E+01
 4,5,6: 1st-order hamiltonian combined with 1st and 0th-order wfs
     kin1=  -8.76115689E+01  Hartree=   0.00000000E+00     xc=   0.00000000E+00
 7,8,9: eventually, occupation + non-local contributions
    edocc=   7.44146899E+00     enl0=   3.60089664E+00   enl1=  -2.46305011E+01
 1-9 gives the relaxation energy (to be shifted if some occ is /=2.0)
   erelax=  -5.61210350E+01
  No Ewald or frozen-wf contrib.: the relaxation energy is the total one
 2DEtotal=   -0.5612103500E+02 Ha. Also 2DEtotal=   -0.152713102591E+04 eV
    (  non-var. 2DEtotal :   -5.6121034996E+01 Ha)

 Perturbation wavevector (in red.coord.)   0.000000  0.000000  0.000000
 Perturbation : derivative vs k along direction   2
 The set of symmetries contains only one element for this perturbation.
 symkpt : not enough symmetry to change the number of k points.

[...]

 Perturbation wavevector (in red.coord.)   0.000000  0.000000  0.000000
 Perturbation : derivative vs k along direction   3
 The set of symmetries contains only one element for this perturbation.
 symkpt : not enough symmetry to change the number of k points.

-inwffil : will read wavefunctions from disk file /scratch/users/j/a/jabreu/flow_simple_8atoms/flow/w268/t1/indata/in_WFK

 Initialisation of the first-order wave-functions :
  ireadwf=   0

--- !BeginCycle
iteration_state: {dtset: 1, }
solver: {iscf: 7, nstep: 2000, nline: 4, wfoptalg: 0, }
tolerances: {tolwfr: 1.00E-20, }
...

     iter   2DEtotal(Ha)        deltaE(Ha) residm    vres2
-ETOT  1  -56.089870889187     -5.609E+01 4.389E-01 0.000E+00
 ETOT  2  -56.120930209806     -3.106E-02 2.725E-03 0.000E+00
 ETOT  3  -56.120983446028     -5.324E-05 3.891E-04 0.000E+00
 ETOT  4  -56.120983667460     -2.214E-07 5.923E-06 0.000E+00
 ETOT  5  -56.120983668679     -1.218E-09 1.095E-06 0.000E+00
 ETOT  6  -56.120983668686     -7.432E-12 1.766E-08 0.000E+00
 ETOT  7  -56.120983668686     -7.105E-14 3.599E-09 0.000E+00
 ETOT  8  -56.120983668686     -1.421E-14 5.903E-11 0.000E+00
 ETOT  9  -56.120983668686      7.105E-15 1.231E-11 0.000E+00
 ETOT 10  -56.120983668686     -7.105E-15 2.040E-13 0.000E+00
 ETOT 11  -56.120983668686      0.000E+00 4.275E-14 0.000E+00
 ETOT 12  -56.120983668686     -1.421E-14 7.134E-16 0.000E+00
 ETOT 13  -56.120983668686      4.974E-14 1.495E-16 0.000E+00
 ETOT 14  -56.120983668686     -2.842E-14 2.510E-18 0.000E+00
 ETOT 15  -56.120983668686     -7.105E-15 5.250E-19 0.000E+00
 ETOT 16  -56.120983668686      0.000E+00 9.962E-21 0.000E+00

 At SCF step   16   max residual=  9.96E-21 < tolwfr=  1.00E-20 =>converged.

 ----iterations are completed or convergence reached----

 dfpt_looppert: DFPT cycle converged with prtwf=-1. Will skip output of the 1st-order WFK file.
 dfpt_looppert : ek2=    8.4722497757E+01
          f-sum rule ratio=    1.0340991507E+00
 prteigrs : about to open file /scratch/users/j/a/jabreu/flow_simple_8atoms/flow/w268/t1/tmpdata/tmp_1WF1_EIG
 Expectation of eigenvalue derivatives (hartree) for nkpt=   1  k points:
  (in case of degenerate eigenvalues, averaged derivative)
 kpt#   1, nband= 47, wtk=  1.00000, kpt=  0.0000  0.0000  0.0000 (reduced coord)
   0.00000    0.00000    0.00000   -0.00000   -0.00000   -0.00000   -0.00000   -0.00000
   0.00000    0.00000   -0.00000   -0.00000    0.00000   -0.00000   -0.00000    0.00000
  -0.00000   -0.00000   -0.00000   -0.00000    0.00000    0.00000    0.00000    0.00000
   0.00000   -0.00000    0.00000    0.00000   -0.00000   -0.00000   -0.00000   -0.00000
   0.00000    0.00000   -0.00000   -0.00000   -0.00000   -0.00000   -0.00000   -0.00000
  -0.00000    0.00000    0.00000    0.00000    0.00001    0.00001    0.00002

 Eight components of 2nd-order total energy (hartree) are
 1,2,3: 0th-order hamiltonian combined with 1st-order wavefunctions
     kin0=   7.36775741E+01 eigvalue=   5.73769346E+00  local=  -3.43365413E+01
 4,5,6: 1st-order hamiltonian combined with 1st and 0th-order wfs
     kin1=  -8.76114630E+01  Hartree=   0.00000000E+00     xc=   0.00000000E+00
 7,8,9: eventually, occupation + non-local contributions
    edocc=   7.44130975E+00     enl0=   3.60094764E+00   enl1=  -2.46305044E+01
 1-9 gives the relaxation energy (to be shifted if some occ is /=2.0)
   erelax=  -5.61209837E+01
  No Ewald or frozen-wf contrib.: the relaxation energy is the total one
 2DEtotal=   -0.5612098367E+02 Ha. Also 2DEtotal=   -0.152712962921E+04 eV
    (  non-var. 2DEtotal :   -5.6120983669E+01 Ha)

 CALCULATION OF EFFECTIVE MASSES
 NOTE : Additional infos (eff. mass eigenvalues, eigenvectors and, if degenerate, average mass) are available in stdout.

 COMMENTS:
 - At k-point ( 0.000, 0.000, 0.000), bands    37 through    38
   are DEGENERATE (effective mass tensor is therefore not defined).
   See Section IIIB Eqs. (67)-(70) and Appendix E of PRB 93 205147 (2016).
 - Angular average effective mass for Frohlich model is to be averaged over degenerate bands. See later.
 - Associated theta integrals calculated with ntheta=   1000 points.

 K-point ( 0.000, 0.000, 0.000) | band =    37
 Transport equivalent effective mass tensor:
             -2.4555557607              0.1528630336              0.4384652908
              0.1528630336             -2.5767242953              0.2979271916
              0.4384652908              0.2979271916             -1.8258716761
 Transport equivalent effective mass tensor eigenvalues:
             -2.6805808192             -2.6805057158             -1.4970651970
 Angular average effective mass 1/(<1/m>)=  -1.6925619235
 Angular average effective mass for Frohlich model (<m**0.5>)**2=  -1.7423366045
 Effective masses along directions: (cart. coord. / red. coord. -> eff. mass)
    1:   1.000000  0.000000  0.000000 /   0.938354  0.345675  0.000000 ->  -1.9119638603
    2:   0.000000  1.000000  0.000000 /   0.000000  1.000000  0.000000 ->  -2.4370882032
    3:   0.000000  0.000000  1.000000 /   0.449934  0.449934  0.771439 ->  -1.4834607175
    4:   0.577350  0.577350  0.577350 /   0.588179  0.690223  0.421471 ->  -1.4428537236
    5:   0.000000  0.707107  0.707107 /   0.329587  0.756333  0.565096 ->  -1.4206650692
    6:   0.707107  0.000000  0.707107 /   0.722942  0.457157  0.518037 ->  -1.4888253922
    7:   0.707107  0.707107  0.000000 /   0.610283  0.792183  0.000000 ->  -1.4117686794

 K-point ( 0.000, 0.000, 0.000) | band =    38
 Transport equivalent effective mass tensor:
           -142.3447707446              7.4339980627             21.3027081755
              7.4339980627           -148.2328592248             14.4652178701
             21.3027081755             14.4652178701           -111.7706877029
 Transport equivalent effective mass tensor eigenvalues:
           -153.2859607853           -153.2688786004            -95.7934782865
 Angular average effective mass 1/(<1/m>)=  -6.2815281245
 Angular average effective mass for Frohlich model (<m**0.5>)**2=  -8.4247066375
 Effective masses along directions: (cart. coord. / red. coord. -> eff. mass)
    1:   1.000000  0.000000  0.000000 /   0.938354  0.345675  0.000000 ->  -5.6079575898
    2:   0.000000  1.000000  0.000000 /   0.000000  1.000000  0.000000 ->  -3.9028780071
    3:   0.000000  0.000000  1.000000 /   0.449934  0.449934  0.771439 ->  -4.8061905319
    4:   0.577350  0.577350  0.577350 /   0.588179  0.690223  0.421471 ->  -4.4016887761
    5:   0.000000  0.707107  0.707107 /   0.329587  0.756333  0.565096 ->  -6.4100580848
    6:   0.707107  0.000000  0.707107 /   0.722942  0.457157  0.518037 ->  -4.0651047950
    7:   0.707107  0.707107  0.000000 /   0.610283  0.792183  0.000000 -> -51.2499353369

 Angular average effective mass for Frohlich model, averaged over degenerate bands.
 Value of     (<<m**0.5>>)**2 =     4.457399E+00
 Absolute Value of <<m**0.5>> =     2.111255E+00

 K-point ( 0.000, 0.000, 0.000) | band =    39
 Effective mass tensor:
              0.5304960773             -0.0092293597             -0.0264797219
             -0.0092293597              0.5378135207             -0.0179867415
             -0.0264797219             -0.0179867415              0.4924754903
 Effective mass tensor eigenvalues:
              0.4726196868              0.5440823694              0.5440830322
 Angular average effective mass 1/(<1/m>)=   0.5179756617
 Angular average effective mass for Frohlich model (<m**0.5>)**2=   0.5186770694
 Effective masses along directions: (cart. coord. / red. coord. -> eff. mass)
    1:   1.000000  0.000000  0.000000 /   0.938354  0.345675  0.000000 ->   0.5288787466
    2:   0.000000  1.000000  0.000000 /   0.000000  1.000000  0.000000 ->   0.5369600783
    3:   0.000000  0.000000  1.000000 /   0.449934  0.449934  0.771439 ->   0.4905208044
    4:   0.577350  0.577350  0.577350 /   0.588179  0.690223  0.421471 ->   0.4831377017
    5:   0.000000  0.707107  0.707107 /   0.329587  0.756333  0.565096 ->   0.4949414905
    6:   0.707107  0.000000  0.707107 /   0.722942  0.457157  0.518037 ->   0.4836298085
    7:   0.707107  0.707107  0.000000 /   0.610283  0.792183  0.000000 ->   0.5228878895

 END OF EFFECTIVE MASSES SECTION

 ---- first-order wavefunction calculations are completed ----

 Total localisation tensor (bohr^2) in cartesian coordinates
  WARNING : still subject to testing - especially symmetries.
      direction              matrix element
   alpha     beta       real part   imaginary part
     1        1       0.7426218624    0.0000000000
     1        2       0.2239406679    0.0000000000
     1        3       0.6424517254    0.0000000000
     2        1       0.2239406679    0.0000000000
     2        2       0.5651490292    0.0000000000
     2        3       0.4364790067    0.0000000000
     3        1       0.6424517254    0.0000000000
     3        2       0.4364790067    0.0000000000
     3        3       1.6651931406    0.0000000000

 respfn : d/dk was computed, but no 2DTE, so no DDB output.

== END DATASET(S) ==============================================================

 -outvars: echo values of variables after computation  --------
            acell      1.0000000000E+00  1.0000000000E+00  1.0000000000E+00 Bohr
              amu      1.18710000E+02  2.00590000E+02  1.89984032E+01
             ecut      4.20000000E+01 Hartree
           etotal     -5.6120983669E+01
            fcart      0.0000000000E+00  0.0000000000E+00  0.0000000000E+00
                       0.0000000000E+00  0.0000000000E+00  0.0000000000E+00
                       0.0000000000E+00  0.0000000000E+00  0.0000000000E+00
                       0.0000000000E+00  0.0000000000E+00  0.0000000000E+00
                       0.0000000000E+00  0.0000000000E+00  0.0000000000E+00
                       0.0000000000E+00  0.0000000000E+00  0.0000000000E+00
                       0.0000000000E+00  0.0000000000E+00  0.0000000000E+00
                       0.0000000000E+00  0.0000000000E+00  0.0000000000E+00
-          fftalg         512
           irdden           1
           irdwfk           1
           istwfk        1
              ixc     -116133
           kptopt           0
P           mkmem           1
P          mkqmem           1
P          mk1mem           1
            natom           8
            nband          47
           nbdbuf           4
            ngfft          72      72      72
             nkpt           1
            nstep        2000
             nsym           6
           ntypat           3
              occ      2.000000  2.000000  2.000000  2.000000  2.000000  2.000000
                       2.000000  2.000000  2.000000  2.000000  2.000000  2.000000
                       2.000000  2.000000  2.000000  2.000000  2.000000  2.000000
                       2.000000  2.000000  2.000000  2.000000  2.000000  2.000000
                       2.000000  2.000000  2.000000  2.000000  2.000000  2.000000
                       2.000000  2.000000  2.000000  2.000000  2.000000  2.000000
                       2.000000  2.000000  0.000000  0.000000  0.000000  0.000000
                       0.000000  0.000000  0.000000  0.000000  0.000000
        optdriver           1
            prtwf          -1
            rfdir           1       1       1
           rfelfd           2
            rprim      9.0525660376E+00  0.0000000000E+00  6.4998399251E+00
                       3.3348190216E+00  8.4159333385E+00  6.4998399251E+00
                       0.0000000000E+00  0.0000000000E+00  1.1144364985E+01
          spgroup         148
           strten      0.0000000000E+00  0.0000000000E+00  0.0000000000E+00
                       0.0000000000E+00  0.0000000000E+00  0.0000000000E+00
           symrel      1  0  0   0  1  0   0  0  1      -1  0  0   0 -1  0   0  0 -1
                       0  0  1   1  0  0   0  1  0       0  0 -1  -1  0  0   0 -1  0
                       0  1  0   0  0  1   1  0  0       0 -1  0   0  0 -1  -1  0  0
           tolwfr      1.00000000E-20
            typat      1  2  3  3  3  3  3  3
           useylm           1
           xangst      0.0000000000E+00  0.0000000000E+00  0.0000000000E+00
                       3.2775609237E+00  2.2267600559E+00  6.3882391250E+00
                       4.6154758626E+00  4.0692392219E+00  6.6503076625E+00
                       2.2039452870E+00  2.7918449553E+00  8.3328353042E+00
                       4.7814270784E+00  1.0204795984E+00  7.6278760984E+00
                       1.7736947690E+00  3.4330405133E+00  5.1486021516E+00
                       4.3511765604E+00  1.6616751565E+00  4.4436429457E+00
                       1.9396459848E+00  3.8428088988E-01  6.1261705874E+00
            xcart      0.0000000000E+00  0.0000000000E+00  0.0000000000E+00
                       6.1936925296E+00  4.2079666692E+00  1.2072022418E+01
                       8.7219853532E+00  7.6897476985E+00  1.2567260182E+01
                       4.1648530042E+00  5.2758223709E+00  1.5746776635E+01
                       9.0355877025E+00  1.9284269652E+00  1.4414596801E+01
                       3.3517973567E+00  6.4875063733E+00  9.7294480336E+00
                       8.2225320550E+00  3.1401109676E+00  8.3972681998E+00
                       3.6653997060E+00  7.2618563998E-01  1.1576784654E+01
             xred      0.0000000000E+00  0.0000000000E+00  0.0000000000E+00
                       5.0000000000E-01  5.0000000000E-01  5.0000000000E-01
                       6.2688500000E-01  9.1371300000E-01  2.2914000000E-01
                       2.2914000000E-01  6.2688500000E-01  9.1371300000E-01
                       9.1371300000E-01  2.2914000000E-01  6.2688500000E-01
                       8.6287000000E-02  7.7086000000E-01  3.7311500000E-01
                       7.7086000000E-01  3.7311500000E-01  8.6287000000E-02
                       3.7311500000E-01  8.6287000000E-02  7.7086000000E-01
            znucl       50.00000   80.00000    9.00000

- Timing analysis has been suppressed with timopt=0

 Suggested references for the acknowledgment of ABINIT usage.

 Calculation completed.
.Delivered   6 WARNINGs and  11 COMMENTs to log file.