.Version 9.5.1 of ABINIT

 ABINIT is a project of the Universite Catholique de Louvain,
 Corning Inc. and other collaborators, see ~abinit/doc/developers/contributors.txt .
 acknowledgments of the ABINIT effort.

.Starting date : Wed  5 May 2021.
- ( at 19h37 )

- input  file    -> /scratch/users/j/a/jabreu/flow_simple_7atoms/flow/w115/t1/run.abi
- output file    -> /scratch/users/j/a/jabreu/flow_simple_7atoms/flow/w115/t1/run.abo
- root for input  files -> /scratch/users/j/a/jabreu/flow_simple_7atoms/flow/w115/t1/indata/in
- root for output files -> /scratch/users/j/a/jabreu/flow_simple_7atoms/flow/w115/t1/outdata/out

 Symmetries : space group I4 2 2 (# 97); Bravais tI (body-center tetrag.)
     intxc =       0      iscf =       7    lmnmax =      18     lnmax =       6
     mgfft =      72  mpssoang =       3    mqgrid =    3122     natom =       7
  nloc_mem =       1    nspden =       1   nspinor =       1    nsppol =       1
      nsym =       8    n1xccc =    2501    ntypat =       3    occopt =       1
   xclevel =       2
-    mband =          49        mffmem =           1         mkmem =           2
-   mkqmem =           2        mk1mem =           2           mpw =       18286
      nfft =      373248          nkpt =           2
  Rough estimation (10% accuracy) of disk space for files :

------------- Echo of variables that govern the present computation ------------
-
- outvars: echo of selected default values
-   iomode0 =  0 , fftalg0 =512 , wfoptalg0 =  0
-
- outvars: echo of global parameters not present in the input file
-  max_nthreads =    0
-
 -outvars: echo values of preprocessed input variables --------
            acell      1.0000000000E+00  1.0000000000E+00  1.0000000000E+00 Bohr
              amu      8.76200000E+01  2.69815390E+01  1.27600000E+02
             ecut      4.00000000E+01 Hartree
-          fftalg         512
           irdden           1
           irdwfk           1
           istwfk        1    0
              ixc     -116133
              kpt      0.00000000E+00  0.00000000E+00  0.00000000E+00
                      -5.00000000E-01  5.00000000E-01  5.00000000E-01
           kptopt           0
P           mkmem           2
P          mkqmem           2
P          mk1mem           2
            natom           7
            nband          49
           nbdbuf           4
            ngfft          72      72      72
             nkpt           2
            nstep        2000
             nsym           8
           ntypat           3
              occ      2.000000  2.000000  2.000000  2.000000  2.000000  2.000000
                       2.000000  2.000000  2.000000  2.000000  2.000000  2.000000
                       2.000000  2.000000  2.000000  2.000000  2.000000  2.000000
                       2.000000  2.000000  2.000000  2.000000  2.000000  2.000000
                       2.000000  2.000000  2.000000  2.000000  2.000000  2.000000
                       2.000000  2.000000  2.000000  2.000000  2.000000  2.000000
                       2.000000  2.000000  2.000000  2.000000  0.000000  0.000000
                       0.000000  0.000000  0.000000  0.000000  0.000000  0.000000
                       0.000000
        optdriver           1
            prtwf          -1
            rfdir           1       1       1
           rfelfd           2
            rprim      1.2242708748E+01  0.0000000000E+00 -3.1186112736E+00
                      -7.3951256684E+00  9.7568454859E+00 -3.1186112736E+00
                       0.0000000000E+00  0.0000000000E+00  1.2633671428E+01
          spgroup          97
           symrel      1  0  0   0  1  0   0  0  1       0  0  1  -1 -1 -1   1  0  0
                       0  1  0   1  0  0  -1 -1 -1      -1 -1 -1   0  0  1   0  1  0
                      -1  0  0   0 -1  0   1  1  1       1  1  1   0  0 -1  -1  0  0
                       0 -1  0  -1  0  0   0  0 -1       0  0 -1   1  1  1   0 -1  0
           tolwfr      1.00000000E-20
            typat      1  2  2  3  3  3  3
           useylm           1
              wtk        0.50000    0.50000
           xangst      0.0000000000E+00  0.0000000000E+00  0.0000000000E+00
                      -1.9566659792E+00  2.5815501294E+00  2.5175764862E+00
                       3.2392812204E+00  0.0000000000E+00  2.5175764862E+00
                       3.4281770975E+00  3.8019521376E-01 -8.3601885373E-02
                      -3.1481040305E+00  4.7829050451E+00  1.6924274819E+00
                       5.1738731336E-01  2.9617453432E+00  1.6924274819E+00
                       4.3330005846E+00  2.2013549157E+00  3.4684568493E+00
            xcart      0.0000000000E+00  0.0000000000E+00  0.0000000000E+00
                      -3.6975628342E+00  4.8784227429E+00  4.7575300774E+00
                       6.1213543740E+00  0.0000000000E+00  4.7575300774E+00
                       6.4783158492E+00  7.1846483105E-01 -1.5798466755E-01
                      -5.9490544555E+00  9.0383806549E+00  3.1982244406E+00
                       9.7772032688E-01  5.5968875740E+00  3.1982244406E+00
                       8.1881844386E+00  4.1599579119E+00  6.5544335488E+00
             xred      0.0000000000E+00  0.0000000000E+00  0.0000000000E+00
                       0.0000000000E+00  5.0000000000E-01  5.0000000000E-01
                       5.0000000000E-01  0.0000000000E+00  5.0000000000E-01
                       5.7363700000E-01  7.3637000000E-02  1.4727400000E-01
                       7.3637000000E-02  9.2636300000E-01  5.0000000000E-01
                       4.2636300000E-01  5.7363700000E-01  5.0000000000E-01
                       9.2636300000E-01  4.2636300000E-01  8.5272600000E-01
            znucl       38.00000   13.00000   52.00000

 chkinp: Checking input parameters for consistency.

== DATASET  1 ==================================================================
-   mpi_nproc: 1, omp_nthreads: -1 (-1 if OMP is not activated)

--- !DatasetInfo
iteration_state: {dtset: 1, }
dimensions: {natom: 7, nkpt: 2, mband: 49, nsppol: 1, nspinor: 1, nspden: 1, mpw: 18286, }
cutoff_energies: {ecut:  40.0, pawecutdg:  -1.0, }
electrons: {nelect:   8.00000000E+01, charge:   0.00000000E+00, occopt:   1.00000000E+00, tsmear:   1.00000000E-02, }
meta: {optdriver: 1, rfelfd: 2, }
...

 Real(R)+Recip(G) space primitive vectors, cartesian coordinates (Bohr,Bohr^-1):
 R(1)= 12.2427087  0.0000000 -3.1186113  G(1)=  0.0816813  0.0619097  0.0000000
 R(2)= -7.3951257  9.7568455 -3.1186113  G(2)=  0.0000000  0.1024921  0.0000000
 R(3)=  0.0000000  0.0000000 12.6336714  G(3)=  0.0201630  0.0405825  0.0791536
 Unit cell volume ucvol=  1.5090948E+03 bohr^3
 Angles (23,13,12)=  1.04291140E+02  1.04291140E+02  1.20417798E+02 degrees

 getcut: wavevector=  0.0000  0.0000  0.0000  ngfft=  72  72  72
         ecut(hartree)=     40.000   => boxcut(ratio)=   2.00179

--- Pseudopotential description ------------------------------------------------
- pspini: atom type   1  psp file is /scratch/users/j/a/jabreu/pseudos/PBEsol/Sr.psp8
- pspatm: opening atomic psp file    /scratch/users/j/a/jabreu/pseudos/PBEsol/Sr.psp8
- Sr    ONCVPSP-3.3.0  r_core=   1.66721   1.31335   1.51547
- 38.00000  10.00000    180112                znucl, zion, pspdat
    8 -116133    2    4       600   0.00000   pspcod,pspxc,lmax,lloc,mmax,r2well
    5.99000000000000    6.00000000000000    0.00000000000000   rchrg,fchrg,qchrg
     nproj     2     2     2
     extension_switch     1
  pspatm : epsatm=   12.46450977
         --- l  ekb(1:nproj) -->
             0   10.029206    1.044171
             1    7.472414    1.670829
             2    4.142950    0.968140
 pspatm: atomic psp has been read  and splines computed

- pspini: atom type   2  psp file is /scratch/users/j/a/jabreu/pseudos/PBEsol/Al.psp8
- pspatm: opening atomic psp file    /scratch/users/j/a/jabreu/pseudos/PBEsol/Al.psp8
- Al    ONCVPSP-3.3.0  r_core=   1.76802   1.76802   1.70587
- 13.00000   3.00000    180112                znucl, zion, pspdat
    8 -116133    2    4       600   0.00000   pspcod,pspxc,lmax,lloc,mmax,r2well
    5.99000000000000    5.00000000000000    0.00000000000000   rchrg,fchrg,qchrg
     nproj     2     2     2
     extension_switch     1
  pspatm : epsatm=    0.68509324
         --- l  ekb(1:nproj) -->
             0    5.834965    0.726662
             1    6.225605    0.924840
             2   -2.432733   -0.548689
 pspatm: atomic psp has been read  and splines computed

- pspini: atom type   3  psp file is /scratch/users/j/a/jabreu/pseudos/PBEsol/Te.psp8
- pspatm: opening atomic psp file    /scratch/users/j/a/jabreu/pseudos/PBEsol/Te.psp8
- Te    ONCVPSP-3.3.0  r_core=   2.26547   1.91704   1.80604
- 52.00000  16.00000    180112                znucl, zion, pspdat
    8 -116133    2    4       600   0.00000   pspcod,pspxc,lmax,lloc,mmax,r2well
    5.99000000000000    5.00000000000000    0.00000000000000   rchrg,fchrg,qchrg
     nproj     2     2     2
     extension_switch     1
  pspatm : epsatm=   36.82679836
         --- l  ekb(1:nproj) -->
             0    6.345999    0.785432
             1    5.709019    1.070069
             2   -6.035173   -1.870937
 pspatm: atomic psp has been read  and splines computed

   1.28913512E+04                                ecore*ucvol(ha*bohr**3)

-inwffil : will read wavefunctions from disk file /scratch/users/j/a/jabreu/flow_simple_7atoms/flow/w115/t1/indata/in_WFK

 ==>  initialize data related to q vector <==

 The list of irreducible perturbations for this q vector is:
    1)    idir= 1    ipert=   8
    2)    idir= 2    ipert=   8
    3)    idir= 3    ipert=   8

 Perturbation wavevector (in red.coord.)   0.000000  0.000000  0.000000
 Perturbation : derivative vs k along direction   1

 dfpt_looppert : COMMENT -
  In a d/dk calculation, iscf is set to -3 automatically.
 The set of symmetries contains only one element for this perturbation.
 symkpt : not enough symmetry to change the number of k points.

[...]

 Initialisation of the first-order wave-functions :
  ireadwf=   0

--- !BeginCycle
iteration_state: {dtset: 1, }
solver: {iscf: 7, nstep: 2000, nline: 4, wfoptalg: 0, }
tolerances: {tolwfr: 1.00E-20, }
...

     iter   2DEtotal(Ha)        deltaE(Ha) residm    vres2
-ETOT  1  -70.162444962510     -7.016E+01 2.191E-01 0.000E+00
 ETOT  2  -70.210103924962     -4.766E-02 9.619E-03 0.000E+00
 ETOT  3  -70.210159545621     -5.562E-05 1.594E-03 0.000E+00
 ETOT  4  -70.210159943867     -3.982E-07 1.197E-04 0.000E+00
 ETOT  5  -70.210159948724     -4.856E-09 3.776E-05 0.000E+00
 ETOT  6  -70.210159948809     -8.558E-11 4.590E-06 0.000E+00
 ETOT  7  -70.210159948811     -1.904E-12 1.677E-06 0.000E+00
 ETOT  8  -70.210159948811     -7.105E-14 2.761E-07 0.000E+00
 ETOT  9  -70.210159948811      0.000E+00 1.041E-07 0.000E+00
 ETOT 10  -70.210159948811      2.842E-14 1.793E-08 0.000E+00
 ETOT 11  -70.210159948811     -1.421E-14 6.887E-09 0.000E+00
 ETOT 12  -70.210159948811     -2.842E-14 1.185E-09 0.000E+00
 ETOT 13  -70.210159948811      0.000E+00 4.621E-10 0.000E+00
 ETOT 14  -70.210159948811      0.000E+00 7.934E-11 0.000E+00
 ETOT 15  -70.210159948811      0.000E+00 3.130E-11 0.000E+00
 ETOT 16  -70.210159948811      1.421E-14 5.369E-12 0.000E+00
 ETOT 17  -70.210159948811      0.000E+00 2.138E-12 0.000E+00
 ETOT 18  -70.210159948811      0.000E+00 3.665E-13 0.000E+00
 ETOT 19  -70.210159948811      0.000E+00 1.471E-13 0.000E+00
 ETOT 20  -70.210159948811      0.000E+00 2.521E-14 0.000E+00
 ETOT 21  -70.210159948811      0.000E+00 1.018E-14 0.000E+00
 ETOT 22  -70.210159948811      0.000E+00 1.744E-15 0.000E+00
 ETOT 23  -70.210159948811      0.000E+00 7.087E-16 0.000E+00
 ETOT 24  -70.210159948811      0.000E+00 1.214E-16 0.000E+00
 ETOT 25  -70.210159948811      0.000E+00 4.958E-17 0.000E+00
 ETOT 26  -70.210159948811      0.000E+00 8.485E-18 0.000E+00
 ETOT 27  -70.210159948811      0.000E+00 3.483E-18 0.000E+00
 ETOT 28  -70.210159948811      0.000E+00 5.954E-19 0.000E+00
 ETOT 29  -70.210159948811      0.000E+00 2.456E-19 0.000E+00
 ETOT 30  -70.210159948811     -1.421E-14 4.192E-20 0.000E+00
 ETOT 31  -70.210159948811      0.000E+00 1.737E-20 0.000E+00
 ETOT 32  -70.210159948811      0.000E+00 9.943E-21 0.000E+00

 At SCF step   32   max residual=  9.94E-21 < tolwfr=  1.00E-20 =>converged.

 ----iterations are completed or convergence reached----

 dfpt_looppert: DFPT cycle converged with prtwf=-1. Will skip output of the 1st-order WFK file.
 dfpt_looppert : ek2=    6.6353046048E+01
          f-sum rule ratio=    1.0407000825E+00
 prteigrs : about to open file /scratch/users/j/a/jabreu/flow_simple_7atoms/flow/w115/t1/tmpdata/tmp_1WF1_EIG
 Expectation of eigenvalue derivatives (hartree) for nkpt=   2  k points:
  (in case of degenerate eigenvalues, averaged derivative)
 kpt#   1, nband= 49, wtk=  0.50000, kpt=  0.0000  0.0000  0.0000 (reduced coord)
   0.00000    0.00000   -0.00000   -0.00000   -0.00000   -0.00000    0.00000    0.00000
   0.00000    0.00000    0.00000    0.00000   -0.00000    0.00000    0.00000    0.00000
   0.00000    0.00000   -0.00000   -0.00000   -0.00000   -0.00000   -0.00000   -0.00000
  -0.00000    0.00000   -0.00000   -0.00000    0.00000   -0.00000    0.00000   -0.00000
  -0.00000   -0.00000   -0.00000   -0.00000    0.00000   -0.00000   -0.00000   -0.00000
   0.00000    0.00000    0.00000   -0.00000   -0.00000    0.00000    0.00000    0.00000
   0.00000
 prteigrs : prtvol=0 or 1, do not print more k-points.

 Eight components of 2nd-order total energy (hartree) are
 1,2,3: 0th-order hamiltonian combined with 1st-order wavefunctions
     kin0=   7.74184145E+01 eigvalue=   1.21960948E+01  local=  -4.12380212E+01
 4,5,6: 1st-order hamiltonian combined with 1st and 0th-order wfs
     kin1=  -6.90536205E+01  Hartree=   0.00000000E+00     xc=   0.00000000E+00
 7,8,9: eventually, occupation + non-local contributions
    edocc=   1.10475756E+01     enl0=   1.07860962E+01   enl1=  -7.13666994E+01
 1-9 gives the relaxation energy (to be shifted if some occ is /=2.0)
   erelax=  -7.02101599E+01
  No Ewald or frozen-wf contrib.: the relaxation energy is the total one
 2DEtotal=   -0.7021015995E+02 Ha. Also 2DEtotal=   -0.191051561324E+04 eV
    (  non-var. 2DEtotal :   -7.0210159949E+01 Ha)

 Perturbation wavevector (in red.coord.)   0.000000  0.000000  0.000000
 Perturbation : derivative vs k along direction   2
 The set of symmetries contains only one element for this perturbation.
 symkpt : not enough symmetry to change the number of k points.

[...]

 Perturbation wavevector (in red.coord.)   0.000000  0.000000  0.000000
 Perturbation : derivative vs k along direction   3
 The set of symmetries contains only one element for this perturbation.
 symkpt : not enough symmetry to change the number of k points.

-inwffil : will read wavefunctions from disk file /scratch/users/j/a/jabreu/flow_simple_7atoms/flow/w115/t1/indata/in_WFK

 Initialisation of the first-order wave-functions :
  ireadwf=   0

--- !BeginCycle
iteration_state: {dtset: 1, }
solver: {iscf: 7, nstep: 2000, nline: 4, wfoptalg: 0, }
tolerances: {tolwfr: 1.00E-20, }
...

     iter   2DEtotal(Ha)        deltaE(Ha) residm    vres2
-ETOT  1  -56.519283450580     -5.652E+01 1.605E-01 0.000E+00
 ETOT  2  -56.556192332583     -3.691E-02 5.132E-03 0.000E+00
 ETOT  3  -56.556234035528     -4.170E-05 4.249E-04 0.000E+00
 ETOT  4  -56.556234331738     -2.962E-07 1.076E-04 0.000E+00
 ETOT  5  -56.556234335316     -3.579E-09 5.070E-06 0.000E+00
 ETOT  6  -56.556234335382     -6.519E-11 3.816E-06 0.000E+00
 ETOT  7  -56.556234335383     -1.350E-12 1.743E-07 0.000E+00
 ETOT  8  -56.556234335383     -2.132E-14 1.464E-07 0.000E+00
 ETOT  9  -56.556234335383     -1.421E-14 6.404E-09 0.000E+00
 ETOT 10  -56.556234335383      7.105E-15 5.818E-09 0.000E+00
 ETOT 11  -56.556234335383     -7.105E-15 2.379E-10 0.000E+00
 ETOT 12  -56.556234335383     -2.842E-14 2.339E-10 0.000E+00
 ETOT 13  -56.556234335383      2.132E-14 8.940E-12 0.000E+00
 ETOT 14  -56.556234335383      2.842E-14 9.506E-12 0.000E+00
 ETOT 15  -56.556234335383     -4.263E-14 3.475E-13 0.000E+00
 ETOT 16  -56.556234335383      1.421E-14 3.923E-13 0.000E+00
 ETOT 17  -56.556234335383      0.000E+00 1.405E-14 0.000E+00
 ETOT 18  -56.556234335383      0.000E+00 1.643E-14 0.000E+00
 ETOT 19  -56.556234335383     -7.105E-15 8.692E-16 0.000E+00
 ETOT 20  -56.556234335383      0.000E+00 6.963E-16 0.000E+00
 ETOT 21  -56.556234335383      0.000E+00 6.227E-17 0.000E+00
 ETOT 22  -56.556234335383      0.000E+00 2.977E-17 0.000E+00
 ETOT 23  -56.556234335383      0.000E+00 4.482E-18 0.000E+00
 ETOT 24  -56.556234335383      7.105E-15 1.281E-18 0.000E+00
 ETOT 25  -56.556234335383      7.105E-15 3.241E-19 0.000E+00
 ETOT 26  -56.556234335383      0.000E+00 7.003E-20 0.000E+00
 ETOT 27  -56.556234335383      0.000E+00 2.354E-20 0.000E+00
 ETOT 28  -56.556234335383     -7.105E-15 9.898E-21 0.000E+00

 At SCF step   28   max residual=  9.90E-21 < tolwfr=  1.00E-20 =>converged.

 ----iterations are completed or convergence reached----

 dfpt_looppert: DFPT cycle converged with prtwf=-1. Will skip output of the 1st-order WFK file.
 dfpt_looppert : ek2=    5.2545871966E+01
          f-sum rule ratio=    1.0761933795E+00
 prteigrs : about to open file /scratch/users/j/a/jabreu/flow_simple_7atoms/flow/w115/t1/tmpdata/tmp_1WF1_EIG
 Expectation of eigenvalue derivatives (hartree) for nkpt=   2  k points:
  (in case of degenerate eigenvalues, averaged derivative)
 kpt#   1, nband= 49, wtk=  0.50000, kpt=  0.0000  0.0000  0.0000 (reduced coord)
   0.00000    0.00000   -0.00000   -0.00000    0.00000    0.00000   -0.00000   -0.00000
   0.00000    0.00000   -0.00000   -0.00000    0.00000    0.00000    0.00000   -0.00000
   0.00000   -0.00000    0.00000    0.00000    0.00000   -0.00000   -0.00000    0.00000
   0.00000   -0.00000   -0.00000   -0.00000   -0.00000   -0.00000   -0.00000   -0.00000
  -0.00000   -0.00000   -0.00000   -0.00000   -0.00000   -0.00000   -0.00000   -0.00000
  -0.00000    0.00000   -0.00000    0.00000    0.00000   -0.00000   -0.00000    0.00000
   0.00000
 prteigrs : prtvol=0 or 1, do not print more k-points.

 Eight components of 2nd-order total energy (hartree) are
 1,2,3: 0th-order hamiltonian combined with 1st-order wavefunctions
     kin0=   6.25612032E+01 eigvalue=   9.46277961E+00  local=  -3.33320744E+01
 4,5,6: 1st-order hamiltonian combined with 1st and 0th-order wfs
     kin1=  -5.65495195E+01  Hartree=   0.00000000E+00     xc=   0.00000000E+00
 7,8,9: eventually, occupation + non-local contributions
    edocc=   9.23645551E+00     enl0=   8.62787034E+00   enl1=  -5.65629491E+01
 1-9 gives the relaxation energy (to be shifted if some occ is /=2.0)
   erelax=  -5.65562343E+01
  No Ewald or frozen-wf contrib.: the relaxation energy is the total one
 2DEtotal=   -0.5655623434E+02 Ha. Also 2DEtotal=   -0.153897340218E+04 eV
    (  non-var. 2DEtotal :   -5.6556234335E+01 Ha)

 CALCULATION OF EFFECTIVE MASSES
 NOTE : Additional infos (eff. mass eigenvalues, eigenvectors and, if degenerate, average mass) are available in stdout.

 K-point ( 0.000, 0.000, 0.000) | band =    40
 Effective mass tensor:
             -0.9690448072              0.3011242860             -0.1924986073
              0.3011242860             -0.5125751543             -0.3874465140
             -0.1924986073             -0.3874465140             -0.8709736493
 Effective mass tensor eigenvalues:
             -1.1186551496             -1.1186551480             -0.1152833132
 Angular average effective mass 1/(<1/m>)=  -0.2867481260
 Angular average effective mass for Frohlich model (<m**0.5>)**2=  -0.4176242740
 Effective masses along directions: (cart. coord. / red. coord. -> eff. mass)
    1:   1.000000  0.000000  0.000000 /   0.855962 -0.517038  0.000000 ->  -0.4868454538
    2:   0.000000  1.000000  0.000000 /   0.000000  1.000000  0.000000 ->  -0.1787757577
    3:   0.000000  0.000000  1.000000 /  -0.233056 -0.233056  0.944124 ->  -0.3553024082
    4:   0.577350  0.577350  0.577350 /   0.584792 -0.048512  0.809731 ->  -0.4887525774
    5:   0.000000  0.707107  0.707107 /  -0.213483  0.454416  0.864830 ->  -0.8335335944
    6:   0.707107  0.000000  0.707107 /   0.485354 -0.559275  0.672044 ->  -1.0620242656
    7:   0.707107  0.707107  0.000000 /   0.981897  0.189416  0.000000 ->  -0.1623693076

 K-point (-0.500, 0.500, 0.500) | band =    41
 Effective mass tensor:
              0.2778344010             -0.0106498688              0.0068083770
             -0.0106498688              0.2616900762              0.0137027843
              0.0068083770              0.0137027843              0.2743657525
 Effective mass tensor eigenvalues:
              0.2476390759              0.2831252751              0.2831258787
 Angular average effective mass 1/(<1/m>)=   0.2702182183
 Angular average effective mass for Frohlich model (<m**0.5>)**2=   0.2705488027
 Effective masses along directions: (cart. coord. / red. coord. -> eff. mass)
    1:   1.000000  0.000000  0.000000 /   0.855962 -0.517038  0.000000 ->   0.2772027106
    2:   0.000000  1.000000  0.000000 /   0.000000  1.000000  0.000000 ->   0.2605707347
    3:   0.000000  0.000000  1.000000 /  -0.233056 -0.233056  0.944124 ->   0.2734526428
    4:   0.577350  0.577350  0.577350 /   0.584792 -0.048512  0.809731 ->   0.2772427626
    5:   0.000000  0.707107  0.707107 /  -0.213483  0.454416  0.864830 ->   0.2815397739
    6:   0.707107  0.000000  0.707107 /   0.485354 -0.559275  0.672044 ->   0.2828775164
    7:   0.707107  0.707107  0.000000 /   0.981897  0.189416  0.000000 ->   0.2580981563

 END OF EFFECTIVE MASSES SECTION

 ---- first-order wavefunction calculations are completed ----

 Total localisation tensor (bohr^2) in cartesian coordinates
  WARNING : still subject to testing - especially symmetries.
      direction              matrix element
   alpha     beta       real part   imaginary part
     1        1       3.2806946566    0.0000000000
     1        2      -1.1571138637    0.0000000000
     1        3      -0.2424398086    0.0000000000
     2        1      -1.1571138637    0.0000000000
     2        2       1.5266517006    0.0000000000
     2        3      -0.4879684947    0.0000000000
     3        1      -0.2424398086    0.0000000000
     3        2      -0.4879684947    0.0000000000
     3        3       2.4244071666    0.0000000000

 respfn : d/dk was computed, but no 2DTE, so no DDB output.

== END DATASET(S) ==============================================================

 -outvars: echo values of variables after computation  --------
            acell      1.0000000000E+00  1.0000000000E+00  1.0000000000E+00 Bohr
              amu      8.76200000E+01  2.69815390E+01  1.27600000E+02
             ecut      4.00000000E+01 Hartree
           etotal     -5.6556234335E+01
            fcart      0.0000000000E+00  0.0000000000E+00  0.0000000000E+00
                       0.0000000000E+00  0.0000000000E+00  0.0000000000E+00
                       0.0000000000E+00  0.0000000000E+00  0.0000000000E+00
                       0.0000000000E+00  0.0000000000E+00  0.0000000000E+00
                       0.0000000000E+00  0.0000000000E+00  0.0000000000E+00
                       0.0000000000E+00  0.0000000000E+00  0.0000000000E+00
                       0.0000000000E+00  0.0000000000E+00  0.0000000000E+00
-          fftalg         512
           irdden           1
           irdwfk           1
           istwfk        1    0
              ixc     -116133
              kpt      0.00000000E+00  0.00000000E+00  0.00000000E+00
                      -5.00000000E-01  5.00000000E-01  5.00000000E-01
           kptopt           0
P           mkmem           2
P          mkqmem           2
P          mk1mem           2
            natom           7
            nband          49
           nbdbuf           4
            ngfft          72      72      72
             nkpt           2
            nstep        2000
             nsym           8
           ntypat           3
              occ      2.000000  2.000000  2.000000  2.000000  2.000000  2.000000
                       2.000000  2.000000  2.000000  2.000000  2.000000  2.000000
                       2.000000  2.000000  2.000000  2.000000  2.000000  2.000000
                       2.000000  2.000000  2.000000  2.000000  2.000000  2.000000
                       2.000000  2.000000  2.000000  2.000000  2.000000  2.000000
                       2.000000  2.000000  2.000000  2.000000  2.000000  2.000000
                       2.000000  2.000000  2.000000  2.000000  0.000000  0.000000
                       0.000000  0.000000  0.000000  0.000000  0.000000  0.000000
                       0.000000
        optdriver           1
            prtwf          -1
            rfdir           1       1       1
           rfelfd           2
            rprim      1.2242708748E+01  0.0000000000E+00 -3.1186112736E+00
                      -7.3951256684E+00  9.7568454859E+00 -3.1186112736E+00
                       0.0000000000E+00  0.0000000000E+00  1.2633671428E+01
          spgroup          97
           strten      0.0000000000E+00  0.0000000000E+00  0.0000000000E+00
                       0.0000000000E+00  0.0000000000E+00  0.0000000000E+00
           symrel      1  0  0   0  1  0   0  0  1       0  0  1  -1 -1 -1   1  0  0
                       0  1  0   1  0  0  -1 -1 -1      -1 -1 -1   0  0  1   0  1  0
                      -1  0  0   0 -1  0   1  1  1       1  1  1   0  0 -1  -1  0  0
                       0 -1  0  -1  0  0   0  0 -1       0  0 -1   1  1  1   0 -1  0
           tolwfr      1.00000000E-20
            typat      1  2  2  3  3  3  3
           useylm           1
              wtk        0.50000    0.50000
           xangst      0.0000000000E+00  0.0000000000E+00  0.0000000000E+00
                      -1.9566659792E+00  2.5815501294E+00  2.5175764862E+00
                       3.2392812204E+00  0.0000000000E+00  2.5175764862E+00
                       3.4281770975E+00  3.8019521376E-01 -8.3601885373E-02
                      -3.1481040305E+00  4.7829050451E+00  1.6924274819E+00
                       5.1738731336E-01  2.9617453432E+00  1.6924274819E+00
                       4.3330005846E+00  2.2013549157E+00  3.4684568493E+00
            xcart      0.0000000000E+00  0.0000000000E+00  0.0000000000E+00
                      -3.6975628342E+00  4.8784227429E+00  4.7575300774E+00
                       6.1213543740E+00  0.0000000000E+00  4.7575300774E+00
                       6.4783158492E+00  7.1846483105E-01 -1.5798466755E-01
                      -5.9490544555E+00  9.0383806549E+00  3.1982244406E+00
                       9.7772032688E-01  5.5968875740E+00  3.1982244406E+00
                       8.1881844386E+00  4.1599579119E+00  6.5544335488E+00
             xred      0.0000000000E+00  0.0000000000E+00  0.0000000000E+00
                       0.0000000000E+00  5.0000000000E-01  5.0000000000E-01
                       5.0000000000E-01  0.0000000000E+00  5.0000000000E-01
                       5.7363700000E-01  7.3637000000E-02  1.4727400000E-01
                       7.3637000000E-02  9.2636300000E-01  5.0000000000E-01
                       4.2636300000E-01  5.7363700000E-01  5.0000000000E-01
                       9.2636300000E-01  4.2636300000E-01  8.5272600000E-01
            znucl       38.00000   13.00000   52.00000

- Timing analysis has been suppressed with timopt=0

 Suggested references for the acknowledgment of ABINIT usage.

 Calculation completed.
.Delivered  14 WARNINGs and   9 COMMENTs to log file.