.Version 9.5.1 of ABINIT

 ABINIT is a project of the Universite Catholique de Louvain,
 Corning Inc. and other collaborators, see ~abinit/doc/developers/contributors.txt .
 acknowledgments of the ABINIT effort.

.Starting date : Tue 11 May 2021.
- ( at 21h44 )

- input  file    -> /scratch/users/j/a/jabreu/flow_simple_8atoms/flow/w348/t1/run.abi
- output file    -> /scratch/users/j/a/jabreu/flow_simple_8atoms/flow/w348/t1/run.abo
- root for input  files -> /scratch/users/j/a/jabreu/flow_simple_8atoms/flow/w348/t1/indata/in
- root for output files -> /scratch/users/j/a/jabreu/flow_simple_8atoms/flow/w348/t1/outdata/out

 Symmetries : space group I4 m m (#107); Bravais tI (body-center tetrag.)
     intxc =       0      iscf =       7    lmnmax =      18     lnmax =       6
     mgfft =      64  mpssoang =       3    mqgrid =    3001     natom =       8
  nloc_mem =       1    nspden =       1   nspinor =       1    nsppol =       1
      nsym =       8    n1xccc =    2501    ntypat =       3    occopt =       1
   xclevel =       2
-    mband =          30        mffmem =           1         mkmem =           2
-   mkqmem =           2        mk1mem =           2           mpw =       10050
      nfft =      262144          nkpt =           2
  Rough estimation (10% accuracy) of disk space for files :

------------- Echo of variables that govern the present computation ------------
-
- outvars: echo of selected default values
-   iomode0 =  0 , fftalg0 =512 , wfoptalg0 =  0
-
- outvars: echo of global parameters not present in the input file
-  max_nthreads =    0
-
 -outvars: echo values of preprocessed input variables --------
            acell      1.0000000000E+00  1.0000000000E+00  1.0000000000E+00 Bohr
              amu      8.76200000E+01  1.00794000E+00  1.02905500E+02
             ecut      4.40000000E+01 Hartree
-          fftalg         512
           irdden           1
           irdwfk           1
              ixc     -116133
              kpt     -5.55111512E-17 -2.77555756E-17  3.65384615E-01
                       5.00000000E-01  5.00000000E-01 -5.00000000E-01
           kptopt           0
P           mkmem           2
P          mkqmem           2
P          mk1mem           2
            natom           8
            nband          30
           nbdbuf           4
            ngfft          64      64      64
             nkpt           2
            nstep        2000
             nsym           8
           ntypat           3
              occ      2.000000  2.000000  2.000000  2.000000  2.000000  2.000000
                       2.000000  2.000000  2.000000  2.000000  2.000000  2.000000
                       2.000000  2.000000  2.000000  2.000000  2.000000  2.000000
                       2.000000  2.000000  2.000000  0.000000  0.000000  0.000000
                       0.000000  0.000000  0.000000  0.000000  0.000000  0.000000
        optdriver           1
            prtwf          -1
            rfdir           1       1       1
           rfelfd           2
            rprim      8.6771295044E+00  0.0000000000E+00 -5.1805137304E+00
                      -2.7958506636E+00  8.2143651917E+00 -5.1805137304E+00
                       0.0000000000E+00  0.0000000000E+00  1.0105953639E+01
          spgroup         107
           symrel      1  0  0   0  1  0   0  0  1       0  0 -1   1  1  1  -1  0  0
                       0  1  0   1  0  0  -1 -1 -1       1  1  1   0  0 -1   0 -1  0
                       0  1  0   1  0  0   0  0  1       0  0 -1   1  1  1   0 -1  0
                       1  0  0   0  1  0  -1 -1 -1       1  1  1   0  0 -1  -1  0  0
           tolwfr      1.00000000E-20
            typat      1  1  2  2  2  2  2  3
           useylm           1
              wtk        0.50000    0.50000
           xangst      3.3133802088E-02  3.2529123123E+00 -5.8371697630E-02
                       3.0687536118E+00  1.0794848910E+00 -5.8371697630E-02
                       6.7913717227E-01  9.4854892945E-01  1.2003723009E+00
                      -1.3727780694E-01  3.3472216749E+00 -2.7091927470E+00
                       3.2129414974E+00  9.4854892945E-01 -2.7091927470E+00
                       2.3965265182E+00  3.3472216749E+00 -1.2709174583E+00
                       7.5160876310E-01  1.0497697913E+00 -1.3241064138E+00
                       2.5918724059E-02  3.6200607128E-02 -4.5660921544E-02
            xcart      6.2613811688E-02  6.1471134045E+00 -1.1030652243E-01
                       5.7991038957E+00  2.0399308086E+00 -1.1030652243E-01
                       1.2833832622E+00  1.7924977003E+00  2.2683749063E+00
                      -2.5941745924E-01  6.3253322717E+00 -5.1196323330E+00
                       6.0715795111E+00  1.7924977003E+00 -5.1196323330E+00
                       4.5287787896E+00  6.3253322717E+00 -2.4016859338E+00
                       1.4203347213E+00  1.9837774082E+00 -2.5021984928E+00
                       4.8979290186E-02  6.8409233316E-02 -8.6286636694E-02
             xred      2.4833700000E-01  7.4833700000E-01  5.0000000000E-01
                       7.4833700000E-01  2.4833700000E-01  5.0000000000E-01
                       2.1821500000E-01  2.1821500000E-01  4.4818200000E-01
                       2.1821500000E-01  7.7003300000E-01 -2.4286128664E-17
                       7.7003300000E-01  2.1821500000E-01  0.0000000000E+00
                       7.7003300000E-01  7.7003300000E-01  5.5181800000E-01
                       2.4150100000E-01  2.4150100000E-01 -5.5511151231E-17
                       8.3280000000E-03  8.3280000000E-03 -4.3368086899E-19
            znucl       38.00000    1.00000   45.00000

 chkinp: Checking input parameters for consistency.

== DATASET  1 ==================================================================
-   mpi_nproc: 1, omp_nthreads: -1 (-1 if OMP is not activated)

--- !DatasetInfo
iteration_state: {dtset: 1, }
dimensions: {natom: 8, nkpt: 2, mband: 30, nsppol: 1, nspinor: 1, nspden: 1, mpw: 10050, }
cutoff_energies: {ecut:  44.0, pawecutdg:  -1.0, }
electrons: {nelect:   4.20000000E+01, charge:   0.00000000E+00, occopt:   1.00000000E+00, tsmear:   1.00000000E-02, }
meta: {optdriver: 1, rfelfd: 2, }
...

 Real(R)+Recip(G) space primitive vectors, cartesian coordinates (Bohr,Bohr^-1):
 R(1)=  8.6771295  0.0000000 -5.1805137  G(1)=  0.1152455  0.0392251  0.0000000
 R(2)= -2.7958507  8.2143652 -5.1805137  G(2)=  0.0000000  0.1217380  0.0000000
 R(3)=  0.0000000  0.0000000 10.1059536  G(3)=  0.0590771  0.0825129  0.0989516
 Unit cell volume ucvol=  7.2032317E+02 bohr^3
 Angles (23,13,12)=  1.20838503E+02  1.20838503E+02  8.85537035E+01 degrees

 getcut: wavevector=  0.0000  0.0000  0.0000  ngfft=  64  64  64
         ecut(hartree)=     44.000   => boxcut(ratio)=   2.12143

--- Pseudopotential description ------------------------------------------------
- pspini: atom type   1  psp file is /scratch/users/j/a/jabreu/pseudos/PBEsol/Sr.psp8
- pspatm: opening atomic psp file    /scratch/users/j/a/jabreu/pseudos/PBEsol/Sr.psp8
- Sr    ONCVPSP-3.3.0  r_core=   1.66721   1.31335   1.51547
- 38.00000  10.00000    180112                znucl, zion, pspdat
    8 -116133    2    4       600   0.00000   pspcod,pspxc,lmax,lloc,mmax,r2well
    5.99000000000000    6.00000000000000    0.00000000000000   rchrg,fchrg,qchrg
     nproj     2     2     2
     extension_switch     1
  pspatm : epsatm=   12.46450977
         --- l  ekb(1:nproj) -->
             0   10.029206    1.044171
             1    7.472414    1.670829
             2    4.142950    0.968140
 pspatm: atomic psp has been read  and splines computed

- pspini: atom type   2  psp file is /scratch/users/j/a/jabreu/pseudos/PBEsol/H.psp8
- pspatm: opening atomic psp file    /scratch/users/j/a/jabreu/pseudos/PBEsol/H.psp8
- H     ONCVPSP-3.3.0  r_core=   1.00957   0.70586
-  1.00000   1.00000    180112                znucl, zion, pspdat
    8 -116133    1    4       300   0.00000   pspcod,pspxc,lmax,lloc,mmax,r2well
    2.99000000000000    0.00000000000000    0.00000000000000   rchrg,fchrg,qchrg
     nproj     2     1
     extension_switch     1
  pspatm : epsatm=    0.35627032
         --- l  ekb(1:nproj) -->
             0   -1.674911   -0.523609
             1   -0.494138
 pspatm: atomic psp has been read  and splines computed

- pspini: atom type   3  psp file is /scratch/users/j/a/jabreu/pseudos/PBEsol/Rh.psp8
- pspatm: opening atomic psp file    /scratch/users/j/a/jabreu/pseudos/PBEsol/Rh.psp8
- Rh    ONCVPSP-3.3.0  r_core=   1.40787   1.40787   1.35838
- 45.00000  17.00000    180112                znucl, zion, pspdat
    8 -116133    2    4       600   0.00000   pspcod,pspxc,lmax,lloc,mmax,r2well
    5.99000000000000    7.00000000000000    0.00000000000000   rchrg,fchrg,qchrg
     nproj     2     2     2
     extension_switch     1
  pspatm : epsatm=   21.51201928
         --- l  ekb(1:nproj) -->
             0   16.263264    1.496972
             1    7.329212    1.051636
             2    0.393200    0.129871
 pspatm: atomic psp has been read  and splines computed

   2.02534040E+03                                ecore*ucvol(ha*bohr**3)

-inwffil : will read wavefunctions from disk file /scratch/users/j/a/jabreu/flow_simple_8atoms/flow/w348/t1/indata/in_WFK

 ==>  initialize data related to q vector <==

 The list of irreducible perturbations for this q vector is:
    1)    idir= 1    ipert=   9
    2)    idir= 2    ipert=   9
    3)    idir= 3    ipert=   9

 Perturbation wavevector (in red.coord.)   0.000000  0.000000  0.000000
 Perturbation : derivative vs k along direction   1

 dfpt_looppert : COMMENT -
  In a d/dk calculation, iscf is set to -3 automatically.
 The set of symmetries contains only one element for this perturbation.
 symkpt : not enough symmetry to change the number of k points.

[...]

 Initialisation of the first-order wave-functions :
  ireadwf=   0

--- !BeginCycle
iteration_state: {dtset: 1, }
solver: {iscf: 7, nstep: 2000, nline: 4, wfoptalg: 0, }
tolerances: {tolwfr: 1.00E-20, }
...

     iter   2DEtotal(Ha)        deltaE(Ha) residm    vres2
-ETOT  1  -25.494275002236     -2.549E+01 8.247E-02 0.000E+00
 ETOT  2  -25.515762648412     -2.149E-02 1.585E-03 0.000E+00
 ETOT  3  -25.515898825402     -1.362E-04 1.453E-04 0.000E+00
 ETOT  4  -25.515900279319     -1.454E-06 4.047E-06 0.000E+00
 ETOT  5  -25.515900297181     -1.786E-08 4.490E-07 0.000E+00
 ETOT  6  -25.515900297418     -2.376E-10 2.773E-08 0.000E+00
 ETOT  7  -25.515900297421     -3.322E-12 3.821E-09 0.000E+00
 ETOT  8  -25.515900297421     -1.776E-14 1.944E-10 0.000E+00
 ETOT  9  -25.515900297421     -2.132E-14 2.955E-11 0.000E+00
 ETOT 10  -25.515900297422     -2.132E-14 1.361E-12 0.000E+00
 ETOT 11  -25.515900297422      7.105E-15 2.151E-13 0.000E+00
 ETOT 12  -25.515900297421      1.776E-14 9.563E-15 0.000E+00
 ETOT 13  -25.515900297421      0.000E+00 1.527E-15 0.000E+00
 ETOT 14  -25.515900297421     -3.553E-15 6.796E-17 0.000E+00
 ETOT 15  -25.515900297421     -3.553E-15 1.092E-17 0.000E+00
 ETOT 16  -25.515900297421      0.000E+00 4.899E-19 0.000E+00
 ETOT 17  -25.515900297422     -3.553E-15 7.885E-20 0.000E+00
 ETOT 18  -25.515900297422     -1.066E-14 9.805E-21 0.000E+00

 At SCF step   18   max residual=  9.80E-21 < tolwfr=  1.00E-20 =>converged.

 ----iterations are completed or convergence reached----

 dfpt_looppert: DFPT cycle converged with prtwf=-1. Will skip output of the 1st-order WFK file.
 dfpt_looppert : ek2=    4.9146320604E+01
          f-sum rule ratio=    1.0355410606E+00
 prteigrs : about to open file /scratch/users/j/a/jabreu/flow_simple_8atoms/flow/w348/t1/tmpdata/tmp_1WF1_EIG
 Expectation of eigenvalue derivatives (hartree) for nkpt=   2  k points:
  (in case of degenerate eigenvalues, averaged derivative)
 kpt#   1, nband= 30, wtk=  0.50000, kpt=  0.0000  0.0000  0.3654 (reduced coord)
   0.00000   -0.00001   -0.00000   -0.00000    0.00133   -0.00119   -0.01781   -0.00297
  -0.00427    0.00163    0.01630    0.00265    0.05640    0.00696    0.01686   -0.03013
   0.02841   -0.00324   -0.01720   -0.00400    0.00428   -0.05053   -0.00756   -0.09814
  -0.06809   -0.06750   -0.03255   -0.03561   -0.02746    0.09182
 prteigrs : prtvol=0 or 1, do not print more k-points.

 Eight components of 2nd-order total energy (hartree) are
 1,2,3: 0th-order hamiltonian combined with 1st-order wavefunctions
     kin0=   2.89716047E+01 eigvalue=   5.08667924E-01  local=  -1.78260478E+01
 4,5,6: 1st-order hamiltonian combined with 1st and 0th-order wfs
     kin1=  -5.08930330E+01  Hartree=   0.00000000E+00     xc=   0.00000000E+00
 7,8,9: eventually, occupation + non-local contributions
    edocc=   1.05279874E+01     enl0=   3.33368810E+00   enl1=  -1.38767633E-01
 1-9 gives the relaxation energy (to be shifted if some occ is /=2.0)
   erelax=  -2.55159003E+01
  No Ewald or frozen-wf contrib.: the relaxation energy is the total one
 2DEtotal=   -0.2551590030E+02 Ha. Also 2DEtotal=   -0.694322957527E+03 eV
    (  non-var. 2DEtotal :   -2.5515900297E+01 Ha)

 Perturbation wavevector (in red.coord.)   0.000000  0.000000  0.000000
 Perturbation : derivative vs k along direction   2
 The set of symmetries contains only one element for this perturbation.
 symkpt : not enough symmetry to change the number of k points.

[...]

 Perturbation wavevector (in red.coord.)   0.000000  0.000000  0.000000
 Perturbation : derivative vs k along direction   3
 The set of symmetries contains only one element for this perturbation.
 symkpt : not enough symmetry to change the number of k points.

-inwffil : will read wavefunctions from disk file /scratch/users/j/a/jabreu/flow_simple_8atoms/flow/w348/t1/indata/in_WFK

 Initialisation of the first-order wave-functions :
  ireadwf=   0

--- !BeginCycle
iteration_state: {dtset: 1, }
solver: {iscf: 7, nstep: 2000, nline: 4, wfoptalg: 0, }
tolerances: {tolwfr: 1.00E-20, }
...

     iter   2DEtotal(Ha)        deltaE(Ha) residm    vres2
-ETOT  1  -34.987749515326     -3.499E+01 3.057E-02 0.000E+00
 ETOT  2  -35.009965924581     -2.222E-02 1.143E-03 0.000E+00
 ETOT  3  -35.010065066056     -9.914E-05 4.350E-06 0.000E+00
 ETOT  4  -35.010065849693     -7.836E-07 6.349E-07 0.000E+00
 ETOT  5  -35.010065857230     -7.537E-09 5.280E-09 0.000E+00
 ETOT  6  -35.010065857310     -7.945E-11 6.329E-10 0.000E+00
 ETOT  7  -35.010065857310     -8.669E-13 5.900E-12 0.000E+00
 ETOT  8  -35.010065857310     -7.816E-14 6.978E-13 0.000E+00
 ETOT  9  -35.010065857310      2.842E-14 1.587E-14 0.000E+00
 ETOT 10  -35.010065857310      1.421E-14 3.243E-15 0.000E+00
 ETOT 11  -35.010065857310      2.842E-14 1.246E-16 0.000E+00
 ETOT 12  -35.010065857310     -1.421E-14 2.529E-17 0.000E+00
 ETOT 13  -35.010065857310      0.000E+00 9.913E-19 0.000E+00
 ETOT 14  -35.010065857310      7.105E-15 1.981E-19 0.000E+00
 ETOT 15  -35.010065857310      7.105E-15 9.886E-21 0.000E+00

 At SCF step   15   max residual=  9.89E-21 < tolwfr=  1.00E-20 =>converged.

 ----iterations are completed or convergence reached----

 dfpt_looppert: DFPT cycle converged with prtwf=-1. Will skip output of the 1st-order WFK file.
 dfpt_looppert : ek2=    6.6621851221E+01
          f-sum rule ratio=    1.0482156966E+00
 prteigrs : about to open file /scratch/users/j/a/jabreu/flow_simple_8atoms/flow/w348/t1/tmpdata/tmp_1WF1_EIG
 Expectation of eigenvalue derivatives (hartree) for nkpt=   2  k points:
  (in case of degenerate eigenvalues, averaged derivative)
 kpt#   1, nband= 30, wtk=  0.50000, kpt=  0.0000  0.0000  0.3654 (reduced coord)
   0.00000   -0.00002   -0.00000   -0.00000    0.00266   -0.00239   -0.03562   -0.00594
  -0.00854    0.00325    0.03261    0.00530    0.11280    0.01391    0.03373   -0.06026
   0.05682   -0.00648   -0.03440   -0.00800    0.00856   -0.10107   -0.01512   -0.19627
  -0.13618   -0.13500   -0.06509   -0.07121   -0.05484    0.18349
 prteigrs : prtvol=0 or 1, do not print more k-points.

 Eight components of 2nd-order total energy (hartree) are
 1,2,3: 0th-order hamiltonian combined with 1st-order wavefunctions
     kin0=   3.68838548E+01 eigvalue=   6.53960396E-01  local=  -2.22959409E+01
 4,5,6: 1st-order hamiltonian combined with 1st and 0th-order wfs
     kin1=  -6.98340702E+01  Hartree=   0.00000000E+00     xc=   0.00000000E+00
 7,8,9: eventually, occupation + non-local contributions
    edocc=   1.55242506E+01     enl0=   4.24394098E+00   enl1=  -1.86061531E-01
 1-9 gives the relaxation energy (to be shifted if some occ is /=2.0)
   erelax=  -3.50100659E+01
  No Ewald or frozen-wf contrib.: the relaxation energy is the total one
 2DEtotal=   -0.3501006586E+02 Ha. Also 2DEtotal=   -0.952672341007E+03 eV
    (  non-var. 2DEtotal :   -3.5010065857E+01 Ha)

 CALCULATION OF EFFECTIVE MASSES
 NOTE : Additional infos (eff. mass eigenvalues, eigenvectors and, if degenerate, average mass) are available in stdout.

 K-point (-0.000,-0.000, 0.365) | band =    21
 Effective mass tensor:
             -1.1848320757              0.0565308708              0.1575354491
              0.0565308708             -1.1463930539              0.2200189702
              0.1575354491              0.2200189702             -1.1197074863
 Effective mass tensor eigenvalues:
             -1.3834962756             -1.2253212624             -0.8421150778
 Angular average effective mass 1/(<1/m>)=  -1.1003500592
 Angular average effective mass for Frohlich model (<m**0.5>)**2=  -1.1159395636
 Effective masses along directions: (cart. coord. / red. coord. -> eff. mass)
    1:   1.000000  0.000000  0.000000 /   0.951812 -0.306683  0.000000 ->  -1.1557297957
    2:   0.000000  1.000000  0.000000 /   0.000000  1.000000  0.000000 ->  -1.0965770474
    3:   0.000000  0.000000  1.000000 /  -0.415032 -0.415032  0.809628 ->  -1.0534939869
    4:   0.577350  0.577350  0.577350 /   0.326896  0.022251  0.944798 ->  -0.8542696886
    5:   0.000000  0.707107  0.707107 /  -0.440720  0.258098  0.859739 ->  -0.8933191258
    6:   0.707107  0.000000  0.707107 /   0.262098 -0.597889  0.757518 ->  -0.9592720108
    7:   0.707107  0.707107  0.000000 /   0.848204  0.529669  0.000000 ->  -1.0447024495

 K-point ( 0.500, 0.500,-0.500) | band =    22
 Effective mass tensor:
              0.6090322735             -0.0393424310              0.0496237970
             -0.0393424310              0.5822510028              0.0693094158
              0.0496237970              0.0693094158              0.5497784030
 Effective mass tensor eigenvalues:
              0.4666607518              0.6372004637              0.6372004638
 Angular average effective mass 1/(<1/m>)=   0.5680081915
 Angular average effective mass for Frohlich model (<m**0.5>)**2=   0.5718789623
 Effective masses along directions: (cart. coord. / red. coord. -> eff. mass)
    1:   1.000000  0.000000  0.000000 /   0.951812 -0.306683  0.000000 ->   0.6009277595
    2:   0.000000  1.000000  0.000000 /   0.000000  1.000000  0.000000 ->   0.5700740518
    3:   0.000000  0.000000  1.000000 /  -0.415032 -0.415032  0.809628 ->   0.5366642688
    4:   0.577350  0.577350  0.577350 /   0.326896  0.022251  0.944798 ->   0.6320724186
    5:   0.000000  0.707107  0.707107 /  -0.440720  0.258098  0.859739 ->   0.6346486744
    6:   0.707107  0.000000  0.707107 /   0.262098 -0.597889  0.757518 ->   0.6262349572
    7:   0.707107  0.707107  0.000000 /   0.848204  0.529669  0.000000 ->   0.5430552940

 END OF EFFECTIVE MASSES SECTION

 ---- first-order wavefunction calculations are completed ----

 Total localisation tensor (bohr^2) in cartesian coordinates
  WARNING : still subject to testing - especially symmetries.
      direction              matrix element
   alpha     beta       real part   imaginary part
     1        1       1.6368902855    0.0000000000
     1        2      -0.4523373428    0.0000000000
     1        3      -0.6000828542    0.0000000000
     2        1      -0.4523373428    0.0000000000
     2        2       1.3289923428    0.0000000000
     2        3      -0.8381491349    0.0000000000
     3        1      -0.6000828542    0.0000000000
     3        2      -0.8381491349    0.0000000000
     3        3       3.9957700250    0.0000000000

 respfn : d/dk was computed, but no 2DTE, so no DDB output.

== END DATASET(S) ==============================================================

 -outvars: echo values of variables after computation  --------
            acell      1.0000000000E+00  1.0000000000E+00  1.0000000000E+00 Bohr
              amu      8.76200000E+01  1.00794000E+00  1.02905500E+02
             ecut      4.40000000E+01 Hartree
           etotal     -3.5010065857E+01
            fcart      0.0000000000E+00  0.0000000000E+00  0.0000000000E+00
                       0.0000000000E+00  0.0000000000E+00  0.0000000000E+00
                       0.0000000000E+00  0.0000000000E+00  0.0000000000E+00
                       0.0000000000E+00  0.0000000000E+00  0.0000000000E+00
                       0.0000000000E+00  0.0000000000E+00  0.0000000000E+00
                       0.0000000000E+00  0.0000000000E+00  0.0000000000E+00
                       0.0000000000E+00  0.0000000000E+00  0.0000000000E+00
                       0.0000000000E+00  0.0000000000E+00  0.0000000000E+00
-          fftalg         512
           irdden           1
           irdwfk           1
              ixc     -116133
              kpt     -5.55111512E-17 -2.77555756E-17  3.65384615E-01
                       5.00000000E-01  5.00000000E-01 -5.00000000E-01
           kptopt           0
P           mkmem           2
P          mkqmem           2
P          mk1mem           2
            natom           8
            nband          30
           nbdbuf           4
            ngfft          64      64      64
             nkpt           2
            nstep        2000
             nsym           8
           ntypat           3
              occ      2.000000  2.000000  2.000000  2.000000  2.000000  2.000000
                       2.000000  2.000000  2.000000  2.000000  2.000000  2.000000
                       2.000000  2.000000  2.000000  2.000000  2.000000  2.000000
                       2.000000  2.000000  2.000000  0.000000  0.000000  0.000000
                       0.000000  0.000000  0.000000  0.000000  0.000000  0.000000
        optdriver           1
            prtwf          -1
            rfdir           1       1       1
           rfelfd           2
            rprim      8.6771295044E+00  0.0000000000E+00 -5.1805137304E+00
                      -2.7958506636E+00  8.2143651917E+00 -5.1805137304E+00
                       0.0000000000E+00  0.0000000000E+00  1.0105953639E+01
          spgroup         107
           strten      0.0000000000E+00  0.0000000000E+00  0.0000000000E+00
                       0.0000000000E+00  0.0000000000E+00  0.0000000000E+00
           symrel      1  0  0   0  1  0   0  0  1       0  0 -1   1  1  1  -1  0  0
                       0  1  0   1  0  0  -1 -1 -1       1  1  1   0  0 -1   0 -1  0
                       0  1  0   1  0  0   0  0  1       0  0 -1   1  1  1   0 -1  0
                       1  0  0   0  1  0  -1 -1 -1       1  1  1   0  0 -1  -1  0  0
           tolwfr      1.00000000E-20
            typat      1  1  2  2  2  2  2  3
           useylm           1
              wtk        0.50000    0.50000
           xangst      3.3133802088E-02  3.2529123123E+00 -5.8371697630E-02
                       3.0687536118E+00  1.0794848910E+00 -5.8371697630E-02
                       6.7913717227E-01  9.4854892945E-01  1.2003723009E+00
                      -1.3727780694E-01  3.3472216749E+00 -2.7091927470E+00
                       3.2129414974E+00  9.4854892945E-01 -2.7091927470E+00
                       2.3965265182E+00  3.3472216749E+00 -1.2709174583E+00
                       7.5160876310E-01  1.0497697913E+00 -1.3241064138E+00
                       2.5918724059E-02  3.6200607128E-02 -4.5660921544E-02
            xcart      6.2613811688E-02  6.1471134045E+00 -1.1030652243E-01
                       5.7991038957E+00  2.0399308086E+00 -1.1030652243E-01
                       1.2833832622E+00  1.7924977003E+00  2.2683749063E+00
                      -2.5941745924E-01  6.3253322717E+00 -5.1196323330E+00
                       6.0715795111E+00  1.7924977003E+00 -5.1196323330E+00
                       4.5287787896E+00  6.3253322717E+00 -2.4016859338E+00
                       1.4203347213E+00  1.9837774082E+00 -2.5021984928E+00
                       4.8979290186E-02  6.8409233316E-02 -8.6286636694E-02
             xred      2.4833700000E-01  7.4833700000E-01  5.0000000000E-01
                       7.4833700000E-01  2.4833700000E-01  5.0000000000E-01
                       2.1821500000E-01  2.1821500000E-01  4.4818200000E-01
                       2.1821500000E-01  7.7003300000E-01 -2.4286128664E-17
                       7.7003300000E-01  2.1821500000E-01  0.0000000000E+00
                       7.7003300000E-01  7.7003300000E-01  5.5181800000E-01
                       2.4150100000E-01  2.4150100000E-01 -5.5511151231E-17
                       8.3280000000E-03  8.3280000000E-03 -4.3368086899E-19
            znucl       38.00000    1.00000   45.00000

- Timing analysis has been suppressed with timopt=0

 Suggested references for the acknowledgment of ABINIT usage.

 Calculation completed.
.Delivered  14 WARNINGs and   9 COMMENTs to log file.