.Version 9.5.1 of ABINIT

 ABINIT is a project of the Universite Catholique de Louvain,
 Corning Inc. and other collaborators, see ~abinit/doc/developers/contributors.txt .
 acknowledgments of the ABINIT effort.

.Starting date : Tue 11 May 2021.
- ( at 21h28 )

- input  file    -> /scratch/users/j/a/jabreu/flow_simple_8atoms/flow/w306/t1/run.abi
- output file    -> /scratch/users/j/a/jabreu/flow_simple_8atoms/flow/w306/t1/run.abo
- root for input  files -> /scratch/users/j/a/jabreu/flow_simple_8atoms/flow/w306/t1/indata/in
- root for output files -> /scratch/users/j/a/jabreu/flow_simple_8atoms/flow/w306/t1/outdata/out

 Symmetries : space group P6_3/m m c (#194); Bravais hP (primitive hexag.)
     intxc =       0      iscf =       7    lmnmax =      18     lnmax =       6
     mgfft =     120  mpssoang =       3    mqgrid =    5861     natom =       8
  nloc_mem =       1    nspden =       1   nspinor =       1    nsppol =       1
      nsym =      24    n1xccc =    2501    ntypat =       3    occopt =       1
   xclevel =       2
-    mband =          37        mffmem =           1         mkmem =           1
-   mkqmem =           1        mk1mem =           1           mpw =        7085
      nfft =      155520          nkpt =           1
  Rough estimation (10% accuracy) of disk space for files :

------------- Echo of variables that govern the present computation ------------
-
- outvars: echo of selected default values
-   iomode0 =  0 , fftalg0 =512 , wfoptalg0 =  0
-
- outvars: echo of global parameters not present in the input file
-  max_nthreads =    0
-
 -outvars: echo values of preprocessed input variables --------
            acell      1.0000000000E+00  1.0000000000E+00  1.0000000000E+00 Bohr
              amu      6.94100000E+00  9.29063800E+01  1.59994000E+01
             ecut      4.40000000E+01 Hartree
-          fftalg         512
           irdden           1
           irdwfk           1
           istwfk        1
              ixc     -116133
           kptopt           0
P           mkmem           1
P          mkqmem           1
P          mk1mem           1
            natom           8
            nband          37
           nbdbuf           4
            ngfft          36      36     120
             nkpt           1
            nstep        2000
             nsym          24
           ntypat           3
              occ      2.000000  2.000000  2.000000  2.000000  2.000000  2.000000
                       2.000000  2.000000  2.000000  2.000000  2.000000  2.000000
                       2.000000  2.000000  2.000000  2.000000  2.000000  2.000000
                       2.000000  2.000000  2.000000  2.000000  2.000000  2.000000
                       2.000000  2.000000  2.000000  2.000000  0.000000  0.000000
                       0.000000  0.000000  0.000000  0.000000  0.000000  0.000000
                       0.000000
        optdriver           1
            prtwf          -1
            rfdir           1       1       1
           rfelfd           2
            rprim      5.4637144995E+00  0.0000000000E+00  0.0000000000E+00
                      -2.7318572497E+00  4.7317155556E+00  0.0000000000E+00
                       0.0000000000E+00  0.0000000000E+00  1.9624896454E+01
          spgroup         194
           symrel      1  0  0   0  1  0   0  0  1      -1  0  0   0 -1  0   0  0 -1
                       0  1  0   1  0  0   0  0  1       0 -1  0  -1  0  0   0  0 -1
                       1  1  0  -1  0  0   0  0  1      -1 -1  0   1  0  0   0  0 -1
                      -1  0  0   1  1  0   0  0  1       1  0  0  -1 -1  0   0  0 -1
                       0  1  0  -1 -1  0   0  0  1       0 -1  0   1  1  0   0  0 -1
                      -1 -1  0   0  1  0   0  0  1       1  1  0   0 -1  0   0  0 -1
                      -1  0  0   0 -1  0   0  0  1       1  0  0   0  1  0   0  0 -1
                       0 -1  0  -1  0  0   0  0  1       0  1  0   1  0  0   0  0 -1
                      -1 -1  0   1  0  0   0  0  1       1  1  0  -1  0  0   0  0 -1
                       1  0  0  -1 -1  0   0  0  1      -1  0  0   1  1  0   0  0 -1
                       0 -1  0   1  1  0   0  0  1       0  1  0  -1 -1  0   0  0 -1
                       1  1  0   0 -1  0   0  0  1      -1 -1  0   0  1  0   0  0 -1
            tnons      0.0000000  0.0000000  0.0000000     0.0000000  0.0000000 -0.0000000
                       0.0000000  0.0000000  0.5000000     0.0000000  0.0000000  0.5000000
                       0.0000000  0.0000000  0.5000000     0.0000000  0.0000000  0.5000000
                       0.0000000  0.0000000  0.0000000     0.0000000  0.0000000 -0.0000000
                       0.0000000  0.0000000  0.0000000     0.0000000  0.0000000 -0.0000000
                       0.0000000  0.0000000  0.5000000     0.0000000  0.0000000  0.5000000
                       0.0000000  0.0000000  0.5000000     0.0000000  0.0000000  0.5000000
                       0.0000000  0.0000000  0.0000000     0.0000000  0.0000000 -0.0000000
                       0.0000000  0.0000000  0.0000000     0.0000000  0.0000000 -0.0000000
                       0.0000000  0.0000000  0.5000000     0.0000000  0.0000000  0.5000000
                       0.0000000  0.0000000  0.5000000     0.0000000  0.0000000  0.5000000
                       0.0000000  0.0000000  0.0000000     0.0000000  0.0000000 -0.0000000
           tolwfr      1.00000000E-20
            typat      1  1  2  2  3  3  3  3
           useylm           1
           xangst      0.0000000000E+00  0.0000000000E+00 -1.4412149147E-16
                       0.0000000000E+00  0.0000000000E+00  5.1925239623E+00
                       1.4456365937E+00  8.3463867652E-01  2.5962619812E+00
                       1.7639476748E-11  1.6692773530E+00  7.7887859435E+00
                       1.4456365937E+00  8.3463867652E-01  9.1035849360E+00
                       1.4456365937E+00  8.3463867652E-01  6.4739869510E+00
                       1.7639476748E-11  1.6692773530E+00  3.9110609736E+00
                       1.7639476748E-11  1.6692773530E+00  1.2814629887E+00
            xcart      0.0000000000E+00  0.0000000000E+00 -2.7235014874E-16
                       0.0000000000E+00  0.0000000000E+00  9.8124482272E+00
                       2.7318572498E+00  1.5772385185E+00  4.9062241136E+00
                       3.3333780181E-11  3.1544770371E+00  1.4718672341E+01
                       2.7318572498E+00  1.5772385185E+00  1.7203282356E+01
                       2.7318572498E+00  1.5772385185E+00  1.2234062325E+01
                       3.3333780181E-11  3.1544770371E+00  7.3908341292E+00
                       3.3333780181E-11  3.1544770371E+00  2.4216140980E+00
             xred      0.0000000000E+00  0.0000000000E+00 -1.3877787808E-17
                       0.0000000000E+00  0.0000000000E+00  5.0000000000E-01
                       6.6666666667E-01  3.3333333333E-01  2.5000000000E-01
                       3.3333333333E-01  6.6666666667E-01  7.5000000000E-01
                       6.6666666667E-01  3.3333333333E-01  8.7660500000E-01
                       6.6666666667E-01  3.3333333333E-01  6.2339500000E-01
                       3.3333333333E-01  6.6666666667E-01  3.7660500000E-01
                       3.3333333333E-01  6.6666666667E-01  1.2339500000E-01
            znucl        3.00000   41.00000    8.00000

 chkinp: Checking input parameters for consistency.

== DATASET  1 ==================================================================
-   mpi_nproc: 1, omp_nthreads: -1 (-1 if OMP is not activated)

--- !DatasetInfo
iteration_state: {dtset: 1, }
dimensions: {natom: 8, nkpt: 1, mband: 37, nsppol: 1, nspinor: 1, nspden: 1, mpw: 7085, }
cutoff_energies: {ecut:  44.0, pawecutdg:  -1.0, }
electrons: {nelect:   5.60000000E+01, charge:   0.00000000E+00, occopt:   1.00000000E+00, tsmear:   1.00000000E-02, }
meta: {optdriver: 1, rfelfd: 2, }
...

 Real(R)+Recip(G) space primitive vectors, cartesian coordinates (Bohr,Bohr^-1):
 R(1)=  5.4637145  0.0000000  0.0000000  G(1)=  0.1830257  0.1056699  0.0000000
 R(2)= -2.7318572  4.7317156  0.0000000  G(2)=  0.0000000  0.2113398  0.0000000
 R(3)=  0.0000000  0.0000000 19.6248965  G(3)=  0.0000000  0.0000000  0.0509557
 Unit cell volume ucvol=  5.0735740E+02 bohr^3
 Angles (23,13,12)=  9.00000000E+01  9.00000000E+01  1.20000000E+02 degrees

 getcut: wavevector=  0.0000  0.0000  0.0000  ngfft=  36  36 120
         ecut(hartree)=     44.000   => boxcut(ratio)=   2.04778

--- Pseudopotential description ------------------------------------------------
- pspini: atom type   1  psp file is /scratch/users/j/a/jabreu/pseudos/PBEsol/Li.psp8
- pspatm: opening atomic psp file    /scratch/users/j/a/jabreu/pseudos/PBEsol/Li.psp8
- Li    ONCVPSP-3.3.0  r_core=   1.40824   1.10935
-  3.00000   3.00000    180112                znucl, zion, pspdat
    8 -116133    1    4       400   0.00000   pspcod,pspxc,lmax,lloc,mmax,r2well
    3.99000000000000    0.00000000000000    0.00000000000000   rchrg,fchrg,qchrg
     nproj     2     2
     extension_switch     1
  pspatm : epsatm=    2.60859637
         --- l  ekb(1:nproj) -->
             0   -4.855856   -1.482423
             1   -2.171544   -0.427615
 pspatm: atomic psp has been read  and splines computed

- pspini: atom type   2  psp file is /scratch/users/j/a/jabreu/pseudos/PBEsol/Nb.psp8
- pspatm: opening atomic psp file    /scratch/users/j/a/jabreu/pseudos/PBEsol/Nb.psp8
- Nb    ONCVPSP-3.3.0  r_core=   1.50879   1.40458   1.40458
- 41.00000  13.00000    180112                znucl, zion, pspdat
    8 -116133    2    4       600   0.00000   pspcod,pspxc,lmax,lloc,mmax,r2well
    5.99000000000000    5.00000000000000    0.00000000000000   rchrg,fchrg,qchrg
     nproj     2     2     2
     extension_switch     1
  pspatm : epsatm=   15.66753381
         --- l  ekb(1:nproj) -->
             0   12.953547    1.345168
             1    7.772306    0.779703
             2    3.518917    1.091480
 pspatm: atomic psp has been read  and splines computed

- pspini: atom type   3  psp file is /scratch/users/j/a/jabreu/pseudos/PBEsol/O.psp8
- pspatm: opening atomic psp file    /scratch/users/j/a/jabreu/pseudos/PBEsol/O.psp8
- O     ONCVPSP-3.3.0  r_core=   1.35509   1.45563   1.26150
-  8.00000   6.00000    180112                znucl, zion, pspdat
    8 -116133    2    4       600   0.00000   pspcod,pspxc,lmax,lloc,mmax,r2well
    5.99000000000000    4.00000000000000    0.00000000000000   rchrg,fchrg,qchrg
     nproj     2     2     1
     extension_switch     1
  pspatm : epsatm=    6.22910522
         --- l  ekb(1:nproj) -->
             0    6.050032    0.820363
             1   -4.739617   -1.153841
             2   -1.335834
 pspatm: atomic psp has been read  and splines computed

   3.44224615E+03                                ecore*ucvol(ha*bohr**3)

-inwffil : will read wavefunctions from disk file /scratch/users/j/a/jabreu/flow_simple_8atoms/flow/w306/t1/indata/in_WFK

 ==>  initialize data related to q vector <==

 The list of irreducible perturbations for this q vector is:
    1)    idir= 1    ipert=   9
    2)    idir= 2    ipert=   9
[...]
 1,2,3: 0th-order hamiltonian combined with 1st-order wavefunctions
     kin0=   1.47686536E+02 eigvalue=  -8.51985940E+00  local=  -6.69516457E+01
 4,5,6: 1st-order hamiltonian combined with 1st and 0th-order wfs
     kin1=  -2.48711495E+02  Hartree=   0.00000000E+00     xc=   0.00000000E+00
 7,8,9: eventually, occupation + non-local contributions
    edocc=   5.04284685E+01     enl0=   5.93736636E-01   enl1=   2.23702179E+00
 1-9 gives the relaxation energy (to be shifted if some occ is /=2.0)
   erelax=  -1.23237237E+02
  No Ewald or frozen-wf contrib.: the relaxation energy is the total one
 2DEtotal=   -0.1232372365E+03 Ha. Also 2DEtotal=   -0.335345574909E+04 eV
    (  non-var. 2DEtotal :   -1.2323723653E+02 Ha)

 Perturbation wavevector (in red.coord.)   0.000000  0.000000  0.000000
 Perturbation : derivative vs k along direction   2
 The set of symmetries contains only one element for this perturbation.
 symkpt : not enough symmetry to change the number of k points.

[...]

 Perturbation wavevector (in red.coord.)   0.000000  0.000000  0.000000
 Perturbation : derivative vs k along direction   3
 The set of symmetries contains only one element for this perturbation.
 symkpt : not enough symmetry to change the number of k points.

-inwffil : will read wavefunctions from disk file /scratch/users/j/a/jabreu/flow_simple_8atoms/flow/w306/t1/indata/in_WFK

 Initialisation of the first-order wave-functions :
  ireadwf=   0

--- !BeginCycle
iteration_state: {dtset: 1, }
solver: {iscf: 7, nstep: 2000, nline: 4, wfoptalg: 0, }
tolerances: {tolwfr: 1.00E-20, }
...

     iter   2DEtotal(Ha)        deltaE(Ha) residm    vres2
-ETOT  1  -5.7987501414412     -5.799E+00 4.545E-03 0.000E+00
 ETOT  2  -5.8031687557867     -4.419E-03 1.628E-04 0.000E+00
 ETOT  3  -5.8031814967731     -1.274E-05 7.751E-08 0.000E+00
 ETOT  4  -5.8031815593243     -6.255E-08 5.519E-08 0.000E+00
 ETOT  5  -5.8031815597587     -4.344E-10 3.780E-11 0.000E+00
 ETOT  6  -5.8031815597629     -4.250E-12 6.931E-11 0.000E+00
 ETOT  7  -5.8031815597630     -5.329E-14 3.202E-13 0.000E+00
 ETOT  8  -5.8031815597630     -1.510E-14 3.353E-13 0.000E+00
 ETOT  9  -5.8031815597630     -1.776E-15 1.589E-15 0.000E+00
 ETOT 10  -5.8031815597630      1.776E-15 1.664E-15 0.000E+00
 ETOT 11  -5.8031815597630      8.882E-16 7.882E-18 0.000E+00
 ETOT 12  -5.8031815597630      0.000E+00 8.876E-18 0.000E+00
 ETOT 13  -5.8031815597630      0.000E+00 4.110E-20 0.000E+00
 ETOT 14  -5.8031815597630      8.882E-16 5.135E-20 0.000E+00
 ETOT 15  -5.8031815597630     -2.665E-15 9.055E-21 0.000E+00

 At SCF step   15   max residual=  9.05E-21 < tolwfr=  1.00E-20 =>converged.

 ----iterations are completed or convergence reached----

 dfpt_looppert: DFPT cycle converged with prtwf=-1. Will skip output of the 1st-order WFK file.
 dfpt_looppert : ek2=    1.1480558382E+01
          f-sum rule ratio=    9.9630803215E-01
 prteigrs : about to open file /scratch/users/j/a/jabreu/flow_simple_8atoms/flow/w306/t1/tmpdata/tmp_1WF1_EIG
 Expectation of eigenvalue derivatives (hartree) for nkpt=   1  k points:
  (in case of degenerate eigenvalues, averaged derivative)
 kpt#   1, nband= 37, wtk=  1.00000, kpt=  0.0000  0.0000  0.0000 (reduced coord)
  -0.00000   -0.00000   -0.00000    0.00000    0.00000    0.00000   -0.00000   -0.00000
   0.00000    0.00000    0.00000    0.00000    0.00000   -0.00000    0.00000    0.00000
  -0.00000   -0.00000   -0.00000   -0.00000   -0.00000    0.00000    0.00000   -0.00000
  -0.00000    0.00000   -0.00000   -0.00000   -0.00000   -0.00000   -0.00000   -0.00000
   0.00000    0.00000   -0.00000    0.00000   -0.00000

 Eight components of 2nd-order total energy (hartree) are
 1,2,3: 0th-order hamiltonian combined with 1st-order wavefunctions
     kin0=   8.16826297E+00 eigvalue=  -5.17499752E-01  local=  -3.22355466E+00
 4,5,6: 1st-order hamiltonian combined with 1st and 0th-order wfs
     kin1=  -1.14381725E+01  Hartree=   0.00000000E+00     xc=   0.00000000E+00
 7,8,9: eventually, occupation + non-local contributions
    edocc=   1.50577893E+00     enl0=  -1.29805921E-01   enl1=  -1.68190590E-01
 1-9 gives the relaxation energy (to be shifted if some occ is /=2.0)
   erelax=  -5.80318156E+00
  No Ewald or frozen-wf contrib.: the relaxation energy is the total one
 2DEtotal=   -0.5803181560E+01 Ha. Also 2DEtotal=   -0.157912601032E+03 eV
    (  non-var. 2DEtotal :   -5.8031815596E+00 Ha)

 CALCULATION OF EFFECTIVE MASSES
 NOTE : Additional infos (eff. mass eigenvalues, eigenvectors and, if degenerate, average mass) are available in stdout.

 K-point ( 0.000, 0.000, 0.000) | band =    28
 Effective mass tensor:
             -0.4742734507              0.0000000000             -0.0000000000
              0.0000000000             -0.4742734506             -0.0000000000
             -0.0000000000             -0.0000000000             -1.9931422782
 Effective mass tensor eigenvalues:
             -1.9931422782             -0.4742734507             -0.4742734506
 Angular average effective mass 1/(<1/m>)=  -0.6357687521
 Angular average effective mass for Frohlich model (<m**0.5>)**2=  -0.7009080288
 Effective masses along directions: (cart. coord. / red. coord. -> eff. mass)
    1:   1.000000  0.000000  0.000000 /   0.894427 -0.447214  0.000000 ->  -0.4742734507
    2:   0.000000  1.000000  0.000000 /   0.000000  1.000000  0.000000 ->  -0.4742734506
    3:   0.000000  0.000000  1.000000 /   0.000000  0.000000  1.000000 ->  -1.9931422782
    4:   0.577350  0.577350  0.577350 /   0.266924  0.097701  0.958752 ->  -0.6357687520
    5:   0.000000  0.707107  0.707107 /   0.000000  0.234391  0.972142 ->  -0.7662222906
    6:   0.707107  0.000000  0.707107 /   0.265827 -0.132914  0.954814 ->  -0.7662222907
    7:   0.707107  0.707107  0.000000 /   0.939071  0.343724  0.000000 ->  -0.4742734506

 COMMENTS:
 - At k-point ( 0.000, 0.000, 0.000), bands    29 through    30
   are DEGENERATE (effective mass tensor is therefore not defined).
   See Section IIIB Eqs. (67)-(70) and Appendix E of PRB 93 205147 (2016).
 - Angular average effective mass for Frohlich model is to be averaged over degenerate bands. See later.
 - Associated theta integrals calculated with ntheta=   1000 points.

 K-point ( 0.000, 0.000, 0.000) | band =    29
 Transport equivalent effective mass tensor:
              2.8247759742              0.0000000003             -0.0000000001
              0.0000000003              2.8247759764             -0.0000000003
             -0.0000000001             -0.0000000003              6.3046365264
 Transport equivalent effective mass tensor eigenvalues:
              6.3046365264              2.8247759765              2.8247759741
 Angular average effective mass 1/(<1/m>)=   3.4616682433
 Angular average effective mass for Frohlich model (<m**0.5>)**2=   3.5891739629
 Effective masses along directions: (cart. coord. / red. coord. -> eff. mass)
    1:   1.000000  0.000000  0.000000 /   0.894427 -0.447214  0.000000 ->   2.8247759736
    2:   0.000000  1.000000  0.000000 /   0.000000  1.000000  0.000000 ->   2.8247759759
    3:   0.000000  0.000000  1.000000 /   0.000000  0.000000  1.000000 ->   6.3046365268
    4:   0.577350  0.577350  0.577350 /   0.266924  0.097701  0.958752 ->   3.4616682443
    5:   0.000000  0.707107  0.707107 /   0.000000  0.234391  0.972142 ->   3.9014965731
    6:   0.707107  0.000000  0.707107 /   0.265827 -0.132914  0.954814 ->   3.9014965714
    7:   0.707107  0.707107  0.000000 /   0.939071  0.343724  0.000000 ->   2.8247759773

 K-point ( 0.000, 0.000, 0.000) | band =    30
 Transport equivalent effective mass tensor:
              0.7683654124             -0.0000000003              0.0000000001
             -0.0000000003              0.7683654121             -0.0000000000
              0.0000000001             -0.0000000000              6.3046365264
 Transport equivalent effective mass tensor eigenvalues:
              6.3046365264              0.7683654125              0.7683654120
 Angular average effective mass 1/(<1/m>)=   1.0863497297
 Angular average effective mass for Frohlich model (<m**0.5>)**2=   1.2899662643
 Effective masses along directions: (cart. coord. / red. coord. -> eff. mass)
    1:   1.000000  0.000000  0.000000 /   0.894427 -0.447214  0.000000 ->   0.7683654124
    2:   0.000000  1.000000  0.000000 /   0.000000  1.000000  0.000000 ->   0.7683654121
    3:   0.000000  0.000000  1.000000 /   0.000000  0.000000  1.000000 ->   6.3046365260
    4:   0.577350  0.577350  0.577350 /   0.266924  0.097701  0.958752 ->   1.0863497293
    5:   0.000000  0.707107  0.707107 /   0.000000  0.234391  0.972142 ->   1.3697902772
    6:   0.707107  0.000000  0.707107 /   0.265827 -0.132914  0.954814 ->   1.3697902776
    7:   0.707107  0.707107  0.000000 /   0.939071  0.343724  0.000000 ->   0.7683654119

 Angular average effective mass for Frohlich model, averaged over degenerate bands.
 Value of     (<<m**0.5>>)**2 =     2.295647E+00
 Absolute Value of <<m**0.5>> =     1.515139E+00

 END OF EFFECTIVE MASSES SECTION

 ---- first-order wavefunction calculations are completed ----

 Total localisation tensor (bohr^2) in cartesian coordinates
  WARNING : still subject to testing - especially symmetries.
      direction              matrix element
   alpha     beta       real part   imaginary part
     1        1       3.0422586899    0.0000000000
     1        2      -1.0538693242    0.0000000000
     1        3       0.0000000000    0.0000000000
     2        1      -1.0538693242    0.0000000000
     2        2       1.8253552140    0.0000000000
     2        3       0.0000000000    0.0000000000
     3        1       0.0000000000    0.0000000000
     3        2       0.0000000000    0.0000000000
     3        3       0.6781002292    0.0000000000

 respfn : d/dk was computed, but no 2DTE, so no DDB output.

== END DATASET(S) ==============================================================

 -outvars: echo values of variables after computation  --------
            acell      1.0000000000E+00  1.0000000000E+00  1.0000000000E+00 Bohr
              amu      6.94100000E+00  9.29063800E+01  1.59994000E+01
             ecut      4.40000000E+01 Hartree
           etotal     -5.8031815598E+00
            fcart      0.0000000000E+00  0.0000000000E+00  0.0000000000E+00
                       0.0000000000E+00  0.0000000000E+00  0.0000000000E+00
                       0.0000000000E+00  0.0000000000E+00  0.0000000000E+00
                       0.0000000000E+00  0.0000000000E+00  0.0000000000E+00
                       0.0000000000E+00  0.0000000000E+00  0.0000000000E+00
                       0.0000000000E+00  0.0000000000E+00  0.0000000000E+00
                       0.0000000000E+00  0.0000000000E+00  0.0000000000E+00
                       0.0000000000E+00  0.0000000000E+00  0.0000000000E+00
-          fftalg         512
           irdden           1
           irdwfk           1
           istwfk        1
              ixc     -116133
           kptopt           0
P           mkmem           1
P          mkqmem           1
P          mk1mem           1
            natom           8
            nband          37
           nbdbuf           4
            ngfft          36      36     120
             nkpt           1
            nstep        2000
             nsym          24
           ntypat           3
              occ      2.000000  2.000000  2.000000  2.000000  2.000000  2.000000
                       2.000000  2.000000  2.000000  2.000000  2.000000  2.000000
                       2.000000  2.000000  2.000000  2.000000  2.000000  2.000000
                       2.000000  2.000000  2.000000  2.000000  2.000000  2.000000
                       2.000000  2.000000  2.000000  2.000000  0.000000  0.000000
                       0.000000  0.000000  0.000000  0.000000  0.000000  0.000000
                       0.000000
        optdriver           1
            prtwf          -1
            rfdir           1       1       1
           rfelfd           2
            rprim      5.4637144995E+00  0.0000000000E+00  0.0000000000E+00
                      -2.7318572497E+00  4.7317155556E+00  0.0000000000E+00
                       0.0000000000E+00  0.0000000000E+00  1.9624896454E+01
          spgroup         194
           strten      0.0000000000E+00  0.0000000000E+00  0.0000000000E+00
                       0.0000000000E+00  0.0000000000E+00  0.0000000000E+00
           symrel      1  0  0   0  1  0   0  0  1      -1  0  0   0 -1  0   0  0 -1
                       0  1  0   1  0  0   0  0  1       0 -1  0  -1  0  0   0  0 -1
                       1  1  0  -1  0  0   0  0  1      -1 -1  0   1  0  0   0  0 -1
                      -1  0  0   1  1  0   0  0  1       1  0  0  -1 -1  0   0  0 -1
                       0  1  0  -1 -1  0   0  0  1       0 -1  0   1  1  0   0  0 -1
                      -1 -1  0   0  1  0   0  0  1       1  1  0   0 -1  0   0  0 -1
                      -1  0  0   0 -1  0   0  0  1       1  0  0   0  1  0   0  0 -1
                       0 -1  0  -1  0  0   0  0  1       0  1  0   1  0  0   0  0 -1
                      -1 -1  0   1  0  0   0  0  1       1  1  0  -1  0  0   0  0 -1
                       1  0  0  -1 -1  0   0  0  1      -1  0  0   1  1  0   0  0 -1
                       0 -1  0   1  1  0   0  0  1       0  1  0  -1 -1  0   0  0 -1
                       1  1  0   0 -1  0   0  0  1      -1 -1  0   0  1  0   0  0 -1
            tnons      0.0000000  0.0000000  0.0000000     0.0000000  0.0000000 -0.0000000
                       0.0000000  0.0000000  0.5000000     0.0000000  0.0000000  0.5000000
                       0.0000000  0.0000000  0.5000000     0.0000000  0.0000000  0.5000000
                       0.0000000  0.0000000  0.0000000     0.0000000  0.0000000 -0.0000000
                       0.0000000  0.0000000  0.0000000     0.0000000  0.0000000 -0.0000000
                       0.0000000  0.0000000  0.5000000     0.0000000  0.0000000  0.5000000
                       0.0000000  0.0000000  0.5000000     0.0000000  0.0000000  0.5000000
                       0.0000000  0.0000000  0.0000000     0.0000000  0.0000000 -0.0000000
                       0.0000000  0.0000000  0.0000000     0.0000000  0.0000000 -0.0000000
                       0.0000000  0.0000000  0.5000000     0.0000000  0.0000000  0.5000000
                       0.0000000  0.0000000  0.5000000     0.0000000  0.0000000  0.5000000
                       0.0000000  0.0000000  0.0000000     0.0000000  0.0000000 -0.0000000
           tolwfr      1.00000000E-20
            typat      1  1  2  2  3  3  3  3
           useylm           1
           xangst      0.0000000000E+00  0.0000000000E+00 -1.4412149147E-16
                       0.0000000000E+00  0.0000000000E+00  5.1925239623E+00
                       1.4456365937E+00  8.3463867652E-01  2.5962619812E+00
                       1.7639476748E-11  1.6692773530E+00  7.7887859435E+00
                       1.4456365937E+00  8.3463867652E-01  9.1035849360E+00
                       1.4456365937E+00  8.3463867652E-01  6.4739869510E+00
                       1.7639476748E-11  1.6692773530E+00  3.9110609736E+00
                       1.7639476748E-11  1.6692773530E+00  1.2814629887E+00
            xcart      0.0000000000E+00  0.0000000000E+00 -2.7235014874E-16
                       0.0000000000E+00  0.0000000000E+00  9.8124482272E+00
                       2.7318572498E+00  1.5772385185E+00  4.9062241136E+00
                       3.3333780181E-11  3.1544770371E+00  1.4718672341E+01
                       2.7318572498E+00  1.5772385185E+00  1.7203282356E+01
                       2.7318572498E+00  1.5772385185E+00  1.2234062325E+01
                       3.3333780181E-11  3.1544770371E+00  7.3908341292E+00
                       3.3333780181E-11  3.1544770371E+00  2.4216140980E+00
             xred      0.0000000000E+00  0.0000000000E+00 -1.3877787808E-17
                       0.0000000000E+00  0.0000000000E+00  5.0000000000E-01
                       6.6666666667E-01  3.3333333333E-01  2.5000000000E-01
                       3.3333333333E-01  6.6666666667E-01  7.5000000000E-01
                       6.6666666667E-01  3.3333333333E-01  8.7660500000E-01
                       6.6666666667E-01  3.3333333333E-01  6.2339500000E-01
                       3.3333333333E-01  6.6666666667E-01  3.7660500000E-01
                       3.3333333333E-01  6.6666666667E-01  1.2339500000E-01
            znucl        3.00000   41.00000    8.00000

- Timing analysis has been suppressed with timopt=0

 Suggested references for the acknowledgment of ABINIT usage.

 Calculation completed.
.Delivered   6 WARNINGs and   5 COMMENTs to log file.