.Version 9.7.2 of ABINIT

 ABINIT is a project of the Universite Catholique de Louvain,
 Corning Inc. and other collaborators, see ~abinit/doc/developers/contributors.txt .
 acknowledgments of the ABINIT effort.

.Starting date : Wed  1 Dec 2021.
- ( at 21h35 )

- input  file    -> /scratch/users/j/a/jabreu/flow_simple_remain_atoms/flow/w220/t1/run.abi
- output file    -> /scratch/users/j/a/jabreu/flow_simple_remain_atoms/flow/w220/t1/run.abo
- root for input  files -> /scratch/users/j/a/jabreu/flow_simple_remain_atoms/flow/w220/t1/indata/in
- root for output files -> /scratch/users/j/a/jabreu/flow_simple_remain_atoms/flow/w220/t1/outdata/out

 Symmetries : space group Pm -3 m (#221); Bravais cP (primitive cubic)
     intxc =       0      iscf =       7    lmnmax =      32     lnmax =       8
     mgfft =      60  mpssoang =       4    mqgrid =    3001     natom =       5
  nloc_mem =       1    nspden =       1   nspinor =       1    nsppol =       1
      nsym =      48    n1xccc =    2501    ntypat =       3    occopt =       1
   xclevel =       2
-    mband =          29        mffmem =           1         mkmem =           2
-   mkqmem =           2        mk1mem =           2           mpw =       12568
      nfft =      216000          nkpt =           2
  Rough estimation (10% accuracy) of disk space for files :

------------- Echo of variables that govern the present computation ------------
-
- outvars: echo of selected default values
-   iomode0 =  0 , fftalg0 =512 , wfoptalg0 =  0
-
- outvars: echo of global parameters not present in the input file
-  max_nthreads =    0
-
 -outvars: echo values of preprocessed input variables --------
            acell      1.0000000000E+00  1.0000000000E+00  1.0000000000E+00 Bohr
              amu      1.32905430E+02  4.00780000E+01  7.99040000E+01
             ecut      3.60000000E+01 Hartree
-          fftalg         512
           irdden           1
           irdwfk           1
           istwfk        1    1
              ixc     -116133
              kpt      5.00000000E-01  5.00000000E-01  5.00000000E-01
                       0.00000000E+00  0.00000000E+00  0.00000000E+00
           kptopt           0
P           mkmem           2
P          mkqmem           2
P          mk1mem           2
            natom           5
            nband          29
           nbdbuf           4
            ngfft          60      60      60
             nkpt           2
            nstep        2000
             nsym          48
           ntypat           3
              occ      2.000000  2.000000  2.000000  2.000000  2.000000  2.000000
                       2.000000  2.000000  2.000000  2.000000  2.000000  2.000000
                       2.000000  2.000000  2.000000  2.000000  2.000000  2.000000
                       2.000000  2.000000  0.000000  0.000000  0.000000  0.000000
                       0.000000  0.000000  0.000000  0.000000  0.000000
        optdriver           1
            prtwf          -1
            rfdir           1       1       1
           rfelfd           2
            rprim      1.0654920816E+01  0.0000000000E+00  0.0000000000E+00
                       0.0000000000E+00  1.0654920816E+01  0.0000000000E+00
                       0.0000000000E+00  0.0000000000E+00  1.0654920816E+01
          spgroup         221
           symrel      1  0  0   0  1  0   0  0  1      -1  0  0   0 -1  0   0  0 -1
                      -1  0  0   0  1  0   0  0 -1       1  0  0   0 -1  0   0  0  1
                      -1  0  0   0 -1  0   0  0  1       1  0  0   0  1  0   0  0 -1
                       1  0  0   0 -1  0   0  0 -1      -1  0  0   0  1  0   0  0  1
                       0  1  0   1  0  0   0  0  1       0 -1  0  -1  0  0   0  0 -1
                       0 -1  0   1  0  0   0  0 -1       0  1  0  -1  0  0   0  0  1
                       0 -1  0  -1  0  0   0  0  1       0  1  0   1  0  0   0  0 -1
                       0  1  0  -1  0  0   0  0 -1       0 -1  0   1  0  0   0  0  1
                       0  0  1   1  0  0   0  1  0       0  0 -1  -1  0  0   0 -1  0
                       0  0 -1   1  0  0   0 -1  0       0  0  1  -1  0  0   0  1  0
                       0  0 -1  -1  0  0   0  1  0       0  0  1   1  0  0   0 -1  0
                       0  0  1  -1  0  0   0 -1  0       0  0 -1   1  0  0   0  1  0
                       1  0  0   0  0  1   0  1  0      -1  0  0   0  0 -1   0 -1  0
                      -1  0  0   0  0  1   0 -1  0       1  0  0   0  0 -1   0  1  0
                      -1  0  0   0  0 -1   0  1  0       1  0  0   0  0  1   0 -1  0
                       1  0  0   0  0 -1   0 -1  0      -1  0  0   0  0  1   0  1  0
                       0  1  0   0  0  1   1  0  0       0 -1  0   0  0 -1  -1  0  0
                       0 -1  0   0  0  1  -1  0  0       0  1  0   0  0 -1   1  0  0
                       0 -1  0   0  0 -1   1  0  0       0  1  0   0  0  1  -1  0  0
                       0  1  0   0  0 -1  -1  0  0       0 -1  0   0  0  1   1  0  0
                       0  0  1   0  1  0   1  0  0       0  0 -1   0 -1  0  -1  0  0
                       0  0 -1   0  1  0  -1  0  0       0  0  1   0 -1  0   1  0  0
                       0  0 -1   0 -1  0   1  0  0       0  0  1   0  1  0  -1  0  0
                       0  0  1   0 -1  0  -1  0  0       0  0 -1   0  1  0   1  0  0
           tolwfr      1.00000000E-20
            typat      1  2  3  3  3
           useylm           1
              wtk        0.50000    0.50000
           xangst      0.0000000000E+00  0.0000000000E+00  0.0000000000E+00
                       2.8191706277E+00  2.8191706277E+00  2.8191706277E+00
                       2.8191706277E+00  0.0000000000E+00  2.8191706277E+00
                       0.0000000000E+00  2.8191706277E+00  2.8191706277E+00
                       2.8191706277E+00  2.8191706277E+00  0.0000000000E+00
            xcart      0.0000000000E+00  0.0000000000E+00  0.0000000000E+00
                       5.3274604082E+00  5.3274604082E+00  5.3274604082E+00
                       5.3274604082E+00  0.0000000000E+00  5.3274604082E+00
                       0.0000000000E+00  5.3274604082E+00  5.3274604082E+00
                       5.3274604082E+00  5.3274604082E+00  0.0000000000E+00
             xred      0.0000000000E+00  0.0000000000E+00  0.0000000000E+00
                       5.0000000000E-01  5.0000000000E-01  5.0000000000E-01
                       5.0000000000E-01  0.0000000000E+00  5.0000000000E-01
                       0.0000000000E+00  5.0000000000E-01  5.0000000000E-01
                       5.0000000000E-01  5.0000000000E-01  0.0000000000E+00
            znucl       55.00000   20.00000   35.00000

 chkinp: Checking input parameters for consistency.

== DATASET  1 ==================================================================
-   mpi_nproc: 1, omp_nthreads: -1 (-1 if OMP is not activated)

--- !DatasetInfo
iteration_state: {dtset: 1, }
dimensions: {natom: 5, nkpt: 2, mband: 29, nsppol: 1, nspinor: 1, nspden: 1, mpw: 12568, }
cutoff_energies: {ecut:  36.0, pawecutdg:  -1.0, }
electrons: {nelect:   4.00000000E+01, charge:   0.00000000E+00, occopt:   1.00000000E+00, tsmear:   1.00000000E-02, }
meta: {optdriver: 1, rfelfd: 2, }
...

 Real(R)+Recip(G) space primitive vectors, cartesian coordinates (Bohr,Bohr^-1):
 R(1)= 10.6549208  0.0000000  0.0000000  G(1)=  0.0938533  0.0000000  0.0000000
 R(2)=  0.0000000 10.6549208  0.0000000  G(2)=  0.0000000  0.0938533  0.0000000
 R(3)=  0.0000000  0.0000000 10.6549208  G(3)=  0.0000000  0.0000000  0.0938533
 Unit cell volume ucvol=  1.2096248E+03 bohr^3
 Angles (23,13,12)=  9.00000000E+01  9.00000000E+01  9.00000000E+01 degrees

 getcut: wavevector=  0.0000  0.0000  0.0000  ngfft=  60  60  60
         ecut(hartree)=     36.000   => boxcut(ratio)=   2.08490

--- Pseudopotential description ------------------------------------------------
- pspini: atom type   1  psp file is /scratch/users/j/a/jabreu/pseudos/PBEsol/Cs.psp8
- pspatm: opening atomic psp file    /scratch/users/j/a/jabreu/pseudos/PBEsol/Cs.psp8
- Cs    ONCVPSP-3.3.0  r_core=   2.27353   1.85623   2.01788   1.90105
- 55.00000   9.00000    180112                znucl, zion, pspdat
    8 -116133    3    4       600   0.00000   pspcod,pspxc,lmax,lloc,mmax,r2well
    5.99000000000000    5.00000000000000    0.00000000000000   rchrg,fchrg,qchrg
     nproj     2     2     2     2
     extension_switch     1
  pspatm : epsatm=   22.12462445
         --- l  ekb(1:nproj) -->
             0    6.214110    0.767882
             1    6.311966    0.793598
             2    3.769790    0.913105
             3   -9.247129   -2.432478
 pspatm: atomic psp has been read  and splines computed

- pspini: atom type   2  psp file is /scratch/users/j/a/jabreu/pseudos/PBEsol/Ca.psp8
- pspatm: opening atomic psp file    /scratch/users/j/a/jabreu/pseudos/PBEsol/Ca.psp8
- Ca    ONCVPSP-3.3.0  r_core=   1.45885   1.45885   1.85192
- 20.00000  10.00000    180112                znucl, zion, pspdat
    8 -116133    2    4       400   0.00000   pspcod,pspxc,lmax,lloc,mmax,r2well
    3.99000000000000    6.00000000000000    0.00000000000000   rchrg,fchrg,qchrg
     nproj     2     2     2
     extension_switch     1
  pspatm : epsatm=   12.46045226
         --- l  ekb(1:nproj) -->
             0   10.054847    0.973777
             1    2.998958    0.458102
             2   -3.447298   -1.091650
 pspatm: atomic psp has been read  and splines computed

- pspini: atom type   3  psp file is /scratch/users/j/a/jabreu/pseudos/PBEsol/Br.psp8
- pspatm: opening atomic psp file    /scratch/users/j/a/jabreu/pseudos/PBEsol/Br.psp8
- Br    ONCVPSP-3.3.0  r_core=   1.81012   1.51356   1.92136
- 35.00000   7.00000    180112                znucl, zion, pspdat
    8 -116133    2    4       600   0.00000   pspcod,pspxc,lmax,lloc,mmax,r2well
    5.99000000000000    8.00000000000000    0.00000000000000   rchrg,fchrg,qchrg
     nproj     2     2     2
     extension_switch     1
  pspatm : epsatm=   10.94933070
         --- l  ekb(1:nproj) -->
             0    8.508690    0.897946
             1    5.393311    0.892021
             2    2.527513    0.394763
 pspatm: atomic psp has been read  and splines computed

   2.69732275E+03                                ecore*ucvol(ha*bohr**3)

 ==>  initialize data related to q vector <==

 The list of irreducible perturbations for this q vector is:
    1)    idir= 1    ipert=   6
    2)    idir= 2    ipert=   6
    3)    idir= 3    ipert=   6

 Perturbation wavevector (in red.coord.)   0.000000  0.000000  0.000000
 Perturbation : derivative vs k along direction   1

 dfpt_looppert : COMMENT -
  In a d/dk calculation, iscf is set to -3 automatically.
 The set of symmetries contains only one element for this perturbation.
 symkpt : not enough symmetry to change the number of k points.

 Initialisation of the first-order wave-functions :
  ireadwf=   0

--- !BeginCycle
iteration_state: {dtset: 1, }
solver: {iscf: 7, nstep: 2000, nline: 4, wfoptalg: 0, }
tolerances: {tolwfr: 1.00E-20, }
...

     iter   2DEtotal(Ha)        deltaE(Ha) residm    vres2
[...]
     kin1=  -3.14686587E+01  Hartree=   0.00000000E+00     xc=   0.00000000E+00
 7,8,9: eventually, occupation + non-local contributions
    edocc=   7.32892106E+00     enl0=   1.83224625E+00   enl1=  -9.21109025E-01
 1-9 gives the relaxation energy (to be shifted if some occ is /=2.0)
   erelax=  -1.61948839E+01
  No Ewald or frozen-wf contrib.: the relaxation energy is the total one
 2DEtotal=   -0.1619488386E+02 Ha. Also 2DEtotal=   -0.440685201154E+03 eV
    (  non-var. 2DEtotal :   -1.6194883855E+01 Ha)

 Perturbation wavevector (in red.coord.)   0.000000  0.000000  0.000000
 Perturbation : derivative vs k along direction   2
 The set of symmetries contains only one element for this perturbation.
 symkpt : not enough symmetry to change the number of k points.

[...]

 Perturbation wavevector (in red.coord.)   0.000000  0.000000  0.000000
 Perturbation : derivative vs k along direction   3
 The set of symmetries contains only one element for this perturbation.
 symkpt : not enough symmetry to change the number of k points.

 Initialisation of the first-order wave-functions :
  ireadwf=   0

--- !BeginCycle
iteration_state: {dtset: 1, }
solver: {iscf: 7, nstep: 2000, nline: 4, wfoptalg: 0, }
tolerances: {tolwfr: 1.00E-20, }
...

     iter   2DEtotal(Ha)        deltaE(Ha) residm    vres2
-ETOT  1  -16.189201107391     -1.619E+01 6.894E-02 0.000E+00
 ETOT  2  -16.194875313341     -5.674E-03 4.641E-03 0.000E+00
 ETOT  3  -16.194887357773     -1.204E-05 6.138E-04 0.000E+00
 ETOT  4  -16.194887539668     -1.819E-07 1.511E-04 0.000E+00
 ETOT  5  -16.194887548357     -8.689E-09 2.795E-05 0.000E+00
 ETOT  6  -16.194887548942     -5.850E-10 8.879E-06 0.000E+00
 ETOT  7  -16.194887548986     -4.327E-11 2.104E-06 0.000E+00
 ETOT  8  -16.194887548989     -3.361E-12 6.306E-07 0.000E+00
 ETOT  9  -16.194887548989     -2.736E-13 1.588E-07 0.000E+00
 ETOT 10  -16.194887548989     -1.421E-14 4.596E-08 0.000E+00
 ETOT 11  -16.194887548989     -1.776E-14 1.222E-08 0.000E+00
 ETOT 12  -16.194887548989      1.066E-14 3.621E-09 0.000E+00
 ETOT 13  -16.194887548989     -7.105E-15 8.948E-10 0.000E+00
 ETOT 14  -16.194887548989      3.553E-15 3.028E-10 0.000E+00
 ETOT 15  -16.194887548989     -3.553E-15 8.243E-11 0.000E+00
 ETOT 16  -16.194887548989     -7.105E-15 2.930E-11 0.000E+00
 ETOT 17  -16.194887548989      3.553E-15 8.382E-12 0.000E+00
 ETOT 18  -16.194887548989      3.553E-15 2.989E-12 0.000E+00
 ETOT 19  -16.194887548989      0.000E+00 8.579E-13 0.000E+00
 ETOT 20  -16.194887548989      0.000E+00 3.061E-13 0.000E+00
 ETOT 21  -16.194887548989      0.000E+00 8.784E-14 0.000E+00
 ETOT 22  -16.194887548989      3.553E-15 3.135E-14 0.000E+00
 ETOT 23  -16.194887548989      7.105E-15 8.996E-15 0.000E+00
 ETOT 24  -16.194887548989     -1.066E-14 3.210E-15 0.000E+00
 ETOT 25  -16.194887548989      7.105E-15 9.213E-16 0.000E+00
 ETOT 26  -16.194887548989     -7.105E-15 3.288E-16 0.000E+00
 ETOT 27  -16.194887548989      3.553E-15 9.436E-17 0.000E+00
 ETOT 28  -16.194887548989     -3.553E-15 3.367E-17 0.000E+00
 ETOT 29  -16.194887548989      0.000E+00 9.665E-18 0.000E+00
 ETOT 30  -16.194887548989      0.000E+00 3.448E-18 0.000E+00
 ETOT 31  -16.194887548989      7.105E-15 9.899E-19 0.000E+00
 ETOT 32  -16.194887548989      0.000E+00 3.531E-19 0.000E+00
 ETOT 33  -16.194887548989      0.000E+00 1.014E-19 0.000E+00
 ETOT 34  -16.194887548989     -3.553E-15 3.616E-20 0.000E+00
 ETOT 35  -16.194887548989     -3.553E-15 1.038E-20 0.000E+00
 ETOT 36  -16.194887548989      7.105E-15 9.903E-21 0.000E+00

 At SCF step   36   max residual=  9.90E-21 < tolwfr=  1.00E-20 =>converged.

 ----iterations are completed or convergence reached----

 dfpt_looppert: DFPT cycle converged with prtwf=-1. Will skip output of the 1st-order WFK file.
 dfpt_looppert : ek2=    2.7819496828E+01
          f-sum rule ratio=    1.1311730148E+00
 prteigrs : about to open file /scratch/users/j/a/jabreu/flow_simple_remain_atoms/flow/w220/t1/tmpdata/tmp_1WF1_EIG
 Expectation of eigenvalue derivatives (hartree) for nkpt=   2  k points:
  (in case of degenerate eigenvalues, averaged derivative)
 kpt#   1, nband= 29, wtk=  0.50000, kpt=  0.5000  0.5000  0.5000 (reduced coord)
  -0.00000   -0.00000   -0.00000   -0.00000    0.00000   -0.00000   -0.00000   -0.00000
   0.00000    0.00000    0.00000   -0.00000   -0.00000   -0.00000   -0.00000    0.00000
   0.00000    0.00000    0.00000    0.00000   -0.00000   -0.00000   -0.00000   -0.00000
  -0.00000   -0.00000   -0.00000   -0.00000    0.00000
 prteigrs : prtvol=0 or 1, do not print more k-points.

 Eight components of 2nd-order total energy (hartree) are
 1,2,3: 0th-order hamiltonian combined with 1st-order wavefunctions
     kin0=   1.55907154E+01 eigvalue=   8.95544597E-01  local=  -9.45254195E+00
 4,5,6: 1st-order hamiltonian combined with 1st and 0th-order wfs
     kin1=  -3.14686641E+01  Hartree=   0.00000000E+00     xc=   0.00000000E+00
 7,8,9: eventually, occupation + non-local contributions
    edocc=   7.32892505E+00     enl0=   1.83224450E+00   enl1=  -9.21111002E-01
 1-9 gives the relaxation energy (to be shifted if some occ is /=2.0)
   erelax=  -1.61948875E+01
  No Ewald or frozen-wf contrib.: the relaxation energy is the total one
 2DEtotal=   -0.1619488755E+02 Ha. Also 2DEtotal=   -0.440685301665E+03 eV
    (  non-var. 2DEtotal :   -1.6194887549E+01 Ha)

 CALCULATION OF EFFECTIVE MASSES
 NOTE : Additional infos (eff. mass eigenvalues, eigenvectors and, if degenerate, average mass) are available in stdout.

 COMMENTS:
 - At k-point ( 0.500, 0.500, 0.500), bands    18 through    20
   are DEGENERATE (effective mass tensor is therefore not defined).
   See Section IIIB Eqs. (67)-(70) and Appendix E of PRB 93 205147 (2016).
 - Angular average effective mass for Frohlich model is to be averaged over degenerate bands. See later.
 - Associated theta integrals calculated with ntheta=   1000 points.

 K-point ( 0.500, 0.500, 0.500) | band =    18
 Transport equivalent effective mass tensor:
             -0.9406800483              0.0000005715              0.0000001366
              0.0000005715             -0.9406801312             -0.0000001754
              0.0000001366             -0.0000001754             -0.9406782230
 Transport equivalent effective mass tensor eigenvalues:
             -0.9406806828             -0.9406795170             -0.9406782027
 Angular average effective mass 1/(<1/m>)=  -0.8992607289
 Angular average effective mass for Frohlich model (<m**0.5>)**2=  -0.9008796714
 Effective masses along directions: (cart. coord. / red. coord. -> eff. mass)
    1:   1.000000  0.000000  0.000000 /   1.000000  0.000000  0.000000 ->  -0.8604174204
    2:   0.000000  1.000000  0.000000 /   0.000000  1.000000  0.000000 ->  -0.8604174204
    3:   0.000000  0.000000  1.000000 /   0.000000  0.000000  1.000000 ->  -0.8604174205
    4:   0.577350  0.577350  0.577350 /   0.577350  0.577350  0.577350 ->  -1.0670711883
    5:   0.000000  0.707107  0.707107 /   0.000000  0.707107  0.707107 ->  -0.8604174205
    6:   0.707107  0.000000  0.707107 /   0.707107  0.000000  0.707107 ->  -0.8604174205
    7:   0.707107  0.707107  0.000000 /   0.707107  0.707107  0.000000 ->  -0.8604174205

[...]

 K-point ( 0.500, 0.500, 0.500) | band =    20
 Transport equivalent effective mass tensor:
            -54.7215563338              0.0000638713              0.0000149247
              0.0000638713            -54.7228432352             -0.0000181973
              0.0000149247             -0.0000181973            -54.7220589772
 Transport equivalent effective mass tensor eigenvalues:
            -54.7228468516            -54.7220589109            -54.7215527837
 Angular average effective mass 1/(<1/m>)=  -3.5480038729
 Angular average effective mass for Frohlich model (<m**0.5>)**2=  -4.4952034057
 Effective masses along directions: (cart. coord. / red. coord. -> eff. mass)
    1:   1.000000  0.000000  0.000000 /   1.000000  0.000000  0.000000 -> -27.6974095350
    2:   0.000000  1.000000  0.000000 /   0.000000  1.000000  0.000000 -> -27.6993177198
    3:   0.000000  0.000000  1.000000 /   0.000000  0.000000  1.000000 -> -27.6981546078
    4:   0.577350  0.577350  0.577350 /   0.577350  0.577350  0.577350 ->  -2.0564601375
    5:   0.000000  0.707107  0.707107 /   0.000000  0.707107  0.707107 ->  -2.6757259696
    6:   0.707107  0.000000  0.707107 /   0.707107  0.000000  0.707107 ->  -2.6757293433
    7:   0.707107  0.707107  0.000000 /   0.707107  0.707107  0.000000 ->  -2.6757273739

 Angular average effective mass for Frohlich model, averaged over degenerate bands.
 Value of     (<<m**0.5>>)**2 =     1.858609E+00
 Absolute Value of <<m**0.5>> =     1.363308E+00

 K-point ( 0.000, 0.000, 0.000) | band =    21
 Effective mass tensor:
              0.3228567678             -0.0000000000              0.0000000000
             -0.0000000000              0.3228567678             -0.0000000000
              0.0000000000             -0.0000000000              0.3228567678
 Effective mass tensor eigenvalues:
              0.3228567678              0.3228567678              0.3228567678
 Angular average effective mass 1/(<1/m>)=   0.3228567678
 Angular average effective mass for Frohlich model (<m**0.5>)**2=   0.3228567678
 Effective masses along directions: (cart. coord. / red. coord. -> eff. mass)
    1:   1.000000  0.000000  0.000000 /   1.000000  0.000000  0.000000 ->   0.3228567678
    2:   0.000000  1.000000  0.000000 /   0.000000  1.000000  0.000000 ->   0.3228567678
    3:   0.000000  0.000000  1.000000 /   0.000000  0.000000  1.000000 ->   0.3228567678
    4:   0.577350  0.577350  0.577350 /   0.577350  0.577350  0.577350 ->   0.3228567678
    5:   0.000000  0.707107  0.707107 /   0.000000  0.707107  0.707107 ->   0.3228567678
    6:   0.707107  0.000000  0.707107 /   0.707107  0.000000  0.707107 ->   0.3228567678
    7:   0.707107  0.707107  0.000000 /   0.707107  0.707107  0.000000 ->   0.3228567678

 END OF EFFECTIVE MASSES SECTION

 ---- first-order wavefunction calculations are completed ----

 Total localisation tensor (bohr^2) in cartesian coordinates
  WARNING : still subject to testing - especially symmetries.
      direction              matrix element
   alpha     beta       real part   imaginary part
     1        1       1.4302719918    0.0000000000
     1        2       0.0000000000    0.0000000000
     1        3       0.0000000000    0.0000000000
     2        1       0.0000000000    0.0000000000
     2        2       1.4302720012    0.0000000000
     2        3       0.0000000000    0.0000000000
     3        1       0.0000000000    0.0000000000
     3        2       0.0000000000    0.0000000000
     3        3       1.4302722727    0.0000000000

 respfn : d/dk was computed, but no 2DTE, so no DDB output.

== END DATASET(S) ==============================================================

 -outvars: echo values of variables after computation  --------
            acell      1.0000000000E+00  1.0000000000E+00  1.0000000000E+00 Bohr
              amu      1.32905430E+02  4.00780000E+01  7.99040000E+01
             ecut      3.60000000E+01 Hartree
           etotal     -1.6194887549E+01
            fcart      0.0000000000E+00  0.0000000000E+00  0.0000000000E+00
                       0.0000000000E+00  0.0000000000E+00  0.0000000000E+00
                       0.0000000000E+00  0.0000000000E+00  0.0000000000E+00
                       0.0000000000E+00  0.0000000000E+00  0.0000000000E+00
                       0.0000000000E+00  0.0000000000E+00  0.0000000000E+00
-          fftalg         512
           irdden           1
           irdwfk           1
           istwfk        1    1
              ixc     -116133
              kpt      5.00000000E-01  5.00000000E-01  5.00000000E-01
                       0.00000000E+00  0.00000000E+00  0.00000000E+00
           kptopt           0
P           mkmem           2
P          mkqmem           2
P          mk1mem           2
            natom           5
            nband          29
           nbdbuf           4
            ngfft          60      60      60
             nkpt           2
            nstep        2000
             nsym          48
           ntypat           3
              occ      2.000000  2.000000  2.000000  2.000000  2.000000  2.000000
                       2.000000  2.000000  2.000000  2.000000  2.000000  2.000000
                       2.000000  2.000000  2.000000  2.000000  2.000000  2.000000
                       2.000000  2.000000  0.000000  0.000000  0.000000  0.000000
                       0.000000  0.000000  0.000000  0.000000  0.000000
        optdriver           1
            prtwf          -1
            rfdir           1       1       1
           rfelfd           2
            rprim      1.0654920816E+01  0.0000000000E+00  0.0000000000E+00
                       0.0000000000E+00  1.0654920816E+01  0.0000000000E+00
                       0.0000000000E+00  0.0000000000E+00  1.0654920816E+01
          spgroup         221
           strten      0.0000000000E+00  0.0000000000E+00  0.0000000000E+00
                       0.0000000000E+00  0.0000000000E+00  0.0000000000E+00
           symrel      1  0  0   0  1  0   0  0  1      -1  0  0   0 -1  0   0  0 -1
                      -1  0  0   0  1  0   0  0 -1       1  0  0   0 -1  0   0  0  1
                      -1  0  0   0 -1  0   0  0  1       1  0  0   0  1  0   0  0 -1
                       1  0  0   0 -1  0   0  0 -1      -1  0  0   0  1  0   0  0  1
                       0  1  0   1  0  0   0  0  1       0 -1  0  -1  0  0   0  0 -1
                       0 -1  0   1  0  0   0  0 -1       0  1  0  -1  0  0   0  0  1
                       0 -1  0  -1  0  0   0  0  1       0  1  0   1  0  0   0  0 -1
                       0  1  0  -1  0  0   0  0 -1       0 -1  0   1  0  0   0  0  1
                       0  0  1   1  0  0   0  1  0       0  0 -1  -1  0  0   0 -1  0
                       0  0 -1   1  0  0   0 -1  0       0  0  1  -1  0  0   0  1  0
                       0  0 -1  -1  0  0   0  1  0       0  0  1   1  0  0   0 -1  0
                       0  0  1  -1  0  0   0 -1  0       0  0 -1   1  0  0   0  1  0
                       1  0  0   0  0  1   0  1  0      -1  0  0   0  0 -1   0 -1  0
                      -1  0  0   0  0  1   0 -1  0       1  0  0   0  0 -1   0  1  0
                      -1  0  0   0  0 -1   0  1  0       1  0  0   0  0  1   0 -1  0
                       1  0  0   0  0 -1   0 -1  0      -1  0  0   0  0  1   0  1  0
                       0  1  0   0  0  1   1  0  0       0 -1  0   0  0 -1  -1  0  0
                       0 -1  0   0  0  1  -1  0  0       0  1  0   0  0 -1   1  0  0
                       0 -1  0   0  0 -1   1  0  0       0  1  0   0  0  1  -1  0  0
                       0  1  0   0  0 -1  -1  0  0       0 -1  0   0  0  1   1  0  0
                       0  0  1   0  1  0   1  0  0       0  0 -1   0 -1  0  -1  0  0
                       0  0 -1   0  1  0  -1  0  0       0  0  1   0 -1  0   1  0  0
                       0  0 -1   0 -1  0   1  0  0       0  0  1   0  1  0  -1  0  0
                       0  0  1   0 -1  0  -1  0  0       0  0 -1   0  1  0   1  0  0
           tolwfr      1.00000000E-20
            typat      1  2  3  3  3
           useylm           1
              wtk        0.50000    0.50000
           xangst      0.0000000000E+00  0.0000000000E+00  0.0000000000E+00
                       2.8191706277E+00  2.8191706277E+00  2.8191706277E+00
                       2.8191706277E+00  0.0000000000E+00  2.8191706277E+00
                       0.0000000000E+00  2.8191706277E+00  2.8191706277E+00
                       2.8191706277E+00  2.8191706277E+00  0.0000000000E+00
            xcart      0.0000000000E+00  0.0000000000E+00  0.0000000000E+00
                       5.3274604082E+00  5.3274604082E+00  5.3274604082E+00
                       5.3274604082E+00  0.0000000000E+00  5.3274604082E+00
                       0.0000000000E+00  5.3274604082E+00  5.3274604082E+00
                       5.3274604082E+00  5.3274604082E+00  0.0000000000E+00
             xred      0.0000000000E+00  0.0000000000E+00  0.0000000000E+00
                       5.0000000000E-01  5.0000000000E-01  5.0000000000E-01
                       5.0000000000E-01  0.0000000000E+00  5.0000000000E-01
                       0.0000000000E+00  5.0000000000E-01  5.0000000000E-01
                       5.0000000000E-01  5.0000000000E-01  0.0000000000E+00
            znucl       55.00000   20.00000   35.00000

- Timing analysis has been suppressed with timopt=0

 Suggested references for the acknowledgment of ABINIT usage.

 Calculation completed.
.Delivered   2 WARNINGs and   5 COMMENTs to log file.