.Version 9.5.2 of ABINIT

 ABINIT is a project of the Universite Catholique de Louvain,
 Corning Inc. and other collaborators, see ~abinit/doc/developers/contributors.txt .
 acknowledgments of the ABINIT effort.

.Starting date : Wed 26 May 2021.
- ( at 02h57 )

- input  file    -> /scratch/users/j/a/jabreu/flow_simple_11atoms/flow/w265/t1/run.abi
- output file    -> /scratch/users/j/a/jabreu/flow_simple_11atoms/flow/w265/t1/run.abo
- root for input  files -> /scratch/users/j/a/jabreu/flow_simple_11atoms/flow/w265/t1/indata/in
- root for output files -> /scratch/users/j/a/jabreu/flow_simple_11atoms/flow/w265/t1/outdata/out

 Symmetries : space group I4/m m m (#139); Bravais tI (body-center tetrag.)
     intxc =       0      iscf =       7    lmnmax =      18     lnmax =       6
     mgfft =     120  mpssoang =       3    mqgrid =    3001     natom =      12
  nloc_mem =       1    nspden =       1   nspinor =       1    nsppol =       1
      nsym =      16    n1xccc =    2501    ntypat =       3    occopt =       1
   xclevel =       2
-    mband =          57        mffmem =           1         mkmem =           2
-   mkqmem =           2        mk1mem =           2           mpw =       14360
      nfft =     1728000          nkpt =           2
  Rough estimation (10% accuracy) of disk space for files :

------------- Echo of variables that govern the present computation ------------
-
- outvars: echo of selected default values
-   iomode0 =  0 , fftalg0 =512 , wfoptalg0 =  0
-
- outvars: echo of global parameters not present in the input file
-  max_nthreads =    0
-
 -outvars: echo values of preprocessed input variables --------
            acell      1.0000000000E+00  1.0000000000E+00  1.0000000000E+00 Bohr
              amu      8.76200000E+01  4.78800000E+01  1.59994000E+01
             ecut      4.40000000E+01 Hartree
-          fftalg         512
           irdden           1
           irdwfk           1
           istwfk        1    1
              ixc     -116133
              kpt      0.00000000E+00  0.00000000E+00  5.00000000E-01
                       0.00000000E+00  0.00000000E+00  0.00000000E+00
           kptopt           0
P           mkmem           2
P          mkqmem           2
P          mk1mem           2
            natom          12
            nband          57
           nbdbuf           4
            ngfft         120     120     120
             nkpt           2
            nstep        2000
             nsym          16
           ntypat           3
              occ      2.000000  2.000000  2.000000  2.000000  2.000000  2.000000
                       2.000000  2.000000  2.000000  2.000000  2.000000  2.000000
                       2.000000  2.000000  2.000000  2.000000  2.000000  2.000000
                       2.000000  2.000000  2.000000  2.000000  2.000000  2.000000
                       2.000000  2.000000  2.000000  2.000000  2.000000  2.000000
                       2.000000  2.000000  2.000000  2.000000  2.000000  2.000000
                       2.000000  2.000000  2.000000  2.000000  2.000000  2.000000
                       2.000000  2.000000  2.000000  2.000000  2.000000  2.000000
                       0.000000  0.000000  0.000000  0.000000  0.000000  0.000000
                       0.000000  0.000000  0.000000
        optdriver           1
            prtwf          -1
            rfdir           1       1       1
           rfelfd           2
            rprim      7.2105502055E+00  0.0000000000E+00 -1.8418036263E+01
                      -2.5694591260E-01  7.2059706538E+00 -1.8418036263E+01
                       0.0000000000E+00  0.0000000000E+00  1.9779183352E+01
          spgroup         139
           symrel      1  0  0   0  1  0   0  0  1      -1  0  0   0 -1  0   0  0 -1
                       0  0  1  -1 -1 -1   1  0  0       0  0 -1   1  1  1  -1  0  0
                       0  1  0   1  0  0  -1 -1 -1       0 -1  0  -1  0  0   1  1  1
                      -1 -1 -1   0  0  1   0  1  0       1  1  1   0  0 -1   0 -1  0
                       0  1  0   1  0  0   0  0  1       0 -1  0  -1  0  0   0  0 -1
                       0  0  1  -1 -1 -1   0  1  0       0  0 -1   1  1  1   0 -1  0
                       1  0  0   0  1  0  -1 -1 -1      -1  0  0   0 -1  0   1  1  1
                      -1 -1 -1   0  0  1   1  0  0       1  1  1   0  0 -1  -1  0  0
           tolwfr      1.00000000E-20
            typat      1  1  1  2  2  3  3  3  3  3  3  3
           useylm           1
              wtk        0.50000    0.50000
           xangst      1.1618764919E+00  1.2040443418E+00 -6.1549327398E+00
                       1.8398444547E+00  1.9066177179E+00 -9.7464050175E+00
                       2.5178124175E+00  2.6091910940E+00 -1.3337877295E+01
                       3.5983677845E-01  3.7289629326E-01 -1.9062018933E+00
                       3.3198521309E+00  3.4403391425E+00 -1.7586608142E+01
                       3.3935479685E+00  1.5396395660E+00 -7.5103119570E+00
                       2.9654870499E+00  3.0731131303E+00 -1.5709392057E+01
                       0.0000000000E+00  0.0000000000E+00  0.0000000000E+00
                       2.2619553163E+00  3.6697815187E-01 -1.5158050438E+00
                       2.8614094086E-01  2.2735958697E+00 -1.5158050438E+00
                       1.4177335930E+00  3.4462572839E+00 -7.5103119570E+00
                       7.1420185948E-01  7.4012230543E-01 -3.7834179781E+00
            xcart      2.1956283699E+00  2.2753140578E+00 -1.1631137245E+01
                       3.4768021464E+00  3.6029853269E+00 -1.8418036263E+01
                       4.7579759230E+00  4.9306565960E+00 -2.5204935282E+01
                       6.7999296380E-01  7.0467187024E-01 -3.6021995324E+00
                       6.2736113291E+00  6.5012987836E+00 -3.3233872994E+01
                       6.4128762793E+00  2.9094971231E+00 -1.4192432771E+01
                       5.6039583749E+00  5.8073421917E+00 -2.9686448702E+01
                       0.0000000000E+00  0.0000000000E+00  0.0000000000E+00
                       4.2744760727E+00  6.9348820378E-01 -2.8644564036E+00
                       5.4072801364E-01  4.2964735307E+00 -2.8644564036E+00
                       2.6791282202E+00  6.5124824500E+00 -1.4192432771E+01
                       1.3496459180E+00  1.3986284621E+00 -7.1496238249E+00
             xred      3.1575400000E-01  3.1575400000E-01  1.6653345369E-16
                       5.0000000000E-01  5.0000000000E-01  0.0000000000E+00
                       6.8424600000E-01  6.8424600000E-01  1.1102230246E-16
                       9.7790000000E-02  9.7790000000E-02  0.0000000000E+00
                       9.0221000000E-01  9.0221000000E-01  3.3306690739E-16
                       9.0376200000E-01  4.0376200000E-01  5.0000000000E-01
                       8.0590700000E-01  8.0590700000E-01  2.2204460493E-16
                       0.0000000000E+00  0.0000000000E+00  0.0000000000E+00
                       5.9623800000E-01  9.6238000000E-02  5.0000000000E-01
                       9.6238000000E-02  5.9623800000E-01  5.0000000000E-01
                       4.0376200000E-01  9.0376200000E-01  5.0000000000E-01
                       1.9409300000E-01  1.9409300000E-01  2.7755575616E-17
            znucl       38.00000   22.00000    8.00000

 chkinp: Checking input parameters for consistency.

== DATASET  1 ==================================================================
-   mpi_nproc: 1, omp_nthreads: -1 (-1 if OMP is not activated)

--- !DatasetInfo
iteration_state: {dtset: 1, }
dimensions: {natom: 12, nkpt: 2, mband: 57, nsppol: 1, nspinor: 1, nspden: 1, mpw: 14360, }
cutoff_energies: {ecut:  44.0, pawecutdg:  -1.0, }
electrons: {nelect:   9.60000000E+01, charge:   0.00000000E+00, occopt:   1.00000000E+00, tsmear:   1.00000000E-02, }
meta: {optdriver: 1, rfelfd: 2, }
...

 Real(R)+Recip(G) space primitive vectors, cartesian coordinates (Bohr,Bohr^-1):
 R(1)=  7.2105502  0.0000000-18.4180363  G(1)=  0.1386857  0.0049452  0.0000000
 R(2)= -0.2569459  7.2059707-18.4180363  G(2)=  0.0000000  0.1387738  0.0000000
 R(3)=  0.0000000  0.0000000 19.7791834  G(3)=  0.1291417  0.1338286  0.0505582
 Unit cell volume ucvol=  1.0277068E+03 bohr^3
 Angles (23,13,12)=  1.58619956E+02  1.58619956E+02  3.04167504E+01 degrees

 getcut: wavevector=  0.0000  0.0000  0.0000  ngfft= 120 120 120
         ecut(hartree)=     44.000   => boxcut(ratio)=   2.03188

--- Pseudopotential description ------------------------------------------------
- pspini: atom type   1  psp file is /scratch/users/j/a/jabreu/pseudos/PBEsol/Sr.psp8
- pspatm: opening atomic psp file    /scratch/users/j/a/jabreu/pseudos/PBEsol/Sr.psp8
- Sr    ONCVPSP-3.3.0  r_core=   1.66721   1.31335   1.51547
- 38.00000  10.00000    180112                znucl, zion, pspdat
    8 -116133    2    4       600   0.00000   pspcod,pspxc,lmax,lloc,mmax,r2well
    5.99000000000000    6.00000000000000    0.00000000000000   rchrg,fchrg,qchrg
     nproj     2     2     2
     extension_switch     1
  pspatm : epsatm=   12.46450977
         --- l  ekb(1:nproj) -->
             0   10.029206    1.044171
             1    7.472414    1.670829
             2    4.142950    0.968140
 pspatm: atomic psp has been read  and splines computed

- pspini: atom type   2  psp file is /scratch/users/j/a/jabreu/pseudos/PBEsol/Ti.psp8
- pspatm: opening atomic psp file    /scratch/users/j/a/jabreu/pseudos/PBEsol/Ti.psp8
- Ti    ONCVPSP-3.3.0  r_core=   1.35825   1.31050   1.66360
- 22.00000  12.00000    180112                znucl, zion, pspdat
    8 -116133    2    4       600   0.00000   pspcod,pspxc,lmax,lloc,mmax,r2well
    5.99000000000000    2.50000000000000    0.00000000000000   rchrg,fchrg,qchrg
     nproj     2     2     2
     extension_switch     1
  pspatm : epsatm=   14.76919902
         --- l  ekb(1:nproj) -->
             0   11.321950    1.254474
             1    1.946894   -0.084268
             2   -5.237105   -1.488377
 pspatm: atomic psp has been read  and splines computed

- pspini: atom type   3  psp file is /scratch/users/j/a/jabreu/pseudos/PBEsol/O.psp8
- pspatm: opening atomic psp file    /scratch/users/j/a/jabreu/pseudos/PBEsol/O.psp8
- O     ONCVPSP-3.3.0  r_core=   1.35509   1.45563   1.26150
-  8.00000   6.00000    180112                znucl, zion, pspdat
    8 -116133    2    4       600   0.00000   pspcod,pspxc,lmax,lloc,mmax,r2well
    5.99000000000000    4.00000000000000    0.00000000000000   rchrg,fchrg,qchrg
     nproj     2     2     1
     extension_switch     1
  pspatm : epsatm=    6.22910522
         --- l  ekb(1:nproj) -->
             0    6.050032    0.820363
             1   -4.739617   -1.153841
             2   -1.335834
 pspatm: atomic psp has been read  and splines computed

   1.06114237E+04                                ecore*ucvol(ha*bohr**3)

 ==>  initialize data related to q vector <==

 The list of irreducible perturbations for this q vector is:
    1)    idir= 1    ipert=  13
    2)    idir= 2    ipert=  13
    3)    idir= 3    ipert=  13

 Perturbation wavevector (in red.coord.)   0.000000  0.000000  0.000000
[...]

[...]

 Perturbation wavevector (in red.coord.)   0.000000  0.000000  0.000000
 Perturbation : derivative vs k along direction   3
 The set of symmetries contains only one element for this perturbation.
 symkpt : not enough symmetry to change the number of k points.

 Initialisation of the first-order wave-functions :
  ireadwf=   0

--- !BeginCycle
iteration_state: {dtset: 1, }
solver: {iscf: 7, nstep: 2000, nline: 4, wfoptalg: 0, }
tolerances: {tolwfr: 1.00E-20, }
...

     iter   2DEtotal(Ha)        deltaE(Ha) residm    vres2
-ETOT  1  -157.42940903801     -1.574E+02 4.959E-01 0.000E+00
 ETOT  2  -158.26875360704     -8.393E-01 6.936E-02 0.000E+00
 ETOT  3  -158.31964789026     -5.089E-02 6.734E-03 0.000E+00
 ETOT  4  -158.32382795618     -4.180E-03 1.174E-03 0.000E+00
 ETOT  5  -158.32421290836     -3.850E-04 3.137E-04 0.000E+00
 ETOT  6  -158.32424949301     -3.658E-05 1.291E-04 0.000E+00
 ETOT  7  -158.32425310512     -3.612E-06 3.775E-05 0.000E+00
 ETOT  8  -158.32425346681     -3.617E-07 2.420E-05 0.000E+00
 ETOT  9  -158.32425350378     -3.697E-08 7.936E-06 0.000E+00
 ETOT 10  -158.32425350760     -3.818E-09 5.295E-06 0.000E+00
 ETOT 11  -158.32425350800     -3.998E-10 1.772E-06 0.000E+00
 ETOT 12  -158.32425350804     -4.229E-11 1.188E-06 0.000E+00
 ETOT 13  -158.32425350805     -4.349E-12 3.998E-07 0.000E+00
 ETOT 14  -158.32425350805     -5.400E-13 2.671E-07 0.000E+00
 ETOT 15  -158.32425350805      2.274E-13 9.048E-08 0.000E+00
 ETOT 16  -158.32425350805     -5.116E-13 6.010E-08 0.000E+00
 ETOT 17  -158.32425350805      3.126E-13 2.052E-08 0.000E+00
 ETOT 18  -158.32425350805      0.000E+00 1.353E-08 0.000E+00
 ETOT 19  -158.32425350805     -1.421E-13 4.662E-09 0.000E+00
 ETOT 20  -158.32425350805     -1.137E-13 3.049E-09 0.000E+00
 ETOT 21  -158.32425350805     -1.705E-13 1.061E-09 0.000E+00
 ETOT 22  -158.32425350805      1.137E-13 6.881E-10 0.000E+00
 ETOT 23  -158.32425350805      0.000E+00 2.418E-10 0.000E+00
 ETOT 24  -158.32425350805     -5.684E-14 1.555E-10 0.000E+00
 ETOT 25  -158.32425350805      0.000E+00 5.520E-11 0.000E+00
 ETOT 26  -158.32425350805      2.842E-14 3.521E-11 0.000E+00
 ETOT 27  -158.32425350805      2.842E-14 1.262E-11 0.000E+00
 ETOT 28  -158.32425350805     -5.684E-14 7.986E-12 0.000E+00
 ETOT 29  -158.32425350805      5.684E-14 2.887E-12 0.000E+00
 ETOT 30  -158.32425350805      5.684E-14 1.814E-12 0.000E+00
 ETOT 31  -158.32425350805     -8.527E-14 6.613E-13 0.000E+00
 ETOT 32  -158.32425350805      8.527E-14 4.128E-13 0.000E+00
 ETOT 33  -158.32425350805      0.000E+00 1.516E-13 0.000E+00
 ETOT 34  -158.32425350805     -5.684E-14 9.407E-14 0.000E+00
 ETOT 35  -158.32425350805      5.684E-14 3.479E-14 0.000E+00
 ETOT 36  -158.32425350805     -1.137E-13 2.147E-14 0.000E+00
 ETOT 37  -158.32425350805      2.842E-14 7.989E-15 0.000E+00
 ETOT 38  -158.32425350805      2.842E-14 4.907E-15 0.000E+00
 ETOT 39  -158.32425350805     -2.842E-14 1.836E-15 0.000E+00
 ETOT 40  -158.32425350805     -2.842E-14 1.123E-15 0.000E+00
 ETOT 41  -158.32425350805     -2.842E-14 4.220E-16 0.000E+00
 ETOT 42  -158.32425350805      0.000E+00 2.572E-16 0.000E+00
 ETOT 43  -158.32425350805      1.137E-13 9.706E-17 0.000E+00
 ETOT 44  -158.32425350805     -5.684E-14 5.899E-17 0.000E+00
 ETOT 45  -158.32425350805      0.000E+00 2.234E-17 0.000E+00
 ETOT 46  -158.32425350805     -5.684E-14 1.354E-17 0.000E+00
 ETOT 47  -158.32425350805      5.684E-14 5.142E-18 0.000E+00
 ETOT 48  -158.32425350805      0.000E+00 3.111E-18 0.000E+00
 ETOT 49  -158.32425350805      0.000E+00 1.184E-18 0.000E+00
 ETOT 50  -158.32425350805     -8.527E-14 7.152E-19 0.000E+00
 ETOT 51  -158.32425350805      2.842E-14 2.728E-19 0.000E+00
 ETOT 52  -158.32425350805      5.684E-14 1.645E-19 0.000E+00
 ETOT 53  -158.32425350805     -2.842E-14 6.288E-20 0.000E+00
 ETOT 54  -158.32425350805     -8.527E-14 3.788E-20 0.000E+00
 ETOT 55  -158.32425350805      5.684E-14 1.450E-20 0.000E+00
 ETOT 56  -158.32425350805      0.000E+00 9.875E-21 0.000E+00

 At SCF step   56   max residual=  9.88E-21 < tolwfr=  1.00E-20 =>converged.

 ----iterations are completed or convergence reached----

 dfpt_looppert: DFPT cycle converged with prtwf=-1. Will skip output of the 1st-order WFK file.
 dfpt_looppert : ek2=    2.8154482596E+02
          f-sum rule ratio=    1.1529024436E+00
 prteigrs : about to open file /scratch/users/j/a/jabreu/flow_simple_11atoms/flow/w265/t1/tmpdata/tmp_1WF1_EIG
 Expectation of eigenvalue derivatives (hartree) for nkpt=   2  k points:
  (in case of degenerate eigenvalues, averaged derivative)
 kpt#   1, nband= 57, wtk=  0.50000, kpt=  0.0000  0.0000  0.5000 (reduced coord)
  -0.00000    0.00000   -0.00000   -0.00000   -0.00000   -0.00000    0.00000   -0.00000
  -0.00000    0.00000   -0.00000    0.00000   -0.00000    0.00000    0.00000   -0.00000
   0.00000    0.00000    0.00000   -0.00000    0.00000   -0.00000   -0.00000    0.00000
   0.00000   -0.00000   -0.00000   -0.00000    0.00000    0.00000    0.00000    0.00000
  -0.00000   -0.00000   -0.00000    0.00000   -0.00000    0.00000   -0.00000    0.00000
   0.00000   -0.00000   -0.00000    0.00000   -0.00000    0.00000   -0.00000   -0.00000
   0.00000    0.00000   -0.00000    0.00000    0.00000   -0.00000   -0.00000   -0.00000
   0.00000
 prteigrs : prtvol=0 or 1, do not print more k-points.

 Eight components of 2nd-order total energy (hartree) are
 1,2,3: 0th-order hamiltonian combined with 1st-order wavefunctions
     kin0=   2.99431465E+02 eigvalue=  -1.27256655E+01  local=  -1.60223518E+02
 4,5,6: 1st-order hamiltonian combined with 1st and 0th-order wfs
     kin1=  -3.24593718E+02  Hartree=   0.00000000E+00     xc=   0.00000000E+00
 7,8,9: eventually, occupation + non-local contributions
    edocc=   2.84804107E+01     enl0=   3.36156140E+00   enl1=   7.94521082E+00
 1-9 gives the relaxation energy (to be shifted if some occ is /=2.0)
   erelax=  -1.58324254E+02
  No Ewald or frozen-wf contrib.: the relaxation energy is the total one
 2DEtotal=   -0.1583242535E+03 Ha. Also 2DEtotal=   -0.430822203656E+04 eV
    (  non-var. 2DEtotal :   -1.5832425351E+02 Ha)

 CALCULATION OF EFFECTIVE MASSES
 NOTE : Additional infos (eff. mass eigenvalues, eigenvectors and, if degenerate, average mass) are available in stdout.

 K-point ( 0.000, 0.000, 0.500) | band =    48
 Effective mass tensor:
             -3.3831578448             -2.3258625206             -0.9330665826
             -2.3258625206             -3.5490264211             -0.9669308503
             -0.9330665826             -0.9669308503             -1.2158878163
 Effective mass tensor eigenvalues:
             -6.1587228574             -1.1387514701             -0.8505977546
 Angular average effective mass 1/(<1/m>)=  -1.3536868312
 Angular average effective mass for Frohlich model (<m**0.5>)**2=  -1.5703658114
 Effective masses along directions: (cart. coord. / red. coord. -> eff. mass)
    1:   1.000000  0.000000  0.000000 /   0.999366 -0.035612  0.000000 ->  -1.7647914405
    2:   0.000000  1.000000  0.000000 /   0.000000  1.000000  0.000000 ->  -1.8395290487
    3:   0.000000  0.000000  1.000000 /  -0.563144 -0.563144  0.604762 ->  -0.9042300167
    4:   0.577350  0.577350  0.577350 /  -0.440149 -0.450420  0.776783 ->  -3.5496947261
    5:   0.000000  0.707107  0.707107 /  -0.629460 -0.383187  0.675979 ->  -1.5620438262
    6:   0.707107  0.000000  0.707107 /  -0.380939 -0.634756  0.672288 ->  -1.5193814304
    7:   0.707107  0.707107  0.000000 /   0.720044  0.693928  0.000000 ->  -4.3046483316

 K-point ( 0.000, 0.000, 0.000) | band =    49
 Effective mass tensor:
              1.5342552354              1.1911304197             -6.0889183201
              1.1911304197              1.6192004047             -6.3099028091
             -6.0889183201             -6.3099028091             32.6403198895
 Effective mass tensor eigenvalues:
              0.3848404102              0.3848404106             35.0240947089
 Angular average effective mass 1/(<1/m>)=   0.5741065100
 Angular average effective mass for Frohlich model (<m**0.5>)**2=   0.8360203266
 Effective masses along directions: (cart. coord. / red. coord. -> eff. mass)
    1:   1.000000  0.000000  0.000000 /   0.999366 -0.035612  0.000000 ->   0.3978985785
    2:   0.000000  1.000000  0.000000 /   0.000000  1.000000  0.000000 ->   0.3988988698
    3:   0.000000  0.000000  1.000000 /  -0.563144 -0.563144  0.604762 ->   4.8683857672
    4:   0.577350  0.577350  0.577350 /  -0.440149 -0.450420  0.776783 ->   0.4355062235
    5:   0.000000  0.707107  0.707107 /  -0.629460 -0.383187  0.675979 ->   0.5481574831
    6:   0.707107  0.000000  0.707107 /  -0.380939 -0.634756  0.672288 ->   0.5521661006
    7:   0.707107  0.707107  0.000000 /   0.720044  0.693928  0.000000 ->   0.4129363449

 END OF EFFECTIVE MASSES SECTION

 ---- first-order wavefunction calculations are completed ----

 Total localisation tensor (bohr^2) in cartesian coordinates
  WARNING : still subject to testing - especially symmetries.
      direction              matrix element
   alpha     beta       real part   imaginary part
     1        1       1.0230842017    0.0000000000
     1        2      -0.0363868697    0.0000000000
     1        3      -2.5169653009    0.0000000000
     2        1      -0.0363868697    0.0000000000
     2        2       1.0204587919    0.0000000000
     2        3      -2.6082325251    0.0000000000
     3        1      -2.5169653009    0.0000000000
     3        2      -2.6082325251    0.0000000000
     3        3      28.2910690733    0.0000000000

 respfn : d/dk was computed, but no 2DTE, so no DDB output.

== END DATASET(S) ==============================================================

 -outvars: echo values of variables after computation  --------
            acell      1.0000000000E+00  1.0000000000E+00  1.0000000000E+00 Bohr
              amu      8.76200000E+01  4.78800000E+01  1.59994000E+01
             ecut      4.40000000E+01 Hartree
           etotal     -1.5832425351E+02
            fcart      0.0000000000E+00  0.0000000000E+00  0.0000000000E+00
                       0.0000000000E+00  0.0000000000E+00  0.0000000000E+00
                       0.0000000000E+00  0.0000000000E+00  0.0000000000E+00
                       0.0000000000E+00  0.0000000000E+00  0.0000000000E+00
                       0.0000000000E+00  0.0000000000E+00  0.0000000000E+00
                       0.0000000000E+00  0.0000000000E+00  0.0000000000E+00
                       0.0000000000E+00  0.0000000000E+00  0.0000000000E+00
                       0.0000000000E+00  0.0000000000E+00  0.0000000000E+00
                       0.0000000000E+00  0.0000000000E+00  0.0000000000E+00
                       0.0000000000E+00  0.0000000000E+00  0.0000000000E+00
                       0.0000000000E+00  0.0000000000E+00  0.0000000000E+00
                       0.0000000000E+00  0.0000000000E+00  0.0000000000E+00
-          fftalg         512
           irdden           1
           irdwfk           1
           istwfk        1    1
              ixc     -116133
              kpt      0.00000000E+00  0.00000000E+00  5.00000000E-01
                       0.00000000E+00  0.00000000E+00  0.00000000E+00
           kptopt           0
P           mkmem           2
P          mkqmem           2
P          mk1mem           2
            natom          12
            nband          57
           nbdbuf           4
            ngfft         120     120     120
             nkpt           2
            nstep        2000
             nsym          16
           ntypat           3
              occ      2.000000  2.000000  2.000000  2.000000  2.000000  2.000000
                       2.000000  2.000000  2.000000  2.000000  2.000000  2.000000
                       2.000000  2.000000  2.000000  2.000000  2.000000  2.000000
                       2.000000  2.000000  2.000000  2.000000  2.000000  2.000000
                       2.000000  2.000000  2.000000  2.000000  2.000000  2.000000
                       2.000000  2.000000  2.000000  2.000000  2.000000  2.000000
                       2.000000  2.000000  2.000000  2.000000  2.000000  2.000000
                       2.000000  2.000000  2.000000  2.000000  2.000000  2.000000
                       0.000000  0.000000  0.000000  0.000000  0.000000  0.000000
                       0.000000  0.000000  0.000000
        optdriver           1
            prtwf          -1
            rfdir           1       1       1
           rfelfd           2
            rprim      7.2105502055E+00  0.0000000000E+00 -1.8418036263E+01
                      -2.5694591260E-01  7.2059706538E+00 -1.8418036263E+01
                       0.0000000000E+00  0.0000000000E+00  1.9779183352E+01
          spgroup         139
           strten      0.0000000000E+00  0.0000000000E+00  0.0000000000E+00
                       0.0000000000E+00  0.0000000000E+00  0.0000000000E+00
           symrel      1  0  0   0  1  0   0  0  1      -1  0  0   0 -1  0   0  0 -1
                       0  0  1  -1 -1 -1   1  0  0       0  0 -1   1  1  1  -1  0  0
                       0  1  0   1  0  0  -1 -1 -1       0 -1  0  -1  0  0   1  1  1
                      -1 -1 -1   0  0  1   0  1  0       1  1  1   0  0 -1   0 -1  0
                       0  1  0   1  0  0   0  0  1       0 -1  0  -1  0  0   0  0 -1
                       0  0  1  -1 -1 -1   0  1  0       0  0 -1   1  1  1   0 -1  0
                       1  0  0   0  1  0  -1 -1 -1      -1  0  0   0 -1  0   1  1  1
                      -1 -1 -1   0  0  1   1  0  0       1  1  1   0  0 -1  -1  0  0
           tolwfr      1.00000000E-20
            typat      1  1  1  2  2  3  3  3  3  3  3  3
           useylm           1
              wtk        0.50000    0.50000
           xangst      1.1618764919E+00  1.2040443418E+00 -6.1549327398E+00
                       1.8398444547E+00  1.9066177179E+00 -9.7464050175E+00
                       2.5178124175E+00  2.6091910940E+00 -1.3337877295E+01
                       3.5983677845E-01  3.7289629326E-01 -1.9062018933E+00
                       3.3198521309E+00  3.4403391425E+00 -1.7586608142E+01
                       3.3935479685E+00  1.5396395660E+00 -7.5103119570E+00
                       2.9654870499E+00  3.0731131303E+00 -1.5709392057E+01
                       0.0000000000E+00  0.0000000000E+00  0.0000000000E+00
                       2.2619553163E+00  3.6697815187E-01 -1.5158050438E+00
                       2.8614094086E-01  2.2735958697E+00 -1.5158050438E+00
                       1.4177335930E+00  3.4462572839E+00 -7.5103119570E+00
                       7.1420185948E-01  7.4012230543E-01 -3.7834179781E+00
            xcart      2.1956283699E+00  2.2753140578E+00 -1.1631137245E+01
                       3.4768021464E+00  3.6029853269E+00 -1.8418036263E+01
                       4.7579759230E+00  4.9306565960E+00 -2.5204935282E+01
                       6.7999296380E-01  7.0467187024E-01 -3.6021995324E+00
                       6.2736113291E+00  6.5012987836E+00 -3.3233872994E+01
                       6.4128762793E+00  2.9094971231E+00 -1.4192432771E+01
                       5.6039583749E+00  5.8073421917E+00 -2.9686448702E+01
                       0.0000000000E+00  0.0000000000E+00  0.0000000000E+00
                       4.2744760727E+00  6.9348820378E-01 -2.8644564036E+00
                       5.4072801364E-01  4.2964735307E+00 -2.8644564036E+00
                       2.6791282202E+00  6.5124824500E+00 -1.4192432771E+01
                       1.3496459180E+00  1.3986284621E+00 -7.1496238249E+00
             xred      3.1575400000E-01  3.1575400000E-01  1.6653345369E-16
                       5.0000000000E-01  5.0000000000E-01  0.0000000000E+00
                       6.8424600000E-01  6.8424600000E-01  1.1102230246E-16
                       9.7790000000E-02  9.7790000000E-02  0.0000000000E+00
                       9.0221000000E-01  9.0221000000E-01  3.3306690739E-16
                       9.0376200000E-01  4.0376200000E-01  5.0000000000E-01
                       8.0590700000E-01  8.0590700000E-01  2.2204460493E-16
                       0.0000000000E+00  0.0000000000E+00  0.0000000000E+00
                       5.9623800000E-01  9.6238000000E-02  5.0000000000E-01
                       9.6238000000E-02  5.9623800000E-01  5.0000000000E-01
                       4.0376200000E-01  9.0376200000E-01  5.0000000000E-01
                       1.9409300000E-01  1.9409300000E-01  2.7755575616E-17
            znucl       38.00000   22.00000    8.00000

- Timing analysis has been suppressed with timopt=0

 Suggested references for the acknowledgment of ABINIT usage.

 Calculation completed.
.Delivered   2 WARNINGs and   5 COMMENTs to log file.