.Version 9.5.1 of ABINIT

 ABINIT is a project of the Universite Catholique de Louvain,
 Corning Inc. and other collaborators, see ~abinit/doc/developers/contributors.txt .
 acknowledgments of the ABINIT effort.

.Starting date : Wed 19 May 2021.
- ( at 01h36 )

- input  file    -> /scratch/users/j/a/jabreu/flow_simple_8atoms/flow/w456/t1/run.abi
- output file    -> /scratch/users/j/a/jabreu/flow_simple_8atoms/flow/w456/t1/run.abo
- root for input  files -> /scratch/users/j/a/jabreu/flow_simple_8atoms/flow/w456/t1/indata/in
- root for output files -> /scratch/users/j/a/jabreu/flow_simple_8atoms/flow/w456/t1/outdata/out

 Symmetries : space group I4_1/a m d (#141); Bravais tI (body-center tetrag.)
     intxc =       0      iscf =       7    lmnmax =      18     lnmax =       6
     mgfft =      72  mpssoang =       3    mqgrid =    3001     natom =       8
  nloc_mem =       1    nspden =       1   nspinor =       1    nsppol =       1
      nsym =      16    n1xccc =    2501    ntypat =       3    occopt =       1
   xclevel =       2
-    mband =          41        mffmem =           1         mkmem =           2
-   mkqmem =           2        mk1mem =           2           mpw =       10512
      nfft =      373248          nkpt =           2
  Rough estimation (10% accuracy) of disk space for files :

------------- Echo of variables that govern the present computation ------------
-
- outvars: echo of selected default values
-   iomode0 =  0 , fftalg0 =512 , wfoptalg0 =  0
-
- outvars: echo of global parameters not present in the input file
-  max_nthreads =    0
-
 -outvars: echo values of preprocessed input variables --------
            acell      1.0000000000E+00  1.0000000000E+00  1.0000000000E+00 Bohr
              amu      4.00780000E+01  1.40067400E+01  1.89984032E+01
             ecut      4.20000000E+01 Hartree
-          fftalg         512
           irdden           1
           irdwfk           1
           istwfk        0    1
              ixc     -116133
              kpt      5.00000000E-01  5.00000000E-01 -5.00000000E-01
                       0.00000000E+00  0.00000000E+00  0.00000000E+00
           kptopt           0
P           mkmem           2
P          mkqmem           2
P          mk1mem           2
            natom           8
            nband          41
           nbdbuf           4
            ngfft          72      72      72
             nkpt           2
            nstep        2000
             nsym          16
           ntypat           3
              occ      2.000000  2.000000  2.000000  2.000000  2.000000  2.000000
                       2.000000  2.000000  2.000000  2.000000  2.000000  2.000000
                       2.000000  2.000000  2.000000  2.000000  2.000000  2.000000
                       2.000000  2.000000  2.000000  2.000000  2.000000  2.000000
                       2.000000  2.000000  2.000000  2.000000  2.000000  2.000000
                       2.000000  2.000000  0.000000  0.000000  0.000000  0.000000
                       0.000000  0.000000  0.000000  0.000000  0.000000
        optdriver           1
            prtwf          -1
            rfdir           1       1       1
           rfelfd           2
            rprim      8.4174503012E+00  0.0000000000E+00 -8.0009289611E+00
                      -1.5502436822E+00  8.2734644557E+00 -8.0009289611E+00
                       0.0000000000E+00  0.0000000000E+00  1.1613282646E+01
          spgroup         141
           symrel      1  0  0   0  1  0   0  0  1      -1  0  0   0 -1  0   0  0 -1
                       0  0  1  -1 -1 -1   1  0  0       0  0 -1   1  1  1  -1  0  0
                       0  1  0   1  0  0  -1 -1 -1       0 -1  0  -1  0  0   1  1  1
                      -1 -1 -1   0  0  1   0  1  0       1  1  1   0  0 -1   0 -1  0
                       0  1  0   1  0  0   0  0  1       0 -1  0  -1  0  0   0  0 -1
                       0  0  1  -1 -1 -1   0  1  0       0  0 -1   1  1  1   0 -1  0
                       1  0  0   0  1  0  -1 -1 -1      -1  0  0   0 -1  0   1  1  1
                      -1 -1 -1   0  0  1   1  0  0       1  1  1   0  0 -1  -1  0  0
            tnons      0.0000000  0.0000000  0.0000000    -0.2500000  0.2500000  0.5000000
                      -0.2500000  0.2500000  0.5000000     0.0000000  0.0000000  0.0000000
                       0.0000000  0.0000000  0.0000000    -0.2500000  0.2500000  0.5000000
                      -0.2500000  0.2500000  0.5000000     0.0000000  0.0000000  0.0000000
                      -0.2500000  0.2500000  0.5000000     0.0000000  0.0000000  0.0000000
                       0.0000000  0.0000000  0.0000000    -0.2500000  0.2500000  0.5000000
                      -0.2500000  0.2500000  0.5000000     0.0000000  0.0000000  0.0000000
                       0.0000000  0.0000000  0.0000000    -0.2500000  0.2500000  0.5000000
           tolwfr      1.00000000E-20
            typat      1  1  1  1  2  2  3  3
           useylm           1
              wtk        0.50000    0.50000
           xangst     -3.3622190440E-01  2.2781637128E+00  7.8345904523E-01
                       9.8244721515E-01  1.1836315062E+00 -2.2892832013E+00
                       1.3328528947E+00  4.2890295263E+00 -3.1057930596E+00
                       2.6515220143E+00  3.1944973198E+00 -6.1785353062E+00
                       4.9831549517E-01  3.2835966195E+00 -1.1611670072E+00
                       1.8169846147E+00  2.1890644130E+00 -4.2339092538E+00
                       0.0000000000E+00  0.0000000000E+00  0.0000000000E+00
                       3.1356537343E+00  1.0945322065E+00 -1.1611670072E+00
            xcart     -6.3536731920E-01  4.3051055030E+00  1.4805230318E+00
                       1.8565561767E+00  2.2367393891E+00 -4.3261182911E+00
                       2.5187269465E+00  8.1050911806E+00 -5.8690983081E+00
                       5.0106504423E+00  6.0367250666E+00 -1.1675739631E+01
                       9.4167981365E-01  6.2050983418E+00 -2.1942876381E+00
                       3.4336033095E+00  4.1367322278E+00 -8.0009289611E+00
                       0.0000000000E+00  0.0000000000E+00  0.0000000000E+00
                       5.9255268054E+00  2.0683661139E+00 -2.1942876382E+00
             xred      2.0351000000E-02  5.2035100000E-01  5.0000000000E-01
                       2.7035100000E-01  2.7035100000E-01 -5.5511151231E-17
                       4.7964900000E-01  9.7964900000E-01  5.0000000000E-01
                       7.2964900000E-01  7.2964900000E-01  0.0000000000E+00
                       2.5000000000E-01  7.5000000000E-01  5.0000000000E-01
                       5.0000000000E-01  5.0000000000E-01 -5.5511151231E-17
                       0.0000000000E+00  0.0000000000E+00  0.0000000000E+00
                       7.5000000000E-01  2.5000000000E-01  5.0000000000E-01
            znucl       20.00000    7.00000    9.00000

 chkinp: Checking input parameters for consistency.

== DATASET  1 ==================================================================
-   mpi_nproc: 1, omp_nthreads: -1 (-1 if OMP is not activated)

--- !DatasetInfo
iteration_state: {dtset: 1, }
dimensions: {natom: 8, nkpt: 2, mband: 41, nsppol: 1, nspinor: 1, nspden: 1, mpw: 10512, }
cutoff_energies: {ecut:  42.0, pawecutdg:  -1.0, }
electrons: {nelect:   6.40000000E+01, charge:   0.00000000E+00, occopt:   1.00000000E+00, tsmear:   1.00000000E-02, }
meta: {optdriver: 1, rfelfd: 2, }
...

 Real(R)+Recip(G) space primitive vectors, cartesian coordinates (Bohr,Bohr^-1):
 R(1)=  8.4174503  0.0000000 -8.0009290  G(1)=  0.1188008  0.0222604  0.0000000
 R(2)= -1.5502437  8.2734645 -8.0009290  G(2)=  0.0000000  0.1208684  0.0000000
 R(3)=  0.0000000  0.0000000 11.6132826  G(3)=  0.0818474  0.0986080  0.0861083
 Unit cell volume ucvol=  8.0876614E+02 bohr^3
 Angles (23,13,12)=  1.33546763E+02  1.33546763E+02  6.77967845E+01 degrees

 getcut: wavevector=  0.0000  0.0000  0.0000  ngfft=  72  72  72
         ecut(hartree)=     42.000   => boxcut(ratio)=   2.12529

--- Pseudopotential description ------------------------------------------------
- pspini: atom type   1  psp file is /scratch/users/j/a/jabreu/pseudos/PBEsol/Ca.psp8
- pspatm: opening atomic psp file    /scratch/users/j/a/jabreu/pseudos/PBEsol/Ca.psp8
- Ca    ONCVPSP-3.3.0  r_core=   1.45885   1.45885   1.85192
- 20.00000  10.00000    180112                znucl, zion, pspdat
    8 -116133    2    4       400   0.00000   pspcod,pspxc,lmax,lloc,mmax,r2well
    3.99000000000000    6.00000000000000    0.00000000000000   rchrg,fchrg,qchrg
     nproj     2     2     2
     extension_switch     1
  pspatm : epsatm=   12.46045226
         --- l  ekb(1:nproj) -->
             0   10.054847    0.973777
             1    2.998958    0.458102
             2   -3.447298   -1.091650
 pspatm: atomic psp has been read  and splines computed

- pspini: atom type   2  psp file is /scratch/users/j/a/jabreu/pseudos/PBEsol/N.psp8
- pspatm: opening atomic psp file    /scratch/users/j/a/jabreu/pseudos/PBEsol/N.psp8
- N     ONCVPSP-3.3.0  r_core=   1.20551   1.35824
-  7.00000   5.00000    180112                znucl, zion, pspdat
    8 -116133    1    4       600   0.00000   pspcod,pspxc,lmax,lloc,mmax,r2well
    5.99000000000000    4.00000000000000    0.00000000000000   rchrg,fchrg,qchrg
     nproj     2     2
     extension_switch     1
  pspatm : epsatm=    5.26508895
         --- l  ekb(1:nproj) -->
             0    7.464189    0.625868
             1   -4.309714   -1.012941
 pspatm: atomic psp has been read  and splines computed

- pspini: atom type   3  psp file is /scratch/users/j/a/jabreu/pseudos/PBEsol/F.psp8
- pspatm: opening atomic psp file    /scratch/users/j/a/jabreu/pseudos/PBEsol/F.psp8
- F     ONCVPSP-3.3.0  r_core=   1.30942   1.45782   1.60379
-  9.00000   7.00000    180112                znucl, zion, pspdat
    8 -116133    2    4       600   0.00000   pspcod,pspxc,lmax,lloc,mmax,r2well
    5.99000000000000    2.50000000000000    0.00000000000000   rchrg,fchrg,qchrg
     nproj     2     2     1
     extension_switch     1
  pspatm : epsatm=    4.89824824
         --- l  ekb(1:nproj) -->
             0    6.506434    1.065875
             1   -3.978753   -1.295852
             2   -2.394754
 pspatm: atomic psp has been read  and splines computed

   4.49078294E+03                                ecore*ucvol(ha*bohr**3)

-inwffil : will read wavefunctions from disk file /scratch/users/j/a/jabreu/flow_simple_8atoms/flow/w456/t1/indata/in_WFK

 ==>  initialize data related to q vector <==

 The list of irreducible perturbations for this q vector is:
    1)    idir= 1    ipert=   9
    2)    idir= 2    ipert=   9
    3)    idir= 3    ipert=   9

 Perturbation wavevector (in red.coord.)   0.000000  0.000000  0.000000
 Perturbation : derivative vs k along direction   1

 dfpt_looppert : COMMENT -
  In a d/dk calculation, iscf is set to -3 automatically.
 The set of symmetries contains only one element for this perturbation.
 symkpt : not enough symmetry to change the number of k points.

[...]

 Initialisation of the first-order wave-functions :
  ireadwf=   0

--- !BeginCycle
[...]
-ETOT  1  -68.946537718614     -6.895E+01 1.828E-01 0.000E+00
 ETOT  2  -69.526732454084     -5.802E-01 1.334E-02 0.000E+00
 ETOT  3  -69.546067169361     -1.933E-02 1.127E-03 0.000E+00
 ETOT  4  -69.546937761687     -8.706E-04 8.645E-04 0.000E+00
 ETOT  5  -69.546981081781     -4.332E-05 1.001E-04 0.000E+00
 ETOT  6  -69.546983344892     -2.263E-06 8.046E-05 0.000E+00
 ETOT  7  -69.546983466638     -1.217E-07 1.077E-05 0.000E+00
 ETOT  8  -69.546983473330     -6.693E-09 8.686E-06 0.000E+00
 ETOT  9  -69.546983473704     -3.734E-10 1.264E-06 0.000E+00
 ETOT 10  -69.546983473725     -2.115E-11 1.018E-06 0.000E+00
 ETOT 11  -69.546983473726     -1.180E-12 1.545E-07 0.000E+00
 ETOT 12  -69.546983473726     -2.842E-14 1.238E-07 0.000E+00
 ETOT 13  -69.546983473726     -1.137E-13 1.912E-08 0.000E+00
 ETOT 14  -69.546983473726      9.948E-14 1.531E-08 0.000E+00
 ETOT 15  -69.546983473726     -4.263E-14 2.388E-09 0.000E+00
 ETOT 16  -69.546983473726      4.263E-14 1.906E-09 0.000E+00
 ETOT 17  -69.546983473726      5.684E-14 4.276E-10 0.000E+00
 ETOT 18  -69.546983473726     -1.421E-14 2.383E-10 0.000E+00
 ETOT 19  -69.546983473726      1.421E-14 8.468E-11 0.000E+00
 ETOT 20  -69.546983473726     -2.842E-14 2.985E-11 0.000E+00
 ETOT 21  -69.546983473726      0.000E+00 1.679E-11 0.000E+00
 ETOT 22  -69.546983473726      0.000E+00 5.733E-12 0.000E+00
 ETOT 23  -69.546983473726      2.842E-14 3.328E-12 0.000E+00
 ETOT 24  -69.546983473726      0.000E+00 1.171E-12 0.000E+00
 ETOT 25  -69.546983473726     -2.842E-14 6.603E-13 0.000E+00
 ETOT 26  -69.546983473726      0.000E+00 2.400E-13 0.000E+00
 ETOT 27  -69.546983473726      1.421E-14 1.310E-13 0.000E+00
 ETOT 28  -69.546983473726     -1.421E-14 4.943E-14 0.000E+00
 ETOT 29  -69.546983473726      0.000E+00 2.602E-14 0.000E+00
 ETOT 30  -69.546983473726     -1.421E-14 1.022E-14 0.000E+00
 ETOT 31  -69.546983473726      0.000E+00 5.173E-15 0.000E+00
 ETOT 32  -69.546983473726      2.842E-14 2.122E-15 0.000E+00
 ETOT 33  -69.546983473726     -2.842E-14 1.030E-15 0.000E+00
 ETOT 34  -69.546983473726     -2.842E-14 4.421E-16 0.000E+00
 ETOT 35  -69.546983473726      1.421E-14 2.056E-16 0.000E+00
 ETOT 36  -69.546983473726      2.842E-14 9.234E-17 0.000E+00
 ETOT 37  -69.546983473726      0.000E+00 4.116E-17 0.000E+00
 ETOT 38  -69.546983473726      0.000E+00 1.933E-17 0.000E+00
 ETOT 39  -69.546983473726     -1.421E-14 8.273E-18 0.000E+00
 ETOT 40  -69.546983473726      1.421E-14 4.049E-18 0.000E+00
 ETOT 41  -69.546983473726      0.000E+00 1.671E-18 0.000E+00
 ETOT 42  -69.546983473726      0.000E+00 8.491E-19 0.000E+00
 ETOT 43  -69.546983473726     -1.421E-14 3.391E-19 0.000E+00
 ETOT 44  -69.546983473726     -1.421E-14 1.782E-19 0.000E+00
 ETOT 45  -69.546983473726      1.421E-14 6.920E-20 0.000E+00
 ETOT 46  -69.546983473726      1.421E-14 3.742E-20 0.000E+00
 ETOT 47  -69.546983473726     -1.421E-14 1.420E-20 0.000E+00
 ETOT 48  -69.546983473726      1.421E-14 9.976E-21 0.000E+00

 At SCF step   48   max residual=  9.98E-21 < tolwfr=  1.00E-20 =>converged.

 ----iterations are completed or convergence reached----

 dfpt_looppert: DFPT cycle converged with prtwf=-1. Will skip output of the 1st-order WFK file.
 dfpt_looppert : ek2=    1.2045489264E+02
          f-sum rule ratio=    1.2470855694E+00
 prteigrs : about to open file /scratch/users/j/a/jabreu/flow_simple_8atoms/flow/w456/t1/tmpdata/tmp_1WF1_EIG
 Expectation of eigenvalue derivatives (hartree) for nkpt=   2  k points:
  (in case of degenerate eigenvalues, averaged derivative)
 kpt#   1, nband= 41, wtk=  0.50000, kpt=  0.5000  0.5000 -0.5000 (reduced coord)
   0.00000    0.00000   -0.00000   -0.00000   -0.00000   -0.00000    0.00000    0.00000
   0.00000    0.00000    0.00000    0.00000    0.00000    0.00000    0.00000    0.00000
  -0.00000   -0.00000    0.00000    0.00000    0.00000    0.00000    0.00000    0.00000
  -0.00000   -0.00000   -0.00000   -0.00000    0.00000    0.00000    0.00000    0.00000
   0.00000    0.00000   -0.00000   -0.00000    0.00000    0.00000   -0.00084   -0.00169
   0.00824
 prteigrs : prtvol=0 or 1, do not print more k-points.

 Eight components of 2nd-order total energy (hartree) are
 1,2,3: 0th-order hamiltonian combined with 1st-order wavefunctions
     kin0=   1.45801797E+02 eigvalue=  -2.71687640E+00  local=  -8.56577925E+01
 4,5,6: 1st-order hamiltonian combined with 1st and 0th-order wfs
     kin1=  -1.50217558E+02  Hartree=   0.00000000E+00     xc=   0.00000000E+00
 7,8,9: eventually, occupation + non-local contributions
    edocc=   1.66866789E+01     enl0=  -4.56682316E+00   enl1=   1.11235914E+01
 1-9 gives the relaxation energy (to be shifted if some occ is /=2.0)
   erelax=  -6.95469835E+01
  No Ewald or frozen-wf contrib.: the relaxation energy is the total one
 2DEtotal=   -0.6954698347E+02 Ha. Also 2DEtotal=   -0.189246966361E+04 eV
    (  non-var. 2DEtotal :   -6.9546983473E+01 Ha)

 CALCULATION OF EFFECTIVE MASSES
 NOTE : Additional infos (eff. mass eigenvalues, eigenvectors and, if degenerate, average mass) are available in stdout.

 COMMENTS:
 - At k-point ( 0.500, 0.500,-0.500), bands    31 through    32
   are DEGENERATE (effective mass tensor is therefore not defined).
   See Section IIIB Eqs. (67)-(70) and Appendix E of PRB 93 205147 (2016).
 - Angular average effective mass for Frohlich model is to be averaged over degenerate bands. See later.
 - Associated theta integrals calculated with ntheta=   1000 points.

 K-point ( 0.500, 0.500,-0.500) | band =    31
 Transport equivalent effective mass tensor:
             -0.8019932446             -0.0849995582              0.1641883680
             -0.0849995582             -0.8335724143              0.1980558151
              0.1641883680              0.1980558151             -1.1140950943
 Transport equivalent effective mass tensor eigenvalues:
             -1.2870039560             -0.7315277010             -0.7311290962
 Angular average effective mass 1/(<1/m>)=  -0.8285338117
 Angular average effective mass for Frohlich model (<m**0.5>)**2=  -0.8449435395
 Effective masses along directions: (cart. coord. / red. coord. -> eff. mass)
    1:   1.000000  0.000000  0.000000 /   0.983460 -0.181124  0.000000 ->  -0.7128063228
    2:   0.000000  1.000000  0.000000 /   0.000000  1.000000  0.000000 ->  -0.7247351189
    3:   0.000000  0.000000  1.000000 /  -0.493454 -0.493454  0.716245 ->  -1.0634438180
    4:   0.577350  0.577350  0.577350 /   0.035628 -0.109292  0.993371 ->  -0.7904675762
    5:   0.000000  0.707107  0.707107 /  -0.567231  0.019322  0.823332 ->  -0.7103179387
    6:   0.707107  0.000000  0.707107 /   0.027690 -0.634960  0.772049 ->  -0.7067404453
    7:   0.707107  0.707107  0.000000 /   0.781355  0.624087  0.000000 ->  -0.8774717828

 K-point ( 0.500, 0.500,-0.500) | band =    32
 Transport equivalent effective mass tensor:
             -1.0398973944             -0.0482346052              0.0933005200
             -0.0482346052             -1.0581391159              0.1124091406
              0.0933005200              0.1124091406             -1.2172911905
 Transport equivalent effective mass tensor eigenvalues:
             -1.3154713287             -0.9999948565             -0.9998615156
 Angular average effective mass 1/(<1/m>)=  -1.0362779152
 Angular average effective mass for Frohlich model (<m**0.5>)**2=  -1.0433593390
 Effective masses along directions: (cart. coord. / red. coord. -> eff. mass)
    1:   1.000000  0.000000  0.000000 /   0.983460 -0.181124  0.000000 ->  -1.0660127286
    2:   0.000000  1.000000  0.000000 /   0.000000  1.000000  0.000000 ->  -1.0934110784
    3:   0.000000  0.000000  1.000000 /  -0.493454 -0.493454  0.716245 ->  -1.0636884928
    4:   0.577350  0.577350  0.577350 /   0.035628 -0.109292  0.993371 ->  -0.8477648337
    5:   0.000000  0.707107  0.707107 /  -0.567231  0.019322  0.823332 ->  -1.0289781658
    6:   0.707107  0.000000  0.707107 /   0.027690 -0.634960  0.772049 ->  -1.0660799227
    7:   0.707107  0.707107  0.000000 /   0.781355  0.624087  0.000000 ->  -0.9500048253

 Angular average effective mass for Frohlich model, averaged over degenerate bands.
 Value of     (<<m**0.5>>)**2 =     9.415381E-01
 Absolute Value of <<m**0.5>> =     9.703289E-01

 K-point ( 0.000, 0.000, 0.000) | band =    33
 Effective mass tensor:
              0.4045327238             -0.0223828579              0.0432910936
             -0.0223828579              0.3961447316              0.0521561902
              0.0432910936              0.0521561902              0.3222348900
 Effective mass tensor eigenvalues:
              0.2766900994              0.4231111213              0.4231111247
 Angular average effective mass 1/(<1/m>)=   0.3596672783
 Angular average effective mass for Frohlich model (<m**0.5>)**2=   0.3643069337
 Effective masses along directions: (cart. coord. / red. coord. -> eff. mass)
    1:   1.000000  0.000000  0.000000 /   0.983460 -0.181124  0.000000 ->   0.3964888209
    2:   0.000000  1.000000  0.000000 /   0.000000  1.000000  0.000000 ->   0.3855364930
    3:   0.000000  0.000000  1.000000 /  -0.493454 -0.493454  0.716245 ->   0.3100664667
    4:   0.577350  0.577350  0.577350 /   0.035628 -0.109292  0.993371 ->   0.4229622463
    5:   0.000000  0.707107  0.707107 /  -0.567231  0.019322  0.823332 ->   0.4058538372
    6:   0.707107  0.000000  0.707107 /   0.027690 -0.634960  0.772049 ->   0.3993863738
    7:   0.707107  0.707107  0.000000 /   0.781355  0.624087  0.000000 ->   0.3637481718

 END OF EFFECTIVE MASSES SECTION

 ---- first-order wavefunction calculations are completed ----

 Total localisation tensor (bohr^2) in cartesian coordinates
  WARNING : still subject to testing - especially symmetries.
      direction              matrix element
   alpha     beta       real part   imaginary part
     1        1       1.2876301833    0.0000000000
     1        2      -0.2254433392    0.0000000000
     1        3      -0.9657450064    0.0000000000
     2        1      -0.2254433392    0.0000000000
     2        2       1.2031640415    0.0000000000
     2        3      -1.1635307163    0.0000000000
     3        1      -0.9657450064    0.0000000000
     3        2      -1.1635307163    0.0000000000
     3        3       6.2215218477    0.0000000000

 respfn : d/dk was computed, but no 2DTE, so no DDB output.

== END DATASET(S) ==============================================================

 -outvars: echo values of variables after computation  --------
            acell      1.0000000000E+00  1.0000000000E+00  1.0000000000E+00 Bohr
              amu      4.00780000E+01  1.40067400E+01  1.89984032E+01
             ecut      4.20000000E+01 Hartree
           etotal     -6.9546983474E+01
            fcart      0.0000000000E+00  0.0000000000E+00  0.0000000000E+00
                       0.0000000000E+00  0.0000000000E+00  0.0000000000E+00
                       0.0000000000E+00  0.0000000000E+00  0.0000000000E+00
                       0.0000000000E+00  0.0000000000E+00  0.0000000000E+00
                       0.0000000000E+00  0.0000000000E+00  0.0000000000E+00
                       0.0000000000E+00  0.0000000000E+00  0.0000000000E+00
                       0.0000000000E+00  0.0000000000E+00  0.0000000000E+00
                       0.0000000000E+00  0.0000000000E+00  0.0000000000E+00
-          fftalg         512
           irdden           1
           irdwfk           1
           istwfk        0    1
              ixc     -116133
              kpt      5.00000000E-01  5.00000000E-01 -5.00000000E-01
                       0.00000000E+00  0.00000000E+00  0.00000000E+00
           kptopt           0
P           mkmem           2
P          mkqmem           2
P          mk1mem           2
            natom           8
            nband          41
           nbdbuf           4
            ngfft          72      72      72
             nkpt           2
            nstep        2000
             nsym          16
           ntypat           3
              occ      2.000000  2.000000  2.000000  2.000000  2.000000  2.000000
                       2.000000  2.000000  2.000000  2.000000  2.000000  2.000000
                       2.000000  2.000000  2.000000  2.000000  2.000000  2.000000
                       2.000000  2.000000  2.000000  2.000000  2.000000  2.000000
                       2.000000  2.000000  2.000000  2.000000  2.000000  2.000000
                       2.000000  2.000000  0.000000  0.000000  0.000000  0.000000
                       0.000000  0.000000  0.000000  0.000000  0.000000
        optdriver           1
            prtwf          -1
            rfdir           1       1       1
           rfelfd           2
            rprim      8.4174503012E+00  0.0000000000E+00 -8.0009289611E+00
                      -1.5502436822E+00  8.2734644557E+00 -8.0009289611E+00
                       0.0000000000E+00  0.0000000000E+00  1.1613282646E+01
          spgroup         141
           strten      0.0000000000E+00  0.0000000000E+00  0.0000000000E+00
                       0.0000000000E+00  0.0000000000E+00  0.0000000000E+00
           symrel      1  0  0   0  1  0   0  0  1      -1  0  0   0 -1  0   0  0 -1
                       0  0  1  -1 -1 -1   1  0  0       0  0 -1   1  1  1  -1  0  0
                       0  1  0   1  0  0  -1 -1 -1       0 -1  0  -1  0  0   1  1  1
                      -1 -1 -1   0  0  1   0  1  0       1  1  1   0  0 -1   0 -1  0
                       0  1  0   1  0  0   0  0  1       0 -1  0  -1  0  0   0  0 -1
                       0  0  1  -1 -1 -1   0  1  0       0  0 -1   1  1  1   0 -1  0
                       1  0  0   0  1  0  -1 -1 -1      -1  0  0   0 -1  0   1  1  1
                      -1 -1 -1   0  0  1   1  0  0       1  1  1   0  0 -1  -1  0  0
            tnons      0.0000000  0.0000000  0.0000000    -0.2500000  0.2500000  0.5000000
                      -0.2500000  0.2500000  0.5000000     0.0000000  0.0000000  0.0000000
                       0.0000000  0.0000000  0.0000000    -0.2500000  0.2500000  0.5000000
                      -0.2500000  0.2500000  0.5000000     0.0000000  0.0000000  0.0000000
                      -0.2500000  0.2500000  0.5000000     0.0000000  0.0000000  0.0000000
                       0.0000000  0.0000000  0.0000000    -0.2500000  0.2500000  0.5000000
                      -0.2500000  0.2500000  0.5000000     0.0000000  0.0000000  0.0000000
                       0.0000000  0.0000000  0.0000000    -0.2500000  0.2500000  0.5000000
           tolwfr      1.00000000E-20
            typat      1  1  1  1  2  2  3  3
           useylm           1
              wtk        0.50000    0.50000
           xangst     -3.3622190440E-01  2.2781637128E+00  7.8345904523E-01
                       9.8244721515E-01  1.1836315062E+00 -2.2892832013E+00
                       1.3328528947E+00  4.2890295263E+00 -3.1057930596E+00
                       2.6515220143E+00  3.1944973198E+00 -6.1785353062E+00
                       4.9831549517E-01  3.2835966195E+00 -1.1611670072E+00
                       1.8169846147E+00  2.1890644130E+00 -4.2339092538E+00
                       0.0000000000E+00  0.0000000000E+00  0.0000000000E+00
                       3.1356537343E+00  1.0945322065E+00 -1.1611670072E+00
            xcart     -6.3536731920E-01  4.3051055030E+00  1.4805230318E+00
                       1.8565561767E+00  2.2367393891E+00 -4.3261182911E+00
                       2.5187269465E+00  8.1050911806E+00 -5.8690983081E+00
                       5.0106504423E+00  6.0367250666E+00 -1.1675739631E+01
                       9.4167981365E-01  6.2050983418E+00 -2.1942876381E+00
                       3.4336033095E+00  4.1367322278E+00 -8.0009289611E+00
                       0.0000000000E+00  0.0000000000E+00  0.0000000000E+00
                       5.9255268054E+00  2.0683661139E+00 -2.1942876382E+00
             xred      2.0351000000E-02  5.2035100000E-01  5.0000000000E-01
                       2.7035100000E-01  2.7035100000E-01 -5.5511151231E-17
                       4.7964900000E-01  9.7964900000E-01  5.0000000000E-01
                       7.2964900000E-01  7.2964900000E-01  0.0000000000E+00
                       2.5000000000E-01  7.5000000000E-01  5.0000000000E-01
                       5.0000000000E-01  5.0000000000E-01 -5.5511151231E-17
                       0.0000000000E+00  0.0000000000E+00  0.0000000000E+00
                       7.5000000000E-01  2.5000000000E-01  5.0000000000E-01
            znucl       20.00000    7.00000    9.00000

- Timing analysis has been suppressed with timopt=0

 Suggested references for the acknowledgment of ABINIT usage.

 Calculation completed.
.Delivered  14 WARNINGs and   9 COMMENTs to log file.