.Version 9.5.1 of ABINIT

 ABINIT is a project of the Universite Catholique de Louvain,
 Corning Inc. and other collaborators, see ~abinit/doc/developers/contributors.txt .
 acknowledgments of the ABINIT effort.

.Starting date : Wed  5 May 2021.
- ( at 19h49 )

- input  file    -> /scratch/users/j/a/jabreu/flow_simple_7atoms/flow/w144/t1/run.abi
- output file    -> /scratch/users/j/a/jabreu/flow_simple_7atoms/flow/w144/t1/run.abo
- root for input  files -> /scratch/users/j/a/jabreu/flow_simple_7atoms/flow/w144/t1/indata/in
- root for output files -> /scratch/users/j/a/jabreu/flow_simple_7atoms/flow/w144/t1/outdata/out

 Symmetries : space group I4/m m m (#139); Bravais tI (body-center tetrag.)
     intxc =       0      iscf =       7    lmnmax =      18     lnmax =       6
     mgfft =      90  mpssoang =       3    mqgrid =    3001     natom =       7
  nloc_mem =       1    nspden =       1   nspinor =       1    nsppol =       1
      nsym =      16    n1xccc =    2501    ntypat =       3    occopt =       1
   xclevel =       2
-    mband =          38        mffmem =           1         mkmem =           2
-   mkqmem =           2        mk1mem =           2           mpw =       10833
      nfft =      729000          nkpt =           2
  Rough estimation (10% accuracy) of disk space for files :

------------- Echo of variables that govern the present computation ------------
-
- outvars: echo of selected default values
-   iomode0 =  0 , fftalg0 =512 , wfoptalg0 =  0
-
- outvars: echo of global parameters not present in the input file
-  max_nthreads =    0
-
 -outvars: echo values of preprocessed input variables --------
            acell      1.0000000000E+00  1.0000000000E+00  1.0000000000E+00 Bohr
              amu      1.37327000E+02  1.18710000E+02  1.59994000E+01
             ecut      4.40000000E+01 Hartree
-          fftalg         512
           irdden           1
           irdwfk           1
           istwfk        0    1
              ixc     -116133
              kpt     -1.53899593E-01  1.53899593E-01  1.53899593E-01
                       0.00000000E+00  0.00000000E+00  0.00000000E+00
           kptopt           0
P           mkmem           2
P          mkqmem           2
P          mk1mem           2
            natom           7
            nband          38
           nbdbuf           4
            ngfft          90      90      90
             nkpt           2
            nstep        2000
             nsym          16
           ntypat           3
              occ      2.000000  2.000000  2.000000  2.000000  2.000000  2.000000
                       2.000000  2.000000  2.000000  2.000000  2.000000  2.000000
                       2.000000  2.000000  2.000000  2.000000  2.000000  2.000000
                       2.000000  2.000000  2.000000  2.000000  2.000000  2.000000
                       2.000000  2.000000  2.000000  2.000000  2.000000  0.000000
                       0.000000  0.000000  0.000000  0.000000  0.000000  0.000000
                       0.000000  0.000000
        optdriver           1
            prtwf          -1
            rfdir           1       1       1
           rfelfd           2
            rprim      7.5308521776E+00  0.0000000000E+00 -1.1397835561E+01
                      -6.8015631120E-01  7.5000747938E+00 -1.1397835561E+01
                       0.0000000000E+00  0.0000000000E+00  1.3661053766E+01
          spgroup         139
           symrel      1  0  0   0  1  0   0  0  1      -1  0  0   0 -1  0   0  0 -1
                       0  0  1  -1 -1 -1   1  0  0       0  0 -1   1  1  1  -1  0  0
                       0  1  0   1  0  0  -1 -1 -1       0 -1  0  -1  0  0   1  1  1
                      -1 -1 -1   0  0  1   0  1  0       1  1  1   0  0 -1   0 -1  0
                       0  1  0   1  0  0   0  0  1       0 -1  0  -1  0  0   0  0 -1
                       0  0  1  -1 -1 -1   0  1  0       0  0 -1   1  1  1   0 -1  0
                       1  0  0   0  1  0  -1 -1 -1      -1  0  0   0 -1  0   1  1  1
                      -1 -1 -1   0  0  1   1  0  0       1  1  1   0  0 -1  -1  0  0
           tolwfr      1.00000000E-20
            typat      1  1  2  3  3  3  3
           useylm           1
              wtk        0.50000    0.50000
           xangst      2.3407652489E+00  2.5626468879E+00 -7.7888897465E+00
                       1.2844668665E+00  1.4062217557E+00 -4.2740598661E+00
                       0.0000000000E+00  0.0000000000E+00  0.0000000000E+00
                       3.0561685546E+00  3.3458634260E+00 -1.0169392223E+01
                       5.6906356086E-01  6.2300521759E-01 -1.8935573895E+00
                       1.9925776668E+00  0.0000000000E+00  5.9882174605E-01
                      -1.7996160908E-01  1.9844343218E+00  5.9882174605E-01
            xcart      4.4234052619E+00  4.8427007934E+00 -1.4718868500E+01
                       2.4272906045E+00  2.6573740004E+00 -8.0768026225E+00
                       0.0000000000E+00  0.0000000000E+00  0.0000000000E+00
                       5.7753215842E+00  6.3227655532E+00 -1.9217366239E+01
                       1.0753742822E+00  1.1773092406E+00 -3.5783048831E+00
                       3.7654260888E+00  0.0000000000E+00  1.1316091024E+00
                      -3.4007815560E-01  3.7500373969E+00  1.1316091024E+00
             xred      6.4568700000E-01  6.4568700000E-01  0.0000000000E+00
                       3.5431300000E-01  3.5431300000E-01  1.1102230246E-16
                       0.0000000000E+00  0.0000000000E+00  0.0000000000E+00
                       8.4302700000E-01  8.4302700000E-01  2.2204460493E-16
                       1.5697300000E-01  1.5697300000E-01  2.7755575616E-17
                       5.0000000000E-01  0.0000000000E+00  5.0000000000E-01
                       1.3877787808E-17  5.0000000000E-01  5.0000000000E-01
            znucl       56.00000   50.00000    8.00000

 chkinp: Checking input parameters for consistency.

== DATASET  1 ==================================================================
-   mpi_nproc: 1, omp_nthreads: -1 (-1 if OMP is not activated)

--- !DatasetInfo
iteration_state: {dtset: 1, }
dimensions: {natom: 7, nkpt: 2, mband: 38, nsppol: 1, nspinor: 1, nspden: 1, mpw: 10833, }
cutoff_energies: {ecut:  44.0, pawecutdg:  -1.0, }
electrons: {nelect:   5.80000000E+01, charge:   0.00000000E+00, occopt:   1.00000000E+00, tsmear:   1.00000000E-02, }
meta: {optdriver: 1, rfelfd: 2, }
...

 Real(R)+Recip(G) space primitive vectors, cartesian coordinates (Bohr,Bohr^-1):
 R(1)=  7.5308522  0.0000000-11.3978356  G(1)=  0.1327871  0.0120420  0.0000000
 R(2)= -0.6801563  7.5000748-11.3978356  G(2)=  0.0000000  0.1333320  0.0000000
 R(3)=  0.0000000  0.0000000 13.6610538  G(3)=  0.1107883  0.1212900  0.0732008
 Unit cell volume ucvol=  7.7160302E+02 bohr^3
 Angles (23,13,12)=  1.46546203E+02  1.46546203E+02  4.80361763E+01 degrees

 getcut: wavevector=  0.0000  0.0000  0.0000  ngfft=  90  90  90
         ecut(hartree)=     44.000   => boxcut(ratio)=   2.20713

 getcut : COMMENT -
  Note that boxcut > 2.2 ; recall that boxcut=Gcut(box)/Gcut(sphere) = 2
  is sufficient for exact treatment of convolution.
  Such a large boxcut is a waste : you could raise ecut
  e.g. ecut=   53.585545 Hartrees makes boxcut=2

--- Pseudopotential description ------------------------------------------------
- pspini: atom type   1  psp file is /scratch/users/j/a/jabreu/pseudos/PBEsol/Ba.psp8
- pspatm: opening atomic psp file    /scratch/users/j/a/jabreu/pseudos/PBEsol/Ba.psp8
- Ba    ONCVPSP-3.3.0  r_core=   2.15444   1.91218   2.15444
- 56.00000  10.00000    180112                znucl, zion, pspdat
    8 -116133    2    4       600   0.00000   pspcod,pspxc,lmax,lloc,mmax,r2well
    5.99000000000000    5.00000000000000    0.00000000000000   rchrg,fchrg,qchrg
     nproj     2     2     2
     extension_switch     1
  pspatm : epsatm=   26.37418029
         --- l  ekb(1:nproj) -->
             0    6.652372    0.677024
             1    5.027722    0.408462
             2    2.543237    0.416854
 pspatm: atomic psp has been read  and splines computed

- pspini: atom type   2  psp file is /scratch/users/j/a/jabreu/pseudos/PBEsol/Sn.psp8
- pspatm: opening atomic psp file    /scratch/users/j/a/jabreu/pseudos/PBEsol/Sn.psp8
- Sn    ONCVPSP-3.3.0  r_core=   2.27326   2.62311   1.85601
- 50.00000  14.00000    180112                znucl, zion, pspdat
    8 -116133    2    4       600   0.00000   pspcod,pspxc,lmax,lloc,mmax,r2well
    5.99000000000000    6.50000000000000    0.00000000000000   rchrg,fchrg,qchrg
     nproj     2     2     2
     extension_switch     1
  pspatm : epsatm=   32.44586081
         --- l  ekb(1:nproj) -->
             0    5.587869    0.749373
             1    4.197111    0.728791
             2   -5.271877   -1.523486
 pspatm: atomic psp has been read  and splines computed

- pspini: atom type   3  psp file is /scratch/users/j/a/jabreu/pseudos/PBEsol/O.psp8
- pspatm: opening atomic psp file    /scratch/users/j/a/jabreu/pseudos/PBEsol/O.psp8
- O     ONCVPSP-3.3.0  r_core=   1.35509   1.45563   1.26150
-  8.00000   6.00000    180112                znucl, zion, pspdat
    8 -116133    2    4       600   0.00000   pspcod,pspxc,lmax,lloc,mmax,r2well
    5.99000000000000    4.00000000000000    0.00000000000000   rchrg,fchrg,qchrg
     nproj     2     2     1
     extension_switch     1
  pspatm : epsatm=    6.22910522
         --- l  ekb(1:nproj) -->
             0    6.050032    0.820363
             1   -4.739617   -1.153841
             2   -1.335834
 pspatm: atomic psp has been read  and splines computed

   6.38641725E+03                                ecore*ucvol(ha*bohr**3)

-inwffil : will read wavefunctions from disk file /scratch/users/j/a/jabreu/flow_simple_7atoms/flow/w144/t1/indata/in_WFK

 ==>  initialize data related to q vector <==

 The list of irreducible perturbations for this q vector is:
    1)    idir= 1    ipert=   8
    2)    idir= 2    ipert=   8
    3)    idir= 3    ipert=   8

 Perturbation wavevector (in red.coord.)   0.000000  0.000000  0.000000
 Perturbation : derivative vs k along direction   1

 dfpt_looppert : COMMENT -
  In a d/dk calculation, iscf is set to -3 automatically.
 The set of symmetries contains only one element for this perturbation.
 symkpt : not enough symmetry to change the number of k points.

[...]

 Initialisation of the first-order wave-functions :
  ireadwf=   0

--- !BeginCycle
iteration_state: {dtset: 1, }
solver: {iscf: 7, nstep: 2000, nline: 4, wfoptalg: 0, }
tolerances: {tolwfr: 1.00E-20, }
...

     iter   2DEtotal(Ha)        deltaE(Ha) residm    vres2
-ETOT  1  -56.762494231599     -5.676E+01 1.499E-01 0.000E+00
 ETOT  2  -56.802309128343     -3.981E-02 2.832E-03 0.000E+00
 ETOT  3  -56.802454608773     -1.455E-04 3.398E-04 0.000E+00
 ETOT  4  -56.802455772354     -1.164E-06 1.527E-05 0.000E+00
 ETOT  5  -56.802455784196     -1.184E-08 3.618E-06 0.000E+00
 ETOT  6  -56.802455784337     -1.412E-10 1.256E-07 0.000E+00
 ETOT  7  -56.802455784339     -1.876E-12 4.039E-08 0.000E+00
 ETOT  8  -56.802455784339      0.000E+00 1.583E-09 0.000E+00
 ETOT  9  -56.802455784339     -1.421E-14 5.871E-10 0.000E+00
 ETOT 10  -56.802455784339      2.132E-14 2.293E-11 0.000E+00
 ETOT 11  -56.802455784339     -7.105E-15 8.867E-12 0.000E+00
 ETOT 12  -56.802455784339     -1.421E-14 3.447E-13 0.000E+00
 ETOT 13  -56.802455784339      2.842E-14 1.359E-13 0.000E+00
 ETOT 14  -56.802455784339      1.421E-14 5.275E-15 0.000E+00
 ETOT 15  -56.802455784339      0.000E+00 2.098E-15 0.000E+00
 ETOT 16  -56.802455784339      0.000E+00 8.145E-17 0.000E+00
 ETOT 17  -56.802455784339     -1.421E-14 3.258E-17 0.000E+00
 ETOT 18  -56.802455784339      0.000E+00 1.265E-18 0.000E+00
 ETOT 19  -56.802455784339      7.105E-15 5.083E-19 0.000E+00
 ETOT 20  -56.802455784339     -7.105E-15 1.974E-20 0.000E+00
 ETOT 21  -56.802455784339      7.105E-15 9.823E-21 0.000E+00

 At SCF step   21   max residual=  9.82E-21 < tolwfr=  1.00E-20 =>converged.

 ----iterations are completed or convergence reached----

 dfpt_looppert: DFPT cycle converged with prtwf=-1. Will skip output of the 1st-order WFK file.
 dfpt_looppert : ek2=    8.1411646317E+01
          f-sum rule ratio=    1.0405317930E+00
 prteigrs : about to open file /scratch/users/j/a/jabreu/flow_simple_7atoms/flow/w144/t1/tmpdata/tmp_1WF1_EIG
 Expectation of eigenvalue derivatives (hartree) for nkpt=   2  k points:
  (in case of degenerate eigenvalues, averaged derivative)
 kpt#   1, nband= 38, wtk=  0.50000, kpt= -0.1539  0.1539  0.1539 (reduced coord)
  -0.00000    0.00000    0.00000   -0.00000   -0.00000   -0.00000    0.00000   -0.00000
   0.00000    0.00000    0.00000    0.00000   -0.00000    0.00000   -0.00000    0.00000
   0.00000    0.00000   -0.00000    0.00000    0.00000   -0.00000   -0.00000    0.00000
   0.00000   -0.00000    0.00000   -0.00000    0.00000    0.00000   -0.00000    0.00000
  -0.00000    0.00000   -0.00000   -0.00000    0.00000    0.00101
 prteigrs : prtvol=0 or 1, do not print more k-points.

 Eight components of 2nd-order total energy (hartree) are
 1,2,3: 0th-order hamiltonian combined with 1st-order wavefunctions
     kin0=   6.62395296E+01 eigvalue=   1.46654668E+00  local=  -3.00026302E+01
 4,5,6: 1st-order hamiltonian combined with 1st and 0th-order wfs
     kin1=  -8.47114063E+01  Hartree=   0.00000000E+00     xc=   0.00000000E+00
 7,8,9: eventually, occupation + non-local contributions
    edocc=   1.46732731E+01     enl0=   4.42573661E+00   enl1=  -2.88935053E+01
 1-9 gives the relaxation energy (to be shifted if some occ is /=2.0)
   erelax=  -5.68024558E+01
  No Ewald or frozen-wf contrib.: the relaxation energy is the total one
 2DEtotal=   -0.5680245578E+02 Ha. Also 2DEtotal=   -0.154567342854E+04 eV
    (  non-var. 2DEtotal :   -5.6802455784E+01 Ha)

 Perturbation wavevector (in red.coord.)   0.000000  0.000000  0.000000
 Perturbation : derivative vs k along direction   2
 The set of symmetries contains only one element for this perturbation.
 symkpt : not enough symmetry to change the number of k points.

[...]

 Perturbation wavevector (in red.coord.)   0.000000  0.000000  0.000000
 Perturbation : derivative vs k along direction   3
 The set of symmetries contains only one element for this perturbation.
 symkpt : not enough symmetry to change the number of k points.

-inwffil : will read wavefunctions from disk file /scratch/users/j/a/jabreu/flow_simple_7atoms/flow/w144/t1/indata/in_WFK

 Initialisation of the first-order wave-functions :
  ireadwf=   0

--- !BeginCycle
iteration_state: {dtset: 1, }
solver: {iscf: 7, nstep: 2000, nline: 4, wfoptalg: 0, }
tolerances: {tolwfr: 1.00E-20, }
...

     iter   2DEtotal(Ha)        deltaE(Ha) residm    vres2
-ETOT  1  -103.82031391838     -1.038E+02 4.488E-01 0.000E+00
 ETOT  2  -103.89220585209     -7.189E-02 1.743E-02 0.000E+00
 ETOT  3  -103.89246464068     -2.588E-04 2.404E-03 0.000E+00
 ETOT  4  -103.89246665842     -2.018E-06 1.269E-04 0.000E+00
 ETOT  5  -103.89246667839     -1.997E-08 2.423E-05 0.000E+00
 ETOT  6  -103.89246667862     -2.316E-10 1.382E-06 0.000E+00
 ETOT  7  -103.89246667862     -2.885E-12 2.783E-07 0.000E+00
 ETOT  8  -103.89246667862     -5.684E-14 1.635E-08 0.000E+00
 ETOT  9  -103.89246667862      0.000E+00 3.343E-09 0.000E+00
 ETOT 10  -103.89246667862     -5.684E-14 2.001E-10 0.000E+00
 ETOT 11  -103.89246667862      1.421E-14 4.126E-11 0.000E+00
 ETOT 12  -103.89246667862      0.000E+00 2.489E-12 0.000E+00
 ETOT 13  -103.89246667862     -1.421E-14 5.145E-13 0.000E+00
 ETOT 14  -103.89246667862      1.421E-14 3.126E-14 0.000E+00
 ETOT 15  -103.89246667862      2.842E-14 6.503E-15 0.000E+00
 ETOT 16  -103.89246667862     -1.421E-14 6.476E-16 0.000E+00
 ETOT 17  -103.89246667862      1.421E-14 8.245E-17 0.000E+00
 ETOT 18  -103.89246667862      1.421E-14 1.382E-17 0.000E+00
 ETOT 19  -103.89246667862     -1.421E-14 1.533E-18 0.000E+00
 ETOT 20  -103.89246667862     -1.421E-14 2.955E-19 0.000E+00
 ETOT 21  -103.89246667862      0.000E+00 3.287E-20 0.000E+00
 ETOT 22  -103.89246667862      0.000E+00 9.993E-21 0.000E+00

 At SCF step   22   max residual=  9.99E-21 < tolwfr=  1.00E-20 =>converged.

 ----iterations are completed or convergence reached----

 dfpt_looppert: DFPT cycle converged with prtwf=-1. Will skip output of the 1st-order WFK file.
 dfpt_looppert : ek2=    1.4811774701E+02
          f-sum rule ratio=    1.0452428407E+00
 prteigrs : about to open file /scratch/users/j/a/jabreu/flow_simple_7atoms/flow/w144/t1/tmpdata/tmp_1WF1_EIG
 Expectation of eigenvalue derivatives (hartree) for nkpt=   2  k points:
  (in case of degenerate eigenvalues, averaged derivative)
 kpt#   1, nband= 38, wtk=  0.50000, kpt= -0.1539  0.1539  0.1539 (reduced coord)
   0.01293   -0.00109    0.00754    0.03119   -0.00196   -0.00129    0.00018    0.05937
  -0.17712   -0.01518    0.01327   -0.00889   -0.00252    0.02367    0.00587    0.00729
  -0.02120   -0.07531    0.00812    0.03177   -0.08813    0.02488   -0.03674    0.01291
   0.02954   -0.07352    0.02799   -0.05808    0.00211    0.31990    0.17417    0.05881
   0.11554    0.24217    0.09668    0.15725    0.15928    0.24505
 prteigrs : prtvol=0 or 1, do not print more k-points.

 Eight components of 2nd-order total energy (hartree) are
 1,2,3: 0th-order hamiltonian combined with 1st-order wavefunctions
     kin0=   1.23428165E+02 eigvalue=   2.34990793E+00  local=  -5.64977294E+01
 4,5,6: 1st-order hamiltonian combined with 1st and 0th-order wfs
     kin1=  -1.54819015E+02  Hartree=   0.00000000E+00     xc=   0.00000000E+00
 7,8,9: eventually, occupation + non-local contributions
    edocc=   2.60981809E+01     enl0=   8.51394271E+00   enl1=  -5.29659187E+01
 1-9 gives the relaxation energy (to be shifted if some occ is /=2.0)
   erelax=  -1.03892467E+02
  No Ewald or frozen-wf contrib.: the relaxation energy is the total one
 2DEtotal=   -0.1038924667E+03 Ha. Also 2DEtotal=   -0.282705779095E+04 eV
    (  non-var. 2DEtotal :   -1.0389246668E+02 Ha)

 CALCULATION OF EFFECTIVE MASSES
 NOTE : Additional infos (eff. mass eigenvalues, eigenvectors and, if degenerate, average mass) are available in stdout.

 K-point (-0.154, 0.154, 0.154) | band =    29
 Effective mass tensor:
             -2.3908884280              0.0528642950             -0.3172475445
              0.0528642950             -1.8590571844             -0.1755516644
             -0.3172475445             -0.1755516644             -1.4304729473
 Effective mass tensor eigenvalues:
             -2.4862200003             -1.9168412731             -1.2773572863
 Angular average effective mass 1/(<1/m>)=  -1.7577009823
 Angular average effective mass for Frohlich model (<m**0.5>)**2=  -1.7986773616
 Effective masses along directions: (cart. coord. / red. coord. -> eff. mass)
    1:   1.000000  0.000000  0.000000 /   0.995946 -0.089950  0.000000 ->  -2.3159438751
    2:   0.000000  1.000000  0.000000 /   0.000000  1.000000  0.000000 ->  -1.8338815623
    3:   0.000000  0.000000  1.000000 /  -0.539434 -0.539434  0.646547 ->  -1.3704373419
    4:   0.577350  0.577350  0.577350 /  -0.259223 -0.306880  0.915767 ->  -2.1281237377
    5:   0.000000  0.707107  0.707107 /  -0.625794 -0.214005  0.750056 ->  -1.7674431610
    6:   0.707107  0.000000  0.707107 /  -0.207454 -0.647955  0.732883 ->  -2.0732563034
    7:   0.707107  0.707107  0.000000 /   0.741228  0.671254  0.000000 ->  -1.9603552786

 K-point ( 0.000, 0.000, 0.000) | band =    30
 Effective mass tensor:
              0.3845339241             -0.0020943300              0.0063654922
             -0.0020943300              0.3841540702              0.0069688763
              0.0063654922              0.0069688763              0.3652657665
 Effective mass tensor eigenvalues:
              0.3610599180              0.3864469214              0.3864469214
 Angular average effective mass 1/(<1/m>)=   0.3775969994
 Angular average effective mass for Frohlich model (<m**0.5>)**2=   0.3777146060
 Effective masses along directions: (cart. coord. / red. coord. -> eff. mass)
    1:   1.000000  0.000000  0.000000 /   0.995946 -0.089950  0.000000 ->   0.3844102077
    2:   0.000000  1.000000  0.000000 /   0.000000  1.000000  0.000000 ->   0.3840083400
    3:   0.000000  0.000000  1.000000 /  -0.539434 -0.539434  0.646547 ->   0.3650327075
    4:   0.577350  0.577350  0.577350 /  -0.259223 -0.306880  0.915767 ->   0.3854125907
    5:   0.000000  0.707107  0.707107 /  -0.625794 -0.214005  0.750056 ->   0.3814100525
    6:   0.707107  0.000000  0.707107 /  -0.207454 -0.647955  0.732883 ->   0.3809794713
    7:   0.707107  0.707107  0.000000 /   0.741228  0.671254  0.000000 ->   0.3820061708

 END OF EFFECTIVE MASSES SECTION

 ---- first-order wavefunction calculations are completed ----

 Total localisation tensor (bohr^2) in cartesian coordinates
  WARNING : still subject to testing - especially symmetries.
      direction              matrix element
   alpha     beta       real part   imaginary part
     1        1       0.9499012412    0.0000000000
     1        2      -0.0857505931    0.0000000000
     1        3      -1.2955773843    0.0000000000
     2        1      -0.0857505931    0.0000000000
     2        2       0.9455706747    0.0000000000
     2        3      -1.4369802113    0.0000000000
     3        1      -1.2955773843    0.0000000000
     3        2      -1.4369802113    0.0000000000
     3        3      10.0036350541    0.0000000000

 respfn : d/dk was computed, but no 2DTE, so no DDB output.

== END DATASET(S) ==============================================================

 -outvars: echo values of variables after computation  --------
            acell      1.0000000000E+00  1.0000000000E+00  1.0000000000E+00 Bohr
              amu      1.37327000E+02  1.18710000E+02  1.59994000E+01
             ecut      4.40000000E+01 Hartree
           etotal     -1.0389246668E+02
            fcart      0.0000000000E+00  0.0000000000E+00  0.0000000000E+00
                       0.0000000000E+00  0.0000000000E+00  0.0000000000E+00
                       0.0000000000E+00  0.0000000000E+00  0.0000000000E+00
                       0.0000000000E+00  0.0000000000E+00  0.0000000000E+00
                       0.0000000000E+00  0.0000000000E+00  0.0000000000E+00
                       0.0000000000E+00  0.0000000000E+00  0.0000000000E+00
                       0.0000000000E+00  0.0000000000E+00  0.0000000000E+00
-          fftalg         512
           irdden           1
           irdwfk           1
           istwfk        0    1
              ixc     -116133
              kpt     -1.53899593E-01  1.53899593E-01  1.53899593E-01
                       0.00000000E+00  0.00000000E+00  0.00000000E+00
           kptopt           0
P           mkmem           2
P          mkqmem           2
P          mk1mem           2
            natom           7
            nband          38
           nbdbuf           4
            ngfft          90      90      90
             nkpt           2
            nstep        2000
             nsym          16
           ntypat           3
              occ      2.000000  2.000000  2.000000  2.000000  2.000000  2.000000
                       2.000000  2.000000  2.000000  2.000000  2.000000  2.000000
                       2.000000  2.000000  2.000000  2.000000  2.000000  2.000000
                       2.000000  2.000000  2.000000  2.000000  2.000000  2.000000
                       2.000000  2.000000  2.000000  2.000000  2.000000  0.000000
                       0.000000  0.000000  0.000000  0.000000  0.000000  0.000000
                       0.000000  0.000000
        optdriver           1
            prtwf          -1
            rfdir           1       1       1
           rfelfd           2
            rprim      7.5308521776E+00  0.0000000000E+00 -1.1397835561E+01
                      -6.8015631120E-01  7.5000747938E+00 -1.1397835561E+01
                       0.0000000000E+00  0.0000000000E+00  1.3661053766E+01
          spgroup         139
           strten      0.0000000000E+00  0.0000000000E+00  0.0000000000E+00
                       0.0000000000E+00  0.0000000000E+00  0.0000000000E+00
           symrel      1  0  0   0  1  0   0  0  1      -1  0  0   0 -1  0   0  0 -1
                       0  0  1  -1 -1 -1   1  0  0       0  0 -1   1  1  1  -1  0  0
                       0  1  0   1  0  0  -1 -1 -1       0 -1  0  -1  0  0   1  1  1
                      -1 -1 -1   0  0  1   0  1  0       1  1  1   0  0 -1   0 -1  0
                       0  1  0   1  0  0   0  0  1       0 -1  0  -1  0  0   0  0 -1
                       0  0  1  -1 -1 -1   0  1  0       0  0 -1   1  1  1   0 -1  0
                       1  0  0   0  1  0  -1 -1 -1      -1  0  0   0 -1  0   1  1  1
                      -1 -1 -1   0  0  1   1  0  0       1  1  1   0  0 -1  -1  0  0
           tolwfr      1.00000000E-20
            typat      1  1  2  3  3  3  3
           useylm           1
              wtk        0.50000    0.50000
           xangst      2.3407652489E+00  2.5626468879E+00 -7.7888897465E+00
                       1.2844668665E+00  1.4062217557E+00 -4.2740598661E+00
                       0.0000000000E+00  0.0000000000E+00  0.0000000000E+00
                       3.0561685546E+00  3.3458634260E+00 -1.0169392223E+01
                       5.6906356086E-01  6.2300521759E-01 -1.8935573895E+00
                       1.9925776668E+00  0.0000000000E+00  5.9882174605E-01
                      -1.7996160908E-01  1.9844343218E+00  5.9882174605E-01
            xcart      4.4234052619E+00  4.8427007934E+00 -1.4718868500E+01
                       2.4272906045E+00  2.6573740004E+00 -8.0768026225E+00
                       0.0000000000E+00  0.0000000000E+00  0.0000000000E+00
                       5.7753215842E+00  6.3227655532E+00 -1.9217366239E+01
                       1.0753742822E+00  1.1773092406E+00 -3.5783048831E+00
                       3.7654260888E+00  0.0000000000E+00  1.1316091024E+00
                      -3.4007815560E-01  3.7500373969E+00  1.1316091024E+00
             xred      6.4568700000E-01  6.4568700000E-01  0.0000000000E+00
                       3.5431300000E-01  3.5431300000E-01  1.1102230246E-16
                       0.0000000000E+00  0.0000000000E+00  0.0000000000E+00
                       8.4302700000E-01  8.4302700000E-01  2.2204460493E-16
                       1.5697300000E-01  1.5697300000E-01  2.7755575616E-17
                       5.0000000000E-01  0.0000000000E+00  5.0000000000E-01
                       1.3877787808E-17  5.0000000000E-01  5.0000000000E-01
            znucl       56.00000   50.00000    8.00000

- Timing analysis has been suppressed with timopt=0

 Suggested references for the acknowledgment of ABINIT usage.

 Calculation completed.
.Delivered  14 WARNINGs and  15 COMMENTs to log file.