.Version 9.5.2 of ABINIT

 ABINIT is a project of the Universite Catholique de Louvain,
 Corning Inc. and other collaborators, see ~abinit/doc/developers/contributors.txt .
 acknowledgments of the ABINIT effort.

.Starting date : Wed 26 May 2021.
- ( at 03h10 )

- input  file    -> /scratch/users/j/a/jabreu/flow_simple_11atoms/flow/w288/t1/run.abi
- output file    -> /scratch/users/j/a/jabreu/flow_simple_11atoms/flow/w288/t1/run.abo
- root for input  files -> /scratch/users/j/a/jabreu/flow_simple_11atoms/flow/w288/t1/indata/in
- root for output files -> /scratch/users/j/a/jabreu/flow_simple_11atoms/flow/w288/t1/outdata/out

 Symmetries : space group P4_1 2_1 2 (# 92); Bravais tP (primitive tetrag.)
     intxc =       0      iscf =       7    lmnmax =      18     lnmax =       6
     mgfft =      72  mpssoang =       3    mqgrid =    3529     natom =      16
  nloc_mem =       1    nspden =       1   nspinor =       1    nsppol =       1
      nsym =       8    n1xccc =    2501    ntypat =       3    occopt =       1
   xclevel =       2
-    mband =          45        mffmem =           1         mkmem =           1
-   mkqmem =           1        mk1mem =           1           mpw =       15659
      nfft =      259200          nkpt =           1
  Rough estimation (10% accuracy) of disk space for files :

------------- Echo of variables that govern the present computation ------------
-
- outvars: echo of selected default values
-   iomode0 =  0 , fftalg0 =512 , wfoptalg0 =  0
-
- outvars: echo of global parameters not present in the input file
-  max_nthreads =    0
-
 -outvars: echo values of preprocessed input variables --------
            acell      1.0000000000E+00  1.0000000000E+00  1.0000000000E+00 Bohr
              amu      6.94100000E+00  2.69815390E+01  1.59994000E+01
             ecut      4.40000000E+01 Hartree
-          fftalg         512
           irdden           1
           irdwfk           1
           istwfk        1
              ixc     -116133
           kptopt           0
P           mkmem           1
P          mkqmem           1
P          mk1mem           1
            natom          16
            nband          45
           nbdbuf           4
            ngfft          60      60      72
             nkpt           1
            nstep        2000
             nsym           8
           ntypat           3
              occ      2.000000  2.000000  2.000000  2.000000  2.000000  2.000000
                       2.000000  2.000000  2.000000  2.000000  2.000000  2.000000
                       2.000000  2.000000  2.000000  2.000000  2.000000  2.000000
                       2.000000  2.000000  2.000000  2.000000  2.000000  2.000000
                       2.000000  2.000000  2.000000  2.000000  2.000000  2.000000
                       2.000000  2.000000  2.000000  2.000000  2.000000  2.000000
                       0.000000  0.000000  0.000000  0.000000  0.000000  0.000000
                       0.000000  0.000000  0.000000
        optdriver           1
            prtwf          -1
            rfdir           1       1       1
           rfelfd           2
            rprim      9.7644544087E+00  0.0000000000E+00  0.0000000000E+00
                       0.0000000000E+00  9.7644544087E+00  0.0000000000E+00
                       0.0000000000E+00  0.0000000000E+00  1.1816178496E+01
          spgroup          92
           symrel      1  0  0   0  1  0   0  0  1      -1  0  0   0  1  0   0  0 -1
                      -1  0  0   0 -1  0   0  0  1       1  0  0   0 -1  0   0  0 -1
                       0 -1  0  -1  0  0   0  0 -1       0  1  0  -1  0  0   0  0  1
                       0  1  0   1  0  0   0  0 -1       0 -1  0   1  0  0   0  0  1
            tnons      0.0000000  0.0000000  0.0000000     0.5000000  0.5000000  0.2500000
                      -0.0000000 -0.0000000  0.5000000     0.5000000  0.5000000 -0.2500000
                      -0.0000000 -0.0000000  0.5000000     0.5000000  0.5000000  0.2500000
                       0.0000000  0.0000000 -0.0000000     0.5000000  0.5000000 -0.2500000
           tolwfr      1.00000000E-20
            typat      1  1  1  1  2  2  2  2  3  3  3  3  3  3  3  3
           useylm           1
           xangst      3.5469689749E+00  1.6201577525E+00  1.5632130882E+00
                       9.6340561120E-01  9.6340561120E-01  3.1264261763E+00
                       1.6201577525E+00  3.5469689749E+00  4.6896392645E+00
                       4.2037211162E+00  4.2037211162E+00  0.0000000000E+00
                       4.2594692465E+00  4.2594692465E+00  3.1264261763E+00
                       3.4912208446E+00  1.6759058828E+00  4.6896392645E+00
                       1.6759058828E+00  3.4912208446E+00  1.5632130882E+00
                       9.0765748094E-01  9.0765748094E-01  0.0000000000E+00
                       1.5122578122E+00  1.7302898916E+00  1.4339666300E+00
                       8.5327347213E-01  4.0958211759E+00  2.9971797182E+00
                       4.0958211759E+00  8.5327347213E-01  3.2556726345E+00
                       4.3138532553E+00  1.0713055515E+00  6.1236058945E+00
                       1.0713055515E+00  4.3138532553E+00  1.2924645813E-01
                       3.4368368358E+00  3.6548689152E+00  1.6924595463E+00
                       1.7302898916E+00  1.5122578122E+00  4.8188857226E+00
                       3.6548689152E+00  3.4368368358E+00  4.5603928064E+00
            xcart      6.7027999644E+00  3.0616544443E+00  2.9540446240E+00
                       1.8205727600E+00  1.8205727600E+00  5.9080892479E+00
                       3.0616544443E+00  6.7027999644E+00  8.8621338719E+00
                       7.9438816487E+00  7.9438816487E+00  0.0000000000E+00
                       8.0492303473E+00  8.0492303473E+00  5.9080892479E+00
                       6.5974512658E+00  3.1670031429E+00  8.8621338719E+00
                       3.1670031429E+00  6.5974512658E+00  2.9540446240E+00
                       1.7152240614E+00  1.7152240614E+00  0.0000000000E+00
                       2.8577531073E+00  3.2697740256E+00  2.7098042145E+00
                       1.6124531788E+00  7.7399803117E+00  5.6638488384E+00
                       7.7399803117E+00  1.6124531788E+00  6.1523296575E+00
                       8.1520012299E+00  2.0244740970E+00  1.1571938086E+01
                       2.0244740970E+00  8.1520012299E+00  2.4424040951E-01
                       6.4946803831E+00  6.9067013014E+00  3.1982850335E+00
                       3.2697740256E+00  2.8577531073E+00  9.1063742814E+00
                       6.9067013014E+00  6.4946803831E+00  8.6178934624E+00
             xred      6.8644900000E-01  3.1355100000E-01  2.5000000000E-01
                       1.8644900000E-01  1.8644900000E-01  5.0000000000E-01
                       3.1355100000E-01  6.8644900000E-01  7.5000000000E-01
                       8.1355100000E-01  8.1355100000E-01  0.0000000000E+00
                       8.2434000000E-01  8.2434000000E-01  5.0000000000E-01
                       6.7566000000E-01  3.2434000000E-01  7.5000000000E-01
                       3.2434000000E-01  6.7566000000E-01  2.5000000000E-01
                       1.7566000000E-01  1.7566000000E-01  0.0000000000E+00
                       2.9266900000E-01  3.3486500000E-01  2.2933000000E-01
                       1.6513500000E-01  7.9266900000E-01  4.7933000000E-01
                       7.9266900000E-01  1.6513500000E-01  5.2067000000E-01
                       8.3486500000E-01  2.0733100000E-01  9.7933000000E-01
                       2.0733100000E-01  8.3486500000E-01  2.0670000000E-02
                       6.6513500000E-01  7.0733100000E-01  2.7067000000E-01
                       3.3486500000E-01  2.9266900000E-01  7.7067000000E-01
                       7.0733100000E-01  6.6513500000E-01  7.2933000000E-01
            znucl        3.00000   13.00000    8.00000

 chkinp: Checking input parameters for consistency.

== DATASET  1 ==================================================================
-   mpi_nproc: 1, omp_nthreads: -1 (-1 if OMP is not activated)

--- !DatasetInfo
iteration_state: {dtset: 1, }
dimensions: {natom: 16, nkpt: 1, mband: 45, nsppol: 1, nspinor: 1, nspden: 1, mpw: 15659, }
cutoff_energies: {ecut:  44.0, pawecutdg:  -1.0, }
electrons: {nelect:   7.20000000E+01, charge:   0.00000000E+00, occopt:   1.00000000E+00, tsmear:   1.00000000E-02, }
meta: {optdriver: 1, rfelfd: 2, }
...

 Real(R)+Recip(G) space primitive vectors, cartesian coordinates (Bohr,Bohr^-1):
 R(1)=  9.7644544  0.0000000  0.0000000  G(1)=  0.1024123  0.0000000  0.0000000
 R(2)=  0.0000000  9.7644544  0.0000000  G(2)=  0.0000000  0.1024123  0.0000000
 R(3)=  0.0000000  0.0000000 11.8161785  G(3)=  0.0000000  0.0000000  0.0846297
 Unit cell volume ucvol=  1.1266085E+03 bohr^3
 Angles (23,13,12)=  9.00000000E+01  9.00000000E+01  9.00000000E+01 degrees

 getcut: wavevector=  0.0000  0.0000  0.0000  ngfft=  60  60  72
         ecut(hartree)=     44.000   => boxcut(ratio)=   2.04063

--- Pseudopotential description ------------------------------------------------
- pspini: atom type   1  psp file is /scratch/users/j/a/jabreu/pseudos/PBEsol/Li.psp8
- pspatm: opening atomic psp file    /scratch/users/j/a/jabreu/pseudos/PBEsol/Li.psp8
- Li    ONCVPSP-3.3.0  r_core=   1.40824   1.10935
-  3.00000   3.00000    180112                znucl, zion, pspdat
    8 -116133    1    4       400   0.00000   pspcod,pspxc,lmax,lloc,mmax,r2well
    3.99000000000000    0.00000000000000    0.00000000000000   rchrg,fchrg,qchrg
     nproj     2     2
     extension_switch     1
  pspatm : epsatm=    2.60859637
         --- l  ekb(1:nproj) -->
             0   -4.855856   -1.482423
             1   -2.171544   -0.427615
 pspatm: atomic psp has been read  and splines computed

- pspini: atom type   2  psp file is /scratch/users/j/a/jabreu/pseudos/PBEsol/Al.psp8
- pspatm: opening atomic psp file    /scratch/users/j/a/jabreu/pseudos/PBEsol/Al.psp8
- Al    ONCVPSP-3.3.0  r_core=   1.76802   1.76802   1.70587
- 13.00000   3.00000    180112                znucl, zion, pspdat
    8 -116133    2    4       600   0.00000   pspcod,pspxc,lmax,lloc,mmax,r2well
    5.99000000000000    5.00000000000000    0.00000000000000   rchrg,fchrg,qchrg
     nproj     2     2     2
     extension_switch     1
  pspatm : epsatm=    0.68509324
         --- l  ekb(1:nproj) -->
             0    5.834965    0.726662
             1    6.225605    0.924840
             2   -2.432733   -0.548689
 pspatm: atomic psp has been read  and splines computed

- pspini: atom type   3  psp file is /scratch/users/j/a/jabreu/pseudos/PBEsol/O.psp8
- pspatm: opening atomic psp file    /scratch/users/j/a/jabreu/pseudos/PBEsol/O.psp8
- O     ONCVPSP-3.3.0  r_core=   1.35509   1.45563   1.26150
-  8.00000   6.00000    180112                znucl, zion, pspdat
    8 -116133    2    4       600   0.00000   pspcod,pspxc,lmax,lloc,mmax,r2well
    5.99000000000000    4.00000000000000    0.00000000000000   rchrg,fchrg,qchrg
     nproj     2     2     1
     extension_switch     1
  pspatm : epsatm=    6.22910522
         --- l  ekb(1:nproj) -->
[...]
 4,5,6: 1st-order hamiltonian combined with 1st and 0th-order wfs
     kin1=  -6.05694832E+01  Hartree=   0.00000000E+00     xc=   0.00000000E+00
 7,8,9: eventually, occupation + non-local contributions
    edocc=   4.73446016E+00     enl0=  -1.79804021E+00   enl1=  -9.53705339E-01
 1-9 gives the relaxation energy (to be shifted if some occ is /=2.0)
   erelax=  -3.07615943E+01
  No Ewald or frozen-wf contrib.: the relaxation energy is the total one
 2DEtotal=   -0.3076159427E+02 Ha. Also 2DEtotal=   -0.837065549951E+03 eV
    (  non-var. 2DEtotal :   -3.0761594275E+01 Ha)

 Perturbation wavevector (in red.coord.)   0.000000  0.000000  0.000000
 Perturbation : derivative vs k along direction   2
 The set of symmetries contains only one element for this perturbation.
 symkpt : not enough symmetry to change the number of k points.

[...]

 Perturbation wavevector (in red.coord.)   0.000000  0.000000  0.000000
 Perturbation : derivative vs k along direction   3
 The set of symmetries contains only one element for this perturbation.
 symkpt : not enough symmetry to change the number of k points.

 Initialisation of the first-order wave-functions :
  ireadwf=   0

--- !BeginCycle
iteration_state: {dtset: 1, }
solver: {iscf: 7, nstep: 2000, nline: 4, wfoptalg: 0, }
tolerances: {tolwfr: 1.00E-20, }
...

     iter   2DEtotal(Ha)        deltaE(Ha) residm    vres2
-ETOT  1  -21.445565551123     -2.145E+01 5.121E-02 0.000E+00
 ETOT  2  -21.464985488743     -1.942E-02 1.616E-03 0.000E+00
 ETOT  3  -21.465054408234     -6.892E-05 3.552E-04 0.000E+00
 ETOT  4  -21.465054962963     -5.547E-07 3.472E-05 0.000E+00
 ETOT  5  -21.465054968713     -5.750E-09 1.620E-05 0.000E+00
 ETOT  6  -21.465054968780     -6.628E-11 1.703E-06 0.000E+00
 ETOT  7  -21.465054968780     -7.745E-13 8.506E-07 0.000E+00
 ETOT  8  -21.465054968780     -7.105E-15 9.022E-08 0.000E+00
 ETOT  9  -21.465054968780     -2.132E-14 4.578E-08 0.000E+00
 ETOT 10  -21.465054968780     -7.105E-15 4.888E-09 0.000E+00
 ETOT 11  -21.465054968780      0.000E+00 2.488E-09 0.000E+00
 ETOT 12  -21.465054968780      3.553E-15 2.673E-10 0.000E+00
 ETOT 13  -21.465054968780     -1.066E-14 1.359E-10 0.000E+00
 ETOT 14  -21.465054968780      7.105E-15 1.470E-11 0.000E+00
 ETOT 15  -21.465054968780     -7.105E-15 7.458E-12 0.000E+00
 ETOT 16  -21.465054968780      7.105E-15 8.154E-13 0.000E+00
 ETOT 17  -21.465054968780      0.000E+00 4.108E-13 0.000E+00
 ETOT 18  -21.465054968780      7.105E-15 4.620E-14 0.000E+00
 ETOT 19  -21.465054968780     -7.105E-15 2.271E-14 0.000E+00
 ETOT 20  -21.465054968780      7.105E-15 2.637E-15 0.000E+00
 ETOT 21  -21.465054968780     -1.421E-14 1.261E-15 0.000E+00
 ETOT 22  -21.465054968780      0.000E+00 1.528E-16 0.000E+00
 ETOT 23  -21.465054968780      1.421E-14 7.014E-17 0.000E+00
 ETOT 24  -21.465054968780      0.000E+00 1.286E-17 0.000E+00
 ETOT 25  -21.465054968780      0.000E+00 4.950E-18 0.000E+00
 ETOT 26  -21.465054968780     -7.105E-15 1.270E-18 0.000E+00
 ETOT 27  -21.465054968780      3.553E-15 4.813E-19 0.000E+00
 ETOT 28  -21.465054968780     -7.105E-15 1.306E-19 0.000E+00
 ETOT 29  -21.465054968780      7.105E-15 4.690E-20 0.000E+00
 ETOT 30  -21.465054968780      0.000E+00 1.326E-20 0.000E+00
 ETOT 31  -21.465054968780      0.000E+00 8.727E-21 0.000E+00

 At SCF step   31   max residual=  8.73E-21 < tolwfr=  1.00E-20 =>converged.

 ----iterations are completed or convergence reached----

 dfpt_looppert: DFPT cycle converged with prtwf=-1. Will skip output of the 1st-order WFK file.
 dfpt_looppert : ek2=    4.0716284769E+01
          f-sum rule ratio=    1.0398317685E+00
 prteigrs : about to open file /scratch/users/j/a/jabreu/flow_simple_11atoms/flow/w288/t1/tmpdata/tmp_1WF1_EIG
 Expectation of eigenvalue derivatives (hartree) for nkpt=   1  k points:
  (in case of degenerate eigenvalues, averaged derivative)
 kpt#   1, nband= 45, wtk=  1.00000, kpt=  0.0000  0.0000  0.0000 (reduced coord)
   0.00000   -0.00000   -0.00000   -0.00000   -0.00000   -0.00000   -0.00000    0.00000
   0.00000    0.00000   -0.00000   -0.00000    0.00000   -0.00000    0.00000    0.00000
  -0.00000   -0.00000    0.00000   -0.00000    0.00000    0.00000    0.00000   -0.00000
  -0.00000   -0.00000    0.00000    0.00000    0.00000    0.00000    0.00000    0.00000
   0.00000   -0.00000   -0.00000    0.00000   -0.00000   -0.00000   -0.00000   -0.00000
  -0.00000    0.00000    0.00000    0.00011   -0.05704

 Eight components of 2nd-order total energy (hartree) are
 1,2,3: 0th-order hamiltonian combined with 1st-order wavefunctions
     kin0=   3.01177238E+01 eigvalue=   1.18621826E+00  local=  -1.16573612E+01
 4,5,6: 1st-order hamiltonian combined with 1st and 0th-order wfs
     kin1=  -4.23380864E+01  Hartree=   0.00000000E+00     xc=   0.00000000E+00
 7,8,9: eventually, occupation + non-local contributions
    edocc=   3.37913995E+00     enl0=  -1.56066588E+00   enl1=  -5.92023539E-01
 1-9 gives the relaxation energy (to be shifted if some occ is /=2.0)
   erelax=  -2.14650550E+01
  No Ewald or frozen-wf contrib.: the relaxation energy is the total one
 2DEtotal=   -0.2146505497E+02 Ha. Also 2DEtotal=   -0.584093850331E+03 eV
    (  non-var. 2DEtotal :   -2.1465054969E+01 Ha)

 CALCULATION OF EFFECTIVE MASSES
 NOTE : Additional infos (eff. mass eigenvalues, eigenvectors and, if degenerate, average mass) are available in stdout.

 K-point ( 0.000, 0.000, 0.000) | band =    36
 Effective mass tensor:
             -2.2132468756             -0.0000034012             -0.0000008915
             -0.0000034012             -2.2132432391             -0.0000008755
             -0.0000008915             -0.0000008755             -3.4735584181
 Effective mass tensor eigenvalues:
             -3.4735584181             -2.2132489140             -2.2132412006
 Angular average effective mass 1/(<1/m>)=  -2.5177507470
 Angular average effective mass for Frohlich model (<m**0.5>)**2=  -2.5491279333
 Effective masses along directions: (cart. coord. / red. coord. -> eff. mass)
    1:   1.000000  0.000000  0.000000 /   1.000000  0.000000  0.000000 ->  -2.2132468756
    2:   0.000000  1.000000  0.000000 /   0.000000  1.000000  0.000000 ->  -2.2132432391
    3:   0.000000  0.000000  1.000000 /   0.000000  0.000000  1.000000 ->  -3.4735584181
    4:   0.577350  0.577350  0.577350 /   0.537262  0.537262  0.650153 ->  -2.5177546527
    5:   0.000000  0.707107  0.707107 /   0.000000  0.637008  0.770857 ->  -2.7037454496
    6:   0.707107  0.000000  0.707107 /   0.637008  0.000000  0.770857 ->  -2.7037481782
    7:   0.707107  0.707107  0.000000 /   0.707107  0.707107  0.000000 ->  -2.2132484585

 K-point ( 0.000, 0.000, 0.000) | band =    37
 Effective mass tensor:
              0.4639284144             -0.0000001318              0.0000004709
             -0.0000001318              0.4639280862             -0.0000002123
              0.0000004709             -0.0000002123              0.5008348504
 Effective mass tensor eigenvalues:
              0.4639280398              0.4639284608              0.5008348504
 Angular average effective mass 1/(<1/m>)=   0.4756108638
 Angular average effective mass for Frohlich model (<m**0.5>)**2=   0.4757941585
 Effective masses along directions: (cart. coord. / red. coord. -> eff. mass)
    1:   1.000000  0.000000  0.000000 /   1.000000  0.000000  0.000000 ->   0.4639284144
    2:   0.000000  1.000000  0.000000 /   0.000000  1.000000  0.000000 ->   0.4639280862
    3:   0.000000  0.000000  1.000000 /   0.000000  0.000000  1.000000 ->   0.5008348504
    4:   0.577350  0.577350  0.577350 /   0.537262  0.537262  0.650153 ->   0.4756109393
    5:   0.000000  0.707107  0.707107 /   0.000000  0.637008  0.770857 ->   0.4816753268
    6:   0.707107  0.000000  0.707107 /   0.637008  0.000000  0.770857 ->   0.4816761859
    7:   0.707107  0.707107  0.000000 /   0.707107  0.707107  0.000000 ->   0.4639281185

 END OF EFFECTIVE MASSES SECTION

 ---- first-order wavefunction calculations are completed ----

 Total localisation tensor (bohr^2) in cartesian coordinates
  WARNING : still subject to testing - especially symmetries.
      direction              matrix element
   alpha     beta       real part   imaginary part
     1        1       0.6486527041    0.0000000000
     1        2       0.0000000000    0.0000000000
     1        3       0.0000000000    0.0000000000
     2        1       0.0000000000    0.0000000000
     2        2       0.6486554116    0.0000000000
     2        3       0.0000000000    0.0000000000
     3        1       0.0000000000    0.0000000000
     3        2       0.0000000000    0.0000000000
     3        3       0.6714870044    0.0000000000

 respfn : d/dk was computed, but no 2DTE, so no DDB output.

== END DATASET(S) ==============================================================

 -outvars: echo values of variables after computation  --------
            acell      1.0000000000E+00  1.0000000000E+00  1.0000000000E+00 Bohr
              amu      6.94100000E+00  2.69815390E+01  1.59994000E+01
             ecut      4.40000000E+01 Hartree
           etotal     -2.1465054969E+01
            fcart      0.0000000000E+00  0.0000000000E+00  0.0000000000E+00
                       0.0000000000E+00  0.0000000000E+00  0.0000000000E+00
                       0.0000000000E+00  0.0000000000E+00  0.0000000000E+00
                       0.0000000000E+00  0.0000000000E+00  0.0000000000E+00
                       0.0000000000E+00  0.0000000000E+00  0.0000000000E+00
                       0.0000000000E+00  0.0000000000E+00  0.0000000000E+00
                       0.0000000000E+00  0.0000000000E+00  0.0000000000E+00
                       0.0000000000E+00  0.0000000000E+00  0.0000000000E+00
                       0.0000000000E+00  0.0000000000E+00  0.0000000000E+00
                       0.0000000000E+00  0.0000000000E+00  0.0000000000E+00
                       0.0000000000E+00  0.0000000000E+00  0.0000000000E+00
                       0.0000000000E+00  0.0000000000E+00  0.0000000000E+00
                       0.0000000000E+00  0.0000000000E+00  0.0000000000E+00
                       0.0000000000E+00  0.0000000000E+00  0.0000000000E+00
                       0.0000000000E+00  0.0000000000E+00  0.0000000000E+00
                       0.0000000000E+00  0.0000000000E+00  0.0000000000E+00
-          fftalg         512
           irdden           1
           irdwfk           1
           istwfk        1
              ixc     -116133
           kptopt           0
P           mkmem           1
P          mkqmem           1
P          mk1mem           1
            natom          16
            nband          45
           nbdbuf           4
            ngfft          60      60      72
             nkpt           1
            nstep        2000
             nsym           8
           ntypat           3
              occ      2.000000  2.000000  2.000000  2.000000  2.000000  2.000000
                       2.000000  2.000000  2.000000  2.000000  2.000000  2.000000
                       2.000000  2.000000  2.000000  2.000000  2.000000  2.000000
                       2.000000  2.000000  2.000000  2.000000  2.000000  2.000000
                       2.000000  2.000000  2.000000  2.000000  2.000000  2.000000
                       2.000000  2.000000  2.000000  2.000000  2.000000  2.000000
                       0.000000  0.000000  0.000000  0.000000  0.000000  0.000000
                       0.000000  0.000000  0.000000
        optdriver           1
            prtwf          -1
            rfdir           1       1       1
           rfelfd           2
            rprim      9.7644544087E+00  0.0000000000E+00  0.0000000000E+00
                       0.0000000000E+00  9.7644544087E+00  0.0000000000E+00
                       0.0000000000E+00  0.0000000000E+00  1.1816178496E+01
          spgroup          92
           strten      0.0000000000E+00  0.0000000000E+00  0.0000000000E+00
                       0.0000000000E+00  0.0000000000E+00  0.0000000000E+00
           symrel      1  0  0   0  1  0   0  0  1      -1  0  0   0  1  0   0  0 -1
                      -1  0  0   0 -1  0   0  0  1       1  0  0   0 -1  0   0  0 -1
                       0 -1  0  -1  0  0   0  0 -1       0  1  0  -1  0  0   0  0  1
                       0  1  0   1  0  0   0  0 -1       0 -1  0   1  0  0   0  0  1
            tnons      0.0000000  0.0000000  0.0000000     0.5000000  0.5000000  0.2500000
                      -0.0000000 -0.0000000  0.5000000     0.5000000  0.5000000 -0.2500000
                      -0.0000000 -0.0000000  0.5000000     0.5000000  0.5000000  0.2500000
                       0.0000000  0.0000000 -0.0000000     0.5000000  0.5000000 -0.2500000
           tolwfr      1.00000000E-20
            typat      1  1  1  1  2  2  2  2  3  3  3  3  3  3  3  3
           useylm           1
           xangst      3.5469689749E+00  1.6201577525E+00  1.5632130882E+00
                       9.6340561120E-01  9.6340561120E-01  3.1264261763E+00
                       1.6201577525E+00  3.5469689749E+00  4.6896392645E+00
                       4.2037211162E+00  4.2037211162E+00  0.0000000000E+00
                       4.2594692465E+00  4.2594692465E+00  3.1264261763E+00
                       3.4912208446E+00  1.6759058828E+00  4.6896392645E+00
                       1.6759058828E+00  3.4912208446E+00  1.5632130882E+00
                       9.0765748094E-01  9.0765748094E-01  0.0000000000E+00
                       1.5122578122E+00  1.7302898916E+00  1.4339666300E+00
                       8.5327347213E-01  4.0958211759E+00  2.9971797182E+00
                       4.0958211759E+00  8.5327347213E-01  3.2556726345E+00
                       4.3138532553E+00  1.0713055515E+00  6.1236058945E+00
                       1.0713055515E+00  4.3138532553E+00  1.2924645813E-01
                       3.4368368358E+00  3.6548689152E+00  1.6924595463E+00
                       1.7302898916E+00  1.5122578122E+00  4.8188857226E+00
                       3.6548689152E+00  3.4368368358E+00  4.5603928064E+00
            xcart      6.7027999644E+00  3.0616544443E+00  2.9540446240E+00
                       1.8205727600E+00  1.8205727600E+00  5.9080892479E+00
                       3.0616544443E+00  6.7027999644E+00  8.8621338719E+00
                       7.9438816487E+00  7.9438816487E+00  0.0000000000E+00
                       8.0492303473E+00  8.0492303473E+00  5.9080892479E+00
                       6.5974512658E+00  3.1670031429E+00  8.8621338719E+00
                       3.1670031429E+00  6.5974512658E+00  2.9540446240E+00
                       1.7152240614E+00  1.7152240614E+00  0.0000000000E+00
                       2.8577531073E+00  3.2697740256E+00  2.7098042145E+00
                       1.6124531788E+00  7.7399803117E+00  5.6638488384E+00
                       7.7399803117E+00  1.6124531788E+00  6.1523296575E+00
                       8.1520012299E+00  2.0244740970E+00  1.1571938086E+01
                       2.0244740970E+00  8.1520012299E+00  2.4424040951E-01
                       6.4946803831E+00  6.9067013014E+00  3.1982850335E+00
                       3.2697740256E+00  2.8577531073E+00  9.1063742814E+00
                       6.9067013014E+00  6.4946803831E+00  8.6178934624E+00
             xred      6.8644900000E-01  3.1355100000E-01  2.5000000000E-01
                       1.8644900000E-01  1.8644900000E-01  5.0000000000E-01
                       3.1355100000E-01  6.8644900000E-01  7.5000000000E-01
                       8.1355100000E-01  8.1355100000E-01  0.0000000000E+00
                       8.2434000000E-01  8.2434000000E-01  5.0000000000E-01
                       6.7566000000E-01  3.2434000000E-01  7.5000000000E-01
                       3.2434000000E-01  6.7566000000E-01  2.5000000000E-01
                       1.7566000000E-01  1.7566000000E-01  0.0000000000E+00
                       2.9266900000E-01  3.3486500000E-01  2.2933000000E-01
                       1.6513500000E-01  7.9266900000E-01  4.7933000000E-01
                       7.9266900000E-01  1.6513500000E-01  5.2067000000E-01
                       8.3486500000E-01  2.0733100000E-01  9.7933000000E-01
                       2.0733100000E-01  8.3486500000E-01  2.0670000000E-02
                       6.6513500000E-01  7.0733100000E-01  2.7067000000E-01
                       3.3486500000E-01  2.9266900000E-01  7.7067000000E-01
                       7.0733100000E-01  6.6513500000E-01  7.2933000000E-01
            znucl        3.00000   13.00000    8.00000

- Timing analysis has been suppressed with timopt=0

 Suggested references for the acknowledgment of ABINIT usage.

 Calculation completed.
.Delivered   2 WARNINGs and   5 COMMENTs to log file.