.Version 9.5.1 of ABINIT

 ABINIT is a project of the Universite Catholique de Louvain,
 Corning Inc. and other collaborators, see ~abinit/doc/developers/contributors.txt .
 acknowledgments of the ABINIT effort.

.Starting date : Tue 11 May 2021.
- ( at 22h01 )

- input  file    -> /scratch/users/j/a/jabreu/flow_simple_8atoms/flow/w382/t1/run.abi
- output file    -> /scratch/users/j/a/jabreu/flow_simple_8atoms/flow/w382/t1/run.abo
- root for input  files -> /scratch/users/j/a/jabreu/flow_simple_8atoms/flow/w382/t1/indata/in
- root for output files -> /scratch/users/j/a/jabreu/flow_simple_8atoms/flow/w382/t1/outdata/out

 Symmetries : space group I-4 2 d (#122); Bravais tI (body-center tetrag.)
     intxc =       0      iscf =       7    lmnmax =      18     lnmax =       6
     mgfft =      75  mpssoang =       3    mqgrid =    3001     natom =       8
  nloc_mem =       1    nspden =       1   nspinor =       1    nsppol =       1
      nsym =       8    n1xccc =    2501    ntypat =       3    occopt =       1
   xclevel =       2
-    mband =          53        mffmem =           1         mkmem =           2
-   mkqmem =           2        mk1mem =           2           mpw =       13821
      nfft =      421875          nkpt =           2
  Rough estimation (10% accuracy) of disk space for files :

------------- Echo of variables that govern the present computation ------------
-
- outvars: echo of selected default values
-   iomode0 =  0 , fftalg0 =512 , wfoptalg0 =  0
-
- outvars: echo of global parameters not present in the input file
-  max_nthreads =    0
-
 -outvars: echo values of preprocessed input variables --------
            acell      1.0000000000E+00  1.0000000000E+00  1.0000000000E+00 Bohr
              amu      6.53900000E+01  7.26100000E+01  3.09737620E+01
             ecut      4.20000000E+01 Hartree
-          fftalg         512
           irdden           1
           irdwfk           1
           istwfk        1    0
              ixc     -116133
              kpt      0.00000000E+00  0.00000000E+00  0.00000000E+00
                       4.42805872E-01  5.57194128E-01 -4.42805872E-01
           kptopt           0
P           mkmem           2
P          mkqmem           2
P          mk1mem           2
            natom           8
            nband          53
           nbdbuf           4
            ngfft          75      75      75
             nkpt           2
            nstep        2000
             nsym           8
           ntypat           3
              occ      2.000000  2.000000  2.000000  2.000000  2.000000  2.000000
                       2.000000  2.000000  2.000000  2.000000  2.000000  2.000000
                       2.000000  2.000000  2.000000  2.000000  2.000000  2.000000
                       2.000000  2.000000  2.000000  2.000000  2.000000  2.000000
                       2.000000  2.000000  2.000000  2.000000  2.000000  2.000000
                       2.000000  2.000000  2.000000  2.000000  2.000000  2.000000
                       2.000000  2.000000  2.000000  2.000000  2.000000  2.000000
                       2.000000  2.000000  0.000000  0.000000  0.000000  0.000000
                       0.000000  0.000000  0.000000  0.000000  0.000000
        optdriver           1
            prtwf          -1
            rfdir           1       1       1
           rfelfd           2
            rprim      9.3375330604E+00  0.0000000000E+00 -8.2243456452E+00
                      -1.9060098198E+00  9.1409326778E+00 -8.2243456452E+00
                       0.0000000000E+00  0.0000000000E+00  1.2443045646E+01
          spgroup         122
           symrel      1  0  0   0  1  0   0  0  1       0  0  1  -1 -1 -1   1  0  0
                       0  1  0   1  0  0  -1 -1 -1      -1 -1 -1   0  0  1   0  1  0
                       0  1  0   1  0  0   0  0  1       0  0  1  -1 -1 -1   0  1  0
                       1  0  0   0  1  0  -1 -1 -1      -1 -1 -1   0  0  1   1  0  0
            tnons      0.0000000  0.0000000  0.0000000    -0.2500000  0.2500000  0.5000000
                       0.0000000  0.0000000  0.0000000    -0.2500000  0.2500000  0.5000000
                      -0.2500000  0.2500000  0.5000000     0.0000000  0.0000000  0.0000000
                      -0.2500000  0.2500000  0.5000000     0.0000000  0.0000000  0.0000000
           tolwfr      1.00000000E-20
            typat      1  1  2  2  3  3  3  3
           useylm           1
              wtk        0.50000    0.50000
           xangst      0.0000000000E+00  0.0000000000E+00  0.0000000000E+00
                       3.4537530210E+00  1.2092933096E+00 -1.0598481904E+00
                       1.9662963620E+00  2.4185866192E+00 -4.3521362710E+00
                       4.7883970301E-01  3.6278799288E+00 -1.0598481904E+00
                      -5.3966911146E-03  3.0232332740E+00 -3.2607870300E+00
                       1.4732244753E+00  1.8211231666E+00  3.1501050583E-02
                       3.4425164297E+00  4.2253433813E+00 -4.3272655669E+00
                       2.9548412341E+00  6.0464665479E-01  3.3171587847E+00
            xcart      0.0000000000E+00  0.0000000000E+00  0.0000000000E+00
                       6.5266473404E+00  2.2852331695E+00 -2.0028228223E+00
                       3.7157616203E+00  4.5704663389E+00 -8.2243456452E+00
                       9.0487590025E-01  6.8556995083E+00 -2.0028228223E+00
                      -1.0198268230E-02  5.7130829236E+00 -6.1619944644E+00
                       2.7839907906E+00  3.4414240392E+00  5.9528358501E-02
                       6.5054132601E+00  7.9847418080E+00 -8.1773468257E+00
                       5.5838406987E+00  1.1426165847E+00  6.2685216424E+00
             xred      0.0000000000E+00  0.0000000000E+00  0.0000000000E+00
                       7.5000000000E-01  2.5000000000E-01  5.0000000000E-01
                       5.0000000000E-01  5.0000000000E-01 -5.5511151231E-17
                       2.5000000000E-01  7.5000000000E-01  5.0000000000E-01
                       1.2648500000E-01  6.2500000000E-01  1.4850000000E-03
                       3.7500000000E-01  3.7648500000E-01  5.0148500000E-01
                       8.7500000000E-01  8.7351500000E-01  4.9851500000E-01
                       6.2351500000E-01  1.2500000000E-01  9.9851500000E-01
            znucl       30.00000   32.00000   15.00000

 chkinp: Checking input parameters for consistency.

== DATASET  1 ==================================================================
-   mpi_nproc: 1, omp_nthreads: -1 (-1 if OMP is not activated)

--- !DatasetInfo
iteration_state: {dtset: 1, }
dimensions: {natom: 8, nkpt: 2, mband: 53, nsppol: 1, nspinor: 1, nspden: 1, mpw: 13821, }
cutoff_energies: {ecut:  42.0, pawecutdg:  -1.0, }
electrons: {nelect:   8.80000000E+01, charge:   0.00000000E+00, occopt:   1.00000000E+00, tsmear:   1.00000000E-02, }
meta: {optdriver: 1, rfelfd: 2, }
...

 Real(R)+Recip(G) space primitive vectors, cartesian coordinates (Bohr,Bohr^-1):
 R(1)=  9.3375331  0.0000000 -8.2243456  G(1)=  0.1070947  0.0223307  0.0000000
 R(2)= -1.9060098  9.1409327 -8.2243456  G(2)=  0.0000000  0.1093980  0.0000000
 R(3)=  0.0000000  0.0000000 12.4430456  G(3)=  0.0707852  0.0870673  0.0803662
 Unit cell volume ucvol=  1.0620607E+03 bohr^3
 Angles (23,13,12)=  1.31373069E+02  1.31373069E+02  7.12210172E+01 degrees

 getcut: wavevector=  0.0000  0.0000  0.0000  ngfft=  75  75  75
         ecut(hartree)=     42.000   => boxcut(ratio)=   2.03908

--- Pseudopotential description ------------------------------------------------
- pspini: atom type   1  psp file is /scratch/users/j/a/jabreu/pseudos/PBEsol/Zn.psp8
- pspatm: opening atomic psp file    /scratch/users/j/a/jabreu/pseudos/PBEsol/Zn.psp8
- Zn    ONCVPSP-3.3.0  r_core=   1.35823   1.66358   1.85211
- 30.00000  20.00000    180112                znucl, zion, pspdat
    8 -116133    2    4       600   0.00000   pspcod,pspxc,lmax,lloc,mmax,r2well
    5.99000000000000    2.50000000000000    0.00000000000000   rchrg,fchrg,qchrg
     nproj     2     2     2
     extension_switch     1
  pspatm : epsatm=   26.57343589
         --- l  ekb(1:nproj) -->
             0    2.830835   -1.519107
             1   -4.626739   -1.324150
             2   -6.948510   -2.555500
 pspatm: atomic psp has been read  and splines computed

- pspini: atom type   2  psp file is /scratch/users/j/a/jabreu/pseudos/PBEsol/Ge.psp8
- pspatm: opening atomic psp file    /scratch/users/j/a/jabreu/pseudos/PBEsol/Ge.psp8
- Ge    ONCVPSP-3.3.0  r_core=   1.91022   1.82122   1.91022
- 32.00000  14.00000    180112                znucl, zion, pspdat
    8 -116133    2    4       600   0.00000   pspcod,pspxc,lmax,lloc,mmax,r2well
    5.99000000000000    5.00000000000000    0.00000000000000   rchrg,fchrg,qchrg
     nproj     2     2     2
     extension_switch     1
  pspatm : epsatm=   30.86751540
         --- l  ekb(1:nproj) -->
             0    6.339734    0.583066
             1    3.813259    0.738801
             2   -9.332373   -3.602819
 pspatm: atomic psp has been read  and splines computed

- pspini: atom type   3  psp file is /scratch/users/j/a/jabreu/pseudos/PBEsol/P.psp8
- pspatm: opening atomic psp file    /scratch/users/j/a/jabreu/pseudos/PBEsol/P.psp8
- P     ONCVPSP-3.3.0  r_core=   1.46089   1.55067   1.70594
- 15.00000   5.00000    180112                znucl, zion, pspdat
    8 -116133    2    4       600   0.00000   pspcod,pspxc,lmax,lloc,mmax,r2well
    5.99000000000000    5.00000000000000    0.00000000000000   rchrg,fchrg,qchrg
     nproj     2     2     2
     extension_switch     1
  pspatm : epsatm=    7.31221086
         --- l  ekb(1:nproj) -->
             0    6.742364    1.063650
             1    3.449117    0.910422
             2   -3.077645   -0.799176
 pspatm: atomic psp has been read  and splines computed

   1.26835056E+04                                ecore*ucvol(ha*bohr**3)

-inwffil : will read wavefunctions from disk file /scratch/users/j/a/jabreu/flow_simple_8atoms/flow/w382/t1/indata/in_WFK

 ==>  initialize data related to q vector <==

 The list of irreducible perturbations for this q vector is:
    1)    idir= 1    ipert=   9
    2)    idir= 2    ipert=   9
    3)    idir= 3    ipert=   9

 Perturbation wavevector (in red.coord.)   0.000000  0.000000  0.000000
 Perturbation : derivative vs k along direction   1

 dfpt_looppert : COMMENT -
  In a d/dk calculation, iscf is set to -3 automatically.
 The set of symmetries contains only one element for this perturbation.
 symkpt : not enough symmetry to change the number of k points.

[...]

 Initialisation of the first-order wave-functions :
  ireadwf=   0

--- !BeginCycle
iteration_state: {dtset: 1, }
solver: {iscf: 7, nstep: 2000, nline: 4, wfoptalg: 0, }
tolerances: {tolwfr: 1.00E-20, }
...

     iter   2DEtotal(Ha)        deltaE(Ha) residm    vres2
-ETOT  1  -75.209229728975     -7.521E+01 4.706E-02 0.000E+00
 ETOT  2  -75.293196345635     -8.397E-02 9.681E-03 0.000E+00
 ETOT  3  -75.294184813028     -9.885E-04 3.065E-04 0.000E+00
 ETOT  4  -75.294208925218     -2.411E-05 9.460E-05 0.000E+00
 ETOT  5  -75.294209649612     -7.244E-07 4.108E-06 0.000E+00
[...]
 ETOT  8  -75.294209675036     -3.408E-11 2.178E-08 0.000E+00
 ETOT  9  -75.294209675038     -1.336E-12 1.028E-09 0.000E+00
 ETOT 10  -75.294209675038      1.421E-14 3.462E-10 0.000E+00
 ETOT 11  -75.294209675038      4.263E-14 1.743E-11 0.000E+00
 ETOT 12  -75.294209675038     -1.421E-14 5.586E-12 0.000E+00
 ETOT 13  -75.294209675038      1.421E-14 2.991E-13 0.000E+00
 ETOT 14  -75.294209675038      2.842E-14 9.683E-14 0.000E+00
 ETOT 15  -75.294209675038      0.000E+00 5.187E-15 0.000E+00
 ETOT 16  -75.294209675038      0.000E+00 1.699E-15 0.000E+00
 ETOT 17  -75.294209675038      0.000E+00 9.081E-17 0.000E+00
 ETOT 18  -75.294209675038      0.000E+00 3.012E-17 0.000E+00
 ETOT 19  -75.294209675038      0.000E+00 1.603E-18 0.000E+00
 ETOT 20  -75.294209675038      0.000E+00 5.392E-19 0.000E+00
 ETOT 21  -75.294209675038      0.000E+00 2.852E-20 0.000E+00
 ETOT 22  -75.294209675038      0.000E+00 9.878E-21 0.000E+00

 At SCF step   22   max residual=  9.88E-21 < tolwfr=  1.00E-20 =>converged.

 ----iterations are completed or convergence reached----

 dfpt_looppert: DFPT cycle converged with prtwf=-1. Will skip output of the 1st-order WFK file.
 dfpt_looppert : ek2=    8.3155577444E+01
          f-sum rule ratio=    1.2065488438E+00
 prteigrs : about to open file /scratch/users/j/a/jabreu/flow_simple_8atoms/flow/w382/t1/tmpdata/tmp_1WF1_EIG
 Expectation of eigenvalue derivatives (hartree) for nkpt=   2  k points:
  (in case of degenerate eigenvalues, averaged derivative)
 kpt#   1, nband= 53, wtk=  0.50000, kpt=  0.0000  0.0000  0.0000 (reduced coord)
   0.00000   -0.00000    0.00000    0.00000   -0.00000   -0.00000    0.00000    0.00000
  -0.00000    0.00000    0.00000   -0.00000   -0.00000   -0.00000    0.00000    0.00000
  -0.00000   -0.00000    0.00000   -0.00000   -0.00000   -0.00000    0.00000   -0.00000
   0.00000    0.00000    0.00000    0.00000   -0.00000    0.00000   -0.00000    0.00000
   0.00000    0.00000   -0.00000    0.00000    0.00000    0.00000    0.00000   -0.00000
  -0.00000    0.00000    0.00000    0.00000   -0.00000   -0.00000    0.00000    0.00000
   0.00000    0.00000    0.00000   -0.00448   -0.00005
 prteigrs : prtvol=0 or 1, do not print more k-points.

 Eight components of 2nd-order total energy (hartree) are
 1,2,3: 0th-order hamiltonian combined with 1st-order wavefunctions
     kin0=   7.67600752E+01 eigvalue=   4.33223823E+00  local=  -2.77603056E+01
 4,5,6: 1st-order hamiltonian combined with 1st and 0th-order wfs
     kin1=  -1.00331266E+02  Hartree=   0.00000000E+00     xc=   0.00000000E+00
 7,8,9: eventually, occupation + non-local contributions
    edocc=   1.95093451E+01     enl0=   2.45285674E+00   enl1=  -5.02571535E+01
 1-9 gives the relaxation energy (to be shifted if some occ is /=2.0)
   erelax=  -7.52942097E+01
  No Ewald or frozen-wf contrib.: the relaxation energy is the total one
 2DEtotal=   -0.7529420968E+02 Ha. Also 2DEtotal=   -0.204885964190E+04 eV
    (  non-var. 2DEtotal :   -7.5294209675E+01 Ha)

 Perturbation wavevector (in red.coord.)   0.000000  0.000000  0.000000
 Perturbation : derivative vs k along direction   2
 The set of symmetries contains only one element for this perturbation.
 symkpt : not enough symmetry to change the number of k points.

[...]

 Perturbation wavevector (in red.coord.)   0.000000  0.000000  0.000000
 Perturbation : derivative vs k along direction   3
 The set of symmetries contains only one element for this perturbation.
 symkpt : not enough symmetry to change the number of k points.

-inwffil : will read wavefunctions from disk file /scratch/users/j/a/jabreu/flow_simple_8atoms/flow/w382/t1/indata/in_WFK

 Initialisation of the first-order wave-functions :
  ireadwf=   0

--- !BeginCycle
iteration_state: {dtset: 1, }
solver: {iscf: 7, nstep: 2000, nline: 4, wfoptalg: 0, }
tolerances: {tolwfr: 1.00E-20, }
...

     iter   2DEtotal(Ha)        deltaE(Ha) residm    vres2
-ETOT  1  -120.18231490565     -1.202E+02 9.420E-02 0.000E+00
 ETOT  2  -120.30828697465     -1.260E-01 5.662E-03 0.000E+00
 ETOT  3  -120.30971040041     -1.423E-03 5.716E-04 0.000E+00
 ETOT  4  -120.30974447586     -3.408E-05 3.367E-05 0.000E+00
 ETOT  5  -120.30974545395     -9.781E-07 4.706E-06 0.000E+00
 ETOT  6  -120.30974548501     -3.106E-08 3.270E-07 0.000E+00
 ETOT  7  -120.30974548608     -1.061E-09 4.880E-08 0.000E+00
 ETOT  8  -120.30974548611     -3.769E-11 6.379E-09 0.000E+00
 ETOT  9  -120.30974548611     -1.563E-12 5.571E-10 0.000E+00
 ETOT 10  -120.30974548611     -1.421E-14 1.250E-10 0.000E+00
 ETOT 11  -120.30974548611      1.421E-14 1.058E-11 0.000E+00
 ETOT 12  -120.30974548611     -8.527E-14 2.492E-12 0.000E+00
 ETOT 13  -120.30974548611      8.527E-14 2.123E-13 0.000E+00
 ETOT 14  -120.30974548611     -1.421E-14 5.031E-14 0.000E+00
 ETOT 15  -120.30974548611     -4.263E-14 4.296E-15 0.000E+00
 ETOT 16  -120.30974548611      0.000E+00 1.027E-15 0.000E+00
 ETOT 17  -120.30974548611      2.842E-14 8.767E-17 0.000E+00
 ETOT 18  -120.30974548611      0.000E+00 2.118E-17 0.000E+00
 ETOT 19  -120.30974548611     -5.684E-14 1.805E-18 0.000E+00
 ETOT 20  -120.30974548611      1.421E-14 4.414E-19 0.000E+00
 ETOT 21  -120.30974548611      4.263E-14 3.750E-20 0.000E+00
 ETOT 22  -120.30974548611     -2.842E-14 9.953E-21 0.000E+00

 At SCF step   22   max residual=  9.95E-21 < tolwfr=  1.00E-20 =>converged.

 ----iterations are completed or convergence reached----

 dfpt_looppert: DFPT cycle converged with prtwf=-1. Will skip output of the 1st-order WFK file.
 dfpt_looppert : ek2=    1.3236314185E+02
          f-sum rule ratio=    1.2139790578E+00
 prteigrs : about to open file /scratch/users/j/a/jabreu/flow_simple_8atoms/flow/w382/t1/tmpdata/tmp_1WF1_EIG
 Expectation of eigenvalue derivatives (hartree) for nkpt=   2  k points:
  (in case of degenerate eigenvalues, averaged derivative)
 kpt#   1, nband= 53, wtk=  0.50000, kpt=  0.0000  0.0000  0.0000 (reduced coord)
  -0.00000    0.00000    0.00000    0.00000   -0.00000   -0.00000   -0.00000   -0.00000
  -0.00000    0.00000    0.00000   -0.00000   -0.00000   -0.00000   -0.00000    0.00000
  -0.00000   -0.00000    0.00000   -0.00000   -0.00000   -0.00000    0.00000   -0.00000
   0.00000   -0.00000   -0.00000    0.00000   -0.00000   -0.00000   -0.00000    0.00000
   0.00000    0.00000    0.00000    0.00000    0.00000   -0.00000   -0.00000   -0.00000
  -0.00000    0.00000    0.00000    0.00000   -0.00000   -0.00000    0.00000    0.00000
   0.00000   -0.00000    0.00000   -0.00105   -0.00004
 prteigrs : prtvol=0 or 1, do not print more k-points.

 Eight components of 2nd-order total energy (hartree) are
 1,2,3: 0th-order hamiltonian combined with 1st-order wavefunctions
     kin0=   1.21526930E+02 eigvalue=   6.95262323E+00  local=  -4.36445053E+01
 4,5,6: 1st-order hamiltonian combined with 1st and 0th-order wfs
     kin1=  -1.60686082E+02  Hartree=   0.00000000E+00     xc=   0.00000000E+00
 7,8,9: eventually, occupation + non-local contributions
    edocc=   3.17165654E+01     enl0=   3.75813199E+00   enl1=  -7.99334087E+01
 1-9 gives the relaxation energy (to be shifted if some occ is /=2.0)
   erelax=  -1.20309745E+02
  No Ewald or frozen-wf contrib.: the relaxation energy is the total one
 2DEtotal=   -0.1203097455E+03 Ha. Also 2DEtotal=   -0.327379466652E+04 eV
    (  non-var. 2DEtotal :   -1.2030974549E+02 Ha)

 CALCULATION OF EFFECTIVE MASSES
 NOTE : Additional infos (eff. mass eigenvalues, eigenvectors and, if degenerate, average mass) are available in stdout.

 K-point ( 0.000, 0.000, 0.000) | band =    44
 Effective mass tensor:
             -0.3002489341              0.0392016585             -0.0705401324
              0.0392016585             -0.2839008573             -0.0867664603
             -0.0705401324             -0.0867664603             -0.1759845797
 Effective mass tensor eigenvalues:
             -0.3321197139             -0.3321176829             -0.0958969742
 Angular average effective mass 1/(<1/m>)=  -0.1823730260
 Angular average effective mass for Frohlich model (<m**0.5>)**2=  -0.2048767464
 Effective masses along directions: (cart. coord. / red. coord. -> eff. mass)
    1:   1.000000  0.000000  0.000000 /   0.979796 -0.199999  0.000000 ->  -0.2492757893
    2:   0.000000  1.000000  0.000000 /   0.000000  1.000000  0.000000 ->  -0.2209984221
    3:   0.000000  0.000000  1.000000 /  -0.482859 -0.482859  0.730543 ->  -0.1263701548
    4:   0.577350  0.577350  0.577350 /   0.088829 -0.078953  0.992913 ->  -0.3321075050
    5:   0.000000  0.707107  0.707107 /  -0.550361  0.061337  0.832671 ->  -0.2861400576
    6:   0.707107  0.000000  0.707107 /   0.069211 -0.629843  0.773632 ->  -0.2668364547
    7:   0.707107  0.707107  0.000000 /   0.790483  0.612484  0.000000 ->  -0.1818477941

 K-point ( 0.443, 0.557,-0.443) | band =    45
 Effective mass tensor:
              0.2867804793             -0.1115179238             -0.0580239696
             -0.1115179238              0.8129136215              0.2467097571
             -0.0580239696              0.2467097571              0.3889142906
 Effective mass tensor eigenvalues:
              0.2605517842              0.2780858663              0.9499707411
 Angular average effective mass 1/(<1/m>)=   0.3534949475
 Angular average effective mass for Frohlich model (<m**0.5>)**2=   0.3826972147
 Effective masses along directions: (cart. coord. / red. coord. -> eff. mass)
    1:   1.000000  0.000000  0.000000 /   0.979796 -0.199999  0.000000 ->   0.2696204081
    2:   0.000000  1.000000  0.000000 /   0.000000  1.000000  0.000000 ->   0.6363432492
    3:   0.000000  0.000000  1.000000 /  -0.482859 -0.482859  0.730543 ->   0.3118872130
    4:   0.577350  0.577350  0.577350 /   0.088829 -0.078953  0.992913 ->   0.3733991615
    5:   0.000000  0.707107  0.707107 /  -0.550361  0.061337  0.832671 ->   0.6872910786
    6:   0.707107  0.000000  0.707107 /   0.069211 -0.629843  0.773632 ->   0.2671531694
    7:   0.707107  0.707107  0.000000 /   0.790483  0.612484  0.000000 ->   0.3265484918

 END OF EFFECTIVE MASSES SECTION

 ---- first-order wavefunction calculations are completed ----

 Total localisation tensor (bohr^2) in cartesian coordinates
  WARNING : still subject to testing - especially symmetries.
      direction              matrix element
   alpha     beta       real part   imaginary part
     1        1       2.5819449055    0.0000000000
     1        2      -0.4786677808    0.0000000000
     1        3      -1.7555542716    0.0000000000
     2        1      -0.4786677808    0.0000000000
     2        2       2.2956177425    0.0000000000
     2        3      -2.0654296940    0.0000000000
     3        1      -1.7555542716    0.0000000000
     3        2      -2.0654296940    0.0000000000
     3        3      10.7668022467    0.0000000000

 respfn : d/dk was computed, but no 2DTE, so no DDB output.

== END DATASET(S) ==============================================================

 -outvars: echo values of variables after computation  --------
            acell      1.0000000000E+00  1.0000000000E+00  1.0000000000E+00 Bohr
              amu      6.53900000E+01  7.26100000E+01  3.09737620E+01
             ecut      4.20000000E+01 Hartree
           etotal     -1.2030974549E+02
            fcart      0.0000000000E+00  0.0000000000E+00  0.0000000000E+00
                       0.0000000000E+00  0.0000000000E+00  0.0000000000E+00
                       0.0000000000E+00  0.0000000000E+00  0.0000000000E+00
                       0.0000000000E+00  0.0000000000E+00  0.0000000000E+00
                       0.0000000000E+00  0.0000000000E+00  0.0000000000E+00
                       0.0000000000E+00  0.0000000000E+00  0.0000000000E+00
                       0.0000000000E+00  0.0000000000E+00  0.0000000000E+00
                       0.0000000000E+00  0.0000000000E+00  0.0000000000E+00
-          fftalg         512
           irdden           1
           irdwfk           1
           istwfk        1    0
              ixc     -116133
              kpt      0.00000000E+00  0.00000000E+00  0.00000000E+00
                       4.42805872E-01  5.57194128E-01 -4.42805872E-01
           kptopt           0
P           mkmem           2
P          mkqmem           2
P          mk1mem           2
            natom           8
            nband          53
           nbdbuf           4
            ngfft          75      75      75
             nkpt           2
            nstep        2000
             nsym           8
           ntypat           3
              occ      2.000000  2.000000  2.000000  2.000000  2.000000  2.000000
                       2.000000  2.000000  2.000000  2.000000  2.000000  2.000000
                       2.000000  2.000000  2.000000  2.000000  2.000000  2.000000
                       2.000000  2.000000  2.000000  2.000000  2.000000  2.000000
                       2.000000  2.000000  2.000000  2.000000  2.000000  2.000000
                       2.000000  2.000000  2.000000  2.000000  2.000000  2.000000
                       2.000000  2.000000  2.000000  2.000000  2.000000  2.000000
                       2.000000  2.000000  0.000000  0.000000  0.000000  0.000000
                       0.000000  0.000000  0.000000  0.000000  0.000000
        optdriver           1
            prtwf          -1
            rfdir           1       1       1
           rfelfd           2
            rprim      9.3375330604E+00  0.0000000000E+00 -8.2243456452E+00
                      -1.9060098198E+00  9.1409326778E+00 -8.2243456452E+00
                       0.0000000000E+00  0.0000000000E+00  1.2443045646E+01
          spgroup         122
           strten      0.0000000000E+00  0.0000000000E+00  0.0000000000E+00
                       0.0000000000E+00  0.0000000000E+00  0.0000000000E+00
           symrel      1  0  0   0  1  0   0  0  1       0  0  1  -1 -1 -1   1  0  0
                       0  1  0   1  0  0  -1 -1 -1      -1 -1 -1   0  0  1   0  1  0
                       0  1  0   1  0  0   0  0  1       0  0  1  -1 -1 -1   0  1  0
                       1  0  0   0  1  0  -1 -1 -1      -1 -1 -1   0  0  1   1  0  0
            tnons      0.0000000  0.0000000  0.0000000    -0.2500000  0.2500000  0.5000000
                       0.0000000  0.0000000  0.0000000    -0.2500000  0.2500000  0.5000000
                      -0.2500000  0.2500000  0.5000000     0.0000000  0.0000000  0.0000000
                      -0.2500000  0.2500000  0.5000000     0.0000000  0.0000000  0.0000000
           tolwfr      1.00000000E-20
            typat      1  1  2  2  3  3  3  3
           useylm           1
              wtk        0.50000    0.50000
           xangst      0.0000000000E+00  0.0000000000E+00  0.0000000000E+00
                       3.4537530210E+00  1.2092933096E+00 -1.0598481904E+00
                       1.9662963620E+00  2.4185866192E+00 -4.3521362710E+00
                       4.7883970301E-01  3.6278799288E+00 -1.0598481904E+00
                      -5.3966911146E-03  3.0232332740E+00 -3.2607870300E+00
                       1.4732244753E+00  1.8211231666E+00  3.1501050583E-02
                       3.4425164297E+00  4.2253433813E+00 -4.3272655669E+00
                       2.9548412341E+00  6.0464665479E-01  3.3171587847E+00
            xcart      0.0000000000E+00  0.0000000000E+00  0.0000000000E+00
                       6.5266473404E+00  2.2852331695E+00 -2.0028228223E+00
                       3.7157616203E+00  4.5704663389E+00 -8.2243456452E+00
                       9.0487590025E-01  6.8556995083E+00 -2.0028228223E+00
                      -1.0198268230E-02  5.7130829236E+00 -6.1619944644E+00
                       2.7839907906E+00  3.4414240392E+00  5.9528358501E-02
                       6.5054132601E+00  7.9847418080E+00 -8.1773468257E+00
                       5.5838406987E+00  1.1426165847E+00  6.2685216424E+00
             xred      0.0000000000E+00  0.0000000000E+00  0.0000000000E+00
                       7.5000000000E-01  2.5000000000E-01  5.0000000000E-01
                       5.0000000000E-01  5.0000000000E-01 -5.5511151231E-17
                       2.5000000000E-01  7.5000000000E-01  5.0000000000E-01
                       1.2648500000E-01  6.2500000000E-01  1.4850000000E-03
                       3.7500000000E-01  3.7648500000E-01  5.0148500000E-01
                       8.7500000000E-01  8.7351500000E-01  4.9851500000E-01
                       6.2351500000E-01  1.2500000000E-01  9.9851500000E-01
            znucl       30.00000   32.00000   15.00000

- Timing analysis has been suppressed with timopt=0

 Suggested references for the acknowledgment of ABINIT usage.

 Calculation completed.
.Delivered  14 WARNINGs and   9 COMMENTs to log file.