.Version 9.5.2 of ABINIT

 ABINIT is a project of the Universite Catholique de Louvain,
 Corning Inc. and other collaborators, see ~abinit/doc/developers/contributors.txt .
 acknowledgments of the ABINIT effort.

.Starting date : Mon 24 May 2021.
- ( at 23h19 )

- input  file    -> /scratch/users/j/a/jabreu/flow_simple_10atoms/flow/w493/t1/run.abi
- output file    -> /scratch/users/j/a/jabreu/flow_simple_10atoms/flow/w493/t1/run.abo
- root for input  files -> /scratch/users/j/a/jabreu/flow_simple_10atoms/flow/w493/t1/indata/in
- root for output files -> /scratch/users/j/a/jabreu/flow_simple_10atoms/flow/w493/t1/outdata/out

 Symmetries : space group R-3 c (#167); Bravais hR (rhombohedral)
     intxc =       0      iscf =       7    lmnmax =      13     lnmax =       5
     mgfft =      72  mpssoang =       3    mqgrid =    3001     natom =      10
  nloc_mem =       1    nspden =       1   nspinor =       1    nsppol =       1
      nsym =      12    n1xccc =    2501    ntypat =       3    occopt =       1
   xclevel =       2
-    mband =          41        mffmem =           1         mkmem =           2
-   mkqmem =           2        mk1mem =           2           mpw =       11719
      nfft =      373248          nkpt =           2
  Rough estimation (10% accuracy) of disk space for files :

------------- Echo of variables that govern the present computation ------------
-
- outvars: echo of selected default values
-   iomode0 =  0 , fftalg0 =512 , wfoptalg0 =  0
-
- outvars: echo of global parameters not present in the input file
-  max_nthreads =    0
-
 -outvars: echo values of preprocessed input variables --------
            acell      1.0000000000E+00  1.0000000000E+00  1.0000000000E+00 Bohr
              amu      2.29897680E+01  1.40067400E+01  1.59994000E+01
             ecut      4.40000000E+01 Hartree
-          fftalg         512
           irdden           1
           irdwfk           1
           istwfk        0    1
              ixc     -116133
              kpt      3.17551333E-01  0.00000000E+00 -3.17551333E-01
                       0.00000000E+00  0.00000000E+00  0.00000000E+00
           kptopt           0
P           mkmem           2
P          mkqmem           2
P          mk1mem           2
            natom          10
            nband          41
           nbdbuf           4
            ngfft          72      72      72
             nkpt           2
            nstep        2000
             nsym          12
           ntypat           3
              occ      2.000000  2.000000  2.000000  2.000000  2.000000  2.000000
                       2.000000  2.000000  2.000000  2.000000  2.000000  2.000000
                       2.000000  2.000000  2.000000  2.000000  2.000000  2.000000
                       2.000000  2.000000  2.000000  2.000000  2.000000  2.000000
                       2.000000  2.000000  2.000000  2.000000  2.000000  2.000000
                       2.000000  2.000000  0.000000  0.000000  0.000000  0.000000
                       0.000000  0.000000  0.000000  0.000000  0.000000
        optdriver           1
            prtwf          -1
            rfdir           1       1       1
           rfelfd           2
            rprim      8.8152100207E+00  0.0000000000E+00  7.8608984806E+00
                       3.5225467984E+00  8.0808162807E+00  7.8608984806E+00
                       0.0000000000E+00  0.0000000000E+00  1.1811081772E+01
          spgroup         167
           symrel      1  0  0   0  1  0   0  0  1      -1  0  0   0 -1  0   0  0 -1
                       0  1  0   1  0  0   0  0  1       0 -1  0  -1  0  0   0  0 -1
                       0  0  1   1  0  0   0  1  0       0  0 -1  -1  0  0   0 -1  0
                       1  0  0   0  0  1   0  1  0      -1  0  0   0  0 -1   0 -1  0
                       0  1  0   0  0  1   1  0  0       0 -1  0   0  0 -1  -1  0  0
                       0  0  1   0  1  0   1  0  0       0  0 -1   0 -1  0  -1  0  0
            tnons      0.0000000  0.0000000  0.0000000     0.0000000  0.0000000 -0.0000000
                       0.5000000  0.5000000  0.5000000     0.5000000  0.5000000  0.5000000
                       0.0000000  0.0000000 -0.0000000     0.0000000  0.0000000  0.0000000
                       0.5000000  0.5000000  0.5000000     0.5000000  0.5000000  0.5000000
                       0.0000000  0.0000000 -0.0000000     0.0000000  0.0000000  0.0000000
                       0.5000000  0.5000000  0.5000000     0.5000000  0.5000000  0.5000000
           tolwfr      1.00000000E-20
            typat      1  1  2  2  3  3  3  3  3  3
           useylm           1
              wtk        0.50000    0.50000
           xangst      3.2644298569E+00  2.1380919013E+00  7.2848859563E+00
                       0.0000000000E+00  0.0000000000E+00  0.0000000000E+00
                       4.8966447853E+00  3.2071378519E+00  1.0927328934E+01
                       1.6322149284E+00  1.0690459506E+00  3.6424429782E+00
                       4.4385709101E+00  2.1563041681E+00  1.1441012889E+01
                       6.0429794251E+00  3.2071378519E+00  1.0413644980E+01
                       2.3204756929E+00  1.8212266815E-02  3.6424429782E+00
                       2.0902888037E+00  2.1198796345E+00  3.1287590240E+00
                       4.8588028874E-01  1.0690459506E+00  4.1561269324E+00
                       4.2083840208E+00  4.2579715357E+00  1.0927328934E+01
            xcart      6.1688784096E+00  4.0404081404E+00  1.3766439367E+01
                       0.0000000000E+00  0.0000000000E+00  0.0000000000E+00
                       9.2533176143E+00  6.0606122105E+00  2.0649659050E+01
                       3.0844392048E+00  2.0202040702E+00  6.8832196834E+00
                       8.3876834415E+00  4.0748243369E+00  2.1620381042E+01
                       1.1419576140E+01  6.0606122105E+00  1.9678937058E+01
                       4.3850635577E+00  3.4416196540E-02  6.8832196834E+00
                       3.9500733776E+00  4.0059919438E+00  5.9124976911E+00
                       9.1818067908E-01  2.0202040702E+00  7.8539416757E+00
                       7.9526932614E+00  8.0464000842E+00  2.0649659050E+01
             xred      5.0000000000E-01  5.0000000000E-01  5.0000000000E-01
                       0.0000000000E+00  0.0000000000E+00  0.0000000000E+00
                       7.5000000000E-01  7.5000000000E-01  7.5000000000E-01
                       2.5000000000E-01  2.5000000000E-01  2.5000000000E-01
                       7.5000000000E-01  5.0425900000E-01  9.9574100000E-01
                       9.9574100000E-01  7.5000000000E-01  5.0425900000E-01
                       4.9574100000E-01  4.2590000000E-03  2.5000000000E-01
                       2.5000000000E-01  4.9574100000E-01  4.2590000000E-03
                       4.2590000000E-03  2.5000000000E-01  4.9574100000E-01
                       5.0425900000E-01  9.9574100000E-01  7.5000000000E-01
            znucl       11.00000    7.00000    8.00000

 chkinp: Checking input parameters for consistency.

== DATASET  1 ==================================================================
-   mpi_nproc: 1, omp_nthreads: -1 (-1 if OMP is not activated)

--- !DatasetInfo
iteration_state: {dtset: 1, }
dimensions: {natom: 10, nkpt: 2, mband: 41, nsppol: 1, nspinor: 1, nspden: 1, mpw: 11719, }
cutoff_energies: {ecut:  44.0, pawecutdg:  -1.0, }
electrons: {nelect:   6.40000000E+01, charge:   0.00000000E+00, occopt:   1.00000000E+00, tsmear:   1.00000000E-02, }
meta: {optdriver: 1, rfelfd: 2, }
...

 Real(R)+Recip(G) space primitive vectors, cartesian coordinates (Bohr,Bohr^-1):
 R(1)=  8.8152100  0.0000000  7.8608985  G(1)=  0.1134403 -0.0494503  0.0000000
 R(2)=  3.5225468  8.0808163  7.8608985  G(2)=  0.0000000  0.1237499  0.0000000
 R(3)=  0.0000000  0.0000000 11.8110818  G(3)= -0.0755005 -0.0494503  0.0846662
 Unit cell volume ucvol=  8.4135169E+02 bohr^3
 Angles (23,13,12)=  4.82752517E+01  4.82752517E+01  4.82752517E+01 degrees

 getcut: wavevector=  0.0000  0.0000  0.0000  ngfft=  72  72  72
         ecut(hartree)=     44.000   => boxcut(ratio)=   2.04151

--- Pseudopotential description ------------------------------------------------
- pspini: atom type   1  psp file is /scratch/users/j/a/jabreu/pseudos/PBEsol/Na.psp8
- pspatm: opening atomic psp file    /scratch/users/j/a/jabreu/pseudos/PBEsol/Na.psp8
- Na    ONCVPSP-3.3.0  r_core=   1.20708   1.55069
- 11.00000   9.00000    180112                znucl, zion, pspdat
    8 -116133    1    4       400   0.00000   pspcod,pspxc,lmax,lloc,mmax,r2well
    3.99000000000000    0.00000000000000    0.00000000000000   rchrg,fchrg,qchrg
     nproj     2     2
     extension_switch     1
  pspatm : epsatm=    9.32878306
         --- l  ekb(1:nproj) -->
             0    2.657905   -0.678300
             1   -6.761319   -2.404728
 pspatm: atomic psp has been read  and splines computed

- pspini: atom type   2  psp file is /scratch/users/j/a/jabreu/pseudos/PBEsol/N.psp8
- pspatm: opening atomic psp file    /scratch/users/j/a/jabreu/pseudos/PBEsol/N.psp8
- N     ONCVPSP-3.3.0  r_core=   1.20551   1.35824
-  7.00000   5.00000    180112                znucl, zion, pspdat
    8 -116133    1    4       600   0.00000   pspcod,pspxc,lmax,lloc,mmax,r2well
    5.99000000000000    4.00000000000000    0.00000000000000   rchrg,fchrg,qchrg
     nproj     2     2
     extension_switch     1
  pspatm : epsatm=    5.26508895
         --- l  ekb(1:nproj) -->
             0    7.464189    0.625868
             1   -4.309714   -1.012941
 pspatm: atomic psp has been read  and splines computed

- pspini: atom type   3  psp file is /scratch/users/j/a/jabreu/pseudos/PBEsol/O.psp8
- pspatm: opening atomic psp file    /scratch/users/j/a/jabreu/pseudos/PBEsol/O.psp8
- O     ONCVPSP-3.3.0  r_core=   1.35509   1.45563   1.26150
-  8.00000   6.00000    180112                znucl, zion, pspdat
    8 -116133    2    4       600   0.00000   pspcod,pspxc,lmax,lloc,mmax,r2well
    5.99000000000000    4.00000000000000    0.00000000000000   rchrg,fchrg,qchrg
     nproj     2     2     1
     extension_switch     1
  pspatm : epsatm=    6.22910522
         --- l  ekb(1:nproj) -->
             0    6.050032    0.820363
             1   -4.739617   -1.153841
             2   -1.335834
 pspatm: atomic psp has been read  and splines computed

   4.25999202E+03                                ecore*ucvol(ha*bohr**3)

 ==>  initialize data related to q vector <==

 The list of irreducible perturbations for this q vector is:
    1)    idir= 1    ipert=  11
    2)    idir= 2    ipert=  11
    3)    idir= 3    ipert=  11

 Perturbation wavevector (in red.coord.)   0.000000  0.000000  0.000000
 Perturbation : derivative vs k along direction   1

 dfpt_looppert : COMMENT -
  In a d/dk calculation, iscf is set to -3 automatically.
 The set of symmetries contains only one element for this perturbation.
 symkpt : not enough symmetry to change the number of k points.

 Initialisation of the first-order wave-functions :
  ireadwf=   0

--- !BeginCycle
iteration_state: {dtset: 1, }
solver: {iscf: 7, nstep: 2000, nline: 4, wfoptalg: 0, }
[...]
 symkpt : not enough symmetry to change the number of k points.

[...]

 Perturbation wavevector (in red.coord.)   0.000000  0.000000  0.000000
 Perturbation : derivative vs k along direction   3
 The set of symmetries contains only one element for this perturbation.
 symkpt : not enough symmetry to change the number of k points.

 Initialisation of the first-order wave-functions :
  ireadwf=   0

--- !BeginCycle
iteration_state: {dtset: 1, }
solver: {iscf: 7, nstep: 2000, nline: 4, wfoptalg: 0, }
tolerances: {tolwfr: 1.00E-20, }
...

     iter   2DEtotal(Ha)        deltaE(Ha) residm    vres2
-ETOT  1  -41.681692003704     -4.168E+01 1.997E-01 0.000E+00
 ETOT  2  -41.743789666023     -6.210E-02 8.955E-02 0.000E+00
 ETOT  3  -41.744170746792     -3.811E-04 1.804E-02 0.000E+00
 ETOT  4  -41.744174414673     -3.668E-06 1.227E-02 0.000E+00
 ETOT  5  -41.744174459809     -4.514E-08 5.174E-03 0.000E+00
 ETOT  6  -41.744174460466     -6.567E-10 3.310E-03 0.000E+00
 ETOT  7  -41.744174460477     -1.092E-11 1.104E-03 0.000E+00
 ETOT  8  -41.744174460477     -1.918E-13 7.431E-04 0.000E+00
 ETOT  9  -41.744174460477      7.105E-15 2.533E-04 0.000E+00
 ETOT 10  -41.744174460477      1.421E-14 1.774E-04 0.000E+00
 ETOT 11  -41.744174460477      0.000E+00 6.034E-05 0.000E+00
 ETOT 12  -41.744174460477      1.421E-14 4.320E-05 0.000E+00
 ETOT 13  -41.744174460477      0.000E+00 1.461E-05 0.000E+00
 ETOT 14  -41.744174460477     -1.421E-14 1.061E-05 0.000E+00
 ETOT 15  -41.744174460477      7.105E-15 3.572E-06 0.000E+00
 ETOT 16  -41.744174460477     -7.105E-15 2.619E-06 0.000E+00
 ETOT 17  -41.744174460477      0.000E+00 8.799E-07 0.000E+00
 ETOT 18  -41.744174460477     -2.132E-14 6.481E-07 0.000E+00
 ETOT 19  -41.744174460477      1.421E-14 2.178E-07 0.000E+00
 ETOT 20  -41.744174460477      7.105E-15 1.607E-07 0.000E+00
 ETOT 21  -41.744174460477      0.000E+00 5.407E-08 0.000E+00
 ETOT 22  -41.744174460477      0.000E+00 3.991E-08 0.000E+00
 ETOT 23  -41.744174460477      0.000E+00 1.346E-08 0.000E+00
 ETOT 24  -41.744174460477     -1.421E-14 9.930E-09 0.000E+00
 ETOT 25  -41.744174460477      0.000E+00 3.355E-09 0.000E+00
 ETOT 26  -41.744174460477      1.421E-14 2.474E-09 0.000E+00
 ETOT 27  -41.744174460477     -1.421E-14 8.376E-10 0.000E+00
 ETOT 28  -41.744174460477      2.842E-14 6.172E-10 0.000E+00
 ETOT 29  -41.744174460477      7.105E-15 2.094E-10 0.000E+00
 ETOT 30  -41.744174460477     -3.553E-14 1.542E-10 0.000E+00
 ETOT 31  -41.744174460477      1.421E-14 5.240E-11 0.000E+00
 ETOT 32  -41.744174460477      0.000E+00 3.856E-11 0.000E+00
 ETOT 33  -41.744174460477      0.000E+00 1.313E-11 0.000E+00
 ETOT 34  -41.744174460477      0.000E+00 9.655E-12 0.000E+00
 ETOT 35  -41.744174460477      0.000E+00 3.291E-12 0.000E+00
 ETOT 36  -41.744174460477      0.000E+00 2.420E-12 0.000E+00
 ETOT 37  -41.744174460477      0.000E+00 8.258E-13 0.000E+00
 ETOT 38  -41.744174460477      1.421E-14 6.072E-13 0.000E+00
 ETOT 39  -41.744174460477     -1.421E-14 2.074E-13 0.000E+00
 ETOT 40  -41.744174460477     -1.421E-14 1.525E-13 0.000E+00
 ETOT 41  -41.744174460477      0.000E+00 5.214E-14 0.000E+00
 ETOT 42  -41.744174460477      1.421E-14 3.832E-14 0.000E+00
 ETOT 43  -41.744174460477      0.000E+00 1.311E-14 0.000E+00
 ETOT 44  -41.744174460477      0.000E+00 9.636E-15 0.000E+00
 ETOT 45  -41.744174460477      0.000E+00 3.301E-15 0.000E+00
 ETOT 46  -41.744174460477      0.000E+00 2.425E-15 0.000E+00
 ETOT 47  -41.744174460477      0.000E+00 8.316E-16 0.000E+00
 ETOT 48  -41.744174460477     -7.105E-15 6.108E-16 0.000E+00
 ETOT 49  -41.744174460477      7.105E-15 2.096E-16 0.000E+00
 ETOT 50  -41.744174460477      0.000E+00 1.539E-16 0.000E+00
 ETOT 51  -41.744174460477      0.000E+00 5.287E-17 0.000E+00
 ETOT 52  -41.744174460477     -1.421E-14 3.881E-17 0.000E+00
 ETOT 53  -41.744174460477      2.132E-14 1.334E-17 0.000E+00
 ETOT 54  -41.744174460477     -7.105E-15 9.789E-18 0.000E+00
 ETOT 55  -41.744174460477     -7.105E-15 3.369E-18 0.000E+00
 ETOT 56  -41.744174460477      0.000E+00 2.471E-18 0.000E+00
 ETOT 57  -41.744174460477      0.000E+00 8.510E-19 0.000E+00
 ETOT 58  -41.744174460477     -7.105E-15 6.238E-19 0.000E+00
 ETOT 59  -41.744174460477      0.000E+00 2.151E-19 0.000E+00
 ETOT 60  -41.744174460477      7.105E-15 1.576E-19 0.000E+00
 ETOT 61  -41.744174460477     -7.105E-15 5.437E-20 0.000E+00
 ETOT 62  -41.744174460477      0.000E+00 3.982E-20 0.000E+00
 ETOT 63  -41.744174460477      7.105E-15 1.375E-20 0.000E+00
 ETOT 64  -41.744174460477     -7.105E-15 1.007E-20 0.000E+00
 ETOT 65  -41.744174460477      2.132E-14 9.884E-21 0.000E+00

 At SCF step   65   max residual=  9.88E-21 < tolwfr=  1.00E-20 =>converged.

 ----iterations are completed or convergence reached----

 dfpt_looppert: DFPT cycle converged with prtwf=-1. Will skip output of the 1st-order WFK file.
 dfpt_looppert : ek2=    7.7385437136E+01
          f-sum rule ratio=    1.0125735995E+00
 prteigrs : about to open file /scratch/users/j/a/jabreu/flow_simple_10atoms/flow/w493/t1/tmpdata/tmp_1WF1_EIG
 Expectation of eigenvalue derivatives (hartree) for nkpt=   2  k points:
  (in case of degenerate eigenvalues, averaged derivative)
 kpt#   1, nband= 41, wtk=  0.50000, kpt=  0.3176  0.0000 -0.3176 (reduced coord)
  -0.00003    0.00003   -0.00350    0.00334   -0.00487    0.00422   -0.00496    0.00680
  -0.00102    0.00029   -0.00546    0.00665   -0.00209    0.00126   -0.00943    0.00343
  -0.02067    0.02211    0.00836   -0.01009    0.00057    0.00025   -0.01789    0.01746
  -0.02764    0.01206    0.01222    0.03362   -0.02448    0.01280   -0.00484   -0.00076
  -0.02432    0.02195   -0.17342    0.12307    0.02695    0.02595    0.03027    0.00660
   0.10081
 prteigrs : prtvol=0 or 1, do not print more k-points.

 Eight components of 2nd-order total energy (hartree) are
 1,2,3: 0th-order hamiltonian combined with 1st-order wavefunctions
     kin0=   5.87696658E+01 eigvalue=   5.55418592E+00  local=  -2.44764923E+01
 4,5,6: 1st-order hamiltonian combined with 1st and 0th-order wfs
     kin1=  -7.83584506E+01  Hartree=   0.00000000E+00     xc=   0.00000000E+00
 7,8,9: eventually, occupation + non-local contributions
    edocc=   6.81228408E+00     enl0=  -4.91546905E+00   enl1=  -5.12989829E+00
 1-9 gives the relaxation energy (to be shifted if some occ is /=2.0)
   erelax=  -4.17441745E+01
  No Ewald or frozen-wf contrib.: the relaxation energy is the total one
 2DEtotal=   -0.4174417446E+02 Ha. Also 2DEtotal=   -0.113591675516E+04 eV
    (  non-var. 2DEtotal :   -4.1744174460E+01 Ha)

 CALCULATION OF EFFECTIVE MASSES
 NOTE : Additional infos (eff. mass eigenvalues, eigenvectors and, if degenerate, average mass) are available in stdout.

 K-point ( 0.318, 0.000,-0.318) | band =    32
 Effective mass tensor:
            -28.2045606447            -15.2492080379            -51.2770172327
            -15.2492080379            -14.4630678911            -34.0300591867
            -51.2770172327            -34.0300591867           -119.6563638480
 Effective mass tensor eigenvalues:
           -152.6939639727             -5.2268191584             -4.4032092528
 Angular average effective mass 1/(<1/m>)=  -7.0592042790
 Angular average effective mass for Frohlich model (<m**0.5>)**2=  -9.5960674491
 Effective masses along directions: (cart. coord. / red. coord. -> eff. mass)
    1:   1.000000  0.000000  0.000000 /   0.928605  0.371069  0.000000 ->  -6.1378014200
    2:   0.000000  1.000000  0.000000 /   0.000000  1.000000  0.000000 ->  -4.7137637484
    3:   0.000000  0.000000  1.000000 /   0.484642  0.484642  0.728179 -> -20.0370335043
    4:   0.577350  0.577350  0.577350 /   0.590901  0.689697  0.418514 -> -19.7823873342
    5:   0.000000  0.707107  0.707107 /   0.368349  0.747003  0.553448 -> -12.4359478313
    6:   0.707107  0.000000  0.707107 /   0.712904  0.486642  0.504924 -> -23.2301773989
    7:   0.707107  0.707107  0.000000 /   0.604938  0.796273  0.000000 ->  -6.0659712033

 K-point ( 0.000, 0.000, 0.000) | band =    33
 Effective mass tensor:
              2.6967752604              0.6149701036              2.0953189262
              0.6149701036              2.1606273408              1.3723646630
              2.0953189262              1.3723646630              6.4337470125
 Effective mass tensor eigenvalues:
              1.7578422374              1.7578422424              7.7754651340
 Angular average effective mass 1/(<1/m>)=   2.3689792631
 Angular average effective mass for Frohlich model (<m**0.5>)**2=   2.6262460966
 Effective masses along directions: (cart. coord. / red. coord. -> eff. mass)
    1:   1.000000  0.000000  0.000000 /   0.928605  0.371069  0.000000 ->   1.9992652432
    2:   0.000000  1.000000  0.000000 /   0.000000  1.000000  0.000000 ->   1.8538768802
    3:   0.000000  0.000000  1.000000 /   0.484642  0.484642  0.728179 ->   4.4096708713
    4:   0.577350  0.577350  0.577350 /   0.590901  0.689697  0.418514 ->   4.4845277564
    5:   0.000000  0.707107  0.707107 /   0.368349  0.747003  0.553448 ->   3.5375015154
    6:   0.707107  0.000000  0.707107 /   0.712904  0.486642  0.504924 ->   4.7578623270
    7:   0.707107  0.707107  0.000000 /   0.604938  0.796273  0.000000 ->   2.1061337032

 END OF EFFECTIVE MASSES SECTION

 ---- first-order wavefunction calculations are completed ----

 Total localisation tensor (bohr^2) in cartesian coordinates
  WARNING : still subject to testing - especially symmetries.
      direction              matrix element
   alpha     beta       real part   imaginary part
     1        1       0.7470722139    0.0000000000
     1        2       0.2371474932    0.0000000000
     1        3       0.8047048450    0.0000000000
     2        1       0.2371474932    0.0000000000
     2        2       0.5440226727    0.0000000000
     2        3       0.5292172044    0.0000000000
     3        1       0.8047048450    0.0000000000
     3        2       0.5292172044    0.0000000000
     3        3       2.1822521729    0.0000000000

 respfn : d/dk was computed, but no 2DTE, so no DDB output.

== END DATASET(S) ==============================================================

 -outvars: echo values of variables after computation  --------
            acell      1.0000000000E+00  1.0000000000E+00  1.0000000000E+00 Bohr
              amu      2.29897680E+01  1.40067400E+01  1.59994000E+01
             ecut      4.40000000E+01 Hartree
           etotal     -4.1744174460E+01
            fcart      0.0000000000E+00  0.0000000000E+00  0.0000000000E+00
                       0.0000000000E+00  0.0000000000E+00  0.0000000000E+00
                       0.0000000000E+00  0.0000000000E+00  0.0000000000E+00
                       0.0000000000E+00  0.0000000000E+00  0.0000000000E+00
                       0.0000000000E+00  0.0000000000E+00  0.0000000000E+00
                       0.0000000000E+00  0.0000000000E+00  0.0000000000E+00
                       0.0000000000E+00  0.0000000000E+00  0.0000000000E+00
                       0.0000000000E+00  0.0000000000E+00  0.0000000000E+00
                       0.0000000000E+00  0.0000000000E+00  0.0000000000E+00
                       0.0000000000E+00  0.0000000000E+00  0.0000000000E+00
-          fftalg         512
           irdden           1
           irdwfk           1
           istwfk        0    1
              ixc     -116133
              kpt      3.17551333E-01  0.00000000E+00 -3.17551333E-01
                       0.00000000E+00  0.00000000E+00  0.00000000E+00
           kptopt           0
P           mkmem           2
P          mkqmem           2
P          mk1mem           2
            natom          10
            nband          41
           nbdbuf           4
            ngfft          72      72      72
             nkpt           2
            nstep        2000
             nsym          12
           ntypat           3
              occ      2.000000  2.000000  2.000000  2.000000  2.000000  2.000000
                       2.000000  2.000000  2.000000  2.000000  2.000000  2.000000
                       2.000000  2.000000  2.000000  2.000000  2.000000  2.000000
                       2.000000  2.000000  2.000000  2.000000  2.000000  2.000000
                       2.000000  2.000000  2.000000  2.000000  2.000000  2.000000
                       2.000000  2.000000  0.000000  0.000000  0.000000  0.000000
                       0.000000  0.000000  0.000000  0.000000  0.000000
        optdriver           1
            prtwf          -1
            rfdir           1       1       1
           rfelfd           2
            rprim      8.8152100207E+00  0.0000000000E+00  7.8608984806E+00
                       3.5225467984E+00  8.0808162807E+00  7.8608984806E+00
                       0.0000000000E+00  0.0000000000E+00  1.1811081772E+01
          spgroup         167
           strten      0.0000000000E+00  0.0000000000E+00  0.0000000000E+00
                       0.0000000000E+00  0.0000000000E+00  0.0000000000E+00
           symrel      1  0  0   0  1  0   0  0  1      -1  0  0   0 -1  0   0  0 -1
                       0  1  0   1  0  0   0  0  1       0 -1  0  -1  0  0   0  0 -1
                       0  0  1   1  0  0   0  1  0       0  0 -1  -1  0  0   0 -1  0
                       1  0  0   0  0  1   0  1  0      -1  0  0   0  0 -1   0 -1  0
                       0  1  0   0  0  1   1  0  0       0 -1  0   0  0 -1  -1  0  0
                       0  0  1   0  1  0   1  0  0       0  0 -1   0 -1  0  -1  0  0
            tnons      0.0000000  0.0000000  0.0000000     0.0000000  0.0000000 -0.0000000
                       0.5000000  0.5000000  0.5000000     0.5000000  0.5000000  0.5000000
                       0.0000000  0.0000000 -0.0000000     0.0000000  0.0000000  0.0000000
                       0.5000000  0.5000000  0.5000000     0.5000000  0.5000000  0.5000000
                       0.0000000  0.0000000 -0.0000000     0.0000000  0.0000000  0.0000000
                       0.5000000  0.5000000  0.5000000     0.5000000  0.5000000  0.5000000
           tolwfr      1.00000000E-20
            typat      1  1  2  2  3  3  3  3  3  3
           useylm           1
              wtk        0.50000    0.50000
           xangst      3.2644298569E+00  2.1380919013E+00  7.2848859563E+00
                       0.0000000000E+00  0.0000000000E+00  0.0000000000E+00
                       4.8966447853E+00  3.2071378519E+00  1.0927328934E+01
                       1.6322149284E+00  1.0690459506E+00  3.6424429782E+00
                       4.4385709101E+00  2.1563041681E+00  1.1441012889E+01
                       6.0429794251E+00  3.2071378519E+00  1.0413644980E+01
                       2.3204756929E+00  1.8212266815E-02  3.6424429782E+00
                       2.0902888037E+00  2.1198796345E+00  3.1287590240E+00
                       4.8588028874E-01  1.0690459506E+00  4.1561269324E+00
                       4.2083840208E+00  4.2579715357E+00  1.0927328934E+01
            xcart      6.1688784096E+00  4.0404081404E+00  1.3766439367E+01
                       0.0000000000E+00  0.0000000000E+00  0.0000000000E+00
                       9.2533176143E+00  6.0606122105E+00  2.0649659050E+01
                       3.0844392048E+00  2.0202040702E+00  6.8832196834E+00
                       8.3876834415E+00  4.0748243369E+00  2.1620381042E+01
                       1.1419576140E+01  6.0606122105E+00  1.9678937058E+01
                       4.3850635577E+00  3.4416196540E-02  6.8832196834E+00
                       3.9500733776E+00  4.0059919438E+00  5.9124976911E+00
                       9.1818067908E-01  2.0202040702E+00  7.8539416757E+00
                       7.9526932614E+00  8.0464000842E+00  2.0649659050E+01
             xred      5.0000000000E-01  5.0000000000E-01  5.0000000000E-01
                       0.0000000000E+00  0.0000000000E+00  0.0000000000E+00
                       7.5000000000E-01  7.5000000000E-01  7.5000000000E-01
                       2.5000000000E-01  2.5000000000E-01  2.5000000000E-01
                       7.5000000000E-01  5.0425900000E-01  9.9574100000E-01
                       9.9574100000E-01  7.5000000000E-01  5.0425900000E-01
                       4.9574100000E-01  4.2590000000E-03  2.5000000000E-01
                       2.5000000000E-01  4.9574100000E-01  4.2590000000E-03
                       4.2590000000E-03  2.5000000000E-01  4.9574100000E-01
                       5.0425900000E-01  9.9574100000E-01  7.5000000000E-01
            znucl       11.00000    7.00000    8.00000

- Timing analysis has been suppressed with timopt=0

 Suggested references for the acknowledgment of ABINIT usage.

 Calculation completed.
.Delivered   2 WARNINGs and   5 COMMENTs to log file.