.Version 9.5.1 of ABINIT

 ABINIT is a project of the Universite Catholique de Louvain,
 Corning Inc. and other collaborators, see ~abinit/doc/developers/contributors.txt .
 acknowledgments of the ABINIT effort.

.Starting date : Tue 11 May 2021.
- ( at 21h49 )

- input  file    -> /scratch/users/j/a/jabreu/flow_simple_8atoms/flow/w357/t1/run.abi
- output file    -> /scratch/users/j/a/jabreu/flow_simple_8atoms/flow/w357/t1/run.abo
- root for input  files -> /scratch/users/j/a/jabreu/flow_simple_8atoms/flow/w357/t1/indata/in
- root for output files -> /scratch/users/j/a/jabreu/flow_simple_8atoms/flow/w357/t1/outdata/out

 Symmetries : space group I-4 2 d (#122); Bravais tI (body-center tetrag.)
     intxc =       0      iscf =       7    lmnmax =      18     lnmax =       6
     mgfft =      80  mpssoang =       3    mqgrid =    3001     natom =       8
  nloc_mem =       1    nspden =       1   nspinor =       1    nsppol =       1
      nsym =       8    n1xccc =    2501    ntypat =       3    occopt =       1
   xclevel =       2
-    mband =          53        mffmem =           1         mkmem =           1
-   mkqmem =           1        mk1mem =           1           mpw =       15555
      nfft =      512000          nkpt =           1
  Rough estimation (10% accuracy) of disk space for files :

------------- Echo of variables that govern the present computation ------------
-
- outvars: echo of selected default values
-   iomode0 =  0 , fftalg0 =512 , wfoptalg0 =  0
-
- outvars: echo of global parameters not present in the input file
-  max_nthreads =    0
-
 -outvars: echo values of preprocessed input variables --------
            acell      1.0000000000E+00  1.0000000000E+00  1.0000000000E+00 Bohr
              amu      6.53900000E+01  1.18710000E+02  3.09737620E+01
             ecut      4.20000000E+01 Hartree
-          fftalg         512
           irdden           1
           irdwfk           1
           istwfk        1
              ixc     -116133
           kptopt           0
P           mkmem           1
P          mkqmem           1
P          mk1mem           1
            natom           8
            nband          53
           nbdbuf           4
            ngfft          80      80      80
             nkpt           1
            nstep        2000
             nsym           8
           ntypat           3
              occ      2.000000  2.000000  2.000000  2.000000  2.000000  2.000000
                       2.000000  2.000000  2.000000  2.000000  2.000000  2.000000
                       2.000000  2.000000  2.000000  2.000000  2.000000  2.000000
                       2.000000  2.000000  2.000000  2.000000  2.000000  2.000000
                       2.000000  2.000000  2.000000  2.000000  2.000000  2.000000
                       2.000000  2.000000  2.000000  2.000000  2.000000  2.000000
                       2.000000  2.000000  2.000000  2.000000  2.000000  2.000000
                       2.000000  2.000000  0.000000  0.000000  0.000000  0.000000
                       0.000000  0.000000  0.000000  0.000000  0.000000
        optdriver           1
            prtwf          -1
            rfdir           1       1       1
           rfelfd           2
            rprim      9.7030868150E+00  0.0000000000E+00 -8.7159639585E+00
                      -1.9295510616E+00  9.5092968426E+00 -8.7159639585E+00
                       0.0000000000E+00  0.0000000000E+00  1.3042926108E+01
          spgroup         122
           symrel      1  0  0   0  1  0   0  0  1      -1 -1 -1   0  0  1   0  1  0
                       0  1  0   1  0  0  -1 -1 -1       0  0  1  -1 -1 -1   1  0  0
                       0  1  0   1  0  0   0  0  1      -1 -1 -1   0  0  1   1  0  0
                       1  0  0   0  1  0  -1 -1 -1       0  0  1  -1 -1 -1   0  1  0
            tnons      0.0000000  0.0000000  0.0000000    -0.2500000  0.2500000  0.5000000
                       0.0000000  0.0000000  0.0000000    -0.2500000  0.2500000  0.5000000
                      -0.2500000  0.2500000  0.5000000     0.0000000  0.0000000  0.0000000
                      -0.2500000  0.2500000  0.5000000     0.0000000  0.0000000  0.0000000
           tolwfr      1.00000000E-20
            typat      1  1  2  2  3  3  3  3
           useylm           1
           xangst      0.0000000000E+00  0.0000000000E+00  0.0000000000E+00
                       3.5957206854E+00  1.2580257897E+00 -1.1612798628E+00
                       2.0567889754E+00  2.5160515794E+00 -4.6122894777E+00
                       5.1785726541E-01  3.7740773691E+00 -1.1612798628E+00
                       3.5738885624E+00  4.5287217514E+00 -4.5633315781E+00
                       3.2097151733E+00  6.2901289485E-01 -3.4020517153E+00
                      -1.2453171015E-01  3.1450644743E+00  3.3856367285E+00
                       1.5680838762E+00  1.7614071971E+00 -6.5372886371E-02
            xcart      0.0000000000E+00  0.0000000000E+00  0.0000000000E+00
                       6.7949273459E+00  2.3773242106E+00 -2.1945009044E+00
                       3.8867678767E+00  4.7546484213E+00 -8.7159639585E+00
                       9.7860840755E-01  7.1319726319E+00 -2.1945009044E+00
                       6.7536706124E+00  8.5580438422E+00 -8.6234469362E+00
                       6.0654826421E+00  1.1886621053E+00 -6.4289460318E+00
                      -2.3533082705E-01  5.9433105266E+00  6.3979262024E+00
                       2.9632490793E+00  3.3285772110E+00 -1.2353685176E-01
             xred      0.0000000000E+00  0.0000000000E+00  0.0000000000E+00
                       7.5000000000E-01  2.5000000000E-01  5.0000000000E-01
                       5.0000000000E-01  5.0000000000E-01 -5.5511151231E-17
                       2.5000000000E-01  7.5000000000E-01  5.0000000000E-01
                       8.7500000000E-01  8.9996600000E-01  5.2496600000E-01
                       6.4996600000E-01  1.2500000000E-01  2.4966000000E-02
                       1.0003400000E-01  6.2500000000E-01  9.7503400000E-01
                       3.7500000000E-01  3.5003400000E-01  4.7503400000E-01
            znucl       30.00000   50.00000   15.00000

 chkinp: Checking input parameters for consistency.

== DATASET  1 ==================================================================
-   mpi_nproc: 1, omp_nthreads: -1 (-1 if OMP is not activated)

--- !DatasetInfo
iteration_state: {dtset: 1, }
dimensions: {natom: 8, nkpt: 1, mband: 53, nsppol: 1, nspinor: 1, nspden: 1, mpw: 15555, }
cutoff_energies: {ecut:  42.0, pawecutdg:  -1.0, }
electrons: {nelect:   8.80000000E+01, charge:   0.00000000E+00, occopt:   1.00000000E+00, tsmear:   1.00000000E-02, }
meta: {optdriver: 1, rfelfd: 2, }
...

 Real(R)+Recip(G) space primitive vectors, cartesian coordinates (Bohr,Bohr^-1):
 R(1)=  9.7030868  0.0000000 -8.7159640  G(1)=  0.1030600  0.0209121  0.0000000
 R(2)= -1.9295511  9.5092968 -8.7159640  G(2)=  0.0000000  0.1051602  0.0000000
 R(3)=  0.0000000  0.0000000 13.0429261  G(3)=  0.0688701  0.0842481  0.0766699
 Unit cell volume ucvol=  1.2034647E+03 bohr^3
 Angles (23,13,12)=  1.31932311E+02  1.31932311E+02  7.03359553E+01 degrees

 getcut: wavevector=  0.0000  0.0000  0.0000  ngfft=  80  80  80
         ecut(hartree)=     42.000   => boxcut(ratio)=   2.10266

--- Pseudopotential description ------------------------------------------------
- pspini: atom type   1  psp file is /scratch/users/j/a/jabreu/pseudos/PBEsol/Zn.psp8
- pspatm: opening atomic psp file    /scratch/users/j/a/jabreu/pseudos/PBEsol/Zn.psp8
- Zn    ONCVPSP-3.3.0  r_core=   1.35823   1.66358   1.85211
- 30.00000  20.00000    180112                znucl, zion, pspdat
    8 -116133    2    4       600   0.00000   pspcod,pspxc,lmax,lloc,mmax,r2well
    5.99000000000000    2.50000000000000    0.00000000000000   rchrg,fchrg,qchrg
     nproj     2     2     2
     extension_switch     1
  pspatm : epsatm=   26.57343589
         --- l  ekb(1:nproj) -->
             0    2.830835   -1.519107
             1   -4.626739   -1.324150
             2   -6.948510   -2.555500
 pspatm: atomic psp has been read  and splines computed

- pspini: atom type   2  psp file is /scratch/users/j/a/jabreu/pseudos/PBEsol/Sn.psp8
- pspatm: opening atomic psp file    /scratch/users/j/a/jabreu/pseudos/PBEsol/Sn.psp8
- Sn    ONCVPSP-3.3.0  r_core=   2.27326   2.62311   1.85601
- 50.00000  14.00000    180112                znucl, zion, pspdat
    8 -116133    2    4       600   0.00000   pspcod,pspxc,lmax,lloc,mmax,r2well
    5.99000000000000    6.50000000000000    0.00000000000000   rchrg,fchrg,qchrg
     nproj     2     2     2
     extension_switch     1
  pspatm : epsatm=   32.44586081
         --- l  ekb(1:nproj) -->
             0    5.587869    0.749373
             1    4.197111    0.728791
             2   -5.271877   -1.523486
 pspatm: atomic psp has been read  and splines computed

- pspini: atom type   3  psp file is /scratch/users/j/a/jabreu/pseudos/PBEsol/P.psp8
- pspatm: opening atomic psp file    /scratch/users/j/a/jabreu/pseudos/PBEsol/P.psp8
- P     ONCVPSP-3.3.0  r_core=   1.46089   1.55067   1.70594
- 15.00000   5.00000    180112                znucl, zion, pspdat
    8 -116133    2    4       600   0.00000   pspcod,pspxc,lmax,lloc,mmax,r2well
    5.99000000000000    5.00000000000000    0.00000000000000   rchrg,fchrg,qchrg
     nproj     2     2     2
     extension_switch     1
  pspatm : epsatm=    7.31221086
         --- l  ekb(1:nproj) -->
             0    6.742364    1.063650
             1    3.449117    0.910422
             2   -3.077645   -0.799176
 pspatm: atomic psp has been read  and splines computed

   1.29612944E+04                                ecore*ucvol(ha*bohr**3)

-inwffil : will read wavefunctions from disk file /scratch/users/j/a/jabreu/flow_simple_8atoms/flow/w357/t1/indata/in_WFK

 ==>  initialize data related to q vector <==

 The list of irreducible perturbations for this q vector is:
    1)    idir= 1    ipert=   9
    2)    idir= 2    ipert=   9
    3)    idir= 3    ipert=   9

 Perturbation wavevector (in red.coord.)   0.000000  0.000000  0.000000
 Perturbation : derivative vs k along direction   1

 dfpt_looppert : COMMENT -
  In a d/dk calculation, iscf is set to -3 automatically.
 The set of symmetries contains only one element for this perturbation.
 symkpt : not enough symmetry to change the number of k points.

[...]

 Initialisation of the first-order wave-functions :
  ireadwf=   0

--- !BeginCycle
iteration_state: {dtset: 1, }
solver: {iscf: 7, nstep: 2000, nline: 4, wfoptalg: 0, }
tolerances: {tolwfr: 1.00E-20, }
...

     iter   2DEtotal(Ha)        deltaE(Ha) residm    vres2
-ETOT  1  -74.308280305948     -7.431E+01 3.072E-02 0.000E+00
 ETOT  2  -74.380349728987     -7.207E-02 2.802E-03 0.000E+00
 ETOT  3  -74.381464656892     -1.115E-03 7.712E-05 0.000E+00
 ETOT  4  -74.381493718044     -2.906E-05 1.954E-05 0.000E+00
 ETOT  5  -74.381494591167     -8.731E-07 1.015E-06 0.000E+00
 ETOT  6  -74.381494619327     -2.816E-08 3.203E-07 0.000E+00
 ETOT  7  -74.381494620273     -9.467E-10 1.774E-08 0.000E+00
 ETOT  8  -74.381494620306     -3.249E-11 5.719E-09 0.000E+00
[...]
   0.00000   -0.00000    0.00000    0.00000   -0.00000   -0.00000   -0.00000   -0.00000
  -0.00000   -0.00000   -0.00000   -0.00000   -0.00000   -0.00000    0.00000   -0.00000
  -0.00000   -0.00000   -0.00000    0.00000    0.00000    0.00000    0.00000   -0.00000
  -0.00000    0.00000    0.00000   -0.00000   -0.00000    0.00000    0.00000    0.00000
   0.00000   -0.00000   -0.00000    0.00000    0.00000   -0.00000   -0.00000   -0.00000
  -0.00000   -0.00000    0.00000    0.00000   -0.00000    0.00000    0.00000   -0.00000
  -0.00000   -0.00000   -0.00000    0.00009    0.00004

 Eight components of 2nd-order total energy (hartree) are
 1,2,3: 0th-order hamiltonian combined with 1st-order wavefunctions
     kin0=   7.30948930E+01 eigvalue=   4.06118181E+00  local=  -3.28392754E+01
 4,5,6: 1st-order hamiltonian combined with 1st and 0th-order wfs
     kin1=  -1.09784620E+02  Hartree=   0.00000000E+00     xc=   0.00000000E+00
 7,8,9: eventually, occupation + non-local contributions
    edocc=   2.58743579E+01     enl0=   4.19033737E+00   enl1=  -3.89783696E+01
 1-9 gives the relaxation energy (to be shifted if some occ is /=2.0)
   erelax=  -7.43814946E+01
  No Ewald or frozen-wf contrib.: the relaxation energy is the total one
 2DEtotal=   -0.7438149462E+02 Ha. Also 2DEtotal=   -0.202402340219E+04 eV
    (  non-var. 2DEtotal :   -7.4381494620E+01 Ha)

 Perturbation wavevector (in red.coord.)   0.000000  0.000000  0.000000
 Perturbation : derivative vs k along direction   2
 The set of symmetries contains only one element for this perturbation.
 symkpt : not enough symmetry to change the number of k points.

[...]

 Perturbation wavevector (in red.coord.)   0.000000  0.000000  0.000000
 Perturbation : derivative vs k along direction   3
 The set of symmetries contains only one element for this perturbation.
 symkpt : not enough symmetry to change the number of k points.

-inwffil : will read wavefunctions from disk file /scratch/users/j/a/jabreu/flow_simple_8atoms/flow/w357/t1/indata/in_WFK

 Initialisation of the first-order wave-functions :
  ireadwf=   0

--- !BeginCycle
iteration_state: {dtset: 1, }
solver: {iscf: 7, nstep: 2000, nline: 4, wfoptalg: 0, }
tolerances: {tolwfr: 1.00E-20, }
...

     iter   2DEtotal(Ha)        deltaE(Ha) residm    vres2
-ETOT  1  -120.74758712804     -1.207E+02 7.046E-02 0.000E+00
 ETOT  2  -120.85584702934     -1.083E-01 4.211E-03 0.000E+00
 ETOT  3  -120.85747992605     -1.633E-03 7.091E-05 0.000E+00
 ETOT  4  -120.85752222836     -4.230E-05 1.644E-05 0.000E+00
 ETOT  5  -120.85752347908     -1.251E-06 6.605E-07 0.000E+00
 ETOT  6  -120.85752351829     -3.921E-08 2.114E-07 0.000E+00
 ETOT  7  -120.85752351957     -1.277E-09 1.065E-08 0.000E+00
 ETOT  8  -120.85752351961     -4.279E-11 2.862E-09 0.000E+00
 ETOT  9  -120.85752351961     -1.634E-12 1.903E-10 0.000E+00
 ETOT 10  -120.85752351961     -2.842E-14 4.362E-11 0.000E+00
 ETOT 11  -120.85752351961      2.842E-14 3.448E-12 0.000E+00
 ETOT 12  -120.85752351961     -2.842E-14 7.895E-13 0.000E+00
 ETOT 13  -120.85752351961     -2.842E-14 6.229E-14 0.000E+00
 ETOT 14  -120.85752351961     -2.842E-14 1.446E-14 0.000E+00
 ETOT 15  -120.85752351961     -4.263E-14 1.128E-15 0.000E+00
 ETOT 16  -120.85752351961      2.842E-14 2.653E-16 0.000E+00
 ETOT 17  -120.85752351961     -2.842E-14 2.047E-17 0.000E+00
 ETOT 18  -120.85752351961      2.842E-14 4.875E-18 0.000E+00
 ETOT 19  -120.85752351961      0.000E+00 3.722E-19 0.000E+00
 ETOT 20  -120.85752351961      0.000E+00 8.959E-20 0.000E+00
 ETOT 21  -120.85752351961     -1.421E-14 9.699E-21 0.000E+00

 At SCF step   21   max residual=  9.70E-21 < tolwfr=  1.00E-20 =>converged.

 ----iterations are completed or convergence reached----

 dfpt_looppert: DFPT cycle converged with prtwf=-1. Will skip output of the 1st-order WFK file.
 dfpt_looppert : ek2=    1.2311593694E+02
          f-sum rule ratio=    1.4568277211E+00
 prteigrs : about to open file /scratch/users/j/a/jabreu/flow_simple_8atoms/flow/w357/t1/tmpdata/tmp_1WF1_EIG
 Expectation of eigenvalue derivatives (hartree) for nkpt=   1  k points:
  (in case of degenerate eigenvalues, averaged derivative)
 kpt#   1, nband= 53, wtk=  1.00000, kpt=  0.0000  0.0000  0.0000 (reduced coord)
  -0.00000   -0.00000    0.00000    0.00000   -0.00000   -0.00000   -0.00000   -0.00000
  -0.00000   -0.00000   -0.00000   -0.00000   -0.00000   -0.00000    0.00000   -0.00000
   0.00000   -0.00000   -0.00000   -0.00000    0.00000    0.00000    0.00000   -0.00000
  -0.00000    0.00000    0.00000   -0.00000   -0.00000   -0.00000    0.00000   -0.00000
  -0.00000   -0.00000   -0.00000    0.00000    0.00000   -0.00000    0.00000   -0.00000
  -0.00000   -0.00000    0.00000    0.00000    0.00000   -0.00000    0.00000   -0.00000
  -0.00000   -0.00000   -0.00000    0.00020    0.00001

 Eight components of 2nd-order total energy (hartree) are
 1,2,3: 0th-order hamiltonian combined with 1st-order wavefunctions
     kin0=   1.15739834E+02 eigvalue=   6.67235525E+00  local=  -5.16883562E+01
 4,5,6: 1st-order hamiltonian combined with 1st and 0th-order wfs
     kin1=  -1.79358710E+02  Hartree=   0.00000000E+00     xc=   0.00000000E+00
 7,8,9: eventually, occupation + non-local contributions
    edocc=   4.34955366E+01     enl0=   6.63815375E+00   enl1=  -6.23563372E+01
 1-9 gives the relaxation energy (to be shifted if some occ is /=2.0)
   erelax=  -1.20857524E+02
  No Ewald or frozen-wf contrib.: the relaxation energy is the total one
 2DEtotal=   -0.1208575235E+03 Ha. Also 2DEtotal=   -0.328870046486E+04 eV
    (  non-var. 2DEtotal :   -1.2085752352E+02 Ha)

 CALCULATION OF EFFECTIVE MASSES
 NOTE : Additional infos (eff. mass eigenvalues, eigenvectors and, if degenerate, average mass) are available in stdout.

 COMMENTS:
 - At k-point ( 0.000, 0.000, 0.000), bands    43 through    44
   are DEGENERATE (effective mass tensor is therefore not defined).
   See Section IIIB Eqs. (67)-(70) and Appendix E of PRB 93 205147 (2016).
 - Angular average effective mass for Frohlich model is to be averaged over degenerate bands. See later.
 - Associated theta integrals calculated with ntheta=   1000 points.

 K-point ( 0.000, 0.000, 0.000) | band =    43
 Transport equivalent effective mass tensor:
             -0.0999931716             -0.0506402110              0.0928307342
             -0.0506402110             -0.1205443031              0.1135593378
              0.0928307342              0.1135593378             -0.2667665135
 Transport equivalent effective mass tensor eigenvalues:
             -0.3701111353             -0.0585965453             -0.0585963076
 Angular average effective mass 1/(<1/m>)=  -0.0803852531
 Angular average effective mass for Frohlich model (<m**0.5>)**2=  -0.0927547122
 Effective masses along directions: (cart. coord. / red. coord. -> eff. mass)
    1:   1.000000  0.000000  0.000000 /   0.980795 -0.195040  0.000000 ->  -0.0684593517
    2:   0.000000  1.000000  0.000000 /   0.000000  1.000000  0.000000 ->  -0.0747586829
    3:   0.000000  0.000000  1.000000 /  -0.485681 -0.485681  0.726793 ->  -0.1255511861
    4:   0.577350  0.577350  0.577350 /   0.075184 -0.086539  0.993407 ->  -0.0543499499
    5:   0.000000  0.707107  0.707107 /  -0.554903  0.050508  0.830380 ->  -0.0628229861
    6:   0.707107  0.000000  0.707107 /   0.058532 -0.631229  0.773385 ->  -0.0669676164
    7:   0.707107  0.707107  0.000000 /   0.788056  0.615604  0.000000 ->  -0.0756668110

 K-point ( 0.000, 0.000, 0.000) | band =    44
 Transport equivalent effective mass tensor:
             -3.3450140787             -0.0700117138              0.1281853109
             -0.0700117138             -3.3734156841              0.1568202402
              0.1281853109              0.1568202402             -3.5754065569
 Transport equivalent effective mass tensor eigenvalues:
             -3.7181166396             -3.2879426750             -3.2877770051
 Angular average effective mass 1/(<1/m>)=  -0.5145665574
 Angular average effective mass for Frohlich model (<m**0.5>)**2=  -0.6097947645
 Effective masses along directions: (cart. coord. / red. coord. -> eff. mass)
    1:   1.000000  0.000000  0.000000 /   0.980795 -0.195040  0.000000 ->  -0.4093150169
    2:   0.000000  1.000000  0.000000 /   0.000000  1.000000  0.000000 ->  -0.3576215475
    3:   0.000000  0.000000  1.000000 /  -0.485681 -0.485681  0.726793 ->  -0.5095256339
    4:   0.577350  0.577350  0.577350 /   0.075184 -0.086539  0.993407 ->  -2.3872087583
    5:   0.000000  0.707107  0.707107 /  -0.554903  0.050508  0.830380 ->  -0.5044317748
    6:   0.707107  0.000000  0.707107 /   0.058532 -0.631229  0.773385 ->  -0.3966551419
    7:   0.707107  0.707107  0.000000 /   0.788056  0.615604  0.000000 ->  -0.8111557622

 Angular average effective mass for Frohlich model, averaged over degenerate bands.
 Value of     (<<m**0.5>>)**2 =     2.945505E-01
 Absolute Value of <<m**0.5>> =     5.427251E-01

 K-point ( 0.000, 0.000, 0.000) | band =    45
 Effective mass tensor:
              0.0649015876              0.0008301116             -0.0015217285
              0.0008301116              0.0652384698             -0.0018615154
             -0.0015217285             -0.0018615154              0.0676354240
 Effective mass tensor eigenvalues:
              0.0642229890              0.0642230002              0.0693294922
 Angular average effective mass 1/(<1/m>)=   0.0658394741
 Angular average effective mass for Frohlich model (<m**0.5>)**2=   0.0658648232
 Effective masses along directions: (cart. coord. / red. coord. -> eff. mass)
    1:   1.000000  0.000000  0.000000 /   0.980795 -0.195040  0.000000 ->   0.0648578192
    2:   0.000000  1.000000  0.000000 /   0.000000  1.000000  0.000000 ->   0.0651776576
    3:   0.000000  0.000000  1.000000 /  -0.485681 -0.485681  0.726793 ->   0.0675477244
    4:   0.577350  0.577350  0.577350 /   0.075184 -0.086539  0.993407 ->   0.0642230661
    5:   0.000000  0.707107  0.707107 /  -0.554903  0.050508  0.830380 ->   0.0645511406
    6:   0.707107  0.000000  0.707107 /   0.058532 -0.631229  0.773385 ->   0.0647118912
    7:   0.707107  0.707107  0.000000 /   0.788056  0.615604  0.000000 ->   0.0658151241

 END OF EFFECTIVE MASSES SECTION

 ---- first-order wavefunction calculations are completed ----

 Total localisation tensor (bohr^2) in cartesian coordinates
  WARNING : still subject to testing - especially symmetries.
      direction              matrix element
   alpha     beta       real part   imaginary part
     1        1       7.7926576221    0.0000000000
     1        2      -1.4609229469    0.0000000000
     1        3      -5.3945644853    0.0000000000
     2        1      -1.4609229469    0.0000000000
     2        2       7.1997835368    0.0000000000
     2        3      -6.5991266078    0.0000000000
     3        1      -5.3945644853    0.0000000000
     3        2      -6.5991266078    0.0000000000
     3        3      34.3552840158    0.0000000000

 respfn : d/dk was computed, but no 2DTE, so no DDB output.

== END DATASET(S) ==============================================================

 -outvars: echo values of variables after computation  --------
            acell      1.0000000000E+00  1.0000000000E+00  1.0000000000E+00 Bohr
              amu      6.53900000E+01  1.18710000E+02  3.09737620E+01
             ecut      4.20000000E+01 Hartree
           etotal     -1.2085752352E+02
            fcart      0.0000000000E+00  0.0000000000E+00  0.0000000000E+00
                       0.0000000000E+00  0.0000000000E+00  0.0000000000E+00
                       0.0000000000E+00  0.0000000000E+00  0.0000000000E+00
                       0.0000000000E+00  0.0000000000E+00  0.0000000000E+00
                       0.0000000000E+00  0.0000000000E+00  0.0000000000E+00
                       0.0000000000E+00  0.0000000000E+00  0.0000000000E+00
                       0.0000000000E+00  0.0000000000E+00  0.0000000000E+00
                       0.0000000000E+00  0.0000000000E+00  0.0000000000E+00
-          fftalg         512
           irdden           1
           irdwfk           1
           istwfk        1
              ixc     -116133
           kptopt           0
P           mkmem           1
P          mkqmem           1
P          mk1mem           1
            natom           8
            nband          53
           nbdbuf           4
            ngfft          80      80      80
             nkpt           1
            nstep        2000
             nsym           8
           ntypat           3
              occ      2.000000  2.000000  2.000000  2.000000  2.000000  2.000000
                       2.000000  2.000000  2.000000  2.000000  2.000000  2.000000
                       2.000000  2.000000  2.000000  2.000000  2.000000  2.000000
                       2.000000  2.000000  2.000000  2.000000  2.000000  2.000000
                       2.000000  2.000000  2.000000  2.000000  2.000000  2.000000
                       2.000000  2.000000  2.000000  2.000000  2.000000  2.000000
                       2.000000  2.000000  2.000000  2.000000  2.000000  2.000000
                       2.000000  2.000000  0.000000  0.000000  0.000000  0.000000
                       0.000000  0.000000  0.000000  0.000000  0.000000
        optdriver           1
            prtwf          -1
            rfdir           1       1       1
           rfelfd           2
            rprim      9.7030868150E+00  0.0000000000E+00 -8.7159639585E+00
                      -1.9295510616E+00  9.5092968426E+00 -8.7159639585E+00
                       0.0000000000E+00  0.0000000000E+00  1.3042926108E+01
          spgroup         122
           strten      0.0000000000E+00  0.0000000000E+00  0.0000000000E+00
                       0.0000000000E+00  0.0000000000E+00  0.0000000000E+00
           symrel      1  0  0   0  1  0   0  0  1      -1 -1 -1   0  0  1   0  1  0
                       0  1  0   1  0  0  -1 -1 -1       0  0  1  -1 -1 -1   1  0  0
                       0  1  0   1  0  0   0  0  1      -1 -1 -1   0  0  1   1  0  0
                       1  0  0   0  1  0  -1 -1 -1       0  0  1  -1 -1 -1   0  1  0
            tnons      0.0000000  0.0000000  0.0000000    -0.2500000  0.2500000  0.5000000
                       0.0000000  0.0000000  0.0000000    -0.2500000  0.2500000  0.5000000
                      -0.2500000  0.2500000  0.5000000     0.0000000  0.0000000  0.0000000
                      -0.2500000  0.2500000  0.5000000     0.0000000  0.0000000  0.0000000
           tolwfr      1.00000000E-20
            typat      1  1  2  2  3  3  3  3
           useylm           1
           xangst      0.0000000000E+00  0.0000000000E+00  0.0000000000E+00
                       3.5957206854E+00  1.2580257897E+00 -1.1612798628E+00
                       2.0567889754E+00  2.5160515794E+00 -4.6122894777E+00
                       5.1785726541E-01  3.7740773691E+00 -1.1612798628E+00
                       3.5738885624E+00  4.5287217514E+00 -4.5633315781E+00
                       3.2097151733E+00  6.2901289485E-01 -3.4020517153E+00
                      -1.2453171015E-01  3.1450644743E+00  3.3856367285E+00
                       1.5680838762E+00  1.7614071971E+00 -6.5372886371E-02
            xcart      0.0000000000E+00  0.0000000000E+00  0.0000000000E+00
                       6.7949273459E+00  2.3773242106E+00 -2.1945009044E+00
                       3.8867678767E+00  4.7546484213E+00 -8.7159639585E+00
                       9.7860840755E-01  7.1319726319E+00 -2.1945009044E+00
                       6.7536706124E+00  8.5580438422E+00 -8.6234469362E+00
                       6.0654826421E+00  1.1886621053E+00 -6.4289460318E+00
                      -2.3533082705E-01  5.9433105266E+00  6.3979262024E+00
                       2.9632490793E+00  3.3285772110E+00 -1.2353685176E-01
             xred      0.0000000000E+00  0.0000000000E+00  0.0000000000E+00
                       7.5000000000E-01  2.5000000000E-01  5.0000000000E-01
                       5.0000000000E-01  5.0000000000E-01 -5.5511151231E-17
                       2.5000000000E-01  7.5000000000E-01  5.0000000000E-01
                       8.7500000000E-01  8.9996600000E-01  5.2496600000E-01
                       6.4996600000E-01  1.2500000000E-01  2.4966000000E-02
                       1.0003400000E-01  6.2500000000E-01  9.7503400000E-01
                       3.7500000000E-01  3.5003400000E-01  4.7503400000E-01
            znucl       30.00000   50.00000   15.00000

- Timing analysis has been suppressed with timopt=0

 Suggested references for the acknowledgment of ABINIT usage.

 Calculation completed.
.Delivered   6 WARNINGs and   5 COMMENTs to log file.