.Version 9.5.2 of ABINIT

 ABINIT is a project of the Universite Catholique de Louvain,
 Corning Inc. and other collaborators, see ~abinit/doc/developers/contributors.txt .
 acknowledgments of the ABINIT effort.

.Starting date : Wed 26 May 2021.
- ( at 02h06 )

- input  file    -> /scratch/users/j/a/jabreu/flow_simple_11atoms/flow/w213/t1/run.abi
- output file    -> /scratch/users/j/a/jabreu/flow_simple_11atoms/flow/w213/t1/run.abo
- root for input  files -> /scratch/users/j/a/jabreu/flow_simple_11atoms/flow/w213/t1/indata/in
- root for output files -> /scratch/users/j/a/jabreu/flow_simple_11atoms/flow/w213/t1/outdata/out

 Symmetries : space group C2/c (# 15); Bravais mC (1-face-center monocl.)
     intxc =       0      iscf =       7    lmnmax =      18     lnmax =       6
     mgfft =      64  mpssoang =       3    mqgrid =    3001     natom =      12
  nloc_mem =       1    nspden =       1   nspinor =       1    nsppol =       1
      nsym =       4    n1xccc =    2501    ntypat =       3    occopt =       1
   xclevel =       2
-    mband =          45        mffmem =           1         mkmem =           2
-   mkqmem =           2        mk1mem =           2           mpw =       11270
      nfft =      230400          nkpt =           2
  Rough estimation (10% accuracy) of disk space for files :

------------- Echo of variables that govern the present computation ------------
-
- outvars: echo of selected default values
-   iomode0 =  0 , fftalg0 =512 , wfoptalg0 =  0
-
- outvars: echo of global parameters not present in the input file
-  max_nthreads =    0
-
 -outvars: echo values of preprocessed input variables --------
            acell      1.0000000000E+00  1.0000000000E+00  1.0000000000E+00 Bohr
              amu      6.94100000E+00  9.12240000E+01  1.59994000E+01
             ecut      4.40000000E+01 Hartree
-          fftalg         512
           irdden           1
           irdwfk           1
           istwfk        1    0
              ixc     -116133
              kpt      0.00000000E+00  0.00000000E+00  0.00000000E+00
                       5.00000000E-01 -5.00000000E-01  0.00000000E+00
           kptopt           0
P           mkmem           2
P          mkqmem           2
P          mk1mem           2
            natom          12
            nband          45
           nbdbuf           4
            ngfft          60      60      64
             nkpt           2
            nstep        2000
             nsym           4
           ntypat           3
              occ      2.000000  2.000000  2.000000  2.000000  2.000000  2.000000
                       2.000000  2.000000  2.000000  2.000000  2.000000  2.000000
                       2.000000  2.000000  2.000000  2.000000  2.000000  2.000000
                       2.000000  2.000000  2.000000  2.000000  2.000000  2.000000
                       2.000000  2.000000  2.000000  2.000000  2.000000  2.000000
                       2.000000  2.000000  2.000000  2.000000  2.000000  2.000000
                       0.000000  0.000000  0.000000  0.000000  0.000000  0.000000
                       0.000000  0.000000  0.000000
        optdriver           1
            prtwf          -1
            rfdir           1       1       1
           rfelfd           2
            rprim      9.7159521829E+00  0.0000000000E+00  1.8670564067E+00
                      -5.2036998461E+00  8.2049518422E+00  1.8670564067E+00
                       0.0000000000E+00  0.0000000000E+00  1.0138406416E+01
          spgroup          15
           symrel      1  0  0   0  1  0   0  0  1      -1  0  0   0 -1  0   0  0 -1
                       0 -1  0  -1  0  0   0  0 -1       0  1  0   1  0  0   0  0  1
            tnons      0.0000000  0.0000000  0.0000000    -0.0000000 -0.0000000 -0.0000000
                      -0.0000000 -0.0000000  0.5000000    -0.0000000  0.0000000  0.5000000
           tolwfr      1.00000000E-20
            typat      1  1  1  1  2  2  3  3  3  3  3  3
           useylm           1
              wtk        0.50000    0.50000
           xangst     -7.2125720204E-01  3.2241580398E+00  5.0117639025E+00
                       3.1090382981E+00  1.1177154727E+00  2.3292570992E+00
                       1.7912052458E+00  1.8424479738E+00  5.0117639025E+00
                       5.9657585026E-01  2.4994255387E+00  2.3292570992E+00
                       4.4212973817E+00  3.9604833431E-01  5.0117639025E+00
                      -2.0335162856E+00  3.9458251782E+00  2.3292570992E+00
                       2.5707302275E+00  0.0000000000E+00  4.9400184879E-01
                       2.4337015139E+00  3.0085666524E+00  1.5783898044E+00
                       1.2372325508E+00  3.6665558738E+00  4.2608966076E+00
                      -4.5920417890E-02  1.3333068601E+00  5.7626311973E+00
                       1.1505485452E+00  6.7531763864E-01  3.0801243941E+00
                      -1.3768396794E+00  2.1709367562E+00  3.1765086521E+00
            xcart     -1.3629785832E+00  6.0927757043E+00  9.4708612184E+00
                       5.8752309200E+00  2.1121761379E+00  4.4016580106E+00
                       3.3848873623E+00  3.4817220845E+00  9.4708612184E+00
                       1.1273649745E+00  4.7232297577E+00  4.4016580106E+00
                       8.3550412034E+00  7.4842288724E-01  9.4708612184E+00
                      -3.8427888666E+00  7.4565289550E+00  4.4016580106E+00
                       4.8579760914E+00  0.0000000000E+00  9.3352820335E-01
                       4.5990293505E+00  5.6853670255E+00  2.9827244612E+00
                       2.3380306838E+00  6.9287864525E+00  8.0519276690E+00
                      -8.6777013721E-02  2.5195848167E+00  1.0889794768E+01
                       2.1742216530E+00  1.2761653897E+00  5.8205915600E+00
                      -2.6018499231E+00  4.1024759211E+00  6.0027314111E+00
             xred      2.5742700000E-01  7.4257300000E-01  7.5000000000E-01
                       7.4257300000E-01  2.5742700000E-01  2.5000000000E-01
                       5.7565600000E-01  4.2434400000E-01  7.5000000000E-01
                       4.2434400000E-01  5.7565600000E-01  2.5000000000E-01
                       9.0878400000E-01  9.1216000000E-02  7.5000000000E-01
                       9.1216000000E-02  9.0878400000E-01  2.5000000000E-01
                       5.0000000000E-01  0.0000000000E+00  0.0000000000E+00
                       8.4446400000E-01  6.9291900000E-01  1.1081000000E-02
                       6.9291900000E-01  8.4446400000E-01  5.1108100000E-01
                       1.5553600000E-01  3.0708100000E-01  9.8891900000E-01
                       3.0708100000E-01  1.5553600000E-01  4.8891900000E-01
                      -5.5511151231E-17  5.0000000000E-01  5.0000000000E-01
            znucl        3.00000   40.00000    8.00000

 chkinp: Checking input parameters for consistency.

== DATASET  1 ==================================================================
-   mpi_nproc: 1, omp_nthreads: -1 (-1 if OMP is not activated)

--- !DatasetInfo
iteration_state: {dtset: 1, }
dimensions: {natom: 12, nkpt: 2, mband: 45, nsppol: 1, nspinor: 1, nspden: 1, mpw: 11270, }
cutoff_energies: {ecut:  44.0, pawecutdg:  -1.0, }
electrons: {nelect:   7.20000000E+01, charge:   0.00000000E+00, occopt:   1.00000000E+00, tsmear:   1.00000000E-02, }
meta: {optdriver: 1, rfelfd: 2, }
...

 Real(R)+Recip(G) space primitive vectors, cartesian coordinates (Bohr,Bohr^-1):
 R(1)=  9.7159522  0.0000000  1.8670564  G(1)=  0.1029235  0.0652756  0.0000000
 R(2)= -5.2036998  8.2049518  1.8670564  G(2)=  0.0000000  0.1218776  0.0000000
 R(3)=  0.0000000  0.0000000 10.1384064  G(3)= -0.0189541 -0.0344655  0.0986348
 Unit cell volume ucvol=  8.0822281E+02 bohr^3
 Angles (23,13,12)=  7.91224115E+01  7.91224115E+01  1.18744066E+02 degrees

 getcut: wavevector=  0.0000  0.0000  0.0000  ngfft=  60  60  64
         ecut(hartree)=     44.000   => boxcut(ratio)=   2.03122

--- Pseudopotential description ------------------------------------------------
- pspini: atom type   1  psp file is /scratch/users/j/a/jabreu/pseudos/PBEsol/Li.psp8
- pspatm: opening atomic psp file    /scratch/users/j/a/jabreu/pseudos/PBEsol/Li.psp8
- Li    ONCVPSP-3.3.0  r_core=   1.40824   1.10935
-  3.00000   3.00000    180112                znucl, zion, pspdat
    8 -116133    1    4       400   0.00000   pspcod,pspxc,lmax,lloc,mmax,r2well
    3.99000000000000    0.00000000000000    0.00000000000000   rchrg,fchrg,qchrg
     nproj     2     2
     extension_switch     1
  pspatm : epsatm=    2.60859637
         --- l  ekb(1:nproj) -->
             0   -4.855856   -1.482423
             1   -2.171544   -0.427615
 pspatm: atomic psp has been read  and splines computed

- pspini: atom type   2  psp file is /scratch/users/j/a/jabreu/pseudos/PBEsol/Zr.psp8
- pspatm: opening atomic psp file    /scratch/users/j/a/jabreu/pseudos/PBEsol/Zr.psp8
- Zr    ONCVPSP-3.3.0  r_core=   1.56507   1.56507   1.51006
- 40.00000  12.00000    180112                znucl, zion, pspdat
    8 -116133    2    4       600   0.00000   pspcod,pspxc,lmax,lloc,mmax,r2well
    5.99000000000000    5.00000000000000    0.00000000000000   rchrg,fchrg,qchrg
     nproj     2     2     2
     extension_switch     1
  pspatm : epsatm=   18.88750170
         --- l  ekb(1:nproj) -->
             0   10.584966    0.890424
             1    5.814585    0.741293
             2    1.525459    0.487901
 pspatm: atomic psp has been read  and splines computed

- pspini: atom type   3  psp file is /scratch/users/j/a/jabreu/pseudos/PBEsol/O.psp8
- pspatm: opening atomic psp file    /scratch/users/j/a/jabreu/pseudos/PBEsol/O.psp8
- O     ONCVPSP-3.3.0  r_core=   1.35509   1.45563   1.26150
-  8.00000   6.00000    180112                znucl, zion, pspdat
    8 -116133    2    4       600   0.00000   pspcod,pspxc,lmax,lloc,mmax,r2well
    5.99000000000000    4.00000000000000    0.00000000000000   rchrg,fchrg,qchrg
     nproj     2     2     1
     extension_switch     1
  pspatm : epsatm=    6.22910522
         --- l  ekb(1:nproj) -->
             0    6.050032    0.820363
             1   -4.739617   -1.153841
             2   -1.335834
 pspatm: atomic psp has been read  and splines computed

   6.16204945E+03                                ecore*ucvol(ha*bohr**3)

 ==>  initialize data related to q vector <==

 The list of irreducible perturbations for this q vector is:
    1)    idir= 1    ipert=  13
    2)    idir= 2    ipert=  13
    3)    idir= 3    ipert=  13

 Perturbation wavevector (in red.coord.)   0.000000  0.000000  0.000000
 Perturbation : derivative vs k along direction   1

 dfpt_looppert : COMMENT -
  In a d/dk calculation, iscf is set to -3 automatically.
 The set of symmetries contains only one element for this perturbation.
 symkpt : not enough symmetry to change the number of k points.

 Initialisation of the first-order wave-functions :
  ireadwf=   0

--- !BeginCycle
iteration_state: {dtset: 1, }
solver: {iscf: 7, nstep: 2000, nline: 4, wfoptalg: 0, }
tolerances: {tolwfr: 1.00E-20, }
...

     iter   2DEtotal(Ha)        deltaE(Ha) residm    vres2
[...]
 ETOT 16  -44.049588409068      0.000E+00 2.643E-16 0.000E+00
 ETOT 17  -44.049588409068      7.105E-15 5.606E-17 0.000E+00
 ETOT 18  -44.049588409068     -1.421E-14 4.957E-18 0.000E+00
 ETOT 19  -44.049588409068      2.132E-14 1.071E-18 0.000E+00
 ETOT 20  -44.049588409068      2.132E-14 9.373E-20 0.000E+00
 ETOT 21  -44.049588409068     -3.553E-14 2.053E-20 0.000E+00
 ETOT 22  -44.049588409068      1.421E-14 9.936E-21 0.000E+00

 At SCF step   22   max residual=  9.94E-21 < tolwfr=  1.00E-20 =>converged.

 ----iterations are completed or convergence reached----

 dfpt_looppert: DFPT cycle converged with prtwf=-1. Will skip output of the 1st-order WFK file.
 dfpt_looppert : ek2=    8.4444264245E+01
          f-sum rule ratio=    1.0270817891E+00
 prteigrs : about to open file /scratch/users/j/a/jabreu/flow_simple_11atoms/flow/w213/t1/tmpdata/tmp_1WF1_EIG
 Expectation of eigenvalue derivatives (hartree) for nkpt=   2  k points:
  (in case of degenerate eigenvalues, averaged derivative)
 kpt#   1, nband= 45, wtk=  0.50000, kpt=  0.0000  0.0000  0.0000 (reduced coord)
   0.00000    0.00000    0.00000   -0.00000   -0.00000    0.00000    0.00000   -0.00000
   0.00000    0.00000    0.00000    0.00000   -0.00000    0.00000   -0.00000    0.00000
  -0.00000   -0.00000    0.00000   -0.00000   -0.00000    0.00000   -0.00000    0.00000
  -0.00000    0.00000    0.00000   -0.00000    0.00000   -0.00000    0.00000    0.00000
   0.00000   -0.00000   -0.00000   -0.00000    0.00000    0.00000   -0.00000    0.00000
   0.00000   -0.00000   -0.00000   -0.00000   -0.00000
 prteigrs : prtvol=0 or 1, do not print more k-points.

 Eight components of 2nd-order total energy (hartree) are
 1,2,3: 0th-order hamiltonian combined with 1st-order wavefunctions
     kin0=   6.25930167E+01 eigvalue=   1.20902275E+00  local=  -2.81656467E+01
 4,5,6: 1st-order hamiltonian combined with 1st and 0th-order wfs
     kin1=  -8.67311660E+01  Hartree=   0.00000000E+00     xc=   0.00000000E+00
 7,8,9: eventually, occupation + non-local contributions
    edocc=   1.05731092E+01     enl0=  -2.15991347E+00   enl1=  -1.36801082E+00
 1-9 gives the relaxation energy (to be shifted if some occ is /=2.0)
   erelax=  -4.40495884E+01
  No Ewald or frozen-wf contrib.: the relaxation energy is the total one
 2DEtotal=   -0.4404958841E+02 Ha. Also 2DEtotal=   -0.119865025907E+04 eV
    (  non-var. 2DEtotal :   -4.4049588409E+01 Ha)

 Perturbation wavevector (in red.coord.)   0.000000  0.000000  0.000000
 Perturbation : derivative vs k along direction   2
 The set of symmetries contains only one element for this perturbation.
 symkpt : not enough symmetry to change the number of k points.

[...]

 Perturbation wavevector (in red.coord.)   0.000000  0.000000  0.000000
 Perturbation : derivative vs k along direction   3
 The set of symmetries contains only one element for this perturbation.
 symkpt : not enough symmetry to change the number of k points.

 Initialisation of the first-order wave-functions :
  ireadwf=   0

--- !BeginCycle
iteration_state: {dtset: 1, }
solver: {iscf: 7, nstep: 2000, nline: 4, wfoptalg: 0, }
tolerances: {tolwfr: 1.00E-20, }
...

     iter   2DEtotal(Ha)        deltaE(Ha) residm    vres2
-ETOT  1  -33.471166265992     -3.347E+01 3.586E-02 0.000E+00
 ETOT  2  -33.528968217096     -5.780E-02 2.578E-03 0.000E+00
 ETOT  3  -33.529464231032     -4.960E-04 1.130E-04 0.000E+00
 ETOT  4  -33.529470281333     -6.050E-06 2.246E-05 0.000E+00
 ETOT  5  -33.529470369365     -8.803E-08 1.606E-06 0.000E+00
 ETOT  6  -33.529470370765     -1.400E-09 3.918E-07 0.000E+00
 ETOT  7  -33.529470370789     -2.393E-11 3.059E-08 0.000E+00
 ETOT  8  -33.529470370790     -4.334E-13 8.356E-09 0.000E+00
 ETOT  9  -33.529470370790      1.421E-14 6.590E-10 0.000E+00
 ETOT 10  -33.529470370790      1.421E-14 1.941E-10 0.000E+00
 ETOT 11  -33.529470370790      0.000E+00 1.530E-11 0.000E+00
 ETOT 12  -33.529470370790     -7.105E-15 4.639E-12 0.000E+00
 ETOT 13  -33.529470370790     -1.421E-14 3.723E-13 0.000E+00
 ETOT 14  -33.529470370790      0.000E+00 1.121E-13 0.000E+00
 ETOT 15  -33.529470370790      7.105E-15 9.335E-15 0.000E+00
 ETOT 16  -33.529470370790     -1.421E-14 2.733E-15 0.000E+00
 ETOT 17  -33.529470370790      1.421E-14 2.386E-16 0.000E+00
 ETOT 18  -33.529470370790     -1.421E-14 6.732E-17 0.000E+00
 ETOT 19  -33.529470370790      0.000E+00 6.171E-18 0.000E+00
 ETOT 20  -33.529470370790      0.000E+00 1.679E-18 0.000E+00
 ETOT 21  -33.529470370790      7.105E-15 1.609E-19 0.000E+00
 ETOT 22  -33.529470370790      0.000E+00 4.242E-20 0.000E+00
 ETOT 23  -33.529470370790      0.000E+00 9.869E-21 0.000E+00

 At SCF step   23   max residual=  9.87E-21 < tolwfr=  1.00E-20 =>converged.

 ----iterations are completed or convergence reached----

 dfpt_looppert: DFPT cycle converged with prtwf=-1. Will skip output of the 1st-order WFK file.
 dfpt_looppert : ek2=    6.4102613782E+01
          f-sum rule ratio=    1.0299012415E+00
 prteigrs : about to open file /scratch/users/j/a/jabreu/flow_simple_11atoms/flow/w213/t1/tmpdata/tmp_1WF1_EIG
 Expectation of eigenvalue derivatives (hartree) for nkpt=   2  k points:
  (in case of degenerate eigenvalues, averaged derivative)
 kpt#   1, nband= 45, wtk=  0.50000, kpt=  0.0000  0.0000  0.0000 (reduced coord)
  -0.00000    0.00000   -0.00000    0.00000   -0.00000    0.00000   -0.00000    0.00000
   0.00000    0.00000   -0.00000    0.00000    0.00000    0.00000    0.00000   -0.00000
  -0.00000   -0.00000    0.00000    0.00000    0.00000    0.00000    0.00000   -0.00000
   0.00000    0.00000   -0.00000    0.00000    0.00000    0.00000   -0.00000    0.00000
  -0.00000    0.00000    0.00000   -0.00000   -0.00000    0.00000    0.00000    0.00000
   0.00000   -0.00000   -0.00000   -0.00000    0.00000
 prteigrs : prtvol=0 or 1, do not print more k-points.

 Eight components of 2nd-order total energy (hartree) are
 1,2,3: 0th-order hamiltonian combined with 1st-order wavefunctions
     kin0=   4.79011518E+01 eigvalue=   8.92723394E-01  local=  -2.20269137E+01
 4,5,6: 1st-order hamiltonian combined with 1st and 0th-order wfs
     kin1=  -6.60193615E+01  Hartree=   0.00000000E+00     xc=   0.00000000E+00
 7,8,9: eventually, occupation + non-local contributions
    edocc=   8.31655057E+00     enl0=  -1.55404169E+00   enl1=  -1.03957922E+00
 1-9 gives the relaxation energy (to be shifted if some occ is /=2.0)
   erelax=  -3.35294704E+01
  No Ewald or frozen-wf contrib.: the relaxation energy is the total one
 2DEtotal=   -0.3352947037E+02 Ha. Also 2DEtotal=   -0.912383288882E+03 eV
    (  non-var. 2DEtotal :   -3.3529470371E+01 Ha)

 CALCULATION OF EFFECTIVE MASSES
 NOTE : Additional infos (eff. mass eigenvalues, eigenvectors and, if degenerate, average mass) are available in stdout.

 K-point ( 0.000, 0.000, 0.000) | band =    36
 Effective mass tensor:
             -2.4628222136              0.5521640091              0.4172204912
              0.5521640091             -1.7624395155              0.7586592466
              0.4172204912              0.7586592466             -1.5074008352
 Effective mass tensor eigenvalues:
             -2.7664802921             -2.3492480228             -0.6169342495
 Angular average effective mass 1/(<1/m>)=  -1.2458179274
 Angular average effective mass for Frohlich model (<m**0.5>)**2=  -1.4508816804
 Effective masses along directions: (cart. coord. / red. coord. -> eff. mass)
    1:   1.000000  0.000000  0.000000 /   0.881528 -0.472132  0.000000 ->  -1.9266119750
    2:   0.000000  1.000000  0.000000 /   0.000000  1.000000  0.000000 ->  -1.1331566748
    3:   0.000000  0.000000  1.000000 /   0.178212  0.178212  0.967719 ->  -0.9935220788
    4:   0.577350  0.577350  0.577350 /   0.717446  0.301541  0.627968 ->  -0.6516398896
    5:   0.000000  0.707107  0.707107 /   0.129545  0.698841  0.703448 ->  -0.6812173832
    6:   0.707107  0.000000  0.707107 /   0.735393 -0.211840  0.643677 ->  -0.9517885956
    7:   0.707107  0.707107  0.000000 /   0.955454  0.295139  0.000000 ->  -1.0128639168

 K-point ( 0.500,-0.500, 0.000) | band =    37
 Effective mass tensor:
              0.7160389612              0.2271730861              0.4055500679
              0.2271730861              1.0041919125              0.7374407552
              0.4055500679              0.7374407552              1.5978643580
 Effective mass tensor eigenvalues:
              0.4898700985              0.5911068089              2.2371183243
 Angular average effective mass 1/(<1/m>)=   0.7176857056
 Angular average effective mass for Frohlich model (<m**0.5>)**2=   0.7924462003
 Effective masses along directions: (cart. coord. / red. coord. -> eff. mass)
    1:   1.000000  0.000000  0.000000 /   0.881528 -0.472132  0.000000 ->   0.6106964970
    2:   0.000000  1.000000  0.000000 /   0.000000  1.000000  0.000000 ->   0.6612405259
    3:   0.000000  0.000000  1.000000 /   0.178212  0.178212  0.967719 ->   0.9705730380
    4:   0.577350  0.577350  0.577350 /   0.717446  0.301541  0.627968 ->   1.5816090738
    5:   0.000000  0.707107  0.707107 /   0.129545  0.698841  0.703448 ->   1.6711127497
    6:   0.707107  0.000000  0.707107 /   0.735393 -0.211840  0.643677 ->   1.0375222036
    7:   0.707107  0.707107  0.000000 /   0.955454  0.295139  0.000000 ->   0.6774084896

 END OF EFFECTIVE MASSES SECTION

 ---- first-order wavefunction calculations are completed ----

 Total localisation tensor (bohr^2) in cartesian coordinates
  WARNING : still subject to testing - especially symmetries.
      direction              matrix element
   alpha     beta       real part   imaginary part
     1        1       1.2539877465    0.0000000000
     1        2      -0.4407406336    0.0000000000
     1        3       0.0869652601    0.0000000000
     2        1      -0.4407406336    0.0000000000
     2        2       0.6949393278    0.0000000000
     2        3       0.1581351054    0.0000000000
     3        1       0.0869652601    0.0000000000
     3        2       0.1581351054    0.0000000000
     3        3       0.9108543330    0.0000000000

 respfn : d/dk was computed, but no 2DTE, so no DDB output.

== END DATASET(S) ==============================================================

 -outvars: echo values of variables after computation  --------
            acell      1.0000000000E+00  1.0000000000E+00  1.0000000000E+00 Bohr
              amu      6.94100000E+00  9.12240000E+01  1.59994000E+01
             ecut      4.40000000E+01 Hartree
           etotal     -3.3529470371E+01
            fcart      0.0000000000E+00  0.0000000000E+00  0.0000000000E+00
                       0.0000000000E+00  0.0000000000E+00  0.0000000000E+00
                       0.0000000000E+00  0.0000000000E+00  0.0000000000E+00
                       0.0000000000E+00  0.0000000000E+00  0.0000000000E+00
                       0.0000000000E+00  0.0000000000E+00  0.0000000000E+00
                       0.0000000000E+00  0.0000000000E+00  0.0000000000E+00
                       0.0000000000E+00  0.0000000000E+00  0.0000000000E+00
                       0.0000000000E+00  0.0000000000E+00  0.0000000000E+00
                       0.0000000000E+00  0.0000000000E+00  0.0000000000E+00
                       0.0000000000E+00  0.0000000000E+00  0.0000000000E+00
                       0.0000000000E+00  0.0000000000E+00  0.0000000000E+00
                       0.0000000000E+00  0.0000000000E+00  0.0000000000E+00
-          fftalg         512
           irdden           1
           irdwfk           1
           istwfk        1    0
              ixc     -116133
              kpt      0.00000000E+00  0.00000000E+00  0.00000000E+00
                       5.00000000E-01 -5.00000000E-01  0.00000000E+00
           kptopt           0
P           mkmem           2
P          mkqmem           2
P          mk1mem           2
            natom          12
            nband          45
           nbdbuf           4
            ngfft          60      60      64
             nkpt           2
            nstep        2000
             nsym           4
           ntypat           3
              occ      2.000000  2.000000  2.000000  2.000000  2.000000  2.000000
                       2.000000  2.000000  2.000000  2.000000  2.000000  2.000000
                       2.000000  2.000000  2.000000  2.000000  2.000000  2.000000
                       2.000000  2.000000  2.000000  2.000000  2.000000  2.000000
                       2.000000  2.000000  2.000000  2.000000  2.000000  2.000000
                       2.000000  2.000000  2.000000  2.000000  2.000000  2.000000
                       0.000000  0.000000  0.000000  0.000000  0.000000  0.000000
                       0.000000  0.000000  0.000000
        optdriver           1
            prtwf          -1
            rfdir           1       1       1
           rfelfd           2
            rprim      9.7159521829E+00  0.0000000000E+00  1.8670564067E+00
                      -5.2036998461E+00  8.2049518422E+00  1.8670564067E+00
                       0.0000000000E+00  0.0000000000E+00  1.0138406416E+01
          spgroup          15
           strten      0.0000000000E+00  0.0000000000E+00  0.0000000000E+00
                       0.0000000000E+00  0.0000000000E+00  0.0000000000E+00
           symrel      1  0  0   0  1  0   0  0  1      -1  0  0   0 -1  0   0  0 -1
                       0 -1  0  -1  0  0   0  0 -1       0  1  0   1  0  0   0  0  1
            tnons      0.0000000  0.0000000  0.0000000    -0.0000000 -0.0000000 -0.0000000
                      -0.0000000 -0.0000000  0.5000000    -0.0000000  0.0000000  0.5000000
           tolwfr      1.00000000E-20
            typat      1  1  1  1  2  2  3  3  3  3  3  3
           useylm           1
              wtk        0.50000    0.50000
           xangst     -7.2125720204E-01  3.2241580398E+00  5.0117639025E+00
                       3.1090382981E+00  1.1177154727E+00  2.3292570992E+00
                       1.7912052458E+00  1.8424479738E+00  5.0117639025E+00
                       5.9657585026E-01  2.4994255387E+00  2.3292570992E+00
                       4.4212973817E+00  3.9604833431E-01  5.0117639025E+00
                      -2.0335162856E+00  3.9458251782E+00  2.3292570992E+00
                       2.5707302275E+00  0.0000000000E+00  4.9400184879E-01
                       2.4337015139E+00  3.0085666524E+00  1.5783898044E+00
                       1.2372325508E+00  3.6665558738E+00  4.2608966076E+00
                      -4.5920417890E-02  1.3333068601E+00  5.7626311973E+00
                       1.1505485452E+00  6.7531763864E-01  3.0801243941E+00
                      -1.3768396794E+00  2.1709367562E+00  3.1765086521E+00
            xcart     -1.3629785832E+00  6.0927757043E+00  9.4708612184E+00
                       5.8752309200E+00  2.1121761379E+00  4.4016580106E+00
                       3.3848873623E+00  3.4817220845E+00  9.4708612184E+00
                       1.1273649745E+00  4.7232297577E+00  4.4016580106E+00
                       8.3550412034E+00  7.4842288724E-01  9.4708612184E+00
                      -3.8427888666E+00  7.4565289550E+00  4.4016580106E+00
                       4.8579760914E+00  0.0000000000E+00  9.3352820335E-01
                       4.5990293505E+00  5.6853670255E+00  2.9827244612E+00
                       2.3380306838E+00  6.9287864525E+00  8.0519276690E+00
                      -8.6777013721E-02  2.5195848167E+00  1.0889794768E+01
                       2.1742216530E+00  1.2761653897E+00  5.8205915600E+00
                      -2.6018499231E+00  4.1024759211E+00  6.0027314111E+00
             xred      2.5742700000E-01  7.4257300000E-01  7.5000000000E-01
                       7.4257300000E-01  2.5742700000E-01  2.5000000000E-01
                       5.7565600000E-01  4.2434400000E-01  7.5000000000E-01
                       4.2434400000E-01  5.7565600000E-01  2.5000000000E-01
                       9.0878400000E-01  9.1216000000E-02  7.5000000000E-01
                       9.1216000000E-02  9.0878400000E-01  2.5000000000E-01
                       5.0000000000E-01  0.0000000000E+00  0.0000000000E+00
                       8.4446400000E-01  6.9291900000E-01  1.1081000000E-02
                       6.9291900000E-01  8.4446400000E-01  5.1108100000E-01
                       1.5553600000E-01  3.0708100000E-01  9.8891900000E-01
                       3.0708100000E-01  1.5553600000E-01  4.8891900000E-01
                      -5.5511151231E-17  5.0000000000E-01  5.0000000000E-01
            znucl        3.00000   40.00000    8.00000

- Timing analysis has been suppressed with timopt=0

 Suggested references for the acknowledgment of ABINIT usage.

 Calculation completed.
.Delivered   2 WARNINGs and   5 COMMENTs to log file.