.Version 9.5.1 of ABINIT

 ABINIT is a project of the Universite Catholique de Louvain,
 Corning Inc. and other collaborators, see ~abinit/doc/developers/contributors.txt .
 acknowledgments of the ABINIT effort.

.Starting date : Tue 27 Apr 2021.
- ( at 18h47 )

- input  file    -> /scratch/users/j/a/jabreu/flow_simple_4atoms/flow/w261/t1/run.abi
- output file    -> /scratch/users/j/a/jabreu/flow_simple_4atoms/flow/w261/t1/run.abo
- root for input  files -> /scratch/users/j/a/jabreu/flow_simple_4atoms/flow/w261/t1/indata/in
- root for output files -> /scratch/users/j/a/jabreu/flow_simple_4atoms/flow/w261/t1/outdata/out

 Symmetries : space group R-3 m (#166); Bravais hR (rhombohedral)
     intxc =       0      iscf =       7    lmnmax =      18     lnmax =       6
     mgfft =      72  mpssoang =       3    mqgrid =    3001     natom =       4
  nloc_mem =       1    nspden =       1   nspinor =       1    nsppol =       1
      nsym =      12    n1xccc =    2501    ntypat =       3    occopt =       1
   xclevel =       2
-    mband =          30        mffmem =           1         mkmem =           1
-   mkqmem =           1        mk1mem =           1           mpw =        5026
      nfft =      373248          nkpt =           1
  Rough estimation (10% accuracy) of disk space for files :

------------- Echo of variables that govern the present computation ------------
-
- outvars: echo of selected default values
-   iomode0 =  0 , fftalg0 =512 , wfoptalg0 =  0
-
- outvars: echo of global parameters not present in the input file
-  max_nthreads =    0
-
 -outvars: echo values of preprocessed input variables --------
            acell      1.0000000000E+00  1.0000000000E+00  1.0000000000E+00 Bohr
              amu      4.49559100E+01  6.35460000E+01  1.59994000E+01
             ecut      4.60000000E+01 Hartree
-          fftalg         512
           irdden           1
           irdwfk           1
           istwfk        1
              ixc     -116133
              kpt      5.00000000E-01  0.00000000E+00  2.77555756E-17
           kptopt           0
P           mkmem           1
P          mkqmem           1
P          mk1mem           1
            natom           4
            nband          30
           nbdbuf           4
            ngfft          72      72      72
             nkpt           1
            nstep         100
             nsym          12
           ntypat           3
              occ      2.000000  2.000000  2.000000  2.000000  2.000000  2.000000
                       2.000000  2.000000  2.000000  2.000000  2.000000  2.000000
                       2.000000  2.000000  2.000000  2.000000  2.000000  2.000000
                       2.000000  2.000000  2.000000  0.000000  0.000000  0.000000
                       0.000000  0.000000  0.000000  0.000000  0.000000  0.000000
        optdriver           1
            prtwf          -1
            rfdir           1       1       1
           rfelfd           2
            rprim      5.8240066481E+00  0.0000000000E+00  9.5888507286E+00
                       2.6838731546E+00  5.1687404972E+00  9.5888507286E+00
                       0.0000000000E+00  0.0000000000E+00  1.1218962150E+01
          spgroup         166
           symrel      1  0  0   0  1  0   0  0  1      -1  0  0   0 -1  0   0  0 -1
                       0  1  0   1  0  0   0  0  1       0 -1  0  -1  0  0   0  0 -1
                       0  0  1   1  0  0   0  1  0       0  0 -1  -1  0  0   0 -1  0
                       1  0  0   0  0  1   0  1  0      -1  0  0   0  0 -1   0 -1  0
                       0  1  0   0  0  1   1  0  0       0 -1  0   0  0 -1  -1  0  0
                       0  0  1   0  1  0   1  0  0       0  0 -1   0 -1  0  -1  0  0
           tolwfr      1.00000000E-20
            typat      1  2  3  3
           useylm           1
           xangst      2.2510880425E+00  1.3675898341E+00  8.0426107992E+00
                       0.0000000000E+00  0.0000000000E+00  0.0000000000E+00
                       4.8193994120E-01  2.9279004277E-01  1.7218586312E+00
                       4.0202361438E+00  2.4423896255E+00  1.4363362967E+01
            xcart      4.2539399013E+00  2.5843702486E+00  1.5198331804E+01
                       0.0000000000E+00  0.0000000000E+00  0.0000000000E+00
                       9.1073450136E-01  5.5329299526E-01  3.2538412525E+00
                       7.5971453013E+00  4.6154475019E+00  2.7142822355E+01
             xred      5.0000000000E-01  5.0000000000E-01  5.0000000000E-01
                       0.0000000000E+00  0.0000000000E+00  0.0000000000E+00
                       1.0704600000E-01  1.0704600000E-01  1.0704600000E-01
                       8.9295400000E-01  8.9295400000E-01  8.9295400000E-01
            znucl       21.00000   29.00000    8.00000

 chkinp: Checking input parameters for consistency.

== DATASET  1 ==================================================================
-   mpi_nproc: 1, omp_nthreads: -1 (-1 if OMP is not activated)

--- !DatasetInfo
iteration_state: {dtset: 1, }
dimensions: {natom: 4, nkpt: 1, mband: 30, nsppol: 1, nspinor: 1, nspden: 1, mpw: 5026, }
cutoff_energies: {ecut:  46.0, pawecutdg:  -1.0, }
electrons: {nelect:   4.20000000E+01, charge:   0.00000000E+00, occopt:   1.00000000E+00, tsmear:   1.00000000E-02, }
meta: {optdriver: 1, rfelfd: 2, }
...

 Real(R)+Recip(G) space primitive vectors, cartesian coordinates (Bohr,Bohr^-1):
 R(1)=  5.8240066  0.0000000  9.5888507  G(1)=  0.1717031 -0.0891570  0.0000000
 R(2)=  2.6838732  5.1687405  9.5888507  G(2)=  0.0000000  0.1934707  0.0000000
 R(3)=  0.0000000  0.0000000 11.2189622  G(3)= -0.1467547 -0.0891570  0.0891348
 Unit cell volume ucvol=  3.3772194E+02 bohr^3
 Angles (23,13,12)=  3.12733550E+01  3.12733550E+01  3.12733550E+01 degrees

 getcut: wavevector=  0.0000  0.0000  0.0000  ngfft=  72  72  72
         ecut(hartree)=     46.000   => boxcut(ratio)=   2.10223

--- Pseudopotential description ------------------------------------------------
- pspini: atom type   1  psp file is /scratch/users/j/a/jabreu/pseudos/PBEsol/Sc.psp8
- pspatm: opening atomic psp file    /scratch/users/j/a/jabreu/pseudos/PBEsol/Sc.psp8
- Sc    ONCVPSP-3.3.0  r_core=   1.35663   1.35663   1.66161
- 21.00000  11.00000    180112                znucl, zion, pspdat
    8 -116133    2    4       600   0.00000   pspcod,pspxc,lmax,lloc,mmax,r2well
    5.99000000000000    5.00000000000000    0.00000000000000   rchrg,fchrg,qchrg
     nproj     2     2     2
     extension_switch     1
  pspatm : epsatm=   13.58981094
         --- l  ekb(1:nproj) -->
             0   10.810997    0.948773
             1    2.871172    0.364831
             2   -4.789751   -1.321945
 pspatm: atomic psp has been read  and splines computed

- pspini: atom type   2  psp file is /scratch/users/j/a/jabreu/pseudos/PBEsol/Cu.psp8
- pspatm: opening atomic psp file    /scratch/users/j/a/jabreu/pseudos/PBEsol/Cu.psp8
- Cu    ONCVPSP-3.3.0  r_core=   1.26204   1.45626   1.76249
- 29.00000  19.00000    180112                znucl, zion, pspdat
    8 -116133    2    4       600   0.00000   pspcod,pspxc,lmax,lloc,mmax,r2well
    5.99000000000000    3.50000000000000    0.00000000000000   rchrg,fchrg,qchrg
     nproj     2     2     2
     extension_switch     1
  pspatm : epsatm=   21.63488701
         --- l  ekb(1:nproj) -->
             0    5.008230   -0.401634
             1   -3.496700   -0.765945
             2   -6.895851   -2.521180
 pspatm: atomic psp has been read  and splines computed

- pspini: atom type   3  psp file is /scratch/users/j/a/jabreu/pseudos/PBEsol/O.psp8
- pspatm: opening atomic psp file    /scratch/users/j/a/jabreu/pseudos/PBEsol/O.psp8
- O     ONCVPSP-3.3.0  r_core=   1.35509   1.45563   1.26150
-  8.00000   6.00000    180112                znucl, zion, pspdat
    8 -116133    2    4       600   0.00000   pspcod,pspxc,lmax,lloc,mmax,r2well
    5.99000000000000    4.00000000000000    0.00000000000000   rchrg,fchrg,qchrg
     nproj     2     2     1
     extension_switch     1
  pspatm : epsatm=    6.22910522
         --- l  ekb(1:nproj) -->
             0    6.050032    0.820363
             1   -4.739617   -1.153841
             2   -1.335834
 pspatm: atomic psp has been read  and splines computed

   2.00268215E+03                                ecore*ucvol(ha*bohr**3)

-inwffil : will read wavefunctions from disk file /scratch/users/j/a/jabreu/flow_simple_4atoms/flow/w261/t1/indata/in_WFK

 ==>  initialize data related to q vector <==

 The list of irreducible perturbations for this q vector is:
    1)    idir= 1    ipert=   5
    2)    idir= 2    ipert=   5
    3)    idir= 3    ipert=   5

 Perturbation wavevector (in red.coord.)   0.000000  0.000000  0.000000
 Perturbation : derivative vs k along direction   1

 dfpt_looppert : COMMENT -
  In a d/dk calculation, iscf is set to -3 automatically.
 The set of symmetries contains only one element for this perturbation.
 symkpt : not enough symmetry to change the number of k points.

[...]

 Initialisation of the first-order wave-functions :
  ireadwf=   0

--- !BeginCycle
iteration_state: {dtset: 1, }
solver: {iscf: 7, nstep: 100, nline: 4, wfoptalg: 0, }
tolerances: {tolwfr: 1.00E-20, }
...

     iter   2DEtotal(Ha)        deltaE(Ha) residm    vres2
-ETOT  1  -72.880321491107     -7.288E+01 1.103E-01 0.000E+00
 ETOT  2  -72.937254553374     -5.693E-02 1.429E-03 0.000E+00
 ETOT  3  -72.937862586177     -6.080E-04 2.486E-05 0.000E+00
 ETOT  4  -72.937873954436     -1.137E-05 7.151E-07 0.000E+00
 ETOT  5  -72.937874210186     -2.558E-07 1.928E-08 0.000E+00
 ETOT  6  -72.937874216498     -6.311E-09 6.432E-10 0.000E+00
 ETOT  7  -72.937874216663     -1.648E-10 1.797E-11 0.000E+00
 ETOT  8  -72.937874216667     -4.519E-12 6.168E-13 0.000E+00
 ETOT  9  -72.937874216667     -1.421E-13 1.752E-14 0.000E+00
 ETOT 10  -72.937874216667      5.684E-14 6.106E-16 0.000E+00
 ETOT 11  -72.937874216667      0.000E+00 1.767E-17 0.000E+00
 ETOT 12  -72.937874216667     -2.842E-14 6.223E-19 0.000E+00
 ETOT 13  -72.937874216667     -2.842E-14 1.826E-20 0.000E+00
 ETOT 14  -72.937874216667      2.842E-14 9.445E-21 0.000E+00

 At SCF step   14   max residual=  9.45E-21 < tolwfr=  1.00E-20 =>converged.

 ----iterations are completed or convergence reached----

 dfpt_looppert: DFPT cycle converged with prtwf=-1. Will skip output of the 1st-order WFK file.
 dfpt_looppert : ek2=    1.2412794512E+02
          f-sum rule ratio=    1.1449128024E+00
 prteigrs : about to open file /scratch/users/j/a/jabreu/flow_simple_4atoms/flow/w261/t1/tmpdata/tmp_1WF1_EIG
 Expectation of eigenvalue derivatives (hartree) for nkpt=   1  k points:
  (in case of degenerate eigenvalues, averaged derivative)
 kpt#   1, nband= 30, wtk=  1.00000, kpt=  0.5000  0.0000  0.0000 (reduced coord)
  -0.00000   -0.00000    0.00000    0.00000   -0.00000    0.00000    0.00000    0.00000
   0.00000    0.00000   -0.00000    0.00000    0.00000    0.00000   -0.00000    0.00000
   0.00000    0.00000   -0.00000   -0.00000    0.00000    0.00000    0.00000   -0.00000
   0.00000    0.00000    0.00000   -0.00000   -0.00002   -0.00001

 Eight components of 2nd-order total energy (hartree) are
 1,2,3: 0th-order hamiltonian combined with 1st-order wavefunctions
     kin0=   8.13680680E+01 eigvalue=  -2.22416918E-01  local=  -3.04662691E+01
 4,5,6: 1st-order hamiltonian combined with 1st and 0th-order wfs
     kin1=  -1.42115673E+02  Hartree=   0.00000000E+00     xc=   0.00000000E+00
 7,8,9: eventually, occupation + non-local contributions
    edocc=   2.46343646E+01     enl0=  -2.37587243E+00   enl1=  -3.76007494E+00
 1-9 gives the relaxation energy (to be shifted if some occ is /=2.0)
   erelax=  -7.29378742E+01
  No Ewald or frozen-wf contrib.: the relaxation energy is the total one
 2DEtotal=   -0.7293787422E+02 Ha. Also 2DEtotal=   -0.198474049324E+04 eV
    (  non-var. 2DEtotal :   -7.2937874216E+01 Ha)

 Perturbation wavevector (in red.coord.)   0.000000  0.000000  0.000000
 Perturbation : derivative vs k along direction   2
 The set of symmetries contains only one element for this perturbation.
 symkpt : not enough symmetry to change the number of k points.

[...]

 Perturbation wavevector (in red.coord.)   0.000000  0.000000  0.000000
 Perturbation : derivative vs k along direction   3
 The set of symmetries contains only one element for this perturbation.
 symkpt : not enough symmetry to change the number of k points.

-inwffil : will read wavefunctions from disk file /scratch/users/j/a/jabreu/flow_simple_4atoms/flow/w261/t1/indata/in_WFK

 Initialisation of the first-order wave-functions :
  ireadwf=   0

--- !BeginCycle
iteration_state: {dtset: 1, }
solver: {iscf: 7, nstep: 100, nline: 4, wfoptalg: 0, }
tolerances: {tolwfr: 1.00E-20, }
...

     iter   2DEtotal(Ha)        deltaE(Ha) residm    vres2
-ETOT  1  -67.857042377203     -6.786E+01 1.181E-01 0.000E+00
 ETOT  2  -67.935877954321     -7.884E-02 1.465E-03 0.000E+00
 ETOT  3  -67.936503063232     -6.251E-04 1.396E-05 0.000E+00
 ETOT  4  -67.936514730460     -1.167E-05 5.590E-07 0.000E+00
 ETOT  5  -67.936515017024     -2.866E-07 8.389E-09 0.000E+00
 ETOT  6  -67.936515024829     -7.805E-09 3.856E-10 0.000E+00
 ETOT  7  -67.936515025057     -2.280E-10 6.950E-12 0.000E+00
 ETOT  8  -67.936515025064     -6.864E-12 3.540E-13 0.000E+00
 ETOT  9  -67.936515025064     -2.558E-13 6.663E-15 0.000E+00
 ETOT 10  -67.936515025064      7.105E-14 3.766E-16 0.000E+00
 ETOT 11  -67.936515025064     -4.263E-14 7.011E-18 0.000E+00
 ETOT 12  -67.936515025064     -5.684E-14 4.151E-19 0.000E+00
 ETOT 13  -67.936515025064      2.842E-14 9.751E-21 0.000E+00

 At SCF step   13   max residual=  9.75E-21 < tolwfr=  1.00E-20 =>converged.

 ----iterations are completed or convergence reached----

 dfpt_looppert: DFPT cycle converged with prtwf=-1. Will skip output of the 1st-order WFK file.
 dfpt_looppert : ek2=    1.2412794512E+02
          f-sum rule ratio=    1.0469372733E+00
 prteigrs : about to open file /scratch/users/j/a/jabreu/flow_simple_4atoms/flow/w261/t1/tmpdata/tmp_1WF1_EIG
 Expectation of eigenvalue derivatives (hartree) for nkpt=   1  k points:
  (in case of degenerate eigenvalues, averaged derivative)
 kpt#   1, nband= 30, wtk=  1.00000, kpt=  0.5000  0.0000  0.0000 (reduced coord)
   0.00000    0.00000   -0.00000    0.00000    0.00000   -0.00000    0.00000   -0.00000
   0.00000   -0.00000    0.00000   -0.00000   -0.00000   -0.00000   -0.00000    0.00000
  -0.00000   -0.00000    0.00000    0.00000   -0.00000    0.00000   -0.00000    0.00000
  -0.00000   -0.00000   -0.00000   -0.00000    0.00002   -0.00032

 Eight components of 2nd-order total energy (hartree) are
 1,2,3: 0th-order hamiltonian combined with 1st-order wavefunctions
     kin0=   9.06964919E+01 eigvalue=  -8.34187829E-01  local=  -3.55313806E+01
 4,5,6: 1st-order hamiltonian combined with 1st and 0th-order wfs
     kin1=  -1.29954172E+02  Hartree=   0.00000000E+00     xc=   0.00000000E+00
 7,8,9: eventually, occupation + non-local contributions
    edocc=   1.64322803E+01     enl0=  -2.82668877E+00   enl1=  -5.91885765E+00
 1-9 gives the relaxation energy (to be shifted if some occ is /=2.0)
   erelax=  -6.79365150E+01
  No Ewald or frozen-wf contrib.: the relaxation energy is the total one
 2DEtotal=   -0.6793651503E+02 Ha. Also 2DEtotal=   -0.184864658846E+04 eV
    (  non-var. 2DEtotal :   -6.7936515025E+01 Ha)

 CALCULATION OF EFFECTIVE MASSES
 NOTE : Additional infos (eff. mass eigenvalues, eigenvectors and, if degenerate, average mass) are available in stdout.

 K-point ( 0.500, 0.000, 0.000) | band =    21
 Effective mass tensor:
             -3.9031229860             -6.7750441167              2.3077649934
             -6.7750441167            -13.7182133982              3.5389024556
              2.3077649934              3.5389024556             -3.3336744659
 Effective mass tensor eigenvalues:
            -18.3524628650             -2.2602519341             -0.3422960510
 Angular average effective mass 1/(<1/m>)=  -0.8776125881
 Angular average effective mass for Frohlich model (<m**0.5>)**2=  -1.4965152194
 Effective masses along directions: (cart. coord. / red. coord. -> eff. mass)
    1:   1.000000  0.000000  0.000000 /   0.908204  0.418527  0.000000 ->  -0.4275701730
    2:   0.000000  1.000000  0.000000 /   0.000000  1.000000  0.000000 ->  -1.8473740965
    3:   0.000000  0.000000  1.000000 /   0.544824  0.544824  0.637444 ->  -1.8578431676
    4:   0.577350  0.577350  0.577350 /   0.596508  0.675020  0.434196 ->  -1.3557713822
    5:   0.000000  0.707107  0.707107 /   0.459435  0.707087  0.537539 ->  -2.4305318061
    6:   0.707107  0.000000  0.707107 /   0.679805  0.541305  0.494827 ->  -0.5051598665
    7:   0.707107  0.707107  0.000000 /   0.595707  0.803202  0.000000 ->  -2.3553814002

 K-point ( 0.500, 0.000, 0.000) | band =    22
 Effective mass tensor:
              0.5620724424              0.0455469799             -0.4738544062
              0.0455469799              1.0638218626              0.4752377595
             -0.4738544062              0.4752377595              1.6643140843
 Effective mass tensor eigenvalues:
              0.3172290322              0.9375938429              2.0353855142
 Angular average effective mass 1/(<1/m>)=   0.6369205083
 Angular average effective mass for Frohlich model (<m**0.5>)**2=   0.7544144240
 Effective masses along directions: (cart. coord. / red. coord. -> eff. mass)
    1:   1.000000  0.000000  0.000000 /   0.908204  0.418527  0.000000 ->   0.3919178526
    2:   0.000000  1.000000  0.000000 /   0.000000  1.000000  0.000000 ->   0.8515483124
    3:   0.000000  0.000000  1.000000 /   0.544824  0.544824  0.637444 ->   1.0159738309
    4:   0.577350  0.577350  0.577350 /   0.596508  0.675020  0.434196 ->   0.6668335613
    5:   0.000000  0.707107  0.707107 /   0.459435  0.707087  0.537539 ->   1.6599724801
    6:   0.707107  0.000000  0.707107 /   0.679805  0.541305  0.494827 ->   0.3793117670
    7:   0.707107  0.707107  0.000000 /   0.595707  0.803202  0.000000 ->   0.7322008619

 END OF EFFECTIVE MASSES SECTION

 ---- first-order wavefunction calculations are completed ----

 Total localisation tensor (bohr^2) in cartesian coordinates
  WARNING : still subject to testing - especially symmetries.
      direction              matrix element
   alpha     beta       real part   imaginary part
     1        1       1.8253511561    0.0000000000
     1        2       0.3610431927    0.0000000000
     1        3       3.3664558181    0.0000000000
     2        1       0.3610431927    0.0000000000
     2        2       0.6953154876    0.0000000000
     2        3       1.2899228397    0.0000000000
     3        1       3.3664558181    0.0000000000
     3        2       1.2899228397    0.0000000000
     3        3      10.1086924036    0.0000000000

 respfn : d/dk was computed, but no 2DTE, so no DDB output.

== END DATASET(S) ==============================================================

 -outvars: echo values of variables after computation  --------
            acell      1.0000000000E+00  1.0000000000E+00  1.0000000000E+00 Bohr
              amu      4.49559100E+01  6.35460000E+01  1.59994000E+01
             ecut      4.60000000E+01 Hartree
           etotal     -6.7936515025E+01
            fcart      0.0000000000E+00  0.0000000000E+00  0.0000000000E+00
                       0.0000000000E+00  0.0000000000E+00  0.0000000000E+00
                       0.0000000000E+00  0.0000000000E+00  0.0000000000E+00
                       0.0000000000E+00  0.0000000000E+00  0.0000000000E+00
-          fftalg         512
           irdden           1
           irdwfk           1
           istwfk        1
              ixc     -116133
              kpt      5.00000000E-01  0.00000000E+00  2.77555756E-17
           kptopt           0
P           mkmem           1
P          mkqmem           1
P          mk1mem           1
            natom           4
            nband          30
           nbdbuf           4
            ngfft          72      72      72
             nkpt           1
            nstep         100
             nsym          12
           ntypat           3
              occ      2.000000  2.000000  2.000000  2.000000  2.000000  2.000000
                       2.000000  2.000000  2.000000  2.000000  2.000000  2.000000
                       2.000000  2.000000  2.000000  2.000000  2.000000  2.000000
                       2.000000  2.000000  2.000000  0.000000  0.000000  0.000000
                       0.000000  0.000000  0.000000  0.000000  0.000000  0.000000
        optdriver           1
            prtwf          -1
            rfdir           1       1       1
           rfelfd           2
            rprim      5.8240066481E+00  0.0000000000E+00  9.5888507286E+00
                       2.6838731546E+00  5.1687404972E+00  9.5888507286E+00
                       0.0000000000E+00  0.0000000000E+00  1.1218962150E+01
          spgroup         166
           strten      0.0000000000E+00  0.0000000000E+00  0.0000000000E+00
                       0.0000000000E+00  0.0000000000E+00  0.0000000000E+00
           symrel      1  0  0   0  1  0   0  0  1      -1  0  0   0 -1  0   0  0 -1
                       0  1  0   1  0  0   0  0  1       0 -1  0  -1  0  0   0  0 -1
                       0  0  1   1  0  0   0  1  0       0  0 -1  -1  0  0   0 -1  0
                       1  0  0   0  0  1   0  1  0      -1  0  0   0  0 -1   0 -1  0
                       0  1  0   0  0  1   1  0  0       0 -1  0   0  0 -1  -1  0  0
                       0  0  1   0  1  0   1  0  0       0  0 -1   0 -1  0  -1  0  0
           tolwfr      1.00000000E-20
            typat      1  2  3  3
           useylm           1
           xangst      2.2510880425E+00  1.3675898341E+00  8.0426107992E+00
                       0.0000000000E+00  0.0000000000E+00  0.0000000000E+00
                       4.8193994120E-01  2.9279004277E-01  1.7218586312E+00
                       4.0202361438E+00  2.4423896255E+00  1.4363362967E+01
            xcart      4.2539399013E+00  2.5843702486E+00  1.5198331804E+01
                       0.0000000000E+00  0.0000000000E+00  0.0000000000E+00
                       9.1073450136E-01  5.5329299526E-01  3.2538412525E+00
                       7.5971453013E+00  4.6154475019E+00  2.7142822355E+01
             xred      5.0000000000E-01  5.0000000000E-01  5.0000000000E-01
                       0.0000000000E+00  0.0000000000E+00  0.0000000000E+00
                       1.0704600000E-01  1.0704600000E-01  1.0704600000E-01
                       8.9295400000E-01  8.9295400000E-01  8.9295400000E-01
            znucl       21.00000   29.00000    8.00000

- Timing analysis has been suppressed with timopt=0

 Suggested references for the acknowledgment of ABINIT usage.

 Calculation completed.
.Delivered   6 WARNINGs and   5 COMMENTs to log file.