.Version 9.5.1 of ABINIT

 ABINIT is a project of the Universite Catholique de Louvain,
 Corning Inc. and other collaborators, see ~abinit/doc/developers/contributors.txt .
 acknowledgments of the ABINIT effort.

.Starting date : Tue 27 Apr 2021.
- ( at 18h36 )

- input  file    -> /scratch/users/j/a/jabreu/flow_simple_4atoms/flow/w206/t1/run.abi
- output file    -> /scratch/users/j/a/jabreu/flow_simple_4atoms/flow/w206/t1/run.abo
- root for input  files -> /scratch/users/j/a/jabreu/flow_simple_4atoms/flow/w206/t1/indata/in
- root for output files -> /scratch/users/j/a/jabreu/flow_simple_4atoms/flow/w206/t1/outdata/out

 Symmetries : space group R-3 m (#166); Bravais hR (rhombohedral)
     intxc =       0      iscf =       7    lmnmax =      18     lnmax =       6
     mgfft =      60  mpssoang =       3    mqgrid =    3001     natom =       4
  nloc_mem =       1    nspden =       1   nspinor =       1    nsppol =       1
      nsym =      12    n1xccc =    2501    ntypat =       3    occopt =       1
   xclevel =       2
-    mband =          21        mffmem =           1         mkmem =           2
-   mkqmem =           2        mk1mem =           2           mpw =        4989
      nfft =      216000          nkpt =           2
  Rough estimation (10% accuracy) of disk space for files :

------------- Echo of variables that govern the present computation ------------
-
- outvars: echo of selected default values
-   iomode0 =  0 , fftalg0 =512 , wfoptalg0 =  0
-
- outvars: echo of global parameters not present in the input file
-  max_nthreads =    0
-
 -outvars: echo values of preprocessed input variables --------
            acell      1.0000000000E+00  1.0000000000E+00  1.0000000000E+00 Bohr
              amu      4.00780000E+01  1.20110000E+01  1.40067400E+01
             ecut      4.20000000E+01 Hartree
-          fftalg         512
           irdden           1
           irdwfk           1
           istwfk        1    1
              ixc     -116133
              kpt      5.00000000E-01  5.00000000E-01  5.00000000E-01
                       0.00000000E+00  0.00000000E+00  0.00000000E+00
           kptopt           0
P           mkmem           2
P          mkqmem           2
P          mk1mem           2
            natom           4
            nband          21
           nbdbuf           4
            ngfft          60      60      60
             nkpt           2
            nstep         100
             nsym          12
           ntypat           3
              occ      2.000000  2.000000  2.000000  2.000000  2.000000  2.000000
                       2.000000  2.000000  2.000000  2.000000  2.000000  2.000000
                       0.000000  0.000000  0.000000  0.000000  0.000000  0.000000
                       0.000000  0.000000  0.000000
        optdriver           1
            prtwf          -1
            rfdir           1       1       1
           rfelfd           2
            rprim      6.4933338925E+00  0.0000000000E+00  7.7731494311E+00
                       2.8195073492E+00  5.8492532298E+00  7.7731494311E+00
                       0.0000000000E+00  0.0000000000E+00  1.0128437052E+01
          spgroup         166
           symrel      1  0  0   0  1  0   0  0  1      -1  0  0   0 -1  0   0  0 -1
                       0  1  0   1  0  0   0  0  1       0 -1  0  -1  0  0   0  0 -1
                       0  0  1   1  0  0   0  1  0       0  0 -1  -1  0  0   0 -1  0
                       1  0  0   0  0  1   0  1  0      -1  0  0   0  0 -1   0 -1  0
                       0  1  0   0  0  1   1  0  0       0 -1  0   0  0 -1  -1  0  0
                       0  0  1   0  1  0   1  0  0       0  0 -1   0 -1  0  -1  0  0
           tolwfr      1.00000000E-20
            typat      1  2  3  3
           useylm           1
              wtk        0.50000    0.50000
           xangst      0.0000000000E+00  0.0000000000E+00  0.0000000000E+00
                       2.4640716662E+00  1.5476457482E+00  6.7932425412E+00
                       2.8757934009E+00  1.8062418763E+00  7.9283254374E+00
                       2.0523499315E+00  1.2890496202E+00  5.6581596450E+00
            xcart      0.0000000000E+00  0.0000000000E+00  0.0000000000E+00
                       4.6564206208E+00  2.9246266149E+00  1.2837367957E+01
                       5.4344619424E+00  3.4133024760E+00  1.4982363769E+01
                       3.8783792993E+00  2.4359507538E+00  1.0692372145E+01
             xred      0.0000000000E+00  0.0000000000E+00  0.0000000000E+00
                       5.0000000000E-01  5.0000000000E-01  5.0000000000E-01
                       5.8354500000E-01  5.8354500000E-01  5.8354500000E-01
                       4.1645500000E-01  4.1645500000E-01  4.1645500000E-01
            znucl       20.00000    6.00000    7.00000

 chkinp: Checking input parameters for consistency.

== DATASET  1 ==================================================================
-   mpi_nproc: 1, omp_nthreads: -1 (-1 if OMP is not activated)

--- !DatasetInfo
iteration_state: {dtset: 1, }
dimensions: {natom: 4, nkpt: 2, mband: 21, nsppol: 1, nspinor: 1, nspden: 1, mpw: 4989, }
cutoff_energies: {ecut:  42.0, pawecutdg:  -1.0, }
electrons: {nelect:   2.40000000E+01, charge:   0.00000000E+00, occopt:   1.00000000E+00, tsmear:   1.00000000E-02, }
meta: {optdriver: 1, rfelfd: 2, }
...

 Real(R)+Recip(G) space primitive vectors, cartesian coordinates (Bohr,Bohr^-1):
 R(1)=  6.4933339  0.0000000  7.7731494  G(1)=  0.1540041 -0.0742344  0.0000000
 R(2)=  2.8195073  5.8492532  7.7731494  G(2)=  0.0000000  0.1709620  0.0000000
 R(3)=  0.0000000  0.0000000 10.1284371  G(3)= -0.1181917 -0.0742344  0.0987319
 Unit cell volume ucvol=  3.8468973E+02 bohr^3
 Angles (23,13,12)=  3.98738404E+01  3.98738404E+01  3.98738404E+01 degrees

 getcut: wavevector=  0.0000  0.0000  0.0000  ngfft=  60  60  60
         ecut(hartree)=     42.000   => boxcut(ratio)=   2.03058

--- Pseudopotential description ------------------------------------------------
- pspini: atom type   1  psp file is /scratch/users/j/a/jabreu/pseudos/PBEsol/Ca.psp8
- pspatm: opening atomic psp file    /scratch/users/j/a/jabreu/pseudos/PBEsol/Ca.psp8
- Ca    ONCVPSP-3.3.0  r_core=   1.45885   1.45885   1.85192
- 20.00000  10.00000    180112                znucl, zion, pspdat
    8 -116133    2    4       400   0.00000   pspcod,pspxc,lmax,lloc,mmax,r2well
    3.99000000000000    6.00000000000000    0.00000000000000   rchrg,fchrg,qchrg
     nproj     2     2     2
     extension_switch     1
  pspatm : epsatm=   12.46045226
         --- l  ekb(1:nproj) -->
             0   10.054847    0.973777
             1    2.998958    0.458102
             2   -3.447298   -1.091650
 pspatm: atomic psp has been read  and splines computed

- pspini: atom type   2  psp file is /scratch/users/j/a/jabreu/pseudos/PBEsol/C.psp8
- pspatm: opening atomic psp file    /scratch/users/j/a/jabreu/pseudos/PBEsol/C.psp8
- C     ONCVPSP-3.3.0  r_core=   1.20440   1.26326
-  6.00000   4.00000    180112                znucl, zion, pspdat
    8 -116133    1    4       600   0.00000   pspcod,pspxc,lmax,lloc,mmax,r2well
    5.99000000000000    4.00000000000000    0.00000000000000   rchrg,fchrg,qchrg
     nproj     2     2
     extension_switch     1
  pspatm : epsatm=    4.34909529
         --- l  ekb(1:nproj) -->
             0    6.468939    0.390031
             1   -4.179695   -0.878453
 pspatm: atomic psp has been read  and splines computed

- pspini: atom type   3  psp file is /scratch/users/j/a/jabreu/pseudos/PBEsol/N.psp8
- pspatm: opening atomic psp file    /scratch/users/j/a/jabreu/pseudos/PBEsol/N.psp8
- N     ONCVPSP-3.3.0  r_core=   1.20551   1.35824
-  7.00000   5.00000    180112                znucl, zion, pspdat
    8 -116133    1    4       600   0.00000   pspcod,pspxc,lmax,lloc,mmax,r2well
    5.99000000000000    4.00000000000000    0.00000000000000   rchrg,fchrg,qchrg
     nproj     2     2
     extension_switch     1
  pspatm : epsatm=    5.26508895
         --- l  ekb(1:nproj) -->
             0    7.464189    0.625868
             1   -4.309714   -1.012941
 pspatm: atomic psp has been read  and splines computed

   6.56153411E+02                                ecore*ucvol(ha*bohr**3)

-inwffil : will read wavefunctions from disk file /scratch/users/j/a/jabreu/flow_simple_4atoms/flow/w206/t1/indata/in_WFK

 ==>  initialize data related to q vector <==

 The list of irreducible perturbations for this q vector is:
    1)    idir= 1    ipert=   5
    2)    idir= 2    ipert=   5
    3)    idir= 3    ipert=   5

 Perturbation wavevector (in red.coord.)   0.000000  0.000000  0.000000
 Perturbation : derivative vs k along direction   1

 dfpt_looppert : COMMENT -
  In a d/dk calculation, iscf is set to -3 automatically.
 The set of symmetries contains only one element for this perturbation.
 symkpt : not enough symmetry to change the number of k points.

[...]

 Initialisation of the first-order wave-functions :
  ireadwf=   0

--- !BeginCycle
iteration_state: {dtset: 1, }
solver: {iscf: 7, nstep: 100, nline: 4, wfoptalg: 0, }
tolerances: {tolwfr: 1.00E-20, }
...

     iter   2DEtotal(Ha)        deltaE(Ha) residm    vres2
-ETOT  1  -30.415590145830     -3.042E+01 7.050E-02 0.000E+00
 ETOT  2  -30.425785371187     -1.020E-02 1.514E-03 0.000E+00
 ETOT  3  -30.425795710260     -1.034E-05 4.699E-05 0.000E+00
 ETOT  4  -30.425795734086     -2.383E-08 2.156E-06 0.000E+00
 ETOT  5  -30.425795734174     -8.740E-11 1.089E-07 0.000E+00
 ETOT  6  -30.425795734174     -3.695E-13 6.110E-09 0.000E+00
 ETOT  7  -30.425795734174     -2.842E-14 3.345E-10 0.000E+00
 ETOT  8  -30.425795734174      2.487E-14 1.874E-11 0.000E+00
 ETOT  9  -30.425795734174      7.105E-15 1.111E-12 0.000E+00
 ETOT 10  -30.425795734174     -7.105E-15 6.184E-14 0.000E+00
 ETOT 11  -30.425795734174     -3.553E-15 3.723E-15 0.000E+00
 ETOT 12  -30.425795734174      3.553E-15 2.179E-16 0.000E+00
 ETOT 13  -30.425795734174     -1.066E-14 1.312E-17 0.000E+00
 ETOT 14  -30.425795734174      1.776E-14 7.833E-19 0.000E+00
 ETOT 15  -30.425795734174     -1.066E-14 4.625E-20 0.000E+00
 ETOT 16  -30.425795734174      7.105E-15 9.951E-21 0.000E+00

 At SCF step   16   max residual=  9.95E-21 < tolwfr=  1.00E-20 =>converged.

 ----iterations are completed or convergence reached----

 dfpt_looppert: DFPT cycle converged with prtwf=-1. Will skip output of the 1st-order WFK file.
 dfpt_looppert : ek2=    5.5386016025E+01
          f-sum rule ratio=    1.1443409180E+00
 prteigrs : about to open file /scratch/users/j/a/jabreu/flow_simple_4atoms/flow/w206/t1/tmpdata/tmp_1WF1_EIG
 Expectation of eigenvalue derivatives (hartree) for nkpt=   2  k points:
  (in case of degenerate eigenvalues, averaged derivative)
 kpt#   1, nband= 21, wtk=  0.50000, kpt=  0.5000  0.5000  0.5000 (reduced coord)
  -0.00000    0.00000    0.00000    0.00000    0.00000    0.00000   -0.00000    0.00000
  -0.00000   -0.00000    0.00000    0.00000   -0.00000    0.00000    0.00000   -0.00000
  -0.00000   -0.00000   -0.00000   -0.00000    0.00142
 prteigrs : prtvol=0 or 1, do not print more k-points.

 Eight components of 2nd-order total energy (hartree) are
 1,2,3: 0th-order hamiltonian combined with 1st-order wavefunctions
     kin0=   2.84828524E+01 eigvalue=   7.60152048E-01  local=  -1.17825606E+01
 4,5,6: 1st-order hamiltonian combined with 1st and 0th-order wfs
     kin1=  -6.33804844E+01  Hartree=   0.00000000E+00     xc=   0.00000000E+00
 7,8,9: eventually, occupation + non-local contributions
    edocc=   1.40103770E+01     enl0=  -1.04502519E+00   enl1=   2.52889295E+00
 1-9 gives the relaxation energy (to be shifted if some occ is /=2.0)
   erelax=  -3.04257957E+01
  No Ewald or frozen-wf contrib.: the relaxation energy is the total one
 2DEtotal=   -0.3042579573E+02 Ha. Also 2DEtotal=   -0.827928006969E+03 eV
    (  non-var. 2DEtotal :   -3.0425795734E+01 Ha)

 Perturbation wavevector (in red.coord.)   0.000000  0.000000  0.000000
 Perturbation : derivative vs k along direction   2
 The set of symmetries contains only one element for this perturbation.
 symkpt : not enough symmetry to change the number of k points.

[...]

 Perturbation wavevector (in red.coord.)   0.000000  0.000000  0.000000
 Perturbation : derivative vs k along direction   3
 The set of symmetries contains only one element for this perturbation.
 symkpt : not enough symmetry to change the number of k points.

-inwffil : will read wavefunctions from disk file /scratch/users/j/a/jabreu/flow_simple_4atoms/flow/w206/t1/indata/in_WFK

 Initialisation of the first-order wave-functions :
  ireadwf=   0

--- !BeginCycle
iteration_state: {dtset: 1, }
solver: {iscf: 7, nstep: 100, nline: 4, wfoptalg: 0, }
tolerances: {tolwfr: 1.00E-20, }
...

     iter   2DEtotal(Ha)        deltaE(Ha) residm    vres2
-ETOT  1  -30.415228452295     -3.042E+01 1.798E-01 0.000E+00
 ETOT  2  -30.425787225125     -1.056E-02 1.459E-02 0.000E+00
 ETOT  3  -30.425797959929     -1.073E-05 6.907E-04 0.000E+00
 ETOT  4  -30.425797984386     -2.446E-08 5.682E-05 0.000E+00
 ETOT  5  -30.425797984474     -8.763E-11 2.716E-06 0.000E+00
 ETOT  6  -30.425797984474     -3.908E-13 2.133E-07 0.000E+00
 ETOT  7  -30.425797984474      1.066E-14 1.045E-08 0.000E+00
 ETOT  8  -30.425797984474     -1.066E-14 8.553E-10 0.000E+00
 ETOT  9  -30.425797984474      7.105E-15 4.217E-11 0.000E+00
 ETOT 10  -30.425797984474      3.553E-15 3.600E-12 0.000E+00
 ETOT 11  -30.425797984474     -7.105E-15 1.763E-13 0.000E+00
 ETOT 12  -30.425797984474     -3.553E-15 1.545E-14 0.000E+00
 ETOT 13  -30.425797984474      0.000E+00 7.506E-16 0.000E+00
 ETOT 14  -30.425797984474      7.105E-15 6.671E-17 0.000E+00
 ETOT 15  -30.425797984474      0.000E+00 3.226E-18 0.000E+00
 ETOT 16  -30.425797984474      0.000E+00 2.888E-19 0.000E+00
 ETOT 17  -30.425797984474      0.000E+00 1.393E-20 0.000E+00
 ETOT 18  -30.425797984474     -3.553E-15 9.854E-21 0.000E+00

 At SCF step   18   max residual=  9.85E-21 < tolwfr=  1.00E-20 =>converged.

 ----iterations are completed or convergence reached----

 dfpt_looppert: DFPT cycle converged with prtwf=-1. Will skip output of the 1st-order WFK file.
 dfpt_looppert : ek2=    5.5386016026E+01
          f-sum rule ratio=    1.1443358335E+00
 prteigrs : about to open file /scratch/users/j/a/jabreu/flow_simple_4atoms/flow/w206/t1/tmpdata/tmp_1WF1_EIG
 Expectation of eigenvalue derivatives (hartree) for nkpt=   2  k points:
  (in case of degenerate eigenvalues, averaged derivative)
 kpt#   1, nband= 21, wtk=  0.50000, kpt=  0.5000  0.5000  0.5000 (reduced coord)
  -0.00000   -0.00000   -0.00000   -0.00000   -0.00000    0.00000   -0.00000    0.00000
  -0.00000   -0.00000   -0.00000   -0.00000    0.00000   -0.00000   -0.00000   -0.00000
   0.00000    0.00000   -0.00000    0.00000   -0.00104
 prteigrs : prtvol=0 or 1, do not print more k-points.

 Eight components of 2nd-order total energy (hartree) are
 1,2,3: 0th-order hamiltonian combined with 1st-order wavefunctions
     kin0=   2.84820152E+01 eigvalue=   7.60234737E-01  local=  -1.17821243E+01
 4,5,6: 1st-order hamiltonian combined with 1st and 0th-order wfs
     kin1=  -6.33802028E+01  Hartree=   0.00000000E+00     xc=   0.00000000E+00
 7,8,9: eventually, occupation + non-local contributions
    edocc=   1.40105287E+01     enl0=  -1.04485633E+00   enl1=   2.52860684E+00
 1-9 gives the relaxation energy (to be shifted if some occ is /=2.0)
   erelax=  -3.04257980E+01
  No Ewald or frozen-wf contrib.: the relaxation energy is the total one
 2DEtotal=   -0.3042579798E+02 Ha. Also 2DEtotal=   -0.827928068202E+03 eV
    (  non-var. 2DEtotal :   -3.0425797984E+01 Ha)

 CALCULATION OF EFFECTIVE MASSES
 NOTE : Additional infos (eff. mass eigenvalues, eigenvectors and, if degenerate, average mass) are available in stdout.

 COMMENTS:
 - At k-point ( 0.500, 0.500, 0.500), bands    11 through    12
   are DEGENERATE (effective mass tensor is therefore not defined).
   See Section IIIB Eqs. (67)-(70) and Appendix E of PRB 93 205147 (2016).
 - Angular average effective mass for Frohlich model is to be averaged over degenerate bands. See later.
 - Associated theta integrals calculated with ntheta=   1000 points.

 K-point ( 0.500, 0.500, 0.500) | band =    11
 Transport equivalent effective mass tensor:
             -0.8200021012              0.0251465952              0.1104705659
              0.0251465952             -0.8442958001              0.0693984707
              0.1104705659              0.0693984707             -0.5555940666
 Transport equivalent effective mass tensor eigenvalues:
             -0.8601262913             -0.8600626319             -0.4997030446
 Angular average effective mass 1/(<1/m>)=  -0.6430995115
 Angular average effective mass for Frohlich model (<m**0.5>)**2=  -0.6607775732
 Effective masses along directions: (cart. coord. / red. coord. -> eff. mass)
    1:   1.000000  0.000000  0.000000 /   0.917260  0.398289  0.000000 ->  -0.7552305018
    2:   0.000000  1.000000  0.000000 /   0.000000  1.000000  0.000000 ->  -0.8621145347
    3:   0.000000  0.000000  1.000000 /   0.520029  0.520029  0.677599 ->  -0.5095469164
    4:   0.577350  0.577350  0.577350 /   0.594203  0.684810  0.421852 ->  -0.5015035950
    5:   0.000000  0.707107  0.707107 /   0.416340  0.729633  0.542492 ->  -0.5444993011
    6:   0.707107  0.000000  0.707107 /   0.697528  0.517904  0.495207 ->  -0.5265551955
    7:   0.707107  0.707107  0.000000 /   0.599513  0.800365  0.000000 ->  -0.6622269643

 K-point ( 0.500, 0.500, 0.500) | band =    12
 Transport equivalent effective mass tensor:
             -2.7427118085              0.1557244326              0.6837642212
              0.1557244326             -2.8929100447              0.4294929534
              0.6837642212              0.4294929534             -1.1055714474
 Transport equivalent effective mass tensor eigenvalues:
             -2.9907909855             -2.9906810873             -0.7597212278
 Angular average effective mass 1/(<1/m>)=  -1.1235615805
 Angular average effective mass for Frohlich model (<m**0.5>)**2=  -1.3517746707
 Effective masses along directions: (cart. coord. / red. coord. -> eff. mass)
    1:   1.000000  0.000000  0.000000 /   0.917260  0.398289  0.000000 ->  -1.6872039445
    2:   0.000000  1.000000  0.000000 /   0.000000  1.000000  0.000000 ->  -1.6756720754
    3:   0.000000  0.000000  1.000000 /   0.520029  0.520029  0.677599 ->  -0.5885985251
    4:   0.577350  0.577350  0.577350 /   0.594203  0.684810  0.421852 ->  -0.7393399324
    5:   0.000000  0.707107  0.707107 /   0.416340  0.729633  0.542492 ->  -0.7517387618
    6:   0.707107  0.000000  0.707107 /   0.697528  0.517904  0.495207 ->  -0.6177879091
    7:   0.707107  0.707107  0.000000 /   0.599513  0.800365  0.000000 ->  -2.0297705120

 Angular average effective mass for Frohlich model, averaged over degenerate bands.
 Value of     (<<m**0.5>>)**2 =     9.756903E-01
 Absolute Value of <<m**0.5>> =     9.877704E-01

 K-point ( 0.000, 0.000, 0.000) | band =    13
 Effective mass tensor:
              0.5585131439              0.0320340889              0.1406105600
              0.0320340889              0.5276304499              0.0883153434
              0.1406105600              0.0883153434              0.8951620558
 Effective mass tensor eigenvalues:
              0.5075103283              0.5075103284              0.9662849929
 Angular average effective mass 1/(<1/m>)=   0.6029304993
 Angular average effective mass for Frohlich model (<m**0.5>)**2=   0.6176912665
 Effective masses along directions: (cart. coord. / red. coord. -> eff. mass)
    1:   1.000000  0.000000  0.000000 /   0.917260  0.398289  0.000000 ->   0.5357906296
    2:   0.000000  1.000000  0.000000 /   0.000000  1.000000  0.000000 ->   0.5183024956
    3:   0.000000  0.000000  1.000000 /   0.520029  0.520029  0.677599 ->   0.8475136901
    4:   0.577350  0.577350  0.577350 /   0.594203  0.684810  0.421852 ->   0.7669842918
    5:   0.000000  0.707107  0.707107 /   0.416340  0.729633  0.542492 ->   0.7275054950
    6:   0.707107  0.000000  0.707107 /   0.697528  0.517904  0.495207 ->   0.8087769601
    7:   0.707107  0.707107  0.000000 /   0.599513  0.800365  0.000000 ->   0.5456830744

 END OF EFFECTIVE MASSES SECTION

 ---- first-order wavefunction calculations are completed ----

 Total localisation tensor (bohr^2) in cartesian coordinates
  WARNING : still subject to testing - especially symmetries.
      direction              matrix element
   alpha     beta       real part   imaginary part
     1        1       1.2873984546    0.0000000000
     1        2       0.4236770415    0.0000000000
     1        3       1.8596941518    0.0000000000
     2        1       0.4236770415    0.0000000000
     2        2       0.8789458571    0.0000000000
     2        3       1.1680426921    0.0000000000
     3        1       1.8596941518    0.0000000000
     3        2       1.1680426921    0.0000000000
     3        3       5.7398686462    0.0000000000

 respfn : d/dk was computed, but no 2DTE, so no DDB output.

== END DATASET(S) ==============================================================

 -outvars: echo values of variables after computation  --------
            acell      1.0000000000E+00  1.0000000000E+00  1.0000000000E+00 Bohr
              amu      4.00780000E+01  1.20110000E+01  1.40067400E+01
             ecut      4.20000000E+01 Hartree
           etotal     -3.0425797984E+01
            fcart      0.0000000000E+00  0.0000000000E+00  0.0000000000E+00
                       0.0000000000E+00  0.0000000000E+00  0.0000000000E+00
                       0.0000000000E+00  0.0000000000E+00  0.0000000000E+00
                       0.0000000000E+00  0.0000000000E+00  0.0000000000E+00
-          fftalg         512
           irdden           1
           irdwfk           1
           istwfk        1    1
              ixc     -116133
              kpt      5.00000000E-01  5.00000000E-01  5.00000000E-01
                       0.00000000E+00  0.00000000E+00  0.00000000E+00
           kptopt           0
P           mkmem           2
P          mkqmem           2
P          mk1mem           2
            natom           4
            nband          21
           nbdbuf           4
            ngfft          60      60      60
             nkpt           2
            nstep         100
             nsym          12
           ntypat           3
              occ      2.000000  2.000000  2.000000  2.000000  2.000000  2.000000
                       2.000000  2.000000  2.000000  2.000000  2.000000  2.000000
                       0.000000  0.000000  0.000000  0.000000  0.000000  0.000000
                       0.000000  0.000000  0.000000
        optdriver           1
            prtwf          -1
            rfdir           1       1       1
           rfelfd           2
            rprim      6.4933338925E+00  0.0000000000E+00  7.7731494311E+00
                       2.8195073492E+00  5.8492532298E+00  7.7731494311E+00
                       0.0000000000E+00  0.0000000000E+00  1.0128437052E+01
          spgroup         166
           strten      0.0000000000E+00  0.0000000000E+00  0.0000000000E+00
                       0.0000000000E+00  0.0000000000E+00  0.0000000000E+00
           symrel      1  0  0   0  1  0   0  0  1      -1  0  0   0 -1  0   0  0 -1
                       0  1  0   1  0  0   0  0  1       0 -1  0  -1  0  0   0  0 -1
                       0  0  1   1  0  0   0  1  0       0  0 -1  -1  0  0   0 -1  0
                       1  0  0   0  0  1   0  1  0      -1  0  0   0  0 -1   0 -1  0
                       0  1  0   0  0  1   1  0  0       0 -1  0   0  0 -1  -1  0  0
                       0  0  1   0  1  0   1  0  0       0  0 -1   0 -1  0  -1  0  0
           tolwfr      1.00000000E-20
            typat      1  2  3  3
           useylm           1
              wtk        0.50000    0.50000
           xangst      0.0000000000E+00  0.0000000000E+00  0.0000000000E+00
                       2.4640716662E+00  1.5476457482E+00  6.7932425412E+00
                       2.8757934009E+00  1.8062418763E+00  7.9283254374E+00
                       2.0523499315E+00  1.2890496202E+00  5.6581596450E+00
            xcart      0.0000000000E+00  0.0000000000E+00  0.0000000000E+00
                       4.6564206208E+00  2.9246266149E+00  1.2837367957E+01
                       5.4344619424E+00  3.4133024760E+00  1.4982363769E+01
                       3.8783792993E+00  2.4359507538E+00  1.0692372145E+01
             xred      0.0000000000E+00  0.0000000000E+00  0.0000000000E+00
                       5.0000000000E-01  5.0000000000E-01  5.0000000000E-01
                       5.8354500000E-01  5.8354500000E-01  5.8354500000E-01
                       4.1645500000E-01  4.1645500000E-01  4.1645500000E-01
            znucl       20.00000    6.00000    7.00000

- Timing analysis has been suppressed with timopt=0

 Suggested references for the acknowledgment of ABINIT usage.

 Calculation completed.
.Delivered  14 WARNINGs and   9 COMMENTs to log file.