.Version 9.5.1 of ABINIT

 ABINIT is a project of the Universite Catholique de Louvain,
 Corning Inc. and other collaborators, see ~abinit/doc/developers/contributors.txt .
 acknowledgments of the ABINIT effort.

.Starting date : Tue 11 May 2021.
- ( at 21h15 )

- input  file    -> /scratch/users/j/a/jabreu/flow_simple_8atoms/flow/w274/t1/run.abi
- output file    -> /scratch/users/j/a/jabreu/flow_simple_8atoms/flow/w274/t1/run.abo
- root for input  files -> /scratch/users/j/a/jabreu/flow_simple_8atoms/flow/w274/t1/indata/in
- root for output files -> /scratch/users/j/a/jabreu/flow_simple_8atoms/flow/w274/t1/outdata/out

 Symmetries : space group I-4 2 d (#122); Bravais tI (body-center tetrag.)
     intxc =       0      iscf =       7    lmnmax =      18     lnmax =       6
     mgfft =      80  mpssoang =       3    mqgrid =    3001     natom =       8
  nloc_mem =       1    nspden =       1   nspinor =       1    nsppol =       1
      nsym =       8    n1xccc =    2501    ntypat =       3    occopt =       1
   xclevel =       2
-    mband =          47        mffmem =           1         mkmem =           1
-   mkqmem =           1        mk1mem =           1           mpw =       19175
      nfft =      512000          nkpt =           1
  Rough estimation (10% accuracy) of disk space for files :

------------- Echo of variables that govern the present computation ------------
-
- outvars: echo of selected default values
-   iomode0 =  0 , fftalg0 =512 , wfoptalg0 =  0
-
- outvars: echo of global parameters not present in the input file
-  max_nthreads =    0
-
 -outvars: echo values of preprocessed input variables --------
            acell      1.0000000000E+00  1.0000000000E+00  1.0000000000E+00 Bohr
              amu      6.94100000E+00  2.69815390E+01  1.27600000E+02
             ecut      4.00000000E+01 Hartree
-          fftalg         512
           irdden           1
           irdwfk           1
           istwfk        1
              ixc     -116133
           kptopt           0
P           mkmem           1
P          mkqmem           1
P          mk1mem           1
            natom           8
            nband          47
           nbdbuf           4
            ngfft          80      80      80
             nkpt           1
            nstep        2000
             nsym           8
           ntypat           3
              occ      2.000000  2.000000  2.000000  2.000000  2.000000  2.000000
                       2.000000  2.000000  2.000000  2.000000  2.000000  2.000000
                       2.000000  2.000000  2.000000  2.000000  2.000000  2.000000
                       2.000000  2.000000  2.000000  2.000000  2.000000  2.000000
                       2.000000  2.000000  2.000000  2.000000  2.000000  2.000000
                       2.000000  2.000000  2.000000  2.000000  2.000000  2.000000
                       2.000000  2.000000  0.000000  0.000000  0.000000  0.000000
                       0.000000  0.000000  0.000000  0.000000  0.000000
        optdriver           1
            prtwf          -1
            rfdir           1       1       1
           rfelfd           2
            rprim      1.0814405548E+01  0.0000000000E+00 -8.8335669356E+00
                      -2.4335744181E+00  1.0537033877E+01 -8.8335669356E+00
                       0.0000000000E+00  0.0000000000E+00  1.3963641079E+01
          spgroup         122
           symrel      1  0  0   0  1  0   0  0  1       0  0  1  -1 -1 -1   1  0  0
                       0  1  0   1  0  0  -1 -1 -1      -1 -1 -1   0  0  1   0  1  0
                       0  1  0   1  0  0   0  0  1       0  0  1  -1 -1 -1   0  1  0
                       1  0  0   0  1  0  -1 -1 -1      -1 -1 -1   0  0  1   1  0  0
            tnons      0.0000000  0.0000000  0.0000000    -0.2500000  0.2500000  0.5000000
                       0.0000000  0.0000000  0.0000000    -0.2500000  0.2500000  0.5000000
                      -0.2500000  0.2500000  0.5000000    -0.0000000 -0.0000000  0.0000000
                      -0.2500000  0.2500000  0.5000000    -0.0000000 -0.0000000 -0.0000000
           tolwfr      1.00000000E-20
            typat      1  1  2  2  3  3  3  3
           useylm           1
           xangst      2.2174724116E+00  2.7879790868E+00 -4.6745222929E+00
                       4.6484014707E-01  4.1819686302E+00 -9.7990198901E-01
                       0.0000000000E+00  0.0000000000E+00  0.0000000000E+00
                       3.9701046761E+00  1.3939895434E+00 -9.7990198901E-01
                       1.6827856356E+00  2.0057669463E+00  1.4723954420E-01
                      -1.7698854450E-01  3.4849738585E+00  3.8418598481E+00
                       3.5031971619E+00  6.9699477170E-01 -3.4644026796E+00
                       3.8608953934E+00  4.9641807707E+00 -4.4443046687E+00
            xcart      4.1904155651E+00  5.2685169383E+00 -8.8335669356E+00
                       8.7842057352E-01  7.9027754075E+00 -1.8517463963E+00
                       0.0000000000E+00  0.0000000000E+00  0.0000000000E+00
                       7.5024105568E+00  2.6342584691E+00 -1.8517463963E+00
                       3.1800039917E+00  3.7903502150E+00  2.7824241447E-01
                      -3.3445987776E-01  6.5856461729E+00  7.2600629538E+00
                       6.6200832255E+00  1.3171292346E+00 -6.5467722786E+00
                       7.2960349212E+00  9.3809421308E+00 -8.3985186749E+00
             xred      5.0000000000E-01  5.0000000000E-01  2.7755575616E-17
                       2.5000000000E-01  7.5000000000E-01  5.0000000000E-01
                       0.0000000000E+00  0.0000000000E+00  0.0000000000E+00
                       7.5000000000E-01  2.5000000000E-01  5.0000000000E-01
                       3.7500000000E-01  3.5971700000E-01  4.8471700000E-01
                       1.0971700000E-01  6.2500000000E-01  9.8471700000E-01
                       6.4028300000E-01  1.2500000000E-01  1.5283000000E-02
                       8.7500000000E-01  8.9028300000E-01  5.1528300000E-01
            znucl        3.00000   13.00000   52.00000

 chkinp: Checking input parameters for consistency.

== DATASET  1 ==================================================================
-   mpi_nproc: 1, omp_nthreads: -1 (-1 if OMP is not activated)

--- !DatasetInfo
iteration_state: {dtset: 1, }
dimensions: {natom: 8, nkpt: 1, mband: 47, nsppol: 1, nspinor: 1, nspden: 1, mpw: 19175, }
cutoff_energies: {ecut:  40.0, pawecutdg:  -1.0, }
electrons: {nelect:   7.60000000E+01, charge:   0.00000000E+00, occopt:   1.00000000E+00, tsmear:   1.00000000E-02, }
meta: {optdriver: 1, rfelfd: 2, }
...

 Real(R)+Recip(G) space primitive vectors, cartesian coordinates (Bohr,Bohr^-1):
 R(1)= 10.8144055  0.0000000 -8.8335669  G(1)=  0.0924693  0.0213562  0.0000000
 R(2)= -2.4335744 10.5370339 -8.8335669  G(2)=  0.0000000  0.0949034  0.0000000
 R(3)=  0.0000000  0.0000000 13.9636411  G(3)=  0.0584972  0.0735472  0.0716146
 Unit cell volume ucvol=  1.5911814E+03 bohr^3
 Angles (23,13,12)=  1.29243095E+02  1.29243095E+02  7.46197364E+01 degrees

 getcut: wavevector=  0.0000  0.0000  0.0000  ngfft=  80  80  80
         ecut(hartree)=     40.000   => boxcut(ratio)=   2.01257

--- Pseudopotential description ------------------------------------------------
- pspini: atom type   1  psp file is /scratch/users/j/a/jabreu/pseudos/PBEsol/Li.psp8
- pspatm: opening atomic psp file    /scratch/users/j/a/jabreu/pseudos/PBEsol/Li.psp8
- Li    ONCVPSP-3.3.0  r_core=   1.40824   1.10935
-  3.00000   3.00000    180112                znucl, zion, pspdat
    8 -116133    1    4       400   0.00000   pspcod,pspxc,lmax,lloc,mmax,r2well
    3.99000000000000    0.00000000000000    0.00000000000000   rchrg,fchrg,qchrg
     nproj     2     2
     extension_switch     1
  pspatm : epsatm=    2.60859637
         --- l  ekb(1:nproj) -->
             0   -4.855856   -1.482423
             1   -2.171544   -0.427615
 pspatm: atomic psp has been read  and splines computed

- pspini: atom type   2  psp file is /scratch/users/j/a/jabreu/pseudos/PBEsol/Al.psp8
- pspatm: opening atomic psp file    /scratch/users/j/a/jabreu/pseudos/PBEsol/Al.psp8
- Al    ONCVPSP-3.3.0  r_core=   1.76802   1.76802   1.70587
- 13.00000   3.00000    180112                znucl, zion, pspdat
    8 -116133    2    4       600   0.00000   pspcod,pspxc,lmax,lloc,mmax,r2well
    5.99000000000000    5.00000000000000    0.00000000000000   rchrg,fchrg,qchrg
     nproj     2     2     2
     extension_switch     1
  pspatm : epsatm=    0.68509324
         --- l  ekb(1:nproj) -->
             0    5.834965    0.726662
             1    6.225605    0.924840
             2   -2.432733   -0.548689
 pspatm: atomic psp has been read  and splines computed

- pspini: atom type   3  psp file is /scratch/users/j/a/jabreu/pseudos/PBEsol/Te.psp8
- pspatm: opening atomic psp file    /scratch/users/j/a/jabreu/pseudos/PBEsol/Te.psp8
- Te    ONCVPSP-3.3.0  r_core=   2.26547   1.91704   1.80604
- 52.00000  16.00000    180112                znucl, zion, pspdat
    8 -116133    2    4       600   0.00000   pspcod,pspxc,lmax,lloc,mmax,r2well
    5.99000000000000    5.00000000000000    0.00000000000000   rchrg,fchrg,qchrg
     nproj     2     2     2
     extension_switch     1
  pspatm : epsatm=   36.82679836
         --- l  ekb(1:nproj) -->
             0    6.345999    0.785432
             1    5.709019    1.070069
             2   -6.035173   -1.870937
 pspatm: atomic psp has been read  and splines computed

   1.16959875E+04                                ecore*ucvol(ha*bohr**3)

-inwffil : will read wavefunctions from disk file /scratch/users/j/a/jabreu/flow_simple_8atoms/flow/w274/t1/indata/in_WFK

 ==>  initialize data related to q vector <==

 The list of irreducible perturbations for this q vector is:
    1)    idir= 1    ipert=   9
    2)    idir= 2    ipert=   9
    3)    idir= 3    ipert=   9

 Perturbation wavevector (in red.coord.)   0.000000  0.000000  0.000000
 Perturbation : derivative vs k along direction   1

 dfpt_looppert : COMMENT -
  In a d/dk calculation, iscf is set to -3 automatically.
 The set of symmetries contains only one element for this perturbation.
 symkpt : not enough symmetry to change the number of k points.

[...]

 Initialisation of the first-order wave-functions :
  ireadwf=   0

--- !BeginCycle
iteration_state: {dtset: 1, }
solver: {iscf: 7, nstep: 2000, nline: 4, wfoptalg: 0, }
tolerances: {tolwfr: 1.00E-20, }
...

     iter   2DEtotal(Ha)        deltaE(Ha) residm    vres2
-ETOT  1  -60.122843801021     -6.012E+01 2.820E-02 0.000E+00
 ETOT  2  -60.157253231503     -3.441E-02 7.444E-04 0.000E+00
 ETOT  3  -60.157268079211     -1.485E-05 2.033E-05 0.000E+00
 ETOT  4  -60.157268109123     -2.991E-08 7.842E-07 0.000E+00
 ETOT  5  -60.157268109219     -9.542E-11 2.483E-08 0.000E+00
 ETOT  6  -60.157268109219     -2.913E-13 1.319E-09 0.000E+00
 ETOT  7  -60.157268109219     -1.137E-13 4.117E-11 0.000E+00
 ETOT  8  -60.157268109219      4.974E-14 2.429E-12 0.000E+00
 ETOT  9  -60.157268109219      0.000E+00 7.720E-14 0.000E+00
 ETOT 10  -60.157268109219     -1.421E-14 4.651E-15 0.000E+00
 ETOT 11  -60.157268109219      0.000E+00 1.514E-16 0.000E+00
 ETOT 12  -60.157268109219     -7.105E-15 9.154E-18 0.000E+00
 ETOT 13  -60.157268109219      1.421E-14 3.040E-19 0.000E+00
 ETOT 14  -60.157268109219      0.000E+00 1.844E-20 0.000E+00
 ETOT 15  -60.157268109219      0.000E+00 9.635E-21 0.000E+00

 At SCF step   15   max residual=  9.63E-21 < tolwfr=  1.00E-20 =>converged.

 ----iterations are completed or convergence reached----

 dfpt_looppert: DFPT cycle converged with prtwf=-1. Will skip output of the 1st-order WFK file.
 dfpt_looppert : ek2=    5.4046375222E+01
          f-sum rule ratio=    1.0886561505E+00
 prteigrs : about to open file /scratch/users/j/a/jabreu/flow_simple_8atoms/flow/w274/t1/tmpdata/tmp_1WF1_EIG
 Expectation of eigenvalue derivatives (hartree) for nkpt=   1  k points:
  (in case of degenerate eigenvalues, averaged derivative)
 kpt#   1, nband= 47, wtk=  1.00000, kpt=  0.0000  0.0000  0.0000 (reduced coord)
   0.00000    0.00000    0.00000   -0.00000   -0.00000    0.00000   -0.00000    0.00000
  -0.00000   -0.00000   -0.00000    0.00000    0.00000    0.00000    0.00000    0.00000
   0.00000    0.00000   -0.00000   -0.00000   -0.00000   -0.00000    0.00000   -0.00000
  -0.00000   -0.00000    0.00000    0.00000   -0.00000   -0.00000   -0.00000   -0.00000
   0.00000    0.00000    0.00000   -0.00000   -0.00000   -0.00000    0.00000    0.00000
  -0.00000   -0.00000   -0.00000   -0.00000   -0.00000   -0.00000   -0.00000

 Eight components of 2nd-order total energy (hartree) are
 1,2,3: 0th-order hamiltonian combined with 1st-order wavefunctions
     kin0=   6.15070392E+01 eigvalue=   1.23111291E+01  local=  -3.23913982E+01
 4,5,6: 1st-order hamiltonian combined with 1st and 0th-order wfs
     kin1=  -5.88379188E+01  Hartree=   0.00000000E+00     xc=   0.00000000E+00
 7,8,9: eventually, occupation + non-local contributions
    edocc=   1.03212108E+01     enl0=   8.40928727E+00   enl1=  -6.14766174E+01
 1-9 gives the relaxation energy (to be shifted if some occ is /=2.0)
   erelax=  -6.01572681E+01
  No Ewald or frozen-wf contrib.: the relaxation energy is the total one
 2DEtotal=   -0.6015726811E+02 Ha. Also 2DEtotal=   -0.163696251449E+04 eV
    (  non-var. 2DEtotal :   -6.0157268109E+01 Ha)

 Perturbation wavevector (in red.coord.)   0.000000  0.000000  0.000000
 Perturbation : derivative vs k along direction   2
 The set of symmetries contains only one element for this perturbation.
 symkpt : not enough symmetry to change the number of k points.

[...]

 Perturbation wavevector (in red.coord.)   0.000000  0.000000  0.000000
 Perturbation : derivative vs k along direction   3
 The set of symmetries contains only one element for this perturbation.
 symkpt : not enough symmetry to change the number of k points.

-inwffil : will read wavefunctions from disk file /scratch/users/j/a/jabreu/flow_simple_8atoms/flow/w274/t1/indata/in_WFK

 Initialisation of the first-order wave-functions :
  ireadwf=   0

--- !BeginCycle
iteration_state: {dtset: 1, }
solver: {iscf: 7, nstep: 2000, nline: 4, wfoptalg: 0, }
tolerances: {tolwfr: 1.00E-20, }
...

     iter   2DEtotal(Ha)        deltaE(Ha) residm    vres2
-ETOT  1  -93.653710457259     -9.365E+01 5.016E-02 0.000E+00
 ETOT  2  -93.706970088704     -5.326E-02 6.682E-04 0.000E+00
 ETOT  3  -93.706991080794     -2.099E-05 3.372E-05 0.000E+00
 ETOT  4  -93.706991113212     -3.242E-08 4.989E-07 0.000E+00
 ETOT  5  -93.706991113294     -8.262E-11 5.249E-08 0.000E+00
 ETOT  6  -93.706991113295     -1.705E-13 8.751E-10 0.000E+00
 ETOT  7  -93.706991113295      9.948E-14 9.846E-11 0.000E+00
 ETOT  8  -93.706991113295     -8.527E-14 1.640E-12 0.000E+00
 ETOT  9  -93.706991113295     -4.263E-14 1.887E-13 0.000E+00
 ETOT 10  -93.706991113295     -1.421E-14 3.133E-15 0.000E+00
 ETOT 11  -93.706991113295      1.421E-14 3.661E-16 0.000E+00
 ETOT 12  -93.706991113295      0.000E+00 6.076E-18 0.000E+00
 ETOT 13  -93.706991113295      0.000E+00 7.195E-19 0.000E+00
 ETOT 14  -93.706991113295      0.000E+00 1.195E-20 0.000E+00
 ETOT 15  -93.706991113295      0.000E+00 9.873E-21 0.000E+00

 At SCF step   15   max residual=  9.87E-21 < tolwfr=  1.00E-20 =>converged.

 ----iterations are completed or convergence reached----

 dfpt_looppert: DFPT cycle converged with prtwf=-1. Will skip output of the 1st-order WFK file.
 dfpt_looppert : ek2=    8.3768551450E+01
          f-sum rule ratio=    1.0993045157E+00
 prteigrs : about to open file /scratch/users/j/a/jabreu/flow_simple_8atoms/flow/w274/t1/tmpdata/tmp_1WF1_EIG
 Expectation of eigenvalue derivatives (hartree) for nkpt=   1  k points:
  (in case of degenerate eigenvalues, averaged derivative)
 kpt#   1, nband= 47, wtk=  1.00000, kpt=  0.0000  0.0000  0.0000 (reduced coord)
   0.00000    0.00000    0.00000   -0.00000   -0.00000    0.00000    0.00000    0.00000
  -0.00000   -0.00000   -0.00000    0.00000    0.00000    0.00000   -0.00000    0.00000
   0.00000    0.00000   -0.00000   -0.00000   -0.00000    0.00000    0.00000    0.00000
   0.00000   -0.00000    0.00000    0.00000    0.00000    0.00000   -0.00000   -0.00000
  -0.00000   -0.00000   -0.00000   -0.00000   -0.00000   -0.00000    0.00000    0.00000
   0.00000   -0.00000   -0.00000   -0.00000   -0.00000   -0.00000   -0.00000

 Eight components of 2nd-order total energy (hartree) are
 1,2,3: 0th-order hamiltonian combined with 1st-order wavefunctions
     kin0=   9.47546859E+01 eigvalue=   1.90526622E+01  local=  -4.98493864E+01
 4,5,6: 1st-order hamiltonian combined with 1st and 0th-order wfs
     kin1=  -9.20871469E+01  Hartree=   0.00000000E+00     xc=   0.00000000E+00
 7,8,9: eventually, occupation + non-local contributions
    edocc=   1.67689577E+01     enl0=   1.29800718E+01   enl1=  -9.53268353E+01
 1-9 gives the relaxation energy (to be shifted if some occ is /=2.0)
   erelax=  -9.37069911E+01
  No Ewald or frozen-wf contrib.: the relaxation energy is the total one
 2DEtotal=   -0.9370699111E+02 Ha. Also 2DEtotal=   -0.254989690555E+04 eV
    (  non-var. 2DEtotal :   -9.3706991113E+01 Ha)

 CALCULATION OF EFFECTIVE MASSES
 NOTE : Additional infos (eff. mass eigenvalues, eigenvectors and, if degenerate, average mass) are available in stdout.

 K-point ( 0.000, 0.000, 0.000) | band =    38
 Effective mass tensor:
             -0.5684798972              0.0719757234             -0.1206795716
              0.0719757234             -0.5352336824             -0.1517277536
             -0.1206795716             -0.1517277536             -0.3713297176
 Effective mass tensor eigenvalues:
             -0.6257271658             -0.6257271655             -0.2235889658
 Angular average effective mass 1/(<1/m>)=  -0.3911968269
 Angular average effective mass for Frohlich model (<m**0.5>)**2=  -0.4234679609
 Effective masses along directions: (cart. coord. / red. coord. -> eff. mass)
    1:   1.000000  0.000000  0.000000 /   0.975603 -0.219541  0.000000 ->  -0.4981753520
    2:   0.000000  1.000000  0.000000 /   0.000000  1.000000  0.000000 ->  -0.4454425589
    3:   0.000000  0.000000  1.000000 /  -0.471469 -0.471469  0.745274 ->  -0.2926980471
    4:   0.577350  0.577350  0.577350 /   0.140263 -0.051699  0.988764 ->  -0.6245400379
    5:   0.000000  0.707107  0.707107 /  -0.531798  0.102552  0.840639 ->  -0.5726642066
    6:   0.707107  0.000000  0.707107 /   0.109733 -0.624168  0.773546 ->  -0.5407364521
    7:   0.707107  0.707107  0.000000 /   0.800261  0.599652  0.000000 ->  -0.3787017073

 K-point ( 0.000, 0.000, 0.000) | band =    39
 Effective mass tensor:
              0.3618073335              0.0318336158             -0.0533744844
              0.0318336158              0.3765115613             -0.0671065604
             -0.0533744844             -0.0671065604              0.4490034495
 Effective mass tensor eigenvalues:
              0.3364878593              0.3364878593              0.5143466258
 Angular average effective mass 1/(<1/m>)=   0.3803262300
 Angular average effective mass for Frohlich model (<m**0.5>)**2=   0.3845488531
 Effective masses along directions: (cart. coord. / red. coord. -> eff. mass)
    1:   1.000000  0.000000  0.000000 /   0.975603 -0.219541  0.000000 ->   0.3539095825
    2:   0.000000  1.000000  0.000000 /   0.000000  1.000000  0.000000 ->   0.3648809416
    3:   0.000000  0.000000  1.000000 /  -0.471469 -0.471469  0.745274 ->   0.4307068886
    4:   0.577350  0.577350  0.577350 /   0.140263 -0.051699  0.988764 ->   0.3366108747
    5:   0.000000  0.707107  0.707107 /  -0.531798  0.102552  0.840639 ->   0.3425911205
    6:   0.707107  0.000000  0.707107 /   0.109733 -0.624168  0.773546 ->   0.3469730425
    7:   0.707107  0.707107  0.000000 /   0.800261  0.599652  0.000000 ->   0.3847386804

 END OF EFFECTIVE MASSES SECTION

 ---- first-order wavefunction calculations are completed ----

 Total localisation tensor (bohr^2) in cartesian coordinates
  WARNING : still subject to testing - especially symmetries.
      direction              matrix element
   alpha     beta       real part   imaginary part
     1        1       1.8616106679    0.0000000000
     1        2      -0.3885018495    0.0000000000
     1        3      -1.1216394895    0.0000000000
     2        1      -0.3885018495    0.0000000000
     2        2       1.6821581944    0.0000000000
     2        3      -1.4102125114    0.0000000000
     3        1      -1.1216394895    0.0000000000
     3        2      -1.4102125114    0.0000000000
     3        3       7.0196034078    0.0000000000

 respfn : d/dk was computed, but no 2DTE, so no DDB output.

== END DATASET(S) ==============================================================

 -outvars: echo values of variables after computation  --------
            acell      1.0000000000E+00  1.0000000000E+00  1.0000000000E+00 Bohr
              amu      6.94100000E+00  2.69815390E+01  1.27600000E+02
             ecut      4.00000000E+01 Hartree
           etotal     -9.3706991113E+01
            fcart      0.0000000000E+00  0.0000000000E+00  0.0000000000E+00
                       0.0000000000E+00  0.0000000000E+00  0.0000000000E+00
                       0.0000000000E+00  0.0000000000E+00  0.0000000000E+00
                       0.0000000000E+00  0.0000000000E+00  0.0000000000E+00
                       0.0000000000E+00  0.0000000000E+00  0.0000000000E+00
                       0.0000000000E+00  0.0000000000E+00  0.0000000000E+00
                       0.0000000000E+00  0.0000000000E+00  0.0000000000E+00
                       0.0000000000E+00  0.0000000000E+00  0.0000000000E+00
-          fftalg         512
           irdden           1
           irdwfk           1
           istwfk        1
              ixc     -116133
           kptopt           0
P           mkmem           1
P          mkqmem           1
P          mk1mem           1
            natom           8
            nband          47
           nbdbuf           4
            ngfft          80      80      80
             nkpt           1
            nstep        2000
             nsym           8
           ntypat           3
              occ      2.000000  2.000000  2.000000  2.000000  2.000000  2.000000
                       2.000000  2.000000  2.000000  2.000000  2.000000  2.000000
                       2.000000  2.000000  2.000000  2.000000  2.000000  2.000000
                       2.000000  2.000000  2.000000  2.000000  2.000000  2.000000
                       2.000000  2.000000  2.000000  2.000000  2.000000  2.000000
                       2.000000  2.000000  2.000000  2.000000  2.000000  2.000000
                       2.000000  2.000000  0.000000  0.000000  0.000000  0.000000
                       0.000000  0.000000  0.000000  0.000000  0.000000
        optdriver           1
            prtwf          -1
            rfdir           1       1       1
           rfelfd           2
            rprim      1.0814405548E+01  0.0000000000E+00 -8.8335669356E+00
                      -2.4335744181E+00  1.0537033877E+01 -8.8335669356E+00
                       0.0000000000E+00  0.0000000000E+00  1.3963641079E+01
          spgroup         122
           strten      0.0000000000E+00  0.0000000000E+00  0.0000000000E+00
                       0.0000000000E+00  0.0000000000E+00  0.0000000000E+00
           symrel      1  0  0   0  1  0   0  0  1       0  0  1  -1 -1 -1   1  0  0
                       0  1  0   1  0  0  -1 -1 -1      -1 -1 -1   0  0  1   0  1  0
                       0  1  0   1  0  0   0  0  1       0  0  1  -1 -1 -1   0  1  0
                       1  0  0   0  1  0  -1 -1 -1      -1 -1 -1   0  0  1   1  0  0
            tnons      0.0000000  0.0000000  0.0000000    -0.2500000  0.2500000  0.5000000
                       0.0000000  0.0000000  0.0000000    -0.2500000  0.2500000  0.5000000
                      -0.2500000  0.2500000  0.5000000    -0.0000000 -0.0000000  0.0000000
                      -0.2500000  0.2500000  0.5000000    -0.0000000 -0.0000000 -0.0000000
           tolwfr      1.00000000E-20
            typat      1  1  2  2  3  3  3  3
           useylm           1
           xangst      2.2174724116E+00  2.7879790868E+00 -4.6745222929E+00
                       4.6484014707E-01  4.1819686302E+00 -9.7990198901E-01
                       0.0000000000E+00  0.0000000000E+00  0.0000000000E+00
                       3.9701046761E+00  1.3939895434E+00 -9.7990198901E-01
                       1.6827856356E+00  2.0057669463E+00  1.4723954420E-01
                      -1.7698854450E-01  3.4849738585E+00  3.8418598481E+00
                       3.5031971619E+00  6.9699477170E-01 -3.4644026796E+00
                       3.8608953934E+00  4.9641807707E+00 -4.4443046687E+00
            xcart      4.1904155651E+00  5.2685169383E+00 -8.8335669356E+00
                       8.7842057352E-01  7.9027754075E+00 -1.8517463963E+00
                       0.0000000000E+00  0.0000000000E+00  0.0000000000E+00
                       7.5024105568E+00  2.6342584691E+00 -1.8517463963E+00
                       3.1800039917E+00  3.7903502150E+00  2.7824241447E-01
                      -3.3445987776E-01  6.5856461729E+00  7.2600629538E+00
                       6.6200832255E+00  1.3171292346E+00 -6.5467722786E+00
                       7.2960349212E+00  9.3809421308E+00 -8.3985186749E+00
             xred      5.0000000000E-01  5.0000000000E-01  2.7755575616E-17
                       2.5000000000E-01  7.5000000000E-01  5.0000000000E-01
                       0.0000000000E+00  0.0000000000E+00  0.0000000000E+00
                       7.5000000000E-01  2.5000000000E-01  5.0000000000E-01
                       3.7500000000E-01  3.5971700000E-01  4.8471700000E-01
                       1.0971700000E-01  6.2500000000E-01  9.8471700000E-01
                       6.4028300000E-01  1.2500000000E-01  1.5283000000E-02
                       8.7500000000E-01  8.9028300000E-01  5.1528300000E-01
            znucl        3.00000   13.00000   52.00000

- Timing analysis has been suppressed with timopt=0

 Suggested references for the acknowledgment of ABINIT usage.

 Calculation completed.
.Delivered   6 WARNINGs and   5 COMMENTs to log file.