.Version 9.7.2 of ABINIT

 ABINIT is a project of the Universite Catholique de Louvain,
 Corning Inc. and other collaborators, see ~abinit/doc/developers/contributors.txt .
 acknowledgments of the ABINIT effort.

.Starting date : Wed  1 Dec 2021.
- ( at 21h49 )

- input  file    -> /scratch/users/j/a/jabreu/flow_simple_remain_atoms/flow/w248/t1/run.abi
- output file    -> /scratch/users/j/a/jabreu/flow_simple_remain_atoms/flow/w248/t1/run.abo
- root for input  files -> /scratch/users/j/a/jabreu/flow_simple_remain_atoms/flow/w248/t1/indata/in
- root for output files -> /scratch/users/j/a/jabreu/flow_simple_remain_atoms/flow/w248/t1/outdata/out

 Symmetries : space group P-3 m 1 (#164); Bravais hP (primitive hexag.)
     intxc =       0      iscf =       7    lmnmax =      32     lnmax =       8
     mgfft =      90  mpssoang =       4    mqgrid =    4215     natom =       5
  nloc_mem =       1    nspden =       1   nspinor =       1    nsppol =       1
      nsym =      12    n1xccc =    2501    ntypat =       3    occopt =       1
   xclevel =       2
-    mband =          29        mffmem =           1         mkmem =           2
-   mkqmem =           2        mk1mem =           2           mpw =       11610
      nfft =      225000          nkpt =           2
  Rough estimation (10% accuracy) of disk space for files :

------------- Echo of variables that govern the present computation ------------
-
- outvars: echo of selected default values
-   iomode0 =  0 , fftalg0 =512 , wfoptalg0 =  0
-
- outvars: echo of global parameters not present in the input file
-  max_nthreads =    0
-
 -outvars: echo values of preprocessed input variables --------
            acell      1.0000000000E+00  1.0000000000E+00  1.0000000000E+00 Bohr
              amu      1.38905500E+02  3.20660000E+01  1.59994000E+01
             ecut      5.20000000E+01 Hartree
-          fftalg         512
           irdden           1
           irdwfk           1
           istwfk        1    0
              ixc     -116133
              kpt      0.00000000E+00  0.00000000E+00  5.00000000E-01
                       3.33333333E-01  3.33333333E-01  0.00000000E+00
           kptopt           0
P           mkmem           2
P          mkqmem           2
P          mk1mem           2
            natom           5
            nband          29
           nbdbuf           4
            ngfft          50      50      90
             nkpt           2
            nstep        2000
             nsym          12
           ntypat           3
              occ      2.000000  2.000000  2.000000  2.000000  2.000000  2.000000
                       2.000000  2.000000  2.000000  2.000000  2.000000  2.000000
                       2.000000  2.000000  2.000000  2.000000  2.000000  2.000000
                       2.000000  2.000000  0.000000  0.000000  0.000000  0.000000
                       0.000000  0.000000  0.000000  0.000000  0.000000
        optdriver           1
            prtwf          -1
            rfdir           1       1       1
           rfelfd           2
            rprim      7.5854133687E+00  0.0000000000E+00  0.0000000000E+00
                      -3.7927066844E+00  6.5691606755E+00  0.0000000000E+00
                       0.0000000000E+00  0.0000000000E+00  1.2983406047E+01
          spgroup         164
           symrel      1  0  0   0  1  0   0  0  1      -1  0  0   0 -1  0   0  0 -1
                      -1  0  0   1  1  0   0  0  1       1  0  0  -1 -1  0   0  0 -1
                       0  1  0  -1 -1  0   0  0  1       0 -1  0   1  1  0   0  0 -1
                       0 -1  0  -1  0  0   0  0  1       0  1  0   1  0  0   0  0 -1
                      -1 -1  0   1  0  0   0  0  1       1  1  0  -1  0  0   0  0 -1
                       1  1  0   0 -1  0   0  0  1      -1 -1  0   0  1  0   0  0 -1
           tolwfr      1.00000000E-20
            typat      1  1  2  3  3
           useylm           1
              wtk        0.50000    0.50000
           xangst      2.0070139362E+00  1.1587500363E+00  5.3576403706E+00
                      -1.7639241746E-11  2.3175000727E+00  1.5128821994E+00
                       0.0000000000E+00  0.0000000000E+00  3.4352612850E+00
                       2.0070139362E+00  1.1587500363E+00  8.8205142858E-01
                      -1.7639241746E-11  2.3175000727E+00  5.9884711414E+00
            xcart      3.7927066843E+00  2.1897202252E+00  1.0124473019E+01
                      -3.3333336091E-11  4.3794404503E+00  2.8589330282E+00
                       0.0000000000E+00  0.0000000000E+00  6.4917030236E+00
                       3.7927066843E+00  2.1897202252E+00  1.6668356351E+00
                      -3.3333336091E-11  4.3794404503E+00  1.1316570412E+01
             xred      6.6666666667E-01  3.3333333333E-01  7.7980100000E-01
                       3.3333333333E-01  6.6666666667E-01  2.2019900000E-01
                       0.0000000000E+00  0.0000000000E+00  5.0000000000E-01
                       6.6666666667E-01  3.3333333333E-01  1.2838200000E-01
                       3.3333333333E-01  6.6666666667E-01  8.7161800000E-01
            znucl       57.00000   16.00000    8.00000

 chkinp: Checking input parameters for consistency.

== DATASET  1 ==================================================================
-   mpi_nproc: 1, omp_nthreads: -1 (-1 if OMP is not activated)

--- !DatasetInfo
iteration_state: {dtset: 1, }
dimensions: {natom: 5, nkpt: 2, mband: 29, nsppol: 1, nspinor: 1, nspden: 1, mpw: 11610, }
cutoff_energies: {ecut:  52.0, pawecutdg:  -1.0, }
electrons: {nelect:   4.00000000E+01, charge:   0.00000000E+00, occopt:   1.00000000E+00, tsmear:   1.00000000E-02, }
meta: {optdriver: 1, rfelfd: 2, }
...

 Real(R)+Recip(G) space primitive vectors, cartesian coordinates (Bohr,Bohr^-1):
 R(1)=  7.5854134  0.0000000  0.0000000  G(1)=  0.1318320  0.0761132  0.0000000
 R(2)= -3.7927067  6.5691607  0.0000000  G(2)=  0.0000000  0.1522264  0.0000000
 R(3)=  0.0000000  0.0000000 12.9834060  G(3)=  0.0000000  0.0000000  0.0770214
 Unit cell volume ucvol=  6.4696052E+02 bohr^3
 Angles (23,13,12)=  9.00000000E+01  9.00000000E+01  1.20000000E+02 degrees

 getcut: wavevector=  0.0000  0.0000  0.0000  ngfft=  50  50  90
         ecut(hartree)=     52.000   => boxcut(ratio)=   2.03114

--- Pseudopotential description ------------------------------------------------
- pspini: atom type   1  psp file is /scratch/users/j/a/jabreu/pseudos/PBEsol/La.psp8
- pspatm: opening atomic psp file    /scratch/users/j/a/jabreu/pseudos/PBEsol/La.psp8
- La    ONCVPSP-3.3.0  r_core=   2.11664   1.60878   1.85636   1.66739
- 57.00000  11.00000    180112                znucl, zion, pspdat
    8 -116133    3    4       600   0.00000   pspcod,pspxc,lmax,lloc,mmax,r2well
    5.99000000000000    5.00000000000000    0.00000000000000   rchrg,fchrg,qchrg
     nproj     2     2     2     2
     extension_switch     1
  pspatm : epsatm=   29.08531775
         --- l  ekb(1:nproj) -->
             0    6.695600    0.639047
             1    6.383649    1.151322
             2    3.612966    0.847811
             3  -13.718437   -4.858923
 pspatm: atomic psp has been read  and splines computed

- pspini: atom type   2  psp file is /scratch/users/j/a/jabreu/pseudos/PBEsol/S.psp8
- pspatm: opening atomic psp file    /scratch/users/j/a/jabreu/pseudos/PBEsol/S.psp8
- S     ONCVPSP-3.3.0  r_core=   1.45376   1.45376   1.61851
- 16.00000   6.00000    180112                znucl, zion, pspdat
    8 -116133    2    4       600   0.00000   pspcod,pspxc,lmax,lloc,mmax,r2well
    5.99000000000000    6.00000000000000    0.00000000000000   rchrg,fchrg,qchrg
     nproj     2     2     2
     extension_switch     1
  pspatm : epsatm=    8.71840985
         --- l  ekb(1:nproj) -->
             0    6.834532    0.579453
             1    3.282851    0.896984
             2   -3.496974   -0.974265
 pspatm: atomic psp has been read  and splines computed

- pspini: atom type   3  psp file is /scratch/users/j/a/jabreu/pseudos/PBEsol/O.psp8
- pspatm: opening atomic psp file    /scratch/users/j/a/jabreu/pseudos/PBEsol/O.psp8
- O     ONCVPSP-3.3.0  r_core=   1.35509   1.45563   1.26150
-  8.00000   6.00000    180112                znucl, zion, pspdat
    8 -116133    2    4       600   0.00000   pspcod,pspxc,lmax,lloc,mmax,r2well
    5.99000000000000    4.00000000000000    0.00000000000000   rchrg,fchrg,qchrg
     nproj     2     2     1
     extension_switch     1
  pspatm : epsatm=    6.22910522
         --- l  ekb(1:nproj) -->
             0    6.050032    0.820363
             1   -4.739617   -1.153841
             2   -1.335834
 pspatm: atomic psp has been read  and splines computed

   3.17389023E+03                                ecore*ucvol(ha*bohr**3)

 ==>  initialize data related to q vector <==

 The list of irreducible perturbations for this q vector is:
    1)    idir= 1    ipert=   6
    2)    idir= 2    ipert=   6
    3)    idir= 3    ipert=   6

 Perturbation wavevector (in red.coord.)   0.000000  0.000000  0.000000
 Perturbation : derivative vs k along direction   1

 dfpt_looppert : COMMENT -
  In a d/dk calculation, iscf is set to -3 automatically.
 The set of symmetries contains only one element for this perturbation.
 symkpt : not enough symmetry to change the number of k points.

 Initialisation of the first-order wave-functions :
  ireadwf=   0

--- !BeginCycle
iteration_state: {dtset: 1, }
solver: {iscf: 7, nstep: 2000, nline: 4, wfoptalg: 0, }
tolerances: {tolwfr: 1.00E-20, }
...

     iter   2DEtotal(Ha)        deltaE(Ha) residm    vres2
-ETOT  1  -38.953772269328     -3.895E+01 1.578E-01 0.000E+00
 ETOT  2  -39.270359264866     -3.166E-01 6.821E-02 0.000E+00
 ETOT  3  -39.315633628737     -4.527E-02 1.889E-02 0.000E+00
 ETOT  4  -39.327310164898     -1.168E-02 1.560E-02 0.000E+00
 ETOT  5  -39.330863524572     -3.553E-03 1.061E-02 0.000E+00
 ETOT  6  -39.332039582388     -1.176E-03 1.109E-02 0.000E+00
 ETOT  7  -39.332452431640     -4.128E-04 6.880E-03 0.000E+00
 ETOT  8  -39.332601175638     -1.487E-04 7.600E-03 0.000E+00
 ETOT  9  -39.332655928420     -5.475E-05 4.701E-03 0.000E+00
 ETOT 10  -39.332676356181     -2.043E-05 5.411E-03 0.000E+00
 ETOT 11  -39.332684086172     -7.730E-06 3.338E-03 0.000E+00
 ETOT 12  -39.332687049170     -2.963E-06 3.898E-03 0.000E+00
 ETOT 13  -39.332688201886     -1.153E-06 2.401E-03 0.000E+00
 ETOT 14  -39.332688657307     -4.554E-07 2.814E-03 0.000E+00
 ETOT 15  -39.332688840518     -1.832E-07 1.822E-03 0.000E+00
 ETOT 16  -39.332688915680     -7.516E-08 2.034E-03 0.000E+00
 ETOT 17  -39.332688947207     -3.153E-08 1.420E-03 0.000E+00
 ETOT 18  -39.332688960745     -1.354E-08 1.560E-03 0.000E+00
 ETOT 19  -39.332688966704     -5.959E-09 1.107E-03 0.000E+00
 ETOT 20  -39.332688969391     -2.688E-09 1.202E-03 0.000E+00
 ETOT 21  -39.332688970633     -1.241E-09 8.629E-04 0.000E+00
 ETOT 22  -39.332688971219     -5.859E-10 9.359E-04 0.000E+00
 ETOT 23  -39.332688971500     -2.819E-10 6.724E-04 0.000E+00
 ETOT 24  -39.332688971638     -1.379E-10 7.579E-04 0.000E+00
 ETOT 25  -39.332688971707     -6.835E-11 5.238E-04 0.000E+00
[...]
 symkpt : not enough symmetry to change the number of k points.

 Initialisation of the first-order wave-functions :
  ireadwf=   0

--- !BeginCycle
iteration_state: {dtset: 1, }
solver: {iscf: 7, nstep: 2000, nline: 4, wfoptalg: 0, }
tolerances: {tolwfr: 1.00E-20, }
...

     iter   2DEtotal(Ha)        deltaE(Ha) residm    vres2
-ETOT  1  -9.6853692420955     -9.685E+00 5.169E-02 0.000E+00
 ETOT  2  -9.7465005236756     -6.113E-02 2.400E-02 0.000E+00
 ETOT  3  -9.7535973743085     -7.097E-03 5.591E-03 0.000E+00
 ETOT  4  -9.7551089943834     -1.512E-03 7.076E-03 0.000E+00
 ETOT  5  -9.7555234286289     -4.144E-04 2.016E-03 0.000E+00
 ETOT  6  -9.7556476320910     -1.242E-04 3.787E-03 0.000E+00
 ETOT  7  -9.7556873116102     -3.968E-05 1.368E-03 0.000E+00
 ETOT  8  -9.7557008088964     -1.350E-05 2.356E-03 0.000E+00
 ETOT  9  -9.7557056487592     -4.840E-06 6.828E-04 0.000E+00
 ETOT 10  -9.7557074457157     -1.797E-06 1.528E-03 0.000E+00
 ETOT 11  -9.7557081209596     -6.752E-07 5.162E-04 0.000E+00
 ETOT 12  -9.7557083774366     -2.565E-07 9.964E-04 0.000E+00
 ETOT 13  -9.7557084755175     -9.808E-08 3.991E-04 0.000E+00
 ETOT 14  -9.7557085132305     -3.771E-08 6.520E-04 0.000E+00
 ETOT 15  -9.7557085278322     -1.460E-08 3.133E-04 0.000E+00
 ETOT 16  -9.7557085335284     -5.696E-09 4.369E-04 0.000E+00
 ETOT 17  -9.7557085357593     -2.231E-09 2.481E-04 0.000E+00
 ETOT 18  -9.7557085366348     -8.756E-10 3.771E-04 0.000E+00
 ETOT 19  -9.7557085369791     -3.443E-10 2.105E-04 0.000E+00
 ETOT 20  -9.7557085371147     -1.356E-10 3.255E-04 0.000E+00
 ETOT 21  -9.7557085371682     -5.348E-11 1.849E-04 0.000E+00
 ETOT 22  -9.7557085371893     -2.112E-11 2.812E-04 0.000E+00
 ETOT 23  -9.7557085371977     -8.365E-12 1.626E-04 0.000E+00
 ETOT 24  -9.7557085372010     -3.308E-12 2.434E-04 0.000E+00
 ETOT 25  -9.7557085372023     -1.313E-12 1.430E-04 0.000E+00
 ETOT 26  -9.7557085372028     -5.294E-13 2.111E-04 0.000E+00
 ETOT 27  -9.7557085372030     -1.954E-13 1.257E-04 0.000E+00
 ETOT 28  -9.7557085372031     -8.171E-14 1.833E-04 0.000E+00
 ETOT 29  -9.7557085372032     -4.619E-14 1.104E-04 0.000E+00
 ETOT 30  -9.7557085372032     -1.243E-14 1.594E-04 0.000E+00
 ETOT 31  -9.7557085372032      5.329E-15 9.696E-05 0.000E+00
 ETOT 32  -9.7557085372032     -1.776E-15 1.387E-04 0.000E+00
 ETOT 33  -9.7557085372032     -1.066E-14 8.512E-05 0.000E+00
 ETOT 34  -9.7557085372032      8.882E-15 1.209E-04 0.000E+00
 ETOT 35  -9.7557085372032     -7.105E-15 7.470E-05 0.000E+00
 ETOT 36  -9.7557085372032      1.243E-14 1.054E-04 0.000E+00
 ETOT 37  -9.7557085372032     -3.553E-15 6.553E-05 0.000E+00
 ETOT 38  -9.7557085372032     -1.243E-14 9.196E-05 0.000E+00
 ETOT 39  -9.7557085372032      1.776E-15 5.747E-05 0.000E+00
 ETOT 40  -9.7557085372032      8.882E-15 8.028E-05 0.000E+00
 ETOT 41  -9.7557085372032     -8.882E-15 5.039E-05 0.000E+00
 ETOT 42  -9.7557085372032      5.329E-15 7.010E-05 0.000E+00
 ETOT 43  -9.7557085372032     -1.776E-15 4.417E-05 0.000E+00
 ETOT 44  -9.7557085372032      0.000E+00 6.124E-05 0.000E+00
 ETOT 45  -9.7557085372032      5.329E-15 3.872E-05 0.000E+00
 ETOT 46  -9.7557085372032      0.000E+00 5.350E-05 0.000E+00
 ETOT 47  -9.7557085372032     -1.776E-15 3.393E-05 0.000E+00
 ETOT 48  -9.7557085372032      1.776E-15 4.676E-05 0.000E+00
 ETOT 49  -9.7557085372032      3.553E-15 2.974E-05 0.000E+00
 ETOT 50  -9.7557085372032     -3.553E-15 4.087E-05 0.000E+00
 ETOT 51  -9.7557085372032      1.776E-15 2.605E-05 0.000E+00
 ETOT 52  -9.7557085372032     -3.553E-15 3.573E-05 0.000E+00
 ETOT 53  -9.7557085372032      1.776E-15 2.283E-05 0.000E+00
 ETOT 54  -9.7557085372032     -3.553E-15 3.124E-05 0.000E+00
 ETOT 55  -9.7557085372032      0.000E+00 2.000E-05 0.000E+00
 ETOT 56  -9.7557085372032      1.776E-15 2.731E-05 0.000E+00
 ETOT 57  -9.7557085372032      1.776E-15 1.752E-05 0.000E+00
 ETOT 58  -9.7557085372032     -1.066E-14 2.388E-05 0.000E+00
 ETOT 59  -9.7557085372032      3.553E-15 1.534E-05 0.000E+00
 ETOT 60  -9.7557085372032      3.553E-15 2.088E-05 0.000E+00
 ETOT 61  -9.7557085372032      0.000E+00 1.344E-05 0.000E+00
[...]
 ETOT  570  -9.7557085372032      1.776E-15 3.328E-20 0.000E+00
 ETOT  571  -9.7557085372032     -1.776E-15 2.254E-20 0.000E+00
 ETOT  572  -9.7557085372032      0.000E+00 2.912E-20 0.000E+00
 ETOT  573  -9.7557085372032      1.776E-15 1.972E-20 0.000E+00
 ETOT  574  -9.7557085372032     -3.553E-15 2.547E-20 0.000E+00
 ETOT  575  -9.7557085372032      1.776E-15 1.726E-20 0.000E+00
 ETOT  576  -9.7557085372032      1.776E-15 2.229E-20 0.000E+00
 ETOT  577  -9.7557085372032     -1.776E-15 1.510E-20 0.000E+00
 ETOT  578  -9.7557085372032      1.776E-15 1.950E-20 0.000E+00
 ETOT  579  -9.7557085372032     -1.776E-15 1.321E-20 0.000E+00
 ETOT  580  -9.7557085372032      1.776E-15 1.707E-20 0.000E+00
 ETOT  581  -9.7557085372032     -1.776E-15 1.156E-20 0.000E+00
 ETOT  582  -9.7557085372032      3.553E-15 1.493E-20 0.000E+00
 ETOT  583  -9.7557085372032      5.329E-15 1.012E-20 0.000E+00
 ETOT  584  -9.7557085372032     -3.553E-15 9.848E-21 0.000E+00

 At SCF step  584   max residual=  9.85E-21 < tolwfr=  1.00E-20 =>converged.

 ----iterations are completed or convergence reached----

 dfpt_looppert: DFPT cycle converged with prtwf=-1. Will skip output of the 1st-order WFK file.
 dfpt_looppert : ek2=    1.8735808749E+01
          f-sum rule ratio=    9.7951227826E-01
 prteigrs : about to open file /scratch/users/j/a/jabreu/flow_simple_remain_atoms/flow/w248/t1/tmpdata/tmp_1WF1_EIG
 Expectation of eigenvalue derivatives (hartree) for nkpt=   2  k points:
  (in case of degenerate eigenvalues, averaged derivative)
 kpt#   1, nband= 29, wtk=  0.50000, kpt=  0.0000  0.0000  0.5000 (reduced coord)
  -0.00000   -0.00000   -0.00000   -0.00000   -0.00000   -0.00000   -0.00000    0.00000
   0.00000    0.00000   -0.00000   -0.00000   -0.00000   -0.00000   -0.00000   -0.00000
  -0.00000    0.00000    0.00000    0.00000    0.00000    0.00000   -0.00000   -0.00000
  -0.00000   -0.00000   -0.00000   -0.00000   -0.00000
 prteigrs : prtvol=0 or 1, do not print more k-points.

 Eight components of 2nd-order total energy (hartree) are
 1,2,3: 0th-order hamiltonian combined with 1st-order wavefunctions
     kin0=   3.04411673E+01 eigvalue=  -5.40231589E-01  local=  -1.54165546E+01
 4,5,6: 1st-order hamiltonian combined with 1st and 0th-order wfs
     kin1=  -1.83519547E+01  Hartree=   0.00000000E+00     xc=   0.00000000E+00
 7,8,9: eventually, occupation + non-local contributions
    edocc=   1.30199245E+00     enl0=  -6.03066496E+00   enl1=  -1.15946236E+00
 1-9 gives the relaxation energy (to be shifted if some occ is /=2.0)
   erelax=  -9.75570854E+00
  No Ewald or frozen-wf contrib.: the relaxation energy is the total one
 2DEtotal=   -0.9755708537E+01 Ha. Also 2DEtotal=   -0.265466329832E+03 eV
    (  non-var. 2DEtotal :   -9.7557085371E+00 Ha)

 CALCULATION OF EFFECTIVE MASSES
 NOTE : Additional infos (eff. mass eigenvalues, eigenvectors and, if degenerate, average mass) are available in stdout.

 COMMENTS:
 - At k-point ( 0.000, 0.000, 0.500), bands    19 through    20
   are DEGENERATE (effective mass tensor is therefore not defined).
   See Section IIIB Eqs. (67)-(70) and Appendix E of PRB 93 205147 (2016).
 - Angular average effective mass for Frohlich model is to be averaged over degenerate bands. See later.
 - Associated theta integrals calculated with ntheta=   1000 points.

 K-point ( 0.000, 0.000, 0.500) | band =    19
 Transport equivalent effective mass tensor:
             -1.2561019358              0.0000000083              0.0000000115
              0.0000000083             -1.2561018510             -0.0000000301
              0.0000000115             -0.0000000301             -1.6010185835
 Transport equivalent effective mass tensor eigenvalues:
             -1.6010185835             -1.2561019366             -1.2561018501
 Angular average effective mass 1/(<1/m>)=  -1.0863554289
 Angular average effective mass for Frohlich model (<m**0.5>)**2=  -1.1031750797
 Effective masses along directions: (cart. coord. / red. coord. -> eff. mass)
    1:   1.000000  0.000000  0.000000 /   0.894427 -0.447214  0.000000 ->  -1.1992701646
    2:   0.000000  1.000000  0.000000 /   0.000000  1.000000  0.000000 ->  -1.1992700858
    3:   0.000000  0.000000  1.000000 /   0.000000  0.000000  1.000000 ->  -2.5330337279
    4:   0.577350  0.577350  0.577350 /   0.496069  0.181574  0.849086 ->  -0.9489426377
    5:   0.000000  0.707107  0.707107 /   0.000000  0.451467  0.892288 ->  -1.0445982313
    6:   0.707107  0.000000  0.707107 /   0.489135 -0.244568  0.837218 ->  -1.0137543533
    7:   0.707107  0.707107  0.000000 /   0.939071  0.343724  0.000000 ->  -1.1992701407

 K-point ( 0.000, 0.000, 0.500) | band =    20
 Transport equivalent effective mass tensor:
             -8.5745531606             -0.0000000345              0.0000008130
             -0.0000000345             -8.5745528757             -0.0000007699
              0.0000008130             -0.0000007699            -13.9716108267
 Transport equivalent effective mass tensor eigenvalues:
            -13.9716108267             -8.5745531647             -8.5745528716
 Angular average effective mass 1/(<1/m>)=  -2.6354822160
 Angular average effective mass for Frohlich model (<m**0.5>)**2=  -3.3051910383
 Effective masses along directions: (cart. coord. / red. coord. -> eff. mass)
    1:   1.000000  0.000000  0.000000 /   0.894427 -0.447214  0.000000 ->  -1.3863946430
    2:   0.000000  1.000000  0.000000 /   0.000000  1.000000  0.000000 ->  -1.3863946428
    3:   0.000000  0.000000  1.000000 /   0.000000  0.000000  1.000000 ->  -2.5330337290
    4:   0.577350  0.577350  0.577350 /   0.496069  0.181574  0.849086 ->  -4.0626995148
    5:   0.000000  0.707107  0.707107 /   0.000000  0.451467  0.892288 ->  -4.6501769799
    6:   0.707107  0.000000  0.707107 /   0.489135 -0.244568  0.837218 ->  -5.3786806041
    7:   0.707107  0.707107  0.000000 /   0.939071  0.343724  0.000000 ->  -1.3863946427

 Angular average effective mass for Frohlich model, averaged over degenerate bands.
 Value of     (<<m**0.5>>)**2 =     2.056843E+00
 Absolute Value of <<m**0.5>> =     1.434170E+00

 K-point ( 0.333, 0.333, 0.000) | band =    21
 Effective mass tensor:
              0.9082983997              0.0000000102             -0.0000000056
              0.0000000102              0.9082984058             -0.0000000001
             -0.0000000056             -0.0000000001              1.0559318507
 Effective mass tensor eigenvalues:
              0.9082983921              0.9082984134              1.0559318507
 Angular average effective mass 1/(<1/m>)=   0.9526984119
 Angular average effective mass for Frohlich model (<m**0.5>)**2=   0.9541009308
 Effective masses along directions: (cart. coord. / red. coord. -> eff. mass)
    1:   1.000000  0.000000  0.000000 /   0.894427 -0.447214  0.000000 ->   0.9082983997
    2:   0.000000  1.000000  0.000000 /   0.000000  1.000000  0.000000 ->   0.9082984058
    3:   0.000000  0.000000  1.000000 /   0.000000  0.000000  1.000000 ->   1.0559318507
    4:   0.577350  0.577350  0.577350 /   0.496069  0.181574  0.849086 ->   0.9526984157
    5:   0.000000  0.707107  0.707107 /   0.000000  0.451467  0.892288 ->   0.9765669919
    6:   0.707107  0.000000  0.707107 /   0.489135 -0.244568  0.837218 ->   0.9765669829
    7:   0.707107  0.707107  0.000000 /   0.939071  0.343724  0.000000 ->   0.9082984130

 END OF EFFECTIVE MASSES SECTION

 ---- first-order wavefunction calculations are completed ----

 Total localisation tensor (bohr^2) in cartesian coordinates
  WARNING : still subject to testing - especially symmetries.
      direction              matrix element
   alpha     beta       real part   imaginary part
     1        1       1.7913858817    0.0000000000
     1        2      -0.6205542719    0.0000000000
     1        3       0.0000000000    0.0000000000
     2        1      -0.6205542719    0.0000000000
     2        2       1.0748315278    0.0000000000
     2        3       0.0000000000    0.0000000000
     3        1       0.0000000000    0.0000000000
     3        2       0.0000000000    0.0000000000
     3        3       0.9907962172    0.0000000000

 respfn : d/dk was computed, but no 2DTE, so no DDB output.

== END DATASET(S) ==============================================================

 -outvars: echo values of variables after computation  --------
            acell      1.0000000000E+00  1.0000000000E+00  1.0000000000E+00 Bohr
              amu      1.38905500E+02  3.20660000E+01  1.59994000E+01
             ecut      5.20000000E+01 Hartree
           etotal     -9.7557085372E+00
            fcart      0.0000000000E+00  0.0000000000E+00  0.0000000000E+00
                       0.0000000000E+00  0.0000000000E+00  0.0000000000E+00
                       0.0000000000E+00  0.0000000000E+00  0.0000000000E+00
                       0.0000000000E+00  0.0000000000E+00  0.0000000000E+00
                       0.0000000000E+00  0.0000000000E+00  0.0000000000E+00
-          fftalg         512
           irdden           1
           irdwfk           1
           istwfk        1    0
              ixc     -116133
              kpt      0.00000000E+00  0.00000000E+00  5.00000000E-01
                       3.33333333E-01  3.33333333E-01  0.00000000E+00
           kptopt           0
P           mkmem           2
P          mkqmem           2
P          mk1mem           2
            natom           5
            nband          29
           nbdbuf           4
            ngfft          50      50      90
             nkpt           2
            nstep        2000
             nsym          12
           ntypat           3
              occ      2.000000  2.000000  2.000000  2.000000  2.000000  2.000000
                       2.000000  2.000000  2.000000  2.000000  2.000000  2.000000
                       2.000000  2.000000  2.000000  2.000000  2.000000  2.000000
                       2.000000  2.000000  0.000000  0.000000  0.000000  0.000000
                       0.000000  0.000000  0.000000  0.000000  0.000000
        optdriver           1
            prtwf          -1
            rfdir           1       1       1
           rfelfd           2
            rprim      7.5854133687E+00  0.0000000000E+00  0.0000000000E+00
                      -3.7927066844E+00  6.5691606755E+00  0.0000000000E+00
                       0.0000000000E+00  0.0000000000E+00  1.2983406047E+01
          spgroup         164
           strten      0.0000000000E+00  0.0000000000E+00  0.0000000000E+00
                       0.0000000000E+00  0.0000000000E+00  0.0000000000E+00
           symrel      1  0  0   0  1  0   0  0  1      -1  0  0   0 -1  0   0  0 -1
                      -1  0  0   1  1  0   0  0  1       1  0  0  -1 -1  0   0  0 -1
                       0  1  0  -1 -1  0   0  0  1       0 -1  0   1  1  0   0  0 -1
                       0 -1  0  -1  0  0   0  0  1       0  1  0   1  0  0   0  0 -1
                      -1 -1  0   1  0  0   0  0  1       1  1  0  -1  0  0   0  0 -1
                       1  1  0   0 -1  0   0  0  1      -1 -1  0   0  1  0   0  0 -1
           tolwfr      1.00000000E-20
            typat      1  1  2  3  3
           useylm           1
              wtk        0.50000    0.50000
           xangst      2.0070139362E+00  1.1587500363E+00  5.3576403706E+00
                      -1.7639241746E-11  2.3175000727E+00  1.5128821994E+00
                       0.0000000000E+00  0.0000000000E+00  3.4352612850E+00
                       2.0070139362E+00  1.1587500363E+00  8.8205142858E-01
                      -1.7639241746E-11  2.3175000727E+00  5.9884711414E+00
            xcart      3.7927066843E+00  2.1897202252E+00  1.0124473019E+01
                      -3.3333336091E-11  4.3794404503E+00  2.8589330282E+00
                       0.0000000000E+00  0.0000000000E+00  6.4917030236E+00
                       3.7927066843E+00  2.1897202252E+00  1.6668356351E+00
                      -3.3333336091E-11  4.3794404503E+00  1.1316570412E+01
             xred      6.6666666667E-01  3.3333333333E-01  7.7980100000E-01
                       3.3333333333E-01  6.6666666667E-01  2.2019900000E-01
                       0.0000000000E+00  0.0000000000E+00  5.0000000000E-01
                       6.6666666667E-01  3.3333333333E-01  1.2838200000E-01
                       3.3333333333E-01  6.6666666667E-01  8.7161800000E-01
            znucl       57.00000   16.00000    8.00000

- Timing analysis has been suppressed with timopt=0

 Suggested references for the acknowledgment of ABINIT usage.

 Calculation completed.
.Delivered   2 WARNINGs and   5 COMMENTs to log file.