.Version 9.5.1 of ABINIT

 ABINIT is a project of the Universite Catholique de Louvain,
 Corning Inc. and other collaborators, see ~abinit/doc/developers/contributors.txt .
 acknowledgments of the ABINIT effort.

.Starting date : Tue  4 May 2021.
- ( at 19h49 )

- input  file    -> /scratch/users/j/a/jabreu/flow_simple_6atoms/flow/w242/t1/run.abi
- output file    -> /scratch/users/j/a/jabreu/flow_simple_6atoms/flow/w242/t1/run.abo
- root for input  files -> /scratch/users/j/a/jabreu/flow_simple_6atoms/flow/w242/t1/indata/in
- root for output files -> /scratch/users/j/a/jabreu/flow_simple_6atoms/flow/w242/t1/outdata/out

 Symmetries : space group C2/c (# 15); Bravais mC (1-face-center monocl.)
     intxc =       0      iscf =       7    lmnmax =      18     lnmax =       6
     mgfft =      72  mpssoang =       3    mqgrid =    3001     natom =       6
  nloc_mem =       1    nspden =       1   nspinor =       1    nsppol =       1
      nsym =       4    n1xccc =    2501    ntypat =       2    occopt =       1
   xclevel =       2
-    mband =          37        mffmem =           1         mkmem =           2
-   mkqmem =           2        mk1mem =           2           mpw =        9412
      nfft =      209952          nkpt =           2
  Rough estimation (10% accuracy) of disk space for files :

------------- Echo of variables that govern the present computation ------------
-
- outvars: echo of selected default values
-   iomode0 =  0 , fftalg0 =512 , wfoptalg0 =  0
-
- outvars: echo of global parameters not present in the input file
-  max_nthreads =    0
-
 -outvars: echo values of preprocessed input variables --------
            acell      1.0000000000E+00  1.0000000000E+00  1.0000000000E+00 Bohr
              amu      5.86900000E+01  3.09737620E+01
             ecut      4.90000000E+01 Hartree
-          fftalg         512
           irdden           1
           irdwfk           1
              ixc     -116133
              kpt      3.65384615E-01  2.77555756E-17  3.65384615E-01
                       2.50540908E-01  2.50540908E-01  7.19098986E-01
           kptopt           0
P           mkmem           2
P          mkqmem           2
P          mk1mem           2
            natom           6
            nband          37
           nbdbuf           4
            ngfft          54      54      72
             nkpt           2
            nstep        1000
             nsym           4
           ntypat           2
              occ      2.000000  2.000000  2.000000  2.000000  2.000000  2.000000
                       2.000000  2.000000  2.000000  2.000000  2.000000  2.000000
                       2.000000  2.000000  2.000000  2.000000  2.000000  2.000000
                       2.000000  2.000000  2.000000  2.000000  2.000000  2.000000
                       2.000000  2.000000  2.000000  2.000000  0.000000  0.000000
                       0.000000  0.000000  0.000000  0.000000  0.000000  0.000000
                       0.000000
        optdriver           1
            prtwf          -1
            rfdir           1       1       1
           rfelfd           2
            rprim      7.3853451164E+00  0.0000000000E+00  2.9595983380E+00
                      -1.0117627510E-01  7.3846520466E+00  2.9595983380E+00
                       0.0000000000E+00  0.0000000000E+00  1.0536031721E+01
          spgroup          15
           symrel      1  0  0   0  1  0   0  0  1      -1  0  0   0 -1  0   0  0 -1
                       0 -1  0  -1  0  0   0  0 -1       0  1  0   1  0  0   0  0  1
            tnons      0.0000000  0.0000000  0.0000000     0.0000000 -0.0000000  0.0000000
                      -0.0000000  0.0000000  0.5000000     0.0000000  0.0000000  0.5000000
           tolwfr      1.00000000E-20
            typat      1  1  2  2  2  2
           useylm           1
              wtk        0.50000    0.50000
           xangst     -2.6770089416E-02  1.9538947782E+00  7.8307599353E-01
                       1.9540781566E+00  0.0000000000E+00  3.5707899213E+00
                       1.6014218085E+00  7.2623924232E-01  5.5927450956E+00
                       3.1503838836E+00  2.2965688444E+00  5.9027006619E+00
                       7.0423225073E-01  1.6112207120E+00  2.8050311678E+00
                       2.2531943258E+00  3.1815503141E+00  3.1149867341E+00
            xcart     -5.0588137550E-02  3.6923260233E+00  1.4797991690E+00
                       3.6926725582E+00  0.0000000000E+00  6.7478150294E+00
                       3.0262486413E+00  1.3723932749E+00  1.0568756562E+01
                       5.9533627535E+00  4.3398861613E+00  1.1154487695E+01
                       1.3308060878E+00  3.0447658853E+00  5.3007407014E+00
                       4.2579202000E+00  6.0122587717E+00  5.8864718350E+00
             xred      0.0000000000E+00  5.0000000000E-01  2.1684043450E-18
                       5.0000000000E-01  0.0000000000E+00  5.0000000000E-01
                       4.1231000000E-01  1.8584400000E-01  8.3508300000E-01
                       8.1415600000E-01  5.8769000000E-01  6.6491700000E-01
                       1.8584400000E-01  4.1231000000E-01  3.3508300000E-01
                       5.8769000000E-01  8.1415600000E-01  1.6491700000E-01
            znucl       28.00000   15.00000

 chkinp: Checking input parameters for consistency.

== DATASET  1 ==================================================================
-   mpi_nproc: 1, omp_nthreads: -1 (-1 if OMP is not activated)

--- !DatasetInfo
iteration_state: {dtset: 1, }
dimensions: {natom: 6, nkpt: 2, mband: 37, nsppol: 1, nspinor: 1, nspden: 1, mpw: 9412, }
cutoff_energies: {ecut:  49.0, pawecutdg:  -1.0, }
electrons: {nelect:   5.60000000E+01, charge:   0.00000000E+00, occopt:   1.00000000E+00, tsmear:   1.00000000E-02, }
meta: {optdriver: 1, rfelfd: 2, }
...

 Real(R)+Recip(G) space primitive vectors, cartesian coordinates (Bohr,Bohr^-1):
 R(1)=  7.3853451  0.0000000  2.9595983  G(1)=  0.1354033  0.0018551  0.0000000
 R(2)= -0.1011763  7.3846520  2.9595983  G(2)=  0.0000000  0.1354160  0.0000000
 R(3)=  0.0000000  0.0000000 10.5360317  G(3)= -0.0380351 -0.0385598  0.0949124
 Unit cell volume ucvol=  5.7461625E+02 bohr^3
 Angles (23,13,12)=  6.81620816E+01  6.81620816E+01  8.27287544E+01 degrees

 getcut: wavevector=  0.0000  0.0000  0.0000  ngfft=  54  54  72
         ecut(hartree)=     49.000   => boxcut(ratio)=   2.15415

--- Pseudopotential description ------------------------------------------------
- pspini: atom type   1  psp file is /scratch/users/j/a/jabreu/pseudos/PBEsol/Ni.psp8
- pspatm: opening atomic psp file    /scratch/users/j/a/jabreu/pseudos/PBEsol/Ni.psp8
- Ni    ONCVPSP-3.3.0  r_core=   1.26116   1.35474   1.65929
- 28.00000  18.00000    180112                znucl, zion, pspdat
    8 -116133    2    4       600   0.00000   pspcod,pspxc,lmax,lloc,mmax,r2well
    5.99000000000000    3.00000000000000    0.00000000000000   rchrg,fchrg,qchrg
     nproj     2     2     2
     extension_switch     1
  pspatm : epsatm=   19.57179442
         --- l  ekb(1:nproj) -->
             0    6.241516   -0.251675
             1   -2.865987   -0.396303
             2   -7.254374   -2.547636
 pspatm: atomic psp has been read  and splines computed

- pspini: atom type   2  psp file is /scratch/users/j/a/jabreu/pseudos/PBEsol/P.psp8
- pspatm: opening atomic psp file    /scratch/users/j/a/jabreu/pseudos/PBEsol/P.psp8
- P     ONCVPSP-3.3.0  r_core=   1.46089   1.55067   1.70594
- 15.00000   5.00000    180112                znucl, zion, pspdat
    8 -116133    2    4       600   0.00000   pspcod,pspxc,lmax,lloc,mmax,r2well
    5.99000000000000    5.00000000000000    0.00000000000000   rchrg,fchrg,qchrg
     nproj     2     2     2
     extension_switch     1
  pspatm : epsatm=    7.31221086
         --- l  ekb(1:nproj) -->
             0    6.742364    1.063650
             1    3.449117    0.910422
             2   -3.077645   -0.799176
 pspatm: atomic psp has been read  and splines computed

   3.82997621E+03                                ecore*ucvol(ha*bohr**3)

-inwffil : will read wavefunctions from disk file /scratch/users/j/a/jabreu/flow_simple_6atoms/flow/w242/t1/indata/in_WFK

 ==>  initialize data related to q vector <==

 The list of irreducible perturbations for this q vector is:
    1)    idir= 1    ipert=   7
    2)    idir= 2    ipert=   7
    3)    idir= 3    ipert=   7

 Perturbation wavevector (in red.coord.)   0.000000  0.000000  0.000000
 Perturbation : derivative vs k along direction   1

 dfpt_looppert : COMMENT -
  In a d/dk calculation, iscf is set to -3 automatically.
 The set of symmetries contains only one element for this perturbation.
 symkpt : not enough symmetry to change the number of k points.

[...]

 Initialisation of the first-order wave-functions :
  ireadwf=   0

--- !BeginCycle
iteration_state: {dtset: 1, }
solver: {iscf: 7, nstep: 1000, nline: 4, wfoptalg: 0, }
tolerances: {tolwfr: 1.00E-20, }
...

     iter   2DEtotal(Ha)        deltaE(Ha) residm    vres2
-ETOT  1  -45.183202207473     -4.518E+01 1.365E-01 0.000E+00
 ETOT  2  -45.353652378138     -1.705E-01 3.068E-03 0.000E+00
 ETOT  3  -45.358395131751     -4.743E-03 2.180E-04 0.000E+00
 ETOT  4  -45.358607499994     -2.124E-04 9.080E-06 0.000E+00
 ETOT  5  -45.358618871505     -1.137E-05 7.694E-07 0.000E+00
 ETOT  6  -45.358619540333     -6.688E-07 4.129E-08 0.000E+00
 ETOT  7  -45.358619582252     -4.192E-08 3.718E-09 0.000E+00
 ETOT  8  -45.358619584991     -2.739E-09 2.106E-10 0.000E+00
 ETOT  9  -45.358619585176     -1.847E-10 1.901E-11 0.000E+00
 ETOT 10  -45.358619585189     -1.269E-11 1.261E-12 0.000E+00
 ETOT 11  -45.358619585190     -9.521E-13 1.051E-13 0.000E+00
 ETOT 12  -45.358619585190     -3.553E-14 7.921E-15 0.000E+00
 ETOT 13  -45.358619585190     -2.842E-14 6.660E-16 0.000E+00
 ETOT 14  -45.358619585190      3.553E-14 5.098E-17 0.000E+00
 ETOT 15  -45.358619585190     -7.105E-15 4.304E-18 0.000E+00
 ETOT 16  -45.358619585190      0.000E+00 3.330E-19 0.000E+00
 ETOT 17  -45.358619585190     -2.842E-14 2.818E-20 0.000E+00
 ETOT 18  -45.358619585190     -7.105E-15 9.217E-21 0.000E+00

 At SCF step   18   max residual=  9.22E-21 < tolwfr=  1.00E-20 =>converged.

 ----iterations are completed or convergence reached----

 dfpt_looppert: DFPT cycle converged with prtwf=-1. Will skip output of the 1st-order WFK file.
 dfpt_looppert : ek2=    8.1080736635E+01
          f-sum rule ratio=    1.0847462342E+00
 prteigrs : about to open file /scratch/users/j/a/jabreu/flow_simple_6atoms/flow/w242/t1/tmpdata/tmp_1WF1_EIG
 Expectation of eigenvalue derivatives (hartree) for nkpt=   2  k points:
  (in case of degenerate eigenvalues, averaged derivative)
 kpt#   1, nband= 37, wtk=  0.50000, kpt=  0.3654  0.0000  0.3654 (reduced coord)
   0.00000   -0.00000   -0.00001    0.00000    0.00001   -0.00001   -0.00000   -0.00000
   0.08956    0.03034   -0.11530   -0.13431   -0.01751   -0.00530   -0.05299    0.10223
   0.01550   -0.01306    0.03773   -0.00754   -0.06058    0.11434   -0.06427   -0.01029
   0.02132    0.03797    0.15146    0.02885   -0.12857   -0.11019   -0.10567   -0.02826
  -0.00402    0.20934    0.18382    0.02371    0.13224
 prteigrs : prtvol=0 or 1, do not print more k-points.

 Eight components of 2nd-order total energy (hartree) are
 1,2,3: 0th-order hamiltonian combined with 1st-order wavefunctions
     kin0=   5.39969715E+01 eigvalue=  -3.07559616E+00  local=  -2.11887178E+01
 4,5,6: 1st-order hamiltonian combined with 1st and 0th-order wfs
     kin1=  -8.79520237E+01  Hartree=   0.00000000E+00     xc=   0.00000000E+00
 7,8,9: eventually, occupation + non-local contributions
    edocc=   1.56488923E+01     enl0=  -2.29301733E-02   enl1=  -2.76521544E+00
 1-9 gives the relaxation energy (to be shifted if some occ is /=2.0)
   erelax=  -4.53586196E+01
  No Ewald or frozen-wf contrib.: the relaxation energy is the total one
 2DEtotal=   -0.4535861959E+02 Ha. Also 2DEtotal=   -0.123427080889E+04 eV
    (  non-var. 2DEtotal :   -4.5358619585E+01 Ha)

 Perturbation wavevector (in red.coord.)   0.000000  0.000000  0.000000
 Perturbation : derivative vs k along direction   2
 The set of symmetries contains only one element for this perturbation.
 symkpt : not enough symmetry to change the number of k points.

[...]

 Perturbation wavevector (in red.coord.)   0.000000  0.000000  0.000000
 Perturbation : derivative vs k along direction   3
 The set of symmetries contains only one element for this perturbation.
 symkpt : not enough symmetry to change the number of k points.

-inwffil : will read wavefunctions from disk file /scratch/users/j/a/jabreu/flow_simple_6atoms/flow/w242/t1/indata/in_WFK

 Initialisation of the first-order wave-functions :
  ireadwf=   0

--- !BeginCycle
iteration_state: {dtset: 1, }
solver: {iscf: 7, nstep: 1000, nline: 4, wfoptalg: 0, }
tolerances: {tolwfr: 1.00E-20, }
...

     iter   2DEtotal(Ha)        deltaE(Ha) residm    vres2
-ETOT  1  -29.309752854294     -2.931E+01 6.759E-02 0.000E+00
 ETOT  2  -29.391930343232     -8.218E-02 1.473E-03 0.000E+00
 ETOT  3  -29.393677077352     -1.747E-03 7.351E-05 0.000E+00
 ETOT  4  -29.393738792110     -6.171E-05 3.574E-06 0.000E+00
 ETOT  5  -29.393741424100     -2.632E-06 2.545E-07 0.000E+00
 ETOT  6  -29.393741547616     -1.235E-07 1.477E-08 0.000E+00
 ETOT  7  -29.393741553820     -6.203E-09 1.118E-09 0.000E+00
 ETOT  8  -29.393741554146     -3.259E-10 7.599E-11 0.000E+00
 ETOT  9  -29.393741554163     -1.782E-11 5.967E-12 0.000E+00
 ETOT 10  -29.393741554164     -9.805E-13 4.414E-13 0.000E+00
 ETOT 11  -29.393741554164     -7.461E-14 3.520E-14 0.000E+00
 ETOT 12  -29.393741554164      0.000E+00 2.713E-15 0.000E+00
 ETOT 13  -29.393741554164     -2.487E-14 2.165E-16 0.000E+00
 ETOT 14  -29.393741554164      2.487E-14 1.707E-17 0.000E+00
 ETOT 15  -29.393741554164      3.553E-15 1.355E-18 0.000E+00
 ETOT 16  -29.393741554164      0.000E+00 1.091E-19 0.000E+00
 ETOT 17  -29.393741554164      1.421E-14 9.753E-21 0.000E+00

 At SCF step   17   max residual=  9.75E-21 < tolwfr=  1.00E-20 =>converged.

 ----iterations are completed or convergence reached----

 dfpt_looppert: DFPT cycle converged with prtwf=-1. Will skip output of the 1st-order WFK file.
 dfpt_looppert : ek2=    5.2802068985E+01
          f-sum rule ratio=    1.0753616325E+00
 prteigrs : about to open file /scratch/users/j/a/jabreu/flow_simple_6atoms/flow/w242/t1/tmpdata/tmp_1WF1_EIG
 Expectation of eigenvalue derivatives (hartree) for nkpt=   2  k points:
  (in case of degenerate eigenvalues, averaged derivative)
 kpt#   1, nband= 37, wtk=  0.50000, kpt=  0.3654  0.0000  0.3654 (reduced coord)
   0.00000   -0.00000   -0.00001    0.00001    0.00001   -0.00001   -0.00000    0.00000
   0.05172   -0.15020    0.04161   -0.03281    0.02156    0.11292    0.03552    0.04662
  -0.04280    0.11158   -0.04277   -0.00825   -0.06067    0.11514   -0.00932   -0.00354
  -0.00965    0.00552    0.00772   -0.02510   -0.00048   -0.07732   -0.14198    0.04421
  -0.00919   -0.00317    0.02424   -0.00388    0.00635
 prteigrs : prtvol=0 or 1, do not print more k-points.

 Eight components of 2nd-order total energy (hartree) are
 1,2,3: 0th-order hamiltonian combined with 1st-order wavefunctions
     kin0=   3.25889060E+01 eigvalue=  -1.58876013E+00  local=  -1.25478952E+01
 4,5,6: 1st-order hamiltonian combined with 1st and 0th-order wfs
     kin1=  -5.67813191E+01  Hartree=   0.00000000E+00     xc=   0.00000000E+00
 7,8,9: eventually, occupation + non-local contributions
    edocc=   1.08970333E+01     enl0=   4.44576113E-02   enl1=  -2.00616401E+00
 1-9 gives the relaxation energy (to be shifted if some occ is /=2.0)
   erelax=  -2.93937416E+01
  No Ewald or frozen-wf contrib.: the relaxation energy is the total one
 2DEtotal=   -0.2939374155E+02 Ha. Also 2DEtotal=   -0.799844384512E+03 eV
    (  non-var. 2DEtotal :   -2.9393741554E+01 Ha)

 CALCULATION OF EFFECTIVE MASSES
 NOTE : Additional infos (eff. mass eigenvalues, eigenvectors and, if degenerate, average mass) are available in stdout.

--- !WARNING
src_file: m_efmas.F90
src_line: 0
message: |

    Band(s)    28,
    are not band extrema, but saddle points;
    the transport equivalent formalism breaks down in these conditions.
    The associated tensor(s) will therefore not be printed.
...

 K-point ( 0.365, 0.000, 0.365) | band =    28
 Effective mass tensor:
     *** SADDLE POINT: TRANSPORT EQV. EFF. MASS NOT DEFINED (see WARNING above) ***
 Angular average effective mass 1/(<1/m>)=  -0.6466072445
 Angular average effective mass for Frohlich model (<m**0.5>)**2=  -1.8707525003
 Effective masses along directions: (cart. coord. / red. coord. -> eff. mass)
    1:   1.000000  0.000000  0.000000 /   0.999906 -0.013698  0.000000 ->  -0.2907876956
    2:   0.000000  1.000000  0.000000 /   0.000000  1.000000  0.000000 ->  -1.0666189021
    3:   0.000000  0.000000  1.000000 /   0.261058  0.261058  0.929353 ->  -3.8004815212
    4:   0.577350  0.577350  0.577350 /   0.575656  0.569987  0.586289 ->  -0.6353823418
    5:   0.000000  0.707107  0.707107 /   0.196535  0.686919  0.699654 ->  14.6097464056
    6:   0.707107  0.000000  0.707107 /   0.687837  0.190057  0.700542 ->  -0.8571604969
    7:   0.707107  0.707107  0.000000 /   0.712000  0.702179  0.000000 ->  -0.2791433423

 K-point ( 0.251, 0.251, 0.719) | band =    29
 Effective mass tensor:
              1.5082545295             -1.2807596256             -0.1034162280
             -1.2807596256              1.4731594478             -0.1048428283
             -0.1034162280             -0.1048428283              0.2721157312
 Effective mass tensor eigenvalues:
              0.0904493498              0.3914935417              2.7715868171
 Angular average effective mass 1/(<1/m>)=   0.2147299580
 Angular average effective mass for Frohlich model (<m**0.5>)**2=   0.3209497350
 Effective masses along directions: (cart. coord. / red. coord. -> eff. mass)
    1:   1.000000  0.000000  0.000000 /   0.999906 -0.013698  0.000000 ->   0.2517271072
    2:   0.000000  1.000000  0.000000 /   0.000000  1.000000  0.000000 ->   0.2455259332
    3:   0.000000  0.000000  1.000000 /   0.261058  0.261058  0.929353 ->   0.1687595459
    4:   0.577350  0.577350  0.577350 /   0.575656  0.569987  0.586289 ->   0.0907528865
    5:   0.000000  0.707107  0.707107 /   0.196535  0.686919  0.699654 ->   0.1256275501
    6:   0.707107  0.000000  0.707107 /   0.687837  0.190057  0.700542 ->   0.1270715371
    7:   0.707107  0.707107  0.000000 /   0.712000  0.702179  0.000000 ->   0.1301355115

 END OF EFFECTIVE MASSES SECTION

 ---- first-order wavefunction calculations are completed ----

 Total localisation tensor (bohr^2) in cartesian coordinates
  WARNING : still subject to testing - especially symmetries.
      direction              matrix element
   alpha     beta       real part   imaginary part
     1        1       2.9188947399    0.0000000000
     1        2      -0.0349446377    0.0000000000
     1        3       1.1555190873    0.0000000000
     2        1      -0.0349446377    0.0000000000
     2        2       2.5505385558    0.0000000000
     2        3       1.0221970681    0.0000000000
     3        1       1.1555190873    0.0000000000
     3        2       1.0221970681    0.0000000000
     3        3       3.0879889954    0.0000000000

 respfn : d/dk was computed, but no 2DTE, so no DDB output.

== END DATASET(S) ==============================================================

 -outvars: echo values of variables after computation  --------
            acell      1.0000000000E+00  1.0000000000E+00  1.0000000000E+00 Bohr
              amu      5.86900000E+01  3.09737620E+01
             ecut      4.90000000E+01 Hartree
           etotal     -2.9393741554E+01
            fcart      0.0000000000E+00  0.0000000000E+00  0.0000000000E+00
                       0.0000000000E+00  0.0000000000E+00  0.0000000000E+00
                       0.0000000000E+00  0.0000000000E+00  0.0000000000E+00
                       0.0000000000E+00  0.0000000000E+00  0.0000000000E+00
                       0.0000000000E+00  0.0000000000E+00  0.0000000000E+00
                       0.0000000000E+00  0.0000000000E+00  0.0000000000E+00
-          fftalg         512
           irdden           1
           irdwfk           1
              ixc     -116133
              kpt      3.65384615E-01  2.77555756E-17  3.65384615E-01
                       2.50540908E-01  2.50540908E-01  7.19098986E-01
           kptopt           0
P           mkmem           2
P          mkqmem           2
P          mk1mem           2
            natom           6
            nband          37
           nbdbuf           4
            ngfft          54      54      72
             nkpt           2
            nstep        1000
             nsym           4
           ntypat           2
              occ      2.000000  2.000000  2.000000  2.000000  2.000000  2.000000
                       2.000000  2.000000  2.000000  2.000000  2.000000  2.000000
                       2.000000  2.000000  2.000000  2.000000  2.000000  2.000000
                       2.000000  2.000000  2.000000  2.000000  2.000000  2.000000
                       2.000000  2.000000  2.000000  2.000000  0.000000  0.000000
                       0.000000  0.000000  0.000000  0.000000  0.000000  0.000000
                       0.000000
        optdriver           1
            prtwf          -1
            rfdir           1       1       1
           rfelfd           2
            rprim      7.3853451164E+00  0.0000000000E+00  2.9595983380E+00
                      -1.0117627510E-01  7.3846520466E+00  2.9595983380E+00
                       0.0000000000E+00  0.0000000000E+00  1.0536031721E+01
          spgroup          15
           strten      0.0000000000E+00  0.0000000000E+00  0.0000000000E+00
                       0.0000000000E+00  0.0000000000E+00  0.0000000000E+00
           symrel      1  0  0   0  1  0   0  0  1      -1  0  0   0 -1  0   0  0 -1
                       0 -1  0  -1  0  0   0  0 -1       0  1  0   1  0  0   0  0  1
            tnons      0.0000000  0.0000000  0.0000000     0.0000000 -0.0000000  0.0000000
                      -0.0000000  0.0000000  0.5000000     0.0000000  0.0000000  0.5000000
           tolwfr      1.00000000E-20
            typat      1  1  2  2  2  2
           useylm           1
              wtk        0.50000    0.50000
           xangst     -2.6770089416E-02  1.9538947782E+00  7.8307599353E-01
                       1.9540781566E+00  0.0000000000E+00  3.5707899213E+00
                       1.6014218085E+00  7.2623924232E-01  5.5927450956E+00
                       3.1503838836E+00  2.2965688444E+00  5.9027006619E+00
                       7.0423225073E-01  1.6112207120E+00  2.8050311678E+00
                       2.2531943258E+00  3.1815503141E+00  3.1149867341E+00
            xcart     -5.0588137550E-02  3.6923260233E+00  1.4797991690E+00
                       3.6926725582E+00  0.0000000000E+00  6.7478150294E+00
                       3.0262486413E+00  1.3723932749E+00  1.0568756562E+01
                       5.9533627535E+00  4.3398861613E+00  1.1154487695E+01
                       1.3308060878E+00  3.0447658853E+00  5.3007407014E+00
                       4.2579202000E+00  6.0122587717E+00  5.8864718350E+00
             xred      0.0000000000E+00  5.0000000000E-01  2.1684043450E-18
                       5.0000000000E-01  0.0000000000E+00  5.0000000000E-01
                       4.1231000000E-01  1.8584400000E-01  8.3508300000E-01
                       8.1415600000E-01  5.8769000000E-01  6.6491700000E-01
                       1.8584400000E-01  4.1231000000E-01  3.3508300000E-01
                       5.8769000000E-01  8.1415600000E-01  1.6491700000E-01
            znucl       28.00000   15.00000

- Timing analysis has been suppressed with timopt=0

 Suggested references for the acknowledgment of ABINIT usage.

 Calculation completed.
.Delivered  15 WARNINGs and   9 COMMENTs to log file.