.Version 9.5.1 of ABINIT

 ABINIT is a project of the Universite Catholique de Louvain,
 Corning Inc. and other collaborators, see ~abinit/doc/developers/contributors.txt .
 acknowledgments of the ABINIT effort.

.Starting date : Wed 19 May 2021.
- ( at 07h51 )

- input  file    -> /scratch/users/j/a/jabreu/flow_simple_9atoms/flow/w126/t1/run.abi
- output file    -> /scratch/users/j/a/jabreu/flow_simple_9atoms/flow/w126/t1/run.abo
- root for input  files -> /scratch/users/j/a/jabreu/flow_simple_9atoms/flow/w126/t1/indata/in
- root for output files -> /scratch/users/j/a/jabreu/flow_simple_9atoms/flow/w126/t1/outdata/out

 Symmetries : space group Fm -3 m (#225); Bravais cF (face-center cubic)
     intxc =       0      iscf =       7    lmnmax =      32     lnmax =       8
     mgfft =      72  mpssoang =       4    mqgrid =    3001     natom =       9
  nloc_mem =       1    nspden =       1   nspinor =       1    nsppol =       1
      nsym =      48    n1xccc =    2501    ntypat =       3    occopt =       1
   xclevel =       2
-    mband =          41        mffmem =           1         mkmem =           1
-   mkqmem =           1        mk1mem =           1           mpw =       15089
      nfft =      373248          nkpt =           1
  Rough estimation (10% accuracy) of disk space for files :

------------- Echo of variables that govern the present computation ------------
-
- outvars: echo of selected default values
-   iomode0 =  0 , fftalg0 =512 , wfoptalg0 =  0
-
- outvars: echo of global parameters not present in the input file
-  max_nthreads =    0
-
 -outvars: echo values of preprocessed input variables --------
            acell      1.0000000000E+00  1.0000000000E+00  1.0000000000E+00 Bohr
              amu      1.32905430E+02  2.80855000E+01  1.89984032E+01
             ecut      4.20000000E+01 Hartree
-          fftalg         512
           irdden           1
           irdwfk           1
           istwfk        1
              ixc     -116133
           kptopt           0
P           mkmem           1
P          mkqmem           1
P          mk1mem           1
            natom           9
            nband          41
           nbdbuf           4
            ngfft          72      72      72
             nkpt           1
            nstep        2000
             nsym          48
           ntypat           3
              occ      2.000000  2.000000  2.000000  2.000000  2.000000  2.000000
                       2.000000  2.000000  2.000000  2.000000  2.000000  2.000000
                       2.000000  2.000000  2.000000  2.000000  2.000000  2.000000
                       2.000000  2.000000  2.000000  2.000000  2.000000  2.000000
                       2.000000  2.000000  2.000000  2.000000  2.000000  2.000000
                       2.000000  2.000000  0.000000  0.000000  0.000000  0.000000
                       0.000000  0.000000  0.000000  0.000000  0.000000
        optdriver           1
            prtwf          -1
            rfdir           1       1       1
           rfelfd           2
            rprim      1.0228353644E+01  0.0000000000E+00  5.9053427295E+00
                       3.4094512145E+00  9.6433842956E+00  5.9053427295E+00
                       0.0000000000E+00  0.0000000000E+00  1.1810685459E+01
          spgroup         225
           symrel      1  0  0   0  1  0   0  0  1      -1  0  0   0 -1  0   0  0 -1
                       0 -1  1   0 -1  0   1 -1  0       0  1 -1   0  1  0  -1  1  0
                      -1  0  0  -1  0  1  -1  1  0       1  0  0   1  0 -1   1 -1  0
                       0  1 -1   1  0 -1   0  0 -1       0 -1  1  -1  0  1   0  0  1
                      -1  0  0  -1  1  0  -1  0  1       1  0  0   1 -1  0   1  0 -1
                       0 -1  1   1 -1  0   0 -1  0       0  1 -1  -1  1  0   0  1  0
                       1  0  0   0  0  1   0  1  0      -1  0  0   0  0 -1   0 -1  0
                       0  1 -1   0  0 -1   1  0 -1       0 -1  1   0  0  1  -1  0  1
                      -1  0  1  -1  1  0  -1  0  0       1  0 -1   1 -1  0   1  0  0
                       0 -1  0   1 -1  0   0 -1  1       0  1  0  -1  1  0   0  1 -1
                       1  0 -1   0  0 -1   0  1 -1      -1  0  1   0  0  1   0 -1  1
                       0  1  0   0  0  1   1  0  0       0 -1  0   0  0 -1  -1  0  0
                       1  0 -1   0  1 -1   0  0 -1      -1  0  1   0 -1  1   0  0  1
                       0 -1  0   0 -1  1   1 -1  0       0  1  0   0  1 -1  -1  1  0
                      -1  0  1  -1  0  0  -1  1  0       1  0 -1   1  0  0   1 -1  0
                       0  1  0   1  0  0   0  0  1       0 -1  0  -1  0  0   0  0 -1
                       0  0 -1   0  1 -1   1  0 -1       0  0  1   0 -1  1  -1  0  1
                       1 -1  0   0 -1  1   0 -1  0      -1  1  0   0  1 -1   0  1  0
                       0  0  1   1  0  0   0  1  0       0  0 -1  -1  0  0   0 -1  0
                      -1  1  0  -1  0  0  -1  0  1       1 -1  0   1  0  0   1  0 -1
                       0  0  1   0  1  0   1  0  0       0  0 -1   0 -1  0  -1  0  0
                       1 -1  0   0 -1  0   0 -1  1      -1  1  0   0  1  0   0  1 -1
                       0  0 -1   1  0 -1   0  1 -1       0  0  1  -1  0  1   0 -1  1
                      -1  1  0  -1  0  1  -1  0  0       1 -1  0   1  0 -1   1  0  0
           tolwfr      1.00000000E-20
            typat      1  1  2  3  3  3  3  3  3
           useylm           1
           xangst      1.8042038765E+00  1.2757647957E+00  3.1249727814E+00
                       5.4126116295E+00  3.8272943872E+00  9.3749183441E+00
                       0.0000000000E+00  0.0000000000E+00  0.0000000000E+00
                       4.7163224443E+00  9.8470160911E-01  4.3309810270E+00
                       5.8242371356E+00  4.1183575738E+00  6.2499455627E+00
                       1.3925783705E+00  9.8470160911E-01  6.2499455627E+00
                       2.5004930618E+00  4.1183575738E+00  8.1689100984E+00
                       2.5004930618E+00  4.1183575738E+00  4.3309810270E+00
                       4.7163224443E+00  9.8470160911E-01  8.1689100984E+00
            xcart      3.4094512145E+00  2.4108460739E+00  5.9053427295E+00
                       1.0228353643E+01  7.2325382217E+00  1.7716028188E+01
                       0.0000000000E+00  0.0000000000E+00  0.0000000000E+00
                       8.9125577741E+00  1.8608163638E+00  8.1843680277E+00
                       1.1006213119E+01  7.7825679318E+00  1.1810685459E+01
                       2.6315917388E+00  1.8608163638E+00  1.1810685459E+01
                       4.7252470839E+00  7.7825679318E+00  1.5437002890E+01
                       4.7252470839E+00  7.7825679318E+00  8.1843680277E+00
                       8.9125577741E+00  1.8608163638E+00  1.5437002890E+01
             xred      2.5000000000E-01  2.5000000000E-01  2.5000000000E-01
                       7.5000000000E-01  7.5000000000E-01  7.5000000000E-01
                       0.0000000000E+00  0.0000000000E+00  0.0000000000E+00
                       8.0703700000E-01  1.9296300000E-01  1.9296300000E-01
                       8.0703700000E-01  8.0703700000E-01  1.9296300000E-01
                       1.9296300000E-01  1.9296300000E-01  8.0703700000E-01
                       1.9296300000E-01  8.0703700000E-01  8.0703700000E-01
                       1.9296300000E-01  8.0703700000E-01  1.9296300000E-01
                       8.0703700000E-01  1.9296300000E-01  8.0703700000E-01
            znucl       55.00000   14.00000    9.00000

 chkinp: Checking input parameters for consistency.

== DATASET  1 ==================================================================
-   mpi_nproc: 1, omp_nthreads: -1 (-1 if OMP is not activated)

--- !DatasetInfo
iteration_state: {dtset: 1, }
dimensions: {natom: 9, nkpt: 1, mband: 41, nsppol: 1, nspinor: 1, nspden: 1, mpw: 15089, }
cutoff_energies: {ecut:  42.0, pawecutdg:  -1.0, }
electrons: {nelect:   6.40000000E+01, charge:   0.00000000E+00, occopt:   1.00000000E+00, tsmear:   1.00000000E-02, }
meta: {optdriver: 1, rfelfd: 2, }
...

 Real(R)+Recip(G) space primitive vectors, cartesian coordinates (Bohr,Bohr^-1):
 R(1)= 10.2283536  0.0000000  5.9053427  G(1)=  0.0977674 -0.0345660  0.0000000
 R(2)=  3.4094512  9.6433843  5.9053427  G(2)=  0.0000000  0.1036980  0.0000000
 R(3)=  0.0000000  0.0000000 11.8106855  G(3)= -0.0488837 -0.0345660  0.0846691
 Unit cell volume ucvol=  1.1649581E+03 bohr^3
 Angles (23,13,12)=  6.00000000E+01  6.00000000E+01  6.00000000E+01 degrees

 getcut: wavevector=  0.0000  0.0000  0.0000  ngfft=  72  72  72
         ecut(hartree)=     42.000   => boxcut(ratio)=   2.08962

--- Pseudopotential description ------------------------------------------------
- pspini: atom type   1  psp file is /scratch/users/j/a/jabreu/pseudos/PBEsol/Cs.psp8
- pspatm: opening atomic psp file    /scratch/users/j/a/jabreu/pseudos/PBEsol/Cs.psp8
- Cs    ONCVPSP-3.3.0  r_core=   2.27353   1.85623   2.01788   1.90105
- 55.00000   9.00000    180112                znucl, zion, pspdat
    8 -116133    3    4       600   0.00000   pspcod,pspxc,lmax,lloc,mmax,r2well
    5.99000000000000    5.00000000000000    0.00000000000000   rchrg,fchrg,qchrg
     nproj     2     2     2     2
     extension_switch     1
  pspatm : epsatm=   22.12462445
         --- l  ekb(1:nproj) -->
             0    6.214110    0.767882
             1    6.311966    0.793598
             2    3.769790    0.913105
             3   -9.247129   -2.432478
 pspatm: atomic psp has been read  and splines computed

- pspini: atom type   2  psp file is /scratch/users/j/a/jabreu/pseudos/PBEsol/Si.psp8
- pspatm: opening atomic psp file    /scratch/users/j/a/jabreu/pseudos/PBEsol/Si.psp8
- Si    ONCVPSP-3.3.0  r_core=   1.60303   1.72197   1.91712
- 14.00000   4.00000    180112                znucl, zion, pspdat
    8 -116133    2    4       600   0.00000   pspcod,pspxc,lmax,lloc,mmax,r2well
    5.99000000000000    4.00000000000000    0.00000000000000   rchrg,fchrg,qchrg
     nproj     2     2     2
     extension_switch     1
  pspatm : epsatm=    7.86468782
         --- l  ekb(1:nproj) -->
             0    5.384426    0.843824
             1    2.663259    0.615854
             2   -2.267219   -0.458043
 pspatm: atomic psp has been read  and splines computed

- pspini: atom type   3  psp file is /scratch/users/j/a/jabreu/pseudos/PBEsol/F.psp8
- pspatm: opening atomic psp file    /scratch/users/j/a/jabreu/pseudos/PBEsol/F.psp8
- F     ONCVPSP-3.3.0  r_core=   1.30942   1.45782   1.60379
-  9.00000   7.00000    180112                znucl, zion, pspdat
    8 -116133    2    4       600   0.00000   pspcod,pspxc,lmax,lloc,mmax,r2well
    5.99000000000000    2.50000000000000    0.00000000000000   rchrg,fchrg,qchrg
     nproj     2     2     1
     extension_switch     1
  pspatm : epsatm=    4.89824824
         --- l  ekb(1:nproj) -->
             0    6.506434    1.065875
             1   -3.978753   -1.295852
             2   -2.394754
 pspatm: atomic psp has been read  and splines computed

   5.21621927E+03                                ecore*ucvol(ha*bohr**3)

[...]

[...]

 Perturbation wavevector (in red.coord.)   0.000000  0.000000  0.000000
 Perturbation : derivative vs k along direction   3
 The set of symmetries contains only one element for this perturbation.
 symkpt : not enough symmetry to change the number of k points.

-inwffil : will read wavefunctions from disk file /scratch/users/j/a/jabreu/flow_simple_9atoms/flow/w126/t1/indata/in_WFK

 Initialisation of the first-order wave-functions :
  ireadwf=   0

--- !BeginCycle
iteration_state: {dtset: 1, }
solver: {iscf: 7, nstep: 2000, nline: 4, wfoptalg: 0, }
tolerances: {tolwfr: 1.00E-20, }
...

     iter   2DEtotal(Ha)        deltaE(Ha) residm    vres2
-ETOT  1  -30.632249220899     -3.063E+01 3.593E-02 0.000E+00
 ETOT  2  -30.656341720932     -2.409E-02 6.826E-03 0.000E+00
 ETOT  3  -30.656700663834     -3.589E-04 1.485E-04 0.000E+00
 ETOT  4  -30.656719486915     -1.882E-05 9.058E-05 0.000E+00
 ETOT  5  -30.656720635374     -1.148E-06 3.846E-06 0.000E+00
 ETOT  6  -30.656720711627     -7.625E-08 3.050E-06 0.000E+00
 ETOT  7  -30.656720716899     -5.272E-09 1.242E-07 0.000E+00
 ETOT  8  -30.656720717274     -3.757E-10 1.065E-07 0.000E+00
 ETOT  9  -30.656720717302     -2.729E-11 4.221E-09 0.000E+00
 ETOT 10  -30.656720717304     -2.071E-12 3.757E-09 0.000E+00
 ETOT 11  -30.656720717304     -8.882E-14 1.472E-10 0.000E+00
 ETOT 12  -30.656720717304     -2.132E-14 1.333E-10 0.000E+00
 ETOT 13  -30.656720717304      0.000E+00 5.199E-12 0.000E+00
 ETOT 14  -30.656720717304      7.105E-15 4.743E-12 0.000E+00
 ETOT 15  -30.656720717304      0.000E+00 1.849E-13 0.000E+00
 ETOT 16  -30.656720717304     -7.105E-15 1.692E-13 0.000E+00
 ETOT 17  -30.656720717304      3.553E-15 6.603E-15 0.000E+00
 ETOT 18  -30.656720717304     -3.553E-15 6.041E-15 0.000E+00
 ETOT 19  -30.656720717304      0.000E+00 2.363E-16 0.000E+00
 ETOT 20  -30.656720717304      0.000E+00 2.160E-16 0.000E+00
 ETOT 21  -30.656720717304      0.000E+00 8.473E-18 0.000E+00
 ETOT 22  -30.656720717304      0.000E+00 7.730E-18 0.000E+00
 ETOT 23  -30.656720717304      0.000E+00 3.042E-19 0.000E+00
 ETOT 24  -30.656720717304      3.553E-15 2.768E-19 0.000E+00
 ETOT 25  -30.656720717304     -3.553E-15 1.140E-20 0.000E+00
 ETOT 26  -30.656720717304      0.000E+00 9.820E-21 0.000E+00

 At SCF step   26   max residual=  9.82E-21 < tolwfr=  1.00E-20 =>converged.

 ----iterations are completed or convergence reached----

 dfpt_looppert: DFPT cycle converged with prtwf=-1. Will skip output of the 1st-order WFK file.
 dfpt_looppert : ek2=    5.4338889449E+01
          f-sum rule ratio=    1.0565107430E+00
 prteigrs : about to open file /scratch/users/j/a/jabreu/flow_simple_9atoms/flow/w126/t1/tmpdata/tmp_1WF1_EIG
 Expectation of eigenvalue derivatives (hartree) for nkpt=   1  k points:
  (in case of degenerate eigenvalues, averaged derivative)
 kpt#   1, nband= 41, wtk=  1.00000, kpt=  0.0000  0.0000  0.0000 (reduced coord)
  -0.00000   -0.00000   -0.00000   -0.00000   -0.00000   -0.00000    0.00000   -0.00000
   0.00000    0.00000    0.00000    0.00000   -0.00000   -0.00000   -0.00000    0.00000
   0.00000    0.00000   -0.00000   -0.00000    0.00000    0.00000    0.00000   -0.00000
  -0.00000   -0.00000   -0.00000   -0.00000   -0.00000    0.00000    0.00000    0.00000
   0.00000    0.00000    0.00000    0.00000    0.00000    0.00000    0.00000    0.00000
   0.00000

 Eight components of 2nd-order total energy (hartree) are
 1,2,3: 0th-order hamiltonian combined with 1st-order wavefunctions
     kin0=   3.64724599E+01 eigvalue=   2.19412027E+00  local=  -1.71070481E+01
 4,5,6: 1st-order hamiltonian combined with 1st and 0th-order wfs
     kin1=  -5.74096205E+01  Hartree=   0.00000000E+00     xc=   0.00000000E+00
 7,8,9: eventually, occupation + non-local contributions
    edocc=   7.31476007E+00     enl0=   1.78242858E+00   enl1=  -3.90382097E+00
 1-9 gives the relaxation energy (to be shifted if some occ is /=2.0)
   erelax=  -3.06567207E+01
  No Ewald or frozen-wf contrib.: the relaxation energy is the total one
 2DEtotal=   -0.3065672072E+02 Ha. Also 2DEtotal=   -0.834211795327E+03 eV
    (  non-var. 2DEtotal :   -3.0656720717E+01 Ha)

 CALCULATION OF EFFECTIVE MASSES
 NOTE : Additional infos (eff. mass eigenvalues, eigenvectors and, if degenerate, average mass) are available in stdout.

 COMMENTS:
 - At k-point ( 0.000, 0.000, 0.000), bands    30 through    32
   are DEGENERATE (effective mass tensor is therefore not defined).
   See Section IIIB Eqs. (67)-(70) and Appendix E of PRB 93 205147 (2016).
 - Angular average effective mass for Frohlich model is to be averaged over degenerate bands. See later.
 - Associated theta integrals calculated with ntheta=   1000 points.

 K-point ( 0.000, 0.000, 0.000) | band =    30
 Transport equivalent effective mass tensor:
            -20.4144197224             -0.0000127285              0.0000000185
             -0.0000127285            -20.4144257663              0.0000000200
              0.0000000185              0.0000000200            -20.4144566593
 Transport equivalent effective mass tensor eigenvalues:
            -20.4144566593            -20.4144358266            -20.4144096620
 Angular average effective mass 1/(<1/m>)= -18.2566419974
 Angular average effective mass for Frohlich model (<m**0.5>)**2= -18.3432092887
 Effective masses along directions: (cart. coord. / red. coord. -> eff. mass)
    1:   1.000000  0.000000  0.000000 /   0.948683  0.316228  0.000000 -> -16.9146523224
    2:   0.000000  1.000000  0.000000 /   0.000000  1.000000  0.000000 -> -15.8500957217
    3:   0.000000  0.000000  1.000000 /   0.408248  0.408248  0.816497 -> -20.1176713042
    4:   0.577350  0.577350  0.577350 /   0.585539  0.688047  0.428644 -> -17.1043105825
    5:   0.000000  0.707107  0.707107 /   0.289489  0.762222  0.578977 -> -19.5058233662
    6:   0.707107  0.000000  0.707107 /   0.731423  0.422287  0.535439 -> -17.7546334552
    7:   0.707107  0.707107  0.000000 /   0.616798  0.787122  0.000000 -> -20.3430781644

[...]

 K-point ( 0.000, 0.000, 0.000) | band =    32
 Transport equivalent effective mass tensor:
           -182.1110847821              0.0002989729              0.0000026874
              0.0002989729           -182.1110083104              0.0000009719
              0.0000026874              0.0000009719           -182.1107063253
 Transport equivalent effective mass tensor eigenvalues:
           -182.1113479572           -182.1107452993           -182.1107061614
 Angular average effective mass 1/(<1/m>)= -97.5990282895
 Angular average effective mass for Frohlich model (<m**0.5>)**2= **************
 Effective masses along directions: (cart. coord. / red. coord. -> eff. mass)
    1:   1.000000  0.000000  0.000000 /   0.948683  0.316228  0.000000 -> -85.8458097087
    2:   0.000000  1.000000  0.000000 /   0.000000  1.000000  0.000000 -> -47.4797964200
    3:   0.000000  0.000000  1.000000 /   0.408248  0.408248  0.816497 -> **************
    4:   0.577350  0.577350  0.577350 /   0.585539  0.688047  0.428644 -> -91.2390436195
    5:   0.000000  0.707107  0.707107 /   0.289489  0.762222  0.578977 -> **************
    6:   0.707107  0.000000  0.707107 /   0.731423  0.422287  0.535439 -> **************
    7:   0.707107  0.707107  0.000000 /   0.616798  0.787122  0.000000 -> **************

 Angular average effective mass for Frohlich model, averaged over degenerate bands.
 Value of     (<<m**0.5>>)**2 =     4.167082E+01
 Absolute Value of <<m**0.5>> =     6.455294E+00

 K-point ( 0.000, 0.000, 0.000) | band =    33
 Effective mass tensor:
              0.5018639250             -0.0000000000             -0.0000000001
             -0.0000000000              0.5018639251             -0.0000000001
             -0.0000000001             -0.0000000001              0.5018639249
 Effective mass tensor eigenvalues:
              0.5018639248              0.5018639251              0.5018639251
 Angular average effective mass 1/(<1/m>)=   0.5018639250
 Angular average effective mass for Frohlich model (<m**0.5>)**2=   0.5018639250
 Effective masses along directions: (cart. coord. / red. coord. -> eff. mass)
    1:   1.000000  0.000000  0.000000 /   0.948683  0.316228  0.000000 ->   0.5018639250
    2:   0.000000  1.000000  0.000000 /   0.000000  1.000000  0.000000 ->   0.5018639251
    3:   0.000000  0.000000  1.000000 /   0.408248  0.408248  0.816497 ->   0.5018639249
    4:   0.577350  0.577350  0.577350 /   0.585539  0.688047  0.428644 ->   0.5018639249
    5:   0.000000  0.707107  0.707107 /   0.289489  0.762222  0.578977 ->   0.5018639249
    6:   0.707107  0.000000  0.707107 /   0.731423  0.422287  0.535439 ->   0.5018639249
    7:   0.707107  0.707107  0.000000 /   0.616798  0.787122  0.000000 ->   0.5018639250

 END OF EFFECTIVE MASSES SECTION

 ---- first-order wavefunction calculations are completed ----

 Total localisation tensor (bohr^2) in cartesian coordinates
  WARNING : still subject to testing - especially symmetries.
      direction              matrix element
   alpha     beta       real part   imaginary part
     1        1       0.8102218292    0.0000000000
     1        2       0.2291653521    0.0000000000
     1        3       0.5613381544    0.0000000000
     2        1       0.2291653521    0.0000000000
     2        2       0.6481774979    0.0000000000
     2        3       0.3969260331    0.0000000000
     3        1       0.5613381544    0.0000000000
     3        2       0.3969260331    0.0000000000
     3        3       1.4583992603    0.0000000000

 respfn : d/dk was computed, but no 2DTE, so no DDB output.

== END DATASET(S) ==============================================================

 -outvars: echo values of variables after computation  --------
            acell      1.0000000000E+00  1.0000000000E+00  1.0000000000E+00 Bohr
              amu      1.32905430E+02  2.80855000E+01  1.89984032E+01
             ecut      4.20000000E+01 Hartree
           etotal     -3.0656720717E+01
            fcart      0.0000000000E+00  0.0000000000E+00  0.0000000000E+00
                       0.0000000000E+00  0.0000000000E+00  0.0000000000E+00
                       0.0000000000E+00  0.0000000000E+00  0.0000000000E+00
                       0.0000000000E+00  0.0000000000E+00  0.0000000000E+00
                       0.0000000000E+00  0.0000000000E+00  0.0000000000E+00
                       0.0000000000E+00  0.0000000000E+00  0.0000000000E+00
                       0.0000000000E+00  0.0000000000E+00  0.0000000000E+00
                       0.0000000000E+00  0.0000000000E+00  0.0000000000E+00
                       0.0000000000E+00  0.0000000000E+00  0.0000000000E+00
-          fftalg         512
           irdden           1
           irdwfk           1
           istwfk        1
              ixc     -116133
           kptopt           0
P           mkmem           1
P          mkqmem           1
P          mk1mem           1
            natom           9
            nband          41
           nbdbuf           4
            ngfft          72      72      72
             nkpt           1
            nstep        2000
             nsym          48
           ntypat           3
              occ      2.000000  2.000000  2.000000  2.000000  2.000000  2.000000
                       2.000000  2.000000  2.000000  2.000000  2.000000  2.000000
                       2.000000  2.000000  2.000000  2.000000  2.000000  2.000000
                       2.000000  2.000000  2.000000  2.000000  2.000000  2.000000
                       2.000000  2.000000  2.000000  2.000000  2.000000  2.000000
                       2.000000  2.000000  0.000000  0.000000  0.000000  0.000000
                       0.000000  0.000000  0.000000  0.000000  0.000000
        optdriver           1
            prtwf          -1
            rfdir           1       1       1
           rfelfd           2
            rprim      1.0228353644E+01  0.0000000000E+00  5.9053427295E+00
                       3.4094512145E+00  9.6433842956E+00  5.9053427295E+00
                       0.0000000000E+00  0.0000000000E+00  1.1810685459E+01
          spgroup         225
           strten      0.0000000000E+00  0.0000000000E+00  0.0000000000E+00
                       0.0000000000E+00  0.0000000000E+00  0.0000000000E+00
           symrel      1  0  0   0  1  0   0  0  1      -1  0  0   0 -1  0   0  0 -1
                       0 -1  1   0 -1  0   1 -1  0       0  1 -1   0  1  0  -1  1  0
                      -1  0  0  -1  0  1  -1  1  0       1  0  0   1  0 -1   1 -1  0
                       0  1 -1   1  0 -1   0  0 -1       0 -1  1  -1  0  1   0  0  1
                      -1  0  0  -1  1  0  -1  0  1       1  0  0   1 -1  0   1  0 -1
                       0 -1  1   1 -1  0   0 -1  0       0  1 -1  -1  1  0   0  1  0
                       1  0  0   0  0  1   0  1  0      -1  0  0   0  0 -1   0 -1  0
                       0  1 -1   0  0 -1   1  0 -1       0 -1  1   0  0  1  -1  0  1
                      -1  0  1  -1  1  0  -1  0  0       1  0 -1   1 -1  0   1  0  0
                       0 -1  0   1 -1  0   0 -1  1       0  1  0  -1  1  0   0  1 -1
                       1  0 -1   0  0 -1   0  1 -1      -1  0  1   0  0  1   0 -1  1
                       0  1  0   0  0  1   1  0  0       0 -1  0   0  0 -1  -1  0  0
                       1  0 -1   0  1 -1   0  0 -1      -1  0  1   0 -1  1   0  0  1
                       0 -1  0   0 -1  1   1 -1  0       0  1  0   0  1 -1  -1  1  0
                      -1  0  1  -1  0  0  -1  1  0       1  0 -1   1  0  0   1 -1  0
                       0  1  0   1  0  0   0  0  1       0 -1  0  -1  0  0   0  0 -1
                       0  0 -1   0  1 -1   1  0 -1       0  0  1   0 -1  1  -1  0  1
                       1 -1  0   0 -1  1   0 -1  0      -1  1  0   0  1 -1   0  1  0
                       0  0  1   1  0  0   0  1  0       0  0 -1  -1  0  0   0 -1  0
                      -1  1  0  -1  0  0  -1  0  1       1 -1  0   1  0  0   1  0 -1
                       0  0  1   0  1  0   1  0  0       0  0 -1   0 -1  0  -1  0  0
                       1 -1  0   0 -1  0   0 -1  1      -1  1  0   0  1  0   0  1 -1
                       0  0 -1   1  0 -1   0  1 -1       0  0  1  -1  0  1   0 -1  1
                      -1  1  0  -1  0  1  -1  0  0       1 -1  0   1  0 -1   1  0  0
           tolwfr      1.00000000E-20
            typat      1  1  2  3  3  3  3  3  3
           useylm           1
           xangst      1.8042038765E+00  1.2757647957E+00  3.1249727814E+00
                       5.4126116295E+00  3.8272943872E+00  9.3749183441E+00
                       0.0000000000E+00  0.0000000000E+00  0.0000000000E+00
                       4.7163224443E+00  9.8470160911E-01  4.3309810270E+00
                       5.8242371356E+00  4.1183575738E+00  6.2499455627E+00
                       1.3925783705E+00  9.8470160911E-01  6.2499455627E+00
                       2.5004930618E+00  4.1183575738E+00  8.1689100984E+00
                       2.5004930618E+00  4.1183575738E+00  4.3309810270E+00
                       4.7163224443E+00  9.8470160911E-01  8.1689100984E+00
            xcart      3.4094512145E+00  2.4108460739E+00  5.9053427295E+00
                       1.0228353643E+01  7.2325382217E+00  1.7716028188E+01
                       0.0000000000E+00  0.0000000000E+00  0.0000000000E+00
                       8.9125577741E+00  1.8608163638E+00  8.1843680277E+00
                       1.1006213119E+01  7.7825679318E+00  1.1810685459E+01
                       2.6315917388E+00  1.8608163638E+00  1.1810685459E+01
                       4.7252470839E+00  7.7825679318E+00  1.5437002890E+01
                       4.7252470839E+00  7.7825679318E+00  8.1843680277E+00
                       8.9125577741E+00  1.8608163638E+00  1.5437002890E+01
             xred      2.5000000000E-01  2.5000000000E-01  2.5000000000E-01
                       7.5000000000E-01  7.5000000000E-01  7.5000000000E-01
                       0.0000000000E+00  0.0000000000E+00  0.0000000000E+00
                       8.0703700000E-01  1.9296300000E-01  1.9296300000E-01
                       8.0703700000E-01  8.0703700000E-01  1.9296300000E-01
                       1.9296300000E-01  1.9296300000E-01  8.0703700000E-01
                       1.9296300000E-01  8.0703700000E-01  8.0703700000E-01
                       1.9296300000E-01  8.0703700000E-01  1.9296300000E-01
                       8.0703700000E-01  1.9296300000E-01  8.0703700000E-01
            znucl       55.00000   14.00000    9.00000

- Timing analysis has been suppressed with timopt=0

 Suggested references for the acknowledgment of ABINIT usage.

 Calculation completed.
.Delivered   6 WARNINGs and   5 COMMENTs to log file.