.Version 9.5.1 of ABINIT

 ABINIT is a project of the Universite Catholique de Louvain,
 Corning Inc. and other collaborators, see ~abinit/doc/developers/contributors.txt .
 acknowledgments of the ABINIT effort.

.Starting date : Wed  5 May 2021.
- ( at 19h37 )

- input  file    -> /scratch/users/j/a/jabreu/flow_simple_7atoms/flow/w110/t1/run.abi
- output file    -> /scratch/users/j/a/jabreu/flow_simple_7atoms/flow/w110/t1/run.abo
- root for input  files -> /scratch/users/j/a/jabreu/flow_simple_7atoms/flow/w110/t1/indata/in
- root for output files -> /scratch/users/j/a/jabreu/flow_simple_7atoms/flow/w110/t1/outdata/out

 Symmetries : space group I-4 (# 82); Bravais tI (body-center tetrag.)
     intxc =       0      iscf =       7    lmnmax =      18     lnmax =       6
     mgfft =      80  mpssoang =       3    mqgrid =    3001     natom =       7
  nloc_mem =       1    nspden =       1   nspinor =       1    nsppol =       1
      nsym =       4    n1xccc =    2501    ntypat =       3    occopt =       1
   xclevel =       2
-    mband =          44        mffmem =           1         mkmem =           1
-   mkqmem =           1        mk1mem =           1           mpw =       18299
      nfft =      512000          nkpt =           1
  Rough estimation (10% accuracy) of disk space for files :

------------- Echo of variables that govern the present computation ------------
-
- outvars: echo of selected default values
-   iomode0 =  0 , fftalg0 =512 , wfoptalg0 =  0
-
- outvars: echo of global parameters not present in the input file
-  max_nthreads =    0
-
 -outvars: echo values of preprocessed input variables --------
            acell      1.0000000000E+00  1.0000000000E+00  1.0000000000E+00 Bohr
              amu      1.12411000E+02  6.97230000E+01  3.20660000E+01
             ecut      5.10000000E+01 Hartree
-          fftalg         512
           irdden           1
           irdwfk           1
           istwfk        1
              ixc     -116133
           kptopt           0
P           mkmem           1
P          mkqmem           1
P          mk1mem           1
            natom           7
            nband          44
           nbdbuf           4
            ngfft          80      80      80
             nkpt           1
            nstep        2000
             nsym           4
           ntypat           3
              occ      2.000000  2.000000  2.000000  2.000000  2.000000  2.000000
                       2.000000  2.000000  2.000000  2.000000  2.000000  2.000000
                       2.000000  2.000000  2.000000  2.000000  2.000000  2.000000
                       2.000000  2.000000  2.000000  2.000000  2.000000  2.000000
                       2.000000  2.000000  2.000000  2.000000  2.000000  2.000000
                       2.000000  2.000000  2.000000  2.000000  2.000000  0.000000
                       0.000000  0.000000  0.000000  0.000000  0.000000  0.000000
                       0.000000  0.000000
        optdriver           1
            prtwf          -1
            rfdir           1       1       1
           rfelfd           2
            rprim      9.4173672646E+00  0.0000000000E+00 -7.6497117273E+00
                      -2.1341529959E+00  9.1723605024E+00 -7.6497117273E+00
                       0.0000000000E+00  0.0000000000E+00  1.2132802467E+01
          spgroup          82
           symrel      1  0  0   0  1  0   0  0  1       0  1  0   1  0  0  -1 -1 -1
                       0  0  1  -1 -1 -1   0  1  0      -1 -1 -1   0  0  1   1  0  0
           tolwfr      1.00000000E-20
            typat      1  2  2  3  3  3  3
           useylm           1
           xangst      0.0000000000E+00  0.0000000000E+00  0.0000000000E+00
                       3.9885518653E-01  3.6403530951E+00 -8.3785182741E-01
                       1.9270554981E+00  2.4269020634E+00 -4.0480530984E+00
                       1.0505946595E+00  4.2310367883E+00 -5.1474544520E+00
                       4.8847326710E-01  6.4867694492E-01  2.3852194967E+00
                       2.3068517727E+00  2.8717095274E+00 -1.8367932416E+00
                       3.8623022933E+00  1.9561849930E+00  1.2476208872E+00
            xcart      0.0000000000E+00  0.0000000000E+00  0.0000000000E+00
                       7.5372706922E-01  6.8792703768E+00 -1.5833104937E+00
                       3.6416071343E+00  4.5861802512E+00 -7.6497117273E+00
                       1.9853361830E+00  7.9955007881E+00 -9.7272791958E+00
                       9.2308069805E-01  1.2258217746E+00  4.5074116157E+00
                       4.3593180796E+00  5.4267445400E+00 -3.4710361894E+00
                       7.2986935767E+00  3.6966539020E+00  2.3576617946E+00
             xred      0.0000000000E+00  0.0000000000E+00  0.0000000000E+00
                       2.5000000000E-01  7.5000000000E-01  5.0000000000E-01
                       5.0000000000E-01  5.0000000000E-01 -2.7755575616E-17
                       4.0835900000E-01  8.7169500000E-01  5.3380000000E-03
                       1.2830500000E-01  1.3364300000E-01  5.3666400000E-01
                       5.9697900000E-01  5.9164100000E-01  4.6333600000E-01
                       8.6635700000E-01  4.0302100000E-01  9.9466200000E-01
            znucl       48.00000   31.00000   16.00000

 chkinp: Checking input parameters for consistency.

== DATASET  1 ==================================================================
-   mpi_nproc: 1, omp_nthreads: -1 (-1 if OMP is not activated)

--- !DatasetInfo
iteration_state: {dtset: 1, }
dimensions: {natom: 7, nkpt: 1, mband: 44, nsppol: 1, nspinor: 1, nspden: 1, mpw: 18299, }
cutoff_energies: {ecut:  51.0, pawecutdg:  -1.0, }
electrons: {nelect:   7.00000000E+01, charge:   0.00000000E+00, occopt:   1.00000000E+00, tsmear:   1.00000000E-02, }
meta: {optdriver: 1, rfelfd: 2, }
...

 Real(R)+Recip(G) space primitive vectors, cartesian coordinates (Bohr,Bohr^-1):
 R(1)=  9.4173673  0.0000000 -7.6497117  G(1)=  0.1061868  0.0247067  0.0000000
 R(2)= -2.1341530  9.1723605 -7.6497117  G(2)=  0.0000000  0.1090232  0.0000000
 R(3)=  0.0000000  0.0000000 12.1328025  G(3)=  0.0669506  0.0843165  0.0824212
 Unit cell volume ucvol=  1.0480253E+03 bohr^3
 Angles (23,13,12)=  1.29086898E+02  1.29086898E+02  7.48707910E+01 degrees

 getcut: wavevector=  0.0000  0.0000  0.0000  ngfft=  80  80  80
         ecut(hartree)=     51.000   => boxcut(ratio)=   2.05119

--- Pseudopotential description ------------------------------------------------
- pspini: atom type   1  psp file is /scratch/users/j/a/jabreu/pseudos/PBEsol/Cd.psp8
- pspatm: opening atomic psp file    /scratch/users/j/a/jabreu/pseudos/PBEsol/Cd.psp8
- Cd    ONCVPSP-3.3.0  r_core=   1.25838   1.30423   1.35174
- 48.00000  20.00000    180112                znucl, zion, pspdat
    8 -116133    2    4       600   0.00000   pspcod,pspxc,lmax,lloc,mmax,r2well
    5.99000000000000    6.00000000000000    0.00000000000000   rchrg,fchrg,qchrg
     nproj     2     2     2
     extension_switch     1
  pspatm : epsatm=   23.26728021
         --- l  ekb(1:nproj) -->
             0   63.701523    3.700425
             1    8.703569    1.290373
             2    0.983656   -0.721725
 pspatm: atomic psp has been read  and splines computed

- pspini: atom type   2  psp file is /scratch/users/j/a/jabreu/pseudos/PBEsol/Ga.psp8
- pspatm: opening atomic psp file    /scratch/users/j/a/jabreu/pseudos/PBEsol/Ga.psp8
- Ga    ONCVPSP-3.3.0  r_core=   1.66857   1.75011   1.90252
- 31.00000  13.00000    180112                znucl, zion, pspdat
    8 -116133    2    4       600   0.00000   pspcod,pspxc,lmax,lloc,mmax,r2well
    5.99000000000000    5.00000000000000    0.00000000000000   rchrg,fchrg,qchrg
     nproj     2     2     2
     extension_switch     1
  pspatm : epsatm=   24.50969055
         --- l  ekb(1:nproj) -->
             0    7.053021    1.156713
             1    6.846070    1.293139
             2   -8.368667   -2.819170
 pspatm: atomic psp has been read  and splines computed

- pspini: atom type   3  psp file is /scratch/users/j/a/jabreu/pseudos/PBEsol/S.psp8
- pspatm: opening atomic psp file    /scratch/users/j/a/jabreu/pseudos/PBEsol/S.psp8
- S     ONCVPSP-3.3.0  r_core=   1.45376   1.45376   1.61851
- 16.00000   6.00000    180112                znucl, zion, pspdat
    8 -116133    2    4       600   0.00000   pspcod,pspxc,lmax,lloc,mmax,r2well
    5.99000000000000    6.00000000000000    0.00000000000000   rchrg,fchrg,qchrg
     nproj     2     2     2
     extension_switch     1
  pspatm : epsatm=    8.71840985
         --- l  ekb(1:nproj) -->
             0    6.834532    0.579453
             1    3.282851    0.896984
             2   -3.496974   -0.974265
 pspatm: atomic psp has been read  and splines computed

   7.50122105E+03                                ecore*ucvol(ha*bohr**3)

-inwffil : will read wavefunctions from disk file /scratch/users/j/a/jabreu/flow_simple_7atoms/flow/w110/t1/indata/in_WFK

 ==>  initialize data related to q vector <==

 The list of irreducible perturbations for this q vector is:
    1)    idir= 1    ipert=   8
    2)    idir= 2    ipert=   8
    3)    idir= 3    ipert=   8

 Perturbation wavevector (in red.coord.)   0.000000  0.000000  0.000000
 Perturbation : derivative vs k along direction   1

 dfpt_looppert : COMMENT -
  In a d/dk calculation, iscf is set to -3 automatically.
 The set of symmetries contains only one element for this perturbation.
 symkpt : not enough symmetry to change the number of k points.

[...]

 Initialisation of the first-order wave-functions :
  ireadwf=   0

--- !BeginCycle
iteration_state: {dtset: 1, }
solver: {iscf: 7, nstep: 2000, nline: 4, wfoptalg: 0, }
tolerances: {tolwfr: 1.00E-20, }
...

     iter   2DEtotal(Ha)        deltaE(Ha) residm    vres2
-ETOT  1  -54.152759704882     -5.415E+01 6.092E-01 0.000E+00
 ETOT  2  -54.324481596956     -1.717E-01 1.545E-02 0.000E+00
 ETOT  3  -54.326590985239     -2.109E-03 5.008E-03 0.000E+00
 ETOT  4  -54.326637450454     -4.647E-05 2.731E-04 0.000E+00
 ETOT  5  -54.326638743632     -1.293E-06 1.183E-04 0.000E+00
 ETOT  6  -54.326638783854     -4.022E-08 8.440E-06 0.000E+00
 ETOT  7  -54.326638785214     -1.360E-09 3.821E-06 0.000E+00
 ETOT  8  -54.326638785262     -4.874E-11 2.955E-07 0.000E+00
 ETOT  9  -54.326638785264     -1.819E-12 1.364E-07 0.000E+00
 ETOT 10  -54.326638785264      0.000E+00 1.096E-08 0.000E+00
 ETOT 11  -54.326638785264     -1.208E-13 5.075E-09 0.000E+00
 ETOT 12  -54.326638785264      4.263E-14 4.178E-10 0.000E+00
 ETOT 13  -54.326638785264     -7.105E-15 1.928E-10 0.000E+00
 ETOT 14  -54.326638785264     -7.105E-15 1.616E-11 0.000E+00
 ETOT 15  -54.326638785264     -2.132E-14 7.417E-12 0.000E+00
 ETOT 16  -54.326638785264      2.132E-14 6.304E-13 0.000E+00
 ETOT 17  -54.326638785264      1.421E-14 2.875E-13 0.000E+00
 ETOT 18  -54.326638785264      7.105E-15 2.472E-14 0.000E+00
 ETOT 19  -54.326638785264     -2.132E-14 1.121E-14 0.000E+00
 ETOT 20  -54.326638785264      0.000E+00 9.726E-16 0.000E+00
 ETOT 21  -54.326638785264      0.000E+00 4.384E-16 0.000E+00
 ETOT 22  -54.326638785264     -2.132E-14 3.835E-17 0.000E+00
[...]
 ETOT 24  -54.326638785264      7.105E-15 1.515E-18 0.000E+00
 ETOT 25  -54.326638785264      1.421E-14 6.767E-19 0.000E+00
 ETOT 26  -54.326638785264     -7.105E-15 5.991E-20 0.000E+00
 ETOT 27  -54.326638785264      0.000E+00 2.667E-20 0.000E+00
 ETOT 28  -54.326638785264     -7.105E-15 9.866E-21 0.000E+00

 At SCF step   28   max residual=  9.87E-21 < tolwfr=  1.00E-20 =>converged.

 ----iterations are completed or convergence reached----

 dfpt_looppert: DFPT cycle converged with prtwf=-1. Will skip output of the 1st-order WFK file.
 dfpt_looppert : ek2=    6.5693975071E+01
          f-sum rule ratio=    1.1093779740E+00
 prteigrs : about to open file /scratch/users/j/a/jabreu/flow_simple_7atoms/flow/w110/t1/tmpdata/tmp_1WF1_EIG
 Expectation of eigenvalue derivatives (hartree) for nkpt=   1  k points:
  (in case of degenerate eigenvalues, averaged derivative)
 kpt#   1, nband= 44, wtk=  1.00000, kpt=  0.0000  0.0000  0.0000 (reduced coord)
  -0.00000    0.00000    0.00000    0.00000    0.00000   -0.00000   -0.00000    0.00000
  -0.00000   -0.00000   -0.00000    0.00000    0.00000    0.00000   -0.00000   -0.00000
  -0.00000    0.00000   -0.00000   -0.00000    0.00000    0.00000    0.00000    0.00000
  -0.00000   -0.00000   -0.00000   -0.00000    0.00000   -0.00000   -0.00000   -0.00000
   0.00000   -0.00000   -0.00000   -0.00000    0.00000    0.00000    0.00000    0.00000
   0.00000   -0.00000   -0.00000   -0.00000

 Eight components of 2nd-order total energy (hartree) are
 1,2,3: 0th-order hamiltonian combined with 1st-order wavefunctions
     kin0=   5.97713190E+01 eigvalue=   2.69220805E+00  local=  -2.65812120E+01
 4,5,6: 1st-order hamiltonian combined with 1st and 0th-order wfs
     kin1=  -7.28794490E+01  Hartree=   0.00000000E+00     xc=   0.00000000E+00
 7,8,9: eventually, occupation + non-local contributions
    edocc=   1.29209694E+01     enl0=   5.52335436E+00   enl1=  -3.57738286E+01
 1-9 gives the relaxation energy (to be shifted if some occ is /=2.0)
   erelax=  -5.43266388E+01
  No Ewald or frozen-wf contrib.: the relaxation energy is the total one
 2DEtotal=   -0.5432663879E+02 Ha. Also 2DEtotal=   -0.147830302181E+04 eV
    (  non-var. 2DEtotal :   -5.4326638785E+01 Ha)

 Perturbation wavevector (in red.coord.)   0.000000  0.000000  0.000000
 Perturbation : derivative vs k along direction   2
 The set of symmetries contains only one element for this perturbation.
 symkpt : not enough symmetry to change the number of k points.

[...]

 Perturbation wavevector (in red.coord.)   0.000000  0.000000  0.000000
 Perturbation : derivative vs k along direction   3
 The set of symmetries contains only one element for this perturbation.
 symkpt : not enough symmetry to change the number of k points.

-inwffil : will read wavefunctions from disk file /scratch/users/j/a/jabreu/flow_simple_7atoms/flow/w110/t1/indata/in_WFK

 Initialisation of the first-order wave-functions :
  ireadwf=   0

--- !BeginCycle
iteration_state: {dtset: 1, }
solver: {iscf: 7, nstep: 2000, nline: 4, wfoptalg: 0, }
tolerances: {tolwfr: 1.00E-20, }
...

     iter   2DEtotal(Ha)        deltaE(Ha) residm    vres2
-ETOT  1  -84.801939600865     -8.480E+01 3.890E-01 0.000E+00
 ETOT  2  -84.984183652713     -1.822E-01 2.825E-02 0.000E+00
 ETOT  3  -84.986460167274     -2.277E-03 3.334E-03 0.000E+00
 ETOT  4  -84.986513151915     -5.298E-05 3.515E-04 0.000E+00
 ETOT  5  -84.986514658465     -1.507E-06 3.928E-05 0.000E+00
 ETOT  6  -84.986514705631     -4.717E-08 5.143E-06 0.000E+00
 ETOT  7  -84.986514707203     -1.572E-09 5.913E-07 0.000E+00
 ETOT  8  -84.986514707258     -5.471E-11 9.813E-08 0.000E+00
 ETOT  9  -84.986514707260     -2.160E-12 1.189E-08 0.000E+00
 ETOT 10  -84.986514707260      8.527E-14 2.159E-09 0.000E+00
 ETOT 11  -84.986514707260      0.000E+00 2.639E-10 0.000E+00
 ETOT 12  -84.986514707260     -2.132E-13 5.068E-11 0.000E+00
 ETOT 13  -84.986514707260      8.527E-14 6.247E-12 0.000E+00
 ETOT 14  -84.986514707260     -1.421E-14 1.265E-12 0.000E+00
 ETOT 15  -84.986514707260     -1.705E-13 1.578E-13 0.000E+00
 ETOT 16  -84.986514707260      1.421E-14 3.363E-14 0.000E+00
 ETOT 17  -84.986514707260     -1.421E-14 4.253E-15 0.000E+00
 ETOT 18  -84.986514707260      0.000E+00 9.499E-16 0.000E+00
 ETOT 19  -84.986514707260      0.000E+00 1.217E-16 0.000E+00
 ETOT 20  -84.986514707260      1.421E-14 2.824E-17 0.000E+00
 ETOT 21  -84.986514707260      1.421E-14 3.659E-18 0.000E+00
 ETOT 22  -84.986514707260      0.000E+00 8.731E-19 0.000E+00
 ETOT 23  -84.986514707260      0.000E+00 1.140E-19 0.000E+00
 ETOT 24  -84.986514707260      0.000E+00 2.774E-20 0.000E+00
 ETOT 25  -84.986514707260     -1.421E-14 9.826E-21 0.000E+00

 At SCF step   25   max residual=  9.83E-21 < tolwfr=  1.00E-20 =>converged.

 ----iterations are completed or convergence reached----

 dfpt_looppert: DFPT cycle converged with prtwf=-1. Will skip output of the 1st-order WFK file.
 dfpt_looppert : ek2=    1.0161296315E+02
          f-sum rule ratio=    1.1287804745E+00
 prteigrs : about to open file /scratch/users/j/a/jabreu/flow_simple_7atoms/flow/w110/t1/tmpdata/tmp_1WF1_EIG
 Expectation of eigenvalue derivatives (hartree) for nkpt=   1  k points:
  (in case of degenerate eigenvalues, averaged derivative)
 kpt#   1, nband= 44, wtk=  1.00000, kpt=  0.0000  0.0000  0.0000 (reduced coord)
   0.00000    0.00000   -0.00000   -0.00000    0.00000   -0.00000   -0.00000    0.00000
   0.00000    0.00000   -0.00000    0.00000    0.00000    0.00000   -0.00000   -0.00000
  -0.00000    0.00000   -0.00000   -0.00000   -0.00000    0.00000    0.00000    0.00000
  -0.00000   -0.00000    0.00000    0.00000    0.00000    0.00000   -0.00000   -0.00000
   0.00000   -0.00000   -0.00000   -0.00000   -0.00000   -0.00000    0.00000    0.00000
   0.00000   -0.00000   -0.00000   -0.00000

 Eight components of 2nd-order total energy (hartree) are
 1,2,3: 0th-order hamiltonian combined with 1st-order wavefunctions
     kin0=   9.22422153E+01 eigvalue=   4.13895645E+00  local=  -4.09743866E+01
 4,5,6: 1st-order hamiltonian combined with 1st and 0th-order wfs
     kin1=  -1.14698729E+02  Hartree=   0.00000000E+00     xc=   0.00000000E+00
 7,8,9: eventually, occupation + non-local contributions
    edocc=   2.11457786E+01     enl0=   8.43395091E+00   enl1=  -5.52743007E+01
 1-9 gives the relaxation energy (to be shifted if some occ is /=2.0)
   erelax=  -8.49865147E+01
  No Ewald or frozen-wf contrib.: the relaxation energy is the total one
 2DEtotal=   -0.8498651471E+02 Ha. Also 2DEtotal=   -0.231260067462E+04 eV
    (  non-var. 2DEtotal :   -8.4986514707E+01 Ha)

 CALCULATION OF EFFECTIVE MASSES
 NOTE : Additional infos (eff. mass eigenvalues, eigenvectors and, if degenerate, average mass) are available in stdout.

 COMMENTS:
 - At k-point ( 0.000, 0.000, 0.000), bands    34 through    35
   are DEGENERATE (effective mass tensor is therefore not defined).
   See Section IIIB Eqs. (67)-(70) and Appendix E of PRB 93 205147 (2016).
 - Angular average effective mass for Frohlich model is to be averaged over degenerate bands. See later.
 - Associated theta integrals calculated with ntheta=   1000 points.

 K-point ( 0.000, 0.000, 0.000) | band =    34
 Transport equivalent effective mass tensor:
             -0.2884108459             -0.1096779522              0.1829419408
             -0.1096779522             -0.3394488616              0.2303940793
              0.1829419408              0.2303940793             -0.5856177149
 Transport equivalent effective mass tensor eigenvalues:
             -0.8108329275             -0.2013222477             -0.2013222472
 Angular average effective mass 1/(<1/m>)=  -0.2665573353
 Angular average effective mass for Frohlich model (<m**0.5>)**2=  -0.2926054932
 Effective masses along directions: (cart. coord. / red. coord. -> eff. mass)
    1:   1.000000  0.000000  0.000000 /   0.975270 -0.221015  0.000000 ->  -0.2292291166
    2:   0.000000  1.000000  0.000000 /   0.000000  1.000000  0.000000 ->  -0.2536846204
    3:   0.000000  0.000000  1.000000 /  -0.470592 -0.470592  0.746382 ->  -0.3662361838
    4:   0.577350  0.577350  0.577350 /   0.143991 -0.049812  0.988324 ->  -0.1914705795
    5:   0.000000  0.707107  0.707107 /  -0.530359  0.105566  0.841175 ->  -0.2086694858
    6:   0.707107  0.000000  0.707107 /   0.112689 -0.623729  0.773475 ->  -0.2244001083
    7:   0.707107  0.707107  0.000000 /   0.801012  0.598648  0.000000 ->  -0.2661818838

 K-point ( 0.000, 0.000, 0.000) | band =    35
 Transport equivalent effective mass tensor:
             -4.1138381036              0.3369246839             -0.5619876623
              0.3369246839             -3.9570521150             -0.7077580401
             -0.5619876623             -0.7077580401             -3.2008348514
 Transport equivalent effective mass tensor eigenvalues:
             -4.3813695450             -4.3813695286             -2.5089859963
 Angular average effective mass 1/(<1/m>)=  -1.3547105317
 Angular average effective mass for Frohlich model (<m**0.5>)**2=  -1.5335780868
 Effective masses along directions: (cart. coord. / red. coord. -> eff. mass)
    1:   1.000000  0.000000  0.000000 /   0.975270 -0.221015  0.000000 ->  -1.4348197816
    2:   0.000000  1.000000  0.000000 /   0.000000  1.000000  0.000000 ->  -1.1533804258
    3:   0.000000  0.000000  1.000000 /  -0.470592 -0.470592  0.746382 ->  -1.1490119885
    4:   0.577350  0.577350  0.577350 /   0.143991 -0.049812  0.988324 ->  -3.8390516326
    5:   0.000000  0.707107  0.707107 /  -0.530359  0.105566  0.841175 ->  -1.8406137778
    6:   0.707107  0.000000  0.707107 /   0.112689 -0.623729  0.773475 ->  -1.2960132038
    7:   0.707107  0.707107  0.000000 /   0.801012  0.598648  0.000000 ->  -1.5647961930

 Angular average effective mass for Frohlich model, averaged over degenerate bands.
 Value of     (<<m**0.5>>)**2 =     7.914837E-01
 Absolute Value of <<m**0.5>> =     8.896537E-01

 K-point ( 0.000, 0.000, 0.000) | band =    36
 Effective mass tensor:
              0.1994040366              0.0108886459             -0.0181621739
              0.0108886459              0.2044710063             -0.0228731438
             -0.0181621739             -0.0228731438              0.2289102439
 Effective mass tensor eigenvalues:
              0.1907580242              0.1907580244              0.2512692383
 Angular average effective mass 1/(<1/m>)=   0.2074074659
 Angular average effective mass for Frohlich model (<m**0.5>)**2=   0.2084061164
 Effective masses along directions: (cart. coord. / red. coord. -> eff. mass)
    1:   1.000000  0.000000  0.000000 /   0.975270 -0.221015  0.000000 ->   0.1975557916
    2:   0.000000  1.000000  0.000000 /   0.000000  1.000000  0.000000 ->   0.2017695691
    3:   0.000000  0.000000  1.000000 /  -0.470592 -0.470592  0.746382 ->   0.2249075355
    4:   0.577350  0.577350  0.577350 /   0.143991 -0.049812  0.988324 ->   0.1908131743
    5:   0.000000  0.707107  0.707107 /  -0.530359  0.105566  0.841175 ->   0.1931093256
    6:   0.707107  0.000000  0.707107 /   0.112689 -0.623729  0.773475 ->   0.1948184209
    7:   0.707107  0.707107  0.000000 /   0.801012  0.598648  0.000000 ->   0.2091247575

 END OF EFFECTIVE MASSES SECTION

 ---- first-order wavefunction calculations are completed ----

 Total localisation tensor (bohr^2) in cartesian coordinates
  WARNING : still subject to testing - especially symmetries.
      direction              matrix element
   alpha     beta       real part   imaginary part
     1        1       1.8080618458    0.0000000000
     1        2      -0.3795867908    0.0000000000
     1        3      -1.0803701627    0.0000000000
     2        1      -0.3795867908    0.0000000000
     2        2       1.6314232832    0.0000000000
     2        3      -1.3606004494    0.0000000000
     3        1      -1.0803701627    0.0000000000
     3        2      -1.3606004494    0.0000000000
     3        3       6.8705562241    0.0000000000

 respfn : d/dk was computed, but no 2DTE, so no DDB output.

== END DATASET(S) ==============================================================

 -outvars: echo values of variables after computation  --------
            acell      1.0000000000E+00  1.0000000000E+00  1.0000000000E+00 Bohr
              amu      1.12411000E+02  6.97230000E+01  3.20660000E+01
             ecut      5.10000000E+01 Hartree
           etotal     -8.4986514707E+01
            fcart      0.0000000000E+00  0.0000000000E+00  0.0000000000E+00
                       0.0000000000E+00  0.0000000000E+00  0.0000000000E+00
                       0.0000000000E+00  0.0000000000E+00  0.0000000000E+00
                       0.0000000000E+00  0.0000000000E+00  0.0000000000E+00
                       0.0000000000E+00  0.0000000000E+00  0.0000000000E+00
                       0.0000000000E+00  0.0000000000E+00  0.0000000000E+00
                       0.0000000000E+00  0.0000000000E+00  0.0000000000E+00
-          fftalg         512
           irdden           1
           irdwfk           1
           istwfk        1
              ixc     -116133
           kptopt           0
P           mkmem           1
P          mkqmem           1
P          mk1mem           1
            natom           7
            nband          44
           nbdbuf           4
            ngfft          80      80      80
             nkpt           1
            nstep        2000
             nsym           4
           ntypat           3
              occ      2.000000  2.000000  2.000000  2.000000  2.000000  2.000000
                       2.000000  2.000000  2.000000  2.000000  2.000000  2.000000
                       2.000000  2.000000  2.000000  2.000000  2.000000  2.000000
                       2.000000  2.000000  2.000000  2.000000  2.000000  2.000000
                       2.000000  2.000000  2.000000  2.000000  2.000000  2.000000
                       2.000000  2.000000  2.000000  2.000000  2.000000  0.000000
                       0.000000  0.000000  0.000000  0.000000  0.000000  0.000000
                       0.000000  0.000000
        optdriver           1
            prtwf          -1
            rfdir           1       1       1
           rfelfd           2
            rprim      9.4173672646E+00  0.0000000000E+00 -7.6497117273E+00
                      -2.1341529959E+00  9.1723605024E+00 -7.6497117273E+00
                       0.0000000000E+00  0.0000000000E+00  1.2132802467E+01
          spgroup          82
           strten      0.0000000000E+00  0.0000000000E+00  0.0000000000E+00
                       0.0000000000E+00  0.0000000000E+00  0.0000000000E+00
           symrel      1  0  0   0  1  0   0  0  1       0  1  0   1  0  0  -1 -1 -1
                       0  0  1  -1 -1 -1   0  1  0      -1 -1 -1   0  0  1   1  0  0
           tolwfr      1.00000000E-20
            typat      1  2  2  3  3  3  3
           useylm           1
           xangst      0.0000000000E+00  0.0000000000E+00  0.0000000000E+00
                       3.9885518653E-01  3.6403530951E+00 -8.3785182741E-01
                       1.9270554981E+00  2.4269020634E+00 -4.0480530984E+00
                       1.0505946595E+00  4.2310367883E+00 -5.1474544520E+00
                       4.8847326710E-01  6.4867694492E-01  2.3852194967E+00
                       2.3068517727E+00  2.8717095274E+00 -1.8367932416E+00
                       3.8623022933E+00  1.9561849930E+00  1.2476208872E+00
            xcart      0.0000000000E+00  0.0000000000E+00  0.0000000000E+00
                       7.5372706922E-01  6.8792703768E+00 -1.5833104937E+00
                       3.6416071343E+00  4.5861802512E+00 -7.6497117273E+00
                       1.9853361830E+00  7.9955007881E+00 -9.7272791958E+00
                       9.2308069805E-01  1.2258217746E+00  4.5074116157E+00
                       4.3593180796E+00  5.4267445400E+00 -3.4710361894E+00
                       7.2986935767E+00  3.6966539020E+00  2.3576617946E+00
             xred      0.0000000000E+00  0.0000000000E+00  0.0000000000E+00
                       2.5000000000E-01  7.5000000000E-01  5.0000000000E-01
                       5.0000000000E-01  5.0000000000E-01 -2.7755575616E-17
                       4.0835900000E-01  8.7169500000E-01  5.3380000000E-03
                       1.2830500000E-01  1.3364300000E-01  5.3666400000E-01
                       5.9697900000E-01  5.9164100000E-01  4.6333600000E-01
                       8.6635700000E-01  4.0302100000E-01  9.9466200000E-01
            znucl       48.00000   31.00000   16.00000

- Timing analysis has been suppressed with timopt=0

 Suggested references for the acknowledgment of ABINIT usage.

 Calculation completed.
.Delivered   6 WARNINGs and   5 COMMENTs to log file.