.Version 9.5.1 of ABINIT

 ABINIT is a project of the Universite Catholique de Louvain,
 Corning Inc. and other collaborators, see ~abinit/doc/developers/contributors.txt .
 acknowledgments of the ABINIT effort.

.Starting date : Tue  4 May 2021.
- ( at 19h31 )

- input  file    -> /scratch/users/j/a/jabreu/flow_simple_6atoms/flow/w208/t1/run.abi
- output file    -> /scratch/users/j/a/jabreu/flow_simple_6atoms/flow/w208/t1/run.abo
- root for input  files -> /scratch/users/j/a/jabreu/flow_simple_6atoms/flow/w208/t1/indata/in
- root for output files -> /scratch/users/j/a/jabreu/flow_simple_6atoms/flow/w208/t1/outdata/out

 Symmetries : space group P4_2/m n m (#136); Bravais tP (primitive tetrag.)
     intxc =       0      iscf =       7    lmnmax =      18     lnmax =       6
     mgfft =      50  mpssoang =       3    mqgrid =    3001     natom =       6
  nloc_mem =       1    nspden =       1   nspinor =       1    nsppol =       1
      nsym =      16    n1xccc =    2501    ntypat =       2    occopt =       1
   xclevel =       2
-    mband =          35        mffmem =           1         mkmem =           1
-   mkqmem =           1        mk1mem =           1           mpw =        5313
      nfft =       90000          nkpt =           1
  Rough estimation (10% accuracy) of disk space for files :

------------- Echo of variables that govern the present computation ------------
-
- outvars: echo of selected default values
-   iomode0 =  0 , fftalg0 =512 , wfoptalg0 =  0
-
- outvars: echo of global parameters not present in the input file
-  max_nthreads =    0
-
 -outvars: echo values of preprocessed input variables --------
            acell      1.0000000000E+00  1.0000000000E+00  1.0000000000E+00 Bohr
              amu      7.26100000E+01  1.59994000E+01
             ecut      4.40000000E+01 Hartree
-          fftalg         512
           irdden           1
           irdwfk           1
           istwfk        1
              ixc     -116133
           kptopt           0
P           mkmem           1
P          mkqmem           1
P          mk1mem           1
            natom           6
            nband          35
           nbdbuf           4
            ngfft          50      50      36
             nkpt           1
            nstep        1000
             nsym          16
           ntypat           2
              occ      2.000000  2.000000  2.000000  2.000000  2.000000  2.000000
                       2.000000  2.000000  2.000000  2.000000  2.000000  2.000000
                       2.000000  2.000000  2.000000  2.000000  2.000000  2.000000
                       2.000000  2.000000  2.000000  2.000000  2.000000  2.000000
                       2.000000  2.000000  0.000000  0.000000  0.000000  0.000000
                       0.000000  0.000000  0.000000  0.000000  0.000000
        optdriver           1
            prtwf          -1
            rfdir           1       1       1
           rfelfd           2
            rprim      8.3591564014E+00  0.0000000000E+00  0.0000000000E+00
                       0.0000000000E+00  8.3591564014E+00  0.0000000000E+00
                       0.0000000000E+00  0.0000000000E+00  5.4488358731E+00
          spgroup         136
           symrel      1  0  0   0  1  0   0  0  1      -1  0  0   0 -1  0   0  0 -1
                      -1  0  0   0  1  0   0  0 -1       1  0  0   0 -1  0   0  0  1
                      -1  0  0   0 -1  0   0  0  1       1  0  0   0  1  0   0  0 -1
                       1  0  0   0 -1  0   0  0 -1      -1  0  0   0  1  0   0  0  1
                       0  1  0   1  0  0   0  0  1       0 -1  0  -1  0  0   0  0 -1
                       0 -1  0   1  0  0   0  0 -1       0  1  0  -1  0  0   0  0  1
                       0 -1  0  -1  0  0   0  0  1       0  1  0   1  0  0   0  0 -1
                       0  1  0  -1  0  0   0  0 -1       0 -1  0   1  0  0   0  0  1
            tnons      0.0000000  0.0000000  0.0000000     0.0000000  0.0000000  0.0000000
                       0.5000000  0.5000000  0.5000000     0.5000000  0.5000000  0.5000000
                       0.0000000  0.0000000  0.0000000     0.0000000  0.0000000  0.0000000
                       0.5000000  0.5000000  0.5000000     0.5000000  0.5000000  0.5000000
                       0.0000000  0.0000000  0.0000000     0.0000000  0.0000000  0.0000000
                       0.5000000  0.5000000  0.5000000     0.5000000  0.5000000  0.5000000
                       0.0000000  0.0000000  0.0000000     0.0000000  0.0000000  0.0000000
                       0.5000000  0.5000000  0.5000000     0.5000000  0.5000000  0.5000000
           tolwfr      1.00000000E-20
            typat      1  1  2  2  2  2
           useylm           1
           xangst      2.2117375253E+00  2.2117375253E+00  1.4416998787E+00
                       0.0000000000E+00  0.0000000000E+00  0.0000000000E+00
                       3.0683744332E+00  3.0683744332E+00  0.0000000000E+00
                       3.5668381428E+00  8.5663690789E-01  1.4416998787E+00
                       1.3551006174E+00  1.3551006174E+00  0.0000000000E+00
                       8.5663690789E-01  3.5668381428E+00  1.4416998787E+00
            xcart      4.1795782007E+00  4.1795782007E+00  2.7244179366E+00
                       0.0000000000E+00  0.0000000000E+00  0.0000000000E+00
                       5.7983873519E+00  5.7983873519E+00  0.0000000000E+00
                       6.7403472502E+00  1.6188091512E+00  2.7244179366E+00
                       2.5607690495E+00  2.5607690495E+00  0.0000000000E+00
                       1.6188091512E+00  6.7403472502E+00  2.7244179366E+00
             xred      5.0000000000E-01  5.0000000000E-01  5.0000000000E-01
                       0.0000000000E+00  0.0000000000E+00  0.0000000000E+00
                       6.9365700000E-01  6.9365700000E-01  0.0000000000E+00
                       8.0634300000E-01  1.9365700000E-01  5.0000000000E-01
                       3.0634300000E-01  3.0634300000E-01  0.0000000000E+00
                       1.9365700000E-01  8.0634300000E-01  5.0000000000E-01
            znucl       32.00000    8.00000

 chkinp: Checking input parameters for consistency.

== DATASET  1 ==================================================================
-   mpi_nproc: 1, omp_nthreads: -1 (-1 if OMP is not activated)

--- !DatasetInfo
iteration_state: {dtset: 1, }
dimensions: {natom: 6, nkpt: 1, mband: 35, nsppol: 1, nspinor: 1, nspden: 1, mpw: 5313, }
cutoff_energies: {ecut:  44.0, pawecutdg:  -1.0, }
electrons: {nelect:   5.20000000E+01, charge:   0.00000000E+00, occopt:   1.00000000E+00, tsmear:   1.00000000E-02, }
meta: {optdriver: 1, rfelfd: 2, }
...

 Real(R)+Recip(G) space primitive vectors, cartesian coordinates (Bohr,Bohr^-1):
 R(1)=  8.3591564  0.0000000  0.0000000  G(1)=  0.1196293  0.0000000  0.0000000
 R(2)=  0.0000000  8.3591564  0.0000000  G(2)=  0.0000000  0.1196293  0.0000000
 R(3)=  0.0000000  0.0000000  5.4488359  G(3)=  0.0000000  0.0000000  0.1835254
 Unit cell volume ucvol=  3.8074011E+02 bohr^3
 Angles (23,13,12)=  9.00000000E+01  9.00000000E+01  9.00000000E+01 degrees

 getcut: wavevector=  0.0000  0.0000  0.0000  ngfft=  50  50  36
         ecut(hartree)=     44.000   => boxcut(ratio)=   2.00316

--- Pseudopotential description ------------------------------------------------
- pspini: atom type   1  psp file is /scratch/users/j/a/jabreu/pseudos/PBEsol/Ge.psp8
- pspatm: opening atomic psp file    /scratch/users/j/a/jabreu/pseudos/PBEsol/Ge.psp8
- Ge    ONCVPSP-3.3.0  r_core=   1.91022   1.82122   1.91022
- 32.00000  14.00000    180112                znucl, zion, pspdat
    8 -116133    2    4       600   0.00000   pspcod,pspxc,lmax,lloc,mmax,r2well
    5.99000000000000    5.00000000000000    0.00000000000000   rchrg,fchrg,qchrg
     nproj     2     2     2
     extension_switch     1
  pspatm : epsatm=   30.86751540
         --- l  ekb(1:nproj) -->
             0    6.339734    0.583066
             1    3.813259    0.738801
             2   -9.332373   -3.602819
 pspatm: atomic psp has been read  and splines computed

- pspini: atom type   2  psp file is /scratch/users/j/a/jabreu/pseudos/PBEsol/O.psp8
- pspatm: opening atomic psp file    /scratch/users/j/a/jabreu/pseudos/PBEsol/O.psp8
- O     ONCVPSP-3.3.0  r_core=   1.35509   1.45563   1.26150
-  8.00000   6.00000    180112                znucl, zion, pspdat
    8 -116133    2    4       600   0.00000   pspcod,pspxc,lmax,lloc,mmax,r2well
    5.99000000000000    4.00000000000000    0.00000000000000   rchrg,fchrg,qchrg
     nproj     2     2     1
     extension_switch     1
  pspatm : epsatm=    6.22910522
         --- l  ekb(1:nproj) -->
             0    6.050032    0.820363
             1   -4.739617   -1.153841
             2   -1.335834
 pspatm: atomic psp has been read  and splines computed

   4.50587549E+03                                ecore*ucvol(ha*bohr**3)

-inwffil : will read wavefunctions from disk file /scratch/users/j/a/jabreu/flow_simple_6atoms/flow/w208/t1/indata/in_WFK

 ==>  initialize data related to q vector <==

 The list of irreducible perturbations for this q vector is:
    1)    idir= 1    ipert=   7
    2)    idir= 2    ipert=   7
    3)    idir= 3    ipert=   7

 Perturbation wavevector (in red.coord.)   0.000000  0.000000  0.000000
 Perturbation : derivative vs k along direction   1

 dfpt_looppert : COMMENT -
  In a d/dk calculation, iscf is set to -3 automatically.
 The set of symmetries contains only one element for this perturbation.
 symkpt : not enough symmetry to change the number of k points.

[...]

 Initialisation of the first-order wave-functions :
  ireadwf=   0

--- !BeginCycle
iteration_state: {dtset: 1, }
solver: {iscf: 7, nstep: 1000, nline: 4, wfoptalg: 0, }
tolerances: {tolwfr: 1.00E-20, }
...

     iter   2DEtotal(Ha)        deltaE(Ha) residm    vres2
-ETOT  1  -59.644447503593     -5.964E+01 4.126E-02 0.000E+00
 ETOT  2  -59.683316064915     -3.887E-02 5.010E-05 0.000E+00
 ETOT  3  -59.683340614955     -2.455E-05 9.927E-07 0.000E+00
 ETOT  4  -59.683340679235     -6.428E-08 3.738E-09 0.000E+00
 ETOT  5  -59.683340679490     -2.548E-10 7.580E-11 0.000E+00
 ETOT  6  -59.683340679492     -1.386E-12 2.349E-13 0.000E+00
 ETOT  7  -59.683340679492     -1.421E-14 6.741E-15 0.000E+00
 ETOT  8  -59.683340679492      1.421E-14 2.037E-17 0.000E+00
 ETOT  9  -59.683340679492     -1.421E-14 6.397E-19 0.000E+00
 ETOT 10  -59.683340679492      0.000E+00 9.681E-21 0.000E+00

 At SCF step   10   max residual=  9.68E-21 < tolwfr=  1.00E-20 =>converged.

 ----iterations are completed or convergence reached----

 dfpt_looppert: DFPT cycle converged with prtwf=-1. Will skip output of the 1st-order WFK file.
 dfpt_looppert : ek2=    5.8758158167E+01
          f-sum rule ratio=    1.2036277594E+00
 prteigrs : about to open file /scratch/users/j/a/jabreu/flow_simple_6atoms/flow/w208/t1/tmpdata/tmp_1WF1_EIG
 Expectation of eigenvalue derivatives (hartree) for nkpt=   1  k points:
  (in case of degenerate eigenvalues, averaged derivative)
 kpt#   1, nband= 35, wtk=  1.00000, kpt=  0.0000  0.0000  0.0000 (reduced coord)
   0.00000   -0.00000   -0.00000   -0.00000   -0.00000    0.00000    0.00000    0.00000
   0.00000   -0.00000   -0.00000   -0.00000   -0.00000   -0.00000   -0.00000   -0.00000
  -0.00000    0.00000    0.00000    0.00000    0.00000    0.00000    0.00000   -0.00000
  -0.00000    0.00000   -0.00000   -0.00000    0.00000    0.00000    0.00000    0.00000
   0.00000    0.00000    0.00000

 Eight components of 2nd-order total energy (hartree) are
 1,2,3: 0th-order hamiltonian combined with 1st-order wavefunctions
     kin0=   6.37045806E+01 eigvalue=   3.61109087E+00  local=  -1.96836220E+01
 4,5,6: 1st-order hamiltonian combined with 1st and 0th-order wfs
     kin1=  -7.07229503E+01  Hartree=   0.00000000E+00     xc=   0.00000000E+00
 7,8,9: eventually, occupation + non-local contributions
    edocc=   1.08376387E+01     enl0=   1.21365253E+00   enl1=  -4.86437311E+01
 1-9 gives the relaxation energy (to be shifted if some occ is /=2.0)
   erelax=  -5.96833407E+01
  No Ewald or frozen-wf contrib.: the relaxation energy is the total one
 2DEtotal=   -0.5968334068E+02 Ha. Also 2DEtotal=   -0.162406629328E+04 eV
    (  non-var. 2DEtotal :   -5.9683340679E+01 Ha)

 Perturbation wavevector (in red.coord.)   0.000000  0.000000  0.000000
 Perturbation : derivative vs k along direction   2
 The set of symmetries contains only one element for this perturbation.
 symkpt : not enough symmetry to change the number of k points.

[...]

 Perturbation wavevector (in red.coord.)   0.000000  0.000000  0.000000
 Perturbation : derivative vs k along direction   3
 The set of symmetries contains only one element for this perturbation.
 symkpt : not enough symmetry to change the number of k points.

-inwffil : will read wavefunctions from disk file /scratch/users/j/a/jabreu/flow_simple_6atoms/flow/w208/t1/indata/in_WFK

 Initialisation of the first-order wave-functions :
  ireadwf=   0

--- !BeginCycle
iteration_state: {dtset: 1, }
solver: {iscf: 7, nstep: 1000, nline: 4, wfoptalg: 0, }
tolerances: {tolwfr: 1.00E-20, }
...

     iter   2DEtotal(Ha)        deltaE(Ha) residm    vres2
-ETOT  1  -159.14679417604     -1.591E+02 2.022E-01 0.000E+00
 ETOT  2  -159.20369860588     -5.690E-02 1.139E-04 0.000E+00
 ETOT  3  -159.20371340886     -1.480E-05 1.839E-06 0.000E+00
 ETOT  4  -159.20371342298     -1.413E-08 4.230E-09 0.000E+00
 ETOT  5  -159.20371342301     -2.467E-11 4.626E-11 0.000E+00
 ETOT  6  -159.20371342301     -8.527E-14 1.009E-13 0.000E+00
 ETOT  7  -159.20371342301     -5.684E-14 1.761E-15 0.000E+00
 ETOT  8  -159.20371342301      1.421E-13 1.385E-16 0.000E+00
 ETOT  9  -159.20371342301     -5.684E-14 8.001E-19 0.000E+00
 ETOT 10  -159.20371342301      0.000E+00 2.086E-19 0.000E+00
 ETOT 11  -159.20371342301      0.000E+00 9.892E-21 0.000E+00

 At SCF step   11   max residual=  9.89E-21 < tolwfr=  1.00E-20 =>converged.

 ----iterations are completed or convergence reached----

 dfpt_looppert: DFPT cycle converged with prtwf=-1. Will skip output of the 1st-order WFK file.
 dfpt_looppert : ek2=    1.3828835896E+02
          f-sum rule ratio=    1.4848517176E+00
 prteigrs : about to open file /scratch/users/j/a/jabreu/flow_simple_6atoms/flow/w208/t1/tmpdata/tmp_1WF1_EIG
 Expectation of eigenvalue derivatives (hartree) for nkpt=   1  k points:
  (in case of degenerate eigenvalues, averaged derivative)
 kpt#   1, nband= 35, wtk=  1.00000, kpt=  0.0000  0.0000  0.0000 (reduced coord)
   0.00000    0.00000   -0.00000   -0.00000   -0.00000    0.00000   -0.00000    0.00000
   0.00000    0.00000    0.00000    0.00000    0.00000    0.00000    0.00000   -0.00000
  -0.00000   -0.00000    0.00000    0.00000    0.00000    0.00000    0.00000    0.00000
   0.00000    0.00000    0.00000    0.00000   -0.00000   -0.00000    0.00000    0.00000
  -0.00000   -0.00000    0.00106

 Eight components of 2nd-order total energy (hartree) are
 1,2,3: 0th-order hamiltonian combined with 1st-order wavefunctions
     kin0=   1.49087066E+02 eigvalue=   8.59200042E+00  local=  -4.58345559E+01
 4,5,6: 1st-order hamiltonian combined with 1st and 0th-order wfs
     kin1=  -2.05337707E+02  Hartree=   0.00000000E+00     xc=   0.00000000E+00
 7,8,9: eventually, occupation + non-local contributions
    edocc=   4.52485408E+01     enl0=   2.11066202E+00   enl1=  -1.13069720E+02
 1-9 gives the relaxation energy (to be shifted if some occ is /=2.0)
   erelax=  -1.59203713E+02
  No Ewald or frozen-wf contrib.: the relaxation energy is the total one
 2DEtotal=   -0.1592037134E+03 Ha. Also 2DEtotal=   -0.433215335789E+04 eV
    (  non-var. 2DEtotal :   -1.5920371342E+02 Ha)

 CALCULATION OF EFFECTIVE MASSES
 NOTE : Additional infos (eff. mass eigenvalues, eigenvectors and, if degenerate, average mass) are available in stdout.

 K-point ( 0.000, 0.000, 0.000) | band =    26
 Effective mass tensor:
             -1.1230924369              0.0000000549             -0.0000000307
              0.0000000549             -1.1230929755              0.0000000125
             -0.0000000307              0.0000000125             -1.7746243314
 Effective mass tensor eigenvalues:
             -1.7746243314             -1.1230929810             -1.1230924314
 Angular average effective mass 1/(<1/m>)=  -1.2797016434
 Angular average effective mass for Frohlich model (<m**0.5>)**2=  -1.2961117400
 Effective masses along directions: (cart. coord. / red. coord. -> eff. mass)
    1:   1.000000  0.000000  0.000000 /   1.000000  0.000000  0.000000 ->  -1.1230924369
    2:   0.000000  1.000000  0.000000 /   0.000000  1.000000  0.000000 ->  -1.1230929755
    3:   0.000000  0.000000  1.000000 /   0.000000  0.000000  1.000000 ->  -1.7746243314
    4:   0.577350  0.577350  0.577350 /   0.642175  0.642175  0.418596 ->  -1.2797016059
    5:   0.000000  0.707107  0.707107 /   0.000000  0.837738  0.546072 ->  -1.3756125202
    6:   0.707107  0.000000  0.707107 /   0.837738  0.000000  0.546072 ->  -1.3756121572
    7:   0.707107  0.707107  0.000000 /   0.707107  0.707107  0.000000 ->  -1.1230926513

 K-point ( 0.000, 0.000, 0.000) | band =    27
 Effective mass tensor:
              0.2490046348              0.0000000002             -0.0000000005
              0.0000000002              0.2490046330             -0.0000000003
             -0.0000000005             -0.0000000003              0.2080084317
 Effective mass tensor eigenvalues:
              0.2080084317              0.2490046330              0.2490046348
 Angular average effective mass 1/(<1/m>)=   0.2336543868
 Angular average effective mass for Frohlich model (<m**0.5>)**2=   0.2341741861
 Effective masses along directions: (cart. coord. / red. coord. -> eff. mass)
    1:   1.000000  0.000000  0.000000 /   1.000000  0.000000  0.000000 ->   0.2490046348
    2:   0.000000  1.000000  0.000000 /   0.000000  1.000000  0.000000 ->   0.2490046330
    3:   0.000000  0.000000  1.000000 /   0.000000  0.000000  1.000000 ->   0.2080084317
    4:   0.577350  0.577350  0.577350 /   0.642175  0.642175  0.418596 ->   0.2336543863
    5:   0.000000  0.707107  0.707107 /   0.000000  0.837738  0.546072 ->   0.2266677569
    6:   0.707107  0.000000  0.707107 /   0.837738  0.000000  0.546072 ->   0.2266677574
    7:   0.707107  0.707107  0.000000 /   0.707107  0.707107  0.000000 ->   0.2490046341

 END OF EFFECTIVE MASSES SECTION

 ---- first-order wavefunction calculations are completed ----

 Total localisation tensor (bohr^2) in cartesian coordinates
  WARNING : still subject to testing - especially symmetries.
      direction              matrix element
   alpha     beta       real part   imaginary part
     1        1       1.2134815851    0.0000000000
     1        2       0.0000000000    0.0000000000
     1        3       0.0000000000    0.0000000000
     2        1       0.0000000000    0.0000000000
     2        2       1.2134678467    0.0000000000
     2        3       0.0000000000    0.0000000000
     3        1       0.0000000000    0.0000000000
     3        2       0.0000000000    0.0000000000
     3        3       1.4919588171    0.0000000000

 respfn : d/dk was computed, but no 2DTE, so no DDB output.

== END DATASET(S) ==============================================================

 -outvars: echo values of variables after computation  --------
            acell      1.0000000000E+00  1.0000000000E+00  1.0000000000E+00 Bohr
              amu      7.26100000E+01  1.59994000E+01
             ecut      4.40000000E+01 Hartree
           etotal     -1.5920371342E+02
            fcart      0.0000000000E+00  0.0000000000E+00  0.0000000000E+00
                       0.0000000000E+00  0.0000000000E+00  0.0000000000E+00
                       0.0000000000E+00  0.0000000000E+00  0.0000000000E+00
                       0.0000000000E+00  0.0000000000E+00  0.0000000000E+00
                       0.0000000000E+00  0.0000000000E+00  0.0000000000E+00
                       0.0000000000E+00  0.0000000000E+00  0.0000000000E+00
-          fftalg         512
           irdden           1
           irdwfk           1
           istwfk        1
              ixc     -116133
           kptopt           0
P           mkmem           1
P          mkqmem           1
P          mk1mem           1
            natom           6
            nband          35
           nbdbuf           4
            ngfft          50      50      36
             nkpt           1
            nstep        1000
             nsym          16
           ntypat           2
              occ      2.000000  2.000000  2.000000  2.000000  2.000000  2.000000
                       2.000000  2.000000  2.000000  2.000000  2.000000  2.000000
                       2.000000  2.000000  2.000000  2.000000  2.000000  2.000000
                       2.000000  2.000000  2.000000  2.000000  2.000000  2.000000
                       2.000000  2.000000  0.000000  0.000000  0.000000  0.000000
                       0.000000  0.000000  0.000000  0.000000  0.000000
        optdriver           1
            prtwf          -1
            rfdir           1       1       1
           rfelfd           2
            rprim      8.3591564014E+00  0.0000000000E+00  0.0000000000E+00
                       0.0000000000E+00  8.3591564014E+00  0.0000000000E+00
                       0.0000000000E+00  0.0000000000E+00  5.4488358731E+00
          spgroup         136
           strten      0.0000000000E+00  0.0000000000E+00  0.0000000000E+00
                       0.0000000000E+00  0.0000000000E+00  0.0000000000E+00
           symrel      1  0  0   0  1  0   0  0  1      -1  0  0   0 -1  0   0  0 -1
                      -1  0  0   0  1  0   0  0 -1       1  0  0   0 -1  0   0  0  1
                      -1  0  0   0 -1  0   0  0  1       1  0  0   0  1  0   0  0 -1
                       1  0  0   0 -1  0   0  0 -1      -1  0  0   0  1  0   0  0  1
                       0  1  0   1  0  0   0  0  1       0 -1  0  -1  0  0   0  0 -1
                       0 -1  0   1  0  0   0  0 -1       0  1  0  -1  0  0   0  0  1
                       0 -1  0  -1  0  0   0  0  1       0  1  0   1  0  0   0  0 -1
                       0  1  0  -1  0  0   0  0 -1       0 -1  0   1  0  0   0  0  1
            tnons      0.0000000  0.0000000  0.0000000     0.0000000  0.0000000  0.0000000
                       0.5000000  0.5000000  0.5000000     0.5000000  0.5000000  0.5000000
                       0.0000000  0.0000000  0.0000000     0.0000000  0.0000000  0.0000000
                       0.5000000  0.5000000  0.5000000     0.5000000  0.5000000  0.5000000
                       0.0000000  0.0000000  0.0000000     0.0000000  0.0000000  0.0000000
                       0.5000000  0.5000000  0.5000000     0.5000000  0.5000000  0.5000000
                       0.0000000  0.0000000  0.0000000     0.0000000  0.0000000  0.0000000
                       0.5000000  0.5000000  0.5000000     0.5000000  0.5000000  0.5000000
           tolwfr      1.00000000E-20
            typat      1  1  2  2  2  2
           useylm           1
           xangst      2.2117375253E+00  2.2117375253E+00  1.4416998787E+00
                       0.0000000000E+00  0.0000000000E+00  0.0000000000E+00
                       3.0683744332E+00  3.0683744332E+00  0.0000000000E+00
                       3.5668381428E+00  8.5663690789E-01  1.4416998787E+00
                       1.3551006174E+00  1.3551006174E+00  0.0000000000E+00
                       8.5663690789E-01  3.5668381428E+00  1.4416998787E+00
            xcart      4.1795782007E+00  4.1795782007E+00  2.7244179366E+00
                       0.0000000000E+00  0.0000000000E+00  0.0000000000E+00
                       5.7983873519E+00  5.7983873519E+00  0.0000000000E+00
                       6.7403472502E+00  1.6188091512E+00  2.7244179366E+00
                       2.5607690495E+00  2.5607690495E+00  0.0000000000E+00
                       1.6188091512E+00  6.7403472502E+00  2.7244179366E+00
             xred      5.0000000000E-01  5.0000000000E-01  5.0000000000E-01
                       0.0000000000E+00  0.0000000000E+00  0.0000000000E+00
                       6.9365700000E-01  6.9365700000E-01  0.0000000000E+00
                       8.0634300000E-01  1.9365700000E-01  5.0000000000E-01
                       3.0634300000E-01  3.0634300000E-01  0.0000000000E+00
                       1.9365700000E-01  8.0634300000E-01  5.0000000000E-01
            znucl       32.00000    8.00000

- Timing analysis has been suppressed with timopt=0

 Suggested references for the acknowledgment of ABINIT usage.

 Calculation completed.
.Delivered   6 WARNINGs and   5 COMMENTs to log file.