.Version 9.5.1 of ABINIT

 ABINIT is a project of the Universite Catholique de Louvain,
 Corning Inc. and other collaborators, see ~abinit/doc/developers/contributors.txt .
 acknowledgments of the ABINIT effort.

.Starting date : Tue  4 May 2021.
- ( at 19h48 )

- input  file    -> /scratch/users/j/a/jabreu/flow_simple_6atoms/flow/w230/t1/run.abi
- output file    -> /scratch/users/j/a/jabreu/flow_simple_6atoms/flow/w230/t1/run.abo
- root for input  files -> /scratch/users/j/a/jabreu/flow_simple_6atoms/flow/w230/t1/indata/in
- root for output files -> /scratch/users/j/a/jabreu/flow_simple_6atoms/flow/w230/t1/outdata/out

 Symmetries : space group Im m m (# 71); Bravais oI (body-center ortho.)
     intxc =       0      iscf =       7    lmnmax =      18     lnmax =       6
     mgfft =      80  mpssoang =       3    mqgrid =    3001     natom =       6
  nloc_mem =       1    nspden =       1   nspinor =       1    nsppol =       1
      nsym =       8    n1xccc =    2501    ntypat =       3    occopt =       1
   xclevel =       2
-    mband =          37        mffmem =           1         mkmem =           2
-   mkqmem =           2        mk1mem =           2           mpw =        8300
      nfft =      512000          nkpt =           2
  Rough estimation (10% accuracy) of disk space for files :

------------- Echo of variables that govern the present computation ------------
-
- outvars: echo of selected default values
-   iomode0 =  0 , fftalg0 =512 , wfoptalg0 =  0
-
- outvars: echo of global parameters not present in the input file
-  max_nthreads =    0
-
 -outvars: echo values of preprocessed input variables --------
            acell      1.0000000000E+00  1.0000000000E+00  1.0000000000E+00 Bohr
              amu      8.76200000E+01  1.06420000E+02  1.59994000E+01
             ecut      4.40000000E+01 Hartree
-          fftalg         512
           irdden           1
           irdwfk           1
           istwfk        1    1
              ixc     -116133
              kpt      0.00000000E+00  0.00000000E+00  5.00000000E-01
                       0.00000000E+00  0.00000000E+00  0.00000000E+00
           kptopt           0
P           mkmem           2
P          mkqmem           2
P          mk1mem           2
            natom           6
            nband          37
           nbdbuf           4
            ngfft          80      80      80
             nkpt           2
            nstep        1000
             nsym           8
           ntypat           3
              occ      2.000000  2.000000  2.000000  2.000000  2.000000  2.000000
                       2.000000  2.000000  2.000000  2.000000  2.000000  2.000000
                       2.000000  2.000000  2.000000  2.000000  2.000000  2.000000
                       2.000000  2.000000  2.000000  2.000000  2.000000  2.000000
                       2.000000  2.000000  2.000000  2.000000  0.000000  0.000000
                       0.000000  0.000000  0.000000  0.000000  0.000000  0.000000
                       0.000000
        optdriver           1
            prtwf          -1
            rfdir           1       1       1
           rfelfd           2
            rprim      7.1821780658E+00  0.0000000000E+00 -1.0814540971E+01
                      -5.1102583210E-01  6.3901938326E+00 -1.1289032446E+01
                       0.0000000000E+00  0.0000000000E+00  1.2982217768E+01
          spgroup          71
           symrel      1  0  0   0  1  0   0  0  1      -1  0  0   0 -1  0   0  0 -1
                       0  0  1  -1 -1 -1   1  0  0       0  0 -1   1  1  1  -1  0  0
                      -1 -1 -1   0  0  1   0  1  0       1  1  1   0  0 -1   0 -1  0
                       0  1  0   1  0  0  -1 -1 -1       0 -1  0  -1  0  0   1  1  1
           tolwfr      1.00000000E-20
            typat      1  1  2  3  3  3
           useylm           1
              wtk        0.50000    0.50000
           xangst      1.2457905324E+00  1.1933235366E+00 -4.1276861224E+00
                       2.2844311847E+00  2.1882213980E+00 -7.5690211583E+00
                       0.0000000000E+00  0.0000000000E+00  0.0000000000E+00
                       5.6645231628E-01  5.4259593713E-01 -1.8768302569E+00
                       2.9637694008E+00  2.8389489976E+00 -9.8198770239E+00
                       1.9003224702E+00  0.0000000000E+00  5.7354257836E-01
            xcart      2.3542029252E+00  2.2550546722E+00 -7.8001963339E+00
                       4.3169493085E+00  4.1351391604E+00 -1.4303377083E+01
                       0.0000000000E+00  0.0000000000E+00  0.0000000000E+00
                       1.0704397451E+00  1.0253577220E+00 -3.5466951834E+00
                       5.6007124886E+00  5.3648361106E+00 -1.8556878234E+01
                       3.5910890329E+00  0.0000000000E+00  1.0838383986E+00
             xred      3.5289300000E-01  3.5289300000E-01 -5.5511151231E-17
                       6.4710700000E-01  6.4710700000E-01 -2.2204460493E-16
                       0.0000000000E+00  0.0000000000E+00  0.0000000000E+00
                       1.6045800000E-01  1.6045800000E-01 -2.7755575616E-17
                       8.3954200000E-01  8.3954200000E-01 -3.3306690739E-16
                       5.0000000000E-01  0.0000000000E+00  5.0000000000E-01
            znucl       38.00000   46.00000    8.00000

 chkinp: Checking input parameters for consistency.

== DATASET  1 ==================================================================
-   mpi_nproc: 1, omp_nthreads: -1 (-1 if OMP is not activated)

--- !DatasetInfo
iteration_state: {dtset: 1, }
dimensions: {natom: 6, nkpt: 2, mband: 37, nsppol: 1, nspinor: 1, nspden: 1, mpw: 8300, }
cutoff_energies: {ecut:  44.0, pawecutdg:  -1.0, }
electrons: {nelect:   5.60000000E+01, charge:   0.00000000E+00, occopt:   1.00000000E+00, tsmear:   1.00000000E-02, }
meta: {optdriver: 1, rfelfd: 2, }
...

 Real(R)+Recip(G) space primitive vectors, cartesian coordinates (Bohr,Bohr^-1):
 R(1)=  7.1821781  0.0000000-10.8145410  G(1)=  0.1392335  0.0111345  0.0000000
 R(2)= -0.5110258  6.3901938-11.2890324  G(2)=  0.0000000  0.1564898  0.0000000
 R(3)=  0.0000000  0.0000000 12.9822178  G(3)=  0.1159853  0.1453552  0.0770284
 Unit cell volume ucvol=  5.9582551E+02 bohr^3
 Angles (23,13,12)=  1.50409472E+02  1.46410976E+02  4.53637170E+01 degrees

 getcut: wavevector=  0.0000  0.0000  0.0000  ngfft=  80  80  80
         ecut(hartree)=     44.000   => boxcut(ratio)=   2.06403

--- Pseudopotential description ------------------------------------------------
- pspini: atom type   1  psp file is /scratch/users/j/a/jabreu/pseudos/PBEsol/Sr.psp8
- pspatm: opening atomic psp file    /scratch/users/j/a/jabreu/pseudos/PBEsol/Sr.psp8
- Sr    ONCVPSP-3.3.0  r_core=   1.66721   1.31335   1.51547
- 38.00000  10.00000    180112                znucl, zion, pspdat
    8 -116133    2    4       600   0.00000   pspcod,pspxc,lmax,lloc,mmax,r2well
    5.99000000000000    6.00000000000000    0.00000000000000   rchrg,fchrg,qchrg
     nproj     2     2     2
     extension_switch     1
  pspatm : epsatm=   12.46450977
         --- l  ekb(1:nproj) -->
             0   10.029206    1.044171
             1    7.472414    1.670829
             2    4.142950    0.968140
 pspatm: atomic psp has been read  and splines computed

- pspini: atom type   2  psp file is /scratch/users/j/a/jabreu/pseudos/PBEsol/Pd.psp8
- pspatm: opening atomic psp file    /scratch/users/j/a/jabreu/pseudos/PBEsol/Pd.psp8
- Pd    ONCVPSP-3.3.0  r_core=   1.41052   1.46191   1.55175
- 46.00000  18.00000    180112                znucl, zion, pspdat
    8 -116133    2    4       600   0.00000   pspcod,pspxc,lmax,lloc,mmax,r2well
    5.99000000000000    7.00000000000000    0.00000000000000   rchrg,fchrg,qchrg
     nproj     2     2     2
     extension_switch     1
  pspatm : epsatm=   26.17262427
         --- l  ekb(1:nproj) -->
             0    7.952303   -2.096627
             1    3.304793   -0.572651
             2   -1.185452   -0.410427
 pspatm: atomic psp has been read  and splines computed

- pspini: atom type   3  psp file is /scratch/users/j/a/jabreu/pseudos/PBEsol/O.psp8
- pspatm: opening atomic psp file    /scratch/users/j/a/jabreu/pseudos/PBEsol/O.psp8
- O     ONCVPSP-3.3.0  r_core=   1.35509   1.45563   1.26150
-  8.00000   6.00000    180112                znucl, zion, pspdat
    8 -116133    2    4       600   0.00000   pspcod,pspxc,lmax,lloc,mmax,r2well
    5.99000000000000    4.00000000000000    0.00000000000000   rchrg,fchrg,qchrg
     nproj     2     2     1
     extension_switch     1
  pspatm : epsatm=    6.22910522
         --- l  ekb(1:nproj) -->
             0    6.050032    0.820363
             1   -4.739617   -1.153841
             2   -1.335834
 pspatm: atomic psp has been read  and splines computed

   3.90818173E+03                                ecore*ucvol(ha*bohr**3)

-inwffil : will read wavefunctions from disk file /scratch/users/j/a/jabreu/flow_simple_6atoms/flow/w230/t1/indata/in_WFK

 ==>  initialize data related to q vector <==

 The list of irreducible perturbations for this q vector is:
    1)    idir= 1    ipert=   7
    2)    idir= 2    ipert=   7
    3)    idir= 3    ipert=   7

 Perturbation wavevector (in red.coord.)   0.000000  0.000000  0.000000
 Perturbation : derivative vs k along direction   1

 dfpt_looppert : COMMENT -
  In a d/dk calculation, iscf is set to -3 automatically.
 The set of symmetries contains only one element for this perturbation.
 symkpt : not enough symmetry to change the number of k points.

[...]

 Initialisation of the first-order wave-functions :
  ireadwf=   0

--- !BeginCycle
iteration_state: {dtset: 1, }
solver: {iscf: 7, nstep: 1000, nline: 4, wfoptalg: 0, }
tolerances: {tolwfr: 1.00E-20, }
...

     iter   2DEtotal(Ha)        deltaE(Ha) residm    vres2
-ETOT  1  -52.247800176058     -5.225E+01 5.316E-02 0.000E+00
 ETOT  2  -52.286792885652     -3.899E-02 8.260E-04 0.000E+00
 ETOT  3  -52.286962751852     -1.699E-04 1.946E-05 0.000E+00
 ETOT  4  -52.286964312701     -1.561E-06 8.354E-07 0.000E+00
 ETOT  5  -52.286964333762     -2.106E-08 2.924E-08 0.000E+00
 ETOT  6  -52.286964334109     -3.466E-10 1.552E-09 0.000E+00
 ETOT  7  -52.286964334115     -6.338E-12 6.042E-11 0.000E+00
 ETOT  8  -52.286964334115     -9.237E-14 3.586E-12 0.000E+00
 ETOT  9  -52.286964334116     -1.208E-13 1.449E-13 0.000E+00
 ETOT 10  -52.286964334116      2.842E-14 9.070E-15 0.000E+00
 ETOT 11  -52.286964334116      3.553E-14 3.757E-16 0.000E+00
 ETOT 12  -52.286964334116     -4.974E-14 2.421E-17 0.000E+00
 ETOT 13  -52.286964334116      0.000E+00 1.023E-18 0.000E+00
 ETOT 14  -52.286964334116      7.105E-15 9.261E-20 0.000E+00
 ETOT 15  -52.286964334116      0.000E+00 1.098E-20 0.000E+00
 ETOT 16  -52.286964334116      0.000E+00 9.750E-21 0.000E+00

 At SCF step   16   max residual=  9.75E-21 < tolwfr=  1.00E-20 =>converged.

 ----iterations are completed or convergence reached----

 dfpt_looppert: DFPT cycle converged with prtwf=-1. Will skip output of the 1st-order WFK file.
 dfpt_looppert : ek2=    8.6264875907E+01
          f-sum rule ratio=    1.2158639456E+00
 prteigrs : about to open file /scratch/users/j/a/jabreu/flow_simple_6atoms/flow/w230/t1/tmpdata/tmp_1WF1_EIG
 Expectation of eigenvalue derivatives (hartree) for nkpt=   2  k points:
  (in case of degenerate eigenvalues, averaged derivative)
 kpt#   1, nband= 37, wtk=  0.50000, kpt=  0.0000  0.0000  0.5000 (reduced coord)
  -0.00000    0.00000   -0.00000   -0.00000    0.00000    0.00000   -0.00000   -0.00000
  -0.00000   -0.00000   -0.00000   -0.00000   -0.00000    0.00000    0.00000    0.00000
  -0.00000    0.00000   -0.00000    0.00000    0.00000    0.00000   -0.00000    0.00000
  -0.00000    0.00000   -0.00000    0.00000   -0.00000    0.00000    0.00000    0.00000
  -0.00000    0.00000    0.00000   -0.00154    0.00086
 prteigrs : prtvol=0 or 1, do not print more k-points.

 Eight components of 2nd-order total energy (hartree) are
 1,2,3: 0th-order hamiltonian combined with 1st-order wavefunctions
     kin0=   6.31604728E+01 eigvalue=  -3.11717206E+00  local=  -2.97455084E+01
 4,5,6: 1st-order hamiltonian combined with 1st and 0th-order wfs
     kin1=  -1.04886352E+02  Hartree=   0.00000000E+00     xc=   0.00000000E+00
 7,8,9: eventually, occupation + non-local contributions
    edocc=   1.97871086E+01     enl0=   2.20206338E+00   enl1=   3.12423720E-01
 1-9 gives the relaxation energy (to be shifted if some occ is /=2.0)
   erelax=  -5.22869643E+01
  No Ewald or frozen-wf contrib.: the relaxation energy is the total one
 2DEtotal=   -0.5228696433E+02 Ha. Also 2DEtotal=   -0.142280065737E+04 eV
    (  non-var. 2DEtotal :   -5.2286964334E+01 Ha)

 Perturbation wavevector (in red.coord.)   0.000000  0.000000  0.000000
 Perturbation : derivative vs k along direction   2
 The set of symmetries contains only one element for this perturbation.
 symkpt : not enough symmetry to change the number of k points.

[...]

 Perturbation wavevector (in red.coord.)   0.000000  0.000000  0.000000
 Perturbation : derivative vs k along direction   3
 The set of symmetries contains only one element for this perturbation.
 symkpt : not enough symmetry to change the number of k points.

-inwffil : will read wavefunctions from disk file /scratch/users/j/a/jabreu/flow_simple_6atoms/flow/w230/t1/indata/in_WFK

 Initialisation of the first-order wave-functions :
  ireadwf=   0

--- !BeginCycle
iteration_state: {dtset: 1, }
solver: {iscf: 7, nstep: 1000, nline: 4, wfoptalg: 0, }
tolerances: {tolwfr: 1.00E-20, }
...

     iter   2DEtotal(Ha)        deltaE(Ha) residm    vres2
-ETOT  1  -106.94998319145     -1.069E+02 1.180E-01 0.000E+00
 ETOT  2  -107.06904741882     -1.191E-01 1.653E-03 0.000E+00
 ETOT  3  -107.06965593269     -6.085E-04 1.622E-05 0.000E+00
 ETOT  4  -107.06966091530     -4.983E-06 1.032E-06 0.000E+00
 ETOT  5  -107.06966096852     -5.322E-08 2.709E-08 0.000E+00
 ETOT  6  -107.06966096921     -6.871E-10 2.286E-09 0.000E+00
 ETOT  7  -107.06966096922     -1.029E-11 6.209E-11 0.000E+00
 ETOT  8  -107.06966096922     -1.847E-13 5.221E-12 0.000E+00
 ETOT  9  -107.06966096922     -2.842E-14 1.444E-13 0.000E+00
 ETOT 10  -107.06966096922      1.421E-14 1.203E-14 0.000E+00
 ETOT 11  -107.06966096922      2.842E-14 3.415E-16 0.000E+00
 ETOT 12  -107.06966096922     -2.842E-14 2.913E-17 0.000E+00
 ETOT 13  -107.06966096922     -4.263E-14 8.493E-19 0.000E+00
 ETOT 14  -107.06966096922     -2.842E-14 7.429E-20 0.000E+00
 ETOT 15  -107.06966096922      0.000E+00 1.260E-20 0.000E+00
 ETOT 16  -107.06966096922      5.684E-14 9.634E-21 0.000E+00

 At SCF step   16   max residual=  9.63E-21 < tolwfr=  1.00E-20 =>converged.

 ----iterations are completed or convergence reached----

 dfpt_looppert: DFPT cycle converged with prtwf=-1. Will skip output of the 1st-order WFK file.
 dfpt_looppert : ek2=    1.7913652363E+02
          f-sum rule ratio=    1.1935516715E+00
 prteigrs : about to open file /scratch/users/j/a/jabreu/flow_simple_6atoms/flow/w230/t1/tmpdata/tmp_1WF1_EIG
 Expectation of eigenvalue derivatives (hartree) for nkpt=   2  k points:
  (in case of degenerate eigenvalues, averaged derivative)
 kpt#   1, nband= 37, wtk=  0.50000, kpt=  0.0000  0.0000  0.5000 (reduced coord)
  -0.00000    0.00000   -0.00000   -0.00000    0.00000   -0.00000    0.00000   -0.00000
  -0.00000   -0.00000   -0.00000    0.00000    0.00000    0.00000    0.00000    0.00000
   0.00000    0.00000   -0.00000    0.00000    0.00000    0.00000   -0.00000   -0.00000
  -0.00000    0.00000   -0.00000    0.00000   -0.00000    0.00000    0.00000   -0.00000
   0.00000   -0.00000   -0.00001   -0.00246    0.00030
 prteigrs : prtvol=0 or 1, do not print more k-points.

 Eight components of 2nd-order total energy (hartree) are
 1,2,3: 0th-order hamiltonian combined with 1st-order wavefunctions
     kin0=   1.35139958E+02 eigvalue=  -6.75471564E+00  local=  -6.36352359E+01
 4,5,6: 1st-order hamiltonian combined with 1st and 0th-order wfs
     kin1=  -2.13808697E+02  Hartree=   0.00000000E+00     xc=   0.00000000E+00
 7,8,9: eventually, occupation + non-local contributions
    edocc=   3.67098625E+01     enl0=   5.60979217E+00   enl1=  -3.30624725E-01
 1-9 gives the relaxation energy (to be shifted if some occ is /=2.0)
   erelax=  -1.07069661E+02
  No Ewald or frozen-wf contrib.: the relaxation energy is the total one
 2DEtotal=   -0.1070696610E+03 Ha. Also 2DEtotal=   -0.291351364439E+04 eV
    (  non-var. 2DEtotal :   -1.0706966097E+02 Ha)

 CALCULATION OF EFFECTIVE MASSES
 NOTE : Additional infos (eff. mass eigenvalues, eigenvectors and, if degenerate, average mass) are available in stdout.

 K-point ( 0.000, 0.000, 0.500) | band =    28
 Effective mass tensor:
             -1.4418754428             -0.2561799289              1.7042050958
             -0.2561799289             -3.2060656707              1.1119543556
              1.7042050958              1.1119543556             -6.4917830706
 Effective mass tensor eigenvalues:
             -7.3275275267             -2.8947335721             -0.9174630854
 Angular average effective mass 1/(<1/m>)=  -1.9085320415
 Angular average effective mass for Frohlich model (<m**0.5>)**2=  -2.3353419900
 Effective masses along directions: (cart. coord. / red. coord. -> eff. mass)
    1:   1.000000  0.000000  0.000000 /   0.997478 -0.070973  0.000000 ->  -0.9940689148
    2:   0.000000  1.000000  0.000000 /   0.000000  1.000000  0.000000 ->  -3.0143194693
    3:   0.000000  0.000000  1.000000 /  -0.532191 -0.555541  0.638864 ->  -4.2703578219
    4:   0.577350  0.577350  0.577350 /  -0.250063 -0.372432  0.893736 ->  -1.3345902499
    5:   0.000000  0.707107  0.707107 /  -0.614730 -0.278464  0.737947 ->  -2.9161822482
    6:   0.707107  0.000000  0.707107 /  -0.202747 -0.658642  0.724627 ->  -1.1284205510
    7:   0.707107  0.707107  0.000000 /   0.773807  0.633421  0.000000 ->  -1.4689112600

 K-point ( 0.000, 0.000, 0.000) | band =    29
 Effective mass tensor:
              0.4335501708             -0.1634345291             -0.8610980566
             -0.1634345291              5.1737703585              0.5415084393
             -0.8610980566              0.5415084393              3.0267422134
 Effective mass tensor eigenvalues:
              0.1736594091              3.1300816228              5.3303217107
 Angular average effective mass 1/(<1/m>)=   0.4788137326
 Angular average effective mass for Frohlich model (<m**0.5>)**2=   0.9210488813
 Effective masses along directions: (cart. coord. / red. coord. -> eff. mass)
    1:   1.000000  0.000000  0.000000 /   0.997478 -0.070973  0.000000 ->   0.1885533280
    2:   0.000000  1.000000  0.000000 /   0.000000  1.000000  0.000000 ->   5.0764238529
    3:   0.000000  0.000000  1.000000 /  -0.532191 -0.555541  0.638864 ->   1.3072647115
    4:   0.577350  0.577350  0.577350 /  -0.250063 -0.372432  0.893736 ->   0.3248744194
    5:   0.000000  0.707107  0.707107 /  -0.614730 -0.278464  0.737947 ->   2.2295724132
    6:   0.707107  0.000000  0.707107 /  -0.202747 -0.658642  0.724627 ->   0.2201995961
    7:   0.707107  0.707107  0.000000 /   0.773807  0.633421  0.000000 ->   0.3623109593

 END OF EFFECTIVE MASSES SECTION

 ---- first-order wavefunction calculations are completed ----

 Total localisation tensor (bohr^2) in cartesian coordinates
  WARNING : still subject to testing - especially symmetries.
      direction              matrix element
   alpha     beta       real part   imaginary part
     1        1       1.3296867492    0.0000000000
     1        2      -0.0909622566    0.0000000000
     1        3      -1.8305226458    0.0000000000
     2        1      -0.0909622566    0.0000000000
     2        2       1.1374502318    0.0000000000
     2        3      -2.0094402312    0.0000000000
     3        1      -1.8305226458    0.0000000000
     3        2      -2.0094402312    0.0000000000
     3        3      15.1304005859    0.0000000000

 respfn : d/dk was computed, but no 2DTE, so no DDB output.

== END DATASET(S) ==============================================================

 -outvars: echo values of variables after computation  --------
            acell      1.0000000000E+00  1.0000000000E+00  1.0000000000E+00 Bohr
              amu      8.76200000E+01  1.06420000E+02  1.59994000E+01
             ecut      4.40000000E+01 Hartree
           etotal     -1.0706966097E+02
            fcart      0.0000000000E+00  0.0000000000E+00  0.0000000000E+00
                       0.0000000000E+00  0.0000000000E+00  0.0000000000E+00
                       0.0000000000E+00  0.0000000000E+00  0.0000000000E+00
                       0.0000000000E+00  0.0000000000E+00  0.0000000000E+00
                       0.0000000000E+00  0.0000000000E+00  0.0000000000E+00
                       0.0000000000E+00  0.0000000000E+00  0.0000000000E+00
-          fftalg         512
           irdden           1
           irdwfk           1
           istwfk        1    1
              ixc     -116133
              kpt      0.00000000E+00  0.00000000E+00  5.00000000E-01
                       0.00000000E+00  0.00000000E+00  0.00000000E+00
           kptopt           0
P           mkmem           2
P          mkqmem           2
P          mk1mem           2
            natom           6
            nband          37
           nbdbuf           4
            ngfft          80      80      80
             nkpt           2
            nstep        1000
             nsym           8
           ntypat           3
              occ      2.000000  2.000000  2.000000  2.000000  2.000000  2.000000
                       2.000000  2.000000  2.000000  2.000000  2.000000  2.000000
                       2.000000  2.000000  2.000000  2.000000  2.000000  2.000000
                       2.000000  2.000000  2.000000  2.000000  2.000000  2.000000
                       2.000000  2.000000  2.000000  2.000000  0.000000  0.000000
                       0.000000  0.000000  0.000000  0.000000  0.000000  0.000000
                       0.000000
        optdriver           1
            prtwf          -1
            rfdir           1       1       1
           rfelfd           2
            rprim      7.1821780658E+00  0.0000000000E+00 -1.0814540971E+01
                      -5.1102583210E-01  6.3901938326E+00 -1.1289032446E+01
                       0.0000000000E+00  0.0000000000E+00  1.2982217768E+01
          spgroup          71
           strten      0.0000000000E+00  0.0000000000E+00  0.0000000000E+00
                       0.0000000000E+00  0.0000000000E+00  0.0000000000E+00
           symrel      1  0  0   0  1  0   0  0  1      -1  0  0   0 -1  0   0  0 -1
                       0  0  1  -1 -1 -1   1  0  0       0  0 -1   1  1  1  -1  0  0
                      -1 -1 -1   0  0  1   0  1  0       1  1  1   0  0 -1   0 -1  0
                       0  1  0   1  0  0  -1 -1 -1       0 -1  0  -1  0  0   1  1  1
           tolwfr      1.00000000E-20
            typat      1  1  2  3  3  3
           useylm           1
              wtk        0.50000    0.50000
           xangst      1.2457905324E+00  1.1933235366E+00 -4.1276861224E+00
                       2.2844311847E+00  2.1882213980E+00 -7.5690211583E+00
                       0.0000000000E+00  0.0000000000E+00  0.0000000000E+00
                       5.6645231628E-01  5.4259593713E-01 -1.8768302569E+00
                       2.9637694008E+00  2.8389489976E+00 -9.8198770239E+00
                       1.9003224702E+00  0.0000000000E+00  5.7354257836E-01
            xcart      2.3542029252E+00  2.2550546722E+00 -7.8001963339E+00
                       4.3169493085E+00  4.1351391604E+00 -1.4303377083E+01
                       0.0000000000E+00  0.0000000000E+00  0.0000000000E+00
                       1.0704397451E+00  1.0253577220E+00 -3.5466951834E+00
                       5.6007124886E+00  5.3648361106E+00 -1.8556878234E+01
                       3.5910890329E+00  0.0000000000E+00  1.0838383986E+00
             xred      3.5289300000E-01  3.5289300000E-01 -5.5511151231E-17
                       6.4710700000E-01  6.4710700000E-01 -2.2204460493E-16
                       0.0000000000E+00  0.0000000000E+00  0.0000000000E+00
                       1.6045800000E-01  1.6045800000E-01 -2.7755575616E-17
                       8.3954200000E-01  8.3954200000E-01 -3.3306690739E-16
                       5.0000000000E-01  0.0000000000E+00  5.0000000000E-01
            znucl       38.00000   46.00000    8.00000

- Timing analysis has been suppressed with timopt=0

 Suggested references for the acknowledgment of ABINIT usage.

 Calculation completed.
.Delivered  14 WARNINGs and   9 COMMENTs to log file.