.Version 9.5.1 of ABINIT

 ABINIT is a project of the Universite Catholique de Louvain,
 Corning Inc. and other collaborators, see ~abinit/doc/developers/contributors.txt .
 acknowledgments of the ABINIT effort.

.Starting date : Tue  4 May 2021.
- ( at 19h29 )

- input  file    -> /scratch/users/j/a/jabreu/flow_simple_6atoms/flow/w196/t1/run.abi
- output file    -> /scratch/users/j/a/jabreu/flow_simple_6atoms/flow/w196/t1/run.abo
- root for input  files -> /scratch/users/j/a/jabreu/flow_simple_6atoms/flow/w196/t1/indata/in
- root for output files -> /scratch/users/j/a/jabreu/flow_simple_6atoms/flow/w196/t1/outdata/out

 Symmetries : space group P4/n m m (#129); Bravais tP (primitive tetrag.)
     intxc =       0      iscf =       7    lmnmax =      18     lnmax =       6
     mgfft =      90  mpssoang =       3    mqgrid =    4116     natom =       6
  nloc_mem =       1    nspden =       1   nspinor =       1    nsppol =       1
      nsym =      16    n1xccc =    2501    ntypat =       3    occopt =       1
   xclevel =       2
-    mband =          37        mffmem =           1         mkmem =           1
-   mkqmem =           1        mk1mem =           1           mpw =       14221
      nfft =      262440          nkpt =           1
  Rough estimation (10% accuracy) of disk space for files :

------------- Echo of variables that govern the present computation ------------
-
- outvars: echo of selected default values
-   iomode0 =  0 , fftalg0 =512 , wfoptalg0 =  0
-
- outvars: echo of global parameters not present in the input file
-  max_nthreads =    0
-
 -outvars: echo values of preprocessed input variables --------
            acell      1.0000000000E+00  1.0000000000E+00  1.0000000000E+00 Bohr
              amu      3.90983000E+01  6.94100000E+00  1.27600000E+02
             ecut      4.00000000E+01 Hartree
-          fftalg         512
           irdden           1
           irdwfk           1
           istwfk        1
              ixc     -116133
           kptopt           0
P           mkmem           1
P          mkqmem           1
P          mk1mem           1
            natom           6
            nband          37
           nbdbuf           4
            ngfft          54      54      90
             nkpt           1
            nstep        1000
             nsym          16
           ntypat           3
              occ      2.000000  2.000000  2.000000  2.000000  2.000000  2.000000
                       2.000000  2.000000  2.000000  2.000000  2.000000  2.000000
                       2.000000  2.000000  2.000000  2.000000  2.000000  2.000000
                       2.000000  2.000000  2.000000  2.000000  2.000000  2.000000
                       2.000000  2.000000  2.000000  2.000000  0.000000  0.000000
                       0.000000  0.000000  0.000000  0.000000  0.000000  0.000000
                       0.000000
        optdriver           1
            prtwf          -1
            rfdir           1       1       1
           rfelfd           2
            rprim      9.0204909464E+00  0.0000000000E+00  0.0000000000E+00
                       0.0000000000E+00  9.0204909464E+00  0.0000000000E+00
                       0.0000000000E+00  0.0000000000E+00  1.4455477943E+01
          spgroup         129
           symrel      1  0  0   0  1  0   0  0  1      -1  0  0   0 -1  0   0  0 -1
                      -1  0  0   0  1  0   0  0 -1       1  0  0   0 -1  0   0  0  1
                      -1  0  0   0 -1  0   0  0  1       1  0  0   0  1  0   0  0 -1
                       1  0  0   0 -1  0   0  0 -1      -1  0  0   0  1  0   0  0  1
                       0  1  0   1  0  0   0  0  1       0 -1  0  -1  0  0   0  0 -1
                       0 -1  0   1  0  0   0  0 -1       0  1  0  -1  0  0   0  0  1
                       0 -1  0  -1  0  0   0  0  1       0  1  0   1  0  0   0  0 -1
                       0  1  0  -1  0  0   0  0 -1       0 -1  0   1  0  0   0  0  1
            tnons      0.0000000  0.0000000  0.0000000     0.5000000  0.5000000  0.0000000
                       0.5000000  0.5000000  0.0000000     0.0000000  0.0000000  0.0000000
                       0.0000000  0.0000000  0.0000000     0.5000000  0.5000000  0.0000000
                       0.5000000  0.5000000  0.0000000     0.0000000  0.0000000  0.0000000
                       0.5000000  0.5000000  0.0000000     0.0000000  0.0000000  0.0000000
                       0.0000000  0.0000000  0.0000000     0.5000000  0.5000000  0.0000000
                       0.5000000  0.5000000  0.0000000     0.0000000  0.0000000  0.0000000
                       0.0000000  0.0000000  0.0000000     0.5000000  0.5000000  0.0000000
           tolwfr      1.00000000E-20
            typat      1  1  2  2  3  3
           useylm           1
           xangst      2.3867191096E+00  0.0000000000E+00  5.0846212929E+00
                       0.0000000000E+00  2.3867191096E+00  2.5648881736E+00
                       2.3867191096E+00  2.3867191096E+00  0.0000000000E+00
                       0.0000000000E+00  0.0000000000E+00  0.0000000000E+00
                       2.3867191096E+00  0.0000000000E+00  1.5250368053E+00
                       0.0000000000E+00  2.3867191096E+00  6.1244726613E+00
            xcart      4.5102454732E+00  0.0000000000E+00  9.6085417330E+00
                       0.0000000000E+00  4.5102454732E+00  4.8469362097E+00
                       4.5102454732E+00  4.5102454732E+00  0.0000000000E+00
                       0.0000000000E+00  0.0000000000E+00  0.0000000000E+00
                       4.5102454732E+00  0.0000000000E+00  2.8819019046E+00
                       0.0000000000E+00  4.5102454732E+00  1.1573576038E+01
             xred      5.0000000000E-01  0.0000000000E+00  6.6469900000E-01
                       0.0000000000E+00  5.0000000000E-01  3.3530100000E-01
                       5.0000000000E-01  5.0000000000E-01  0.0000000000E+00
                       0.0000000000E+00  0.0000000000E+00  0.0000000000E+00
                       5.0000000000E-01  0.0000000000E+00  1.9936400000E-01
                       0.0000000000E+00  5.0000000000E-01  8.0063600000E-01
            znucl       19.00000    3.00000   52.00000

 chkinp: Checking input parameters for consistency.

== DATASET  1 ==================================================================
-   mpi_nproc: 1, omp_nthreads: -1 (-1 if OMP is not activated)

--- !DatasetInfo
iteration_state: {dtset: 1, }
dimensions: {natom: 6, nkpt: 1, mband: 37, nsppol: 1, nspinor: 1, nspden: 1, mpw: 14221, }
cutoff_energies: {ecut:  40.0, pawecutdg:  -1.0, }
electrons: {nelect:   5.60000000E+01, charge:   0.00000000E+00, occopt:   1.00000000E+00, tsmear:   1.00000000E-02, }
meta: {optdriver: 1, rfelfd: 2, }
...

 Real(R)+Recip(G) space primitive vectors, cartesian coordinates (Bohr,Bohr^-1):
 R(1)=  9.0204909  0.0000000  0.0000000  G(1)=  0.1108587  0.0000000  0.0000000
 R(2)=  0.0000000  9.0204909  0.0000000  G(2)=  0.0000000  0.1108587  0.0000000
 R(3)=  0.0000000  0.0000000 14.4554779  G(3)=  0.0000000  0.0000000  0.0691779
 Unit cell volume ucvol=  1.1762315E+03 bohr^3
 Angles (23,13,12)=  9.00000000E+01  9.00000000E+01  9.00000000E+01 degrees

 getcut: wavevector=  0.0000  0.0000  0.0000  ngfft=  54  54  90
         ecut(hartree)=     40.000   => boxcut(ratio)=   2.10266

--- Pseudopotential description ------------------------------------------------
- pspini: atom type   1  psp file is /scratch/users/j/a/jabreu/pseudos/PBEsol/K.psp8
- pspatm: opening atomic psp file    /scratch/users/j/a/jabreu/pseudos/PBEsol/K.psp8
- K     ONCVPSP-3.3.0  r_core=   1.36296   1.46408   1.61068
- 19.00000   9.00000    180112                znucl, zion, pspdat
    8 -116133    2    4       400   0.00000   pspcod,pspxc,lmax,lloc,mmax,r2well
    3.99000000000000    5.00000000000000    0.00000000000000   rchrg,fchrg,qchrg
     nproj     2     2     2
     extension_switch     1
  pspatm : epsatm=    8.32487830
         --- l  ekb(1:nproj) -->
             0   10.921326    0.816676
             1    4.431000    0.560368
             2   -3.384038   -1.043186
 pspatm: atomic psp has been read  and splines computed

- pspini: atom type   2  psp file is /scratch/users/j/a/jabreu/pseudos/PBEsol/Li.psp8
- pspatm: opening atomic psp file    /scratch/users/j/a/jabreu/pseudos/PBEsol/Li.psp8
- Li    ONCVPSP-3.3.0  r_core=   1.40824   1.10935
-  3.00000   3.00000    180112                znucl, zion, pspdat
    8 -116133    1    4       400   0.00000   pspcod,pspxc,lmax,lloc,mmax,r2well
    3.99000000000000    0.00000000000000    0.00000000000000   rchrg,fchrg,qchrg
     nproj     2     2
     extension_switch     1
  pspatm : epsatm=    2.60859637
         --- l  ekb(1:nproj) -->
             0   -4.855856   -1.482423
             1   -2.171544   -0.427615
 pspatm: atomic psp has been read  and splines computed

- pspini: atom type   3  psp file is /scratch/users/j/a/jabreu/pseudos/PBEsol/Te.psp8
- pspatm: opening atomic psp file    /scratch/users/j/a/jabreu/pseudos/PBEsol/Te.psp8
- Te    ONCVPSP-3.3.0  r_core=   2.26547   1.91704   1.80604
- 52.00000  16.00000    180112                znucl, zion, pspdat
    8 -116133    2    4       600   0.00000   pspcod,pspxc,lmax,lloc,mmax,r2well
    5.99000000000000    5.00000000000000    0.00000000000000   rchrg,fchrg,qchrg
     nproj     2     2     2
     extension_switch     1
  pspatm : epsatm=   36.82679836
         --- l  ekb(1:nproj) -->
             0    6.345999    0.785432
             1    5.709019    1.070069
             2   -6.035173   -1.870937
 pspatm: atomic psp has been read  and splines computed

   5.34915058E+03                                ecore*ucvol(ha*bohr**3)

-inwffil : will read wavefunctions from disk file /scratch/users/j/a/jabreu/flow_simple_6atoms/flow/w196/t1/indata/in_WFK

 ==>  initialize data related to q vector <==

 The list of irreducible perturbations for this q vector is:
    1)    idir= 1    ipert=   7
    2)    idir= 2    ipert=   7
    3)    idir= 3    ipert=   7

 Perturbation wavevector (in red.coord.)   0.000000  0.000000  0.000000
 Perturbation : derivative vs k along direction   1

 dfpt_looppert : COMMENT -
  In a d/dk calculation, iscf is set to -3 automatically.
 The set of symmetries contains only one element for this perturbation.
 symkpt : not enough symmetry to change the number of k points.

[...]

 Initialisation of the first-order wave-functions :
  ireadwf=   0

--- !BeginCycle
iteration_state: {dtset: 1, }
solver: {iscf: 7, nstep: 1000, nline: 4, wfoptalg: 0, }
tolerances: {tolwfr: 1.00E-20, }
...

     iter   2DEtotal(Ha)        deltaE(Ha) residm    vres2
-ETOT  1  -52.730006468803     -5.273E+01 1.319E-01 0.000E+00
 ETOT  2  -52.779999168011     -4.999E-02 1.561E-03 0.000E+00
 ETOT  3  -52.780335952349     -3.368E-04 4.027E-04 0.000E+00
 ETOT  4  -52.780341696095     -5.744E-06 9.554E-06 0.000E+00
 ETOT  5  -52.780341821687     -1.256E-07 4.949E-06 0.000E+00
 ETOT  6  -52.780341824875     -3.187E-09 1.219E-07 0.000E+00
 ETOT  7  -52.780341824984     -1.093E-10 6.200E-08 0.000E+00
 ETOT  8  -52.780341824988     -4.256E-12 1.640E-09 0.000E+00
[...]
          f-sum rule ratio=    1.1946342951E+00
 prteigrs : about to open file /scratch/users/j/a/jabreu/flow_simple_6atoms/flow/w196/t1/tmpdata/tmp_1WF1_EIG
 Expectation of eigenvalue derivatives (hartree) for nkpt=   1  k points:
  (in case of degenerate eigenvalues, averaged derivative)
 kpt#   1, nband= 37, wtk=  1.00000, kpt=  0.0000  0.0000  0.0000 (reduced coord)
  -0.00000    0.00000   -0.00000   -0.00000   -0.00000   -0.00000    0.00000   -0.00000
  -0.00000   -0.00000    0.00000   -0.00000   -0.00000   -0.00000    0.00000   -0.00000
  -0.00000    0.00000   -0.00000   -0.00000   -0.00000   -0.00000    0.00000    0.00000
   0.00000    0.00000   -0.00000   -0.00000    0.00000    0.00000   -0.00000    0.00000
  -0.00000   -0.00000   -0.00000    0.00001    0.00005

 Eight components of 2nd-order total energy (hartree) are
 1,2,3: 0th-order hamiltonian combined with 1st-order wavefunctions
     kin0=   5.31443646E+01 eigvalue=   1.04447625E+01  local=  -2.92093242E+01
 4,5,6: 1st-order hamiltonian combined with 1st and 0th-order wfs
     kin1=  -6.49160951E+01  Hartree=   0.00000000E+00     xc=   0.00000000E+00
 7,8,9: eventually, occupation + non-local contributions
    edocc=   1.28266349E+01     enl0=   5.57390410E+00   enl1=  -4.06445886E+01
 1-9 gives the relaxation energy (to be shifted if some occ is /=2.0)
   erelax=  -5.27803418E+01
  No Ewald or frozen-wf contrib.: the relaxation energy is the total one
 2DEtotal=   -0.5278034182E+02 Ha. Also 2DEtotal=   -0.143622614166E+04 eV
    (  non-var. 2DEtotal :   -5.2780341825E+01 Ha)

 Perturbation wavevector (in red.coord.)   0.000000  0.000000  0.000000
 Perturbation : derivative vs k along direction   2
 The set of symmetries contains only one element for this perturbation.
 symkpt : not enough symmetry to change the number of k points.

[...]

 Perturbation wavevector (in red.coord.)   0.000000  0.000000  0.000000
 Perturbation : derivative vs k along direction   3
 The set of symmetries contains only one element for this perturbation.
 symkpt : not enough symmetry to change the number of k points.

-inwffil : will read wavefunctions from disk file /scratch/users/j/a/jabreu/flow_simple_6atoms/flow/w196/t1/indata/in_WFK

 Initialisation of the first-order wave-functions :
  ireadwf=   0

--- !BeginCycle
iteration_state: {dtset: 1, }
solver: {iscf: 7, nstep: 1000, nline: 4, wfoptalg: 0, }
tolerances: {tolwfr: 1.00E-20, }
...

     iter   2DEtotal(Ha)        deltaE(Ha) residm    vres2
-ETOT  1  -19.461628675549     -1.946E+01 9.932E-03 0.000E+00
 ETOT  2  -19.474495301293     -1.287E-02 3.490E-04 0.000E+00
 ETOT  3  -19.474594026814     -9.873E-05 9.425E-05 0.000E+00
 ETOT  4  -19.474596327809     -2.301E-06 4.437E-06 0.000E+00
 ETOT  5  -19.474596404108     -7.630E-08 1.250E-06 0.000E+00
 ETOT  6  -19.474596406847     -2.739E-09 6.954E-08 0.000E+00
 ETOT  7  -19.474596406949     -1.022E-10 2.308E-08 0.000E+00
 ETOT  8  -19.474596406953     -3.904E-12 1.712E-09 0.000E+00
 ETOT  9  -19.474596406953     -1.315E-13 5.287E-10 0.000E+00
 ETOT 10  -19.474596406953     -1.421E-14 4.245E-11 0.000E+00
 ETOT 11  -19.474596406953      3.553E-15 1.296E-11 0.000E+00
 ETOT 12  -19.474596406953      1.421E-14 1.130E-12 0.000E+00
 ETOT 13  -19.474596406953      7.105E-15 3.356E-13 0.000E+00
 ETOT 14  -19.474596406953     -7.105E-15 3.086E-14 0.000E+00
 ETOT 15  -19.474596406953      3.553E-15 8.988E-15 0.000E+00
 ETOT 16  -19.474596406953     -3.553E-15 8.527E-16 0.000E+00
 ETOT 17  -19.474596406953     -3.553E-15 2.450E-16 0.000E+00
 ETOT 18  -19.474596406953      3.553E-15 2.369E-17 0.000E+00
 ETOT 19  -19.474596406953      3.553E-15 6.733E-18 0.000E+00
 ETOT 20  -19.474596406953     -7.105E-15 6.593E-19 0.000E+00
 ETOT 21  -19.474596406953      3.553E-15 1.859E-19 0.000E+00
 ETOT 22  -19.474596406953      0.000E+00 1.837E-20 0.000E+00
 ETOT 23  -19.474596406953      0.000E+00 9.769E-21 0.000E+00

 At SCF step   23   max residual=  9.77E-21 < tolwfr=  1.00E-20 =>converged.

 ----iterations are completed or convergence reached----

 dfpt_looppert: DFPT cycle converged with prtwf=-1. Will skip output of the 1st-order WFK file.
 dfpt_looppert : ek2=    2.1159862861E+01
          f-sum rule ratio=    1.1012995782E+00
 prteigrs : about to open file /scratch/users/j/a/jabreu/flow_simple_6atoms/flow/w196/t1/tmpdata/tmp_1WF1_EIG
 Expectation of eigenvalue derivatives (hartree) for nkpt=   1  k points:
  (in case of degenerate eigenvalues, averaged derivative)
 kpt#   1, nband= 37, wtk=  1.00000, kpt=  0.0000  0.0000  0.0000 (reduced coord)
   0.00000   -0.00000   -0.00000   -0.00000    0.00000    0.00000    0.00000   -0.00000
   0.00000   -0.00000    0.00000   -0.00000   -0.00000    0.00000    0.00000   -0.00000
  -0.00000    0.00000    0.00000    0.00000   -0.00000   -0.00000    0.00000    0.00000
   0.00000   -0.00000   -0.00000   -0.00000    0.00000   -0.00000    0.00000   -0.00000
  -0.00000   -0.00000    0.00000    0.00000   -0.00865

 Eight components of 2nd-order total energy (hartree) are
 1,2,3: 0th-order hamiltonian combined with 1st-order wavefunctions
     kin0=   2.05823022E+01 eigvalue=   4.07380887E+00  local=  -1.14018445E+01
 4,5,6: 1st-order hamiltonian combined with 1st and 0th-order wfs
     kin1=  -2.33033480E+01  Hartree=   0.00000000E+00     xc=   0.00000000E+00
 7,8,9: eventually, occupation + non-local contributions
    edocc=   3.83419869E+00     enl0=   2.38613109E+00   enl1=  -1.56458448E+01
 1-9 gives the relaxation energy (to be shifted if some occ is /=2.0)
   erelax=  -1.94745964E+01
  No Ewald or frozen-wf contrib.: the relaxation energy is the total one
 2DEtotal=   -0.1947459641E+02 Ha. Also 2DEtotal=   -0.529930718348E+03 eV
    (  non-var. 2DEtotal :   -1.9474596407E+01 Ha)

 CALCULATION OF EFFECTIVE MASSES
 NOTE : Additional infos (eff. mass eigenvalues, eigenvectors and, if degenerate, average mass) are available in stdout.

 COMMENTS:
 - At k-point ( 0.000, 0.000, 0.000), bands    27 through    28
   are DEGENERATE (effective mass tensor is therefore not defined).
   See Section IIIB Eqs. (67)-(70) and Appendix E of PRB 93 205147 (2016).
 - Angular average effective mass for Frohlich model is to be averaged over degenerate bands. See later.
 - Associated theta integrals calculated with ntheta=   1000 points.

 K-point ( 0.000, 0.000, 0.000) | band =    27
 Transport equivalent effective mass tensor:
             -0.2507311289              0.0000002097             -0.0000104201
              0.0000002097             -0.2507311440             -0.0000052856
             -0.0000104201             -0.0000052856            -28.1366789138
 Transport equivalent effective mass tensor eigenvalues:
            -28.1366789138             -0.2507313463             -0.2507309266
 Angular average effective mass 1/(<1/m>)=  -0.3635932769
 Angular average effective mass for Frohlich model (<m**0.5>)**2=  -0.5370076841
 Effective masses along directions: (cart. coord. / red. coord. -> eff. mass)
    1:   1.000000  0.000000  0.000000 /   1.000000  0.000000  0.000000 ->  -0.2213757906
    2:   0.000000  1.000000  0.000000 /   0.000000  1.000000  0.000000 ->  -0.2213757908
    3:   0.000000  0.000000  1.000000 /   0.000000  0.000000  1.000000 -> -26.8443665934
    4:   0.577350  0.577350  0.577350 /   0.467880  0.467880  0.749785 ->  -0.4105079500
    5:   0.000000  0.707107  0.707107 /   0.000000  0.529400  0.848372 ->  -0.4391303933
    6:   0.707107  0.000000  0.707107 /   0.529400  0.000000  0.848372 ->  -0.4391305237
    7:   0.707107  0.707107  0.000000 /   0.707107  0.707107  0.000000 ->  -0.2750739460

 K-point ( 0.000, 0.000, 0.000) | band =    28
 Transport equivalent effective mass tensor:
             -2.1718769621              0.0000007600             -0.0000098907
              0.0000007600             -2.1718765123             -0.0000020261
             -0.0000098907             -0.0000020261            -68.5726913725
 Transport equivalent effective mass tensor eigenvalues:
            -68.5726913725             -2.1718775298             -2.1718759446
 Angular average effective mass 1/(<1/m>)=  -1.7259636254
 Angular average effective mass for Frohlich model (<m**0.5>)**2=  -2.4840881021
 Effective masses along directions: (cart. coord. / red. coord. -> eff. mass)
    1:   1.000000  0.000000  0.000000 /   1.000000  0.000000  0.000000 ->  -2.2721537800
    2:   0.000000  1.000000  0.000000 /   0.000000  1.000000  0.000000 ->  -2.2721537894
    3:   0.000000  0.000000  1.000000 /   0.000000  0.000000  1.000000 -> -26.8444265786
    4:   0.577350  0.577350  0.577350 /   0.467880  0.467880  0.749785 ->  -1.1189367004
    5:   0.000000  0.707107  0.707107 /   0.000000  0.529400  0.848372 ->  -4.1896845644
    6:   0.707107  0.000000  0.707107 /   0.529400  0.000000  0.848372 ->  -4.1896878850
    7:   0.707107  0.707107  0.000000 /   0.707107  0.707107  0.000000 ->  -0.7564682394

 Angular average effective mass for Frohlich model, averaged over degenerate bands.
 Value of     (<<m**0.5>>)**2 =     1.332763E+00
 Absolute Value of <<m**0.5>> =     1.154454E+00

 K-point ( 0.000, 0.000, 0.000) | band =    29
 Effective mass tensor:
              0.2454464190              0.0000000012             -0.0000000837
              0.0000000012              0.2454464211             -0.0000000871
             -0.0000000837             -0.0000000871              0.2182901755
 Effective mass tensor eigenvalues:
              0.2182901755              0.2454464184              0.2454464216
 Angular average effective mass 1/(<1/m>)=   0.2356734855
 Angular average effective mass for Frohlich model (<m**0.5>)**2=   0.2358938936
 Effective masses along directions: (cart. coord. / red. coord. -> eff. mass)
    1:   1.000000  0.000000  0.000000 /   1.000000  0.000000  0.000000 ->   0.2454464190
    2:   0.000000  1.000000  0.000000 /   0.000000  1.000000  0.000000 ->   0.2454464211
    3:   0.000000  0.000000  1.000000 /   0.000000  0.000000  1.000000 ->   0.2182901755
    4:   0.577350  0.577350  0.577350 /   0.467880  0.467880  0.749785 ->   0.2356733682
    5:   0.000000  0.707107  0.707107 /   0.000000  0.529400  0.848372 ->   0.2310730816
    6:   0.707107  0.000000  0.707107 /   0.529400  0.000000  0.848372 ->   0.2310730841
    7:   0.707107  0.707107  0.000000 /   0.707107  0.707107  0.000000 ->   0.2454464212

 END OF EFFECTIVE MASSES SECTION

 ---- first-order wavefunction calculations are completed ----

 Total localisation tensor (bohr^2) in cartesian coordinates
  WARNING : still subject to testing - especially symmetries.
      direction              matrix element
   alpha     beta       real part   imaginary part
     1        1       1.8648786664    0.0000000000
     1        2       0.0000000000    0.0000000000
     1        3       0.0000000000    0.0000000000
     2        1       0.0000000000    0.0000000000
     2        2       1.8648793222    0.0000000000
     2        3       0.0000000000    0.0000000000
     3        1       0.0000000000    0.0000000000
     3        2       0.0000000000    0.0000000000
     3        3       1.4664203144    0.0000000000

 respfn : d/dk was computed, but no 2DTE, so no DDB output.

== END DATASET(S) ==============================================================

 -outvars: echo values of variables after computation  --------
            acell      1.0000000000E+00  1.0000000000E+00  1.0000000000E+00 Bohr
              amu      3.90983000E+01  6.94100000E+00  1.27600000E+02
             ecut      4.00000000E+01 Hartree
           etotal     -1.9474596407E+01
            fcart      0.0000000000E+00  0.0000000000E+00  0.0000000000E+00
                       0.0000000000E+00  0.0000000000E+00  0.0000000000E+00
                       0.0000000000E+00  0.0000000000E+00  0.0000000000E+00
                       0.0000000000E+00  0.0000000000E+00  0.0000000000E+00
                       0.0000000000E+00  0.0000000000E+00  0.0000000000E+00
                       0.0000000000E+00  0.0000000000E+00  0.0000000000E+00
-          fftalg         512
           irdden           1
           irdwfk           1
           istwfk        1
              ixc     -116133
           kptopt           0
P           mkmem           1
P          mkqmem           1
P          mk1mem           1
            natom           6
            nband          37
           nbdbuf           4
            ngfft          54      54      90
             nkpt           1
            nstep        1000
             nsym          16
           ntypat           3
              occ      2.000000  2.000000  2.000000  2.000000  2.000000  2.000000
                       2.000000  2.000000  2.000000  2.000000  2.000000  2.000000
                       2.000000  2.000000  2.000000  2.000000  2.000000  2.000000
                       2.000000  2.000000  2.000000  2.000000  2.000000  2.000000
                       2.000000  2.000000  2.000000  2.000000  0.000000  0.000000
                       0.000000  0.000000  0.000000  0.000000  0.000000  0.000000
                       0.000000
        optdriver           1
            prtwf          -1
            rfdir           1       1       1
           rfelfd           2
            rprim      9.0204909464E+00  0.0000000000E+00  0.0000000000E+00
                       0.0000000000E+00  9.0204909464E+00  0.0000000000E+00
                       0.0000000000E+00  0.0000000000E+00  1.4455477943E+01
          spgroup         129
           strten      0.0000000000E+00  0.0000000000E+00  0.0000000000E+00
                       0.0000000000E+00  0.0000000000E+00  0.0000000000E+00
           symrel      1  0  0   0  1  0   0  0  1      -1  0  0   0 -1  0   0  0 -1
                      -1  0  0   0  1  0   0  0 -1       1  0  0   0 -1  0   0  0  1
                      -1  0  0   0 -1  0   0  0  1       1  0  0   0  1  0   0  0 -1
                       1  0  0   0 -1  0   0  0 -1      -1  0  0   0  1  0   0  0  1
                       0  1  0   1  0  0   0  0  1       0 -1  0  -1  0  0   0  0 -1
                       0 -1  0   1  0  0   0  0 -1       0  1  0  -1  0  0   0  0  1
                       0 -1  0  -1  0  0   0  0  1       0  1  0   1  0  0   0  0 -1
                       0  1  0  -1  0  0   0  0 -1       0 -1  0   1  0  0   0  0  1
            tnons      0.0000000  0.0000000  0.0000000     0.5000000  0.5000000  0.0000000
                       0.5000000  0.5000000  0.0000000     0.0000000  0.0000000  0.0000000
                       0.0000000  0.0000000  0.0000000     0.5000000  0.5000000  0.0000000
                       0.5000000  0.5000000  0.0000000     0.0000000  0.0000000  0.0000000
                       0.5000000  0.5000000  0.0000000     0.0000000  0.0000000  0.0000000
                       0.0000000  0.0000000  0.0000000     0.5000000  0.5000000  0.0000000
                       0.5000000  0.5000000  0.0000000     0.0000000  0.0000000  0.0000000
                       0.0000000  0.0000000  0.0000000     0.5000000  0.5000000  0.0000000
           tolwfr      1.00000000E-20
            typat      1  1  2  2  3  3
           useylm           1
           xangst      2.3867191096E+00  0.0000000000E+00  5.0846212929E+00
                       0.0000000000E+00  2.3867191096E+00  2.5648881736E+00
                       2.3867191096E+00  2.3867191096E+00  0.0000000000E+00
                       0.0000000000E+00  0.0000000000E+00  0.0000000000E+00
                       2.3867191096E+00  0.0000000000E+00  1.5250368053E+00
                       0.0000000000E+00  2.3867191096E+00  6.1244726613E+00
            xcart      4.5102454732E+00  0.0000000000E+00  9.6085417330E+00
                       0.0000000000E+00  4.5102454732E+00  4.8469362097E+00
                       4.5102454732E+00  4.5102454732E+00  0.0000000000E+00
                       0.0000000000E+00  0.0000000000E+00  0.0000000000E+00
                       4.5102454732E+00  0.0000000000E+00  2.8819019046E+00
                       0.0000000000E+00  4.5102454732E+00  1.1573576038E+01
             xred      5.0000000000E-01  0.0000000000E+00  6.6469900000E-01
                       0.0000000000E+00  5.0000000000E-01  3.3530100000E-01
                       5.0000000000E-01  5.0000000000E-01  0.0000000000E+00
                       0.0000000000E+00  0.0000000000E+00  0.0000000000E+00
                       5.0000000000E-01  0.0000000000E+00  1.9936400000E-01
                       0.0000000000E+00  5.0000000000E-01  8.0063600000E-01
            znucl       19.00000    3.00000   52.00000

- Timing analysis has been suppressed with timopt=0

 Suggested references for the acknowledgment of ABINIT usage.

 Calculation completed.
.Delivered   6 WARNINGs and   5 COMMENTs to log file.