.Version 9.5.2 of ABINIT

 ABINIT is a project of the Universite Catholique de Louvain,
 Corning Inc. and other collaborators, see ~abinit/doc/developers/contributors.txt .
 acknowledgments of the ABINIT effort.

.Starting date : Wed 26 May 2021.
- ( at 02h38 )

- input  file    -> /scratch/users/j/a/jabreu/flow_simple_11atoms/flow/w246/t1/run.abi
- output file    -> /scratch/users/j/a/jabreu/flow_simple_11atoms/flow/w246/t1/run.abo
- root for input  files -> /scratch/users/j/a/jabreu/flow_simple_11atoms/flow/w246/t1/indata/in
- root for output files -> /scratch/users/j/a/jabreu/flow_simple_11atoms/flow/w246/t1/outdata/out

 Symmetries : space group I4_1/a (# 88); Bravais tI (body-center tetrag.)
     intxc =       0      iscf =       7    lmnmax =      32     lnmax =       8
     mgfft =      90  mpssoang =       4    mqgrid =    3022     natom =      12
  nloc_mem =       1    nspden =       1   nspinor =       1    nsppol =       1
      nsym =       8    n1xccc =    2501    ntypat =       3    occopt =       1
   xclevel =       2
-    mband =          57        mffmem =           1         mkmem =           2
-   mkqmem =           2        mk1mem =           2           mpw =       21105
      nfft =      729000          nkpt =           2
  Rough estimation (10% accuracy) of disk space for files :

------------- Echo of variables that govern the present computation ------------
-
- outvars: echo of selected default values
-   iomode0 =  0 , fftalg0 =512 , wfoptalg0 =  0
-
- outvars: echo of global parameters not present in the input file
-  max_nthreads =    0
-
 -outvars: echo values of preprocessed input variables --------
            acell      1.0000000000E+00  1.0000000000E+00  1.0000000000E+00 Bohr
              amu      8.54678000E+01  1.86207000E+02  1.59994000E+01
             ecut      4.40000000E+01 Hartree
-          fftalg         512
           irdden           1
           irdwfk           1
           istwfk        0    1
              ixc     -116133
              kpt      0.00000000E+00  0.00000000E+00  4.34782609E-02
                       0.00000000E+00  0.00000000E+00  0.00000000E+00
           kptopt           0
P           mkmem           2
P          mkqmem           2
P          mk1mem           2
            natom          12
            nband          57
           nbdbuf           4
            ngfft          90      90      90
             nkpt           2
            nstep        2000
             nsym           8
           ntypat           3
              occ      2.000000  2.000000  2.000000  2.000000  2.000000  2.000000
                       2.000000  2.000000  2.000000  2.000000  2.000000  2.000000
                       2.000000  2.000000  2.000000  2.000000  2.000000  2.000000
                       2.000000  2.000000  2.000000  2.000000  2.000000  2.000000
                       2.000000  2.000000  2.000000  2.000000  2.000000  2.000000
                       2.000000  2.000000  2.000000  2.000000  2.000000  2.000000
                       2.000000  2.000000  2.000000  2.000000  2.000000  2.000000
                       2.000000  2.000000  2.000000  2.000000  2.000000  2.000000
                       0.000000  0.000000  0.000000  0.000000  0.000000  0.000000
                       0.000000  0.000000  0.000000
        optdriver           1
            prtwf          -1
            rfdir           1       1       1
           rfelfd           2
            rprim      1.0270072128E+01  0.0000000000E+00 -1.0306589571E+01
                      -1.7532352593E+00  1.0119315572E+01 -1.0306589571E+01
                       0.0000000000E+00  0.0000000000E+00  1.4549919935E+01
          spgroup          88
           symrel      1  0  0   0  1  0   0  0  1      -1  0  0   0 -1  0   0  0 -1
                       0  1  0   1  0  0  -1 -1 -1       0 -1  0  -1  0  0   1  1  1
                       0  0  1  -1 -1 -1   0  1  0       0  0 -1   1  1  1   0 -1  0
                      -1 -1 -1   0  0  1   1  0  0       1  1  1   0  0 -1  -1  0  0
            tnons      0.0000000  0.0000000  0.0000000    -0.2500000  0.2500000  0.5000000
                       0.0000000  0.0000000  0.0000000    -0.2500000  0.2500000  0.5000000
                       0.0000000  0.0000000  0.0000000    -0.2500000  0.2500000  0.5000000
                       0.0000000  0.0000000  0.0000000    -0.2500000  0.2500000  0.5000000
           tolwfr      1.00000000E-20
            typat      1  1  2  2  3  3  3  3  3  3  3  3
           useylm           1
              wtk        0.50000    0.50000
           xangst      0.0000000000E+00  0.0000000000E+00  0.0000000000E+00
                       3.8440730404E+00  1.3387277918E+00 -1.6042692913E+00
                       2.2534579801E+00  2.6774555836E+00 -5.4540122995E+00
                       6.6284291979E-01  4.0161833753E+00 -1.6042692913E+00
                       7.6549211809E-01  4.7370561618E+00 -3.2250911830E-02
                       3.1655868829E+00  1.6355505178E+00 -4.4129114801E+00
                       6.5311850325E-01  2.9016603592E+00  2.8700391617E+00
                      -1.2801685255E-01  2.4776102988E+00 -1.5106214066E+00
                       3.0443177524E+00  4.2160286601E+00 -5.5476601843E+00
                       2.2631823966E+00  3.7919785997E+00 -2.2288347363E+00
                      -2.4928598302E-01  5.0580884411E+00 -2.6453701107E+00
                       2.1508087818E+00  1.9565827972E+00  6.7345533731E-01
            xcart      0.0000000000E+00  0.0000000000E+00  0.0000000000E+00
                       7.2642452812E+00  2.5298288929E+00 -3.0316296040E+00
                       4.2584184344E+00  5.0596577859E+00 -1.0306589571E+01
                       1.2525915875E+00  7.5894866788E+00 -3.0316296041E+00
                       1.4465704601E+00  8.9517388218E+00 -6.0945390895E-02
                       5.9820922586E+00  3.0907425551E+00 -8.3391941461E+00
                       1.2342151035E+00  5.4833434096E+00  5.4235880064E+00
                      -2.4191679172E-01  4.6820049288E+00 -2.8546607489E+00
                       5.7529268136E+00  7.9671395360E+00 -1.0483558427E+01
                       4.2767949184E+00  7.1658010552E+00 -4.2118872470E+00
                      -4.7108223668E-01  9.5584019097E+00 -4.9990250294E+00
                       4.0644395618E+00  3.6974056429E+00  1.2726461502E+00
             xred      0.0000000000E+00  0.0000000000E+00  0.0000000000E+00
                       7.5000000000E-01  2.5000000000E-01  5.0000000000E-01
                       5.0000000000E-01  5.0000000000E-01  0.0000000000E+00
                       2.5000000000E-01  7.5000000000E-01  5.0000000000E-01
                       2.9186900000E-01  8.8461900000E-01  8.2918900000E-01
                       6.3461900000E-01  3.0543000000E-01  9.2750000000E-02
                       2.1268000000E-01  5.4186900000E-01  9.0725000000E-01
                       5.5430000000E-02  4.6268000000E-01  1.7081100000E-01
                       6.9457000000E-01  7.8732000000E-01  3.2918900000E-01
                       5.3732000000E-01  7.0813100000E-01  5.9275000000E-01
                       1.1538100000E-01  9.4457000000E-01  4.0725000000E-01
                       4.5813100000E-01  3.6538100000E-01  6.7081100000E-01
            znucl       37.00000   75.00000    8.00000

 chkinp: Checking input parameters for consistency.

== DATASET  1 ==================================================================
-   mpi_nproc: 1, omp_nthreads: -1 (-1 if OMP is not activated)

--- !DatasetInfo
iteration_state: {dtset: 1, }
dimensions: {natom: 12, nkpt: 2, mband: 57, nsppol: 1, nspinor: 1, nspden: 1, mpw: 21105, }
cutoff_energies: {ecut:  44.0, pawecutdg:  -1.0, }
electrons: {nelect:   9.60000000E+01, charge:   0.00000000E+00, occopt:   1.00000000E+00, tsmear:   1.00000000E-02, }
meta: {optdriver: 1, rfelfd: 2, }
...

 Real(R)+Recip(G) space primitive vectors, cartesian coordinates (Bohr,Bohr^-1):
 R(1)= 10.2700721  0.0000000-10.3065896  G(1)=  0.0973703  0.0168700  0.0000000
 R(2)= -1.7532353 10.1193156-10.3065896  G(2)=  0.0000000  0.0988209  0.0000000
 R(3)=  0.0000000  0.0000000 14.5499199  G(3)=  0.0689733  0.0819509  0.0687289
 Unit cell volume ucvol=  1.5121164E+03 bohr^3
 Angles (23,13,12)=  1.35101683E+02  1.35101683E+02  6.53722483E+01 degrees

 getcut: wavevector=  0.0000  0.0000  0.0000  ngfft=  90  90  90
         ecut(hartree)=     44.000   => boxcut(ratio)=   2.07156

--- Pseudopotential description ------------------------------------------------
- pspini: atom type   1  psp file is /scratch/users/j/a/jabreu/pseudos/PBEsol/Rb.psp8
- pspatm: opening atomic psp file    /scratch/users/j/a/jabreu/pseudos/PBEsol/Rb.psp8
- Rb    ONCVPSP-3.3.0  r_core=   1.71227   1.75361   1.90633
- 37.00000   9.00000    180112                znucl, zion, pspdat
    8 -116133    2    4       600   0.00000   pspcod,pspxc,lmax,lloc,mmax,r2well
    5.99000000000000    7.00000000000000    0.00000000000000   rchrg,fchrg,qchrg
     nproj     2     2     2
     extension_switch     1
  pspatm : epsatm=   34.48400912
         --- l  ekb(1:nproj) -->
             0    8.196957   -0.477221
             1    3.231347   -0.378736
             2   -1.047201    0.996637
 pspatm: atomic psp has been read  and splines computed

- pspini: atom type   2  psp file is /scratch/users/j/a/jabreu/pseudos/PBEsol/Re.psp8
- pspatm: opening atomic psp file    /scratch/users/j/a/jabreu/pseudos/PBEsol/Re.psp8
- Re    ONCVPSP-3.3.0  r_core=   1.60865   1.60865   1.60865   2.01786
- 75.00000  15.00000    180112                znucl, zion, pspdat
    8 -116133    3    4       600   0.00000   pspcod,pspxc,lmax,lloc,mmax,r2well
    5.99000000000000    4.00000000000000    0.00000000000000   rchrg,fchrg,qchrg
     nproj     2     2     2     2
     extension_switch     1
  pspatm : epsatm=   27.15024164
         --- l  ekb(1:nproj) -->
             0    6.422680   -0.851409
             1    2.864550   -2.626735
             2    1.691960    0.158400
             3   28.670581    0.305316
 pspatm: atomic psp has been read  and splines computed

- pspini: atom type   3  psp file is /scratch/users/j/a/jabreu/pseudos/PBEsol/O.psp8
- pspatm: opening atomic psp file    /scratch/users/j/a/jabreu/pseudos/PBEsol/O.psp8
- O     ONCVPSP-3.3.0  r_core=   1.35509   1.45563   1.26150
-  8.00000   6.00000    180112                znucl, zion, pspdat
    8 -116133    2    4       600   0.00000   pspcod,pspxc,lmax,lloc,mmax,r2well
    5.99000000000000    4.00000000000000    0.00000000000000   rchrg,fchrg,qchrg
     nproj     2     2     1
     extension_switch     1
  pspatm : epsatm=    6.22910522
         --- l  ekb(1:nproj) -->
             0    6.050032    0.820363
             1   -4.739617   -1.153841
             2   -1.335834
 pspatm: atomic psp has been read  and splines computed

   1.66177290E+04                                ecore*ucvol(ha*bohr**3)

 ==>  initialize data related to q vector <==

 The list of irreducible perturbations for this q vector is:
    1)    idir= 1    ipert=  13
    2)    idir= 2    ipert=  13
    3)    idir= 3    ipert=  13

[...]
 ETOT 13  -64.046556478638     -2.842E-14 2.606E-06 0.000E+00
 ETOT 14  -64.046556478638     -1.421E-14 6.570E-06 0.000E+00
 ETOT 15  -64.046556478638      4.263E-14 8.934E-07 0.000E+00
 ETOT 16  -64.046556478638     -8.527E-14 2.260E-06 0.000E+00
 ETOT 17  -64.046556478638      4.263E-14 3.096E-07 0.000E+00
 ETOT 18  -64.046556478638      0.000E+00 7.856E-07 0.000E+00
 ETOT 19  -64.046556478638      0.000E+00 1.083E-07 0.000E+00
 ETOT 20  -64.046556478638      1.421E-14 2.754E-07 0.000E+00
 ETOT 21  -64.046556478638     -1.421E-14 3.819E-08 0.000E+00
 ETOT 22  -64.046556478638      1.421E-14 9.716E-08 0.000E+00
 ETOT 23  -64.046556478638     -1.421E-14 1.354E-08 0.000E+00
 ETOT 24  -64.046556478638      0.000E+00 3.443E-08 0.000E+00
 ETOT 25  -64.046556478638      0.000E+00 4.817E-09 0.000E+00
 ETOT 26  -64.046556478638      0.000E+00 1.224E-08 0.000E+00
 ETOT 27  -64.046556478638      0.000E+00 1.719E-09 0.000E+00
 ETOT 28  -64.046556478638      1.421E-14 4.364E-09 0.000E+00
 ETOT 29  -64.046556478638      0.000E+00 6.144E-10 0.000E+00
 ETOT 30  -64.046556478638      2.842E-14 1.559E-09 0.000E+00
 ETOT 31  -64.046556478638     -1.421E-14 2.200E-10 0.000E+00
 ETOT 32  -64.046556478638     -1.421E-14 5.576E-10 0.000E+00
 ETOT 33  -64.046556478638      0.000E+00 7.885E-11 0.000E+00
 ETOT 34  -64.046556478638      1.421E-14 1.997E-10 0.000E+00
 ETOT 35  -64.046556478638      0.000E+00 2.830E-11 0.000E+00
 ETOT 36  -64.046556478638      0.000E+00 7.162E-11 0.000E+00
 ETOT 37  -64.046556478638     -2.842E-14 1.016E-11 0.000E+00
 ETOT 38  -64.046556478638      0.000E+00 2.571E-11 0.000E+00
 ETOT 39  -64.046556478638      0.000E+00 3.652E-12 0.000E+00
 ETOT 40  -64.046556478638      1.421E-14 9.235E-12 0.000E+00
 ETOT 41  -64.046556478638      0.000E+00 1.313E-12 0.000E+00
 ETOT 42  -64.046556478638      0.000E+00 3.320E-12 0.000E+00
 ETOT 43  -64.046556478638      2.842E-14 4.725E-13 0.000E+00
 ETOT 44  -64.046556478638     -1.421E-14 1.194E-12 0.000E+00
 ETOT 45  -64.046556478638      0.000E+00 1.701E-13 0.000E+00
 ETOT 46  -64.046556478638     -1.421E-14 4.297E-13 0.000E+00
 ETOT 47  -64.046556478638     -1.421E-14 6.124E-14 0.000E+00
 ETOT 48  -64.046556478638      2.842E-14 1.547E-13 0.000E+00
 ETOT 49  -64.046556478638     -1.421E-14 2.206E-14 0.000E+00
 ETOT 50  -64.046556478638      1.421E-14 5.571E-14 0.000E+00
 ETOT 51  -64.046556478638      0.000E+00 7.947E-15 0.000E+00
 ETOT 52  -64.046556478638      1.421E-14 2.007E-14 0.000E+00
 ETOT 53  -64.046556478638     -1.421E-14 2.864E-15 0.000E+00
 ETOT 54  -64.046556478638     -1.421E-14 7.233E-15 0.000E+00
 ETOT 55  -64.046556478638      1.421E-14 1.032E-15 0.000E+00
 ETOT 56  -64.046556478638     -1.421E-14 2.607E-15 0.000E+00
 ETOT 57  -64.046556478638      1.421E-14 3.722E-16 0.000E+00
 ETOT 58  -64.046556478638     -1.421E-14 9.400E-16 0.000E+00
 ETOT 59  -64.046556478638      1.421E-14 1.342E-16 0.000E+00
 ETOT 60  -64.046556478638      0.000E+00 3.390E-16 0.000E+00
 ETOT 61  -64.046556478638     -1.421E-14 4.841E-17 0.000E+00
[...]
 ETOT 65  -64.046556478638      0.000E+00 6.299E-18 0.000E+00
 ETOT 66  -64.046556478638     -1.421E-14 1.591E-17 0.000E+00
 ETOT 67  -64.046556478638      1.421E-14 2.273E-18 0.000E+00
 ETOT 68  -64.046556478638     -1.421E-14 5.742E-18 0.000E+00
 ETOT 69  -64.046556478638      1.421E-14 8.201E-19 0.000E+00
 ETOT 70  -64.046556478638      0.000E+00 2.072E-18 0.000E+00
 ETOT 71  -64.046556478638      0.000E+00 2.959E-19 0.000E+00
 ETOT 72  -64.046556478638      0.000E+00 7.479E-19 0.000E+00
 ETOT 73  -64.046556478638     -1.421E-14 1.068E-19 0.000E+00
 ETOT 74  -64.046556478638     -1.421E-14 2.700E-19 0.000E+00
 ETOT 75  -64.046556478638      1.421E-14 3.855E-20 0.000E+00
 ETOT 76  -64.046556478638      0.000E+00 9.745E-20 0.000E+00
 ETOT 77  -64.046556478638      0.000E+00 1.391E-20 0.000E+00
 ETOT 78  -64.046556478638      1.421E-14 3.518E-20 0.000E+00
 ETOT 79  -64.046556478638     -1.421E-14 9.966E-21 0.000E+00

 At SCF step   79   max residual=  9.97E-21 < tolwfr=  1.00E-20 =>converged.

 ----iterations are completed or convergence reached----

 dfpt_looppert: DFPT cycle converged with prtwf=-1. Will skip output of the 1st-order WFK file.
 dfpt_looppert : ek2=    1.2277035650E+02
          f-sum rule ratio=    1.0086455501E+00
 prteigrs : about to open file /scratch/users/j/a/jabreu/flow_simple_11atoms/flow/w246/t1/tmpdata/tmp_1WF1_EIG
 Expectation of eigenvalue derivatives (hartree) for nkpt=   2  k points:
  (in case of degenerate eigenvalues, averaged derivative)
 kpt#   1, nband= 57, wtk=  0.50000, kpt=  0.0000  0.0000  0.0435 (reduced coord)
   0.00000   -0.00000    0.00000    0.00000   -0.00001   -0.00001    0.00002   -0.00002
   0.00027   -0.00019    0.00153   -0.00244    0.00125   -0.00018    0.00097   -0.00126
  -0.00042    0.00023    0.00201   -0.00325    0.00118   -0.00134    0.00186    0.00144
  -0.00354   -0.03410   -0.00031    0.02948    0.01521   -0.00054    0.00061   -0.02358
   0.00744   -0.00012   -0.00093    0.01623   -0.01629   -0.00219   -0.00226    0.01431
  -0.00596    0.00591    0.01141   -0.01040    0.00267   -0.00335   -0.01233   -0.00001
   0.01484    0.00640   -0.00219    0.00318    0.03160   -0.01893    0.00714   -0.00120
   0.00625
 prteigrs : prtvol=0 or 1, do not print more k-points.

 Eight components of 2nd-order total energy (hartree) are
 1,2,3: 0th-order hamiltonian combined with 1st-order wavefunctions
     kin0=   9.72951690E+01 eigvalue=   8.89251669E+00  local=  -5.16535462E+01
 4,5,6: 1st-order hamiltonian combined with 1st and 0th-order wfs
     kin1=  -1.23831774E+02  Hartree=   0.00000000E+00     xc=   0.00000000E+00
 7,8,9: eventually, occupation + non-local contributions
    edocc=   1.24370564E+01     enl0=  -2.92463942E+00   enl1=  -4.26133919E+00
 1-9 gives the relaxation energy (to be shifted if some occ is /=2.0)
   erelax=  -6.40465565E+01
  No Ewald or frozen-wf contrib.: the relaxation energy is the total one
 2DEtotal=   -0.6404655648E+02 Ha. Also 2DEtotal=   -0.174279543325E+04 eV
    (  non-var. 2DEtotal :   -6.4046556478E+01 Ha)

 CALCULATION OF EFFECTIVE MASSES
 NOTE : Additional infos (eff. mass eigenvalues, eigenvectors and, if degenerate, average mass) are available in stdout.

 K-point ( 0.000, 0.000, 0.043) | band =    48
 Effective mass tensor:
            -40.7017729386            -38.7633924610            -32.6594526988
            -38.7633924610            -41.5774391743            -32.6415889665
            -32.6594526988            -32.6415889665            -37.2191554091
 Effective mass tensor eigenvalues:
           -109.4306672519             -7.7041141944             -2.3635860756
 Angular average effective mass 1/(<1/m>)=  -5.3378417305
 Angular average effective mass for Frohlich model (<m**0.5>)**2=  -7.9777398384
 Effective masses along directions: (cart. coord. / red. coord. -> eff. mass)
    1:   1.000000  0.000000  0.000000 /   0.985739 -0.168279  0.000000 ->  -4.1341162395
    2:   0.000000  1.000000  0.000000 /   0.000000  1.000000  0.000000 ->  -4.4454628947
    3:   0.000000  0.000000  1.000000 /  -0.500443 -0.500443  0.706480 -> -10.5056597876
    4:   0.577350  0.577350  0.577350 /  -0.002488 -0.132198  0.991220 -> **************
    5:   0.000000  0.707107  0.707107 /  -0.578000 -0.010502  0.815969 ->  -7.7722614101
    6:   0.707107  0.000000  0.707107 /  -0.001932 -0.638148  0.769912 ->  -8.1920988331
    7:   0.707107  0.707107  0.000000 /   0.775314  0.631576  0.000000 -> -22.5310782077

 K-point ( 0.000, 0.000, 0.000) | band =    49
 Effective mass tensor:
              2.3079320649              0.5837688045             -1.1893101948
              0.5837688045              2.5102151563             -1.4128365717
             -1.1893101948             -1.4128365717              4.6932856519
 Effective mass tensor eigenvalues:
              1.8161248575              1.8166231856              5.8786848300
 Angular average effective mass 1/(<1/m>)=   2.3599731546
 Angular average effective mass for Frohlich model (<m**0.5>)**2=   2.5316728597
 Effective masses along directions: (cart. coord. / red. coord. -> eff. mass)
    1:   1.000000  0.000000  0.000000 /   0.985739 -0.168279  0.000000 ->   1.9821097665
    2:   0.000000  1.000000  0.000000 /   0.000000  1.000000  0.000000 ->   2.0595063799
    3:   0.000000  0.000000  1.000000 /  -0.500443 -0.500443  0.706480 ->   3.5570133734
    4:   0.577350  0.577350  0.577350 /  -0.002488 -0.132198  0.991220 ->   1.8188413278
    5:   0.000000  0.707107  0.707107 /  -0.578000 -0.010502  0.815969 ->   1.9392285751
    6:   0.707107  0.000000  0.707107 /  -0.001932 -0.638148  0.769912 ->   1.9832367141
    7:   0.707107  0.707107  0.000000 /   0.775314  0.631576  0.000000 ->   2.2706316188

 END OF EFFECTIVE MASSES SECTION

 ---- first-order wavefunction calculations are completed ----

 Total localisation tensor (bohr^2) in cartesian coordinates
  WARNING : still subject to testing - especially symmetries.
      direction              matrix element
   alpha     beta       real part   imaginary part
     1        1       0.7692323366    0.0000000000
     1        2      -0.1257236045    0.0000000000
     1        3      -0.6220573281    0.0000000000
     2        1      -0.1257236045    0.0000000000
     2        2       0.7256509484    0.0000000000
     2        3      -0.7390802712    0.0000000000
     3        1      -0.6220573281    0.0000000000
     3        2      -0.7390802712    0.0000000000
     3        3       4.0101481932    0.0000000000

 respfn : d/dk was computed, but no 2DTE, so no DDB output.

== END DATASET(S) ==============================================================

 -outvars: echo values of variables after computation  --------
            acell      1.0000000000E+00  1.0000000000E+00  1.0000000000E+00 Bohr
              amu      8.54678000E+01  1.86207000E+02  1.59994000E+01
             ecut      4.40000000E+01 Hartree
           etotal     -6.4046556479E+01
            fcart      0.0000000000E+00  0.0000000000E+00  0.0000000000E+00
                       0.0000000000E+00  0.0000000000E+00  0.0000000000E+00
                       0.0000000000E+00  0.0000000000E+00  0.0000000000E+00
                       0.0000000000E+00  0.0000000000E+00  0.0000000000E+00
                       0.0000000000E+00  0.0000000000E+00  0.0000000000E+00
                       0.0000000000E+00  0.0000000000E+00  0.0000000000E+00
                       0.0000000000E+00  0.0000000000E+00  0.0000000000E+00
                       0.0000000000E+00  0.0000000000E+00  0.0000000000E+00
                       0.0000000000E+00  0.0000000000E+00  0.0000000000E+00
                       0.0000000000E+00  0.0000000000E+00  0.0000000000E+00
                       0.0000000000E+00  0.0000000000E+00  0.0000000000E+00
                       0.0000000000E+00  0.0000000000E+00  0.0000000000E+00
-          fftalg         512
           irdden           1
           irdwfk           1
           istwfk        0    1
              ixc     -116133
              kpt      0.00000000E+00  0.00000000E+00  4.34782609E-02
                       0.00000000E+00  0.00000000E+00  0.00000000E+00
           kptopt           0
P           mkmem           2
P          mkqmem           2
P          mk1mem           2
            natom          12
            nband          57
           nbdbuf           4
            ngfft          90      90      90
             nkpt           2
            nstep        2000
             nsym           8
           ntypat           3
              occ      2.000000  2.000000  2.000000  2.000000  2.000000  2.000000
                       2.000000  2.000000  2.000000  2.000000  2.000000  2.000000
                       2.000000  2.000000  2.000000  2.000000  2.000000  2.000000
                       2.000000  2.000000  2.000000  2.000000  2.000000  2.000000
                       2.000000  2.000000  2.000000  2.000000  2.000000  2.000000
                       2.000000  2.000000  2.000000  2.000000  2.000000  2.000000
                       2.000000  2.000000  2.000000  2.000000  2.000000  2.000000
                       2.000000  2.000000  2.000000  2.000000  2.000000  2.000000
                       0.000000  0.000000  0.000000  0.000000  0.000000  0.000000
                       0.000000  0.000000  0.000000
        optdriver           1
            prtwf          -1
            rfdir           1       1       1
           rfelfd           2
            rprim      1.0270072128E+01  0.0000000000E+00 -1.0306589571E+01
                      -1.7532352593E+00  1.0119315572E+01 -1.0306589571E+01
                       0.0000000000E+00  0.0000000000E+00  1.4549919935E+01
          spgroup          88
           strten      0.0000000000E+00  0.0000000000E+00  0.0000000000E+00
                       0.0000000000E+00  0.0000000000E+00  0.0000000000E+00
           symrel      1  0  0   0  1  0   0  0  1      -1  0  0   0 -1  0   0  0 -1
                       0  1  0   1  0  0  -1 -1 -1       0 -1  0  -1  0  0   1  1  1
                       0  0  1  -1 -1 -1   0  1  0       0  0 -1   1  1  1   0 -1  0
                      -1 -1 -1   0  0  1   1  0  0       1  1  1   0  0 -1  -1  0  0
            tnons      0.0000000  0.0000000  0.0000000    -0.2500000  0.2500000  0.5000000
                       0.0000000  0.0000000  0.0000000    -0.2500000  0.2500000  0.5000000
                       0.0000000  0.0000000  0.0000000    -0.2500000  0.2500000  0.5000000
                       0.0000000  0.0000000  0.0000000    -0.2500000  0.2500000  0.5000000
           tolwfr      1.00000000E-20
            typat      1  1  2  2  3  3  3  3  3  3  3  3
           useylm           1
              wtk        0.50000    0.50000
           xangst      0.0000000000E+00  0.0000000000E+00  0.0000000000E+00
                       3.8440730404E+00  1.3387277918E+00 -1.6042692913E+00
                       2.2534579801E+00  2.6774555836E+00 -5.4540122995E+00
                       6.6284291979E-01  4.0161833753E+00 -1.6042692913E+00
                       7.6549211809E-01  4.7370561618E+00 -3.2250911830E-02
                       3.1655868829E+00  1.6355505178E+00 -4.4129114801E+00
                       6.5311850325E-01  2.9016603592E+00  2.8700391617E+00
                      -1.2801685255E-01  2.4776102988E+00 -1.5106214066E+00
                       3.0443177524E+00  4.2160286601E+00 -5.5476601843E+00
                       2.2631823966E+00  3.7919785997E+00 -2.2288347363E+00
                      -2.4928598302E-01  5.0580884411E+00 -2.6453701107E+00
                       2.1508087818E+00  1.9565827972E+00  6.7345533731E-01
            xcart      0.0000000000E+00  0.0000000000E+00  0.0000000000E+00
                       7.2642452812E+00  2.5298288929E+00 -3.0316296040E+00
                       4.2584184344E+00  5.0596577859E+00 -1.0306589571E+01
                       1.2525915875E+00  7.5894866788E+00 -3.0316296041E+00
                       1.4465704601E+00  8.9517388218E+00 -6.0945390895E-02
                       5.9820922586E+00  3.0907425551E+00 -8.3391941461E+00
                       1.2342151035E+00  5.4833434096E+00  5.4235880064E+00
                      -2.4191679172E-01  4.6820049288E+00 -2.8546607489E+00
                       5.7529268136E+00  7.9671395360E+00 -1.0483558427E+01
                       4.2767949184E+00  7.1658010552E+00 -4.2118872470E+00
                      -4.7108223668E-01  9.5584019097E+00 -4.9990250294E+00
                       4.0644395618E+00  3.6974056429E+00  1.2726461502E+00
             xred      0.0000000000E+00  0.0000000000E+00  0.0000000000E+00
                       7.5000000000E-01  2.5000000000E-01  5.0000000000E-01
                       5.0000000000E-01  5.0000000000E-01  0.0000000000E+00
                       2.5000000000E-01  7.5000000000E-01  5.0000000000E-01
                       2.9186900000E-01  8.8461900000E-01  8.2918900000E-01
                       6.3461900000E-01  3.0543000000E-01  9.2750000000E-02
                       2.1268000000E-01  5.4186900000E-01  9.0725000000E-01
                       5.5430000000E-02  4.6268000000E-01  1.7081100000E-01
                       6.9457000000E-01  7.8732000000E-01  3.2918900000E-01
                       5.3732000000E-01  7.0813100000E-01  5.9275000000E-01
                       1.1538100000E-01  9.4457000000E-01  4.0725000000E-01
                       4.5813100000E-01  3.6538100000E-01  6.7081100000E-01
            znucl       37.00000   75.00000    8.00000

- Timing analysis has been suppressed with timopt=0

 Suggested references for the acknowledgment of ABINIT usage.

 Calculation completed.
.Delivered   2 WARNINGs and   5 COMMENTs to log file.