.Version 9.5.1 of ABINIT

 ABINIT is a project of the Universite Catholique de Louvain,
 Corning Inc. and other collaborators, see ~abinit/doc/developers/contributors.txt .
 acknowledgments of the ABINIT effort.

.Starting date : Tue  4 May 2021.
- ( at 19h29 )

- input  file    -> /scratch/users/j/a/jabreu/flow_simple_6atoms/flow/w190/t1/run.abi
- output file    -> /scratch/users/j/a/jabreu/flow_simple_6atoms/flow/w190/t1/run.abo
- root for input  files -> /scratch/users/j/a/jabreu/flow_simple_6atoms/flow/w190/t1/indata/in
- root for output files -> /scratch/users/j/a/jabreu/flow_simple_6atoms/flow/w190/t1/outdata/out

 Symmetries : space group P4/n m m (#129); Bravais tP (primitive tetrag.)
     intxc =       0      iscf =       7    lmnmax =      18     lnmax =       6
     mgfft =      80  mpssoang =       3    mqgrid =    3873     natom =       6
  nloc_mem =       1    nspden =       1   nspinor =       1    nsppol =       1
      nsym =      16    n1xccc =    2501    ntypat =       3    occopt =       1
   xclevel =       2
-    mband =          43        mffmem =           1         mkmem =           1
-   mkqmem =           1        mk1mem =           1           mpw =       10351
      nfft =      184320          nkpt =           1
  Rough estimation (10% accuracy) of disk space for files :

------------- Echo of variables that govern the present computation ------------
-
- outvars: echo of selected default values
-   iomode0 =  0 , fftalg0 =512 , wfoptalg0 =  0
-
- outvars: echo of global parameters not present in the input file
-  max_nthreads =    0
-
 -outvars: echo values of preprocessed input variables --------
            acell      1.0000000000E+00  1.0000000000E+00  1.0000000000E+00 Bohr
              amu      2.29897680E+01  6.53900000E+01  3.09737620E+01
             ecut      4.40000000E+01 Hartree
-          fftalg         512
           irdden           1
           irdwfk           1
           istwfk        1
              ixc     -116133
           kptopt           0
P           mkmem           1
P          mkqmem           1
P          mk1mem           1
            natom           6
            nband          43
           nbdbuf           4
            ngfft          48      48      80
             nkpt           1
            nstep        1000
             nsym          16
           ntypat           3
              occ      2.000000  2.000000  2.000000  2.000000  2.000000  2.000000
                       2.000000  2.000000  2.000000  2.000000  2.000000  2.000000
                       2.000000  2.000000  2.000000  2.000000  2.000000  2.000000
                       2.000000  2.000000  2.000000  2.000000  2.000000  2.000000
                       2.000000  2.000000  2.000000  2.000000  2.000000  2.000000
                       2.000000  2.000000  2.000000  2.000000  0.000000  0.000000
                       0.000000  0.000000  0.000000  0.000000  0.000000  0.000000
                       0.000000
        optdriver           1
            prtwf          -1
            rfdir           1       1       1
           rfelfd           2
            rprim      7.5652098343E+00  0.0000000000E+00  0.0000000000E+00
                       0.0000000000E+00  7.5652098343E+00  0.0000000000E+00
                       0.0000000000E+00  0.0000000000E+00  1.2967405585E+01
          spgroup         129
           symrel      1  0  0   0  1  0   0  0  1      -1  0  0   0 -1  0   0  0 -1
                      -1  0  0   0  1  0   0  0 -1       1  0  0   0 -1  0   0  0  1
                      -1  0  0   0 -1  0   0  0  1       1  0  0   0  1  0   0  0 -1
                       1  0  0   0 -1  0   0  0 -1      -1  0  0   0  1  0   0  0  1
                       0  1  0   1  0  0   0  0  1       0 -1  0  -1  0  0   0  0 -1
                       0 -1  0   1  0  0   0  0 -1       0  1  0  -1  0  0   0  0  1
                       0 -1  0  -1  0  0   0  0  1       0  1  0   1  0  0   0  0 -1
                       0  1  0  -1  0  0   0  0 -1       0 -1  0   1  0  0   0  0  1
            tnons      0.0000000  0.0000000  0.0000000     0.5000000  0.5000000 -0.0000000
                       0.5000000  0.5000000 -0.0000000     0.0000000  0.0000000  0.0000000
                       0.0000000  0.0000000  0.0000000     0.5000000  0.5000000 -0.0000000
                       0.5000000  0.5000000 -0.0000000     0.0000000  0.0000000  0.0000000
                       0.5000000  0.5000000  0.0000000     0.0000000  0.0000000 -0.0000000
                       0.0000000  0.0000000 -0.0000000     0.5000000  0.5000000  0.0000000
                       0.5000000  0.5000000  0.0000000     0.0000000  0.0000000 -0.0000000
                       0.0000000  0.0000000 -0.0000000     0.5000000  0.5000000  0.0000000
           tolwfr      1.00000000E-20
            typat      1  1  2  2  3  3
           useylm           1
           xangst      0.0000000000E+00  2.0016683113E+00  4.4230476590E+00
                       2.0016683113E+00  0.0000000000E+00  2.4390078310E+00
                       0.0000000000E+00  0.0000000000E+00  0.0000000000E+00
                       2.0016683113E+00  2.0016683113E+00  0.0000000000E+00
                       2.0016683113E+00  0.0000000000E+00  5.4109777879E+00
                       0.0000000000E+00  2.0016683113E+00  1.4510777021E+00
            xcart      0.0000000000E+00  3.7826049172E+00  8.3583487482E+00
                       3.7826049172E+00  0.0000000000E+00  4.6090568366E+00
                       0.0000000000E+00  0.0000000000E+00  0.0000000000E+00
                       3.7826049172E+00  3.7826049172E+00  0.0000000000E+00
                       3.7826049172E+00  0.0000000000E+00  1.0225266130E+01
                       0.0000000000E+00  3.7826049172E+00  2.7421394546E+00
             xred      0.0000000000E+00  5.0000000000E-01  6.4456600000E-01
                       5.0000000000E-01  0.0000000000E+00  3.5543400000E-01
                       0.0000000000E+00  0.0000000000E+00  0.0000000000E+00
                       5.0000000000E-01  5.0000000000E-01  0.0000000000E+00
                       5.0000000000E-01  0.0000000000E+00  7.8853600000E-01
                       0.0000000000E+00  5.0000000000E-01  2.1146400000E-01
            znucl       11.00000   30.00000   15.00000

 chkinp: Checking input parameters for consistency.

== DATASET  1 ==================================================================
-   mpi_nproc: 1, omp_nthreads: -1 (-1 if OMP is not activated)

--- !DatasetInfo
iteration_state: {dtset: 1, }
dimensions: {natom: 6, nkpt: 1, mband: 43, nsppol: 1, nspinor: 1, nspden: 1, mpw: 10351, }
cutoff_energies: {ecut:  44.0, pawecutdg:  -1.0, }
electrons: {nelect:   6.80000000E+01, charge:   0.00000000E+00, occopt:   1.00000000E+00, tsmear:   1.00000000E-02, }
meta: {optdriver: 1, rfelfd: 2, }
...

 Real(R)+Recip(G) space primitive vectors, cartesian coordinates (Bohr,Bohr^-1):
 R(1)=  7.5652098  0.0000000  0.0000000  G(1)=  0.1321840  0.0000000  0.0000000
 R(2)=  0.0000000  7.5652098  0.0000000  G(2)=  0.0000000  0.1321840  0.0000000
 R(3)=  0.0000000  0.0000000 12.9674056  G(3)=  0.0000000  0.0000000  0.0771164
 Unit cell volume ucvol=  7.4215574E+02 bohr^3
 Angles (23,13,12)=  9.00000000E+01  9.00000000E+01  9.00000000E+01 degrees

 getcut: wavevector=  0.0000  0.0000  0.0000  ngfft=  48  48  80
         ecut(hartree)=     44.000   => boxcut(ratio)=   2.06607

--- Pseudopotential description ------------------------------------------------
- pspini: atom type   1  psp file is /scratch/users/j/a/jabreu/pseudos/PBEsol/Na.psp8
- pspatm: opening atomic psp file    /scratch/users/j/a/jabreu/pseudos/PBEsol/Na.psp8
- Na    ONCVPSP-3.3.0  r_core=   1.20708   1.55069
- 11.00000   9.00000    180112                znucl, zion, pspdat
    8 -116133    1    4       400   0.00000   pspcod,pspxc,lmax,lloc,mmax,r2well
    3.99000000000000    0.00000000000000    0.00000000000000   rchrg,fchrg,qchrg
     nproj     2     2
     extension_switch     1
  pspatm : epsatm=    9.32878306
         --- l  ekb(1:nproj) -->
             0    2.657905   -0.678300
             1   -6.761319   -2.404728
 pspatm: atomic psp has been read  and splines computed

- pspini: atom type   2  psp file is /scratch/users/j/a/jabreu/pseudos/PBEsol/Zn.psp8
- pspatm: opening atomic psp file    /scratch/users/j/a/jabreu/pseudos/PBEsol/Zn.psp8
- Zn    ONCVPSP-3.3.0  r_core=   1.35823   1.66358   1.85211
- 30.00000  20.00000    180112                znucl, zion, pspdat
    8 -116133    2    4       600   0.00000   pspcod,pspxc,lmax,lloc,mmax,r2well
    5.99000000000000    2.50000000000000    0.00000000000000   rchrg,fchrg,qchrg
     nproj     2     2     2
     extension_switch     1
  pspatm : epsatm=   26.57343589
         --- l  ekb(1:nproj) -->
             0    2.830835   -1.519107
             1   -4.626739   -1.324150
             2   -6.948510   -2.555500
 pspatm: atomic psp has been read  and splines computed

- pspini: atom type   3  psp file is /scratch/users/j/a/jabreu/pseudos/PBEsol/P.psp8
- pspatm: opening atomic psp file    /scratch/users/j/a/jabreu/pseudos/PBEsol/P.psp8
- P     ONCVPSP-3.3.0  r_core=   1.46089   1.55067   1.70594
- 15.00000   5.00000    180112                znucl, zion, pspdat
    8 -116133    2    4       600   0.00000   pspcod,pspxc,lmax,lloc,mmax,r2well
    5.99000000000000    5.00000000000000    0.00000000000000   rchrg,fchrg,qchrg
     nproj     2     2     2
     extension_switch     1
  pspatm : epsatm=    7.31221086
         --- l  ekb(1:nproj) -->
             0    6.742364    1.063650
             1    3.449117    0.910422
             2   -3.077645   -0.799176
 pspatm: atomic psp has been read  and splines computed

   5.87716245E+03                                ecore*ucvol(ha*bohr**3)

-inwffil : will read wavefunctions from disk file /scratch/users/j/a/jabreu/flow_simple_6atoms/flow/w190/t1/indata/in_WFK

 ==>  initialize data related to q vector <==

 The list of irreducible perturbations for this q vector is:
    1)    idir= 1    ipert=   7
    2)    idir= 2    ipert=   7
    3)    idir= 3    ipert=   7

 Perturbation wavevector (in red.coord.)   0.000000  0.000000  0.000000
 Perturbation : derivative vs k along direction   1

 dfpt_looppert : COMMENT -
  In a d/dk calculation, iscf is set to -3 automatically.
 The set of symmetries contains only one element for this perturbation.
 symkpt : not enough symmetry to change the number of k points.

[...]

 Initialisation of the first-order wave-functions :
  ireadwf=   0

--- !BeginCycle
iteration_state: {dtset: 1, }
solver: {iscf: 7, nstep: 1000, nline: 4, wfoptalg: 0, }
tolerances: {tolwfr: 1.00E-20, }
...

     iter   2DEtotal(Ha)        deltaE(Ha) residm    vres2
-ETOT  1  -78.298689430058     -7.830E+01 3.928E-02 0.000E+00
 ETOT  2  -78.359420330851     -6.073E-02 3.933E-04 0.000E+00
 ETOT  3  -78.359749613706     -3.293E-04 3.071E-06 0.000E+00
 ETOT  4  -78.359752862560     -3.249E-06 4.385E-08 0.000E+00
 ETOT  5  -78.359752901475     -3.891E-08 5.752E-10 0.000E+00
 ETOT  6  -78.359752902029     -5.546E-10 9.828E-12 0.000E+00
 ETOT  7  -78.359752902038     -8.626E-12 1.244E-13 0.000E+00
[...]
 ETOT  9  -78.359752902038     -1.421E-14 3.624E-17 0.000E+00
 ETOT 10  -78.359752902038      4.263E-14 8.712E-19 0.000E+00
 ETOT 11  -78.359752902038      0.000E+00 1.112E-20 0.000E+00
 ETOT 12  -78.359752902038     -1.421E-14 9.663E-21 0.000E+00

 At SCF step   12   max residual=  9.66E-21 < tolwfr=  1.00E-20 =>converged.

 ----iterations are completed or convergence reached----

 dfpt_looppert: DFPT cycle converged with prtwf=-1. Will skip output of the 1st-order WFK file.
 dfpt_looppert : ek2=    9.3811631340E+01
          f-sum rule ratio=    1.5218810643E+00
 prteigrs : about to open file /scratch/users/j/a/jabreu/flow_simple_6atoms/flow/w190/t1/tmpdata/tmp_1WF1_EIG
 Expectation of eigenvalue derivatives (hartree) for nkpt=   1  k points:
  (in case of degenerate eigenvalues, averaged derivative)
 kpt#   1, nband= 43, wtk=  1.00000, kpt=  0.0000  0.0000  0.0000 (reduced coord)
  -0.00000    0.00000    0.00000    0.00000   -0.00000   -0.00000    0.00000   -0.00000
  -0.00000   -0.00000   -0.00000    0.00000    0.00000    0.00000    0.00000    0.00000
   0.00000   -0.00000   -0.00000   -0.00000   -0.00000   -0.00000    0.00000    0.00000
   0.00000    0.00000   -0.00000    0.00000    0.00000    0.00000    0.00000   -0.00000
   0.00000    0.00000   -0.00000    0.00000   -0.00000    0.00000   -0.00000   -0.00000
   0.00000   -0.00000   -0.00030

 Eight components of 2nd-order total energy (hartree) are
 1,2,3: 0th-order hamiltonian combined with 1st-order wavefunctions
     kin0=   7.09806264E+01 eigvalue=   3.56547730E+00  local=  -2.54601827E+01
 4,5,6: 1st-order hamiltonian combined with 1st and 0th-order wfs
     kin1=  -1.42770145E+02  Hartree=   0.00000000E+00     xc=   0.00000000E+00
 7,8,9: eventually, occupation + non-local contributions
    edocc=   3.15138130E+01     enl0=  -2.23998103E+00   enl1=  -1.39493605E+01
 1-9 gives the relaxation energy (to be shifted if some occ is /=2.0)
   erelax=  -7.83597529E+01
  No Ewald or frozen-wf contrib.: the relaxation energy is the total one
 2DEtotal=   -0.7835975290E+02 Ha. Also 2DEtotal=   -0.213227731539E+04 eV
    (  non-var. 2DEtotal :   -7.8359752902E+01 Ha)

 Perturbation wavevector (in red.coord.)   0.000000  0.000000  0.000000
 Perturbation : derivative vs k along direction   2
 The set of symmetries contains only one element for this perturbation.
 symkpt : not enough symmetry to change the number of k points.

[...]

 Perturbation wavevector (in red.coord.)   0.000000  0.000000  0.000000
 Perturbation : derivative vs k along direction   3
 The set of symmetries contains only one element for this perturbation.
 symkpt : not enough symmetry to change the number of k points.

-inwffil : will read wavefunctions from disk file /scratch/users/j/a/jabreu/flow_simple_6atoms/flow/w190/t1/indata/in_WFK

 Initialisation of the first-order wave-functions :
  ireadwf=   0

--- !BeginCycle
iteration_state: {dtset: 1, }
solver: {iscf: 7, nstep: 1000, nline: 4, wfoptalg: 0, }
tolerances: {tolwfr: 1.00E-20, }
...

     iter   2DEtotal(Ha)        deltaE(Ha) residm    vres2
-ETOT  1  -22.209405351528     -2.221E+01 1.244E-02 0.000E+00
 ETOT  2  -22.228385383405     -1.898E-02 8.629E-05 0.000E+00
 ETOT  3  -22.228451150730     -6.577E-05 3.040E-07 0.000E+00
 ETOT  4  -22.228451621709     -4.710E-07 4.841E-09 0.000E+00
 ETOT  5  -22.228451626319     -4.610E-09 6.194E-11 0.000E+00
 ETOT  6  -22.228451626377     -5.813E-11 7.927E-13 0.000E+00
 ETOT  7  -22.228451626378     -8.669E-13 9.238E-15 0.000E+00
 ETOT  8  -22.228451626378     -2.487E-14 1.751E-16 0.000E+00
 ETOT  9  -22.228451626378      3.553E-15 2.013E-18 0.000E+00
 ETOT 10  -22.228451626378      7.105E-15 4.091E-20 0.000E+00
 ETOT 11  -22.228451626378      7.105E-15 9.242E-21 0.000E+00

 At SCF step   11   max residual=  9.24E-21 < tolwfr=  1.00E-20 =>converged.

 ----iterations are completed or convergence reached----

 dfpt_looppert: DFPT cycle converged with prtwf=-1. Will skip output of the 1st-order WFK file.
 dfpt_looppert : ek2=    3.1929524860E+01
          f-sum rule ratio=    1.2149503379E+00
 prteigrs : about to open file /scratch/users/j/a/jabreu/flow_simple_6atoms/flow/w190/t1/tmpdata/tmp_1WF1_EIG
 Expectation of eigenvalue derivatives (hartree) for nkpt=   1  k points:
  (in case of degenerate eigenvalues, averaged derivative)
 kpt#   1, nband= 43, wtk=  1.00000, kpt=  0.0000  0.0000  0.0000 (reduced coord)
  -0.00000   -0.00000   -0.00000   -0.00000   -0.00000   -0.00000   -0.00000   -0.00000
   0.00000    0.00000   -0.00000   -0.00000   -0.00000   -0.00000    0.00000    0.00000
   0.00000   -0.00000   -0.00000    0.00000   -0.00000   -0.00000    0.00000   -0.00000
  -0.00000    0.00000   -0.00000    0.00000   -0.00000   -0.00000   -0.00000    0.00000
   0.00000    0.00000    0.00000   -0.00000   -0.00000    0.00000    0.00000    0.00000
   0.00000    0.00000    0.00000

 Eight components of 2nd-order total energy (hartree) are
 1,2,3: 0th-order hamiltonian combined with 1st-order wavefunctions
     kin0=   2.28955619E+01 eigvalue=   1.40646912E+00  local=  -8.17591387E+00
 4,5,6: 1st-order hamiltonian combined with 1st and 0th-order wfs
     kin1=  -3.87927870E+01  Hartree=   0.00000000E+00     xc=   0.00000000E+00
 7,8,9: eventually, occupation + non-local contributions
    edocc=   6.56911134E+00     enl0=  -4.66776874E-01   enl1=  -5.66411623E+00
 1-9 gives the relaxation energy (to be shifted if some occ is /=2.0)
   erelax=  -2.22284516E+01
  No Ewald or frozen-wf contrib.: the relaxation energy is the total one
 2DEtotal=   -0.2222845163E+02 Ha. Also 2DEtotal=   -0.604866929819E+03 eV
    (  non-var. 2DEtotal :   -2.2228451626E+01 Ha)

 CALCULATION OF EFFECTIVE MASSES
 NOTE : Additional infos (eff. mass eigenvalues, eigenvectors and, if degenerate, average mass) are available in stdout.

 COMMENTS:
 - At k-point ( 0.000, 0.000, 0.000), bands    33 through    34
   are DEGENERATE (effective mass tensor is therefore not defined).
   See Section IIIB Eqs. (67)-(70) and Appendix E of PRB 93 205147 (2016).
 - Angular average effective mass for Frohlich model is to be averaged over degenerate bands. See later.
 - Associated theta integrals calculated with ntheta=   1000 points.

 K-point ( 0.000, 0.000, 0.000) | band =    33
 Transport equivalent effective mass tensor:
             -0.1081312467             -0.0000000307              0.0000002000
             -0.0000000307             -0.1081309192              0.0000004674
              0.0000002000              0.0000004674             -2.1350643982
 Transport equivalent effective mass tensor eigenvalues:
             -2.1350643982             -0.1081312496             -0.1081309164
 Angular average effective mass 1/(<1/m>)=  -0.1498968495
 Angular average effective mass for Frohlich model (<m**0.5>)**2=  -0.1955307304
 Effective masses along directions: (cart. coord. / red. coord. -> eff. mass)
    1:   1.000000  0.000000  0.000000 /   1.000000  0.000000  0.000000 ->  -0.0906533496
    2:   0.000000  1.000000  0.000000 /   0.000000  1.000000  0.000000 ->  -0.0906530754
    3:   0.000000  0.000000  1.000000 /   0.000000  0.000000  1.000000 ->  -1.9604564605
    4:   0.577350  0.577350  0.577350 /   0.450009  0.450009  0.771352 ->  -0.1768050528
    5:   0.000000  0.707107  0.707107 /   0.000000  0.503915  0.863753 ->  -0.1732928807
    6:   0.707107  0.000000  0.707107 /   0.503915  0.000000  0.863753 ->  -0.1732934192
    7:   0.707107  0.707107  0.000000 /   0.707107  0.707107  0.000000 ->  -0.1215232993

 K-point ( 0.000, 0.000, 0.000) | band =    34
 Transport equivalent effective mass tensor:
            -13.2733327130             -0.0000020857              0.0000047508
             -0.0000020857            -13.2733179200              0.0000110807
              0.0000047508              0.0000110807            -92.7888685463
 Transport equivalent effective mass tensor eigenvalues:
            -92.7888685463            -13.2733330014            -13.2733176316
 Angular average effective mass 1/(<1/m>)=  -0.9103061426
 Angular average effective mass for Frohlich model (<m**0.5>)**2=  -1.4078014238
 Effective masses along directions: (cart. coord. / red. coord. -> eff. mass)
    1:   1.000000  0.000000  0.000000 /   1.000000  0.000000  0.000000 ->  -8.8070999779
    2:   0.000000  1.000000  0.000000 /   0.000000  1.000000  0.000000 ->  -8.8070999626
    3:   0.000000  0.000000  1.000000 /   0.000000  0.000000  1.000000 ->  -1.9604564683
    4:   0.577350  0.577350  0.577350 /   0.450009  0.450009  0.771352 ->  -0.4730728474
    5:   0.000000  0.707107  0.707107 /   0.000000  0.503915  0.863753 ->  -3.2070295866
    6:   0.707107  0.000000  0.707107 /   0.503915  0.000000  0.863753 ->  -3.2070295801
    7:   0.707107  0.707107  0.000000 /   0.707107  0.707107  0.000000 ->  -0.3429688866

 Angular average effective mass for Frohlich model, averaged over degenerate bands.
 Value of     (<<m**0.5>>)**2 =     6.631632E-01
 Absolute Value of <<m**0.5>> =     8.143483E-01

 K-point ( 0.000, 0.000, 0.000) | band =    35
 Effective mass tensor:
              0.1737014911              0.0000000002              0.0000000212
              0.0000000002              0.1737014906              0.0000000078
              0.0000000212              0.0000000078              3.3961854005
 Effective mass tensor eigenvalues:
              0.1737014905              0.1737014912              3.3961854005
 Angular average effective mass 1/(<1/m>)=   0.2540552736
 Angular average effective mass for Frohlich model (<m**0.5>)**2=   0.3300208082
 Effective masses along directions: (cart. coord. / red. coord. -> eff. mass)
    1:   1.000000  0.000000  0.000000 /   1.000000  0.000000  0.000000 ->   0.1737014911
    2:   0.000000  1.000000  0.000000 /   0.000000  1.000000  0.000000 ->   0.1737014906
    3:   0.000000  0.000000  1.000000 /   0.000000  0.000000  1.000000 ->   3.3961854005
    4:   0.577350  0.577350  0.577350 /   0.450009  0.450009  0.771352 ->   0.2540552760
    5:   0.000000  0.707107  0.707107 /   0.000000  0.503915  0.863753 ->   0.3304992494
    6:   0.707107  0.000000  0.707107 /   0.503915  0.000000  0.863753 ->   0.3304992529
    7:   0.707107  0.707107  0.000000 /   0.707107  0.707107  0.000000 ->   0.1737014911

 END OF EFFECTIVE MASSES SECTION

 ---- first-order wavefunction calculations are completed ----

 Total localisation tensor (bohr^2) in cartesian coordinates
  WARNING : still subject to testing - especially symmetries.
      direction              matrix element
   alpha     beta       real part   imaginary part
     1        1       4.5807679055    0.0000000000
     1        2       0.0000000000    0.0000000000
     1        3       0.0000000000    0.0000000000
     2        1       0.0000000000    0.0000000000
     2        2       4.5807712655    0.0000000000
     2        3       0.0000000000    0.0000000000
     3        1       0.0000000000    0.0000000000
     3        2       0.0000000000    0.0000000000
     3        3       2.4031075156    0.0000000000

 respfn : d/dk was computed, but no 2DTE, so no DDB output.

== END DATASET(S) ==============================================================

 -outvars: echo values of variables after computation  --------
            acell      1.0000000000E+00  1.0000000000E+00  1.0000000000E+00 Bohr
              amu      2.29897680E+01  6.53900000E+01  3.09737620E+01
             ecut      4.40000000E+01 Hartree
           etotal     -2.2228451626E+01
            fcart      0.0000000000E+00  0.0000000000E+00  0.0000000000E+00
                       0.0000000000E+00  0.0000000000E+00  0.0000000000E+00
                       0.0000000000E+00  0.0000000000E+00  0.0000000000E+00
                       0.0000000000E+00  0.0000000000E+00  0.0000000000E+00
                       0.0000000000E+00  0.0000000000E+00  0.0000000000E+00
                       0.0000000000E+00  0.0000000000E+00  0.0000000000E+00
-          fftalg         512
           irdden           1
           irdwfk           1
           istwfk        1
              ixc     -116133
           kptopt           0
P           mkmem           1
P          mkqmem           1
P          mk1mem           1
            natom           6
            nband          43
           nbdbuf           4
            ngfft          48      48      80
             nkpt           1
            nstep        1000
             nsym          16
           ntypat           3
              occ      2.000000  2.000000  2.000000  2.000000  2.000000  2.000000
                       2.000000  2.000000  2.000000  2.000000  2.000000  2.000000
                       2.000000  2.000000  2.000000  2.000000  2.000000  2.000000
                       2.000000  2.000000  2.000000  2.000000  2.000000  2.000000
                       2.000000  2.000000  2.000000  2.000000  2.000000  2.000000
                       2.000000  2.000000  2.000000  2.000000  0.000000  0.000000
                       0.000000  0.000000  0.000000  0.000000  0.000000  0.000000
                       0.000000
        optdriver           1
            prtwf          -1
            rfdir           1       1       1
           rfelfd           2
            rprim      7.5652098343E+00  0.0000000000E+00  0.0000000000E+00
                       0.0000000000E+00  7.5652098343E+00  0.0000000000E+00
                       0.0000000000E+00  0.0000000000E+00  1.2967405585E+01
          spgroup         129
           strten      0.0000000000E+00  0.0000000000E+00  0.0000000000E+00
                       0.0000000000E+00  0.0000000000E+00  0.0000000000E+00
           symrel      1  0  0   0  1  0   0  0  1      -1  0  0   0 -1  0   0  0 -1
                      -1  0  0   0  1  0   0  0 -1       1  0  0   0 -1  0   0  0  1
                      -1  0  0   0 -1  0   0  0  1       1  0  0   0  1  0   0  0 -1
                       1  0  0   0 -1  0   0  0 -1      -1  0  0   0  1  0   0  0  1
                       0  1  0   1  0  0   0  0  1       0 -1  0  -1  0  0   0  0 -1
                       0 -1  0   1  0  0   0  0 -1       0  1  0  -1  0  0   0  0  1
                       0 -1  0  -1  0  0   0  0  1       0  1  0   1  0  0   0  0 -1
                       0  1  0  -1  0  0   0  0 -1       0 -1  0   1  0  0   0  0  1
            tnons      0.0000000  0.0000000  0.0000000     0.5000000  0.5000000 -0.0000000
                       0.5000000  0.5000000 -0.0000000     0.0000000  0.0000000  0.0000000
                       0.0000000  0.0000000  0.0000000     0.5000000  0.5000000 -0.0000000
                       0.5000000  0.5000000 -0.0000000     0.0000000  0.0000000  0.0000000
                       0.5000000  0.5000000  0.0000000     0.0000000  0.0000000 -0.0000000
                       0.0000000  0.0000000 -0.0000000     0.5000000  0.5000000  0.0000000
                       0.5000000  0.5000000  0.0000000     0.0000000  0.0000000 -0.0000000
                       0.0000000  0.0000000 -0.0000000     0.5000000  0.5000000  0.0000000
           tolwfr      1.00000000E-20
            typat      1  1  2  2  3  3
           useylm           1
           xangst      0.0000000000E+00  2.0016683113E+00  4.4230476590E+00
                       2.0016683113E+00  0.0000000000E+00  2.4390078310E+00
                       0.0000000000E+00  0.0000000000E+00  0.0000000000E+00
                       2.0016683113E+00  2.0016683113E+00  0.0000000000E+00
                       2.0016683113E+00  0.0000000000E+00  5.4109777879E+00
                       0.0000000000E+00  2.0016683113E+00  1.4510777021E+00
            xcart      0.0000000000E+00  3.7826049172E+00  8.3583487482E+00
                       3.7826049172E+00  0.0000000000E+00  4.6090568366E+00
                       0.0000000000E+00  0.0000000000E+00  0.0000000000E+00
                       3.7826049172E+00  3.7826049172E+00  0.0000000000E+00
                       3.7826049172E+00  0.0000000000E+00  1.0225266130E+01
                       0.0000000000E+00  3.7826049172E+00  2.7421394546E+00
             xred      0.0000000000E+00  5.0000000000E-01  6.4456600000E-01
                       5.0000000000E-01  0.0000000000E+00  3.5543400000E-01
                       0.0000000000E+00  0.0000000000E+00  0.0000000000E+00
                       5.0000000000E-01  5.0000000000E-01  0.0000000000E+00
                       5.0000000000E-01  0.0000000000E+00  7.8853600000E-01
                       0.0000000000E+00  5.0000000000E-01  2.1146400000E-01
            znucl       11.00000   30.00000   15.00000

- Timing analysis has been suppressed with timopt=0

 Suggested references for the acknowledgment of ABINIT usage.

 Calculation completed.
.Delivered   6 WARNINGs and   5 COMMENTs to log file.