.Version 9.5.2 of ABINIT

 ABINIT is a project of the Universite Catholique de Louvain,
 Corning Inc. and other collaborators, see ~abinit/doc/developers/contributors.txt .
 acknowledgments of the ABINIT effort.

.Starting date : Mon 24 May 2021.
- ( at 10h51 )

- input  file    -> /scratch/users/j/a/jabreu/flow_simple_10atoms/flow/w264/t1/run.abi
- output file    -> /scratch/users/j/a/jabreu/flow_simple_10atoms/flow/w264/t1/run.abo
- root for input  files -> /scratch/users/j/a/jabreu/flow_simple_10atoms/flow/w264/t1/indata/in
- root for output files -> /scratch/users/j/a/jabreu/flow_simple_10atoms/flow/w264/t1/outdata/out

 Symmetries : space group R-3 c (#167); Bravais hR (rhombohedral)
     intxc =       0      iscf =       7    lmnmax =      18     lnmax =       6
     mgfft =      80  mpssoang =       3    mqgrid =    3001     natom =      10
  nloc_mem =       1    nspden =       1   nspinor =       1    nsppol =       1
      nsym =      12    n1xccc =    2501    ntypat =       3    occopt =       1
   xclevel =       2
-    mband =          51        mffmem =           1         mkmem =           2
-   mkqmem =           2        mk1mem =           2           mpw =       13404
      nfft =      512000          nkpt =           2
  Rough estimation (10% accuracy) of disk space for files :

------------- Echo of variables that govern the present computation ------------
-
- outvars: echo of selected default values
-   iomode0 =  0 , fftalg0 =512 , wfoptalg0 =  0
-
- outvars: echo of global parameters not present in the input file
-  max_nthreads =    0
-
 -outvars: echo values of preprocessed input variables --------
            acell      1.0000000000E+00  1.0000000000E+00  1.0000000000E+00 Bohr
              amu      1.12411000E+02  1.20110000E+01  1.59994000E+01
             ecut      5.10000000E+01 Hartree
-          fftalg         512
           irdden           1
           irdwfk           1
           istwfk        1    1
              ixc     -116133
              kpt      5.00000000E-01  5.00000000E-01  0.00000000E+00
                       0.00000000E+00  0.00000000E+00  0.00000000E+00
           kptopt           0
P           mkmem           2
P          mkqmem           2
P          mk1mem           2
            natom          10
            nband          51
           nbdbuf           4
            ngfft          80      80      80
             nkpt           2
            nstep        2000
             nsym          12
           ntypat           3
              occ      2.000000  2.000000  2.000000  2.000000  2.000000  2.000000
                       2.000000  2.000000  2.000000  2.000000  2.000000  2.000000
                       2.000000  2.000000  2.000000  2.000000  2.000000  2.000000
                       2.000000  2.000000  2.000000  2.000000  2.000000  2.000000
                       2.000000  2.000000  2.000000  2.000000  2.000000  2.000000
                       2.000000  2.000000  2.000000  2.000000  2.000000  2.000000
                       2.000000  2.000000  2.000000  2.000000  2.000000  2.000000
                       0.000000  0.000000  0.000000  0.000000  0.000000  0.000000
                       0.000000  0.000000  0.000000
        optdriver           1
            prtwf          -1
            rfdir           1       1       1
           rfelfd           2
            rprim      8.5382178237E+00  0.0000000000E+00  7.7353129812E+00
                       3.4298036189E+00  7.8190543380E+00  7.7353129812E+00
                       0.0000000000E+00  0.0000000000E+00  1.1521121062E+01
          spgroup         167
           symrel      1  0  0   0  1  0   0  0  1      -1  0  0   0 -1  0   0  0 -1
                       0  1  0   1  0  0   0  0  1       0 -1  0  -1  0  0   0  0 -1
                       0  0  1   1  0  0   0  1  0       0  0 -1  -1  0  0   0 -1  0
                       1  0  0   0  0  1   0  1  0      -1  0  0   0  0 -1   0 -1  0
                       0  1  0   0  0  1   1  0  0       0 -1  0   0  0 -1  -1  0  0
                       0  0  1   0  1  0   1  0  0       0  0 -1   0 -1  0  -1  0  0
            tnons      0.0000000  0.0000000  0.0000000     0.0000000 -0.0000000 -0.0000000
                       0.5000000  0.5000000  0.5000000     0.5000000  0.5000000  0.5000000
                       0.0000000  0.0000000 -0.0000000     0.0000000 -0.0000000 -0.0000000
                       0.5000000  0.5000000  0.5000000     0.5000000  0.5000000  0.5000000
                       0.0000000 -0.0000000 -0.0000000    -0.0000000  0.0000000 -0.0000000
                       0.5000000  0.5000000  0.5000000     0.5000000  0.5000000  0.5000000
           tolwfr      1.00000000E-20
            typat      1  1  2  2  3  3  3  3  3  3
           useylm           1
              wtk        0.50000    0.50000
           xangst      3.1666020897E+00  2.0688326742E+00  7.1417086726E+00
                       0.0000000000E+00  0.0000000000E+00  0.0000000000E+00
                       1.5833010448E+00  1.0344163371E+00  3.5708543363E+00
                       4.7499031345E+00  3.1032490113E+00  1.0712563009E+01
                       5.3959084188E+00  2.1144587100E+00  7.6642056673E+00
                       2.7626811386E+00  1.0344163371E+00  9.1446370939E+00
                       3.4086864230E+00  4.5626035797E-02  6.0962797522E+00
                       9.3729576051E-01  2.0232066384E+00  6.6192116780E+00
                       3.5705230407E+00  3.1032490113E+00  5.1387802514E+00
                       2.9245177564E+00  4.0920393126E+00  8.1871375931E+00
            xcart      5.9840107213E+00  3.9095271690E+00  1.3495873512E+01
                       0.0000000000E+00  0.0000000000E+00  0.0000000000E+00
                       2.9920053606E+00  1.9547635845E+00  6.7479367561E+00
                       8.9760160820E+00  5.8642907535E+00  2.0243810268E+01
                       1.0196789150E+01  3.9957478812E+00  1.4483249737E+01
                       5.2207107445E+00  1.9547635845E+00  1.7280859692E+01
                       6.4414838123E+00  8.6220712185E-02  1.1520299161E+01
                       1.7712322929E+00  3.8233064568E+00  1.2508497287E+01
                       6.7473106981E+00  5.8642907535E+00  9.7108873322E+00
                       5.5265376303E+00  7.7328336258E+00  1.5471447863E+01
             xred      5.0000000000E-01  5.0000000000E-01  5.0000000000E-01
                       0.0000000000E+00  0.0000000000E+00  0.0000000000E+00
                       2.5000000000E-01  2.5000000000E-01  2.5000000000E-01
                       7.5000000000E-01  7.5000000000E-01  7.5000000000E-01
                       9.8897300000E-01  5.1102700000E-01  2.5000000000E-01
                       5.1102700000E-01  2.5000000000E-01  9.8897300000E-01
                       7.5000000000E-01  1.1027000000E-02  4.8897300000E-01
                       1.1027000000E-02  4.8897300000E-01  7.5000000000E-01
                       4.8897300000E-01  7.5000000000E-01  1.1027000000E-02
                       2.5000000000E-01  9.8897300000E-01  5.1102700000E-01
            znucl       48.00000    6.00000    8.00000

 chkinp: Checking input parameters for consistency.

== DATASET  1 ==================================================================
-   mpi_nproc: 1, omp_nthreads: -1 (-1 if OMP is not activated)

--- !DatasetInfo
iteration_state: {dtset: 1, }
dimensions: {natom: 10, nkpt: 2, mband: 51, nsppol: 1, nspinor: 1, nspden: 1, mpw: 13404, }
cutoff_energies: {ecut:  51.0, pawecutdg:  -1.0, }
electrons: {nelect:   8.40000000E+01, charge:   0.00000000E+00, occopt:   1.00000000E+00, tsmear:   1.00000000E-02, }
meta: {optdriver: 1, rfelfd: 2, }
...

 Real(R)+Recip(G) space primitive vectors, cartesian coordinates (Bohr,Bohr^-1):
 R(1)=  8.5382178  0.0000000  7.7353130  G(1)=  0.1171205 -0.0513745  0.0000000
 R(2)=  3.4298036  7.8190543  7.7353130  G(2)=  0.0000000  0.1278927  0.0000000
 R(3)=  0.0000000  0.0000000 11.5211211  G(3)= -0.0786350 -0.0513745  0.0867971
 Unit cell volume ucvol=  7.6915913E+02 bohr^3
 Angles (23,13,12)=  4.78245736E+01  4.78245736E+01  4.78245736E+01 degrees

 getcut: wavevector=  0.0000  0.0000  0.0000  ngfft=  80  80  80
         ecut(hartree)=     51.000   => boxcut(ratio)=   2.15999

--- Pseudopotential description ------------------------------------------------
- pspini: atom type   1  psp file is /scratch/users/j/a/jabreu/pseudos/PBEsol/Cd.psp8
- pspatm: opening atomic psp file    /scratch/users/j/a/jabreu/pseudos/PBEsol/Cd.psp8
- Cd    ONCVPSP-3.3.0  r_core=   1.25838   1.30423   1.35174
- 48.00000  20.00000    180112                znucl, zion, pspdat
    8 -116133    2    4       600   0.00000   pspcod,pspxc,lmax,lloc,mmax,r2well
    5.99000000000000    6.00000000000000    0.00000000000000   rchrg,fchrg,qchrg
     nproj     2     2     2
     extension_switch     1
  pspatm : epsatm=   23.26728021
         --- l  ekb(1:nproj) -->
             0   63.701523    3.700425
             1    8.703569    1.290373
             2    0.983656   -0.721725
 pspatm: atomic psp has been read  and splines computed

- pspini: atom type   2  psp file is /scratch/users/j/a/jabreu/pseudos/PBEsol/C.psp8
- pspatm: opening atomic psp file    /scratch/users/j/a/jabreu/pseudos/PBEsol/C.psp8
- C     ONCVPSP-3.3.0  r_core=   1.20440   1.26326
-  6.00000   4.00000    180112                znucl, zion, pspdat
    8 -116133    1    4       600   0.00000   pspcod,pspxc,lmax,lloc,mmax,r2well
    5.99000000000000    4.00000000000000    0.00000000000000   rchrg,fchrg,qchrg
     nproj     2     2
     extension_switch     1
  pspatm : epsatm=    4.34909529
         --- l  ekb(1:nproj) -->
             0    6.468939    0.390031
             1   -4.179695   -0.878453
 pspatm: atomic psp has been read  and splines computed

- pspini: atom type   3  psp file is /scratch/users/j/a/jabreu/pseudos/PBEsol/O.psp8
- pspatm: opening atomic psp file    /scratch/users/j/a/jabreu/pseudos/PBEsol/O.psp8
- O     ONCVPSP-3.3.0  r_core=   1.35509   1.45563   1.26150
-  8.00000   6.00000    180112                znucl, zion, pspdat
    8 -116133    2    4       600   0.00000   pspcod,pspxc,lmax,lloc,mmax,r2well
    5.99000000000000    4.00000000000000    0.00000000000000   rchrg,fchrg,qchrg
     nproj     2     2     1
     extension_switch     1
  pspatm : epsatm=    6.22910522
         --- l  ekb(1:nproj) -->
             0    6.050032    0.820363
             1   -4.739617   -1.153841
             2   -1.335834
 pspatm: atomic psp has been read  and splines computed

   7.77902011E+03                                ecore*ucvol(ha*bohr**3)

 ==>  initialize data related to q vector <==

 The list of irreducible perturbations for this q vector is:
    1)    idir= 1    ipert=  11
    2)    idir= 2    ipert=  11
    3)    idir= 3    ipert=  11

 Perturbation wavevector (in red.coord.)   0.000000  0.000000  0.000000
 Perturbation : derivative vs k along direction   1

 dfpt_looppert : COMMENT -
  In a d/dk calculation, iscf is set to -3 automatically.
 The set of symmetries contains only one element for this perturbation.
[...]
   0.00000    0.00000   -0.00000   -0.00000   -0.00000    0.00000    0.00000   -0.00000
  -0.00000    0.00000   -0.00000   -0.00000    0.00000   -0.00000   -0.00000   -0.00000
  -0.00000    0.00000   -0.00000   -0.00000    0.00000   -0.00000   -0.00000    0.00000
   0.00000   -0.00000    0.00000   -0.00000    0.00000    0.00000   -0.00000    0.00000
   0.00000    0.00000   -0.00000   -0.00000   -0.00000    0.00000   -0.00000   -0.00000
   0.00000   -0.00000    0.00010
 prteigrs : prtvol=0 or 1, do not print more k-points.

 Eight components of 2nd-order total energy (hartree) are
 1,2,3: 0th-order hamiltonian combined with 1st-order wavefunctions
     kin0=   9.20294967E+01 eigvalue=   1.57282133E+00  local=  -4.39433876E+01
 4,5,6: 1st-order hamiltonian combined with 1st and 0th-order wfs
     kin1=  -1.11546276E+02  Hartree=   0.00000000E+00     xc=   0.00000000E+00
 7,8,9: eventually, occupation + non-local contributions
    edocc=   9.52494313E+00     enl0=  -2.53909578E+00   enl1=  -1.74327968E+00
 1-9 gives the relaxation energy (to be shifted if some occ is /=2.0)
   erelax=  -5.66447778E+01
  No Ewald or frozen-wf contrib.: the relaxation energy is the total one
 2DEtotal=   -0.5664477783E+02 Ha. Also 2DEtotal=   -0.154138279313E+04 eV
    (  non-var. 2DEtotal :   -5.6644777827E+01 Ha)

 Perturbation wavevector (in red.coord.)   0.000000  0.000000  0.000000
 Perturbation : derivative vs k along direction   2
 The set of symmetries contains only one element for this perturbation.
 symkpt : not enough symmetry to change the number of k points.

[...]

 Perturbation wavevector (in red.coord.)   0.000000  0.000000  0.000000
 Perturbation : derivative vs k along direction   3
 The set of symmetries contains only one element for this perturbation.
 symkpt : not enough symmetry to change the number of k points.

 Initialisation of the first-order wave-functions :
  ireadwf=   0

--- !BeginCycle
iteration_state: {dtset: 1, }
solver: {iscf: 7, nstep: 2000, nline: 4, wfoptalg: 0, }
tolerances: {tolwfr: 1.00E-20, }
...

     iter   2DEtotal(Ha)        deltaE(Ha) residm    vres2
-ETOT  1  -55.962569638330     -5.596E+01 6.421E-02 0.000E+00
 ETOT  2  -56.081383116361     -1.188E-01 9.611E-03 0.000E+00
 ETOT  3  -56.083212523513     -1.829E-03 1.069E-04 0.000E+00
 ETOT  4  -56.083253824955     -4.130E-05 2.522E-05 0.000E+00
 ETOT  5  -56.083254958196     -1.133E-06 1.676E-06 0.000E+00
 ETOT  6  -56.083254992996     -3.480E-08 2.074E-06 0.000E+00
 ETOT  7  -56.083254994166     -1.170E-09 1.034E-07 0.000E+00
 ETOT  8  -56.083254994209     -4.240E-11 2.002E-07 0.000E+00
 ETOT  9  -56.083254994210     -1.620E-12 1.161E-08 0.000E+00
 ETOT 10  -56.083254994210     -2.842E-14 2.311E-08 0.000E+00
 ETOT 11  -56.083254994210      3.553E-14 1.383E-09 0.000E+00
 ETOT 12  -56.083254994210      4.263E-14 2.707E-09 0.000E+00
 ETOT 13  -56.083254994210      2.132E-14 1.656E-10 0.000E+00
 ETOT 14  -56.083254994210      1.421E-14 3.188E-10 0.000E+00
 ETOT 15  -56.083254994210      0.000E+00 1.984E-11 0.000E+00
 ETOT 16  -56.083254994210      0.000E+00 3.770E-11 0.000E+00
 ETOT 17  -56.083254994210      1.421E-14 2.378E-12 0.000E+00
 ETOT 18  -56.083254994210     -2.842E-14 4.469E-12 0.000E+00
 ETOT 19  -56.083254994210     -1.421E-14 2.848E-13 0.000E+00
 ETOT 20  -56.083254994210      1.421E-14 5.308E-13 0.000E+00
 ETOT 21  -56.083254994210      1.421E-14 3.410E-14 0.000E+00
 ETOT 22  -56.083254994210      0.000E+00 6.314E-14 0.000E+00
 ETOT 23  -56.083254994210      0.000E+00 4.082E-15 0.000E+00
 ETOT 24  -56.083254994210     -7.105E-15 7.520E-15 0.000E+00
 ETOT 25  -56.083254994210     -1.421E-14 4.887E-16 0.000E+00
 ETOT 26  -56.083254994210      7.105E-15 8.966E-16 0.000E+00
 ETOT 27  -56.083254994210     -2.132E-14 5.849E-17 0.000E+00
 ETOT 28  -56.083254994210      2.842E-14 1.070E-16 0.000E+00
 ETOT 29  -56.083254994210      0.000E+00 7.002E-18 0.000E+00
 ETOT 30  -56.083254994210      1.421E-14 1.278E-17 0.000E+00
 ETOT 31  -56.083254994210      0.000E+00 8.384E-19 0.000E+00
 ETOT 32  -56.083254994210     -3.553E-14 1.527E-18 0.000E+00
 ETOT 33  -56.083254994210      7.105E-15 1.004E-19 0.000E+00
 ETOT 34  -56.083254994210      7.105E-15 1.826E-19 0.000E+00
 ETOT 35  -56.083254994210     -7.105E-15 1.203E-20 0.000E+00
 ETOT 36  -56.083254994210      2.842E-14 9.828E-21 0.000E+00

 At SCF step   36   max residual=  9.83E-21 < tolwfr=  1.00E-20 =>converged.

 ----iterations are completed or convergence reached----

 dfpt_looppert: DFPT cycle converged with prtwf=-1. Will skip output of the 1st-order WFK file.
 dfpt_looppert : ek2=    1.0848271755E+02
          f-sum rule ratio=    1.0161225817E+00
 prteigrs : about to open file /scratch/users/j/a/jabreu/flow_simple_10atoms/flow/w264/t1/tmpdata/tmp_1WF1_EIG
 Expectation of eigenvalue derivatives (hartree) for nkpt=   2  k points:
  (in case of degenerate eigenvalues, averaged derivative)
 kpt#   1, nband= 51, wtk=  0.50000, kpt=  0.5000  0.5000  0.0000 (reduced coord)
  -0.00000    0.00000    0.00000    0.00000    0.00000    0.00000   -0.00000    0.00000
  -0.00000   -0.00000   -0.00000    0.00000   -0.00000   -0.00000   -0.00000    0.00000
   0.00000   -0.00000    0.00000   -0.00000   -0.00000    0.00000    0.00000    0.00000
   0.00000   -0.00000    0.00000   -0.00000   -0.00000    0.00000    0.00000   -0.00000
   0.00000    0.00000   -0.00000   -0.00000   -0.00000   -0.00000   -0.00000    0.00000
   0.00000   -0.00000    0.00000   -0.00000   -0.00000   -0.00000   -0.00000    0.00000
  -0.00000   -0.00000   -0.00002
 prteigrs : prtvol=0 or 1, do not print more k-points.

 Eight components of 2nd-order total energy (hartree) are
 1,2,3: 0th-order hamiltonian combined with 1st-order wavefunctions
     kin0=   9.16471807E+01 eigvalue=   1.56256947E+00  local=  -4.35313742E+01
 4,5,6: 1st-order hamiltonian combined with 1st and 0th-order wfs
     kin1=  -1.10231739E+02  Hartree=   0.00000000E+00     xc=   0.00000000E+00
 7,8,9: eventually, occupation + non-local contributions
    edocc=   8.99145422E+00     enl0=  -2.58657519E+00   enl1=  -1.93477097E+00
 1-9 gives the relaxation energy (to be shifted if some occ is /=2.0)
   erelax=  -5.60832550E+01
  No Ewald or frozen-wf contrib.: the relaxation energy is the total one
 2DEtotal=   -0.5608325499E+02 Ha. Also 2DEtotal=   -0.152610297977E+04 eV
    (  non-var. 2DEtotal :   -5.6083254994E+01 Ha)

 CALCULATION OF EFFECTIVE MASSES
 NOTE : Additional infos (eff. mass eigenvalues, eigenvectors and, if degenerate, average mass) are available in stdout.

 K-point ( 0.500, 0.500, 0.000) | band =    42
 Effective mass tensor:
             -2.6539354423              0.9046376801             -1.1866511076
              0.9046376801             -3.4467048805             -0.7754730333
             -1.1866511076             -0.7754730333             -2.3008356938
 Effective mass tensor eigenvalues:
             -4.0379892432             -3.6043052366             -0.7591815368
 Angular average effective mass 1/(<1/m>)=  -1.6283975170
 Angular average effective mass for Frohlich model (<m**0.5>)**2=  -1.9821997689
 Effective masses along directions: (cart. coord. / red. coord. -> eff. mass)
    1:   1.000000  0.000000  0.000000 /   0.927932  0.372750  0.000000 ->  -1.5076169197
    2:   0.000000  1.000000  0.000000 /   0.000000  1.000000  0.000000 ->  -2.3518383232
    3:   0.000000  0.000000  1.000000 /   0.486887  0.486887  0.725178 ->  -1.3266043896
    4:   0.577350  0.577350  0.577350 /   0.591096  0.689553  0.418476 ->  -3.1529898528
    5:   0.000000  0.707107  0.707107 /   0.371089  0.746196  0.552707 ->  -3.2670713523
    6:   0.707107  0.000000  0.707107 /   0.712120  0.488579  0.504158 ->  -3.6377355037
    7:   0.707107  0.707107  0.000000 /   0.604593  0.796534  0.000000 ->  -1.2256267252

 K-point ( 0.000, 0.000, 0.000) | band =    43
 Effective mass tensor:
              0.6958785772              0.1705682560              0.5888097111
              0.1705682560              0.5462401277              0.3846864022
              0.5888097111              0.3846864022              1.7627586997
 Effective mass tensor eigenvalues:
              0.4348029503              0.4348029604              2.1352714939
 Angular average effective mass 1/(<1/m>)=   0.5919367251
 Angular average effective mass for Frohlich model (<m**0.5>)**2=   0.6637964494
 Effective masses along directions: (cart. coord. / red. coord. -> eff. mass)
    1:   1.000000  0.000000  0.000000 /   0.927932  0.372750  0.000000 ->   0.4953710357
    2:   0.000000  1.000000  0.000000 /   0.000000  1.000000  0.000000 ->   0.4587442513
    3:   0.000000  0.000000  1.000000 /   0.486887  0.486887  0.725178 ->   1.1500114533
    4:   0.577350  0.577350  0.577350 /   0.591096  0.689553  0.418476 ->   1.1522618146
    5:   0.000000  0.707107  0.707107 /   0.371089  0.746196  0.552707 ->   0.9006039288
    6:   0.707107  0.000000  0.707107 /   0.712120  0.488579  0.504158 ->   1.2346926887
    7:   0.707107  0.707107  0.000000 /   0.604593  0.796534  0.000000 ->   0.5220411099

 END OF EFFECTIVE MASSES SECTION

 ---- first-order wavefunction calculations are completed ----

 Total localisation tensor (bohr^2) in cartesian coordinates
  WARNING : still subject to testing - especially symmetries.
      direction              matrix element
   alpha     beta       real part   imaginary part
     1        1       0.7937088422    0.0000000000
     1        2       0.2514162383    0.0000000000
     1        3       0.8678824552    0.0000000000
     2        1       0.2514162383    0.0000000000
     2        2       0.5731632032    0.0000000000
     2        3       0.5670246777    0.0000000000
     3        1       0.8678824552    0.0000000000
     3        2       0.5670246777    0.0000000000
     3        3       2.3179989367    0.0000000000

 respfn : d/dk was computed, but no 2DTE, so no DDB output.

== END DATASET(S) ==============================================================

 -outvars: echo values of variables after computation  --------
            acell      1.0000000000E+00  1.0000000000E+00  1.0000000000E+00 Bohr
              amu      1.12411000E+02  1.20110000E+01  1.59994000E+01
             ecut      5.10000000E+01 Hartree
           etotal     -5.6083254994E+01
            fcart      0.0000000000E+00  0.0000000000E+00  0.0000000000E+00
                       0.0000000000E+00  0.0000000000E+00  0.0000000000E+00
                       0.0000000000E+00  0.0000000000E+00  0.0000000000E+00
                       0.0000000000E+00  0.0000000000E+00  0.0000000000E+00
                       0.0000000000E+00  0.0000000000E+00  0.0000000000E+00
                       0.0000000000E+00  0.0000000000E+00  0.0000000000E+00
                       0.0000000000E+00  0.0000000000E+00  0.0000000000E+00
                       0.0000000000E+00  0.0000000000E+00  0.0000000000E+00
                       0.0000000000E+00  0.0000000000E+00  0.0000000000E+00
                       0.0000000000E+00  0.0000000000E+00  0.0000000000E+00
-          fftalg         512
           irdden           1
           irdwfk           1
           istwfk        1    1
              ixc     -116133
              kpt      5.00000000E-01  5.00000000E-01  0.00000000E+00
                       0.00000000E+00  0.00000000E+00  0.00000000E+00
           kptopt           0
P           mkmem           2
P          mkqmem           2
P          mk1mem           2
            natom          10
            nband          51
           nbdbuf           4
            ngfft          80      80      80
             nkpt           2
            nstep        2000
             nsym          12
           ntypat           3
              occ      2.000000  2.000000  2.000000  2.000000  2.000000  2.000000
                       2.000000  2.000000  2.000000  2.000000  2.000000  2.000000
                       2.000000  2.000000  2.000000  2.000000  2.000000  2.000000
                       2.000000  2.000000  2.000000  2.000000  2.000000  2.000000
                       2.000000  2.000000  2.000000  2.000000  2.000000  2.000000
                       2.000000  2.000000  2.000000  2.000000  2.000000  2.000000
                       2.000000  2.000000  2.000000  2.000000  2.000000  2.000000
                       0.000000  0.000000  0.000000  0.000000  0.000000  0.000000
                       0.000000  0.000000  0.000000
        optdriver           1
            prtwf          -1
            rfdir           1       1       1
           rfelfd           2
            rprim      8.5382178237E+00  0.0000000000E+00  7.7353129812E+00
                       3.4298036189E+00  7.8190543380E+00  7.7353129812E+00
                       0.0000000000E+00  0.0000000000E+00  1.1521121062E+01
          spgroup         167
           strten      0.0000000000E+00  0.0000000000E+00  0.0000000000E+00
                       0.0000000000E+00  0.0000000000E+00  0.0000000000E+00
           symrel      1  0  0   0  1  0   0  0  1      -1  0  0   0 -1  0   0  0 -1
                       0  1  0   1  0  0   0  0  1       0 -1  0  -1  0  0   0  0 -1
                       0  0  1   1  0  0   0  1  0       0  0 -1  -1  0  0   0 -1  0
                       1  0  0   0  0  1   0  1  0      -1  0  0   0  0 -1   0 -1  0
                       0  1  0   0  0  1   1  0  0       0 -1  0   0  0 -1  -1  0  0
                       0  0  1   0  1  0   1  0  0       0  0 -1   0 -1  0  -1  0  0
            tnons      0.0000000  0.0000000  0.0000000     0.0000000 -0.0000000 -0.0000000
                       0.5000000  0.5000000  0.5000000     0.5000000  0.5000000  0.5000000
                       0.0000000  0.0000000 -0.0000000     0.0000000 -0.0000000 -0.0000000
                       0.5000000  0.5000000  0.5000000     0.5000000  0.5000000  0.5000000
                       0.0000000 -0.0000000 -0.0000000    -0.0000000  0.0000000 -0.0000000
                       0.5000000  0.5000000  0.5000000     0.5000000  0.5000000  0.5000000
           tolwfr      1.00000000E-20
            typat      1  1  2  2  3  3  3  3  3  3
           useylm           1
              wtk        0.50000    0.50000
           xangst      3.1666020897E+00  2.0688326742E+00  7.1417086726E+00
                       0.0000000000E+00  0.0000000000E+00  0.0000000000E+00
                       1.5833010448E+00  1.0344163371E+00  3.5708543363E+00
                       4.7499031345E+00  3.1032490113E+00  1.0712563009E+01
                       5.3959084188E+00  2.1144587100E+00  7.6642056673E+00
                       2.7626811386E+00  1.0344163371E+00  9.1446370939E+00
                       3.4086864230E+00  4.5626035797E-02  6.0962797522E+00
                       9.3729576051E-01  2.0232066384E+00  6.6192116780E+00
                       3.5705230407E+00  3.1032490113E+00  5.1387802514E+00
                       2.9245177564E+00  4.0920393126E+00  8.1871375931E+00
            xcart      5.9840107213E+00  3.9095271690E+00  1.3495873512E+01
                       0.0000000000E+00  0.0000000000E+00  0.0000000000E+00
                       2.9920053606E+00  1.9547635845E+00  6.7479367561E+00
                       8.9760160820E+00  5.8642907535E+00  2.0243810268E+01
                       1.0196789150E+01  3.9957478812E+00  1.4483249737E+01
                       5.2207107445E+00  1.9547635845E+00  1.7280859692E+01
                       6.4414838123E+00  8.6220712185E-02  1.1520299161E+01
                       1.7712322929E+00  3.8233064568E+00  1.2508497287E+01
                       6.7473106981E+00  5.8642907535E+00  9.7108873322E+00
                       5.5265376303E+00  7.7328336258E+00  1.5471447863E+01
             xred      5.0000000000E-01  5.0000000000E-01  5.0000000000E-01
                       0.0000000000E+00  0.0000000000E+00  0.0000000000E+00
                       2.5000000000E-01  2.5000000000E-01  2.5000000000E-01
                       7.5000000000E-01  7.5000000000E-01  7.5000000000E-01
                       9.8897300000E-01  5.1102700000E-01  2.5000000000E-01
                       5.1102700000E-01  2.5000000000E-01  9.8897300000E-01
                       7.5000000000E-01  1.1027000000E-02  4.8897300000E-01
                       1.1027000000E-02  4.8897300000E-01  7.5000000000E-01
                       4.8897300000E-01  7.5000000000E-01  1.1027000000E-02
                       2.5000000000E-01  9.8897300000E-01  5.1102700000E-01
            znucl       48.00000    6.00000    8.00000

- Timing analysis has been suppressed with timopt=0

 Suggested references for the acknowledgment of ABINIT usage.

 Calculation completed.
.Delivered   2 WARNINGs and   5 COMMENTs to log file.