.Version 9.5.2 of ABINIT

 ABINIT is a project of the Universite Catholique de Louvain,
 Corning Inc. and other collaborators, see ~abinit/doc/developers/contributors.txt .
 acknowledgments of the ABINIT effort.

.Starting date : Wed 26 May 2021.
- ( at 02h30 )

- input  file    -> /scratch/users/j/a/jabreu/flow_simple_11atoms/flow/w238/t1/run.abi
- output file    -> /scratch/users/j/a/jabreu/flow_simple_11atoms/flow/w238/t1/run.abo
- root for input  files -> /scratch/users/j/a/jabreu/flow_simple_11atoms/flow/w238/t1/indata/in
- root for output files -> /scratch/users/j/a/jabreu/flow_simple_11atoms/flow/w238/t1/outdata/out

 Symmetries : space group I4_1/a m d (#141); Bravais tI (body-center tetrag.)
     intxc =       0      iscf =       7    lmnmax =      32     lnmax =       8
     mgfft =      64  mpssoang =       4    mqgrid =    3001     natom =      12
  nloc_mem =       1    nspden =       1   nspinor =       1    nsppol =       1
      nsym =      16    n1xccc =    2501    ntypat =       3    occopt =       1
   xclevel =       2
-    mband =          49        mffmem =           1         mkmem =           2
-   mkqmem =           2        mk1mem =           2           mpw =       12133
      nfft =      262144          nkpt =           2
  Rough estimation (10% accuracy) of disk space for files :

------------- Echo of variables that govern the present computation ------------
-
- outvars: echo of selected default values
-   iomode0 =  0 , fftalg0 =512 , wfoptalg0 =  0
-
- outvars: echo of global parameters not present in the input file
-  max_nthreads =    0
-
 -outvars: echo values of preprocessed input variables --------
            acell      1.0000000000E+00  1.0000000000E+00  1.0000000000E+00 Bohr
              amu      1.78490000E+02  2.80855000E+01  1.59994000E+01
             ecut      4.40000000E+01 Hartree
-          fftalg         512
           irdden           1
           irdwfk           1
              ixc     -116133
              kpt      4.71976313E-02  4.71976313E-02 -4.71976313E-02
                       2.74749252E-01  2.74749252E-01  1.65250748E-01
           kptopt           0
P           mkmem           2
P          mkqmem           2
P          mk1mem           2
            natom          12
            nband          49
           nbdbuf           4
            ngfft          64      64      64
             nkpt           2
            nstep        2000
             nsym          16
           ntypat           3
              occ      2.000000  2.000000  2.000000  2.000000  2.000000  2.000000
                       2.000000  2.000000  2.000000  2.000000  2.000000  2.000000
                       2.000000  2.000000  2.000000  2.000000  2.000000  2.000000
                       2.000000  2.000000  2.000000  2.000000  2.000000  2.000000
                       2.000000  2.000000  2.000000  2.000000  2.000000  2.000000
                       2.000000  2.000000  2.000000  2.000000  2.000000  2.000000
                       2.000000  2.000000  2.000000  2.000000  0.000000  0.000000
                       0.000000  0.000000  0.000000  0.000000  0.000000  0.000000
                       0.000000
        optdriver           1
            prtwf          -1
            rfdir           1       1       1
           rfelfd           2
            rprim      9.9650020355E+00  0.0000000000E+00 -3.0427043494E+00
                      -5.4603496591E+00  8.3358171266E+00 -3.0427043494E+00
                       0.0000000000E+00  0.0000000000E+00  1.0419180166E+01
          spgroup         141
           symrel      1  0  0   0  1  0   0  0  1      -1  0  0   0 -1  0   0  0 -1
                      -1 -1 -1   0  0  1   0  1  0       1  1  1   0  0 -1   0 -1  0
                       0  1  0   1  0  0  -1 -1 -1       0 -1  0  -1  0  0   1  1  1
                       0  0  1  -1 -1 -1   1  0  0       0  0 -1   1  1  1  -1  0  0
                       0  1  0   1  0  0   0  0  1       0 -1  0  -1  0  0   0  0 -1
                      -1 -1 -1   0  0  1   1  0  0       1  1  1   0  0 -1  -1  0  0
                       1  0  0   0  1  0  -1 -1 -1      -1  0  0   0 -1  0   1  1  1
                       0  0  1  -1 -1 -1   0  1  0       0  0 -1   1  1  1   0 -1  0
            tnons      0.0000000  0.0000000  0.0000000     0.2500000 -0.2500000  0.5000000
                       0.2500000 -0.2500000  0.5000000     0.0000000  0.0000000  0.0000000
                       0.0000000  0.0000000  0.0000000     0.2500000 -0.2500000  0.5000000
                       0.2500000 -0.2500000  0.5000000     0.0000000  0.0000000  0.0000000
                       0.2500000 -0.2500000  0.5000000     0.0000000  0.0000000  0.0000000
                       0.0000000  0.0000000  0.0000000     0.2500000 -0.2500000  0.5000000
                       0.2500000 -0.2500000  0.5000000     0.0000000  0.0000000  0.0000000
                       0.0000000  0.0000000  0.0000000     0.2500000 -0.2500000  0.5000000
           tolwfr      1.00000000E-20
            typat      1  1  2  2  3  3  3  3  3  3  3  3
           useylm           1
              wtk        0.50000    0.50000
           xangst      0.0000000000E+00  0.0000000000E+00  0.0000000000E+00
                      -8.4880645271E-01  3.3083433288E+00  1.1466665438E+00
                       3.2325658229E+00  1.1027811096E+00  1.1466665438E+00
                       1.1918796851E+00  2.2055622192E+00 -1.6101297942E+00
                       1.2934211844E+00  5.8720226855E-01  3.7662888067E+00
                       1.8231526954E+00  3.0093683422E-01  1.0094924688E+00
                       3.7753501207E+00  3.0093683422E-01  2.4545837035E+00
                       2.2370935614E-01  2.2202336191E+00 -3.0221263440E-01
                       2.6012928126E+00  3.0074064946E+00 -1.4729557192E+00
                       3.1310243237E+00  2.7211410602E+00  1.2838406188E+00
                       4.2007361519E+00  1.0881097097E+00 -1.6125061602E-01
                       6.4909538734E-01  3.0074064946E+00  2.5955457219E+00
            xcart      0.0000000000E+00  0.0000000000E+00  0.0000000000E+00
                      -1.6040117355E+00  6.2518628450E+00  2.1668857335E+00
                       6.1086641118E+00  2.0839542817E+00  2.1668857335E+00
                       2.2523261882E+00  4.1679085633E+00 -3.0427043494E+00
                       2.4442118129E+00  1.1096514722E+00  7.1172543820E+00
                       3.4452592928E+00  5.6868819997E-01  1.9076642992E+00
                       7.1343777839E+00  5.6868819997E-01  4.6384909699E+00
                       4.2274941648E-01  4.1956334911E+00 -5.7109911292E-01
                       4.9157310072E+00  5.6831746450E+00 -2.7834829151E+00
                       5.9167784872E+00  5.1422113728E+00  2.4261071677E+00
                       7.9382408836E+00  2.0562293539E+00 -3.0471950303E-01
                       1.2266125162E+00  5.6831746450E+00  4.9048705798E+00
             xred      0.0000000000E+00  0.0000000000E+00  0.0000000000E+00
                       2.5000000000E-01  7.5000000000E-01  5.0000000000E-01
                       7.5000000000E-01  2.5000000000E-01  5.0000000000E-01
                       5.0000000000E-01  5.0000000000E-01  1.3877787808E-17
                       3.1822225000E-01  1.3311850000E-01  8.1489625000E-01
                       3.8311850000E-01  6.8222250000E-02  3.1489625000E-01
                       7.5332600000E-01  6.8222250000E-02  6.8510375000E-01
                       3.1822225000E-01  5.0332600000E-01  1.8510375000E-01
                       8.6688150000E-01  6.8177775000E-01  1.8510375000E-01
                       9.3177775000E-01  6.1688150000E-01  6.8510375000E-01
                       9.3177775000E-01  2.4667400000E-01  3.1489625000E-01
                       4.9667400000E-01  6.8177775000E-01  8.1489625000E-01
            znucl       72.00000   14.00000    8.00000

 chkinp: Checking input parameters for consistency.

== DATASET  1 ==================================================================
-   mpi_nproc: 1, omp_nthreads: -1 (-1 if OMP is not activated)

--- !DatasetInfo
iteration_state: {dtset: 1, }
dimensions: {natom: 12, nkpt: 2, mband: 49, nsppol: 1, nspinor: 1, nspden: 1, mpw: 12133, }
cutoff_energies: {ecut:  44.0, pawecutdg:  -1.0, }
electrons: {nelect:   8.00000000E+01, charge:   0.00000000E+00, occopt:   1.00000000E+00, tsmear:   1.00000000E-02, }
meta: {optdriver: 1, rfelfd: 2, }
...

 Real(R)+Recip(G) space primitive vectors, cartesian coordinates (Bohr,Bohr^-1):
 R(1)=  9.9650020  0.0000000 -3.0427043  G(1)=  0.1003512  0.0657347  0.0000000
 R(2)= -5.4603497  8.3358171 -3.0427043  G(2)=  0.0000000  0.1199642  0.0000000
 R(3)=  0.0000000  0.0000000 10.4191802  G(3)=  0.0293055  0.0542295  0.0959768
 Unit cell volume ucvol=  8.6548415E+02 bohr^3
 Angles (23,13,12)=  1.06979478E+02  1.06979478E+02  1.14578634E+02 degrees

 getcut: wavevector=  0.0000  0.0000  0.0000  ngfft=  64  64  64
         ecut(hartree)=     44.000   => boxcut(ratio)=   2.05757

--- Pseudopotential description ------------------------------------------------
- pspini: atom type   1  psp file is /scratch/users/j/a/jabreu/pseudos/PBEsol/Hf.psp8
- pspatm: opening atomic psp file    /scratch/users/j/a/jabreu/pseudos/PBEsol/Hf.psp8
- Hf    ONCVPSP-3.3.0  r_core=   1.71613   1.71613   1.71613   2.42541
- 72.00000  12.00000    180112                znucl, zion, pspdat
    8 -116133    3    4       600   0.00000   pspcod,pspxc,lmax,lloc,mmax,r2well
    5.99000000000000    5.40000000000000    0.00000000000000   rchrg,fchrg,qchrg
     nproj     2     2     2     2
     extension_switch     1
  pspatm : epsatm=   21.99082902
         --- l  ekb(1:nproj) -->
             0    5.882750   -0.519107
             1    2.555685   -1.768609
             2    1.383259    0.138001
             3    9.464546    0.347497
 pspatm: atomic psp has been read  and splines computed

- pspini: atom type   2  psp file is /scratch/users/j/a/jabreu/pseudos/PBEsol/Si.psp8
- pspatm: opening atomic psp file    /scratch/users/j/a/jabreu/pseudos/PBEsol/Si.psp8
- Si    ONCVPSP-3.3.0  r_core=   1.60303   1.72197   1.91712
- 14.00000   4.00000    180112                znucl, zion, pspdat
    8 -116133    2    4       600   0.00000   pspcod,pspxc,lmax,lloc,mmax,r2well
    5.99000000000000    4.00000000000000    0.00000000000000   rchrg,fchrg,qchrg
     nproj     2     2     2
     extension_switch     1
  pspatm : epsatm=    7.86468782
         --- l  ekb(1:nproj) -->
             0    5.384426    0.843824
             1    2.663259    0.615854
             2   -2.267219   -0.458043
 pspatm: atomic psp has been read  and splines computed

- pspini: atom type   3  psp file is /scratch/users/j/a/jabreu/pseudos/PBEsol/O.psp8
- pspatm: opening atomic psp file    /scratch/users/j/a/jabreu/pseudos/PBEsol/O.psp8
- O     ONCVPSP-3.3.0  r_core=   1.35509   1.45563   1.26150
-  8.00000   6.00000    180112                znucl, zion, pspdat
    8 -116133    2    4       600   0.00000   pspcod,pspxc,lmax,lloc,mmax,r2well
    5.99000000000000    4.00000000000000    0.00000000000000   rchrg,fchrg,qchrg
[...]
     kin0=   6.85124507E+01 eigvalue=  -7.84051861E-01  local=  -3.10208753E+01
 4,5,6: 1st-order hamiltonian combined with 1st and 0th-order wfs
     kin1=  -9.21875154E+01  Hartree=   0.00000000E+00     xc=   0.00000000E+00
 7,8,9: eventually, occupation + non-local contributions
    edocc=   1.18727497E+01     enl0=  -1.16676242E+00   enl1=  -2.63950617E+00
 1-9 gives the relaxation energy (to be shifted if some occ is /=2.0)
   erelax=  -4.74135108E+01
  No Ewald or frozen-wf contrib.: the relaxation energy is the total one
 2DEtotal=   -0.4741351078E+02 Ha. Also 2DEtotal=   -0.129018724207E+04 eV
    (  non-var. 2DEtotal :   -4.7413510783E+01 Ha)

 Perturbation wavevector (in red.coord.)   0.000000  0.000000  0.000000
 Perturbation : derivative vs k along direction   2
 The set of symmetries contains only one element for this perturbation.
 symkpt : not enough symmetry to change the number of k points.

[...]

 Perturbation wavevector (in red.coord.)   0.000000  0.000000  0.000000
 Perturbation : derivative vs k along direction   3
 The set of symmetries contains only one element for this perturbation.
 symkpt : not enough symmetry to change the number of k points.

 Initialisation of the first-order wave-functions :
  ireadwf=   0

--- !BeginCycle
iteration_state: {dtset: 1, }
solver: {iscf: 7, nstep: 2000, nline: 4, wfoptalg: 0, }
tolerances: {tolwfr: 1.00E-20, }
...

     iter   2DEtotal(Ha)        deltaE(Ha) residm    vres2
-ETOT  1  -43.236482855935     -4.324E+01 9.386E-02 0.000E+00
 ETOT  2  -43.329394527833     -9.291E-02 3.540E-02 0.000E+00
 ETOT  3  -43.330275186193     -8.807E-04 7.758E-04 0.000E+00
 ETOT  4  -43.330287669708     -1.248E-05 5.562E-04 0.000E+00
 ETOT  5  -43.330287876182     -2.065E-07 2.986E-05 0.000E+00
 ETOT  6  -43.330287879918     -3.736E-09 2.392E-05 0.000E+00
 ETOT  7  -43.330287879990     -7.195E-11 1.434E-06 0.000E+00
 ETOT  8  -43.330287879992     -1.471E-12 1.213E-06 0.000E+00
 ETOT  9  -43.330287879992      7.105E-15 7.426E-08 0.000E+00
 ETOT 10  -43.330287879992      6.395E-14 6.651E-08 0.000E+00
 ETOT 11  -43.330287879992     -2.842E-14 4.073E-09 0.000E+00
 ETOT 12  -43.330287879992      2.842E-14 3.828E-09 0.000E+00
 ETOT 13  -43.330287879992     -2.132E-14 2.330E-10 0.000E+00
 ETOT 14  -43.330287879992     -2.132E-14 2.264E-10 0.000E+00
 ETOT 15  -43.330287879992      0.000E+00 1.367E-11 0.000E+00
 ETOT 16  -43.330287879992      0.000E+00 1.356E-11 0.000E+00
 ETOT 17  -43.330287879992      2.842E-14 8.139E-13 0.000E+00
 ETOT 18  -43.330287879992     -2.132E-14 8.184E-13 0.000E+00
 ETOT 19  -43.330287879992     -7.105E-15 4.883E-14 0.000E+00
 ETOT 20  -43.330287879992      0.000E+00 4.954E-14 0.000E+00
 ETOT 21  -43.330287879992      0.000E+00 2.943E-15 0.000E+00
 ETOT 22  -43.330287879992      1.421E-14 3.005E-15 0.000E+00
 ETOT 23  -43.330287879992      0.000E+00 2.068E-16 0.000E+00
 ETOT 24  -43.330287879992      0.000E+00 1.824E-16 0.000E+00
 ETOT 25  -43.330287879992      0.000E+00 2.041E-17 0.000E+00
 ETOT 26  -43.330287879992      1.421E-14 1.109E-17 0.000E+00
 ETOT 27  -43.330287879992     -1.421E-14 2.085E-18 0.000E+00
 ETOT 28  -43.330287879992      0.000E+00 1.066E-18 0.000E+00
 ETOT 29  -43.330287879992      0.000E+00 2.169E-19 0.000E+00
 ETOT 30  -43.330287879992      0.000E+00 1.119E-19 0.000E+00
 ETOT 31  -43.330287879992      0.000E+00 2.278E-20 0.000E+00
 ETOT 32  -43.330287879992      1.421E-14 1.186E-20 0.000E+00
 ETOT 33  -43.330287879992     -1.421E-14 9.798E-21 0.000E+00

 At SCF step   33   max residual=  9.80E-21 < tolwfr=  1.00E-20 =>converged.

 ----iterations are completed or convergence reached----

 dfpt_looppert: DFPT cycle converged with prtwf=-1. Will skip output of the 1st-order WFK file.
 dfpt_looppert : ek2=    8.2185887371E+01
          f-sum rule ratio=    1.0263524752E+00
 prteigrs : about to open file /scratch/users/j/a/jabreu/flow_simple_11atoms/flow/w238/t1/tmpdata/tmp_1WF1_EIG
 Expectation of eigenvalue derivatives (hartree) for nkpt=   2  k points:
  (in case of degenerate eigenvalues, averaged derivative)
 kpt#   1, nband= 49, wtk=  0.50000, kpt=  0.0472  0.0472 -0.0472 (reduced coord)
   0.00000   -0.00000    0.00000    0.00000   -0.00000   -0.00000    0.00000    0.00000
  -0.00000   -0.00000   -0.00000    0.00000    0.00000    0.00000   -0.00000   -0.00000
  -0.00000    0.00000    0.00000   -0.00000   -0.00000    0.00000   -0.00000   -0.00000
   0.00000   -0.00000   -0.00000    0.00000    0.00000    0.00000   -0.00000   -0.00000
   0.00000    0.00000    0.00000    0.00000   -0.00000   -0.00000   -0.00000   -0.00000
  -0.00000   -0.00000    0.00000    0.00000    0.00000    0.00000   -0.00000    0.00000
   0.00000
 prteigrs : prtvol=0 or 1, do not print more k-points.

 Eight components of 2nd-order total energy (hartree) are
 1,2,3: 0th-order hamiltonian combined with 1st-order wavefunctions
     kin0=   6.75376228E+01 eigvalue=  -6.42527069E-01  local=  -3.18106165E+01
 4,5,6: 1st-order hamiltonian combined with 1st and 0th-order wfs
     kin1=  -8.43516889E+01  Hartree=   0.00000000E+00     xc=   0.00000000E+00
 7,8,9: eventually, occupation + non-local contributions
    edocc=   8.97583910E+00     enl0=  -7.30030433E-01   enl1=  -2.30888683E+00
 1-9 gives the relaxation energy (to be shifted if some occ is /=2.0)
   erelax=  -4.33302879E+01
  No Ewald or frozen-wf contrib.: the relaxation energy is the total one
 2DEtotal=   -0.4333028788E+02 Ha. Also 2DEtotal=   -0.117907709627E+04 eV
    (  non-var. 2DEtotal :   -4.3330287880E+01 Ha)

 CALCULATION OF EFFECTIVE MASSES
 NOTE : Additional infos (eff. mass eigenvalues, eigenvectors and, if degenerate, average mass) are available in stdout.

 K-point ( 0.047, 0.047,-0.047) | band =    40
 Effective mass tensor:
             -4.0877934681             -4.6293695910              3.3795854467
             -4.6293695910            -10.1527001490              6.2538912563
              3.3795854467              6.2538912563             -6.1516323817
 Effective mass tensor eigenvalues:
            -17.2199359702             -1.5860950171             -1.5860950115
 Angular average effective mass 1/(<1/m>)=  -2.2743973498
 Angular average effective mass for Frohlich model (<m**0.5>)**2=  -2.7843022940
 Effective masses along directions: (cart. coord. / red. coord. -> eff. mass)
    1:   1.000000  0.000000  0.000000 /   0.876973 -0.480540  0.000000 ->  -1.8556878531
    2:   0.000000  1.000000  0.000000 /   0.000000  1.000000  0.000000 ->  -3.1562938186
    3:   0.000000  0.000000  1.000000 /  -0.269916 -0.269916  0.924278 ->  -2.1583368307
    4:   0.577350  0.577350  0.577350 /   0.553332 -0.013368  0.832854 ->  -1.7799244295
    5:   0.000000  0.707107  0.707107 /  -0.251959  0.438310  0.862787 ->  -1.6153802222
    6:   0.707107  0.000000  0.707107 /   0.457659 -0.562168  0.688851 ->  -1.6004106982
    7:   0.707107  0.707107  0.000000 /   0.960799  0.277245  0.000000 ->  -3.8705852985

 K-point ( 0.275, 0.275, 0.165) | band =    41
 Effective mass tensor:
              8.7449538650              8.7263529501             -5.4319639759
              8.7263529501             20.1694012079            -10.0482068568
             -5.4319639759            -10.0482068568              6.5277178149
 Effective mass tensor eigenvalues:
              1.0533782083              4.0274730810             30.3612215986
 Angular average effective mass 1/(<1/m>)=   2.4379183264
 Angular average effective mass for Frohlich model (<m**0.5>)**2=   3.5542955236
 Effective masses along directions: (cart. coord. / red. coord. -> eff. mass)
    1:   1.000000  0.000000  0.000000 /   0.876973 -0.480540  0.000000 ->   4.1964977463
    2:   0.000000  1.000000  0.000000 /   0.000000  1.000000  0.000000 ->   4.6705476242
    3:   0.000000  0.000000  1.000000 /  -0.269916 -0.269916  0.924278 ->   1.2850886357
    4:   0.577350  0.577350  0.577350 /   0.553332 -0.013368  0.832854 ->   1.3878454174
    5:   0.000000  0.707107  0.707107 /  -0.251959  0.438310  0.862787 ->   1.2340736750
    6:   0.707107  0.000000  0.707107 /   0.457659 -0.562168  0.688851 ->   1.4748039672
    7:   0.707107  0.707107  0.000000 /   0.960799  0.277245  0.000000 ->   4.8143948589

 END OF EFFECTIVE MASSES SECTION

 ---- first-order wavefunction calculations are completed ----

 Total localisation tensor (bohr^2) in cartesian coordinates
  WARNING : still subject to testing - especially symmetries.
      direction              matrix element
   alpha     beta       real part   imaginary part
     1        1       1.2438544550    0.0000000000
     1        2      -0.4384934711    0.0000000000
     1        3      -0.1320366655    0.0000000000
     2        1      -0.4384934711    0.0000000000
     2        2       0.6694079345    0.0000000000
     2        3      -0.2443444239    0.0000000000
     3        1      -0.1320366655    0.0000000000
     3        2      -0.2443444239    0.0000000000
     3        3       1.1270150848    0.0000000000

 respfn : d/dk was computed, but no 2DTE, so no DDB output.

== END DATASET(S) ==============================================================

 -outvars: echo values of variables after computation  --------
            acell      1.0000000000E+00  1.0000000000E+00  1.0000000000E+00 Bohr
              amu      1.78490000E+02  2.80855000E+01  1.59994000E+01
             ecut      4.40000000E+01 Hartree
           etotal     -4.3330287880E+01
            fcart      0.0000000000E+00  0.0000000000E+00  0.0000000000E+00
                       0.0000000000E+00  0.0000000000E+00  0.0000000000E+00
                       0.0000000000E+00  0.0000000000E+00  0.0000000000E+00
                       0.0000000000E+00  0.0000000000E+00  0.0000000000E+00
                       0.0000000000E+00  0.0000000000E+00  0.0000000000E+00
                       0.0000000000E+00  0.0000000000E+00  0.0000000000E+00
                       0.0000000000E+00  0.0000000000E+00  0.0000000000E+00
                       0.0000000000E+00  0.0000000000E+00  0.0000000000E+00
                       0.0000000000E+00  0.0000000000E+00  0.0000000000E+00
                       0.0000000000E+00  0.0000000000E+00  0.0000000000E+00
                       0.0000000000E+00  0.0000000000E+00  0.0000000000E+00
                       0.0000000000E+00  0.0000000000E+00  0.0000000000E+00
-          fftalg         512
           irdden           1
           irdwfk           1
              ixc     -116133
              kpt      4.71976313E-02  4.71976313E-02 -4.71976313E-02
                       2.74749252E-01  2.74749252E-01  1.65250748E-01
           kptopt           0
P           mkmem           2
P          mkqmem           2
P          mk1mem           2
            natom          12
            nband          49
           nbdbuf           4
            ngfft          64      64      64
             nkpt           2
            nstep        2000
             nsym          16
           ntypat           3
              occ      2.000000  2.000000  2.000000  2.000000  2.000000  2.000000
                       2.000000  2.000000  2.000000  2.000000  2.000000  2.000000
                       2.000000  2.000000  2.000000  2.000000  2.000000  2.000000
                       2.000000  2.000000  2.000000  2.000000  2.000000  2.000000
                       2.000000  2.000000  2.000000  2.000000  2.000000  2.000000
                       2.000000  2.000000  2.000000  2.000000  2.000000  2.000000
                       2.000000  2.000000  2.000000  2.000000  0.000000  0.000000
                       0.000000  0.000000  0.000000  0.000000  0.000000  0.000000
                       0.000000
        optdriver           1
            prtwf          -1
            rfdir           1       1       1
           rfelfd           2
            rprim      9.9650020355E+00  0.0000000000E+00 -3.0427043494E+00
                      -5.4603496591E+00  8.3358171266E+00 -3.0427043494E+00
                       0.0000000000E+00  0.0000000000E+00  1.0419180166E+01
          spgroup         141
           strten      0.0000000000E+00  0.0000000000E+00  0.0000000000E+00
                       0.0000000000E+00  0.0000000000E+00  0.0000000000E+00
           symrel      1  0  0   0  1  0   0  0  1      -1  0  0   0 -1  0   0  0 -1
                      -1 -1 -1   0  0  1   0  1  0       1  1  1   0  0 -1   0 -1  0
                       0  1  0   1  0  0  -1 -1 -1       0 -1  0  -1  0  0   1  1  1
                       0  0  1  -1 -1 -1   1  0  0       0  0 -1   1  1  1  -1  0  0
                       0  1  0   1  0  0   0  0  1       0 -1  0  -1  0  0   0  0 -1
                      -1 -1 -1   0  0  1   1  0  0       1  1  1   0  0 -1  -1  0  0
                       1  0  0   0  1  0  -1 -1 -1      -1  0  0   0 -1  0   1  1  1
                       0  0  1  -1 -1 -1   0  1  0       0  0 -1   1  1  1   0 -1  0
            tnons      0.0000000  0.0000000  0.0000000     0.2500000 -0.2500000  0.5000000
                       0.2500000 -0.2500000  0.5000000     0.0000000  0.0000000  0.0000000
                       0.0000000  0.0000000  0.0000000     0.2500000 -0.2500000  0.5000000
                       0.2500000 -0.2500000  0.5000000     0.0000000  0.0000000  0.0000000
                       0.2500000 -0.2500000  0.5000000     0.0000000  0.0000000  0.0000000
                       0.0000000  0.0000000  0.0000000     0.2500000 -0.2500000  0.5000000
                       0.2500000 -0.2500000  0.5000000     0.0000000  0.0000000  0.0000000
                       0.0000000  0.0000000  0.0000000     0.2500000 -0.2500000  0.5000000
           tolwfr      1.00000000E-20
            typat      1  1  2  2  3  3  3  3  3  3  3  3
           useylm           1
              wtk        0.50000    0.50000
           xangst      0.0000000000E+00  0.0000000000E+00  0.0000000000E+00
                      -8.4880645271E-01  3.3083433288E+00  1.1466665438E+00
                       3.2325658229E+00  1.1027811096E+00  1.1466665438E+00
                       1.1918796851E+00  2.2055622192E+00 -1.6101297942E+00
                       1.2934211844E+00  5.8720226855E-01  3.7662888067E+00
                       1.8231526954E+00  3.0093683422E-01  1.0094924688E+00
                       3.7753501207E+00  3.0093683422E-01  2.4545837035E+00
                       2.2370935614E-01  2.2202336191E+00 -3.0221263440E-01
                       2.6012928126E+00  3.0074064946E+00 -1.4729557192E+00
                       3.1310243237E+00  2.7211410602E+00  1.2838406188E+00
                       4.2007361519E+00  1.0881097097E+00 -1.6125061602E-01
                       6.4909538734E-01  3.0074064946E+00  2.5955457219E+00
            xcart      0.0000000000E+00  0.0000000000E+00  0.0000000000E+00
                      -1.6040117355E+00  6.2518628450E+00  2.1668857335E+00
                       6.1086641118E+00  2.0839542817E+00  2.1668857335E+00
                       2.2523261882E+00  4.1679085633E+00 -3.0427043494E+00
                       2.4442118129E+00  1.1096514722E+00  7.1172543820E+00
                       3.4452592928E+00  5.6868819997E-01  1.9076642992E+00
                       7.1343777839E+00  5.6868819997E-01  4.6384909699E+00
                       4.2274941648E-01  4.1956334911E+00 -5.7109911292E-01
                       4.9157310072E+00  5.6831746450E+00 -2.7834829151E+00
                       5.9167784872E+00  5.1422113728E+00  2.4261071677E+00
                       7.9382408836E+00  2.0562293539E+00 -3.0471950303E-01
                       1.2266125162E+00  5.6831746450E+00  4.9048705798E+00
             xred      0.0000000000E+00  0.0000000000E+00  0.0000000000E+00
                       2.5000000000E-01  7.5000000000E-01  5.0000000000E-01
                       7.5000000000E-01  2.5000000000E-01  5.0000000000E-01
                       5.0000000000E-01  5.0000000000E-01  1.3877787808E-17
                       3.1822225000E-01  1.3311850000E-01  8.1489625000E-01
                       3.8311850000E-01  6.8222250000E-02  3.1489625000E-01
                       7.5332600000E-01  6.8222250000E-02  6.8510375000E-01
                       3.1822225000E-01  5.0332600000E-01  1.8510375000E-01
                       8.6688150000E-01  6.8177775000E-01  1.8510375000E-01
                       9.3177775000E-01  6.1688150000E-01  6.8510375000E-01
                       9.3177775000E-01  2.4667400000E-01  3.1489625000E-01
                       4.9667400000E-01  6.8177775000E-01  8.1489625000E-01
            znucl       72.00000   14.00000    8.00000

- Timing analysis has been suppressed with timopt=0

 Suggested references for the acknowledgment of ABINIT usage.

 Calculation completed.
.Delivered   2 WARNINGs and   5 COMMENTs to log file.