.Version 9.5.2 of ABINIT

 ABINIT is a project of the Universite Catholique de Louvain,
 Corning Inc. and other collaborators, see ~abinit/doc/developers/contributors.txt .
 acknowledgments of the ABINIT effort.

.Starting date : Mon 31 May 2021.
- ( at 22h44 )

- input  file    -> /scratch/users/j/a/jabreu/flow_simple_11atoms/flow/w379/t1/run.abi
- output file    -> /scratch/users/j/a/jabreu/flow_simple_11atoms/flow/w379/t1/run.abo
- root for input  files -> /scratch/users/j/a/jabreu/flow_simple_11atoms/flow/w379/t1/indata/in
- root for output files -> /scratch/users/j/a/jabreu/flow_simple_11atoms/flow/w379/t1/outdata/out

 Symmetries : space group P3_1 2 1 (#152); Bravais hP (primitive hexag.)
     intxc =       0      iscf =       7    lmnmax =      18     lnmax =       6
     mgfft =      80  mpssoang =       3    mqgrid =    3775     natom =      12
  nloc_mem =       1    nspden =       1   nspinor =       1    nsppol =       1
      nsym =       6    n1xccc =    2501    ntypat =       3    occopt =       1
   xclevel =       2
-    mband =          72        mffmem =           1         mkmem =           2
-   mkqmem =           2        mk1mem =           2           mpw =       18709
      nfft =      414720          nkpt =           2
  Rough estimation (10% accuracy) of disk space for files :

------------- Echo of variables that govern the present computation ------------
-
- outvars: echo of selected default values
-   iomode0 =  0 , fftalg0 =512 , wfoptalg0 =  0
-
- outvars: echo of global parameters not present in the input file
-  max_nthreads =    0
-
 -outvars: echo values of preprocessed input variables --------
            acell      1.0000000000E+00  1.0000000000E+00  1.0000000000E+00 Bohr
              amu      1.37327000E+02  6.53900000E+01  1.59994000E+01
             ecut      4.40000000E+01 Hartree
-          fftalg         512
           irdden           1
           irdwfk           1
           istwfk        0    1
              ixc     -116133
              kpt      0.00000000E+00  0.00000000E+00  1.33333333E-01
                       0.00000000E+00  0.00000000E+00  0.00000000E+00
           kptopt           0
P           mkmem           2
P          mkqmem           2
P          mk1mem           2
            natom          12
            nband          72
           nbdbuf           4
            ngfft          72      72      80
             nkpt           2
            nstep        2000
             nsym           6
           ntypat           3
              occ      2.000000  2.000000  2.000000  2.000000  2.000000  2.000000
                       2.000000  2.000000  2.000000  2.000000  2.000000  2.000000
                       2.000000  2.000000  2.000000  2.000000  2.000000  2.000000
                       2.000000  2.000000  2.000000  2.000000  2.000000  2.000000
                       2.000000  2.000000  2.000000  2.000000  2.000000  2.000000
                       2.000000  2.000000  2.000000  2.000000  2.000000  2.000000
                       2.000000  2.000000  2.000000  2.000000  2.000000  2.000000
                       2.000000  2.000000  2.000000  2.000000  2.000000  2.000000
                       2.000000  2.000000  2.000000  2.000000  2.000000  2.000000
                       2.000000  2.000000  2.000000  2.000000  2.000000  2.000000
                       2.000000  2.000000  2.000000  0.000000  0.000000  0.000000
                       0.000000  0.000000  0.000000  0.000000  0.000000  0.000000
        optdriver           1
            prtwf          -1
            rfdir           1       1       1
           rfelfd           2
            rprim      1.1059400839E+01  0.0000000000E+00  0.0000000000E+00
                      -5.5297004193E+00  9.5777220768E+00  0.0000000000E+00
                       0.0000000000E+00  0.0000000000E+00  1.2640293709E+01
          spgroup         152
           symrel      1  0  0   0  1  0   0  0  1       1  0  0  -1 -1  0   0  0 -1
                       0  1  0  -1 -1  0   0  0  1       0  1  0   1  0  0   0  0 -1
                      -1 -1  0   1  0  0   0  0  1      -1 -1  0   0  1  0   0  0 -1
            tnons      0.0000000  0.0000000  0.0000000     0.0000000  0.0000000 -0.3333333
                       0.0000000  0.0000000  0.3333333     0.0000000  0.0000000  0.0000000
                       0.0000000  0.0000000 -0.3333333     0.0000000  0.0000000  0.3333333
           tolwfr      1.00000000E-20
            typat      1  1  1  2  2  2  3  3  3  3  3  3
           useylm           1
              wtk        0.50000    0.50000
           xangst      2.0274117338E+00  1.8756523124E-17  5.5741294506E+00
                      -1.0137058669E+00  1.7557900654E+00  1.1148258901E+00
                       1.9124855653E+00  3.3125221678E+00  3.3444776704E+00
                       1.7096887943E+00  2.9612678568E+00 -4.9508203063E-16
                      -1.2165026379E+00  2.1070443764E+00  4.4593035605E+00
                       2.4330052758E+00  1.8756523124E-17  2.2296517802E+00
                       3.4327210215E+00  2.9301298359E+00  5.8546642376E+00
                       1.5984554794E+00  1.5077586908E+00  1.3953606771E+00
                       3.7473977957E+00  6.3042370657E-01  3.6250124574E+00
                       5.0652958929E-01  2.1381823973E+00  5.2935946636E+00
                       8.2120636351E-01  4.4378885267E+00  8.3429110313E-01
                      -1.3277359528E+00  3.5605535425E+00  3.0639428834E+00
            xcart      3.8312529355E+00  3.5444691910E-17  1.0533578091E+01
                      -1.9156264678E+00  3.3179623705E+00  2.1067156182E+00
                       3.6140739515E+00  6.2597597063E+00  6.3201468545E+00
                       3.2308435936E+00  5.5959852555E+00 -9.3556945120E-16
                      -2.2988568256E+00  3.9817368213E+00  8.4268624727E+00
                       4.5977136512E+00  3.5444691910E-17  4.2134312364E+00
                       6.4869026212E+00  5.5371429237E+00  1.1063712009E+01
                       3.0206430916E+00  2.8492510000E+00  2.6368495363E+00
                       7.0815555449E+00  1.1913281531E+00  6.8502807727E+00
                       9.5720220195E-01  4.0405791531E+00  1.0003444173E+01
                       1.5518551256E+00  8.3863939237E+00  1.5765817000E+00
                      -2.5090573277E+00  6.7284710768E+00  5.7900129364E+00
             xred      3.4642500000E-01  3.7007434154E-18  8.3333333333E-01
                       9.2518585385E-18  3.4642500000E-01  1.6666666667E-01
                       6.5357500000E-01  6.5357500000E-01  5.0000000000E-01
                       5.8427100000E-01  5.8427100000E-01 -7.4014850662E-17
                       9.2518585385E-18  4.1572900000E-01  6.6666666667E-01
                       4.1572900000E-01  3.7007434154E-18  3.3333333333E-01
                       8.7561466667E-01  5.7812733333E-01  8.7527333333E-01
                       4.2187266667E-01  2.9748733333E-01  2.0860666667E-01
                       7.0251266667E-01  1.2438533333E-01  5.4194000000E-01
                       2.9748733333E-01  4.2187266667E-01  7.9139333333E-01
                       5.7812733333E-01  8.7561466667E-01  1.2472666667E-01
                       1.2438533333E-01  7.0251266667E-01  4.5806000000E-01
            znucl       56.00000   30.00000    8.00000

 chkinp: Checking input parameters for consistency.

== DATASET  1 ==================================================================
-   mpi_nproc: 1, omp_nthreads: -1 (-1 if OMP is not activated)

--- !DatasetInfo
iteration_state: {dtset: 1, }
dimensions: {natom: 12, nkpt: 2, mband: 72, nsppol: 1, nspinor: 1, nspden: 1, mpw: 18709, }
cutoff_energies: {ecut:  44.0, pawecutdg:  -1.0, }
electrons: {nelect:   1.26000000E+02, charge:   0.00000000E+00, occopt:   1.00000000E+00, tsmear:   1.00000000E-02, }
meta: {optdriver: 1, rfelfd: 2, }
...

 Real(R)+Recip(G) space primitive vectors, cartesian coordinates (Bohr,Bohr^-1):
 R(1)= 11.0594008  0.0000000  0.0000000  G(1)=  0.0904208  0.0522045  0.0000000
 R(2)= -5.5297004  9.5777221  0.0000000  G(2)=  0.0000000  0.1044090  0.0000000
 R(3)=  0.0000000  0.0000000 12.6402937  G(3)=  0.0000000  0.0000000  0.0791121
 Unit cell volume ucvol=  1.3389088E+03 bohr^3
 Angles (23,13,12)=  9.00000000E+01  9.00000000E+01  1.20000000E+02 degrees

 getcut: wavevector=  0.0000  0.0000  0.0000  ngfft=  72  72  80
         ecut(hartree)=     44.000   => boxcut(ratio)=   2.11954

--- Pseudopotential description ------------------------------------------------
- pspini: atom type   1  psp file is /scratch/users/j/a/jabreu/pseudos/PBEsol/Ba.psp8
- pspatm: opening atomic psp file    /scratch/users/j/a/jabreu/pseudos/PBEsol/Ba.psp8
- Ba    ONCVPSP-3.3.0  r_core=   2.15444   1.91218   2.15444
- 56.00000  10.00000    180112                znucl, zion, pspdat
    8 -116133    2    4       600   0.00000   pspcod,pspxc,lmax,lloc,mmax,r2well
    5.99000000000000    5.00000000000000    0.00000000000000   rchrg,fchrg,qchrg
     nproj     2     2     2
     extension_switch     1
  pspatm : epsatm=   26.37418029
         --- l  ekb(1:nproj) -->
             0    6.652372    0.677024
             1    5.027722    0.408462
             2    2.543237    0.416854
 pspatm: atomic psp has been read  and splines computed

- pspini: atom type   2  psp file is /scratch/users/j/a/jabreu/pseudos/PBEsol/Zn.psp8
- pspatm: opening atomic psp file    /scratch/users/j/a/jabreu/pseudos/PBEsol/Zn.psp8
- Zn    ONCVPSP-3.3.0  r_core=   1.35823   1.66358   1.85211
- 30.00000  20.00000    180112                znucl, zion, pspdat
    8 -116133    2    4       600   0.00000   pspcod,pspxc,lmax,lloc,mmax,r2well
    5.99000000000000    2.50000000000000    0.00000000000000   rchrg,fchrg,qchrg
     nproj     2     2     2
     extension_switch     1
  pspatm : epsatm=   26.57343589
         --- l  ekb(1:nproj) -->
             0    2.830835   -1.519107
             1   -4.626739   -1.324150
             2   -6.948510   -2.555500
 pspatm: atomic psp has been read  and splines computed

- pspini: atom type   3  psp file is /scratch/users/j/a/jabreu/pseudos/PBEsol/O.psp8
- pspatm: opening atomic psp file    /scratch/users/j/a/jabreu/pseudos/PBEsol/O.psp8
- O     ONCVPSP-3.3.0  r_core=   1.35509   1.45563   1.26150
-  8.00000   6.00000    180112                znucl, zion, pspdat
    8 -116133    2    4       600   0.00000   pspcod,pspxc,lmax,lloc,mmax,r2well
    5.99000000000000    4.00000000000000    0.00000000000000   rchrg,fchrg,qchrg
     nproj     2     2     1
     extension_switch     1
  pspatm : epsatm=    6.22910522
         --- l  ekb(1:nproj) -->
             0    6.050032    0.820363
             1   -4.739617   -1.153841
             2   -1.335834
 pspatm: atomic psp has been read  and splines computed

   2.47234025E+04                                ecore*ucvol(ha*bohr**3)

 ==>  initialize data related to q vector <==

 The list of irreducible perturbations for this q vector is:
    1)    idir= 1    ipert=  13
    2)    idir= 2    ipert=  13
    3)    idir= 3    ipert=  13

[...]
 Expectation of eigenvalue derivatives (hartree) for nkpt=   2  k points:
  (in case of degenerate eigenvalues, averaged derivative)
 kpt#   1, nband= 72, wtk=  0.50000, kpt=  0.0000  0.0000  0.1333 (reduced coord)
   0.00000   -0.00000    0.00000   -0.00000   -0.00000    0.00000   -0.00000    0.00000
  -0.00000   -0.00000    0.00000   -0.00000   -0.00000    0.00000   -0.00000    0.00000
  -0.00000   -0.00000    0.00000   -0.00000    0.00000   -0.00000   -0.00000    0.00000
   0.00000    0.00000   -0.00000   -0.00000   -0.00000   -0.00000    0.00000    0.00000
  -0.00000    0.00000   -0.00000    0.00000    0.00000   -0.00000    0.00000   -0.00000
  -0.00000    0.00000   -0.00000    0.00000    0.00000    0.00000   -0.00000    0.00000
  -0.00000    0.00000   -0.00000    0.00000   -0.00000    0.00000    0.00000    0.00000
   0.00000   -0.00000    0.00000   -0.00000    0.00000   -0.00000   -0.00000   -0.00000
   0.00000    0.00000    0.00000   -0.00000    0.00000   -0.00000   -0.00000    0.00000
 prteigrs : prtvol=0 or 1, do not print more k-points.

 Eight components of 2nd-order total energy (hartree) are
 1,2,3: 0th-order hamiltonian combined with 1st-order wavefunctions
     kin0=   1.02492688E+02 eigvalue=  -1.04567534E+00  local=  -4.31164072E+01
 4,5,6: 1st-order hamiltonian combined with 1st and 0th-order wfs
     kin1=  -1.17035873E+02  Hartree=   0.00000000E+00     xc=   0.00000000E+00
 7,8,9: eventually, occupation + non-local contributions
    edocc=   1.03112471E+01     enl0=  -2.18590643E+00   enl1=  -1.58760198E+01
 1-9 gives the relaxation energy (to be shifted if some occ is /=2.0)
   erelax=  -6.64559466E+01
  No Ewald or frozen-wf contrib.: the relaxation energy is the total one
 2DEtotal=   -0.6645594660E+02 Ha. Also 2DEtotal=   -0.180835827271E+04 eV
    (  non-var. 2DEtotal :   -6.6455946600E+01 Ha)

 Perturbation wavevector (in red.coord.)   0.000000  0.000000  0.000000
 Perturbation : derivative vs k along direction   2
 The set of symmetries contains only one element for this perturbation.
 symkpt : not enough symmetry to change the number of k points.

[...]

 Perturbation wavevector (in red.coord.)   0.000000  0.000000  0.000000
 Perturbation : derivative vs k along direction   3
 The set of symmetries contains only one element for this perturbation.
 symkpt : not enough symmetry to change the number of k points.

 Initialisation of the first-order wave-functions :
  ireadwf=   0

--- !BeginCycle
iteration_state: {dtset: 1, }
solver: {iscf: 7, nstep: 2000, nline: 4, wfoptalg: 0, }
tolerances: {tolwfr: 1.00E-20, }
...

     iter   2DEtotal(Ha)        deltaE(Ha) residm    vres2
-ETOT  1  -36.469502850101     -3.647E+01 3.129E-02 0.000E+00
 ETOT  2  -36.547119422307     -7.762E-02 1.045E-03 0.000E+00
 ETOT  3  -36.547938742674     -8.193E-04 4.334E-05 0.000E+00
 ETOT  4  -36.547953006647     -1.426E-05 3.005E-06 0.000E+00
 ETOT  5  -36.547953314836     -3.082E-07 2.159E-07 0.000E+00
 ETOT  6  -36.547953322336     -7.499E-09 1.713E-08 0.000E+00
 ETOT  7  -36.547953322532     -1.961E-10 1.356E-09 0.000E+00
 ETOT  8  -36.547953322537     -5.365E-12 1.067E-10 0.000E+00
 ETOT  9  -36.547953322537     -1.563E-13 8.830E-12 0.000E+00
 ETOT 10  -36.547953322537      2.132E-14 6.939E-13 0.000E+00
 ETOT 11  -36.547953322537     -1.421E-14 5.886E-14 0.000E+00
 ETOT 12  -36.547953322537      1.421E-14 4.627E-15 0.000E+00
 ETOT 13  -36.547953322537      0.000E+00 3.980E-16 0.000E+00
 ETOT 14  -36.547953322537      0.000E+00 3.131E-17 0.000E+00
 ETOT 15  -36.547953322537      1.421E-14 2.714E-18 0.000E+00
 ETOT 16  -36.547953322537     -7.105E-15 2.137E-19 0.000E+00
 ETOT 17  -36.547953322537      7.105E-15 1.861E-20 0.000E+00
 ETOT 18  -36.547953322537     -1.421E-14 9.880E-21 0.000E+00

 At SCF step   18   max residual=  9.88E-21 < tolwfr=  1.00E-20 =>converged.

 ----iterations are completed or convergence reached----

 dfpt_looppert: DFPT cycle converged with prtwf=-1. Will skip output of the 1st-order WFK file.
 dfpt_looppert : ek2=    6.2265280212E+01
          f-sum rule ratio=    1.0219710209E+00
 prteigrs : about to open file /scratch/users/j/a/jabreu/flow_simple_11atoms/flow/w379/t1/tmpdata/tmp_1WF1_EIG
 Expectation of eigenvalue derivatives (hartree) for nkpt=   2  k points:
  (in case of degenerate eigenvalues, averaged derivative)
 kpt#   1, nband= 72, wtk=  0.50000, kpt=  0.0000  0.0000  0.1333 (reduced coord)
   0.00000   -0.00000    0.00000   -0.00000    0.00000   -0.00000   -0.00000    0.00000
  -0.00000    0.00000   -0.00000    0.00000    0.00266   -0.00726    0.00465   -0.00462
  -0.01562    0.01949   -0.00257    0.00551   -0.00232   -0.00459   -0.03093    0.01836
  -0.03015    0.01517    0.01503    0.02898   -0.01509    0.00706    0.00052    0.00167
   0.00016    0.00111    0.00900   -0.00160    0.00728    0.00837    0.00204   -0.01067
   0.01040   -0.00251   -0.00639    0.01017   -0.00273   -0.05572    0.06666    0.01319
  -0.02722   -0.03678    0.01448   -0.05859   -0.05761    0.01408    0.02062   -0.01278
   0.00799    0.01650    0.06227   -0.00717   -0.01146   -0.01726   -0.00111    0.08760
  -0.01851    0.01303   -0.05644    0.01025   -0.03413   -0.05421   -0.06266    0.14880
 prteigrs : prtvol=0 or 1, do not print more k-points.

 Eight components of 2nd-order total energy (hartree) are
 1,2,3: 0th-order hamiltonian combined with 1st-order wavefunctions
     kin0=   5.86923276E+01 eigvalue=  -1.83549267E-01  local=  -2.50137299E+01
 4,5,6: 1st-order hamiltonian combined with 1st and 0th-order wfs
     kin1=  -6.36333120E+01  Hartree=   0.00000000E+00     xc=   0.00000000E+00
 7,8,9: eventually, occupation + non-local contributions
    edocc=   4.12012320E+00     enl0=  -1.06721835E+00   enl1=  -9.46259466E+00
 1-9 gives the relaxation energy (to be shifted if some occ is /=2.0)
   erelax=  -3.65479533E+01
  No Ewald or frozen-wf contrib.: the relaxation energy is the total one
 2DEtotal=   -0.3654795332E+02 Ha. Also 2DEtotal=   -0.994520387157E+03 eV
    (  non-var. 2DEtotal :   -3.6547953322E+01 Ha)

 CALCULATION OF EFFECTIVE MASSES
 NOTE : Additional infos (eff. mass eigenvalues, eigenvectors and, if degenerate, average mass) are available in stdout.

 K-point ( 0.000, 0.000, 0.133) | band =    63
 Effective mass tensor:
             -2.2943067463             -0.0000018557              0.0000099250
             -0.0000018557             -2.2943089057             -0.0000057496
              0.0000099250             -0.0000057496             -2.2762817339
 Effective mass tensor eigenvalues:
             -2.2943099730             -2.2943056864             -2.2762817266
 Angular average effective mass 1/(<1/m>)=  -2.2882674898
 Angular average effective mass for Frohlich model (<m**0.5>)**2=  -2.2882769945
 Effective masses along directions: (cart. coord. / red. coord. -> eff. mass)
    1:   1.000000  0.000000  0.000000 /   0.894427 -0.447214  0.000000 ->  -2.2943067463
    2:   0.000000  1.000000  0.000000 /   0.000000  1.000000  0.000000 ->  -2.2943089057
    3:   0.000000  0.000000  1.000000 /   0.000000  0.000000  1.000000 ->  -2.2762817339
    4:   0.577350  0.577350  0.577350 /   0.640145  0.234309  0.731651 ->  -2.2882659296
    5:   0.000000  0.707107  0.707107 /   0.000000  0.603927  0.797039 ->  -2.2852655182
    6:   0.707107  0.000000  0.707107 /   0.625449 -0.312725  0.714854 ->  -2.2852487726
    7:   0.707107  0.707107  0.000000 /   0.939071  0.343724  0.000000 ->  -2.2943096817

 K-point ( 0.000, 0.000, 0.000) | band =    64
 Effective mass tensor:
              0.3766561925             -0.0000000263              0.0000000209
             -0.0000000263              0.3766561617             -0.0000000120
              0.0000000209             -0.0000000120              0.3395282485
 Effective mass tensor eigenvalues:
              0.3395282485              0.3766561466              0.3766562076
 Angular average effective mass 1/(<1/m>)=   0.3634097096
 Angular average effective mass for Frohlich model (<m**0.5>)**2=   0.3636753292
 Effective masses along directions: (cart. coord. / red. coord. -> eff. mass)
    1:   1.000000  0.000000  0.000000 /   0.894427 -0.447214  0.000000 ->   0.3766561925
    2:   0.000000  1.000000  0.000000 /   0.000000  1.000000  0.000000 ->   0.3766561617
    3:   0.000000  0.000000  1.000000 /   0.000000  0.000000  1.000000 ->   0.3395282485
    4:   0.577350  0.577350  0.577350 /   0.640145  0.234309  0.731651 ->   0.3634096994
    5:   0.000000  0.707107  0.707107 /   0.000000  0.603927  0.797039 ->   0.3571298139
    6:   0.707107  0.000000  0.707107 /   0.625449 -0.312725  0.714854 ->   0.3571298606
    7:   0.707107  0.707107  0.000000 /   0.939071  0.343724  0.000000 ->   0.3766561508

 END OF EFFECTIVE MASSES SECTION

 ---- first-order wavefunction calculations are completed ----

 Total localisation tensor (bohr^2) in cartesian coordinates
  WARNING : still subject to testing - especially symmetries.
      direction              matrix element
   alpha     beta       real part   imaginary part
     1        1       1.3171290774    0.0000000000
     1        2      -0.4562668965    0.0000000000
     1        3       0.0000000000    0.0000000000
     2        1      -0.4562668965    0.0000000000
     2        2       0.7902774465    0.0000000000
     2        3       0.0000000000    0.0000000000
     3        1       0.0000000000    0.0000000000
     3        2       0.0000000000    0.0000000000
     3        3       0.6911309929    0.0000000000

 respfn : d/dk was computed, but no 2DTE, so no DDB output.

== END DATASET(S) ==============================================================

 -outvars: echo values of variables after computation  --------
            acell      1.0000000000E+00  1.0000000000E+00  1.0000000000E+00 Bohr
              amu      1.37327000E+02  6.53900000E+01  1.59994000E+01
             ecut      4.40000000E+01 Hartree
           etotal     -3.6547953323E+01
            fcart      0.0000000000E+00  0.0000000000E+00  0.0000000000E+00
                       0.0000000000E+00  0.0000000000E+00  0.0000000000E+00
                       0.0000000000E+00  0.0000000000E+00  0.0000000000E+00
                       0.0000000000E+00  0.0000000000E+00  0.0000000000E+00
                       0.0000000000E+00  0.0000000000E+00  0.0000000000E+00
                       0.0000000000E+00  0.0000000000E+00  0.0000000000E+00
                       0.0000000000E+00  0.0000000000E+00  0.0000000000E+00
                       0.0000000000E+00  0.0000000000E+00  0.0000000000E+00
                       0.0000000000E+00  0.0000000000E+00  0.0000000000E+00
                       0.0000000000E+00  0.0000000000E+00  0.0000000000E+00
                       0.0000000000E+00  0.0000000000E+00  0.0000000000E+00
                       0.0000000000E+00  0.0000000000E+00  0.0000000000E+00
-          fftalg         512
           irdden           1
           irdwfk           1
           istwfk        0    1
              ixc     -116133
              kpt      0.00000000E+00  0.00000000E+00  1.33333333E-01
                       0.00000000E+00  0.00000000E+00  0.00000000E+00
           kptopt           0
P           mkmem           2
P          mkqmem           2
P          mk1mem           2
            natom          12
            nband          72
           nbdbuf           4
            ngfft          72      72      80
             nkpt           2
            nstep        2000
             nsym           6
           ntypat           3
              occ      2.000000  2.000000  2.000000  2.000000  2.000000  2.000000
                       2.000000  2.000000  2.000000  2.000000  2.000000  2.000000
                       2.000000  2.000000  2.000000  2.000000  2.000000  2.000000
                       2.000000  2.000000  2.000000  2.000000  2.000000  2.000000
                       2.000000  2.000000  2.000000  2.000000  2.000000  2.000000
                       2.000000  2.000000  2.000000  2.000000  2.000000  2.000000
                       2.000000  2.000000  2.000000  2.000000  2.000000  2.000000
                       2.000000  2.000000  2.000000  2.000000  2.000000  2.000000
                       2.000000  2.000000  2.000000  2.000000  2.000000  2.000000
                       2.000000  2.000000  2.000000  2.000000  2.000000  2.000000
                       2.000000  2.000000  2.000000  0.000000  0.000000  0.000000
                       0.000000  0.000000  0.000000  0.000000  0.000000  0.000000
        optdriver           1
            prtwf          -1
            rfdir           1       1       1
           rfelfd           2
            rprim      1.1059400839E+01  0.0000000000E+00  0.0000000000E+00
                      -5.5297004193E+00  9.5777220768E+00  0.0000000000E+00
                       0.0000000000E+00  0.0000000000E+00  1.2640293709E+01
          spgroup         152
           strten      0.0000000000E+00  0.0000000000E+00  0.0000000000E+00
                       0.0000000000E+00  0.0000000000E+00  0.0000000000E+00
           symrel      1  0  0   0  1  0   0  0  1       1  0  0  -1 -1  0   0  0 -1
                       0  1  0  -1 -1  0   0  0  1       0  1  0   1  0  0   0  0 -1
                      -1 -1  0   1  0  0   0  0  1      -1 -1  0   0  1  0   0  0 -1
            tnons      0.0000000  0.0000000  0.0000000     0.0000000  0.0000000 -0.3333333
                       0.0000000  0.0000000  0.3333333     0.0000000  0.0000000  0.0000000
                       0.0000000  0.0000000 -0.3333333     0.0000000  0.0000000  0.3333333
           tolwfr      1.00000000E-20
            typat      1  1  1  2  2  2  3  3  3  3  3  3
           useylm           1
              wtk        0.50000    0.50000
           xangst      2.0274117338E+00  1.8756523124E-17  5.5741294506E+00
                      -1.0137058669E+00  1.7557900654E+00  1.1148258901E+00
                       1.9124855653E+00  3.3125221678E+00  3.3444776704E+00
                       1.7096887943E+00  2.9612678568E+00 -4.9508203063E-16
                      -1.2165026379E+00  2.1070443764E+00  4.4593035605E+00
                       2.4330052758E+00  1.8756523124E-17  2.2296517802E+00
                       3.4327210215E+00  2.9301298359E+00  5.8546642376E+00
                       1.5984554794E+00  1.5077586908E+00  1.3953606771E+00
                       3.7473977957E+00  6.3042370657E-01  3.6250124574E+00
                       5.0652958929E-01  2.1381823973E+00  5.2935946636E+00
                       8.2120636351E-01  4.4378885267E+00  8.3429110313E-01
                      -1.3277359528E+00  3.5605535425E+00  3.0639428834E+00
            xcart      3.8312529355E+00  3.5444691910E-17  1.0533578091E+01
                      -1.9156264678E+00  3.3179623705E+00  2.1067156182E+00
                       3.6140739515E+00  6.2597597063E+00  6.3201468545E+00
                       3.2308435936E+00  5.5959852555E+00 -9.3556945120E-16
                      -2.2988568256E+00  3.9817368213E+00  8.4268624727E+00
                       4.5977136512E+00  3.5444691910E-17  4.2134312364E+00
                       6.4869026212E+00  5.5371429237E+00  1.1063712009E+01
                       3.0206430916E+00  2.8492510000E+00  2.6368495363E+00
                       7.0815555449E+00  1.1913281531E+00  6.8502807727E+00
                       9.5720220195E-01  4.0405791531E+00  1.0003444173E+01
                       1.5518551256E+00  8.3863939237E+00  1.5765817000E+00
                      -2.5090573277E+00  6.7284710768E+00  5.7900129364E+00
             xred      3.4642500000E-01  3.7007434154E-18  8.3333333333E-01
                       9.2518585385E-18  3.4642500000E-01  1.6666666667E-01
                       6.5357500000E-01  6.5357500000E-01  5.0000000000E-01
                       5.8427100000E-01  5.8427100000E-01 -7.4014850662E-17
                       9.2518585385E-18  4.1572900000E-01  6.6666666667E-01
                       4.1572900000E-01  3.7007434154E-18  3.3333333333E-01
                       8.7561466667E-01  5.7812733333E-01  8.7527333333E-01
                       4.2187266667E-01  2.9748733333E-01  2.0860666667E-01
                       7.0251266667E-01  1.2438533333E-01  5.4194000000E-01
                       2.9748733333E-01  4.2187266667E-01  7.9139333333E-01
                       5.7812733333E-01  8.7561466667E-01  1.2472666667E-01
                       1.2438533333E-01  7.0251266667E-01  4.5806000000E-01
            znucl       56.00000   30.00000    8.00000

- Timing analysis has been suppressed with timopt=0

 Suggested references for the acknowledgment of ABINIT usage.

 Calculation completed.
.Delivered   2 WARNINGs and   5 COMMENTs to log file.