.Version 9.7.2 of ABINIT

 ABINIT is a project of the Universite Catholique de Louvain,
 Corning Inc. and other collaborators, see ~abinit/doc/developers/contributors.txt .
 acknowledgments of the ABINIT effort.

.Starting date : Wed  1 Dec 2021.
- ( at 21h28 )

- input  file    -> /scratch/users/j/a/jabreu/flow_simple_remain_atoms/flow/w205/t1/run.abi
- output file    -> /scratch/users/j/a/jabreu/flow_simple_remain_atoms/flow/w205/t1/run.abo
- root for input  files -> /scratch/users/j/a/jabreu/flow_simple_remain_atoms/flow/w205/t1/indata/in
- root for output files -> /scratch/users/j/a/jabreu/flow_simple_remain_atoms/flow/w205/t1/outdata/out

 Symmetries : space group I4/m m m (#139); Bravais tI (body-center tetrag.)
     intxc =       0      iscf =       7    lmnmax =      25     lnmax =       7
     mgfft =      80  mpssoang =       4    mqgrid =    3001     natom =       5
  nloc_mem =       1    nspden =       1   nspinor =       1    nsppol =       1
      nsym =      16    n1xccc =    2501    ntypat =       3    occopt =       1
   xclevel =       2
-    mband =          34        mffmem =           1         mkmem =           2
-   mkqmem =           2        mk1mem =           2           mpw =        7282
      nfft =      512000          nkpt =           2
  Rough estimation (10% accuracy) of disk space for files :

------------- Echo of variables that govern the present computation ------------
-
- outvars: echo of selected default values
-   iomode0 =  0 , fftalg0 =512 , wfoptalg0 =  0
-
- outvars: echo of global parameters not present in the input file
-  max_nthreads =    0
-
 -outvars: echo values of preprocessed input variables --------
            acell      1.0000000000E+00  1.0000000000E+00  1.0000000000E+00 Bohr
              amu      2.29897680E+01  2.00590000E+02  1.59994000E+01
             ecut      4.40000000E+01 Hartree
-          fftalg         512
           irdden           1
           irdwfk           1
              ixc     -116133
              kpt      5.00000000E-01  5.00000000E-01 -5.00000000E-01
                      -2.57512214E-01  2.57512214E-01  2.57512214E-01
           kptopt           0
P           mkmem           2
P          mkqmem           2
P          mk1mem           2
            natom           5
            nband          34
           nbdbuf           4
            ngfft          80      80      80
             nkpt           2
            nstep        2000
             nsym          16
           ntypat           3
              occ      2.000000  2.000000  2.000000  2.000000  2.000000  2.000000
                       2.000000  2.000000  2.000000  2.000000  2.000000  2.000000
                       2.000000  2.000000  2.000000  2.000000  2.000000  2.000000
                       2.000000  2.000000  2.000000  2.000000  2.000000  2.000000
                       2.000000  0.000000  0.000000  0.000000  0.000000  0.000000
                       0.000000  0.000000  0.000000  0.000000
        optdriver           1
            prtwf          -1
            rfdir           1       1       1
           rfelfd           2
            rprim      6.2337086291E+00  0.0000000000E+00 -1.1791816478E+01
                      -3.8357997100E-01  6.2218959874E+00 -1.1791816478E+01
                       0.0000000000E+00  0.0000000000E+00  1.3338143016E+01
          spgroup         139
           symrel      1  0  0   0  1  0   0  0  1      -1  0  0   0 -1  0   0  0 -1
                      -1 -1 -1   0  0  1   0  1  0       1  1  1   0  0 -1   0 -1  0
                       0  1  0   1  0  0  -1 -1 -1       0 -1  0  -1  0  0   1  1  1
                       0  0  1  -1 -1 -1   1  0  0       0  0 -1   1  1  1  -1  0  0
                       0  1  0   1  0  0   0  0  1       0 -1  0  -1  0  0   0  0 -1
                      -1 -1 -1   0  0  1   1  0  0       1  1  1   0  0 -1  -1  0  0
                       1  0  0   0  1  0  -1 -1 -1      -1  0  0   0 -1  0   1  1  1
                       0  0  1  -1 -1 -1   0  1  0       0  0 -1   1  1  1   0 -1  0
           tolwfr      1.00000000E-20
            typat      1  1  2  3  3
           useylm           1
              wtk        0.50000    0.50000
           xangst      2.0928416603E+00  2.2258387618E+00 -8.4368759111E+00
                       1.0029130929E+00  1.0666467890E+00 -4.0430451450E+00
                       0.0000000000E+00  0.0000000000E+00  0.0000000000E+00
                       2.6366883766E+00  2.8042461609E+00 -1.0629286043E+01
                       4.5906637660E-01  4.8823938984E-01 -1.8506350135E+00
            xcart      3.9548975775E+00  4.2062256757E+00 -1.5943384889E+01
                       1.8952310806E+00  2.0156703117E+00 -7.6402480670E+00
                       0.0000000000E+00  0.0000000000E+00  0.0000000000E+00
                       4.9826189295E+00  5.2992572533E+00 -2.0086439609E+01
                       8.6750972858E-01  9.2263873408E-01 -3.4971933474E+00
             xred      6.7603600000E-01  6.7603600000E-01  2.2204460493E-16
                       3.2396400000E-01  3.2396400000E-01  2.2204460493E-16
                       0.0000000000E+00  0.0000000000E+00  0.0000000000E+00
                       8.5171100000E-01  8.5171100000E-01  3.3306690739E-16
                       1.4828900000E-01  1.4828900000E-01  4.1633363423E-17
            znucl       11.00000   80.00000    8.00000

 chkinp: Checking input parameters for consistency.

== DATASET  1 ==================================================================
-   mpi_nproc: 1, omp_nthreads: -1 (-1 if OMP is not activated)

--- !DatasetInfo
iteration_state: {dtset: 1, }
dimensions: {natom: 5, nkpt: 2, mband: 34, nsppol: 1, nspinor: 1, nspden: 1, mpw: 7282, }
cutoff_energies: {ecut:  44.0, pawecutdg:  -1.0, }
electrons: {nelect:   5.00000000E+01, charge:   0.00000000E+00, occopt:   1.00000000E+00, tsmear:   1.00000000E-02, }
meta: {optdriver: 1, rfelfd: 2, }
...

 Real(R)+Recip(G) space primitive vectors, cartesian coordinates (Bohr,Bohr^-1):
 R(1)=  6.2337086  0.0000000-11.7918165  G(1)=  0.1604181  0.0098898  0.0000000
 R(2)= -0.3835800  6.2218960-11.7918165  G(2)=  0.0000000  0.1607227  0.0000000
 R(3)=  0.0000000  0.0000000 13.3381430  G(3)=  0.1418204  0.1508329  0.0749730
 Unit cell volume ucvol=  5.1732637E+02 bohr^3
 Angles (23,13,12)=  1.52136964E+02  1.52136964E+02  3.98133229E+01 degrees

 getcut: wavevector=  0.0000  0.0000  0.0000  ngfft=  80  80  80
         ecut(hartree)=     44.000   => boxcut(ratio)=   2.00945

--- Pseudopotential description ------------------------------------------------
- pspini: atom type   1  psp file is /scratch/users/j/a/jabreu/pseudos/PBEsol/Na.psp8
- pspatm: opening atomic psp file    /scratch/users/j/a/jabreu/pseudos/PBEsol/Na.psp8
- Na    ONCVPSP-3.3.0  r_core=   1.20708   1.55069
- 11.00000   9.00000    180112                znucl, zion, pspdat
    8 -116133    1    4       400   0.00000   pspcod,pspxc,lmax,lloc,mmax,r2well
    3.99000000000000    0.00000000000000    0.00000000000000   rchrg,fchrg,qchrg
     nproj     2     2
     extension_switch     1
  pspatm : epsatm=    9.32878306
         --- l  ekb(1:nproj) -->
             0    2.657905   -0.678300
             1   -6.761319   -2.404728
 pspatm: atomic psp has been read  and splines computed

- pspini: atom type   2  psp file is /scratch/users/j/a/jabreu/pseudos/PBEsol/Hg.psp8
- pspatm: opening atomic psp file    /scratch/users/j/a/jabreu/pseudos/PBEsol/Hg.psp8
- Hg    ONCVPSP-3.3.0  r_core=   1.60079   1.60079   1.45509   1.60079
- 80.00000  20.00000    180112                znucl, zion, pspdat
    8 -116133    3    4       600   0.00000   pspcod,pspxc,lmax,lloc,mmax,r2well
    5.99000000000000    5.00000000000000    0.00000000000000   rchrg,fchrg,qchrg
     nproj     2     2     2     1
     extension_switch     1
  pspatm : epsatm=   30.52477316
         --- l  ekb(1:nproj) -->
             0   15.280580    2.063595
             1   11.999965    1.374025
             2    2.245749    0.205661
             3    0.961656
 pspatm: atomic psp has been read  and splines computed

- pspini: atom type   3  psp file is /scratch/users/j/a/jabreu/pseudos/PBEsol/O.psp8
- pspatm: opening atomic psp file    /scratch/users/j/a/jabreu/pseudos/PBEsol/O.psp8
- O     ONCVPSP-3.3.0  r_core=   1.35509   1.45563   1.26150
-  8.00000   6.00000    180112                znucl, zion, pspdat
    8 -116133    2    4       600   0.00000   pspcod,pspxc,lmax,lloc,mmax,r2well
    5.99000000000000    4.00000000000000    0.00000000000000   rchrg,fchrg,qchrg
     nproj     2     2     1
     extension_switch     1
  pspatm : epsatm=    6.22910522
         --- l  ekb(1:nproj) -->
             0    6.050032    0.820363
             1   -4.739617   -1.153841
             2   -1.335834
 pspatm: atomic psp has been read  and splines computed

   3.08202749E+03                                ecore*ucvol(ha*bohr**3)

 ==>  initialize data related to q vector <==

 The list of irreducible perturbations for this q vector is:
    1)    idir= 1    ipert=   6
    2)    idir= 2    ipert=   6
    3)    idir= 3    ipert=   6

 Perturbation wavevector (in red.coord.)   0.000000  0.000000  0.000000
 Perturbation : derivative vs k along direction   1

 dfpt_looppert : COMMENT -
  In a d/dk calculation, iscf is set to -3 automatically.
 The set of symmetries contains only one element for this perturbation.
 symkpt : not enough symmetry to change the number of k points.

 Initialisation of the first-order wave-functions :
  ireadwf=   0

--- !BeginCycle
iteration_state: {dtset: 1, }
solver: {iscf: 7, nstep: 2000, nline: 4, wfoptalg: 0, }
tolerances: {tolwfr: 1.00E-20, }
...

     iter   2DEtotal(Ha)        deltaE(Ha) residm    vres2
-ETOT  1  -57.757919246860     -5.776E+01 5.831E-02 0.000E+00
 ETOT  2  -57.777292115155     -1.937E-02 5.000E-05 0.000E+00
 ETOT  3  -57.777297253019     -5.138E-06 2.120E-07 0.000E+00
 ETOT  4  -57.777297256636     -3.617E-09 3.636E-10 0.000E+00
 ETOT  5  -57.777297256648     -1.211E-11 5.283E-12 0.000E+00
 ETOT  6  -57.777297256648     -6.395E-14 8.661E-15 0.000E+00
 ETOT  7  -57.777297256648      2.132E-14 1.476E-16 0.000E+00
 ETOT  8  -57.777297256648     -1.421E-14 4.185E-19 0.000E+00
 ETOT  9  -57.777297256648     -2.132E-14 9.831E-21 0.000E+00

 At SCF step    9   max residual=  9.83E-21 < tolwfr=  1.00E-20 =>converged.

 ----iterations are completed or convergence reached----

 dfpt_looppert: DFPT cycle converged with prtwf=-1. Will skip output of the 1st-order WFK file.
 dfpt_looppert : ek2=    1.0197982055E+02
          f-sum rule ratio=    1.0386674792E+00
 prteigrs : about to open file /scratch/users/j/a/jabreu/flow_simple_remain_atoms/flow/w205/t1/tmpdata/tmp_1WF1_EIG
 Expectation of eigenvalue derivatives (hartree) for nkpt=   2  k points:
  (in case of degenerate eigenvalues, averaged derivative)
 kpt#   1, nband= 34, wtk=  0.50000, kpt=  0.5000  0.5000 -0.5000 (reduced coord)
  -0.00000   -0.00000   -0.00000   -0.00000   -0.00000    0.00000    0.00000   -0.00000
   0.00000    0.00000    0.00000    0.00000    0.00000   -0.00000    0.00000    0.00000
  -0.00000   -0.00000   -0.00000    0.00000    0.00000   -0.00000   -0.00000    0.00000
   0.00000    0.00000   -0.00000    0.00000    0.00000    0.00000    0.00000    0.00000
   0.00000    0.00000
 prteigrs : prtvol=0 or 1, do not print more k-points.

 Eight components of 2nd-order total energy (hartree) are
 1,2,3: 0th-order hamiltonian combined with 1st-order wavefunctions
     kin0=   7.32495741E+01 eigvalue=   5.14803261E+00  local=  -3.16408685E+01
 4,5,6: 1st-order hamiltonian combined with 1st and 0th-order wfs
     kin1=  -1.05923123E+02  Hartree=   0.00000000E+00     xc=   0.00000000E+00
 7,8,9: eventually, occupation + non-local contributions
    edocc=   1.08770418E+01     enl0=   1.43517257E-01   enl1=  -9.63147138E+00
 1-9 gives the relaxation energy (to be shifted if some occ is /=2.0)
   erelax=  -5.77772973E+01
  No Ewald or frozen-wf contrib.: the relaxation energy is the total one
 2DEtotal=   -0.5777729726E+02 Ha. Also 2DEtotal=   -0.157220021404E+04 eV
    (  non-var. 2DEtotal :   -5.7777297257E+01 Ha)

 Perturbation wavevector (in red.coord.)   0.000000  0.000000  0.000000
 Perturbation : derivative vs k along direction   2
 The set of symmetries contains only one element for this perturbation.
 symkpt : not enough symmetry to change the number of k points.

[...]

 Perturbation wavevector (in red.coord.)   0.000000  0.000000  0.000000
 Perturbation : derivative vs k along direction   3
 The set of symmetries contains only one element for this perturbation.
 symkpt : not enough symmetry to change the number of k points.

 Initialisation of the first-order wave-functions :
  ireadwf=   0

--- !BeginCycle
iteration_state: {dtset: 1, }
solver: {iscf: 7, nstep: 2000, nline: 4, wfoptalg: 0, }
tolerances: {tolwfr: 1.00E-20, }
...

     iter   2DEtotal(Ha)        deltaE(Ha) residm    vres2
-ETOT  1  -109.37483803042     -1.094E+02 1.136E-01 0.000E+00
 ETOT  2  -109.40878361282     -3.395E-02 7.401E-05 0.000E+00
 ETOT  3  -109.40879114025     -7.527E-06 1.487E-07 0.000E+00
 ETOT  4  -109.40879114609     -5.839E-09 5.352E-10 0.000E+00
 ETOT  5  -109.40879114612     -2.218E-11 2.670E-12 0.000E+00
 ETOT  6  -109.40879114612     -2.416E-13 1.644E-14 0.000E+00
 ETOT  7  -109.40879114612      1.421E-14 9.985E-17 0.000E+00
 ETOT  8  -109.40879114612     -2.842E-14 8.622E-19 0.000E+00
 ETOT  9  -109.40879114612      2.842E-14 9.962E-21 0.000E+00

 At SCF step    9   max residual=  9.96E-21 < tolwfr=  1.00E-20 =>converged.

 ----iterations are completed or convergence reached----

 dfpt_looppert: DFPT cycle converged with prtwf=-1. Will skip output of the 1st-order WFK file.
 dfpt_looppert : ek2=    1.9140935407E+02
          f-sum rule ratio=    1.0450347348E+00
 prteigrs : about to open file /scratch/users/j/a/jabreu/flow_simple_remain_atoms/flow/w205/t1/tmpdata/tmp_1WF1_EIG
 Expectation of eigenvalue derivatives (hartree) for nkpt=   2  k points:
  (in case of degenerate eigenvalues, averaged derivative)
 kpt#   1, nband= 34, wtk=  0.50000, kpt=  0.5000  0.5000 -0.5000 (reduced coord)
  -0.00000   -0.00000   -0.00000   -0.00000    0.00000    0.00000    0.00000   -0.00000
   0.00000    0.00000   -0.00000   -0.00000   -0.00000    0.00000    0.00000    0.00000
  -0.00000   -0.00000   -0.00000    0.00000    0.00000   -0.00000   -0.00000    0.00000
   0.00000   -0.00000    0.00000   -0.00000    0.00000    0.00000    0.00000    0.00000
   0.00000    0.00000
 prteigrs : prtvol=0 or 1, do not print more k-points.

 Eight components of 2nd-order total energy (hartree) are
 1,2,3: 0th-order hamiltonian combined with 1st-order wavefunctions
     kin0=   1.36849720E+02 eigvalue=   9.65932431E+00  local=  -5.88536016E+01
 4,5,6: 1st-order hamiltonian combined with 1st and 0th-order wfs
     kin1=  -2.00029424E+02  Hartree=   0.00000000E+00     xc=   0.00000000E+00
 7,8,9: eventually, occupation + non-local contributions
    edocc=   2.13783001E+01     enl0=   3.75048006E-01   enl1=  -1.87881587E+01
 1-9 gives the relaxation energy (to be shifted if some occ is /=2.0)
   erelax=  -1.09408791E+02
  No Ewald or frozen-wf contrib.: the relaxation energy is the total one
 2DEtotal=   -0.1094087911E+03 Ha. Also 2DEtotal=   -0.297716461354E+04 eV
    (  non-var. 2DEtotal :   -1.0940879115E+02 Ha)

 CALCULATION OF EFFECTIVE MASSES
 NOTE : Additional infos (eff. mass eigenvalues, eigenvectors and, if degenerate, average mass) are available in stdout.

 COMMENTS:
 - At k-point ( 0.500, 0.500,-0.500), bands    24 through    25
   are DEGENERATE (effective mass tensor is therefore not defined).
   See Section IIIB Eqs. (67)-(70) and Appendix E of PRB 93 205147 (2016).
 - Angular average effective mass for Frohlich model is to be averaged over degenerate bands. See later.
 - Associated theta integrals calculated with ntheta=   1000 points.

 K-point ( 0.500, 0.500,-0.500) | band =    24
 Transport equivalent effective mass tensor:
             -1.0752459616             -0.1000988873              0.3794173405
             -0.1000988873             -1.0875881546              0.4035287659
              0.3794173405              0.4035287659             -2.5106737517
 Transport equivalent effective mass tensor eigenvalues:
             -2.7112516091             -0.9811281317             -0.9811281272
 Angular average effective mass 1/(<1/m>)=  -1.1914085199
 Angular average effective mass for Frohlich model (<m**0.5>)**2=  -1.2605353186
 Effective masses along directions: (cart. coord. / red. coord. -> eff. mass)
    1:   1.000000  0.000000  0.000000 /   0.998112 -0.061417  0.000000 ->  -0.8768979922
    2:   0.000000  1.000000  0.000000 /   0.000000  1.000000  0.000000 ->  -0.8789855264
    3:   0.000000  0.000000  1.000000 /  -0.552202 -0.552202  0.624616 ->  -2.1995435372
    4:   0.577350  0.577350  0.577350 /  -0.355644 -0.380944  0.853463 ->  -1.1347961753
    5:   0.000000  0.707107  0.707107 /  -0.632129 -0.298589  0.715023 ->  -1.0278312593
    6:   0.707107  0.000000  0.707107 /  -0.294150 -0.644355  0.705891 ->  -1.0257177475
    7:   0.707107  0.707107  0.000000 /   0.729875  0.683580  0.000000 ->  -1.1657047800

 K-point ( 0.500, 0.500,-0.500) | band =    25
 Transport equivalent effective mass tensor:
            -39.8682893003              0.3852499315             -1.4602611780
              0.3852499315            -39.8207879756             -1.5530586815
             -1.4602611780             -1.5530586815            -34.3437673450
 Transport equivalent effective mass tensor eigenvalues:
            -40.2305200636            -40.2305199894            -33.5718045680
 Angular average effective mass 1/(<1/m>)=  -4.2511754226
 Angular average effective mass for Frohlich model (<m**0.5>)**2=  -5.3178541576
 Effective masses along directions: (cart. coord. / red. coord. -> eff. mass)
    1:   1.000000  0.000000  0.000000 /   0.998112 -0.061417  0.000000 -> -18.4915912214
    2:   0.000000  1.000000  0.000000 /   0.000000  1.000000  0.000000 -> -18.6147685690
    3:   0.000000  0.000000  1.000000 /  -0.552202 -0.552202  0.624616 ->  -2.6094854878
    4:   0.577350  0.577350  0.577350 /  -0.355644 -0.380944  0.853463 ->  -3.2631761637
    5:   0.000000  0.707107  0.707107 /  -0.632129 -0.298589  0.715023 ->  -7.0445703492
    6:   0.707107  0.000000  0.707107 /  -0.294150 -0.644355  0.705891 ->  -7.3805294232
    7:   0.707107  0.707107  0.000000 /   0.729875  0.683580  0.000000 ->  -3.2236099813

 Angular average effective mass for Frohlich model, averaged over degenerate bands.
 Value of     (<<m**0.5>>)**2 =     2.939138E+00
 Absolute Value of <<m**0.5>> =     1.714391E+00

 K-point (-0.258, 0.258, 0.258) | band =    26
 Effective mass tensor:
              1.0956420028              0.2056055235             -0.6324719735
              0.2056055235              0.5289544491             -0.8288578744
             -0.6324719735             -0.8288578744              3.4884370161
 Effective mass tensor eigenvalues:
              0.3102829883              0.9387517384              3.8639987413
 Angular average effective mass 1/(<1/m>)=   0.6597890213
 Angular average effective mass for Frohlich model (<m**0.5>)**2=   0.8487667064
 Effective masses along directions: (cart. coord. / red. coord. -> eff. mass)
    1:   1.000000  0.000000  0.000000 /   0.998112 -0.061417  0.000000 ->   0.9717511133
    2:   0.000000  1.000000  0.000000 /   0.000000  1.000000  0.000000 ->   0.3288958669
    3:   0.000000  0.000000  1.000000 /  -0.552202 -0.552202  0.624616 ->   2.0948466239
    4:   0.577350  0.577350  0.577350 /  -0.355644 -0.380944  0.853463 ->   0.5103563895
    5:   0.000000  0.707107  0.707107 /  -0.632129 -0.298589  0.715023 ->   0.4081218647
    6:   0.707107  0.000000  0.707107 /  -0.294150 -0.644355  0.705891 ->   1.1122908329
    7:   0.707107  0.707107  0.000000 /   0.729875  0.683580  0.000000 ->   0.5366872284

 END OF EFFECTIVE MASSES SECTION

 ---- first-order wavefunction calculations are completed ----

 Total localisation tensor (bohr^2) in cartesian coordinates
  WARNING : still subject to testing - especially symmetries.
      direction              matrix element
   alpha     beta       real part   imaginary part
     1        1       0.5267929106    0.0000000000
     1        2      -0.0386427179    0.0000000000
     1        3      -0.9187501029    0.0000000000
     2        1      -0.0386427179    0.0000000000
     2        2       0.6268079407    0.0000000000
     2        3      -1.1879343882    0.0000000000
     3        1      -0.9187501029    0.0000000000
     3        2      -1.1879343882    0.0000000000
     3        3       9.0896260508    0.0000000000

 respfn : d/dk was computed, but no 2DTE, so no DDB output.

== END DATASET(S) ==============================================================

 -outvars: echo values of variables after computation  --------
            acell      1.0000000000E+00  1.0000000000E+00  1.0000000000E+00 Bohr
              amu      2.29897680E+01  2.00590000E+02  1.59994000E+01
             ecut      4.40000000E+01 Hartree
           etotal     -1.0940879115E+02
            fcart      0.0000000000E+00  0.0000000000E+00  0.0000000000E+00
                       0.0000000000E+00  0.0000000000E+00  0.0000000000E+00
                       0.0000000000E+00  0.0000000000E+00  0.0000000000E+00
                       0.0000000000E+00  0.0000000000E+00  0.0000000000E+00
                       0.0000000000E+00  0.0000000000E+00  0.0000000000E+00
-          fftalg         512
           irdden           1
           irdwfk           1
              ixc     -116133
              kpt      5.00000000E-01  5.00000000E-01 -5.00000000E-01
                      -2.57512214E-01  2.57512214E-01  2.57512214E-01
           kptopt           0
P           mkmem           2
P          mkqmem           2
P          mk1mem           2
            natom           5
            nband          34
           nbdbuf           4
            ngfft          80      80      80
             nkpt           2
            nstep        2000
             nsym          16
           ntypat           3
              occ      2.000000  2.000000  2.000000  2.000000  2.000000  2.000000
                       2.000000  2.000000  2.000000  2.000000  2.000000  2.000000
                       2.000000  2.000000  2.000000  2.000000  2.000000  2.000000
                       2.000000  2.000000  2.000000  2.000000  2.000000  2.000000
                       2.000000  0.000000  0.000000  0.000000  0.000000  0.000000
                       0.000000  0.000000  0.000000  0.000000
        optdriver           1
            prtwf          -1
            rfdir           1       1       1
           rfelfd           2
            rprim      6.2337086291E+00  0.0000000000E+00 -1.1791816478E+01
                      -3.8357997100E-01  6.2218959874E+00 -1.1791816478E+01
                       0.0000000000E+00  0.0000000000E+00  1.3338143016E+01
          spgroup         139
           strten      0.0000000000E+00  0.0000000000E+00  0.0000000000E+00
                       0.0000000000E+00  0.0000000000E+00  0.0000000000E+00
           symrel      1  0  0   0  1  0   0  0  1      -1  0  0   0 -1  0   0  0 -1
                      -1 -1 -1   0  0  1   0  1  0       1  1  1   0  0 -1   0 -1  0
                       0  1  0   1  0  0  -1 -1 -1       0 -1  0  -1  0  0   1  1  1
                       0  0  1  -1 -1 -1   1  0  0       0  0 -1   1  1  1  -1  0  0
                       0  1  0   1  0  0   0  0  1       0 -1  0  -1  0  0   0  0 -1
                      -1 -1 -1   0  0  1   1  0  0       1  1  1   0  0 -1  -1  0  0
                       1  0  0   0  1  0  -1 -1 -1      -1  0  0   0 -1  0   1  1  1
                       0  0  1  -1 -1 -1   0  1  0       0  0 -1   1  1  1   0 -1  0
           tolwfr      1.00000000E-20
            typat      1  1  2  3  3
           useylm           1
              wtk        0.50000    0.50000
           xangst      2.0928416603E+00  2.2258387618E+00 -8.4368759111E+00
                       1.0029130929E+00  1.0666467890E+00 -4.0430451450E+00
                       0.0000000000E+00  0.0000000000E+00  0.0000000000E+00
                       2.6366883766E+00  2.8042461609E+00 -1.0629286043E+01
                       4.5906637660E-01  4.8823938984E-01 -1.8506350135E+00
            xcart      3.9548975775E+00  4.2062256757E+00 -1.5943384889E+01
                       1.8952310806E+00  2.0156703117E+00 -7.6402480670E+00
                       0.0000000000E+00  0.0000000000E+00  0.0000000000E+00
                       4.9826189295E+00  5.2992572533E+00 -2.0086439609E+01
                       8.6750972858E-01  9.2263873408E-01 -3.4971933474E+00
             xred      6.7603600000E-01  6.7603600000E-01  2.2204460493E-16
                       3.2396400000E-01  3.2396400000E-01  2.2204460493E-16
                       0.0000000000E+00  0.0000000000E+00  0.0000000000E+00
                       8.5171100000E-01  8.5171100000E-01  3.3306690739E-16
                       1.4828900000E-01  1.4828900000E-01  4.1633363423E-17
            znucl       11.00000   80.00000    8.00000

- Timing analysis has been suppressed with timopt=0

 Suggested references for the acknowledgment of ABINIT usage.

 Calculation completed.
.Delivered   2 WARNINGs and   5 COMMENTs to log file.