.Version 9.5.2 of ABINIT

 ABINIT is a project of the Universite Catholique de Louvain,
 Corning Inc. and other collaborators, see ~abinit/doc/developers/contributors.txt .
 acknowledgments of the ABINIT effort.

.Starting date : Mon 24 May 2021.
- ( at 11h01 )

- input  file    -> /scratch/users/j/a/jabreu/flow_simple_10atoms/flow/w282/t1/run.abi
- output file    -> /scratch/users/j/a/jabreu/flow_simple_10atoms/flow/w282/t1/run.abo
- root for input  files -> /scratch/users/j/a/jabreu/flow_simple_10atoms/flow/w282/t1/indata/in
- root for output files -> /scratch/users/j/a/jabreu/flow_simple_10atoms/flow/w282/t1/outdata/out

 Symmetries : space group I4/m c m (#140); Bravais tI (body-center tetrag.)
     intxc =       0      iscf =       7    lmnmax =      18     lnmax =       6
     mgfft =      64  mpssoang =       3    mqgrid =    3001     natom =      10
  nloc_mem =       1    nspden =       1   nspinor =       1    nsppol =       1
      nsym =      16    n1xccc =    2501    ntypat =       3    occopt =       1
   xclevel =       2
-    mband =          49        mffmem =           1         mkmem =           2
-   mkqmem =           2        mk1mem =           2           mpw =       11048
      nfft =      262144          nkpt =           2
  Rough estimation (10% accuracy) of disk space for files :

------------- Echo of variables that govern the present computation ------------
-
- outvars: echo of selected default values
-   iomode0 =  0 , fftalg0 =512 , wfoptalg0 =  0
-
- outvars: echo of global parameters not present in the input file
-  max_nthreads =    0
-
 -outvars: echo values of preprocessed input variables --------
            acell      1.0000000000E+00  1.0000000000E+00  1.0000000000E+00 Bohr
              amu      8.76200000E+01  4.78800000E+01  1.59994000E+01
             ecut      4.40000000E+01 Hartree
-          fftalg         512
           irdden           1
           irdwfk           1
           istwfk        0    1
              ixc     -116133
              kpt      0.00000000E+00  0.00000000E+00  1.40000000E-01
                       0.00000000E+00  0.00000000E+00  0.00000000E+00
           kptopt           0
P           mkmem           2
P          mkqmem           2
P          mk1mem           2
            natom          10
            nband          49
           nbdbuf           4
            ngfft          64      64      64
             nkpt           2
            nstep        2000
             nsym          16
           ntypat           3
              occ      2.000000  2.000000  2.000000  2.000000  2.000000  2.000000
                       2.000000  2.000000  2.000000  2.000000  2.000000  2.000000
                       2.000000  2.000000  2.000000  2.000000  2.000000  2.000000
                       2.000000  2.000000  2.000000  2.000000  2.000000  2.000000
                       2.000000  2.000000  2.000000  2.000000  2.000000  2.000000
                       2.000000  2.000000  2.000000  2.000000  2.000000  2.000000
                       2.000000  2.000000  2.000000  2.000000  0.000000  0.000000
                       0.000000  0.000000  0.000000  0.000000  0.000000  0.000000
                       0.000000
        optdriver           1
            prtwf          -1
            rfdir           1       1       1
           rfelfd           2
            rprim      8.9832539145E+00  0.0000000000E+00 -5.2295691279E+00
                      -2.9696714699E+00  8.4782015931E+00 -5.2295691279E+00
                       0.0000000000E+00  0.0000000000E+00  1.0394577632E+01
          spgroup         140
           symrel      1  0  0   0  1  0   0  0  1      -1  0  0   0 -1  0   0  0 -1
                       0  0  1  -1 -1 -1   1  0  0       0  0 -1   1  1  1  -1  0  0
                       0  1  0   1  0  0  -1 -1 -1       0 -1  0  -1  0  0   1  1  1
                      -1 -1 -1   0  0  1   0  1  0       1  1  1   0  0 -1   0 -1  0
                       0  1  0   1  0  0   0  0  1       0 -1  0  -1  0  0   0  0 -1
                       0  0  1  -1 -1 -1   0  1  0       0  0 -1   1  1  1   0 -1  0
                       1  0  0   0  1  0  -1 -1 -1      -1  0  0   0 -1  0   1  1  1
                      -1 -1 -1   0  0  1   1  0  0       1  1  1   0  0 -1  -1  0  0
            tnons      0.0000000  0.0000000  0.0000000     0.0000000  0.0000000  0.0000000
                       0.5000000  0.5000000  0.0000000     0.5000000  0.5000000  0.0000000
                       0.0000000  0.0000000  0.0000000     0.0000000  0.0000000  0.0000000
                       0.5000000  0.5000000  0.0000000     0.5000000  0.5000000  0.0000000
                       0.5000000  0.5000000  0.0000000     0.5000000  0.5000000  0.0000000
                       0.0000000  0.0000000  0.0000000     0.0000000  0.0000000  0.0000000
                       0.5000000  0.5000000  0.0000000     0.5000000  0.5000000  0.0000000
                       0.0000000  0.0000000  0.0000000     0.0000000  0.0000000  0.0000000
           tolwfr      1.00000000E-20
            typat      1  1  2  2  3  3  3  3  3  3
           useylm           1
              wtk        0.50000    0.50000
           xangst      3.1724293082E+00  1.1216177632E+00 -1.7082005264E-02
                       9.8214634793E-03  3.3648532897E+00 -1.7082005264E-02
                       1.5911253858E+00  2.2432355264E+00 -2.7673687932E+00
                      -4.4162600960E-17 -6.2262293278E-17  4.7412088878E-19
                       2.2308995976E+00  3.4753539501E+00 -1.4007664019E+00
                      -6.8556577464E-02  3.2543526293E+00  2.5985684817E+00
                       3.2508073491E+00  1.2321184236E+00 -2.6327324922E+00
                       9.5135117404E-01  1.0111171028E+00  1.3666023914E+00
                       2.3866880787E+00  3.3648532897E+00 -4.1510531898E+00
                       7.9556269291E-01  1.1216177632E+00 -1.3836843966E+00
            xcart      5.9950225684E+00  2.1195503983E+00 -3.2280311750E-02
                       1.8559876200E-02  6.3586511948E+00 -3.2280311750E-02
                       3.0067912223E+00  4.2391007965E+00 -5.2295691279E+00
                      -8.3455221131E-17 -1.1765868270E-16  8.9595863367E-19
                       4.2157892695E+00  6.5674671805E+00 -2.6470648757E+00
                      -1.2955315601E-01  6.1498352091E+00  4.9105827680E+00
                       6.1431356006E+00  2.3283663840E+00 -4.9751433915E+00
                       1.7977931751E+00  1.9107344126E+00  2.5825042522E+00
                       4.5101868334E+00  6.3586511948E+00 -7.8443536918E+00
                       1.5033956112E+00  2.1195503983E+00 -2.6147845639E+00
             xred      7.5000000000E-01  2.5000000000E-01  5.0000000000E-01
                       2.5000000000E-01  7.5000000000E-01  5.0000000000E-01
                       5.0000000000E-01  5.0000000000E-01 -1.3877787808E-17
                      -1.3877787808E-17 -1.3877787808E-17 -1.3877787808E-17
                       7.2537025000E-01  7.7462975000E-01  5.0000000000E-01
                       2.2537025000E-01  7.2537025000E-01  9.5074050000E-01
                       7.7462975000E-01  2.7462975000E-01  4.9259500000E-02
                       2.7462975000E-01  2.2537025000E-01  5.0000000000E-01
                       7.5000000000E-01  7.5000000000E-01 -1.3877787808E-17
                       2.5000000000E-01  2.5000000000E-01 -1.3877787808E-17
            znucl       38.00000   22.00000    8.00000

 chkinp: Checking input parameters for consistency.

== DATASET  1 ==================================================================
-   mpi_nproc: 1, omp_nthreads: -1 (-1 if OMP is not activated)

--- !DatasetInfo
iteration_state: {dtset: 1, }
dimensions: {natom: 10, nkpt: 2, mband: 49, nsppol: 1, nspinor: 1, nspden: 1, mpw: 11048, }
cutoff_energies: {ecut:  44.0, pawecutdg:  -1.0, }
electrons: {nelect:   8.00000000E+01, charge:   0.00000000E+00, occopt:   1.00000000E+00, tsmear:   1.00000000E-02, }
meta: {optdriver: 1, rfelfd: 2, }
...

 Real(R)+Recip(G) space primitive vectors, cartesian coordinates (Bohr,Bohr^-1):
 R(1)=  8.9832539  0.0000000 -5.2295691  G(1)=  0.1113182  0.0389916  0.0000000
 R(2)= -2.9696715  8.4782016 -5.2295691  G(2)=  0.0000000  0.1179495  0.0000000
 R(3)=  0.0000000  0.0000000 10.3945776  G(3)=  0.0560048  0.0789579  0.0962040
 Unit cell volume ucvol=  7.9167013E+02 bohr^3
 Angles (23,13,12)=  1.20205671E+02  1.20205671E+02  8.96441342E+01 degrees

 getcut: wavevector=  0.0000  0.0000  0.0000  ngfft=  64  64  64
         ecut(hartree)=     44.000   => boxcut(ratio)=   2.06201

--- Pseudopotential description ------------------------------------------------
- pspini: atom type   1  psp file is /scratch/users/j/a/jabreu/pseudos/PBEsol/Sr.psp8
- pspatm: opening atomic psp file    /scratch/users/j/a/jabreu/pseudos/PBEsol/Sr.psp8
- Sr    ONCVPSP-3.3.0  r_core=   1.66721   1.31335   1.51547
- 38.00000  10.00000    180112                znucl, zion, pspdat
    8 -116133    2    4       600   0.00000   pspcod,pspxc,lmax,lloc,mmax,r2well
    5.99000000000000    6.00000000000000    0.00000000000000   rchrg,fchrg,qchrg
     nproj     2     2     2
     extension_switch     1
  pspatm : epsatm=   12.46450977
         --- l  ekb(1:nproj) -->
             0   10.029206    1.044171
             1    7.472414    1.670829
             2    4.142950    0.968140
 pspatm: atomic psp has been read  and splines computed

- pspini: atom type   2  psp file is /scratch/users/j/a/jabreu/pseudos/PBEsol/Ti.psp8
- pspatm: opening atomic psp file    /scratch/users/j/a/jabreu/pseudos/PBEsol/Ti.psp8
- Ti    ONCVPSP-3.3.0  r_core=   1.35825   1.31050   1.66360
- 22.00000  12.00000    180112                znucl, zion, pspdat
    8 -116133    2    4       600   0.00000   pspcod,pspxc,lmax,lloc,mmax,r2well
    5.99000000000000    2.50000000000000    0.00000000000000   rchrg,fchrg,qchrg
     nproj     2     2     2
     extension_switch     1
  pspatm : epsatm=   14.76919902
         --- l  ekb(1:nproj) -->
             0   11.321950    1.254474
             1    1.946894   -0.084268
             2   -5.237105   -1.488377
 pspatm: atomic psp has been read  and splines computed

- pspini: atom type   3  psp file is /scratch/users/j/a/jabreu/pseudos/PBEsol/O.psp8
- pspatm: opening atomic psp file    /scratch/users/j/a/jabreu/pseudos/PBEsol/O.psp8
- O     ONCVPSP-3.3.0  r_core=   1.35509   1.45563   1.26150
-  8.00000   6.00000    180112                znucl, zion, pspdat
    8 -116133    2    4       600   0.00000   pspcod,pspxc,lmax,lloc,mmax,r2well
    5.99000000000000    4.00000000000000    0.00000000000000   rchrg,fchrg,qchrg
     nproj     2     2     1
     extension_switch     1
  pspatm : epsatm=    6.22910522
         --- l  ekb(1:nproj) -->
             0    6.050032    0.820363
             1   -4.739617   -1.153841
             2   -1.335834
 pspatm: atomic psp has been read  and splines computed

   7.34736391E+03                                ecore*ucvol(ha*bohr**3)

 ==>  initialize data related to q vector <==

 The list of irreducible perturbations for this q vector is:
    1)    idir= 1    ipert=  11
[...]
 ETOT 14  -67.126876105143     -2.842E-14 6.753E-10 0.000E+00
 ETOT 15  -67.126876105143     -1.421E-14 1.317E-10 0.000E+00
 ETOT 16  -67.126876105143      2.842E-14 8.637E-11 0.000E+00
 ETOT 17  -67.126876105143      2.842E-14 1.689E-11 0.000E+00
 ETOT 18  -67.126876105143     -2.842E-14 1.115E-11 0.000E+00
 ETOT 19  -67.126876105143     -1.421E-14 2.180E-12 0.000E+00
 ETOT 20  -67.126876105143      0.000E+00 1.444E-12 0.000E+00
 ETOT 21  -67.126876105143     -1.421E-14 2.822E-13 0.000E+00
 ETOT 22  -67.126876105143      1.421E-14 1.874E-13 0.000E+00
 ETOT 23  -67.126876105143      0.000E+00 3.660E-14 0.000E+00
 ETOT 24  -67.126876105143      0.000E+00 2.436E-14 0.000E+00
 ETOT 25  -67.126876105143     -1.421E-14 4.751E-15 0.000E+00
 ETOT 26  -67.126876105143     -2.842E-14 3.167E-15 0.000E+00
 ETOT 27  -67.126876105143      5.684E-14 6.172E-16 0.000E+00
 ETOT 28  -67.126876105143     -2.842E-14 4.121E-16 0.000E+00
 ETOT 29  -67.126876105143      2.842E-14 8.023E-17 0.000E+00
 ETOT 30  -67.126876105143      1.421E-14 5.364E-17 0.000E+00
 ETOT 31  -67.126876105143     -2.842E-14 1.044E-17 0.000E+00
 ETOT 32  -67.126876105143     -1.421E-14 6.986E-18 0.000E+00
 ETOT 33  -67.126876105143      0.000E+00 1.358E-18 0.000E+00
 ETOT 34  -67.126876105143      2.842E-14 9.100E-19 0.000E+00
 ETOT 35  -67.126876105143      0.000E+00 1.768E-19 0.000E+00
 ETOT 36  -67.126876105143     -1.421E-14 1.186E-19 0.000E+00
 ETOT 37  -67.126876105143     -2.842E-14 2.302E-20 0.000E+00
 ETOT 38  -67.126876105143      0.000E+00 1.545E-20 0.000E+00
 ETOT 39  -67.126876105143     -1.421E-14 9.950E-21 0.000E+00

 At SCF step   39   max residual=  9.95E-21 < tolwfr=  1.00E-20 =>converged.

 ----iterations are completed or convergence reached----

 dfpt_looppert: DFPT cycle converged with prtwf=-1. Will skip output of the 1st-order WFK file.
 dfpt_looppert : ek2=    1.1765268188E+02
          f-sum rule ratio=    1.1734011824E+00
 prteigrs : about to open file /scratch/users/j/a/jabreu/flow_simple_10atoms/flow/w282/t1/tmpdata/tmp_1WF1_EIG
 Expectation of eigenvalue derivatives (hartree) for nkpt=   2  k points:
  (in case of degenerate eigenvalues, averaged derivative)
 kpt#   1, nband= 49, wtk=  0.50000, kpt=  0.0000  0.0000  0.1400 (reduced coord)
   0.00015   -0.00015   -0.00037   -0.00057    0.00681   -0.01490    0.00029    0.00029
   0.01067   -0.00188   -0.01154    0.00410    0.00520   -0.06705   -0.05641   -0.03763
   0.03579    0.07548    0.00472    0.06475    0.00262    0.05766    0.01958   -0.00210
  -0.08825    0.17656    0.05027    0.04973   -0.13054   -0.00879   -0.00558   -0.11693
  -0.11448   -0.09859   -0.24356   -0.04784   -0.04596   -0.07838   -0.11127   -0.00018
   0.01114    0.19152    0.19414   -0.03479   -0.07421   -0.01851    0.00911    0.18207
   0.16798
 prteigrs : prtvol=0 or 1, do not print more k-points.

 Eight components of 2nd-order total energy (hartree) are
 1,2,3: 0th-order hamiltonian combined with 1st-order wavefunctions
     kin0=   1.11369824E+02 eigvalue=  -6.51163885E+00  local=  -5.64931128E+01
 4,5,6: 1st-order hamiltonian combined with 1st and 0th-order wfs
     kin1=  -1.38053796E+02  Hartree=   0.00000000E+00     xc=   0.00000000E+00
 7,8,9: eventually, occupation + non-local contributions
    edocc=   1.45121751E+01     enl0=   4.24962862E+00   enl1=   3.80004382E+00
 1-9 gives the relaxation energy (to be shifted if some occ is /=2.0)
   erelax=  -6.71268761E+01
  No Ewald or frozen-wf contrib.: the relaxation energy is the total one
 2DEtotal=   -0.6712687611E+02 Ha. Also 2DEtotal=   -0.182661519302E+04 eV
    (  non-var. 2DEtotal :   -6.7126876104E+01 Ha)

 CALCULATION OF EFFECTIVE MASSES
 NOTE : Additional infos (eff. mass eigenvalues, eigenvectors and, if degenerate, average mass) are available in stdout.

--- !WARNING
src_file: m_efmas.F90
src_line: 0
message: |
    Effective masses calculations require given k-point(s) to be band extrema for given bands, but max abs gradient of band(s) was found to be greater than 1e-5. Abinit will continue anyway.
...

[...]

--- !WARNING
src_file: m_efmas.F90
src_line: 0
message: |
    Effective masses calculations require given k-point(s) to be band extrema for given bands, but max abs gradient of band(s) was found to be greater than 1e-5. Abinit will continue anyway.
...

 K-point ( 0.000, 0.000, 0.140) | band =    40
 Effective mass tensor:
             -2.7421107040             -2.2504301519             -2.8285533557
             -2.2504301519             -4.3186333066             -3.9878135507
             -2.8285533557             -3.9878135507             -5.8541282587
 Effective mass tensor eigenvalues:
            -10.7736967345             -1.1458821757             -0.9952933591
 Angular average effective mass 1/(<1/m>)=  -1.5226589754
 Angular average effective mass for Frohlich model (<m**0.5>)**2=  -1.8525001229
 Effective masses along directions: (cart. coord. / red. coord. -> eff. mass)
    1:   1.000000  0.000000  0.000000 /   0.949465 -0.313873  0.000000 ->  -1.3100597829
    2:   0.000000  1.000000  0.000000 /   0.000000  1.000000  0.000000 ->  -1.5260000550
    3:   0.000000  0.000000  1.000000 /  -0.409933 -0.409933  0.814806 ->  -1.8128891447
    4:   0.577350  0.577350  0.577350 /   0.339543  0.025234  0.940252 ->  -7.6823817128
    5:   0.000000  0.707107  0.707107 /  -0.432877  0.268905  0.860411 ->  -4.3184793223
    6:   0.707107  0.000000  0.707107 /   0.272777 -0.595832  0.755365 ->  -2.5401290781
    7:   0.707107  0.707107  0.000000 /   0.852489  0.522746  0.000000 ->  -1.8013896402

 COMMENTS:
 - At k-point ( 0.000, 0.000, 0.000), bands    41 through    42
   are DEGENERATE (effective mass tensor is therefore not defined).
   See Section IIIB Eqs. (67)-(70) and Appendix E of PRB 93 205147 (2016).
 - Angular average effective mass for Frohlich model is to be averaged over degenerate bands. See later.
 - Associated theta integrals calculated with ntheta=   1000 points.

 K-point ( 0.000, 0.000, 0.000) | band =    41
 Transport equivalent effective mass tensor:
             10.4713209500             -1.5472483683              1.9087638524
             -1.5472483683              9.3874072903              2.6910555884
              1.9087638524              2.6910555884              8.2489608571
 Transport equivalent effective mass tensor eigenvalues:
             11.5687831463             11.5687831387              4.9701228122
 Angular average effective mass 1/(<1/m>)=   0.8678640857
 Angular average effective mass for Frohlich model (<m**0.5>)**2=   1.2022557120
 Effective masses along directions: (cart. coord. / red. coord. -> eff. mass)
    1:   1.000000  0.000000  0.000000 /   0.949465 -0.313873  0.000000 ->   1.1327699572
    2:   0.000000  1.000000  0.000000 /   0.000000  1.000000  0.000000 ->   0.6490325106
    3:   0.000000  0.000000  1.000000 /  -0.409933 -0.409933  0.814806 ->   0.7840956177
    4:   0.577350  0.577350  0.577350 /   0.339543  0.025234  0.940252 ->   4.6891922120
    5:   0.000000  0.707107  0.707107 /  -0.432877  0.268905  0.860411 ->   1.9318306338
    6:   0.707107  0.000000  0.707107 /   0.272777 -0.595832  0.755365 ->   1.0365857030
    7:   0.707107  0.707107  0.000000 /   0.852489  0.522746  0.000000 ->   0.7730196064

 K-point ( 0.000, 0.000, 0.000) | band =    42
 Transport equivalent effective mass tensor:
              0.5554419734             -0.0063326564              0.0078122856
             -0.0063326564              0.5510056792              0.0110140869
              0.0078122856              0.0110140869              0.5463461891
 Transport equivalent effective mass tensor eigenvalues:
              0.5599337237              0.5599337230              0.5329263950
 Angular average effective mass 1/(<1/m>)=   0.4546847450
 Angular average effective mass for Frohlich model (<m**0.5>)**2=   0.4601828133
 Effective masses along directions: (cart. coord. / red. coord. -> eff. mass)
    1:   1.000000  0.000000  0.000000 /   0.949465 -0.313873  0.000000 ->   0.4775852259
    2:   0.000000  1.000000  0.000000 /   0.000000  1.000000  0.000000 ->   0.5541266844
    3:   0.000000  0.000000  1.000000 /  -0.409933 -0.409933  0.814806 ->   0.4069456352
    4:   0.577350  0.577350  0.577350 /   0.339543  0.025234  0.940252 ->   0.4088274936
    5:   0.000000  0.707107  0.707107 /  -0.432877  0.268905  0.860411 ->   0.4748507715
    6:   0.707107  0.000000  0.707107 /   0.272777 -0.595832  0.755365 ->   0.5745070612
    7:   0.707107  0.707107  0.000000 /   0.852489  0.522746  0.000000 ->   0.4177529922

 Angular average effective mass for Frohlich model, averaged over degenerate bands.
 Value of     (<<m**0.5>>)**2 =     7.875160E-01
 Absolute Value of <<m**0.5>> =     8.874210E-01

 END OF EFFECTIVE MASSES SECTION

 ---- first-order wavefunction calculations are completed ----

 Total localisation tensor (bohr^2) in cartesian coordinates
  WARNING : still subject to testing - especially symmetries.
      direction              matrix element
   alpha     beta       real part   imaginary part
     1        1       1.5255718657    0.0000000000
     1        2      -0.4290771809    0.0000000000
     1        3      -0.5359477479    0.0000000000
     2        1      -0.4290771809    0.0000000000
     2        2       1.2249849437    0.0000000000
     2        3      -0.7556016891    0.0000000000
     3        1      -0.5359477479    0.0000000000
     3        2      -0.7556016891    0.0000000000
     3        3       3.1699088614    0.0000000000

 respfn : d/dk was computed, but no 2DTE, so no DDB output.

== END DATASET(S) ==============================================================

 -outvars: echo values of variables after computation  --------
            acell      1.0000000000E+00  1.0000000000E+00  1.0000000000E+00 Bohr
              amu      8.76200000E+01  4.78800000E+01  1.59994000E+01
             ecut      4.40000000E+01 Hartree
           etotal     -6.7126876105E+01
            fcart      0.0000000000E+00  0.0000000000E+00  0.0000000000E+00
                       0.0000000000E+00  0.0000000000E+00  0.0000000000E+00
                       0.0000000000E+00  0.0000000000E+00  0.0000000000E+00
                       0.0000000000E+00  0.0000000000E+00  0.0000000000E+00
                       0.0000000000E+00  0.0000000000E+00  0.0000000000E+00
                       0.0000000000E+00  0.0000000000E+00  0.0000000000E+00
                       0.0000000000E+00  0.0000000000E+00  0.0000000000E+00
                       0.0000000000E+00  0.0000000000E+00  0.0000000000E+00
                       0.0000000000E+00  0.0000000000E+00  0.0000000000E+00
                       0.0000000000E+00  0.0000000000E+00  0.0000000000E+00
-          fftalg         512
           irdden           1
           irdwfk           1
           istwfk        0    1
              ixc     -116133
              kpt      0.00000000E+00  0.00000000E+00  1.40000000E-01
                       0.00000000E+00  0.00000000E+00  0.00000000E+00
           kptopt           0
P           mkmem           2
P          mkqmem           2
P          mk1mem           2
            natom          10
            nband          49
           nbdbuf           4
            ngfft          64      64      64
             nkpt           2
            nstep        2000
             nsym          16
           ntypat           3
              occ      2.000000  2.000000  2.000000  2.000000  2.000000  2.000000
                       2.000000  2.000000  2.000000  2.000000  2.000000  2.000000
                       2.000000  2.000000  2.000000  2.000000  2.000000  2.000000
                       2.000000  2.000000  2.000000  2.000000  2.000000  2.000000
                       2.000000  2.000000  2.000000  2.000000  2.000000  2.000000
                       2.000000  2.000000  2.000000  2.000000  2.000000  2.000000
                       2.000000  2.000000  2.000000  2.000000  0.000000  0.000000
                       0.000000  0.000000  0.000000  0.000000  0.000000  0.000000
                       0.000000
        optdriver           1
            prtwf          -1
            rfdir           1       1       1
           rfelfd           2
            rprim      8.9832539145E+00  0.0000000000E+00 -5.2295691279E+00
                      -2.9696714699E+00  8.4782015931E+00 -5.2295691279E+00
                       0.0000000000E+00  0.0000000000E+00  1.0394577632E+01
          spgroup         140
           strten      0.0000000000E+00  0.0000000000E+00  0.0000000000E+00
                       0.0000000000E+00  0.0000000000E+00  0.0000000000E+00
           symrel      1  0  0   0  1  0   0  0  1      -1  0  0   0 -1  0   0  0 -1
                       0  0  1  -1 -1 -1   1  0  0       0  0 -1   1  1  1  -1  0  0
                       0  1  0   1  0  0  -1 -1 -1       0 -1  0  -1  0  0   1  1  1
                      -1 -1 -1   0  0  1   0  1  0       1  1  1   0  0 -1   0 -1  0
                       0  1  0   1  0  0   0  0  1       0 -1  0  -1  0  0   0  0 -1
                       0  0  1  -1 -1 -1   0  1  0       0  0 -1   1  1  1   0 -1  0
                       1  0  0   0  1  0  -1 -1 -1      -1  0  0   0 -1  0   1  1  1
                      -1 -1 -1   0  0  1   1  0  0       1  1  1   0  0 -1  -1  0  0
            tnons      0.0000000  0.0000000  0.0000000     0.0000000  0.0000000  0.0000000
                       0.5000000  0.5000000  0.0000000     0.5000000  0.5000000  0.0000000
                       0.0000000  0.0000000  0.0000000     0.0000000  0.0000000  0.0000000
                       0.5000000  0.5000000  0.0000000     0.5000000  0.5000000  0.0000000
                       0.5000000  0.5000000  0.0000000     0.5000000  0.5000000  0.0000000
                       0.0000000  0.0000000  0.0000000     0.0000000  0.0000000  0.0000000
                       0.5000000  0.5000000  0.0000000     0.5000000  0.5000000  0.0000000
                       0.0000000  0.0000000  0.0000000     0.0000000  0.0000000  0.0000000
           tolwfr      1.00000000E-20
            typat      1  1  2  2  3  3  3  3  3  3
           useylm           1
              wtk        0.50000    0.50000
           xangst      3.1724293082E+00  1.1216177632E+00 -1.7082005264E-02
                       9.8214634793E-03  3.3648532897E+00 -1.7082005264E-02
                       1.5911253858E+00  2.2432355264E+00 -2.7673687932E+00
                      -4.4162600960E-17 -6.2262293278E-17  4.7412088878E-19
                       2.2308995976E+00  3.4753539501E+00 -1.4007664019E+00
                      -6.8556577464E-02  3.2543526293E+00  2.5985684817E+00
                       3.2508073491E+00  1.2321184236E+00 -2.6327324922E+00
                       9.5135117404E-01  1.0111171028E+00  1.3666023914E+00
                       2.3866880787E+00  3.3648532897E+00 -4.1510531898E+00
                       7.9556269291E-01  1.1216177632E+00 -1.3836843966E+00
            xcart      5.9950225684E+00  2.1195503983E+00 -3.2280311750E-02
                       1.8559876200E-02  6.3586511948E+00 -3.2280311750E-02
                       3.0067912223E+00  4.2391007965E+00 -5.2295691279E+00
                      -8.3455221131E-17 -1.1765868270E-16  8.9595863367E-19
                       4.2157892695E+00  6.5674671805E+00 -2.6470648757E+00
                      -1.2955315601E-01  6.1498352091E+00  4.9105827680E+00
                       6.1431356006E+00  2.3283663840E+00 -4.9751433915E+00
                       1.7977931751E+00  1.9107344126E+00  2.5825042522E+00
                       4.5101868334E+00  6.3586511948E+00 -7.8443536918E+00
                       1.5033956112E+00  2.1195503983E+00 -2.6147845639E+00
             xred      7.5000000000E-01  2.5000000000E-01  5.0000000000E-01
                       2.5000000000E-01  7.5000000000E-01  5.0000000000E-01
                       5.0000000000E-01  5.0000000000E-01 -1.3877787808E-17
                      -1.3877787808E-17 -1.3877787808E-17 -1.3877787808E-17
                       7.2537025000E-01  7.7462975000E-01  5.0000000000E-01
                       2.2537025000E-01  7.2537025000E-01  9.5074050000E-01
                       7.7462975000E-01  2.7462975000E-01  4.9259500000E-02
                       2.7462975000E-01  2.2537025000E-01  5.0000000000E-01
                       7.5000000000E-01  7.5000000000E-01 -1.3877787808E-17
                       2.5000000000E-01  2.5000000000E-01 -1.3877787808E-17
            znucl       38.00000   22.00000    8.00000

- Timing analysis has been suppressed with timopt=0

 Suggested references for the acknowledgment of ABINIT usage.

 Calculation completed.
.Delivered   8 WARNINGs and   5 COMMENTs to log file.