.Version 9.5.2 of ABINIT

 ABINIT is a project of the Universite Catholique de Louvain,
 Corning Inc. and other collaborators, see ~abinit/doc/developers/contributors.txt .
 acknowledgments of the ABINIT effort.

.Starting date : Mon 24 May 2021.
- ( at 11h18 )

- input  file    -> /scratch/users/j/a/jabreu/flow_simple_10atoms/flow/w318/t1/run.abi
- output file    -> /scratch/users/j/a/jabreu/flow_simple_10atoms/flow/w318/t1/run.abo
- root for input  files -> /scratch/users/j/a/jabreu/flow_simple_10atoms/flow/w318/t1/indata/in
- root for output files -> /scratch/users/j/a/jabreu/flow_simple_10atoms/flow/w318/t1/outdata/out

 Symmetries : space group Cm c 2_1 (# 36); Bravais oC (1-face-center ortho.)
     intxc =       0      iscf =       7    lmnmax =      18     lnmax =       6
     mgfft =      64  mpssoang =       3    mqgrid =    3001     natom =      10
  nloc_mem =       1    nspden =       1   nspinor =       1    nsppol =       1
      nsym =       4    n1xccc =    2501    ntypat =       3    occopt =       1
   xclevel =       2
-    mband =          53        mffmem =           1         mkmem =           2
-   mkqmem =           2        mk1mem =           2           mpw =       13067
      nfft =      245760          nkpt =           2
  Rough estimation (10% accuracy) of disk space for files :

------------- Echo of variables that govern the present computation ------------
-
- outvars: echo of selected default values
-   iomode0 =  0 , fftalg0 =512 , wfoptalg0 =  0
-
- outvars: echo of global parameters not present in the input file
-  max_nthreads =    0
-
 -outvars: echo values of preprocessed input variables --------
            acell      1.0000000000E+00  1.0000000000E+00  1.0000000000E+00 Bohr
              amu      7.26100000E+01  1.40067400E+01  1.59994000E+01
             ecut      4.40000000E+01 Hartree
-          fftalg         512
           irdden           1
           irdwfk           1
           istwfk        0    1
              ixc     -116133
              kpt     -4.57958723E-01  5.42041277E-01  0.00000000E+00
                       0.00000000E+00  0.00000000E+00  0.00000000E+00
           kptopt           0
P           mkmem           2
P          mkqmem           2
P          mk1mem           2
            natom          10
            nband          53
           nbdbuf           4
            ngfft          64      64      60
             nkpt           2
            nstep        2000
             nsym           4
           ntypat           3
              occ      2.000000  2.000000  2.000000  2.000000  2.000000  2.000000
                       2.000000  2.000000  2.000000  2.000000  2.000000  2.000000
                       2.000000  2.000000  2.000000  2.000000  2.000000  2.000000
                       2.000000  2.000000  2.000000  2.000000  2.000000  2.000000
                       2.000000  2.000000  2.000000  2.000000  2.000000  2.000000
                       2.000000  2.000000  2.000000  2.000000  2.000000  2.000000
                       2.000000  2.000000  2.000000  2.000000  2.000000  2.000000
                       2.000000  2.000000  0.000000  0.000000  0.000000  0.000000
                       0.000000  0.000000  0.000000  0.000000  0.000000
        optdriver           1
            prtwf          -1
            rfdir           1       1       1
           rfelfd           2
            rprim      1.0385298378E+01  0.0000000000E+00  0.0000000000E+00
                      -4.6289257557E+00  9.2966374967E+00  0.0000000000E+00
                       0.0000000000E+00  0.0000000000E+00  9.6917774884E+00
          spgroup          36
           symrel      1  0  0   0  1  0   0  0  1       0  1  0   1  0  0   0  0  1
                      -1  0  0   0 -1  0   0  0  1       0 -1  0  -1  0  0   0  0  1
            tnons      0.0000000  0.0000000  0.0000000     0.0000000  0.0000000  0.0000000
                       0.0000000  0.0000000  0.5000000     0.0000000  0.0000000  0.5000000
           tolwfr      1.00000000E-20
            typat      1  1  1  1  2  2  2  2  3  3
           useylm           1
              wtk        0.50000    0.50000
           xangst      3.6369189022E+00  9.8543880225E-02  3.1655522140E+00
                      -5.9077770636E-01  4.8210247996E+00  6.0121833522E-01
                       4.5789715745E+00  1.6199746097E+00  6.0121833522E-01
                      -1.5328303787E+00  3.2995940701E+00  3.1655522140E+00
                       4.2344342597E+00  1.6539540706E+00  3.9364884227E+00
                      -1.1882930638E+00  3.2656146092E+00  1.3721545439E+00
                       3.4529345513E+00  3.9181904750E-01  1.3721545439E+00
                      -4.0679335548E-01  4.5277496323E+00  3.9364884227E+00
                       2.3054567334E+00  3.7233509574E+00  3.6026531810E+00
                       7.4068446247E-01  1.1962177223E+00  1.0383193022E+00
            xcart      6.8727806926E+00  1.8622094570E-01  5.9820267438E+00
                      -1.1164080704E+00  9.1104165510E+00  1.1361379996E+00
                       8.6530022461E+00  3.0613083546E+00  1.1361379996E+00
                      -2.8966296239E+00  6.2353291421E+00  5.9820267438E+00
                       8.0019210785E+00  3.1255202298E+00  7.4388850441E+00
                      -2.2455484563E+00  6.1711172669E+00  2.5929962999E+00
                       6.5251006567E+00  7.4043069342E-01  2.5929962999E+00
                      -7.6872803454E-01  8.5562068033E+00  7.4388850441E+00
                       4.3566818372E+00  7.0361136062E+00  6.8080278638E+00
                       1.3996907850E+00  2.2605238905E+00  1.9621391196E+00
             xred      6.7070800000E-01  2.0031000000E-02  6.1722700000E-01
                       3.2929200000E-01  9.7996900000E-01  1.1722700000E-01
                       9.7996900000E-01  3.2929200000E-01  1.1722700000E-01
                       2.0031000000E-02  6.7070800000E-01  6.1722700000E-01
                       9.2035500000E-01  3.3619900000E-01  7.6754600000E-01
                       7.9645000000E-02  6.6380100000E-01  2.6754600000E-01
                       6.6380100000E-01  7.9645000000E-02  2.6754600000E-01
                       3.3619900000E-01  9.2035500000E-01  7.6754600000E-01
                       7.5684500000E-01  7.5684500000E-01  7.0245400000E-01
                       2.4315500000E-01  2.4315500000E-01  2.0245400000E-01
            znucl       32.00000    7.00000    8.00000

 chkinp: Checking input parameters for consistency.

== DATASET  1 ==================================================================
-   mpi_nproc: 1, omp_nthreads: -1 (-1 if OMP is not activated)

--- !DatasetInfo
iteration_state: {dtset: 1, }
dimensions: {natom: 10, nkpt: 2, mband: 53, nsppol: 1, nspinor: 1, nspden: 1, mpw: 13067, }
cutoff_energies: {ecut:  44.0, pawecutdg:  -1.0, }
electrons: {nelect:   8.80000000E+01, charge:   0.00000000E+00, occopt:   1.00000000E+00, tsmear:   1.00000000E-02, }
meta: {optdriver: 1, rfelfd: 2, }
...

 Real(R)+Recip(G) space primitive vectors, cartesian coordinates (Bohr,Bohr^-1):
 R(1)= 10.3852984  0.0000000  0.0000000  G(1)=  0.0962900  0.0479441  0.0000000
 R(2)= -4.6289258  9.2966375  0.0000000  G(2)=  0.0000000  0.1075658  0.0000000
 R(3)=  0.0000000  0.0000000  9.6917775  G(3)=  0.0000000  0.0000000  0.1031802
 Unit cell volume ucvol=  9.3572517E+02 bohr^3
 Angles (23,13,12)=  9.00000000E+01  9.00000000E+01  1.16469355E+02 degrees

 getcut: wavevector=  0.0000  0.0000  0.0000  ngfft=  64  64  60
         ecut(hartree)=     44.000   => boxcut(ratio)=   2.06390

--- Pseudopotential description ------------------------------------------------
- pspini: atom type   1  psp file is /scratch/users/j/a/jabreu/pseudos/PBEsol/Ge.psp8
- pspatm: opening atomic psp file    /scratch/users/j/a/jabreu/pseudos/PBEsol/Ge.psp8
- Ge    ONCVPSP-3.3.0  r_core=   1.91022   1.82122   1.91022
- 32.00000  14.00000    180112                znucl, zion, pspdat
    8 -116133    2    4       600   0.00000   pspcod,pspxc,lmax,lloc,mmax,r2well
    5.99000000000000    5.00000000000000    0.00000000000000   rchrg,fchrg,qchrg
     nproj     2     2     2
     extension_switch     1
  pspatm : epsatm=   30.86751540
         --- l  ekb(1:nproj) -->
             0    6.339734    0.583066
             1    3.813259    0.738801
             2   -9.332373   -3.602819
 pspatm: atomic psp has been read  and splines computed

- pspini: atom type   2  psp file is /scratch/users/j/a/jabreu/pseudos/PBEsol/N.psp8
- pspatm: opening atomic psp file    /scratch/users/j/a/jabreu/pseudos/PBEsol/N.psp8
- N     ONCVPSP-3.3.0  r_core=   1.20551   1.35824
-  7.00000   5.00000    180112                znucl, zion, pspdat
    8 -116133    1    4       600   0.00000   pspcod,pspxc,lmax,lloc,mmax,r2well
    5.99000000000000    4.00000000000000    0.00000000000000   rchrg,fchrg,qchrg
     nproj     2     2
     extension_switch     1
  pspatm : epsatm=    5.26508895
         --- l  ekb(1:nproj) -->
             0    7.464189    0.625868
             1   -4.309714   -1.012941
 pspatm: atomic psp has been read  and splines computed

- pspini: atom type   3  psp file is /scratch/users/j/a/jabreu/pseudos/PBEsol/O.psp8
- pspatm: opening atomic psp file    /scratch/users/j/a/jabreu/pseudos/PBEsol/O.psp8
- O     ONCVPSP-3.3.0  r_core=   1.35509   1.45563   1.26150
-  8.00000   6.00000    180112                znucl, zion, pspdat
    8 -116133    2    4       600   0.00000   pspcod,pspxc,lmax,lloc,mmax,r2well
    5.99000000000000    4.00000000000000    0.00000000000000   rchrg,fchrg,qchrg
     nproj     2     2     1
     extension_switch     1
  pspatm : epsatm=    6.22910522
         --- l  ekb(1:nproj) -->
             0    6.050032    0.820363
             1   -4.739617   -1.153841
             2   -1.335834
 pspatm: atomic psp has been read  and splines computed

   1.38149993E+04                                ecore*ucvol(ha*bohr**3)

 ==>  initialize data related to q vector <==

 The list of irreducible perturbations for this q vector is:
    1)    idir= 1    ipert=  11
    2)    idir= 2    ipert=  11
    3)    idir= 3    ipert=  11

 Perturbation wavevector (in red.coord.)   0.000000  0.000000  0.000000
 Perturbation : derivative vs k along direction   1

 dfpt_looppert : COMMENT -
  In a d/dk calculation, iscf is set to -3 automatically.
 The set of symmetries contains only one element for this perturbation.
 symkpt : not enough symmetry to change the number of k points.

 Initialisation of the first-order wave-functions :
  ireadwf=   0

--- !BeginCycle
iteration_state: {dtset: 1, }
solver: {iscf: 7, nstep: 2000, nline: 4, wfoptalg: 0, }
tolerances: {tolwfr: 1.00E-20, }
...

     iter   2DEtotal(Ha)        deltaE(Ha) residm    vres2
-ETOT  1  -83.627186211448     -8.363E+01 1.031E-01 0.000E+00
 ETOT  2  -83.729792631856     -1.026E-01 2.424E-02 0.000E+00
 ETOT  3  -83.730355644989     -5.630E-04 3.258E-03 0.000E+00
 ETOT  4  -83.730363935283     -8.290E-06 1.464E-03 0.000E+00
 ETOT  5  -83.730364097008     -1.617E-07 2.272E-04 0.000E+00
 ETOT  6  -83.730364100615     -3.606E-09 1.093E-04 0.000E+00
[...]
 ETOT 34  -83.730364100702     -4.263E-14 2.453E-19 0.000E+00
 ETOT 35  -83.730364100702      1.421E-14 3.988E-20 0.000E+00
 ETOT 36  -83.730364100701      1.421E-14 2.377E-20 0.000E+00
 ETOT 37  -83.730364100701      1.421E-14 9.993E-21 0.000E+00

 At SCF step   37   max residual=  9.99E-21 < tolwfr=  1.00E-20 =>converged.

 ----iterations are completed or convergence reached----

 dfpt_looppert: DFPT cycle converged with prtwf=-1. Will skip output of the 1st-order WFK file.
 dfpt_looppert : ek2=    8.0393439715E+01
          f-sum rule ratio=    1.0458877096E+00
 prteigrs : about to open file /scratch/users/j/a/jabreu/flow_simple_10atoms/flow/w318/t1/tmpdata/tmp_1WF1_EIG
 Expectation of eigenvalue derivatives (hartree) for nkpt=   2  k points:
  (in case of degenerate eigenvalues, averaged derivative)
 kpt#   1, nband= 53, wtk=  0.50000, kpt= -0.4580  0.5420  0.0000 (reduced coord)
  -0.00095    0.00043   -0.00081   -0.00038    0.00236   -0.00199    0.00165    0.00034
  -0.00043   -0.00196    0.00136    0.00031   -0.00049    0.00044   -0.00159    0.00059
  -0.00026    0.00136    0.00003    0.00004   -0.00588   -0.00041    0.02001   -0.08639
   0.01288    0.05953    0.00117   -0.06325    0.13215   -0.02323   -0.10946   -0.04192
   0.11681    0.02145    0.01411   -0.04495   -0.02211    0.01302   -0.02324    0.02994
  -0.00470    0.02232   -0.05079   -0.00208    0.04708    0.05710   -0.02700   -0.01237
  -0.07819   -0.05135    0.00185    0.09971   -0.01952
 prteigrs : prtvol=0 or 1, do not print more k-points.

 Eight components of 2nd-order total energy (hartree) are
 1,2,3: 0th-order hamiltonian combined with 1st-order wavefunctions
     kin0=   9.77482637E+01 eigvalue=   8.95044261E+00  local=  -3.65633324E+01
 4,5,6: 1st-order hamiltonian combined with 1st and 0th-order wfs
     kin1=  -8.40825105E+01  Hartree=   0.00000000E+00     xc=   0.00000000E+00
 7,8,9: eventually, occupation + non-local contributions
    edocc=   9.02224309E+00     enl0=   4.57274711E+00   enl1=  -8.33782177E+01
 1-9 gives the relaxation energy (to be shifted if some occ is /=2.0)
   erelax=  -8.37303641E+01
  No Ewald or frozen-wf contrib.: the relaxation energy is the total one
 2DEtotal=   -0.8373036410E+02 Ha. Also 2DEtotal=   -0.227841907828E+04 eV
    (  non-var. 2DEtotal :   -8.3730364101E+01 Ha)

 Perturbation wavevector (in red.coord.)   0.000000  0.000000  0.000000
 Perturbation : derivative vs k along direction   2
 The set of symmetries contains only one element for this perturbation.
 symkpt : not enough symmetry to change the number of k points.

[...]

 Perturbation wavevector (in red.coord.)   0.000000  0.000000  0.000000
 Perturbation : derivative vs k along direction   3
 The set of symmetries contains only one element for this perturbation.
 symkpt : not enough symmetry to change the number of k points.

 Initialisation of the first-order wave-functions :
  ireadwf=   0

--- !BeginCycle
iteration_state: {dtset: 1, }
solver: {iscf: 7, nstep: 2000, nline: 4, wfoptalg: 0, }
tolerances: {tolwfr: 1.00E-20, }
...

     iter   2DEtotal(Ha)        deltaE(Ha) residm    vres2
-ETOT  1  -76.006401638632     -7.601E+01 8.859E-02 0.000E+00
 ETOT  2  -76.086619018093     -8.022E-02 2.258E-02 0.000E+00
 ETOT  3  -76.087002271063     -3.833E-04 2.571E-03 0.000E+00
 ETOT  4  -76.087007642148     -5.371E-06 8.548E-04 0.000E+00
 ETOT  5  -76.087007750186     -1.080E-07 1.207E-04 0.000E+00
 ETOT  6  -76.087007752710     -2.524E-09 4.011E-05 0.000E+00
 ETOT  7  -76.087007752774     -6.368E-11 5.972E-06 0.000E+00
 ETOT  8  -76.087007752775     -1.691E-12 2.003E-06 0.000E+00
 ETOT  9  -76.087007752775      1.421E-14 3.020E-07 0.000E+00
 ETOT 10  -76.087007752775     -4.263E-14 1.035E-07 0.000E+00
 ETOT 11  -76.087007752775      0.000E+00 1.556E-08 0.000E+00
 ETOT 12  -76.087007752775      0.000E+00 5.437E-09 0.000E+00
 ETOT 13  -76.087007752775      0.000E+00 8.118E-10 0.000E+00
 ETOT 14  -76.087007752775      0.000E+00 2.881E-10 0.000E+00
 ETOT 15  -76.087007752775      0.000E+00 4.276E-11 0.000E+00
 ETOT 16  -76.087007752775      0.000E+00 1.536E-11 0.000E+00
 ETOT 17  -76.087007752775     -2.842E-14 2.268E-12 0.000E+00
 ETOT 18  -76.087007752775      2.842E-14 8.221E-13 0.000E+00
 ETOT 19  -76.087007752775      1.421E-14 1.209E-13 0.000E+00
 ETOT 20  -76.087007752775     -1.421E-14 4.414E-14 0.000E+00
 ETOT 21  -76.087007752775      0.000E+00 6.468E-15 0.000E+00
 ETOT 22  -76.087007752775      0.000E+00 2.375E-15 0.000E+00
 ETOT 23  -76.087007752775      1.421E-14 3.471E-16 0.000E+00
 ETOT 24  -76.087007752775     -4.263E-14 1.280E-16 0.000E+00
 ETOT 25  -76.087007752775      4.263E-14 1.867E-17 0.000E+00
 ETOT 26  -76.087007752775     -1.421E-14 6.910E-18 0.000E+00
 ETOT 27  -76.087007752775      1.421E-14 1.006E-18 0.000E+00
 ETOT 28  -76.087007752775     -1.421E-14 3.734E-19 0.000E+00
 ETOT 29  -76.087007752775      0.000E+00 5.424E-20 0.000E+00
 ETOT 30  -76.087007752775      2.842E-14 2.019E-20 0.000E+00
 ETOT 31  -76.087007752775     -1.421E-14 9.915E-21 0.000E+00

 At SCF step   31   max residual=  9.92E-21 < tolwfr=  1.00E-20 =>converged.

 ----iterations are completed or convergence reached----

 dfpt_looppert: DFPT cycle converged with prtwf=-1. Will skip output of the 1st-order WFK file.
 dfpt_looppert : ek2=    7.3971689008E+01
          f-sum rule ratio=    1.0204307863E+00
 prteigrs : about to open file /scratch/users/j/a/jabreu/flow_simple_10atoms/flow/w318/t1/tmpdata/tmp_1WF1_EIG
 Expectation of eigenvalue derivatives (hartree) for nkpt=   2  k points:
  (in case of degenerate eigenvalues, averaged derivative)
 kpt#   1, nband= 53, wtk=  0.50000, kpt= -0.4580  0.5420  0.0000 (reduced coord)
  -0.00000   -0.00000    0.00000   -0.00000   -0.00000   -0.00000    0.00000   -0.00000
   0.00000    0.00000    0.00000    0.00000    0.00000    0.00000    0.00000   -0.00000
   0.00000   -0.00000    0.00000   -0.00000    0.00000   -0.00000   -0.00000   -0.00000
   0.00000    0.00000    0.00000   -0.00000   -0.00000    0.00000    0.00000   -0.00000
  -0.00000   -0.00000    0.00000    0.00000   -0.00000    0.00000   -0.00000   -0.00000
  -0.00000    0.00000    0.00000   -0.00000    0.00000   -0.00000   -0.00000   -0.00000
  -0.00000   -0.00000    0.00000    0.00000   -0.00012
 prteigrs : prtvol=0 or 1, do not print more k-points.

 Eight components of 2nd-order total energy (hartree) are
 1,2,3: 0th-order hamiltonian combined with 1st-order wavefunctions
     kin0=   8.78086779E+01 eigvalue=   8.32721770E+00  local=  -3.27010145E+01
 4,5,6: 1st-order hamiltonian combined with 1st and 0th-order wfs
     kin1=  -7.54829888E+01  Hartree=   0.00000000E+00     xc=   0.00000000E+00
 7,8,9: eventually, occupation + non-local contributions
    edocc=   8.17521300E+00     enl0=   4.47691371E+00   enl1=  -7.66910267E+01
 1-9 gives the relaxation energy (to be shifted if some occ is /=2.0)
   erelax=  -7.60870078E+01
  No Ewald or frozen-wf contrib.: the relaxation energy is the total one
 2DEtotal=   -0.7608700775E+02 Ha. Also 2DEtotal=   -0.207043277472E+04 eV
    (  non-var. 2DEtotal :   -7.6087007752E+01 Ha)

 CALCULATION OF EFFECTIVE MASSES
 NOTE : Additional infos (eff. mass eigenvalues, eigenvectors and, if degenerate, average mass) are available in stdout.

 K-point (-0.458, 0.542, 0.000) | band =    44
 Effective mass tensor:
             -2.6057492114              0.9037965590             -0.0000000416
              0.9037965590             -1.7057256146              0.0000000257
             -0.0000000416              0.0000000257             -1.1465716694
 Effective mass tensor eigenvalues:
             -3.1653704348             -1.1465716694             -1.1461043912
 Angular average effective mass 1/(<1/m>)=  -1.4558831451
 Angular average effective mass for Frohlich model (<m**0.5>)**2=  -1.5379112842
 Effective masses along directions: (cart. coord. / red. coord. -> eff. mass)
    1:   1.000000  0.000000  0.000000 /   0.913379 -0.407110  0.000000 ->  -2.1268631508
    2:   0.000000  1.000000  0.000000 /   0.000000  1.000000  0.000000 ->  -1.3922463985
    3:   0.000000  0.000000  1.000000 /   0.000000  0.000000  1.000000 ->  -1.1465716694
    4:   0.577350  0.577350  0.577350 /   0.694560  0.312173  0.648178 ->  -1.1723969595
    5:   0.000000  0.707107  0.707107 /   0.000000  0.692242  0.721665 ->  -1.2575223749
    6:   0.707107  0.000000  0.707107 /   0.695121 -0.309829  0.648701 ->  -1.4899340961
    7:   0.707107  0.707107  0.000000 /   0.912108  0.409950  0.000000 ->  -1.1857508327

 K-point ( 0.000, 0.000, 0.000) | band =    45
 Effective mass tensor:
              0.3422509414              0.0021884886             -0.0000004570
              0.0021884886              0.3444337448              0.0000002784
             -0.0000004570              0.0000002784              0.2797884246
 Effective mass tensor eigenvalues:
              0.2797884246              0.3408968084              0.3457878778
 Angular average effective mass 1/(<1/m>)=   0.3191654148
 Angular average effective mass for Frohlich model (<m**0.5>)**2=   0.3200911712
 Effective masses along directions: (cart. coord. / red. coord. -> eff. mass)
    1:   1.000000  0.000000  0.000000 /   0.913379 -0.407110  0.000000 ->   0.3422370360
    2:   0.000000  1.000000  0.000000 /   0.000000  1.000000  0.000000 ->   0.3444197507
    3:   0.000000  0.000000  1.000000 /   0.000000  0.000000  1.000000 ->   0.2797884246
    4:   0.577350  0.577350  0.577350 /   0.694560  0.312173  0.648178 ->   0.3204311038
    5:   0.000000  0.707107  0.707107 /   0.000000  0.692242  0.721665 ->   0.3087583602
    6:   0.707107  0.000000  0.707107 /   0.695121 -0.309829  0.648701 ->   0.3078774936
    7:   0.707107  0.707107  0.000000 /   0.912108  0.409950  0.000000 ->   0.3455273401

 END OF EFFECTIVE MASSES SECTION

 ---- first-order wavefunction calculations are completed ----

 Total localisation tensor (bohr^2) in cartesian coordinates
  WARNING : still subject to testing - especially symmetries.
      direction              matrix element
   alpha     beta       real part   imaginary part
     1        1       1.1343347283    0.0000000000
     1        2      -0.3775838542    0.0000000000
     1        3       0.0000000000    0.0000000000
     2        1      -0.3775838542    0.0000000000
     2        2       0.7583315012    0.0000000000
     2        3       0.0000000000    0.0000000000
     3        1       0.0000000000    0.0000000000
     3        2       0.0000000000    0.0000000000
     3        3       0.7569673279    0.0000000000

 respfn : d/dk was computed, but no 2DTE, so no DDB output.

== END DATASET(S) ==============================================================

 -outvars: echo values of variables after computation  --------
            acell      1.0000000000E+00  1.0000000000E+00  1.0000000000E+00 Bohr
              amu      7.26100000E+01  1.40067400E+01  1.59994000E+01
             ecut      4.40000000E+01 Hartree
           etotal     -7.6087007753E+01
            fcart      0.0000000000E+00  0.0000000000E+00  0.0000000000E+00
                       0.0000000000E+00  0.0000000000E+00  0.0000000000E+00
                       0.0000000000E+00  0.0000000000E+00  0.0000000000E+00
                       0.0000000000E+00  0.0000000000E+00  0.0000000000E+00
                       0.0000000000E+00  0.0000000000E+00  0.0000000000E+00
                       0.0000000000E+00  0.0000000000E+00  0.0000000000E+00
                       0.0000000000E+00  0.0000000000E+00  0.0000000000E+00
                       0.0000000000E+00  0.0000000000E+00  0.0000000000E+00
                       0.0000000000E+00  0.0000000000E+00  0.0000000000E+00
                       0.0000000000E+00  0.0000000000E+00  0.0000000000E+00
-          fftalg         512
           irdden           1
           irdwfk           1
           istwfk        0    1
              ixc     -116133
              kpt     -4.57958723E-01  5.42041277E-01  0.00000000E+00
                       0.00000000E+00  0.00000000E+00  0.00000000E+00
           kptopt           0
P           mkmem           2
P          mkqmem           2
P          mk1mem           2
            natom          10
            nband          53
           nbdbuf           4
            ngfft          64      64      60
             nkpt           2
            nstep        2000
             nsym           4
           ntypat           3
              occ      2.000000  2.000000  2.000000  2.000000  2.000000  2.000000
                       2.000000  2.000000  2.000000  2.000000  2.000000  2.000000
                       2.000000  2.000000  2.000000  2.000000  2.000000  2.000000
                       2.000000  2.000000  2.000000  2.000000  2.000000  2.000000
                       2.000000  2.000000  2.000000  2.000000  2.000000  2.000000
                       2.000000  2.000000  2.000000  2.000000  2.000000  2.000000
                       2.000000  2.000000  2.000000  2.000000  2.000000  2.000000
                       2.000000  2.000000  0.000000  0.000000  0.000000  0.000000
                       0.000000  0.000000  0.000000  0.000000  0.000000
        optdriver           1
            prtwf          -1
            rfdir           1       1       1
           rfelfd           2
            rprim      1.0385298378E+01  0.0000000000E+00  0.0000000000E+00
                      -4.6289257557E+00  9.2966374967E+00  0.0000000000E+00
                       0.0000000000E+00  0.0000000000E+00  9.6917774884E+00
          spgroup          36
           strten      0.0000000000E+00  0.0000000000E+00  0.0000000000E+00
                       0.0000000000E+00  0.0000000000E+00  0.0000000000E+00
           symrel      1  0  0   0  1  0   0  0  1       0  1  0   1  0  0   0  0  1
                      -1  0  0   0 -1  0   0  0  1       0 -1  0  -1  0  0   0  0  1
            tnons      0.0000000  0.0000000  0.0000000     0.0000000  0.0000000  0.0000000
                       0.0000000  0.0000000  0.5000000     0.0000000  0.0000000  0.5000000
           tolwfr      1.00000000E-20
            typat      1  1  1  1  2  2  2  2  3  3
           useylm           1
              wtk        0.50000    0.50000
           xangst      3.6369189022E+00  9.8543880225E-02  3.1655522140E+00
                      -5.9077770636E-01  4.8210247996E+00  6.0121833522E-01
                       4.5789715745E+00  1.6199746097E+00  6.0121833522E-01
                      -1.5328303787E+00  3.2995940701E+00  3.1655522140E+00
                       4.2344342597E+00  1.6539540706E+00  3.9364884227E+00
                      -1.1882930638E+00  3.2656146092E+00  1.3721545439E+00
                       3.4529345513E+00  3.9181904750E-01  1.3721545439E+00
                      -4.0679335548E-01  4.5277496323E+00  3.9364884227E+00
                       2.3054567334E+00  3.7233509574E+00  3.6026531810E+00
                       7.4068446247E-01  1.1962177223E+00  1.0383193022E+00
            xcart      6.8727806926E+00  1.8622094570E-01  5.9820267438E+00
                      -1.1164080704E+00  9.1104165510E+00  1.1361379996E+00
                       8.6530022461E+00  3.0613083546E+00  1.1361379996E+00
                      -2.8966296239E+00  6.2353291421E+00  5.9820267438E+00
                       8.0019210785E+00  3.1255202298E+00  7.4388850441E+00
                      -2.2455484563E+00  6.1711172669E+00  2.5929962999E+00
                       6.5251006567E+00  7.4043069342E-01  2.5929962999E+00
                      -7.6872803454E-01  8.5562068033E+00  7.4388850441E+00
                       4.3566818372E+00  7.0361136062E+00  6.8080278638E+00
                       1.3996907850E+00  2.2605238905E+00  1.9621391196E+00
             xred      6.7070800000E-01  2.0031000000E-02  6.1722700000E-01
                       3.2929200000E-01  9.7996900000E-01  1.1722700000E-01
                       9.7996900000E-01  3.2929200000E-01  1.1722700000E-01
                       2.0031000000E-02  6.7070800000E-01  6.1722700000E-01
                       9.2035500000E-01  3.3619900000E-01  7.6754600000E-01
                       7.9645000000E-02  6.6380100000E-01  2.6754600000E-01
                       6.6380100000E-01  7.9645000000E-02  2.6754600000E-01
                       3.3619900000E-01  9.2035500000E-01  7.6754600000E-01
                       7.5684500000E-01  7.5684500000E-01  7.0245400000E-01
                       2.4315500000E-01  2.4315500000E-01  2.0245400000E-01
            znucl       32.00000    7.00000    8.00000

- Timing analysis has been suppressed with timopt=0

 Suggested references for the acknowledgment of ABINIT usage.

 Calculation completed.
.Delivered   2 WARNINGs and   5 COMMENTs to log file.