.Version 9.5.2 of ABINIT

 ABINIT is a project of the Universite Catholique de Louvain,
 Corning Inc. and other collaborators, see ~abinit/doc/developers/contributors.txt .
 acknowledgments of the ABINIT effort.

.Starting date : Mon 31 May 2021.
- ( at 22h02 )

- input  file    -> /scratch/users/j/a/jabreu/flow_simple_11atoms/flow/w333/t1/run.abi
- output file    -> /scratch/users/j/a/jabreu/flow_simple_11atoms/flow/w333/t1/run.abo
- root for input  files -> /scratch/users/j/a/jabreu/flow_simple_11atoms/flow/w333/t1/indata/in
- root for output files -> /scratch/users/j/a/jabreu/flow_simple_11atoms/flow/w333/t1/outdata/out

 Symmetries : space group I4_1/a m d (#141); Bravais tI (body-center tetrag.)
     intxc =       0      iscf =       7    lmnmax =      18     lnmax =       6
     mgfft =      64  mpssoang =       3    mqgrid =    3001     natom =      12
  nloc_mem =       1    nspden =       1   nspinor =       1    nsppol =       1
      nsym =      16    n1xccc =    2501    ntypat =       3    occopt =       1
   xclevel =       2
-    mband =          49        mffmem =           1         mkmem =           2
-   mkqmem =           2        mk1mem =           2           mpw =       11785
      nfft =      262144          nkpt =           2
  Rough estimation (10% accuracy) of disk space for files :

------------- Echo of variables that govern the present computation ------------
-
- outvars: echo of selected default values
-   iomode0 =  0 , fftalg0 =512 , wfoptalg0 =  0
-
- outvars: echo of global parameters not present in the input file
-  max_nthreads =    0
-
 -outvars: echo values of preprocessed input variables --------
            acell      1.0000000000E+00  1.0000000000E+00  1.0000000000E+00 Bohr
              amu      4.49559100E+01  3.09737620E+01  1.59994000E+01
             ecut      4.40000000E+01 Hartree
-          fftalg         512
           irdden           1
           irdwfk           1
              ixc     -116133
              kpt      4.57773003E-02  4.57773003E-02 -4.57773003E-02
                       0.00000000E+00  0.00000000E+00  4.52380952E-01
           kptopt           0
P           mkmem           2
P          mkqmem           2
P          mk1mem           2
            natom          12
            nband          49
           nbdbuf           4
            ngfft          64      64      64
             nkpt           2
            nstep        2000
             nsym          16
           ntypat           3
              occ      2.000000  2.000000  2.000000  2.000000  2.000000  2.000000
                       2.000000  2.000000  2.000000  2.000000  2.000000  2.000000
                       2.000000  2.000000  2.000000  2.000000  2.000000  2.000000
                       2.000000  2.000000  2.000000  2.000000  2.000000  2.000000
                       2.000000  2.000000  2.000000  2.000000  2.000000  2.000000
                       2.000000  2.000000  2.000000  2.000000  2.000000  2.000000
                       2.000000  2.000000  2.000000  2.000000  0.000000  0.000000
                       0.000000  0.000000  0.000000  0.000000  0.000000  0.000000
                       0.000000
        optdriver           1
            prtwf          -1
            rfdir           1       1       1
           rfelfd           2
            rprim      9.9341945759E+00  0.0000000000E+00 -2.8749566557E+00
                      -5.6123629670E+00  8.1969264849E+00 -2.8749566557E+00
                       0.0000000000E+00  0.0000000000E+00  1.0341837247E+01
          spgroup         141
           symrel      1  0  0   0  1  0   0  0  1      -1  0  0   0 -1  0   0  0 -1
                      -1 -1 -1   0  0  1   0  1  0       1  1  1   0  0 -1   0 -1  0
                       0  1  0   1  0  0  -1 -1 -1       0 -1  0  -1  0  0   1  1  1
                       0  0  1  -1 -1 -1   1  0  0       0  0 -1   1  1  1  -1  0  0
                       0  1  0   1  0  0   0  0  1       0 -1  0  -1  0  0   0  0 -1
                      -1 -1 -1   0  0  1   1  0  0       1  1  1   0  0 -1  -1  0  0
                       1  0  0   0  1  0  -1 -1 -1      -1  0  0   0 -1  0   1  1  1
                       0  0  1  -1 -1 -1   0  1  0       0  0 -1   1  1  1   0 -1  0
            tnons      0.0000000  0.0000000  0.0000000     0.2500000 -0.2500000  0.5000000
                       0.2500000 -0.2500000  0.5000000     0.0000000  0.0000000  0.0000000
                       0.0000000  0.0000000  0.0000000     0.2500000 -0.2500000  0.5000000
                       0.2500000 -0.2500000  0.5000000     0.0000000  0.0000000  0.0000000
                       0.2500000 -0.2500000  0.5000000     0.0000000  0.0000000  0.0000000
                       0.0000000  0.0000000  0.0000000     0.2500000 -0.2500000  0.5000000
                       0.2500000 -0.2500000  0.5000000     0.0000000  0.0000000  0.0000000
                       0.0000000  0.0000000  0.0000000     0.2500000 -0.2500000  0.5000000
           tolwfr      1.00000000E-20
            typat      1  1  2  2  3  3  3  3  3  3  3  3
           useylm           1
              wtk        0.50000    0.50000
           xangst      0.0000000000E+00  0.0000000000E+00  0.0000000000E+00
                      -9.1321358754E-01  3.2532200072E+00  1.2149707451E+00
                       3.2002283743E+00  1.0844066691E+00  1.2149707451E+00
                       1.1435073934E+00  2.1688133381E+00 -1.5213615379E+00
                       5.8271306836E-01  2.9066826744E+00  2.7197791147E+00
                       4.1258838904E+00  1.0385449422E+00 -1.6553168283E-02
                       3.0526564550E+00  2.6060070685E+00  1.4113054992E+00
                       2.4823853152E+00  2.9066826744E+00 -1.3250267838E+00
                       2.1785187733E-01  2.2146750650E+00 -2.8983762445E-01
                       3.7610226994E+00  3.4653733280E-01  2.4464946586E+00
                       1.8613504526E+00  3.4653733280E-01  1.0186359911E+00
                       1.2910793127E+00  6.4721293874E-01  3.7549682741E+00
            xcart      0.0000000000E+00  0.0000000000E+00  0.0000000000E+00
                      -1.7257235813E+00  6.1476948637E+00  2.2959619678E+00
                       6.0475551902E+00  2.0492316212E+00  2.2959619678E+00
                       2.1609158044E+00  4.0984632425E+00 -2.8749566557E+00
                       1.1011681132E+00  5.4928342099E+00  5.1396376688E+00
                       7.7967906089E+00  1.9625655175E+00 -3.1280954686E-02
                       5.7686846777E+00  4.9246396598E+00  2.6669808833E+00
                       4.6910284020E+00  5.4928342099E+00 -2.5039377402E+00
                       4.1168038569E-01  4.1851293462E+00 -5.4771373321E-01
                       7.1073028814E+00  6.5486065381E-01  4.6232048903E+00
                       3.5174425927E+00  6.5486065381E-01  1.9249430523E+00
                       2.4397863169E+00  1.2230552039E+00  7.0958616758E+00
             xred      0.0000000000E+00  0.0000000000E+00  0.0000000000E+00
                       2.5000000000E-01  7.5000000000E-01  5.0000000000E-01
                       7.5000000000E-01  2.5000000000E-01  5.0000000000E-01
                       5.0000000000E-01  5.0000000000E-01 -2.0816681712E-17
                       4.8942700000E-01  6.7010900000E-01  8.1931800000E-01
                       9.2010900000E-01  2.3942700000E-01  3.1931800000E-01
                       9.2010900000E-01  6.0079100000E-01  6.8068200000E-01
                       8.5079100000E-01  6.7010900000E-01  1.8068200000E-01
                       3.2989100000E-01  5.1057300000E-01  1.8068200000E-01
                       7.6057300000E-01  7.9891000000E-02  6.8068200000E-01
                       3.9920900000E-01  7.9891000000E-02  3.1931800000E-01
                       3.2989100000E-01  1.4920900000E-01  8.1931800000E-01
            znucl       21.00000   15.00000    8.00000

 chkinp: Checking input parameters for consistency.

== DATASET  1 ==================================================================
-   mpi_nproc: 1, omp_nthreads: -1 (-1 if OMP is not activated)

--- !DatasetInfo
iteration_state: {dtset: 1, }
dimensions: {natom: 12, nkpt: 2, mband: 49, nsppol: 1, nspinor: 1, nspden: 1, mpw: 11785, }
cutoff_energies: {ecut:  44.0, pawecutdg:  -1.0, }
electrons: {nelect:   8.00000000E+01, charge:   0.00000000E+00, occopt:   1.00000000E+00, tsmear:   1.00000000E-02, }
meta: {optdriver: 1, rfelfd: 2, }
...

 Real(R)+Recip(G) space primitive vectors, cartesian coordinates (Bohr,Bohr^-1):
 R(1)=  9.9341946  0.0000000 -2.8749567  G(1)=  0.1006624  0.0689227  0.0000000
 R(2)= -5.6123630  8.1969265 -2.8749567  G(2)=  0.0000000  0.1219969  0.0000000
 R(3)=  0.0000000  0.0000000 10.3418372  G(3)=  0.0279834  0.0530743  0.0966946
 Unit cell volume ucvol=  8.4213439E+02 bohr^3
 Angles (23,13,12)=  1.06140447E+02  1.06140447E+02  1.16360293E+02 degrees

 getcut: wavevector=  0.0000  0.0000  0.0000  ngfft=  64  64  64
         ecut(hartree)=     44.000   => boxcut(ratio)=   2.07254

--- Pseudopotential description ------------------------------------------------
- pspini: atom type   1  psp file is /scratch/users/j/a/jabreu/pseudos/PBEsol/Sc.psp8
- pspatm: opening atomic psp file    /scratch/users/j/a/jabreu/pseudos/PBEsol/Sc.psp8
- Sc    ONCVPSP-3.3.0  r_core=   1.35663   1.35663   1.66161
- 21.00000  11.00000    180112                znucl, zion, pspdat
    8 -116133    2    4       600   0.00000   pspcod,pspxc,lmax,lloc,mmax,r2well
    5.99000000000000    5.00000000000000    0.00000000000000   rchrg,fchrg,qchrg
     nproj     2     2     2
     extension_switch     1
  pspatm : epsatm=   13.58981094
         --- l  ekb(1:nproj) -->
             0   10.810997    0.948773
             1    2.871172    0.364831
             2   -4.789751   -1.321945
 pspatm: atomic psp has been read  and splines computed

- pspini: atom type   2  psp file is /scratch/users/j/a/jabreu/pseudos/PBEsol/P.psp8
- pspatm: opening atomic psp file    /scratch/users/j/a/jabreu/pseudos/PBEsol/P.psp8
- P     ONCVPSP-3.3.0  r_core=   1.46089   1.55067   1.70594
- 15.00000   5.00000    180112                znucl, zion, pspdat
    8 -116133    2    4       600   0.00000   pspcod,pspxc,lmax,lloc,mmax,r2well
    5.99000000000000    5.00000000000000    0.00000000000000   rchrg,fchrg,qchrg
     nproj     2     2     2
     extension_switch     1
  pspatm : epsatm=    7.31221086
         --- l  ekb(1:nproj) -->
             0    6.742364    1.063650
             1    3.449117    0.910422
             2   -3.077645   -0.799176
 pspatm: atomic psp has been read  and splines computed

- pspini: atom type   3  psp file is /scratch/users/j/a/jabreu/pseudos/PBEsol/O.psp8
- pspatm: opening atomic psp file    /scratch/users/j/a/jabreu/pseudos/PBEsol/O.psp8
- O     ONCVPSP-3.3.0  r_core=   1.35509   1.45563   1.26150
-  8.00000   6.00000    180112                znucl, zion, pspdat
    8 -116133    2    4       600   0.00000   pspcod,pspxc,lmax,lloc,mmax,r2well
    5.99000000000000    4.00000000000000    0.00000000000000   rchrg,fchrg,qchrg
     nproj     2     2     1
     extension_switch     1
[...]
 ETOT 22  -40.091624220707      7.105E-15 6.914E-08 0.000E+00
 ETOT 23  -40.091624220707      7.105E-15 3.893E-08 0.000E+00
 ETOT 24  -40.091624220707      0.000E+00 2.272E-08 0.000E+00
 ETOT 25  -40.091624220707     -7.105E-15 1.275E-08 0.000E+00
 ETOT 26  -40.091624220707      0.000E+00 7.495E-09 0.000E+00
 ETOT 27  -40.091624220707      1.421E-14 4.177E-09 0.000E+00
 ETOT 28  -40.091624220707     -1.421E-14 2.481E-09 0.000E+00
 ETOT 29  -40.091624220707      1.421E-14 1.369E-09 0.000E+00
 ETOT 30  -40.091624220707     -1.421E-14 8.237E-10 0.000E+00
 ETOT 31  -40.091624220707      1.421E-14 4.488E-10 0.000E+00
 ETOT 32  -40.091624220707      0.000E+00 2.741E-10 0.000E+00
 ETOT 33  -40.091624220707     -1.421E-14 1.471E-10 0.000E+00
 ETOT 34  -40.091624220707      0.000E+00 9.141E-11 0.000E+00
 ETOT 35  -40.091624220707      0.000E+00 4.824E-11 0.000E+00
 ETOT 36  -40.091624220707      1.421E-14 3.053E-11 0.000E+00
 ETOT 37  -40.091624220707      0.000E+00 1.582E-11 0.000E+00
 ETOT 38  -40.091624220707      0.000E+00 1.021E-11 0.000E+00
 ETOT 39  -40.091624220707      0.000E+00 5.192E-12 0.000E+00
 ETOT 40  -40.091624220707      0.000E+00 3.421E-12 0.000E+00
 ETOT 41  -40.091624220707      0.000E+00 1.705E-12 0.000E+00
 ETOT 42  -40.091624220707      0.000E+00 1.147E-12 0.000E+00
 ETOT 43  -40.091624220707      0.000E+00 5.609E-13 0.000E+00
 ETOT 44  -40.091624220707      0.000E+00 3.850E-13 0.000E+00
 ETOT 45  -40.091624220707      0.000E+00 1.848E-13 0.000E+00
 ETOT 46  -40.091624220707      0.000E+00 1.293E-13 0.000E+00
 ETOT 47  -40.091624220707      0.000E+00 6.099E-14 0.000E+00
 ETOT 48  -40.091624220707      0.000E+00 4.347E-14 0.000E+00
 ETOT 49  -40.091624220707      0.000E+00 2.018E-14 0.000E+00
 ETOT 50  -40.091624220707      0.000E+00 1.462E-14 0.000E+00
 ETOT 51  -40.091624220707      0.000E+00 6.692E-15 0.000E+00
 ETOT 52  -40.091624220707     -7.105E-15 4.921E-15 0.000E+00
 ETOT 53  -40.091624220707      7.105E-15 2.225E-15 0.000E+00
 ETOT 54  -40.091624220707      0.000E+00 1.657E-15 0.000E+00
 ETOT 55  -40.091624220707     -7.105E-15 7.415E-16 0.000E+00
 ETOT 56  -40.091624220707     -1.421E-14 5.581E-16 0.000E+00
 ETOT 57  -40.091624220707      2.842E-14 2.477E-16 0.000E+00
 ETOT 58  -40.091624220707     -7.105E-15 1.881E-16 0.000E+00
 ETOT 59  -40.091624220707      0.000E+00 8.292E-17 0.000E+00
 ETOT 60  -40.091624220707     -1.421E-14 6.339E-17 0.000E+00
 ETOT 61  -40.091624220707     -1.421E-14 2.781E-17 0.000E+00
 ETOT 62  -40.091624220707      1.421E-14 2.137E-17 0.000E+00
 ETOT 63  -40.091624220707     -1.421E-14 9.339E-18 0.000E+00
 ETOT 64  -40.091624220707      1.421E-14 7.206E-18 0.000E+00
 ETOT 65  -40.091624220707      0.000E+00 3.141E-18 0.000E+00
 ETOT 66  -40.091624220707      0.000E+00 2.430E-18 0.000E+00
 ETOT 67  -40.091624220707     -1.421E-14 1.057E-18 0.000E+00
 ETOT 68  -40.091624220707      1.421E-14 8.197E-19 0.000E+00
 ETOT 69  -40.091624220707     -1.421E-14 3.563E-19 0.000E+00
 ETOT 70  -40.091624220707      0.000E+00 2.765E-19 0.000E+00
 ETOT 71  -40.091624220707      0.000E+00 1.201E-19 0.000E+00
 ETOT 72  -40.091624220707      1.421E-14 9.328E-20 0.000E+00
 ETOT 73  -40.091624220707      0.000E+00 4.053E-20 0.000E+00
 ETOT 74  -40.091624220707      0.000E+00 3.147E-20 0.000E+00
 ETOT 75  -40.091624220707     -1.421E-14 1.368E-20 0.000E+00
 ETOT 76  -40.091624220707      0.000E+00 1.062E-20 0.000E+00
 ETOT 77  -40.091624220707      0.000E+00 9.983E-21 0.000E+00

 At SCF step   77   max residual=  9.98E-21 < tolwfr=  1.00E-20 =>converged.

 ----iterations are completed or convergence reached----

 dfpt_looppert: DFPT cycle converged with prtwf=-1. Will skip output of the 1st-order WFK file.
 dfpt_looppert : ek2=    8.1798024321E+01
          f-sum rule ratio=    1.0043999846E+00
 prteigrs : about to open file /scratch/users/j/a/jabreu/flow_simple_11atoms/flow/w333/t1/tmpdata/tmp_1WF1_EIG
 Expectation of eigenvalue derivatives (hartree) for nkpt=   2  k points:
  (in case of degenerate eigenvalues, averaged derivative)
 kpt#   1, nband= 49, wtk=  0.50000, kpt=  0.0458  0.0458 -0.0458 (reduced coord)
  -0.00000    0.00000    0.00000    0.00000   -0.00000    0.00000   -0.00000   -0.00000
  -0.00000   -0.00000    0.00000   -0.00000    0.00000    0.00000   -0.00000   -0.00000
  -0.00000    0.00000   -0.00000    0.00000    0.00000    0.00000   -0.00000   -0.00000
   0.00000    0.00000   -0.00000    0.00000    0.00000   -0.00000    0.00000    0.00000
  -0.00000   -0.00000    0.00000    0.00000   -0.00000    0.00000    0.00000    0.00000
  -0.00000    0.00000   -0.00000   -0.00000    0.00000   -0.00000   -0.00000   -0.00000
  -0.00000
 prteigrs : prtvol=0 or 1, do not print more k-points.

 Eight components of 2nd-order total energy (hartree) are
 1,2,3: 0th-order hamiltonian combined with 1st-order wavefunctions
     kin0=   7.09391101E+01 eigvalue=  -7.04923447E-01  local=  -3.33739177E+01
 4,5,6: 1st-order hamiltonian combined with 1st and 0th-order wfs
     kin1=  -8.21579344E+01  Hartree=   0.00000000E+00     xc=   0.00000000E+00
 7,8,9: eventually, occupation + non-local contributions
    edocc=   6.47301200E+00     enl0=  -3.24165673E+00   enl1=   1.97468593E+00
 1-9 gives the relaxation energy (to be shifted if some occ is /=2.0)
   erelax=  -4.00916242E+01
  No Ewald or frozen-wf contrib.: the relaxation energy is the total one
 2DEtotal=   -0.4009162422E+02 Ha. Also 2DEtotal=   -0.109094857624E+04 eV
    (  non-var. 2DEtotal :   -4.0091624221E+01 Ha)

 CALCULATION OF EFFECTIVE MASSES
 NOTE : Additional infos (eff. mass eigenvalues, eigenvectors and, if degenerate, average mass) are available in stdout.

 K-point ( 0.046, 0.046,-0.046) | band =    40
 Effective mass tensor:
             -6.3956277200             -9.0044164245              6.3163448738
             -9.0044164245            -18.7261164150             11.9797855408
              6.3163448738             11.9797855408            -10.0515295756
 Effective mass tensor eigenvalues:
            -31.8771798963             -1.6480469462             -1.6480468681
 Angular average effective mass 1/(<1/m>)=  -2.4097777309
 Angular average effective mass for Frohlich model (<m**0.5>)**2=  -3.1271550373
 Effective masses along directions: (cart. coord. / red. coord. -> eff. mass)
    1:   1.000000  0.000000  0.000000 /   0.870661 -0.491883  0.000000 ->  -1.9364491213
    2:   0.000000  1.000000  0.000000 /   0.000000  1.000000  0.000000 ->  -3.5498813951
    3:   0.000000  0.000000  1.000000 /  -0.258717 -0.258717  0.930661 ->  -2.2380406149
    4:   0.577350  0.577350  0.577350 /   0.563621 -0.023185  0.825708 ->  -1.8765696105
    5:   0.000000  0.707107  0.707107 /  -0.239961  0.444204  0.863193 ->  -1.6883522091
    6:   0.707107  0.000000  0.707107 /   0.466670 -0.561077  0.683675 ->  -1.6615567234
    7:   0.707107  0.707107  0.000000 /   0.967783  0.251787  0.000000 ->  -4.3925886008

 K-point ( 0.000, 0.000, 0.452) | band =    41
 Effective mass tensor:
              3.0200689046              3.1560868184             -1.8558704773
              3.1560868184              7.3419889859             -3.5199244544
             -1.8558704773             -3.5199244544              5.0623507553
 Effective mass tensor eigenvalues:
              1.3560279907              2.5932135553             11.4751670998
 Angular average effective mass 1/(<1/m>)=   2.4788993430
 Angular average effective mass for Frohlich model (<m**0.5>)**2=   2.9455608187
 Effective masses along directions: (cart. coord. / red. coord. -> eff. mass)
    1:   1.000000  0.000000  0.000000 /   0.870661 -0.491883  0.000000 ->   1.6285542973
    2:   0.000000  1.000000  0.000000 /   0.000000  1.000000  0.000000 ->   3.4068510900
    3:   0.000000  0.000000  1.000000 /  -0.258717 -0.258717  0.930661 ->   3.3041816653
    4:   0.577350  0.577350  0.577350 /   0.563621 -0.023185  0.825708 ->   2.7188543914
    5:   0.000000  0.707107  0.707107 /  -0.239961  0.444204  0.863193 ->   2.4016899921
    6:   0.707107  0.000000  0.707107 /   0.466670 -0.561077  0.683675 ->   1.9204545452
    7:   0.707107  0.707107  0.000000 /   0.967783  0.251787  0.000000 ->   4.5511085189

 END OF EFFECTIVE MASSES SECTION

 ---- first-order wavefunction calculations are completed ----

 Total localisation tensor (bohr^2) in cartesian coordinates
  WARNING : still subject to testing - especially symmetries.
      direction              matrix element
   alpha     beta       real part   imaginary part
     1        1       1.2990831149    0.0000000000
     1        2      -0.4590592440    0.0000000000
     1        3      -0.1239837419    0.0000000000
     2        1      -0.4590592440    0.0000000000
     2        2       0.6704617818    0.0000000000
     2        3      -0.2351550384    0.0000000000
     3        1      -0.1239837419    0.0000000000
     3        2      -0.2351550384    0.0000000000
     3        3       0.9717202180    0.0000000000

 respfn : d/dk was computed, but no 2DTE, so no DDB output.

== END DATASET(S) ==============================================================

 -outvars: echo values of variables after computation  --------
            acell      1.0000000000E+00  1.0000000000E+00  1.0000000000E+00 Bohr
              amu      4.49559100E+01  3.09737620E+01  1.59994000E+01
             ecut      4.40000000E+01 Hartree
           etotal     -4.0091624221E+01
            fcart      0.0000000000E+00  0.0000000000E+00  0.0000000000E+00
                       0.0000000000E+00  0.0000000000E+00  0.0000000000E+00
                       0.0000000000E+00  0.0000000000E+00  0.0000000000E+00
                       0.0000000000E+00  0.0000000000E+00  0.0000000000E+00
                       0.0000000000E+00  0.0000000000E+00  0.0000000000E+00
                       0.0000000000E+00  0.0000000000E+00  0.0000000000E+00
                       0.0000000000E+00  0.0000000000E+00  0.0000000000E+00
                       0.0000000000E+00  0.0000000000E+00  0.0000000000E+00
                       0.0000000000E+00  0.0000000000E+00  0.0000000000E+00
                       0.0000000000E+00  0.0000000000E+00  0.0000000000E+00
                       0.0000000000E+00  0.0000000000E+00  0.0000000000E+00
                       0.0000000000E+00  0.0000000000E+00  0.0000000000E+00
-          fftalg         512
           irdden           1
           irdwfk           1
              ixc     -116133
              kpt      4.57773003E-02  4.57773003E-02 -4.57773003E-02
                       0.00000000E+00  0.00000000E+00  4.52380952E-01
           kptopt           0
P           mkmem           2
P          mkqmem           2
P          mk1mem           2
            natom          12
            nband          49
           nbdbuf           4
            ngfft          64      64      64
             nkpt           2
            nstep        2000
             nsym          16
           ntypat           3
              occ      2.000000  2.000000  2.000000  2.000000  2.000000  2.000000
                       2.000000  2.000000  2.000000  2.000000  2.000000  2.000000
                       2.000000  2.000000  2.000000  2.000000  2.000000  2.000000
                       2.000000  2.000000  2.000000  2.000000  2.000000  2.000000
                       2.000000  2.000000  2.000000  2.000000  2.000000  2.000000
                       2.000000  2.000000  2.000000  2.000000  2.000000  2.000000
                       2.000000  2.000000  2.000000  2.000000  0.000000  0.000000
                       0.000000  0.000000  0.000000  0.000000  0.000000  0.000000
                       0.000000
        optdriver           1
            prtwf          -1
            rfdir           1       1       1
           rfelfd           2
            rprim      9.9341945759E+00  0.0000000000E+00 -2.8749566557E+00
                      -5.6123629670E+00  8.1969264849E+00 -2.8749566557E+00
                       0.0000000000E+00  0.0000000000E+00  1.0341837247E+01
          spgroup         141
           strten      0.0000000000E+00  0.0000000000E+00  0.0000000000E+00
                       0.0000000000E+00  0.0000000000E+00  0.0000000000E+00
           symrel      1  0  0   0  1  0   0  0  1      -1  0  0   0 -1  0   0  0 -1
                      -1 -1 -1   0  0  1   0  1  0       1  1  1   0  0 -1   0 -1  0
                       0  1  0   1  0  0  -1 -1 -1       0 -1  0  -1  0  0   1  1  1
                       0  0  1  -1 -1 -1   1  0  0       0  0 -1   1  1  1  -1  0  0
                       0  1  0   1  0  0   0  0  1       0 -1  0  -1  0  0   0  0 -1
                      -1 -1 -1   0  0  1   1  0  0       1  1  1   0  0 -1  -1  0  0
                       1  0  0   0  1  0  -1 -1 -1      -1  0  0   0 -1  0   1  1  1
                       0  0  1  -1 -1 -1   0  1  0       0  0 -1   1  1  1   0 -1  0
            tnons      0.0000000  0.0000000  0.0000000     0.2500000 -0.2500000  0.5000000
                       0.2500000 -0.2500000  0.5000000     0.0000000  0.0000000  0.0000000
                       0.0000000  0.0000000  0.0000000     0.2500000 -0.2500000  0.5000000
                       0.2500000 -0.2500000  0.5000000     0.0000000  0.0000000  0.0000000
                       0.2500000 -0.2500000  0.5000000     0.0000000  0.0000000  0.0000000
                       0.0000000  0.0000000  0.0000000     0.2500000 -0.2500000  0.5000000
                       0.2500000 -0.2500000  0.5000000     0.0000000  0.0000000  0.0000000
                       0.0000000  0.0000000  0.0000000     0.2500000 -0.2500000  0.5000000
           tolwfr      1.00000000E-20
            typat      1  1  2  2  3  3  3  3  3  3  3  3
           useylm           1
              wtk        0.50000    0.50000
           xangst      0.0000000000E+00  0.0000000000E+00  0.0000000000E+00
                      -9.1321358754E-01  3.2532200072E+00  1.2149707451E+00
                       3.2002283743E+00  1.0844066691E+00  1.2149707451E+00
                       1.1435073934E+00  2.1688133381E+00 -1.5213615379E+00
                       5.8271306836E-01  2.9066826744E+00  2.7197791147E+00
                       4.1258838904E+00  1.0385449422E+00 -1.6553168283E-02
                       3.0526564550E+00  2.6060070685E+00  1.4113054992E+00
                       2.4823853152E+00  2.9066826744E+00 -1.3250267838E+00
                       2.1785187733E-01  2.2146750650E+00 -2.8983762445E-01
                       3.7610226994E+00  3.4653733280E-01  2.4464946586E+00
                       1.8613504526E+00  3.4653733280E-01  1.0186359911E+00
                       1.2910793127E+00  6.4721293874E-01  3.7549682741E+00
            xcart      0.0000000000E+00  0.0000000000E+00  0.0000000000E+00
                      -1.7257235813E+00  6.1476948637E+00  2.2959619678E+00
                       6.0475551902E+00  2.0492316212E+00  2.2959619678E+00
                       2.1609158044E+00  4.0984632425E+00 -2.8749566557E+00
                       1.1011681132E+00  5.4928342099E+00  5.1396376688E+00
                       7.7967906089E+00  1.9625655175E+00 -3.1280954686E-02
                       5.7686846777E+00  4.9246396598E+00  2.6669808833E+00
                       4.6910284020E+00  5.4928342099E+00 -2.5039377402E+00
                       4.1168038569E-01  4.1851293462E+00 -5.4771373321E-01
                       7.1073028814E+00  6.5486065381E-01  4.6232048903E+00
                       3.5174425927E+00  6.5486065381E-01  1.9249430523E+00
                       2.4397863169E+00  1.2230552039E+00  7.0958616758E+00
             xred      0.0000000000E+00  0.0000000000E+00  0.0000000000E+00
                       2.5000000000E-01  7.5000000000E-01  5.0000000000E-01
                       7.5000000000E-01  2.5000000000E-01  5.0000000000E-01
                       5.0000000000E-01  5.0000000000E-01 -2.0816681712E-17
                       4.8942700000E-01  6.7010900000E-01  8.1931800000E-01
                       9.2010900000E-01  2.3942700000E-01  3.1931800000E-01
                       9.2010900000E-01  6.0079100000E-01  6.8068200000E-01
                       8.5079100000E-01  6.7010900000E-01  1.8068200000E-01
                       3.2989100000E-01  5.1057300000E-01  1.8068200000E-01
                       7.6057300000E-01  7.9891000000E-02  6.8068200000E-01
                       3.9920900000E-01  7.9891000000E-02  3.1931800000E-01
                       3.2989100000E-01  1.4920900000E-01  8.1931800000E-01
            znucl       21.00000   15.00000    8.00000

- Timing analysis has been suppressed with timopt=0

 Suggested references for the acknowledgment of ABINIT usage.

 Calculation completed.
.Delivered   2 WARNINGs and   5 COMMENTs to log file.