.Version 9.5.1 of ABINIT

 ABINIT is a project of the Universite Catholique de Louvain,
 Corning Inc. and other collaborators, see ~abinit/doc/developers/contributors.txt .
 acknowledgments of the ABINIT effort.

.Starting date : Wed 19 May 2021.
- ( at 01h36 )

- input  file    -> /scratch/users/j/a/jabreu/flow_simple_8atoms/flow/w452/t1/run.abi
- output file    -> /scratch/users/j/a/jabreu/flow_simple_8atoms/flow/w452/t1/run.abo
- root for input  files -> /scratch/users/j/a/jabreu/flow_simple_8atoms/flow/w452/t1/indata/in
- root for output files -> /scratch/users/j/a/jabreu/flow_simple_8atoms/flow/w452/t1/outdata/out

 Symmetries : space group R-3 c (#167); Bravais hR (rhombohedral)
     intxc =       0      iscf =       7    lmnmax =      18     lnmax =       6
     mgfft =      60  mpssoang =       3    mqgrid =    3001     natom =       8
  nloc_mem =       1    nspden =       1   nspinor =       1    nsppol =       1
      nsym =      12    n1xccc =    2501    ntypat =       2    occopt =       1
   xclevel =       2
-    mband =          33        mffmem =           1         mkmem =           1
-   mkqmem =           1        mk1mem =           1           mpw =        7763
      nfft =      216000          nkpt =           1
  Rough estimation (10% accuracy) of disk space for files :

------------- Echo of variables that govern the present computation ------------
-
- outvars: echo of selected default values
-   iomode0 =  0 , fftalg0 =512 , wfoptalg0 =  0
-
- outvars: echo of global parameters not present in the input file
-  max_nthreads =    0
-
 -outvars: echo values of preprocessed input variables --------
            acell      1.0000000000E+00  1.0000000000E+00  1.0000000000E+00 Bohr
              amu      2.69815390E+01  1.89984032E+01
             ecut      4.20000000E+01 Hartree
-          fftalg         512
           irdden           1
           irdwfk           1
           istwfk        1
              ixc     -116133
           kptopt           0
P           mkmem           1
P          mkqmem           1
P          mk1mem           1
            natom           8
            nband          33
           nbdbuf           4
            ngfft          60      60      60
             nkpt           1
            nstep        2000
             nsym          12
           ntypat           2
              occ      2.000000  2.000000  2.000000  2.000000  2.000000  2.000000
                       2.000000  2.000000  2.000000  2.000000  2.000000  2.000000
                       2.000000  2.000000  2.000000  2.000000  2.000000  2.000000
                       2.000000  2.000000  2.000000  2.000000  2.000000  2.000000
                       0.000000  0.000000  0.000000  0.000000  0.000000  0.000000
                       0.000000  0.000000  0.000000
        optdriver           1
            prtwf          -1
            rfdir           1       1       1
           rfelfd           2
            rprim      8.1543774503E+00  0.0000000000E+00  4.9559192770E+00
                       2.7874117484E+00  7.6631721464E+00  4.9559192770E+00
                       0.0000000000E+00  0.0000000000E+00  9.5422747540E+00
          spgroup         167
           symrel      1  0  0   0  1  0   0  0  1      -1  0  0   0 -1  0   0  0 -1
                       0  1  0   1  0  0   0  0  1       0 -1  0  -1  0  0   0  0 -1
                       0  0  1   1  0  0   0  1  0       0  0 -1  -1  0  0   0 -1  0
                       1  0  0   0  0  1   0  1  0      -1  0  0   0  0 -1   0 -1  0
                       0  1  0   0  0  1   1  0  0       0 -1  0   0  0 -1  -1  0  0
                       0  0  1   0  1  0   1  0  0       0  0 -1   0 -1  0  -1  0  0
            tnons      0.0000000  0.0000000  0.0000000     0.0000000 -0.0000000 -0.0000000
                       0.5000000  0.5000000  0.5000000     0.5000000  0.5000000  0.5000000
                       0.0000000  0.0000000 -0.0000000    -0.0000000 -0.0000000 -0.0000000
                       0.5000000  0.5000000  0.5000000     0.5000000  0.5000000  0.5000000
                       0.0000000 -0.0000000 -0.0000000    -0.0000000 -0.0000000 -0.0000000
                       0.5000000  0.5000000  0.5000000     0.5000000  0.5000000  0.5000000
           tolwfr      1.00000000E-20
            typat      1  1  2  2  2  2  2  2
           useylm           1
           xangst      2.8950727326E+00  2.0275880227E+00  5.1473366880E+00
                       0.0000000000E+00  0.0000000000E+00  0.0000000000E+00
                       1.8674443427E+00  3.0413820340E+00  4.0635846329E+00
                       1.6565773149E+00  7.1531683370E-01  5.0984455029E+00
                       2.0764852913E+00  2.7429048564E+00  6.5883617919E+00
                       4.1335681502E+00  3.3398592117E+00  5.1962278730E+00
                       3.9227011225E+00  1.0137940113E+00  6.2310887430E+00
                       3.7136601738E+00  1.3122711890E+00  3.7063115840E+00
            xcart      5.4708945994E+00  3.8315860732E+00  9.7270566540E+00
                       0.0000000000E+00  0.0000000000E+00  0.0000000000E+00
                       3.5289583760E+00  5.7473791098E+00  7.6790620740E+00
                       3.1304774432E+00  1.3517529139E+00  9.6346657040E+00
                       3.9239885195E+00  5.1833389871E+00  1.2450199451E+01
                       7.8113117555E+00  6.3114192325E+00  9.8194476040E+00
                       7.4128308227E+00  1.9157930366E+00  1.1775051234E+01
                       7.0178006792E+00  2.4798331593E+00  7.0039138570E+00
             xred      5.0000000000E-01  5.0000000000E-01  5.0000000000E-01
                       0.0000000000E+00  0.0000000000E+00  0.0000000000E+00
                       1.7639600000E-01  7.5000000000E-01  3.2360400000E-01
                       3.2360400000E-01  1.7639600000E-01  7.5000000000E-01
                       2.5000000000E-01  6.7639600000E-01  8.2360400000E-01
                       6.7639600000E-01  8.2360400000E-01  2.5000000000E-01
                       8.2360400000E-01  2.5000000000E-01  6.7639600000E-01
                       7.5000000000E-01  3.2360400000E-01  1.7639600000E-01
            znucl       13.00000    9.00000

 chkinp: Checking input parameters for consistency.

== DATASET  1 ==================================================================
-   mpi_nproc: 1, omp_nthreads: -1 (-1 if OMP is not activated)

--- !DatasetInfo
iteration_state: {dtset: 1, }
dimensions: {natom: 8, nkpt: 1, mband: 33, nsppol: 1, nspinor: 1, nspden: 1, mpw: 7763, }
cutoff_energies: {ecut:  42.0, pawecutdg:  -1.0, }
electrons: {nelect:   4.80000000E+01, charge:   0.00000000E+00, occopt:   1.00000000E+00, tsmear:   1.00000000E-02, }
meta: {optdriver: 1, rfelfd: 2, }
...

 Real(R)+Recip(G) space primitive vectors, cartesian coordinates (Bohr,Bohr^-1):
 R(1)=  8.1543775  0.0000000  4.9559193  G(1)=  0.1226335 -0.0446069  0.0000000
 R(2)=  2.7874117  7.6631721  4.9559193  G(2)=  0.0000000  0.1304943  0.0000000
 R(3)=  0.0000000  0.0000000  9.5422748  G(3)= -0.0636915 -0.0446069  0.1047968
 Unit cell volume ucvol=  5.9628146E+02 bohr^3
 Angles (23,13,12)=  5.87103633E+01  5.87103633E+01  5.87103633E+01 degrees

 getcut: wavevector=  0.0000  0.0000  0.0000  ngfft=  60  60  60
         ecut(hartree)=     42.000   => boxcut(ratio)=   2.15574

--- Pseudopotential description ------------------------------------------------
- pspini: atom type   1  psp file is /scratch/users/j/a/jabreu/pseudos/PBEsol/Al.psp8
- pspatm: opening atomic psp file    /scratch/users/j/a/jabreu/pseudos/PBEsol/Al.psp8
- Al    ONCVPSP-3.3.0  r_core=   1.76802   1.76802   1.70587
- 13.00000   3.00000    180112                znucl, zion, pspdat
    8 -116133    2    4       600   0.00000   pspcod,pspxc,lmax,lloc,mmax,r2well
    5.99000000000000    5.00000000000000    0.00000000000000   rchrg,fchrg,qchrg
     nproj     2     2     2
     extension_switch     1
  pspatm : epsatm=    0.68509324
         --- l  ekb(1:nproj) -->
             0    5.834965    0.726662
             1    6.225605    0.924840
             2   -2.432733   -0.548689
 pspatm: atomic psp has been read  and splines computed

- pspini: atom type   2  psp file is /scratch/users/j/a/jabreu/pseudos/PBEsol/F.psp8
- pspatm: opening atomic psp file    /scratch/users/j/a/jabreu/pseudos/PBEsol/F.psp8
- F     ONCVPSP-3.3.0  r_core=   1.30942   1.45782   1.60379
-  9.00000   7.00000    180112                znucl, zion, pspdat
    8 -116133    2    4       600   0.00000   pspcod,pspxc,lmax,lloc,mmax,r2well
    5.99000000000000    2.50000000000000    0.00000000000000   rchrg,fchrg,qchrg
     nproj     2     2     1
     extension_switch     1
  pspatm : epsatm=    4.89824824
         --- l  ekb(1:nproj) -->
             0    6.506434    1.065875
             1   -3.978753   -1.295852
             2   -2.394754
 pspatm: atomic psp has been read  and splines computed

   1.47646444E+03                                ecore*ucvol(ha*bohr**3)

-inwffil : will read wavefunctions from disk file /scratch/users/j/a/jabreu/flow_simple_8atoms/flow/w452/t1/indata/in_WFK

 ==>  initialize data related to q vector <==

 The list of irreducible perturbations for this q vector is:
    1)    idir= 1    ipert=   9
    2)    idir= 2    ipert=   9
    3)    idir= 3    ipert=   9

 Perturbation wavevector (in red.coord.)   0.000000  0.000000  0.000000
 Perturbation : derivative vs k along direction   1

 dfpt_looppert : COMMENT -
  In a d/dk calculation, iscf is set to -3 automatically.
 The set of symmetries contains only one element for this perturbation.
 symkpt : not enough symmetry to change the number of k points.

[...]

 Initialisation of the first-order wave-functions :
  ireadwf=   0

--- !BeginCycle
iteration_state: {dtset: 1, }
solver: {iscf: 7, nstep: 2000, nline: 4, wfoptalg: 0, }
tolerances: {tolwfr: 1.00E-20, }
...

     iter   2DEtotal(Ha)        deltaE(Ha) residm    vres2
-ETOT  1  -35.604768638526     -3.560E+01 3.922E-02 0.000E+00
 ETOT  2  -35.625838684233     -2.107E-02 1.318E-03 0.000E+00
 ETOT  3  -35.625862625340     -2.394E-05 3.121E-05 0.000E+00
 ETOT  4  -35.625862698363     -7.302E-08 3.220E-06 0.000E+00
 ETOT  5  -35.625862698726     -3.630E-10 9.251E-08 0.000E+00
 ETOT  6  -35.625862698728     -2.032E-12 1.034E-08 0.000E+00
 ETOT  7  -35.625862698728     -2.132E-14 3.825E-10 0.000E+00
 ETOT  8  -35.625862698728     -1.421E-14 3.919E-11 0.000E+00
 ETOT  9  -35.625862698728      2.842E-14 3.007E-12 0.000E+00
 ETOT 10  -35.625862698728     -7.105E-15 1.953E-13 0.000E+00
 ETOT 11  -35.625862698728     -7.105E-15 1.385E-14 0.000E+00
 ETOT 12  -35.625862698728      7.105E-15 8.921E-16 0.000E+00
 ETOT 13  -35.625862698728      0.000E+00 6.509E-17 0.000E+00
 ETOT 14  -35.625862698728     -1.421E-14 4.129E-18 0.000E+00
 ETOT 15  -35.625862698728      0.000E+00 3.120E-19 0.000E+00
 ETOT 16  -35.625862698728      7.105E-15 1.939E-20 0.000E+00
 ETOT 17  -35.625862698728      0.000E+00 9.758E-21 0.000E+00

 At SCF step   17   max residual=  9.76E-21 < tolwfr=  1.00E-20 =>converged.

 ----iterations are completed or convergence reached----

 dfpt_looppert: DFPT cycle converged with prtwf=-1. Will skip output of the 1st-order WFK file.
 dfpt_looppert : ek2=    6.4537747911E+01
          f-sum rule ratio=    1.0723415004E+00
 prteigrs : about to open file /scratch/users/j/a/jabreu/flow_simple_8atoms/flow/w452/t1/tmpdata/tmp_1WF1_EIG
 Expectation of eigenvalue derivatives (hartree) for nkpt=   1  k points:
  (in case of degenerate eigenvalues, averaged derivative)
 kpt#   1, nband= 33, wtk=  1.00000, kpt=  0.0000  0.0000  0.0000 (reduced coord)
   0.00000    0.00000    0.00000    0.00000   -0.00000   -0.00000    0.00000   -0.00000
  -0.00000    0.00000    0.00000    0.00000    0.00000   -0.00000   -0.00000   -0.00000
   0.00000    0.00000   -0.00000   -0.00000   -0.00000    0.00000   -0.00000   -0.00000
   0.00000   -0.00000   -0.00000   -0.00000   -0.00000   -0.00000   -0.00003    0.00000
  -0.00012

 Eight components of 2nd-order total energy (hartree) are
 1,2,3: 0th-order hamiltonian combined with 1st-order wavefunctions
     kin0=   4.34994694E+01 eigvalue=   1.75394778E+00  local=  -1.64383809E+01
 4,5,6: 1st-order hamiltonian combined with 1st and 0th-order wfs
     kin1=  -6.92065054E+01  Hartree=   0.00000000E+00     xc=   0.00000000E+00
 7,8,9: eventually, occupation + non-local contributions
    edocc=   7.02844373E+00     enl0=  -2.17617332E-01   enl1=  -2.04521997E+00
 1-9 gives the relaxation energy (to be shifted if some occ is /=2.0)
   erelax=  -3.56258627E+01
  No Ewald or frozen-wf contrib.: the relaxation energy is the total one
 2DEtotal=   -0.3562586270E+02 Ha. Also 2DEtotal=   -0.969429025239E+03 eV
    (  non-var. 2DEtotal :   -3.5625862699E+01 Ha)

 Perturbation wavevector (in red.coord.)   0.000000  0.000000  0.000000
 Perturbation : derivative vs k along direction   2
 The set of symmetries contains only one element for this perturbation.
 symkpt : not enough symmetry to change the number of k points.

[...]

 Perturbation wavevector (in red.coord.)   0.000000  0.000000  0.000000
 Perturbation : derivative vs k along direction   3
 The set of symmetries contains only one element for this perturbation.
 symkpt : not enough symmetry to change the number of k points.

-inwffil : will read wavefunctions from disk file /scratch/users/j/a/jabreu/flow_simple_8atoms/flow/w452/t1/indata/in_WFK

 Initialisation of the first-order wave-functions :
  ireadwf=   0

--- !BeginCycle
iteration_state: {dtset: 1, }
solver: {iscf: 7, nstep: 2000, nline: 4, wfoptalg: 0, }
tolerances: {tolwfr: 1.00E-20, }
...

     iter   2DEtotal(Ha)        deltaE(Ha) residm    vres2
-ETOT  1  -35.605258617644     -3.561E+01 3.920E-02 0.000E+00
 ETOT  2  -35.625871979178     -2.061E-02 6.041E-04 0.000E+00
 ETOT  3  -35.625893390662     -2.141E-05 1.603E-05 0.000E+00
 ETOT  4  -35.625893456830     -6.617E-08 9.287E-07 0.000E+00
 ETOT  5  -35.625893457153     -3.231E-10 5.323E-08 0.000E+00
 ETOT  6  -35.625893457155     -1.840E-12 3.280E-09 0.000E+00
 ETOT  7  -35.625893457155      7.105E-14 2.075E-10 0.000E+00
 ETOT  8  -35.625893457155     -3.553E-14 1.279E-11 0.000E+00
 ETOT  9  -35.625893457155      7.105E-15 1.690E-12 0.000E+00
 ETOT 10  -35.625893457155     -2.132E-14 7.365E-14 0.000E+00
 ETOT 11  -35.625893457155     -7.105E-15 8.713E-15 0.000E+00
 ETOT 12  -35.625893457155      0.000E+00 3.690E-16 0.000E+00
 ETOT 13  -35.625893457155     -1.421E-14 4.419E-17 0.000E+00
 ETOT 14  -35.625893457155      7.105E-15 1.875E-18 0.000E+00
 ETOT 15  -35.625893457155      0.000E+00 2.301E-19 0.000E+00
 ETOT 16  -35.625893457155     -7.105E-15 9.951E-21 0.000E+00

 At SCF step   16   max residual=  9.95E-21 < tolwfr=  1.00E-20 =>converged.

 ----iterations are completed or convergence reached----

 dfpt_looppert: DFPT cycle converged with prtwf=-1. Will skip output of the 1st-order WFK file.
 dfpt_looppert : ek2=    6.4537747926E+01
          f-sum rule ratio=    1.0723425933E+00
 prteigrs : about to open file /scratch/users/j/a/jabreu/flow_simple_8atoms/flow/w452/t1/tmpdata/tmp_1WF1_EIG
 Expectation of eigenvalue derivatives (hartree) for nkpt=   1  k points:
  (in case of degenerate eigenvalues, averaged derivative)
 kpt#   1, nband= 33, wtk=  1.00000, kpt=  0.0000  0.0000  0.0000 (reduced coord)
  -0.00000    0.00000    0.00000    0.00000   -0.00000   -0.00000   -0.00000   -0.00000
  -0.00000    0.00000    0.00000   -0.00000   -0.00000   -0.00000   -0.00000   -0.00000
  -0.00000   -0.00000    0.00000    0.00000   -0.00000    0.00000    0.00000    0.00000
   0.00000    0.00000   -0.00000   -0.00000   -0.00000   -0.00000   -0.00000    0.00000
   0.00002

 Eight components of 2nd-order total energy (hartree) are
 1,2,3: 0th-order hamiltonian combined with 1st-order wavefunctions
     kin0=   4.34997156E+01 eigvalue=   1.75396256E+00  local=  -1.64384879E+01
 4,5,6: 1st-order hamiltonian combined with 1st and 0th-order wfs
     kin1=  -6.92065760E+01  Hartree=   0.00000000E+00     xc=   0.00000000E+00
 7,8,9: eventually, occupation + non-local contributions
    edocc=   7.02841108E+00     enl0=  -2.17707902E-01   enl1=  -2.04521094E+00
 1-9 gives the relaxation energy (to be shifted if some occ is /=2.0)
   erelax=  -3.56258935E+01
  No Ewald or frozen-wf contrib.: the relaxation energy is the total one
 2DEtotal=   -0.3562589346E+02 Ha. Also 2DEtotal=   -0.969429862218E+03 eV
    (  non-var. 2DEtotal :   -3.5625893457E+01 Ha)

 CALCULATION OF EFFECTIVE MASSES
 NOTE : Additional infos (eff. mass eigenvalues, eigenvectors and, if degenerate, average mass) are available in stdout.

 COMMENTS:
 - At k-point ( 0.000, 0.000, 0.000), bands    23 through    24
   are DEGENERATE (effective mass tensor is therefore not defined).
   See Section IIIB Eqs. (67)-(70) and Appendix E of PRB 93 205147 (2016).
 - Angular average effective mass for Frohlich model is to be averaged over degenerate bands. See later.
 - Associated theta integrals calculated with ntheta=   1000 points.

 K-point ( 0.000, 0.000, 0.000) | band =    23
 Transport equivalent effective mass tensor:
             -3.4879855205              0.1544040741              0.3919821039
              0.1544040741             -3.6003115860              0.2745281461
              0.3919821039              0.2745281461             -3.0115232839
 Transport equivalent effective mass tensor eigenvalues:
             -3.7084535760             -3.7084498138             -2.6829170007
 Angular average effective mass 1/(<1/m>)=  -3.1304597967
 Angular average effective mass for Frohlich model (<m**0.5>)**2=  -3.1648755820
 Effective masses along directions: (cart. coord. / red. coord. -> eff. mass)
    1:   1.000000  0.000000  0.000000 /   0.946244  0.323455  0.000000 ->  -3.4304946075
    2:   0.000000  1.000000  0.000000 /   0.000000  1.000000  0.000000 ->  -3.7957730915
    3:   0.000000  0.000000  1.000000 /   0.418587  0.418587  0.805959 ->  -3.0109107006
    4:   0.577350  0.577350  0.577350 /   0.586137  0.688796  0.426618 ->  -2.6013393605
    5:   0.000000  0.707107  0.707107 /   0.298931  0.761157  0.575570 ->  -2.6978602104
    6:   0.707107  0.000000  0.707107 /   0.729596  0.430921  0.531033 ->  -2.6957409993
    7:   0.707107  0.707107  0.000000 /   0.615169  0.788395  0.000000 ->  -2.8958559533

 K-point ( 0.000, 0.000, 0.000) | band =    24
 Transport equivalent effective mass tensor:
             -8.0791382348              0.8959259191              2.2744422635
              0.8959259191             -8.7309075253              1.5929230032
              2.2744422635              1.5929230032             -5.3145007427
 Transport equivalent effective mass tensor eigenvalues:
             -9.3583779916             -9.3583758571             -3.4077926541
 Angular average effective mass 1/(<1/m>)=  -5.1192285632
 Angular average effective mass for Frohlich model (<m**0.5>)**2=  -5.6260494062
 Effective masses along directions: (cart. coord. / red. coord. -> eff. mass)
    1:   1.000000  0.000000  0.000000 /   0.946244  0.323455  0.000000 ->  -5.4768212030
    2:   0.000000  1.000000  0.000000 /   0.000000  1.000000  0.000000 ->  -5.7809689007
    3:   0.000000  0.000000  1.000000 /   0.418587  0.418587  0.805959 ->  -3.3145190243
    4:   0.577350  0.577350  0.577350 /   0.586137  0.688796  0.426618 ->  -3.1862895628
    5:   0.000000  0.707107  0.707107 /   0.298931  0.761157  0.575570 ->  -3.8985830532
    6:   0.707107  0.000000  0.707107 /   0.729596  0.430921  0.531033 ->  -3.1804734511
    7:   0.707107  0.707107  0.000000 /   0.615169  0.788395  0.000000 ->  -6.1840608091

 Angular average effective mass for Frohlich model, averaged over degenerate bands.
 Value of     (<<m**0.5>>)**2 =     4.307574E+00
 Absolute Value of <<m**0.5>> =     2.075470E+00

 K-point ( 0.000, 0.000, 0.000) | band =    25
 Effective mass tensor:
              0.5507661552             -0.0013995136             -0.0035528749
             -0.0013995136              0.5517842773             -0.0024882868
             -0.0035528749             -0.0024882868              0.5464475517
 Effective mass tensor eigenvalues:
              0.5434691079              0.5527644372              0.5527644390
 Angular average effective mass 1/(<1/m>)=   0.5496308651
 Angular average effective mass for Frohlich model (<m**0.5>)**2=   0.5496414349
 Effective masses along directions: (cart. coord. / red. coord. -> eff. mass)
    1:   1.000000  0.000000  0.000000 /   0.946244  0.323455  0.000000 ->   0.5507394230
    2:   0.000000  1.000000  0.000000 /   0.000000  1.000000  0.000000 ->   0.5517693076
    3:   0.000000  0.000000  1.000000 /   0.418587  0.418587  0.805959 ->   0.5464133302
    4:   0.577350  0.577350  0.577350 /   0.586137  0.688796  0.426618 ->   0.5446874777
    5:   0.000000  0.707107  0.707107 /   0.298931  0.761157  0.575570 ->   0.5465923601
    6:   0.707107  0.000000  0.707107 /   0.729596  0.430921  0.531033 ->   0.5450318078
    7:   0.707107  0.707107  0.000000 /   0.615169  0.788395  0.000000 ->   0.5498418293

 END OF EFFECTIVE MASSES SECTION

 ---- first-order wavefunction calculations are completed ----

 Total localisation tensor (bohr^2) in cartesian coordinates
  WARNING : still subject to testing - especially symmetries.
      direction              matrix element
   alpha     beta       real part   imaginary part
     1        1       0.6089334098    0.0000000000
     1        2       0.1751477088    0.0000000000
     1        3       0.4446382735    0.0000000000
     2        1       0.1751477088    0.0000000000
     2        2       0.4815173231    0.0000000000
     2        3       0.3114064174    0.0000000000
     3        1       0.4446382735    0.0000000000
     3        2       0.3114064174    0.0000000000
     3        3       1.1494032376    0.0000000000

 respfn : d/dk was computed, but no 2DTE, so no DDB output.

== END DATASET(S) ==============================================================

 -outvars: echo values of variables after computation  --------
            acell      1.0000000000E+00  1.0000000000E+00  1.0000000000E+00 Bohr
              amu      2.69815390E+01  1.89984032E+01
             ecut      4.20000000E+01 Hartree
           etotal     -3.5625893457E+01
            fcart      0.0000000000E+00  0.0000000000E+00  0.0000000000E+00
                       0.0000000000E+00  0.0000000000E+00  0.0000000000E+00
                       0.0000000000E+00  0.0000000000E+00  0.0000000000E+00
                       0.0000000000E+00  0.0000000000E+00  0.0000000000E+00
                       0.0000000000E+00  0.0000000000E+00  0.0000000000E+00
                       0.0000000000E+00  0.0000000000E+00  0.0000000000E+00
                       0.0000000000E+00  0.0000000000E+00  0.0000000000E+00
                       0.0000000000E+00  0.0000000000E+00  0.0000000000E+00
-          fftalg         512
           irdden           1
           irdwfk           1
           istwfk        1
              ixc     -116133
           kptopt           0
P           mkmem           1
P          mkqmem           1
P          mk1mem           1
            natom           8
            nband          33
           nbdbuf           4
            ngfft          60      60      60
             nkpt           1
            nstep        2000
             nsym          12
           ntypat           2
              occ      2.000000  2.000000  2.000000  2.000000  2.000000  2.000000
                       2.000000  2.000000  2.000000  2.000000  2.000000  2.000000
                       2.000000  2.000000  2.000000  2.000000  2.000000  2.000000
                       2.000000  2.000000  2.000000  2.000000  2.000000  2.000000
                       0.000000  0.000000  0.000000  0.000000  0.000000  0.000000
                       0.000000  0.000000  0.000000
        optdriver           1
            prtwf          -1
            rfdir           1       1       1
           rfelfd           2
            rprim      8.1543774503E+00  0.0000000000E+00  4.9559192770E+00
                       2.7874117484E+00  7.6631721464E+00  4.9559192770E+00
                       0.0000000000E+00  0.0000000000E+00  9.5422747540E+00
          spgroup         167
           strten      0.0000000000E+00  0.0000000000E+00  0.0000000000E+00
                       0.0000000000E+00  0.0000000000E+00  0.0000000000E+00
           symrel      1  0  0   0  1  0   0  0  1      -1  0  0   0 -1  0   0  0 -1
                       0  1  0   1  0  0   0  0  1       0 -1  0  -1  0  0   0  0 -1
                       0  0  1   1  0  0   0  1  0       0  0 -1  -1  0  0   0 -1  0
                       1  0  0   0  0  1   0  1  0      -1  0  0   0  0 -1   0 -1  0
                       0  1  0   0  0  1   1  0  0       0 -1  0   0  0 -1  -1  0  0
                       0  0  1   0  1  0   1  0  0       0  0 -1   0 -1  0  -1  0  0
            tnons      0.0000000  0.0000000  0.0000000     0.0000000 -0.0000000 -0.0000000
                       0.5000000  0.5000000  0.5000000     0.5000000  0.5000000  0.5000000
                       0.0000000  0.0000000 -0.0000000    -0.0000000 -0.0000000 -0.0000000
                       0.5000000  0.5000000  0.5000000     0.5000000  0.5000000  0.5000000
                       0.0000000 -0.0000000 -0.0000000    -0.0000000 -0.0000000 -0.0000000
                       0.5000000  0.5000000  0.5000000     0.5000000  0.5000000  0.5000000
           tolwfr      1.00000000E-20
            typat      1  1  2  2  2  2  2  2
           useylm           1
           xangst      2.8950727326E+00  2.0275880227E+00  5.1473366880E+00
                       0.0000000000E+00  0.0000000000E+00  0.0000000000E+00
                       1.8674443427E+00  3.0413820340E+00  4.0635846329E+00
                       1.6565773149E+00  7.1531683370E-01  5.0984455029E+00
                       2.0764852913E+00  2.7429048564E+00  6.5883617919E+00
                       4.1335681502E+00  3.3398592117E+00  5.1962278730E+00
                       3.9227011225E+00  1.0137940113E+00  6.2310887430E+00
                       3.7136601738E+00  1.3122711890E+00  3.7063115840E+00
            xcart      5.4708945994E+00  3.8315860732E+00  9.7270566540E+00
                       0.0000000000E+00  0.0000000000E+00  0.0000000000E+00
                       3.5289583760E+00  5.7473791098E+00  7.6790620740E+00
                       3.1304774432E+00  1.3517529139E+00  9.6346657040E+00
                       3.9239885195E+00  5.1833389871E+00  1.2450199451E+01
                       7.8113117555E+00  6.3114192325E+00  9.8194476040E+00
                       7.4128308227E+00  1.9157930366E+00  1.1775051234E+01
                       7.0178006792E+00  2.4798331593E+00  7.0039138570E+00
             xred      5.0000000000E-01  5.0000000000E-01  5.0000000000E-01
                       0.0000000000E+00  0.0000000000E+00  0.0000000000E+00
                       1.7639600000E-01  7.5000000000E-01  3.2360400000E-01
                       3.2360400000E-01  1.7639600000E-01  7.5000000000E-01
                       2.5000000000E-01  6.7639600000E-01  8.2360400000E-01
                       6.7639600000E-01  8.2360400000E-01  2.5000000000E-01
                       8.2360400000E-01  2.5000000000E-01  6.7639600000E-01
                       7.5000000000E-01  3.2360400000E-01  1.7639600000E-01
            znucl       13.00000    9.00000

- Timing analysis has been suppressed with timopt=0

 Suggested references for the acknowledgment of ABINIT usage.

 Calculation completed.
.Delivered   6 WARNINGs and   5 COMMENTs to log file.