.Version 9.7.2 of ABINIT

 ABINIT is a project of the Universite Catholique de Louvain,
 Corning Inc. and other collaborators, see ~abinit/doc/developers/contributors.txt .
 acknowledgments of the ABINIT effort.

.Starting date : Wed  1 Dec 2021.
- ( at 21h15 )

- input  file    -> /scratch/users/j/a/jabreu/flow_simple_remain_atoms/flow/w158/t1/run.abi
- output file    -> /scratch/users/j/a/jabreu/flow_simple_remain_atoms/flow/w158/t1/run.abo
- root for input  files -> /scratch/users/j/a/jabreu/flow_simple_remain_atoms/flow/w158/t1/indata/in
- root for output files -> /scratch/users/j/a/jabreu/flow_simple_remain_atoms/flow/w158/t1/outdata/out

 Symmetries : space group P4 m m (# 99); Bravais tP (primitive tetrag.)
     intxc =       0      iscf =       7    lmnmax =      18     lnmax =       6
     mgfft =      48  mpssoang =       3    mqgrid =    3001     natom =       5
  nloc_mem =       1    nspden =       1   nspinor =       1    nsppol =       1
      nsym =       8    n1xccc =    2501    ntypat =       3    occopt =       1
   xclevel =       2
-    mband =          29        mffmem =           1         mkmem =           2
-   mkqmem =           2        mk1mem =           2           mpw =        6007
      nfft =      110592          nkpt =           2
  Rough estimation (10% accuracy) of disk space for files :

------------- Echo of variables that govern the present computation ------------
-
- outvars: echo of selected default values
-   iomode0 =  0 , fftalg0 =512 , wfoptalg0 =  0
-
- outvars: echo of global parameters not present in the input file
-  max_nthreads =    0
-
 -outvars: echo values of preprocessed input variables --------
            acell      1.0000000000E+00  1.0000000000E+00  1.0000000000E+00 Bohr
              amu      3.90983000E+01  9.29063800E+01  1.59994000E+01
             ecut      4.40000000E+01 Hartree
-          fftalg         512
           irdden           1
           irdwfk           1
           istwfk        1    1
              ixc     -116133
              kpt      5.00000000E-01  5.00000000E-01  5.00000000E-01
                       0.00000000E+00  0.00000000E+00  0.00000000E+00
           kptopt           0
P           mkmem           2
P          mkqmem           2
P          mk1mem           2
            natom           5
            nband          29
           nbdbuf           4
            ngfft          48      48      48
             nkpt           2
            nstep        2000
             nsym           8
           ntypat           3
              occ      2.000000  2.000000  2.000000  2.000000  2.000000  2.000000
                       2.000000  2.000000  2.000000  2.000000  2.000000  2.000000
                       2.000000  2.000000  2.000000  2.000000  2.000000  2.000000
                       2.000000  2.000000  0.000000  0.000000  0.000000  0.000000
                       0.000000  0.000000  0.000000  0.000000  0.000000
        optdriver           1
            prtwf          -1
            rfdir           1       1       1
           rfelfd           2
            rprim      7.4989698314E+00  0.0000000000E+00  0.0000000000E+00
                       0.0000000000E+00  7.4989698314E+00  0.0000000000E+00
                       0.0000000000E+00  0.0000000000E+00  7.6761770090E+00
          spgroup          99
           symrel      1  0  0   0  1  0   0  0  1       1  0  0   0 -1  0   0  0  1
                      -1  0  0   0 -1  0   0  0  1      -1  0  0   0  1  0   0  0  1
                       0  1  0   1  0  0   0  0  1       0  1  0  -1  0  0   0  0  1
                       0 -1  0  -1  0  0   0  0  1       0 -1  0   1  0  0   0  0  1
           tolwfr      1.00000000E-20
            typat      1  2  3  3  3
           useylm           1
              wtk        0.50000    0.50000
           xangst      1.9841419613E+00  1.9841419613E+00  2.0277671286E+00
                       0.0000000000E+00  0.0000000000E+00  5.6267626339E-02
                       1.9841419613E+00  0.0000000000E+00  3.9602708748E+00
                       0.0000000000E+00  1.9841419613E+00  3.9602708748E+00
                       0.0000000000E+00  0.0000000000E+00  1.9167551477E+00
            xcart      3.7494849157E+00  3.7494849157E+00  3.8319245344E+00
                       0.0000000000E+00  0.0000000000E+00  1.0633040393E-01
                       3.7494849157E+00  0.0000000000E+00  7.4838273655E+00
                       0.0000000000E+00  3.7494849157E+00  7.4838273655E+00
                       0.0000000000E+00  0.0000000000E+00  3.6221422929E+00
             xred      5.0000000000E-01  5.0000000000E-01  4.9919700000E-01
                       0.0000000000E+00  0.0000000000E+00  1.3852000000E-02
                       5.0000000000E-01  0.0000000000E+00  9.7494200000E-01
                       0.0000000000E+00  5.0000000000E-01  9.7494200000E-01
                       0.0000000000E+00  0.0000000000E+00  4.7186800000E-01
            znucl       19.00000   41.00000    8.00000

 chkinp: Checking input parameters for consistency.

== DATASET  1 ==================================================================
-   mpi_nproc: 1, omp_nthreads: -1 (-1 if OMP is not activated)

--- !DatasetInfo
iteration_state: {dtset: 1, }
dimensions: {natom: 5, nkpt: 2, mband: 29, nsppol: 1, nspinor: 1, nspden: 1, mpw: 6007, }
cutoff_energies: {ecut:  44.0, pawecutdg:  -1.0, }
electrons: {nelect:   4.00000000E+01, charge:   0.00000000E+00, occopt:   1.00000000E+00, tsmear:   1.00000000E-02, }
meta: {optdriver: 1, rfelfd: 2, }
...

 Real(R)+Recip(G) space primitive vectors, cartesian coordinates (Bohr,Bohr^-1):
 R(1)=  7.4989698  0.0000000  0.0000000  G(1)=  0.1333517  0.0000000  0.0000000
 R(2)=  0.0000000  7.4989698  0.0000000  G(2)=  0.0000000  0.1333517  0.0000000
 R(3)=  0.0000000  0.0000000  7.6761770  G(3)=  0.0000000  0.0000000  0.1302732
 Unit cell volume ucvol=  4.3166635E+02 bohr^3
 Angles (23,13,12)=  9.00000000E+01  9.00000000E+01  9.00000000E+01 degrees

 getcut: wavevector=  0.0000  0.0000  0.0000  ngfft=  48  48  48
         ecut(hartree)=     44.000   => boxcut(ratio)=   2.09414

--- Pseudopotential description ------------------------------------------------
- pspini: atom type   1  psp file is /scratch/users/j/a/jabreu/pseudos/PBEsol/K.psp8
- pspatm: opening atomic psp file    /scratch/users/j/a/jabreu/pseudos/PBEsol/K.psp8
- K     ONCVPSP-3.3.0  r_core=   1.36296   1.46408   1.61068
- 19.00000   9.00000    180112                znucl, zion, pspdat
    8 -116133    2    4       400   0.00000   pspcod,pspxc,lmax,lloc,mmax,r2well
    3.99000000000000    5.00000000000000    0.00000000000000   rchrg,fchrg,qchrg
     nproj     2     2     2
     extension_switch     1
  pspatm : epsatm=    8.32487830
         --- l  ekb(1:nproj) -->
             0   10.921326    0.816676
             1    4.431000    0.560368
             2   -3.384038   -1.043186
 pspatm: atomic psp has been read  and splines computed

- pspini: atom type   2  psp file is /scratch/users/j/a/jabreu/pseudos/PBEsol/Nb.psp8
- pspatm: opening atomic psp file    /scratch/users/j/a/jabreu/pseudos/PBEsol/Nb.psp8
- Nb    ONCVPSP-3.3.0  r_core=   1.50879   1.40458   1.40458
- 41.00000  13.00000    180112                znucl, zion, pspdat
    8 -116133    2    4       600   0.00000   pspcod,pspxc,lmax,lloc,mmax,r2well
    5.99000000000000    5.00000000000000    0.00000000000000   rchrg,fchrg,qchrg
     nproj     2     2     2
     extension_switch     1
  pspatm : epsatm=   15.66753381
         --- l  ekb(1:nproj) -->
             0   12.953547    1.345168
             1    7.772306    0.779703
             2    3.518917    1.091480
 pspatm: atomic psp has been read  and splines computed

- pspini: atom type   3  psp file is /scratch/users/j/a/jabreu/pseudos/PBEsol/O.psp8
- pspatm: opening atomic psp file    /scratch/users/j/a/jabreu/pseudos/PBEsol/O.psp8
- O     ONCVPSP-3.3.0  r_core=   1.35509   1.45563   1.26150
-  8.00000   6.00000    180112                znucl, zion, pspdat
    8 -116133    2    4       600   0.00000   pspcod,pspxc,lmax,lloc,mmax,r2well
    5.99000000000000    4.00000000000000    0.00000000000000   rchrg,fchrg,qchrg
     nproj     2     2     1
     extension_switch     1
  pspatm : epsatm=    6.22910522
         --- l  ekb(1:nproj) -->
             0    6.050032    0.820363
             1   -4.739617   -1.153841
             2   -1.335834
 pspatm: atomic psp has been read  and splines computed

   1.70718911E+03                                ecore*ucvol(ha*bohr**3)

 ==>  initialize data related to q vector <==

 The list of irreducible perturbations for this q vector is:
    1)    idir= 1    ipert=   6
    2)    idir= 2    ipert=   6
    3)    idir= 3    ipert=   6

 Perturbation wavevector (in red.coord.)   0.000000  0.000000  0.000000
 Perturbation : derivative vs k along direction   1

 dfpt_looppert : COMMENT -
  In a d/dk calculation, iscf is set to -3 automatically.
 The set of symmetries contains only one element for this perturbation.
 symkpt : not enough symmetry to change the number of k points.

 Initialisation of the first-order wave-functions :
  ireadwf=   0

--- !BeginCycle
iteration_state: {dtset: 1, }
solver: {iscf: 7, nstep: 2000, nline: 4, wfoptalg: 0, }
tolerances: {tolwfr: 1.00E-20, }
...

     iter   2DEtotal(Ha)        deltaE(Ha) residm    vres2
-ETOT  1  -32.779072621588     -3.278E+01 4.699E-02 0.000E+00
 ETOT  2  -32.801927180021     -2.285E-02 2.399E-03 0.000E+00
 ETOT  3  -32.802008901551     -8.172E-05 1.059E-05 0.000E+00
 ETOT  4  -32.802009435832     -5.343E-07 1.320E-06 0.000E+00
 ETOT  5  -32.802009440627     -4.795E-09 9.374E-09 0.000E+00
 ETOT  6  -32.802009440676     -4.871E-11 1.106E-09 0.000E+00
 ETOT  7  -32.802009440676     -5.471E-13 1.428E-11 0.000E+00
 ETOT  8  -32.802009440676     -1.421E-14 1.106E-12 0.000E+00
 ETOT  9  -32.802009440676     -7.105E-15 7.456E-14 0.000E+00
 ETOT 10  -32.802009440676     -1.421E-14 1.215E-14 0.000E+00
 ETOT 11  -32.802009440676      0.000E+00 9.645E-16 0.000E+00
 ETOT 12  -32.802009440676      1.421E-14 1.642E-16 0.000E+00
 ETOT 13  -32.802009440676     -7.105E-15 1.319E-17 0.000E+00
 ETOT 14  -32.802009440676      0.000E+00 2.276E-18 0.000E+00
 ETOT 15  -32.802009440676     -7.105E-15 1.874E-19 0.000E+00
 ETOT 16  -32.802009440676      0.000E+00 3.337E-20 0.000E+00
 ETOT 17  -32.802009440676     -7.105E-15 9.905E-21 0.000E+00

 At SCF step   17   max residual=  9.90E-21 < tolwfr=  1.00E-20 =>converged.

 ----iterations are completed or convergence reached----

 dfpt_looppert: DFPT cycle converged with prtwf=-1. Will skip output of the 1st-order WFK file.
 dfpt_looppert : ek2=    5.6162510250E+01
          f-sum rule ratio=    1.2034430360E+00
 prteigrs : about to open file /scratch/users/j/a/jabreu/flow_simple_remain_atoms/flow/w158/t1/tmpdata/tmp_1WF1_EIG
 Expectation of eigenvalue derivatives (hartree) for nkpt=   2  k points:
  (in case of degenerate eigenvalues, averaged derivative)
 kpt#   1, nband= 29, wtk=  0.50000, kpt=  0.5000  0.5000  0.5000 (reduced coord)
   0.00000    0.00000    0.00000    0.00000   -0.00000    0.00000    0.00000    0.00000
  -0.00000   -0.00000    0.00000   -0.00000   -0.00000    0.00000    0.00000    0.00000
   0.00000    0.00000    0.00000   -0.00000    0.00000    0.00000   -0.00000    0.00000
   0.00000    0.00000    0.00000   -0.00008    0.00002
 prteigrs : prtvol=0 or 1, do not print more k-points.

 Eight components of 2nd-order total energy (hartree) are
 1,2,3: 0th-order hamiltonian combined with 1st-order wavefunctions
     kin0=   3.14239712E+01 eigvalue=  -6.00998695E-01  local=  -1.37947531E+01
 4,5,6: 1st-order hamiltonian combined with 1st and 0th-order wfs
     kin1=  -6.75883818E+01  Hartree=   0.00000000E+00     xc=   0.00000000E+00
 7,8,9: eventually, occupation + non-local contributions
    edocc=   1.53365152E+01     enl0=   4.37274942E-01   enl1=   1.98436296E+00
 1-9 gives the relaxation energy (to be shifted if some occ is /=2.0)
   erelax=  -3.28020094E+01
  No Ewald or frozen-wf contrib.: the relaxation energy is the total one
 2DEtotal=   -0.3280200944E+02 Ha. Also 2DEtotal=   -0.892588070270E+03 eV
    (  non-var. 2DEtotal :   -3.2802009441E+01 Ha)

 Perturbation wavevector (in red.coord.)   0.000000  0.000000  0.000000
 Perturbation : derivative vs k along direction   2
 The set of symmetries contains only one element for this perturbation.
 symkpt : not enough symmetry to change the number of k points.

[...]

 Perturbation wavevector (in red.coord.)   0.000000  0.000000  0.000000
 Perturbation : derivative vs k along direction   3
 The set of symmetries contains only one element for this perturbation.
 symkpt : not enough symmetry to change the number of k points.

 Initialisation of the first-order wave-functions :
  ireadwf=   0

--- !BeginCycle
iteration_state: {dtset: 1, }
solver: {iscf: 7, nstep: 2000, nline: 4, wfoptalg: 0, }
tolerances: {tolwfr: 1.00E-20, }
...

     iter   2DEtotal(Ha)        deltaE(Ha) residm    vres2
-ETOT  1  -31.134879860015     -3.113E+01 2.599E-02 0.000E+00
 ETOT  2  -31.153765182609     -1.889E-02 2.169E-03 0.000E+00
 ETOT  3  -31.153825854084     -6.067E-05 9.814E-06 0.000E+00
 ETOT  4  -31.153826199254     -3.452E-07 1.166E-06 0.000E+00
 ETOT  5  -31.153826202134     -2.880E-09 1.082E-08 0.000E+00
 ETOT  6  -31.153826202161     -2.709E-11 1.104E-09 0.000E+00
 ETOT  7  -31.153826202161     -2.878E-13 1.607E-11 0.000E+00
 ETOT  8  -31.153826202161     -1.776E-14 1.442E-12 0.000E+00
 ETOT  9  -31.153826202161     -1.421E-14 6.547E-14 0.000E+00
 ETOT 10  -31.153826202161      1.421E-14 8.736E-15 0.000E+00
 ETOT 11  -31.153826202161      1.776E-14 7.150E-16 0.000E+00
 ETOT 12  -31.153826202161      3.553E-15 9.780E-17 0.000E+00
 ETOT 13  -31.153826202161     -3.553E-15 8.316E-18 0.000E+00
 ETOT 14  -31.153826202161     -1.776E-14 1.114E-18 0.000E+00
 ETOT 15  -31.153826202161      3.553E-15 1.074E-19 0.000E+00
 ETOT 16  -31.153826202161     -7.105E-15 1.374E-20 0.000E+00
 ETOT 17  -31.153826202161      7.105E-15 9.720E-21 0.000E+00

 At SCF step   17   max residual=  9.72E-21 < tolwfr=  1.00E-20 =>converged.

 ----iterations are completed or convergence reached----

 dfpt_looppert: DFPT cycle converged with prtwf=-1. Will skip output of the 1st-order WFK file.
 dfpt_looppert : ek2=    5.3599379505E+01
          f-sum rule ratio=    1.1989615538E+00
 prteigrs : about to open file /scratch/users/j/a/jabreu/flow_simple_remain_atoms/flow/w158/t1/tmpdata/tmp_1WF1_EIG
 Expectation of eigenvalue derivatives (hartree) for nkpt=   2  k points:
  (in case of degenerate eigenvalues, averaged derivative)
 kpt#   1, nband= 29, wtk=  0.50000, kpt=  0.5000  0.5000  0.5000 (reduced coord)
   0.00000   -0.00000   -0.00000   -0.00000   -0.00000    0.00000   -0.00000   -0.00000
   0.00000    0.00000    0.00000   -0.00000   -0.00000    0.00000    0.00000   -0.00000
  -0.00000   -0.00000   -0.00000    0.00000    0.00000    0.00000    0.00000    0.00000
  -0.00000   -0.00000   -0.00000    0.00000   -0.00005
 prteigrs : prtvol=0 or 1, do not print more k-points.

 Eight components of 2nd-order total energy (hartree) are
 1,2,3: 0th-order hamiltonian combined with 1st-order wavefunctions
     kin0=   2.95673631E+01 eigvalue=  -5.67060484E-01  local=  -1.27613947E+01
 4,5,6: 1st-order hamiltonian combined with 1st and 0th-order wfs
     kin1=  -6.42635953E+01  Hartree=   0.00000000E+00     xc=   0.00000000E+00
 7,8,9: eventually, occupation + non-local contributions
    edocc=   1.46582682E+01     enl0=   2.56650073E-01   enl1=   1.95594293E+00
 1-9 gives the relaxation energy (to be shifted if some occ is /=2.0)
   erelax=  -3.11538262E+01
  No Ewald or frozen-wf contrib.: the relaxation energy is the total one
 2DEtotal=   -0.3115382620E+02 Ha. Also 2DEtotal=   -0.847738723495E+03 eV
    (  non-var. 2DEtotal :   -3.1153826202E+01 Ha)

 CALCULATION OF EFFECTIVE MASSES
 NOTE : Additional infos (eff. mass eigenvalues, eigenvectors and, if degenerate, average mass) are available in stdout.

 K-point ( 0.500, 0.500, 0.500) | band =    20
 Effective mass tensor:
             -1.0024822147              0.0000000006             -0.0000001176
              0.0000000006             -1.0024822133             -0.0000001396
             -0.0000001176             -0.0000001396            -27.3302034918
 Effective mass tensor eigenvalues:
            -27.3302034918             -1.0024822149             -1.0024822131
 Angular average effective mass 1/(<1/m>)=  -1.4766414374
 Angular average effective mass for Frohlich model (<m**0.5>)**2=  -1.9763231869
 Effective masses along directions: (cart. coord. / red. coord. -> eff. mass)
    1:   1.000000  0.000000  0.000000 /   1.000000  0.000000  0.000000 ->  -1.0024822147
    2:   0.000000  1.000000  0.000000 /   0.000000  1.000000  0.000000 ->  -1.0024822133
    3:   0.000000  0.000000  1.000000 /   0.000000  0.000000  1.000000 -> -27.3302034918
    4:   0.577350  0.577350  0.577350 /   0.572803  0.572803  0.586339 ->  -1.4766414502
    5:   0.000000  0.707107  0.707107 /   0.000000  0.698802  0.715315 ->  -1.9340237239
    6:   0.707107  0.000000  0.707107 /   0.698802  0.000000  0.715315 ->  -1.9340237233
    7:   0.707107  0.707107  0.000000 /   0.707107  0.707107  0.000000 ->  -1.0024822134

 K-point ( 0.000, 0.000, 0.000) | band =    21
 Effective mass tensor:
              0.2647959367             -0.0000056469              0.0001758731
             -0.0000056469              0.2647809118              0.0001231669
              0.0001758731              0.0001231669              8.7177162035
 Effective mass tensor eigenvalues:
              0.2647790226              0.2647978204              8.7177162089
 Angular average effective mass 1/(<1/m>)=   0.3912409340
 Angular average effective mass for Frohlich model (<m**0.5>)**2=   0.5318998872
 Effective masses along directions: (cart. coord. / red. coord. -> eff. mass)
    1:   1.000000  0.000000  0.000000 /   1.000000  0.000000  0.000000 ->   0.2647959330
    2:   0.000000  1.000000  0.000000 /   0.000000  1.000000  0.000000 ->   0.2647809100
    3:   0.000000  0.000000  1.000000 /   0.000000  0.000000  1.000000 ->   8.7177160294
    4:   0.577350  0.577350  0.577350 /   0.572803  0.572803  0.586339 ->   0.3912459317
    5:   0.000000  0.707107  0.707107 /   0.000000  0.698802  0.715315 ->   0.5139657946
    6:   0.707107  0.000000  0.707107 /   0.698802  0.000000  0.715315 ->   0.5140001281
    7:   0.707107  0.707107  0.000000 /   0.707107  0.707107  0.000000 ->   0.2647827720

 END OF EFFECTIVE MASSES SECTION

 ---- first-order wavefunction calculations are completed ----

 Total localisation tensor (bohr^2) in cartesian coordinates
  WARNING : still subject to testing - especially symmetries.
      direction              matrix element
   alpha     beta       real part   imaginary part
     1        1       1.2947886272    0.0000000000
     1        2       0.0000000000    0.0000000000
     1        3       0.0000000000    0.0000000000
     2        1       0.0000000000    0.0000000000
     2        2       1.2947812942    0.0000000000
     2        3       0.0000000000    0.0000000000
     3        1       0.0000000000    0.0000000000
     3        2       0.0000000000    0.0000000000
     3        3       1.1238225392    0.0000000000

 respfn : d/dk was computed, but no 2DTE, so no DDB output.

== END DATASET(S) ==============================================================

 -outvars: echo values of variables after computation  --------
            acell      1.0000000000E+00  1.0000000000E+00  1.0000000000E+00 Bohr
              amu      3.90983000E+01  9.29063800E+01  1.59994000E+01
             ecut      4.40000000E+01 Hartree
           etotal     -3.1153826202E+01
            fcart      0.0000000000E+00  0.0000000000E+00  0.0000000000E+00
                       0.0000000000E+00  0.0000000000E+00  0.0000000000E+00
                       0.0000000000E+00  0.0000000000E+00  0.0000000000E+00
                       0.0000000000E+00  0.0000000000E+00  0.0000000000E+00
                       0.0000000000E+00  0.0000000000E+00  0.0000000000E+00
-          fftalg         512
           irdden           1
           irdwfk           1
           istwfk        1    1
              ixc     -116133
              kpt      5.00000000E-01  5.00000000E-01  5.00000000E-01
                       0.00000000E+00  0.00000000E+00  0.00000000E+00
           kptopt           0
P           mkmem           2
P          mkqmem           2
P          mk1mem           2
            natom           5
            nband          29
           nbdbuf           4
            ngfft          48      48      48
             nkpt           2
            nstep        2000
             nsym           8
           ntypat           3
              occ      2.000000  2.000000  2.000000  2.000000  2.000000  2.000000
                       2.000000  2.000000  2.000000  2.000000  2.000000  2.000000
                       2.000000  2.000000  2.000000  2.000000  2.000000  2.000000
                       2.000000  2.000000  0.000000  0.000000  0.000000  0.000000
                       0.000000  0.000000  0.000000  0.000000  0.000000
        optdriver           1
            prtwf          -1
            rfdir           1       1       1
           rfelfd           2
            rprim      7.4989698314E+00  0.0000000000E+00  0.0000000000E+00
                       0.0000000000E+00  7.4989698314E+00  0.0000000000E+00
                       0.0000000000E+00  0.0000000000E+00  7.6761770090E+00
          spgroup          99
           strten      0.0000000000E+00  0.0000000000E+00  0.0000000000E+00
                       0.0000000000E+00  0.0000000000E+00  0.0000000000E+00
           symrel      1  0  0   0  1  0   0  0  1       1  0  0   0 -1  0   0  0  1
                      -1  0  0   0 -1  0   0  0  1      -1  0  0   0  1  0   0  0  1
                       0  1  0   1  0  0   0  0  1       0  1  0  -1  0  0   0  0  1
                       0 -1  0  -1  0  0   0  0  1       0 -1  0   1  0  0   0  0  1
           tolwfr      1.00000000E-20
            typat      1  2  3  3  3
           useylm           1
              wtk        0.50000    0.50000
           xangst      1.9841419613E+00  1.9841419613E+00  2.0277671286E+00
                       0.0000000000E+00  0.0000000000E+00  5.6267626339E-02
                       1.9841419613E+00  0.0000000000E+00  3.9602708748E+00
                       0.0000000000E+00  1.9841419613E+00  3.9602708748E+00
                       0.0000000000E+00  0.0000000000E+00  1.9167551477E+00
            xcart      3.7494849157E+00  3.7494849157E+00  3.8319245344E+00
                       0.0000000000E+00  0.0000000000E+00  1.0633040393E-01
                       3.7494849157E+00  0.0000000000E+00  7.4838273655E+00
                       0.0000000000E+00  3.7494849157E+00  7.4838273655E+00
                       0.0000000000E+00  0.0000000000E+00  3.6221422929E+00
             xred      5.0000000000E-01  5.0000000000E-01  4.9919700000E-01
                       0.0000000000E+00  0.0000000000E+00  1.3852000000E-02
                       5.0000000000E-01  0.0000000000E+00  9.7494200000E-01
                       0.0000000000E+00  5.0000000000E-01  9.7494200000E-01
                       0.0000000000E+00  0.0000000000E+00  4.7186800000E-01
            znucl       19.00000   41.00000    8.00000

- Timing analysis has been suppressed with timopt=0

 Suggested references for the acknowledgment of ABINIT usage.

 Calculation completed.
.Delivered   2 WARNINGs and   5 COMMENTs to log file.