.Version 9.5.1 of ABINIT

 ABINIT is a project of the Universite Catholique de Louvain,
 Corning Inc. and other collaborators, see ~abinit/doc/developers/contributors.txt .
 acknowledgments of the ABINIT effort.

.Starting date : Tue 11 May 2021.
- ( at 21h23 )

- input  file    -> /scratch/users/j/a/jabreu/flow_simple_8atoms/flow/w301/t1/run.abi
- output file    -> /scratch/users/j/a/jabreu/flow_simple_8atoms/flow/w301/t1/run.abo
- root for input  files -> /scratch/users/j/a/jabreu/flow_simple_8atoms/flow/w301/t1/indata/in
- root for output files -> /scratch/users/j/a/jabreu/flow_simple_8atoms/flow/w301/t1/outdata/out

 Symmetries : space group Cm c m (# 63); Bravais oC (1-face-center ortho.)
     intxc =       0      iscf =       7    lmnmax =      18     lnmax =       6
     mgfft =      72  mpssoang =       3    mqgrid =    3090     natom =       8
  nloc_mem =       1    nspden =       1   nspinor =       1    nsppol =       1
      nsym =       8    n1xccc =    2501    ntypat =       3    occopt =       1
   xclevel =       2
-    mband =          49        mffmem =           1         mkmem =           1
-   mkqmem =           1        mk1mem =           1           mpw =       16805
      nfft =      331776          nkpt =           1
  Rough estimation (10% accuracy) of disk space for files :

------------- Echo of variables that govern the present computation ------------
-
- outvars: echo of selected default values
-   iomode0 =  0 , fftalg0 =512 , wfoptalg0 =  0
-
- outvars: echo of global parameters not present in the input file
-  max_nthreads =    0
-
 -outvars: echo values of preprocessed input variables --------
            acell      1.0000000000E+00  1.0000000000E+00  1.0000000000E+00 Bohr
              amu      1.37327000E+02  1.06420000E+02  3.20660000E+01
             ecut      4.10000000E+01 Hartree
-          fftalg         512
           irdden           1
           irdwfk           1
           istwfk        1
              ixc     -116133
           kptopt           0
P           mkmem           1
P          mkqmem           1
P          mk1mem           1
            natom           8
            nband          49
           nbdbuf           4
            ngfft          72      72      64
             nkpt           1
            nstep        2000
             nsym           8
           ntypat           3
              occ      2.000000  2.000000  2.000000  2.000000  2.000000  2.000000
                       2.000000  2.000000  2.000000  2.000000  2.000000  2.000000
                       2.000000  2.000000  2.000000  2.000000  2.000000  2.000000
                       2.000000  2.000000  2.000000  2.000000  2.000000  2.000000
                       2.000000  2.000000  2.000000  2.000000  2.000000  2.000000
                       2.000000  2.000000  2.000000  2.000000  2.000000  2.000000
                       2.000000  2.000000  2.000000  2.000000  0.000000  0.000000
                       0.000000  0.000000  0.000000  0.000000  0.000000  0.000000
                       0.000000
        optdriver           1
            prtwf          -1
            rfdir           1       1       1
           rfelfd           2
            rprim      1.1871773143E+01  0.0000000000E+00  0.0000000000E+00
                      -5.1054854799E+00  1.0717882979E+01  0.0000000000E+00
                       0.0000000000E+00  0.0000000000E+00  1.0556993130E+01
          spgroup          63
           symrel      1  0  0   0  1  0   0  0  1      -1  0  0   0 -1  0   0  0 -1
                       0 -1  0  -1  0  0   0  0 -1       0  1  0   1  0  0   0  0  1
                      -1  0  0   0 -1  0   0  0  1       1  0  0   0  1  0   0  0 -1
                       0  1  0   1  0  0   0  0 -1       0 -1  0  -1  0  0   0  0  1
            tnons      0.0000000  0.0000000  0.0000000     0.0000000  0.0000000  0.0000000
                       0.0000000  0.0000000  0.5000000     0.0000000  0.0000000  0.5000000
                       0.0000000  0.0000000  0.5000000     0.0000000  0.0000000  0.5000000
                       0.0000000  0.0000000  0.0000000     0.0000000  0.0000000  0.0000000
           tolwfr      1.00000000E-20
            typat      1  1  2  2  3  3  3  3
           useylm           1
           xangst      4.3410616051E-01  3.6919950428E+00  1.3966300389E+00
                       3.1464590573E+00  1.9796643542E+00  4.1898901167E+00
                       0.0000000000E+00  0.0000000000E+00  2.7932600778E+00
                       0.0000000000E+00  0.0000000000E+00  0.0000000000E+00
                       1.7080224433E+00  8.0899982473E-01  1.3966300389E+00
                       1.8725427745E+00  4.8626595723E+00  4.1898901167E+00
                       3.5847363160E+00  3.7817377094E+00  1.3966300389E+00
                      -4.1710982205E-03  1.8899216876E+00  4.1898901167E+00
            xcart      8.2034175596E-01  6.9768595149E+00  2.6392482825E+00
                       5.9459459066E+00  3.7410234645E+00  7.9177448474E+00
                       0.0000000000E+00  0.0000000000E+00  5.2784965650E+00
                       0.0000000000E+00  0.0000000000E+00  0.0000000000E+00
                       3.2276946467E+00  1.5287881103E+00  2.6392482825E+00
                       3.5385930159E+00  9.1890948691E+00  7.9177448474E+00
                       6.7741698959E+00  7.1464485772E+00  2.6392482825E+00
                      -7.8822333102E-03  3.5714344022E+00  7.9177448474E+00
             xred      3.4904500000E-01  6.5095500000E-01  2.5000000000E-01
                       6.5095500000E-01  3.4904500000E-01  7.5000000000E-01
                       0.0000000000E+00  0.0000000000E+00  5.0000000000E-01
                       0.0000000000E+00  0.0000000000E+00  0.0000000000E+00
                       3.3322200000E-01  1.4263900000E-01  2.5000000000E-01
                       6.6677800000E-01  8.5736100000E-01  7.5000000000E-01
                       8.5736100000E-01  6.6677800000E-01  2.5000000000E-01
                       1.4263900000E-01  3.3322200000E-01  7.5000000000E-01
            znucl       56.00000   46.00000   16.00000

 chkinp: Checking input parameters for consistency.

== DATASET  1 ==================================================================
-   mpi_nproc: 1, omp_nthreads: -1 (-1 if OMP is not activated)

--- !DatasetInfo
iteration_state: {dtset: 1, }
dimensions: {natom: 8, nkpt: 1, mband: 49, nsppol: 1, nspinor: 1, nspden: 1, mpw: 16805, }
cutoff_energies: {ecut:  41.0, pawecutdg:  -1.0, }
electrons: {nelect:   8.00000000E+01, charge:   0.00000000E+00, occopt:   1.00000000E+00, tsmear:   1.00000000E-02, }
meta: {optdriver: 1, rfelfd: 2, }
...

 Real(R)+Recip(G) space primitive vectors, cartesian coordinates (Bohr,Bohr^-1):
 R(1)= 11.8717731  0.0000000  0.0000000  G(1)=  0.0842334  0.0401248  0.0000000
 R(2)= -5.1054855 10.7178830  0.0000000  G(2)=  0.0000000  0.0933020  0.0000000
 R(3)=  0.0000000  0.0000000 10.5569931  G(3)=  0.0000000  0.0000000  0.0947239
 Unit cell volume ucvol=  1.3432747E+03 bohr^3
 Angles (23,13,12)=  9.00000000E+01  9.00000000E+01  1.15470891E+02 degrees

 getcut: wavevector=  0.0000  0.0000  0.0000  ngfft=  72  72  64
         ecut(hartree)=     41.000   => boxcut(ratio)=   2.10321

--- Pseudopotential description ------------------------------------------------
- pspini: atom type   1  psp file is /scratch/users/j/a/jabreu/pseudos/PBEsol/Ba.psp8
- pspatm: opening atomic psp file    /scratch/users/j/a/jabreu/pseudos/PBEsol/Ba.psp8
- Ba    ONCVPSP-3.3.0  r_core=   2.15444   1.91218   2.15444
- 56.00000  10.00000    180112                znucl, zion, pspdat
    8 -116133    2    4       600   0.00000   pspcod,pspxc,lmax,lloc,mmax,r2well
    5.99000000000000    5.00000000000000    0.00000000000000   rchrg,fchrg,qchrg
     nproj     2     2     2
     extension_switch     1
  pspatm : epsatm=   26.37418029
         --- l  ekb(1:nproj) -->
             0    6.652372    0.677024
             1    5.027722    0.408462
             2    2.543237    0.416854
 pspatm: atomic psp has been read  and splines computed

- pspini: atom type   2  psp file is /scratch/users/j/a/jabreu/pseudos/PBEsol/Pd.psp8
- pspatm: opening atomic psp file    /scratch/users/j/a/jabreu/pseudos/PBEsol/Pd.psp8
- Pd    ONCVPSP-3.3.0  r_core=   1.41052   1.46191   1.55175
- 46.00000  18.00000    180112                znucl, zion, pspdat
    8 -116133    2    4       600   0.00000   pspcod,pspxc,lmax,lloc,mmax,r2well
    5.99000000000000    7.00000000000000    0.00000000000000   rchrg,fchrg,qchrg
     nproj     2     2     2
     extension_switch     1
  pspatm : epsatm=   26.17262427
         --- l  ekb(1:nproj) -->
             0    7.952303   -2.096627
             1    3.304793   -0.572651
             2   -1.185452   -0.410427
 pspatm: atomic psp has been read  and splines computed

- pspini: atom type   3  psp file is /scratch/users/j/a/jabreu/pseudos/PBEsol/S.psp8
- pspatm: opening atomic psp file    /scratch/users/j/a/jabreu/pseudos/PBEsol/S.psp8
- S     ONCVPSP-3.3.0  r_core=   1.45376   1.45376   1.61851
- 16.00000   6.00000    180112                znucl, zion, pspdat
    8 -116133    2    4       600   0.00000   pspcod,pspxc,lmax,lloc,mmax,r2well
    5.99000000000000    6.00000000000000    0.00000000000000   rchrg,fchrg,qchrg
     nproj     2     2     2
     extension_switch     1
  pspatm : epsatm=    8.71840985
         --- l  ekb(1:nproj) -->
             0    6.834532    0.579453
             1    3.282851    0.896984
             2   -3.496974   -0.974265
 pspatm: atomic psp has been read  and splines computed

   1.11973799E+04                                ecore*ucvol(ha*bohr**3)

-inwffil : will read wavefunctions from disk file /scratch/users/j/a/jabreu/flow_simple_8atoms/flow/w301/t1/indata/in_WFK

 ==>  initialize data related to q vector <==

 The list of irreducible perturbations for this q vector is:
    1)    idir= 1    ipert=   9
    2)    idir= 2    ipert=   9
    3)    idir= 3    ipert=   9

 Perturbation wavevector (in red.coord.)   0.000000  0.000000  0.000000
 Perturbation : derivative vs k along direction   1

 dfpt_looppert : COMMENT -
  In a d/dk calculation, iscf is set to -3 automatically.
 The set of symmetries contains only one element for this perturbation.
 symkpt : not enough symmetry to change the number of k points.

[...]

 Initialisation of the first-order wave-functions :
  ireadwf=   0

--- !BeginCycle
iteration_state: {dtset: 1, }
solver: {iscf: 7, nstep: 2000, nline: 4, wfoptalg: 0, }
tolerances: {tolwfr: 1.00E-20, }
...

     iter   2DEtotal(Ha)        deltaE(Ha) residm    vres2
-ETOT  1  -32.371438903472     -3.237E+01 1.962E-01 0.000E+00
 ETOT  2  -32.443145439038     -7.171E-02 8.187E-03 0.000E+00
 ETOT  3  -32.444218523639     -1.073E-03 4.472E-04 0.000E+00
 ETOT  4  -32.444243763070     -2.524E-05 3.988E-05 0.000E+00
 ETOT  5  -32.444244592241     -8.292E-07 4.858E-06 0.000E+00
 ETOT  6  -32.444244625843     -3.360E-08 4.898E-07 0.000E+00
 ETOT  7  -32.444244627451     -1.608E-09 8.048E-08 0.000E+00
 ETOT  8  -32.444244627540     -8.927E-11 1.011E-08 0.000E+00
 ETOT  9  -32.444244627546     -5.564E-12 2.033E-09 0.000E+00
 ETOT 10  -32.444244627546     -3.482E-13 2.917E-10 0.000E+00
 ETOT 11  -32.444244627546     -4.263E-14 6.142E-11 0.000E+00
 ETOT 12  -32.444244627546     -2.132E-14 9.109E-12 0.000E+00
 ETOT 13  -32.444244627546      2.132E-14 1.904E-12 0.000E+00
 ETOT 14  -32.444244627546      0.000E+00 2.874E-13 0.000E+00
 ETOT 15  -32.444244627546      7.105E-15 5.902E-14 0.000E+00
 ETOT 16  -32.444244627546      0.000E+00 9.128E-15 0.000E+00
 ETOT 17  -32.444244627546      7.105E-15 1.852E-15 0.000E+00
 ETOT 18  -32.444244627546      0.000E+00 2.941E-16 0.000E+00
 ETOT 19  -32.444244627546      7.105E-15 5.997E-17 0.000E+00
 ETOT 20  -32.444244627546      0.000E+00 9.711E-18 0.000E+00
 ETOT 21  -32.444244627546     -2.132E-14 2.022E-18 0.000E+00
 ETOT 22  -32.444244627546      2.132E-14 3.295E-19 0.000E+00
 ETOT 23  -32.444244627546     -2.132E-14 7.051E-20 0.000E+00
 ETOT 24  -32.444244627546      1.421E-14 1.143E-20 0.000E+00
 ETOT 25  -32.444244627546      7.105E-15 9.703E-21 0.000E+00

 At SCF step   25   max residual=  9.70E-21 < tolwfr=  1.00E-20 =>converged.

 ----iterations are completed or convergence reached----

 dfpt_looppert: DFPT cycle converged with prtwf=-1. Will skip output of the 1st-order WFK file.
 dfpt_looppert : ek2=    5.4987211625E+01
          f-sum rule ratio=    1.1671535225E+00
 prteigrs : about to open file /scratch/users/j/a/jabreu/flow_simple_8atoms/flow/w301/t1/tmpdata/tmp_1WF1_EIG
 Expectation of eigenvalue derivatives (hartree) for nkpt=   1  k points:
  (in case of degenerate eigenvalues, averaged derivative)
 kpt#   1, nband= 49, wtk=  1.00000, kpt=  0.0000  0.0000  0.0000 (reduced coord)
   0.00000    0.00000    0.00000   -0.00000   -0.00000   -0.00000    0.00000   -0.00000
  -0.00000   -0.00000   -0.00000   -0.00000    0.00000    0.00000    0.00000   -0.00000
   0.00000    0.00000    0.00000   -0.00000    0.00000   -0.00000    0.00000   -0.00000
  -0.00000   -0.00000    0.00000   -0.00000   -0.00000    0.00000    0.00000   -0.00000
  -0.00000   -0.00000   -0.00000   -0.00000    0.00000    0.00000   -0.00000   -0.00000
  -0.00000   -0.00000    0.00000   -0.00000    0.00000   -0.00000    0.00000   -0.00060
  -0.00017

 Eight components of 2nd-order total energy (hartree) are
 1,2,3: 0th-order hamiltonian combined with 1st-order wavefunctions
     kin0=   4.53298370E+01 eigvalue=  -2.32838685E+00  local=  -2.63905819E+01
 4,5,6: 1st-order hamiltonian combined with 1st and 0th-order wfs
     kin1=  -6.41785177E+01  Hartree=   0.00000000E+00     xc=   0.00000000E+00
 7,8,9: eventually, occupation + non-local contributions
    edocc=   1.12984964E+01     enl0=   4.53487999E+00   enl1=  -7.09971514E-01
 1-9 gives the relaxation energy (to be shifted if some occ is /=2.0)
   erelax=  -3.24442446E+01
  No Ewald or frozen-wf contrib.: the relaxation energy is the total one
 2DEtotal=   -0.3244424463E+02 Ha. Also 2DEtotal=   -0.882852794608E+03 eV
    (  non-var. 2DEtotal :   -3.2444244627E+01 Ha)

 Perturbation wavevector (in red.coord.)   0.000000  0.000000  0.000000
 Perturbation : derivative vs k along direction   2
 The set of symmetries contains only one element for this perturbation.
 symkpt : not enough symmetry to change the number of k points.

[...]

 Perturbation wavevector (in red.coord.)   0.000000  0.000000  0.000000
 Perturbation : derivative vs k along direction   3
 The set of symmetries contains only one element for this perturbation.
 symkpt : not enough symmetry to change the number of k points.

-inwffil : will read wavefunctions from disk file /scratch/users/j/a/jabreu/flow_simple_8atoms/flow/w301/t1/indata/in_WFK

 Initialisation of the first-order wave-functions :
  ireadwf=   0

--- !BeginCycle
iteration_state: {dtset: 1, }
solver: {iscf: 7, nstep: 2000, nline: 4, wfoptalg: 0, }
tolerances: {tolwfr: 1.00E-20, }
...

     iter   2DEtotal(Ha)        deltaE(Ha) residm    vres2
-ETOT  1  -30.560722838394     -3.056E+01 1.393E-01 0.000E+00
 ETOT  2  -30.629748047527     -6.903E-02 1.425E-03 0.000E+00
 ETOT  3  -30.631434205262     -1.686E-03 3.393E-04 0.000E+00
 ETOT  4  -30.631502488381     -6.828E-05 2.353E-05 0.000E+00
 ETOT  5  -30.631505866167     -3.378E-06 1.429E-06 0.000E+00
 ETOT  6  -30.631506055630     -1.895E-07 7.668E-08 0.000E+00
 ETOT  7  -30.631506067058     -1.143E-08 7.792E-09 0.000E+00
 ETOT  8  -30.631506067775     -7.170E-10 4.159E-10 0.000E+00
 ETOT  9  -30.631506067821     -4.595E-11 5.182E-11 0.000E+00
 ETOT 10  -30.631506067824     -2.949E-12 3.422E-12 0.000E+00
 ETOT 11  -30.631506067824     -2.203E-13 5.764E-13 0.000E+00
 ETOT 12  -30.631506067824     -2.842E-14 3.875E-14 0.000E+00
 ETOT 13  -30.631506067824      3.553E-15 7.404E-15 0.000E+00
 ETOT 14  -30.631506067824     -3.553E-14 4.564E-16 0.000E+00
 ETOT 15  -30.631506067824      7.105E-14 1.033E-16 0.000E+00
 ETOT 16  -30.631506067824     -1.421E-14 6.262E-18 0.000E+00
 ETOT 17  -30.631506067824     -3.553E-15 1.524E-18 0.000E+00
 ETOT 18  -30.631506067824      3.553E-15 9.207E-20 0.000E+00
 ETOT 19  -30.631506067824     -7.105E-15 2.277E-20 0.000E+00
 ETOT 20  -30.631506067824      0.000E+00 9.854E-21 0.000E+00

 At SCF step   20   max residual=  9.85E-21 < tolwfr=  1.00E-20 =>converged.

 ----iterations are completed or convergence reached----

 dfpt_looppert: DFPT cycle converged with prtwf=-1. Will skip output of the 1st-order WFK file.
 dfpt_looppert : ek2=    5.6676006510E+01
          f-sum rule ratio=    1.0652324981E+00
 prteigrs : about to open file /scratch/users/j/a/jabreu/flow_simple_8atoms/flow/w301/t1/tmpdata/tmp_1WF1_EIG
 Expectation of eigenvalue derivatives (hartree) for nkpt=   1  k points:
  (in case of degenerate eigenvalues, averaged derivative)
 kpt#   1, nband= 49, wtk=  1.00000, kpt=  0.0000  0.0000  0.0000 (reduced coord)
  -0.00000    0.00000    0.00000   -0.00000   -0.00000   -0.00000   -0.00000   -0.00000
   0.00000    0.00000    0.00000    0.00000    0.00000   -0.00000   -0.00000    0.00000
  -0.00000   -0.00000   -0.00000   -0.00000   -0.00000    0.00000   -0.00000   -0.00000
  -0.00000    0.00000   -0.00000    0.00000    0.00000    0.00000    0.00000    0.00000
  -0.00000   -0.00000    0.00000    0.00000    0.00000   -0.00000   -0.00000   -0.00000
   0.00000   -0.00000    0.00000    0.00000   -0.00000    0.00000    0.00000    0.00002
   0.00002

 Eight components of 2nd-order total energy (hartree) are
 1,2,3: 0th-order hamiltonian combined with 1st-order wavefunctions
     kin0=   4.69072652E+01 eigvalue=  -1.81241647E+00  local=  -2.68504691E+01
 4,5,6: 1st-order hamiltonian combined with 1st and 0th-order wfs
     kin1=  -6.03731240E+01  Hartree=   0.00000000E+00     xc=   0.00000000E+00
 7,8,9: eventually, occupation + non-local contributions
    edocc=   8.05823900E+00     enl0=   4.32888746E+00   enl1=  -8.89888141E-01
 1-9 gives the relaxation energy (to be shifted if some occ is /=2.0)
   erelax=  -3.06315061E+01
  No Ewald or frozen-wf contrib.: the relaxation energy is the total one
 2DEtotal=   -0.3063150607E+02 Ha. Also 2DEtotal=   -0.833525669821E+03 eV
    (  non-var. 2DEtotal :   -3.0631506067E+01 Ha)

 CALCULATION OF EFFECTIVE MASSES
 NOTE : Additional infos (eff. mass eigenvalues, eigenvectors and, if degenerate, average mass) are available in stdout.

 K-point ( 0.000, 0.000, 0.000) | band =    40
 Effective mass tensor:
            -11.1368223022              4.7588620348             -0.0000013166
              4.7588620348             -6.6030347811              0.0000012817
             -0.0000013166              0.0000012817             -0.3952438186
 Effective mass tensor eigenvalues:
            -14.1411309839             -3.5987260993             -0.3952438186
 Angular average effective mass 1/(<1/m>)=  -1.0421458897
 Angular average effective mass for Frohlich model (<m**0.5>)**2=  -1.8040009164
 Effective masses along directions: (cart. coord. / red. coord. -> eff. mass)
    1:   1.000000  0.000000  0.000000 /   0.918652 -0.395068  0.000000 ->  -7.7070708899
    2:   0.000000  1.000000  0.000000 /   0.000000  1.000000  0.000000 ->  -4.5695312150
    3:   0.000000  0.000000  1.000000 /   0.000000  0.000000  1.000000 ->  -0.3952438186
    4:   0.577350  0.577350  0.577350 /   0.704599  0.333100  0.626566 ->  -0.9785688814
    5:   0.000000  0.707107  0.707107 /   0.000000  0.712434  0.701739 ->  -0.7275570116
    6:   0.707107  0.000000  0.707107 /   0.711440 -0.305956  0.632649 ->  -0.7519264639
    7:   0.707107  0.707107  0.000000 /   0.904064  0.427397  0.000000 ->  -3.7340112360

 K-point ( 0.000, 0.000, 0.000) | band =    41
 Effective mass tensor:
              0.7617171409             -0.0909822701             -0.0000000463
             -0.0909822701              0.6750379686              0.0000000535
             -0.0000000463              0.0000000535              0.3196619948
 Effective mass tensor eigenvalues:
              0.3196619948              0.6176001108              0.8191549987
 Angular average effective mass 1/(<1/m>)=   0.5026603128
 Angular average effective mass for Frohlich model (<m**0.5>)**2=   0.5281079482
 Effective masses along directions: (cart. coord. / red. coord. -> eff. mass)
    1:   1.000000  0.000000  0.000000 /   0.918652 -0.395068  0.000000 ->   0.7494544625
    2:   0.000000  1.000000  0.000000 /   0.000000  1.000000  0.000000 ->   0.6641707148
    3:   0.000000  0.000000  1.000000 /   0.000000  0.000000  1.000000 ->   0.3196619948
    4:   0.577350  0.577350  0.577350 /   0.704599  0.333100  0.626566 ->   0.4740892365
    5:   0.000000  0.707107  0.707107 /   0.000000  0.712434  0.701739 ->   0.4315980841
    6:   0.707107  0.000000  0.707107 /   0.711440 -0.305956  0.632649 ->   0.4481683718
    7:   0.707107  0.707107  0.000000 /   0.904064  0.427397  0.000000 ->   0.6250745372

 END OF EFFECTIVE MASSES SECTION

 ---- first-order wavefunction calculations are completed ----

 Total localisation tensor (bohr^2) in cartesian coordinates
  WARNING : still subject to testing - especially symmetries.
      direction              matrix element
   alpha     beta       real part   imaginary part
     1        1       2.4033221021    0.0000000000
     1        2      -0.7875645533    0.0000000000
     1        3       0.0000000000    0.0000000000
     2        1      -0.7875645533    0.0000000000
     2        2       1.6533245965    0.0000000000
     2        3       0.0000000000    0.0000000000
     3        1       0.0000000000    0.0000000000
     3        2       0.0000000000    0.0000000000
     3        3       1.9308718951    0.0000000000

 respfn : d/dk was computed, but no 2DTE, so no DDB output.

== END DATASET(S) ==============================================================

 -outvars: echo values of variables after computation  --------
            acell      1.0000000000E+00  1.0000000000E+00  1.0000000000E+00 Bohr
              amu      1.37327000E+02  1.06420000E+02  3.20660000E+01
             ecut      4.10000000E+01 Hartree
           etotal     -3.0631506068E+01
            fcart      0.0000000000E+00  0.0000000000E+00  0.0000000000E+00
                       0.0000000000E+00  0.0000000000E+00  0.0000000000E+00
                       0.0000000000E+00  0.0000000000E+00  0.0000000000E+00
                       0.0000000000E+00  0.0000000000E+00  0.0000000000E+00
                       0.0000000000E+00  0.0000000000E+00  0.0000000000E+00
                       0.0000000000E+00  0.0000000000E+00  0.0000000000E+00
                       0.0000000000E+00  0.0000000000E+00  0.0000000000E+00
                       0.0000000000E+00  0.0000000000E+00  0.0000000000E+00
-          fftalg         512
           irdden           1
           irdwfk           1
           istwfk        1
              ixc     -116133
           kptopt           0
P           mkmem           1
P          mkqmem           1
P          mk1mem           1
            natom           8
            nband          49
           nbdbuf           4
            ngfft          72      72      64
             nkpt           1
            nstep        2000
             nsym           8
           ntypat           3
              occ      2.000000  2.000000  2.000000  2.000000  2.000000  2.000000
                       2.000000  2.000000  2.000000  2.000000  2.000000  2.000000
                       2.000000  2.000000  2.000000  2.000000  2.000000  2.000000
                       2.000000  2.000000  2.000000  2.000000  2.000000  2.000000
                       2.000000  2.000000  2.000000  2.000000  2.000000  2.000000
                       2.000000  2.000000  2.000000  2.000000  2.000000  2.000000
                       2.000000  2.000000  2.000000  2.000000  0.000000  0.000000
                       0.000000  0.000000  0.000000  0.000000  0.000000  0.000000
                       0.000000
        optdriver           1
            prtwf          -1
            rfdir           1       1       1
           rfelfd           2
            rprim      1.1871773143E+01  0.0000000000E+00  0.0000000000E+00
                      -5.1054854799E+00  1.0717882979E+01  0.0000000000E+00
                       0.0000000000E+00  0.0000000000E+00  1.0556993130E+01
          spgroup          63
           strten      0.0000000000E+00  0.0000000000E+00  0.0000000000E+00
                       0.0000000000E+00  0.0000000000E+00  0.0000000000E+00
           symrel      1  0  0   0  1  0   0  0  1      -1  0  0   0 -1  0   0  0 -1
                       0 -1  0  -1  0  0   0  0 -1       0  1  0   1  0  0   0  0  1
                      -1  0  0   0 -1  0   0  0  1       1  0  0   0  1  0   0  0 -1
                       0  1  0   1  0  0   0  0 -1       0 -1  0  -1  0  0   0  0  1
            tnons      0.0000000  0.0000000  0.0000000     0.0000000  0.0000000  0.0000000
                       0.0000000  0.0000000  0.5000000     0.0000000  0.0000000  0.5000000
                       0.0000000  0.0000000  0.5000000     0.0000000  0.0000000  0.5000000
                       0.0000000  0.0000000  0.0000000     0.0000000  0.0000000  0.0000000
           tolwfr      1.00000000E-20
            typat      1  1  2  2  3  3  3  3
           useylm           1
           xangst      4.3410616051E-01  3.6919950428E+00  1.3966300389E+00
                       3.1464590573E+00  1.9796643542E+00  4.1898901167E+00
                       0.0000000000E+00  0.0000000000E+00  2.7932600778E+00
                       0.0000000000E+00  0.0000000000E+00  0.0000000000E+00
                       1.7080224433E+00  8.0899982473E-01  1.3966300389E+00
                       1.8725427745E+00  4.8626595723E+00  4.1898901167E+00
                       3.5847363160E+00  3.7817377094E+00  1.3966300389E+00
                      -4.1710982205E-03  1.8899216876E+00  4.1898901167E+00
            xcart      8.2034175596E-01  6.9768595149E+00  2.6392482825E+00
                       5.9459459066E+00  3.7410234645E+00  7.9177448474E+00
                       0.0000000000E+00  0.0000000000E+00  5.2784965650E+00
                       0.0000000000E+00  0.0000000000E+00  0.0000000000E+00
                       3.2276946467E+00  1.5287881103E+00  2.6392482825E+00
                       3.5385930159E+00  9.1890948691E+00  7.9177448474E+00
                       6.7741698959E+00  7.1464485772E+00  2.6392482825E+00
                      -7.8822333102E-03  3.5714344022E+00  7.9177448474E+00
             xred      3.4904500000E-01  6.5095500000E-01  2.5000000000E-01
                       6.5095500000E-01  3.4904500000E-01  7.5000000000E-01
                       0.0000000000E+00  0.0000000000E+00  5.0000000000E-01
                       0.0000000000E+00  0.0000000000E+00  0.0000000000E+00
                       3.3322200000E-01  1.4263900000E-01  2.5000000000E-01
                       6.6677800000E-01  8.5736100000E-01  7.5000000000E-01
                       8.5736100000E-01  6.6677800000E-01  2.5000000000E-01
                       1.4263900000E-01  3.3322200000E-01  7.5000000000E-01
            znucl       56.00000   46.00000   16.00000

- Timing analysis has been suppressed with timopt=0

 Suggested references for the acknowledgment of ABINIT usage.

 Calculation completed.
.Delivered   6 WARNINGs and   5 COMMENTs to log file.