.Version 9.5.1 of ABINIT

 ABINIT is a project of the Universite Catholique de Louvain,
 Corning Inc. and other collaborators, see ~abinit/doc/developers/contributors.txt .
 acknowledgments of the ABINIT effort.

.Starting date : Wed 19 May 2021.
- ( at 13h45 )

- input  file    -> /scratch/users/j/a/jabreu/flow_simple_9atoms/flow/w186/t1/run.abi
- output file    -> /scratch/users/j/a/jabreu/flow_simple_9atoms/flow/w186/t1/run.abo
- root for input  files -> /scratch/users/j/a/jabreu/flow_simple_9atoms/flow/w186/t1/indata/in
- root for output files -> /scratch/users/j/a/jabreu/flow_simple_9atoms/flow/w186/t1/outdata/out

 Symmetries : space group P-3 1 m (#162); Bravais hP (primitive hexag.)
     intxc =       0      iscf =       7    lmnmax =      18     lnmax =       6
     mgfft =      60  mpssoang =       3    mqgrid =    3001     natom =       9
  nloc_mem =       1    nspden =       1   nspinor =       1    nsppol =       1
      nsym =      12    n1xccc =    2501    ntypat =       3    occopt =       1
   xclevel =       2
-    mband =          39        mffmem =           1         mkmem =           2
-   mkqmem =           2        mk1mem =           2           mpw =        8719
      nfft =      194400          nkpt =           2
  Rough estimation (10% accuracy) of disk space for files :

------------- Echo of variables that govern the present computation ------------
-
- outvars: echo of selected default values
-   iomode0 =  0 , fftalg0 =512 , wfoptalg0 =  0
-
- outvars: echo of global parameters not present in the input file
-  max_nthreads =    0
-
 -outvars: echo values of preprocessed input variables --------
            acell      1.0000000000E+00  1.0000000000E+00  1.0000000000E+00 Bohr
              amu      6.94100000E+00  9.12240000E+01  1.89984032E+01
             ecut      4.20000000E+01 Hartree
-          fftalg         512
           irdden           1
           irdwfk           1
           istwfk        1    1
              ixc     -116133
              kpt      0.00000000E+00  0.00000000E+00  0.00000000E+00
                       5.00000000E-01  0.00000000E+00  0.00000000E+00
           kptopt           0
P           mkmem           2
P          mkqmem           2
P          mk1mem           2
            natom           9
            nband          39
           nbdbuf           4
            ngfft          60      60      54
             nkpt           2
            nstep        2000
             nsym          12
           ntypat           3
              occ      2.000000  2.000000  2.000000  2.000000  2.000000  2.000000
                       2.000000  2.000000  2.000000  2.000000  2.000000  2.000000
                       2.000000  2.000000  2.000000  2.000000  2.000000  2.000000
                       2.000000  2.000000  2.000000  2.000000  2.000000  2.000000
                       2.000000  2.000000  2.000000  2.000000  2.000000  2.000000
                       0.000000  0.000000  0.000000  0.000000  0.000000  0.000000
                       0.000000  0.000000  0.000000
        optdriver           1
            prtwf          -1
            rfdir           1       1       1
           rfelfd           2
            rprim      9.3927863438E+00  0.0000000000E+00  0.0000000000E+00
                      -4.6963931719E+00  8.1343915860E+00  0.0000000000E+00
                       0.0000000000E+00  0.0000000000E+00  8.7566567201E+00
          spgroup         162
           symrel      1  0  0   0  1  0   0  0  1      -1  0  0   0 -1  0   0  0 -1
                       0  1  0   1  0  0   0  0  1       0 -1  0  -1  0  0   0  0 -1
                       0  1  0  -1 -1  0   0  0  1       0 -1  0   1  1  0   0  0 -1
                      -1 -1  0   0  1  0   0  0  1       1  1  0   0 -1  0   0  0 -1
                      -1 -1  0   1  0  0   0  0  1       1  1  0  -1  0  0   0  0 -1
                       1  0  0  -1 -1  0   0  0  1      -1  0  0   1  1  0   0  0 -1
           tolwfr      1.00000000E-20
            typat      1  1  2  3  3  3  3  3  3
           useylm           1
              wtk        0.50000    0.50000
           xangst      0.0000000000E+00  2.8696897554E+00  2.3169115799E+00
                       2.4852242291E+00  1.4348448777E+00  2.3169115799E+00
                       0.0000000000E+00  0.0000000000E+00  0.0000000000E+00
                      -8.1595378936E-01  1.4132734198E+00  3.4468693574E+00
                       1.6319075787E+00  0.0000000000E+00  3.4468693574E+00
                      -1.6692704398E+00  2.8912612133E+00  1.1869538024E+00
                       8.1595378936E-01  1.4132734198E+00  1.1869538024E+00
                       3.3385408796E+00  0.0000000000E+00  1.1869538024E+00
                       1.6692704398E+00  2.8912612133E+00  3.4468693574E+00
            xcart      0.0000000000E+00  5.4229277240E+00  4.3783283601E+00
                       4.6963931719E+00  2.7114638620E+00  4.3783283601E+00
                       0.0000000000E+00  0.0000000000E+00  0.0000000000E+00
                      -1.5419291990E+00  2.6706997143E+00  6.5136391012E+00
                       3.0838583980E+00  0.0000000000E+00  6.5136391012E+00
                      -3.1544639729E+00  5.4636918717E+00  2.2430176189E+00
                       1.5419291990E+00  2.6706997143E+00  2.2430176189E+00
                       6.3089279458E+00  0.0000000000E+00  2.2430176189E+00
                       3.1544639729E+00  5.4636918717E+00  6.5136391012E+00
             xred      3.3333333333E-01  6.6666666667E-01  5.0000000000E-01
                       6.6666666667E-01  3.3333333333E-01  5.0000000000E-01
                       0.0000000000E+00  0.0000000000E+00  0.0000000000E+00
                       0.0000000000E+00  3.2832200000E-01  7.4385000000E-01
                       3.2832200000E-01  0.0000000000E+00  7.4385000000E-01
                       0.0000000000E+00  6.7167800000E-01  2.5615000000E-01
                       3.2832200000E-01  3.2832200000E-01  2.5615000000E-01
                       6.7167800000E-01  0.0000000000E+00  2.5615000000E-01
                       6.7167800000E-01  6.7167800000E-01  7.4385000000E-01
            znucl        3.00000   40.00000    9.00000

 chkinp: Checking input parameters for consistency.

== DATASET  1 ==================================================================
-   mpi_nproc: 1, omp_nthreads: -1 (-1 if OMP is not activated)

--- !DatasetInfo
iteration_state: {dtset: 1, }
dimensions: {natom: 9, nkpt: 2, mband: 39, nsppol: 1, nspinor: 1, nspden: 1, mpw: 8719, }
cutoff_energies: {ecut:  42.0, pawecutdg:  -1.0, }
electrons: {nelect:   6.00000000E+01, charge:   0.00000000E+00, occopt:   1.00000000E+00, tsmear:   1.00000000E-02, }
meta: {optdriver: 1, rfelfd: 2, }
...

 Real(R)+Recip(G) space primitive vectors, cartesian coordinates (Bohr,Bohr^-1):
 R(1)=  9.3927863  0.0000000  0.0000000  G(1)=  0.1064647  0.0614674  0.0000000
 R(2)= -4.6963932  8.1343916  0.0000000  G(2)=  0.0000000  0.1229348  0.0000000
 R(3)=  0.0000000  0.0000000  8.7566567  G(3)=  0.0000000  0.0000000  0.1141988
 Unit cell volume ucvol=  6.6904887E+02 bohr^3
 Angles (23,13,12)=  9.00000000E+01  9.00000000E+01  1.20000000E+02 degrees

 getcut: wavevector=  0.0000  0.0000  0.0000  ngfft=  60  60  54
         ecut(hartree)=     42.000   => boxcut(ratio)=   2.11381

--- Pseudopotential description ------------------------------------------------
- pspini: atom type   1  psp file is /scratch/users/j/a/jabreu/pseudos/PBEsol/Li.psp8
- pspatm: opening atomic psp file    /scratch/users/j/a/jabreu/pseudos/PBEsol/Li.psp8
- Li    ONCVPSP-3.3.0  r_core=   1.40824   1.10935
-  3.00000   3.00000    180112                znucl, zion, pspdat
    8 -116133    1    4       400   0.00000   pspcod,pspxc,lmax,lloc,mmax,r2well
    3.99000000000000    0.00000000000000    0.00000000000000   rchrg,fchrg,qchrg
     nproj     2     2
     extension_switch     1
  pspatm : epsatm=    2.60859637
         --- l  ekb(1:nproj) -->
             0   -4.855856   -1.482423
             1   -2.171544   -0.427615
 pspatm: atomic psp has been read  and splines computed

- pspini: atom type   2  psp file is /scratch/users/j/a/jabreu/pseudos/PBEsol/Zr.psp8
- pspatm: opening atomic psp file    /scratch/users/j/a/jabreu/pseudos/PBEsol/Zr.psp8
- Zr    ONCVPSP-3.3.0  r_core=   1.56507   1.56507   1.51006
- 40.00000  12.00000    180112                znucl, zion, pspdat
    8 -116133    2    4       600   0.00000   pspcod,pspxc,lmax,lloc,mmax,r2well
    5.99000000000000    5.00000000000000    0.00000000000000   rchrg,fchrg,qchrg
     nproj     2     2     2
     extension_switch     1
  pspatm : epsatm=   18.88750170
         --- l  ekb(1:nproj) -->
             0   10.584966    0.890424
             1    5.814585    0.741293
             2    1.525459    0.487901
 pspatm: atomic psp has been read  and splines computed

- pspini: atom type   3  psp file is /scratch/users/j/a/jabreu/pseudos/PBEsol/F.psp8
- pspatm: opening atomic psp file    /scratch/users/j/a/jabreu/pseudos/PBEsol/F.psp8
- F     ONCVPSP-3.3.0  r_core=   1.30942   1.45782   1.60379
-  9.00000   7.00000    180112                znucl, zion, pspdat
    8 -116133    2    4       600   0.00000   pspcod,pspxc,lmax,lloc,mmax,r2well
    5.99000000000000    2.50000000000000    0.00000000000000   rchrg,fchrg,qchrg
     nproj     2     2     1
     extension_switch     1
  pspatm : epsatm=    4.89824824
         --- l  ekb(1:nproj) -->
             0    6.506434    1.065875
             1   -3.978753   -1.295852
             2   -2.394754
 pspatm: atomic psp has been read  and splines computed

   3.20965103E+03                                ecore*ucvol(ha*bohr**3)

-inwffil : will read wavefunctions from disk file /scratch/users/j/a/jabreu/flow_simple_9atoms/flow/w186/t1/indata/in_WFK

 ==>  initialize data related to q vector <==

 The list of irreducible perturbations for this q vector is:
    1)    idir= 1    ipert=  10
    2)    idir= 2    ipert=  10
    3)    idir= 3    ipert=  10

 Perturbation wavevector (in red.coord.)   0.000000  0.000000  0.000000
 Perturbation : derivative vs k along direction   1

 dfpt_looppert : COMMENT -
  In a d/dk calculation, iscf is set to -3 automatically.
 The set of symmetries contains only one element for this perturbation.
 symkpt : not enough symmetry to change the number of k points.

[...]

 Initialisation of the first-order wave-functions :
  ireadwf=   0

--- !BeginCycle
iteration_state: {dtset: 1, }
solver: {iscf: 7, nstep: 2000, nline: 4, wfoptalg: 0, }
tolerances: {tolwfr: 1.00E-20, }
...

     iter   2DEtotal(Ha)        deltaE(Ha) residm    vres2
-ETOT  1  -37.461376930345     -3.746E+01 2.018E-02 0.000E+00
 ETOT  2  -37.483708273793     -2.233E-02 2.082E-03 0.000E+00
 ETOT  3  -37.483728032163     -1.976E-05 1.067E-05 0.000E+00
 ETOT  4  -37.483728083839     -5.168E-08 2.124E-06 0.000E+00
 ETOT  5  -37.483728084052     -2.128E-10 1.482E-08 0.000E+00
 ETOT  6  -37.483728084053     -1.044E-12 2.914E-09 0.000E+00
 ETOT  7  -37.483728084053      3.553E-14 2.445E-11 0.000E+00
 ETOT  8  -37.483728084053     -1.421E-14 4.754E-12 0.000E+00
 ETOT  9  -37.483728084053      0.000E+00 4.482E-14 0.000E+00
 ETOT 10  -37.483728084053     -1.421E-14 8.531E-15 0.000E+00
 ETOT 11  -37.483728084053      7.105E-15 8.509E-17 0.000E+00
 ETOT 12  -37.483728084053     -7.105E-15 1.624E-17 0.000E+00
 ETOT 13  -37.483728084053      7.105E-15 1.804E-19 0.000E+00
 ETOT 14  -37.483728084053      0.000E+00 3.182E-20 0.000E+00
 ETOT 15  -37.483728084053      7.105E-15 9.970E-21 0.000E+00

 At SCF step   15   max residual=  9.97E-21 < tolwfr=  1.00E-20 =>converged.

 ----iterations are completed or convergence reached----

 dfpt_looppert: DFPT cycle converged with prtwf=-1. Will skip output of the 1st-order WFK file.
 dfpt_looppert : ek2=    7.1596341708E+01
          f-sum rule ratio=    1.0031346077E+00
 prteigrs : about to open file /scratch/users/j/a/jabreu/flow_simple_9atoms/flow/w186/t1/tmpdata/tmp_1WF1_EIG
 Expectation of eigenvalue derivatives (hartree) for nkpt=   2  k points:
  (in case of degenerate eigenvalues, averaged derivative)
 kpt#   1, nband= 39, wtk=  0.50000, kpt=  0.0000  0.0000  0.0000 (reduced coord)
   0.00000    0.00000   -0.00000    0.00000   -0.00000   -0.00000   -0.00000   -0.00000
  -0.00000   -0.00000   -0.00000   -0.00000   -0.00000   -0.00000   -0.00000   -0.00000
  -0.00000   -0.00000   -0.00000   -0.00000   -0.00000   -0.00000   -0.00000   -0.00000
  -0.00000   -0.00000   -0.00000    0.00000    0.00000    0.00000   -0.00000   -0.00000
  -0.00000   -0.00000    0.00000    0.00000   -0.00000    0.00639   -0.00449
 prteigrs : prtvol=0 or 1, do not print more k-points.

 Eight components of 2nd-order total energy (hartree) are
 1,2,3: 0th-order hamiltonian combined with 1st-order wavefunctions
     kin0=   4.43895121E+01 eigvalue=   2.73077505E+00  local=  -1.70865541E+01
 4,5,6: 1st-order hamiltonian combined with 1st and 0th-order wfs
     kin1=  -7.18207682E+01  Hartree=   0.00000000E+00     xc=   0.00000000E+00
 7,8,9: eventually, occupation + non-local contributions
    edocc=   7.81712843E+00     enl0=  -3.67133391E-01   enl1=  -3.14668801E+00
 1-9 gives the relaxation energy (to be shifted if some occ is /=2.0)
   erelax=  -3.74837281E+01
  No Ewald or frozen-wf contrib.: the relaxation energy is the total one
 2DEtotal=   -0.3748372808E+02 Ha. Also 2DEtotal=   -0.101998411340E+04 eV
    (  non-var. 2DEtotal :   -3.7483728084E+01 Ha)

 Perturbation wavevector (in red.coord.)   0.000000  0.000000  0.000000
 Perturbation : derivative vs k along direction   2
 The set of symmetries contains only one element for this perturbation.
 symkpt : not enough symmetry to change the number of k points.

[...]

 Perturbation wavevector (in red.coord.)   0.000000  0.000000  0.000000
 Perturbation : derivative vs k along direction   3
 The set of symmetries contains only one element for this perturbation.
 symkpt : not enough symmetry to change the number of k points.

-inwffil : will read wavefunctions from disk file /scratch/users/j/a/jabreu/flow_simple_9atoms/flow/w186/t1/indata/in_WFK

 Initialisation of the first-order wave-functions :
  ireadwf=   0

--- !BeginCycle
iteration_state: {dtset: 1, }
solver: {iscf: 7, nstep: 2000, nline: 4, wfoptalg: 0, }
tolerances: {tolwfr: 1.00E-20, }
...

     iter   2DEtotal(Ha)        deltaE(Ha) residm    vres2
-ETOT  1  -32.373229421641     -3.237E+01 7.214E-02 0.000E+00
 ETOT  2  -32.395694047222     -2.246E-02 9.340E-04 0.000E+00
 ETOT  3  -32.395710307119     -1.626E-05 4.921E-05 0.000E+00
 ETOT  4  -32.395710338115     -3.100E-08 1.710E-06 0.000E+00
 ETOT  5  -32.395710338208     -9.383E-11 1.183E-07 0.000E+00
 ETOT  6  -32.395710338209     -3.055E-13 4.462E-09 0.000E+00
 ETOT  7  -32.395710338209      7.105E-15 3.277E-10 0.000E+00
 ETOT  8  -32.395710338209      0.000E+00 1.282E-11 0.000E+00
 ETOT  9  -32.395710338209      0.000E+00 9.378E-13 0.000E+00
 ETOT 10  -32.395710338209     -7.105E-15 3.776E-14 0.000E+00
 ETOT 11  -32.395710338209      7.105E-15 2.737E-15 0.000E+00
 ETOT 12  -32.395710338209     -7.105E-15 1.125E-16 0.000E+00
 ETOT 13  -32.395710338209      1.421E-14 8.150E-18 0.000E+00
 ETOT 14  -32.395710338209     -7.105E-15 3.390E-19 0.000E+00
 ETOT 15  -32.395710338209     -7.105E-15 2.477E-20 0.000E+00
 ETOT 16  -32.395710338209      7.105E-15 9.852E-21 0.000E+00

 At SCF step   16   max residual=  9.85E-21 < tolwfr=  1.00E-20 =>converged.

 ----iterations are completed or convergence reached----

 dfpt_looppert: DFPT cycle converged with prtwf=-1. Will skip output of the 1st-order WFK file.
 dfpt_looppert : ek2=    6.1782337171E+01
          f-sum rule ratio=    1.0070700993E+00
 prteigrs : about to open file /scratch/users/j/a/jabreu/flow_simple_9atoms/flow/w186/t1/tmpdata/tmp_1WF1_EIG
 Expectation of eigenvalue derivatives (hartree) for nkpt=   2  k points:
  (in case of degenerate eigenvalues, averaged derivative)
 kpt#   1, nband= 39, wtk=  0.50000, kpt=  0.0000  0.0000  0.0000 (reduced coord)
  -0.00000    0.00000   -0.00000   -0.00000   -0.00000   -0.00000   -0.00000    0.00000
   0.00000    0.00000    0.00000    0.00000    0.00000    0.00000    0.00000    0.00000
  -0.00000   -0.00000   -0.00000   -0.00000   -0.00000   -0.00000   -0.00000    0.00000
   0.00000    0.00000    0.00000    0.00000    0.00000   -0.00000    0.00000    0.00000
   0.00000   -0.00000    0.00000    0.00000   -0.00000    0.00001   -0.00108
 prteigrs : prtvol=0 or 1, do not print more k-points.

 Eight components of 2nd-order total energy (hartree) are
 1,2,3: 0th-order hamiltonian combined with 1st-order wavefunctions
     kin0=   3.81673318E+01 eigvalue=   2.38657571E+00  local=  -1.46950058E+01
 4,5,6: 1st-order hamiltonian combined with 1st and 0th-order wfs
     kin1=  -6.22191444E+01  Hartree=   0.00000000E+00     xc=   0.00000000E+00
 7,8,9: eventually, occupation + non-local contributions
    edocc=   6.95712880E+00     enl0=  -4.20320153E-01   enl1=  -2.57227625E+00
 1-9 gives the relaxation energy (to be shifted if some occ is /=2.0)
   erelax=  -3.23957103E+01
  No Ewald or frozen-wf contrib.: the relaxation energy is the total one
 2DEtotal=   -0.3239571034E+02 Ha. Also 2DEtotal=   -0.881532109430E+03 eV
    (  non-var. 2DEtotal :   -3.2395710338E+01 Ha)

 CALCULATION OF EFFECTIVE MASSES
 NOTE : Additional infos (eff. mass eigenvalues, eigenvectors and, if degenerate, average mass) are available in stdout.

 K-point ( 0.000, 0.000, 0.000) | band =    30
 Effective mass tensor:
            -16.0478674013              0.0013193382              0.0000196454
              0.0013193382            -16.0509817440             -0.0000216256
              0.0000196454             -0.0000216256             -0.7932039417
 Effective mass tensor eigenvalues:
            -16.0514655127            -16.0473836327             -0.7932039417
 Angular average effective mass 1/(<1/m>)=  -2.1655570009
 Angular average effective mass for Frohlich model (<m**0.5>)**2=  -3.9810176404
 Effective masses along directions: (cart. coord. / red. coord. -> eff. mass)
    1:   1.000000  0.000000  0.000000 /   0.894427 -0.447214  0.000000 -> -16.0478672924
    2:   0.000000  1.000000  0.000000 /   0.000000  1.000000  0.000000 -> -16.0509816350
    3:   0.000000  0.000000  1.000000 /   0.000000  0.000000  1.000000 ->  -0.7932039417
    4:   0.577350  0.577350  0.577350 /   0.706558  0.258618  0.658706 ->  -2.1655414729
    5:   0.000000  0.707107  0.707107 /   0.000000  0.680595  0.732660 ->  -1.5117067586
    6:   0.707107  0.000000  0.707107 /   0.686943 -0.343471  0.640419 ->  -1.5116855359
    7:   0.707107  0.707107  0.000000 /   0.939071  0.343724  0.000000 -> -16.0481050834

 K-point ( 0.500, 0.000, 0.000) | band =    31
 Effective mass tensor:
              4.1334229413             -2.7206931714              0.1305580553
             -2.7206931714              7.2744342917             -0.2267041722
              0.1305580553             -0.2267041722              5.5013015204
 Effective mass tensor eigenvalues:
              2.5624863368              5.4809591826              8.8657132340
 Angular average effective mass 1/(<1/m>)=   4.3764321992
 Angular average effective mass for Frohlich model (<m**0.5>)**2=   4.7403825301
 Effective masses along directions: (cart. coord. / red. coord. -> eff. mass)
    1:   1.000000  0.000000  0.000000 /   0.894427 -0.447214  0.000000 ->   3.1154819474
    2:   0.000000  1.000000  0.000000 /   0.000000  1.000000  0.000000 ->   5.4800204942
    3:   0.000000  0.000000  1.000000 /   0.000000  0.000000  1.000000 ->   5.4935640945
    4:   0.577350  0.577350  0.577350 /   0.706558  0.258618  0.658706 ->   3.2278287492
    5:   0.000000  0.707107  0.707107 /   0.000000  0.680595  0.732660 ->   5.3496247958
    6:   0.707107  0.000000  0.707107 /   0.686943 -0.343471  0.640419 ->   4.0187991902
    7:   0.707107  0.707107  0.000000 /   0.939071  0.343724  0.000000 ->   2.6903846234

 END OF EFFECTIVE MASSES SECTION

 ---- first-order wavefunction calculations are completed ----

 Total localisation tensor (bohr^2) in cartesian coordinates
  WARNING : still subject to testing - especially symmetries.
      direction              matrix element
   alpha     beta       real part   imaginary part
     1        1       0.7591512823    0.0000000000
     1        2      -0.2653252222    0.0000000000
     1        3       0.0000000000    0.0000000000
     2        1      -0.2653252222    0.0000000000
     2        2       0.4595567655    0.0000000000
     2        3       0.0000000000    0.0000000000
     3        1       0.0000000000    0.0000000000
     3        2       0.0000000000    0.0000000000
     3        3       0.4600125741    0.0000000000

 respfn : d/dk was computed, but no 2DTE, so no DDB output.

== END DATASET(S) ==============================================================

 -outvars: echo values of variables after computation  --------
            acell      1.0000000000E+00  1.0000000000E+00  1.0000000000E+00 Bohr
              amu      6.94100000E+00  9.12240000E+01  1.89984032E+01
             ecut      4.20000000E+01 Hartree
           etotal     -3.2395710338E+01
            fcart      0.0000000000E+00  0.0000000000E+00  0.0000000000E+00
                       0.0000000000E+00  0.0000000000E+00  0.0000000000E+00
                       0.0000000000E+00  0.0000000000E+00  0.0000000000E+00
                       0.0000000000E+00  0.0000000000E+00  0.0000000000E+00
                       0.0000000000E+00  0.0000000000E+00  0.0000000000E+00
                       0.0000000000E+00  0.0000000000E+00  0.0000000000E+00
                       0.0000000000E+00  0.0000000000E+00  0.0000000000E+00
                       0.0000000000E+00  0.0000000000E+00  0.0000000000E+00
                       0.0000000000E+00  0.0000000000E+00  0.0000000000E+00
-          fftalg         512
           irdden           1
           irdwfk           1
           istwfk        1    1
              ixc     -116133
              kpt      0.00000000E+00  0.00000000E+00  0.00000000E+00
                       5.00000000E-01  0.00000000E+00  0.00000000E+00
           kptopt           0
P           mkmem           2
P          mkqmem           2
P          mk1mem           2
            natom           9
            nband          39
           nbdbuf           4
            ngfft          60      60      54
             nkpt           2
            nstep        2000
             nsym          12
           ntypat           3
              occ      2.000000  2.000000  2.000000  2.000000  2.000000  2.000000
                       2.000000  2.000000  2.000000  2.000000  2.000000  2.000000
                       2.000000  2.000000  2.000000  2.000000  2.000000  2.000000
                       2.000000  2.000000  2.000000  2.000000  2.000000  2.000000
                       2.000000  2.000000  2.000000  2.000000  2.000000  2.000000
                       0.000000  0.000000  0.000000  0.000000  0.000000  0.000000
                       0.000000  0.000000  0.000000
        optdriver           1
            prtwf          -1
            rfdir           1       1       1
           rfelfd           2
            rprim      9.3927863438E+00  0.0000000000E+00  0.0000000000E+00
                      -4.6963931719E+00  8.1343915860E+00  0.0000000000E+00
                       0.0000000000E+00  0.0000000000E+00  8.7566567201E+00
          spgroup         162
           strten      0.0000000000E+00  0.0000000000E+00  0.0000000000E+00
                       0.0000000000E+00  0.0000000000E+00  0.0000000000E+00
           symrel      1  0  0   0  1  0   0  0  1      -1  0  0   0 -1  0   0  0 -1
                       0  1  0   1  0  0   0  0  1       0 -1  0  -1  0  0   0  0 -1
                       0  1  0  -1 -1  0   0  0  1       0 -1  0   1  1  0   0  0 -1
                      -1 -1  0   0  1  0   0  0  1       1  1  0   0 -1  0   0  0 -1
                      -1 -1  0   1  0  0   0  0  1       1  1  0  -1  0  0   0  0 -1
                       1  0  0  -1 -1  0   0  0  1      -1  0  0   1  1  0   0  0 -1
           tolwfr      1.00000000E-20
            typat      1  1  2  3  3  3  3  3  3
           useylm           1
              wtk        0.50000    0.50000
           xangst      0.0000000000E+00  2.8696897554E+00  2.3169115799E+00
                       2.4852242291E+00  1.4348448777E+00  2.3169115799E+00
                       0.0000000000E+00  0.0000000000E+00  0.0000000000E+00
                      -8.1595378936E-01  1.4132734198E+00  3.4468693574E+00
                       1.6319075787E+00  0.0000000000E+00  3.4468693574E+00
                      -1.6692704398E+00  2.8912612133E+00  1.1869538024E+00
                       8.1595378936E-01  1.4132734198E+00  1.1869538024E+00
                       3.3385408796E+00  0.0000000000E+00  1.1869538024E+00
                       1.6692704398E+00  2.8912612133E+00  3.4468693574E+00
            xcart      0.0000000000E+00  5.4229277240E+00  4.3783283601E+00
                       4.6963931719E+00  2.7114638620E+00  4.3783283601E+00
                       0.0000000000E+00  0.0000000000E+00  0.0000000000E+00
                      -1.5419291990E+00  2.6706997143E+00  6.5136391012E+00
                       3.0838583980E+00  0.0000000000E+00  6.5136391012E+00
                      -3.1544639729E+00  5.4636918717E+00  2.2430176189E+00
                       1.5419291990E+00  2.6706997143E+00  2.2430176189E+00
                       6.3089279458E+00  0.0000000000E+00  2.2430176189E+00
                       3.1544639729E+00  5.4636918717E+00  6.5136391012E+00
             xred      3.3333333333E-01  6.6666666667E-01  5.0000000000E-01
                       6.6666666667E-01  3.3333333333E-01  5.0000000000E-01
                       0.0000000000E+00  0.0000000000E+00  0.0000000000E+00
                       0.0000000000E+00  3.2832200000E-01  7.4385000000E-01
                       3.2832200000E-01  0.0000000000E+00  7.4385000000E-01
                       0.0000000000E+00  6.7167800000E-01  2.5615000000E-01
                       3.2832200000E-01  3.2832200000E-01  2.5615000000E-01
                       6.7167800000E-01  0.0000000000E+00  2.5615000000E-01
                       6.7167800000E-01  6.7167800000E-01  7.4385000000E-01
            znucl        3.00000   40.00000    9.00000

- Timing analysis has been suppressed with timopt=0

 Suggested references for the acknowledgment of ABINIT usage.

 Calculation completed.
.Delivered  14 WARNINGs and   9 COMMENTs to log file.