.Version 9.5.1 of ABINIT

 ABINIT is a project of the Universite Catholique de Louvain,
 Corning Inc. and other collaborators, see ~abinit/doc/developers/contributors.txt .
 acknowledgments of the ABINIT effort.

.Starting date : Sun 25 Apr 2021.
- ( at 18h04 )

- input  file    -> /scratch/users/j/a/jabreu/flow_simple2/flow/w259/t1/run.abi
- output file    -> /scratch/users/j/a/jabreu/flow_simple2/flow/w259/t1/run.abo
- root for input  files -> /scratch/users/j/a/jabreu/flow_simple2/flow/w259/t1/indata/in
- root for output files -> /scratch/users/j/a/jabreu/flow_simple2/flow/w259/t1/outdata/out

 Symmetries : space group F-4 3 m (#216); Bravais cF (face-center cubic)
     intxc =       0      iscf =       7    lmnmax =      18     lnmax =       6
     mgfft =      60  mpssoang =       3    mqgrid =    3001     natom =       2
  nloc_mem =       1    nspden =       1   nspinor =       1    nsppol =       1
      nsym =      24    n1xccc =    2501    ntypat =       2    occopt =       1
   xclevel =       2
-    mband =          27        mffmem =           1         mkmem =           1
-   mkqmem =           1        mk1mem =           1           mpw =        7991
      nfft =      216000          nkpt =           1
  Rough estimation (10% accuracy) of disk space for files :

------------- Echo of variables that govern the present computation ------------
-
- outvars: echo of selected default values
-   iomode0 =  0 , fftalg0 =512 , wfoptalg0 =  0
-
- outvars: echo of global parameters not present in the input file
-  max_nthreads =    0
-
 -outvars: echo values of preprocessed input variables --------
            acell      1.0000000000E+00  1.0000000000E+00  1.0000000000E+00 Bohr
              amu      1.12411000E+02  1.27600000E+02
             ecut      5.10000000E+01 Hartree
-          fftalg         512
           irdden           1
           irdwfk           1
           istwfk        1
              ixc     -116133
           kptopt           0
P           mkmem           1
P          mkqmem           1
P          mk1mem           1
            natom           2
            nband          27
           nbdbuf           4
            ngfft          60      60      60
             nkpt           1
            nstep         100
             nsym          24
           ntypat           2
              occ      2.000000  2.000000  2.000000  2.000000  2.000000  2.000000
                       2.000000  2.000000  2.000000  2.000000  2.000000  2.000000
                       2.000000  2.000000  2.000000  2.000000  2.000000  2.000000
                       0.000000  0.000000  0.000000  0.000000  0.000000  0.000000
                       0.000000  0.000000  0.000000
        optdriver           1
            prtwf          -1
            rfdir           1       1       1
           rfelfd           2
            rprim      7.5138861543E+00  0.0000000000E+00  4.3381441939E+00
                       2.5046287181E+00  7.0841598037E+00  4.3381441939E+00
                       0.0000000000E+00  0.0000000000E+00  8.6762883877E+00
          spgroup         216
           symrel      1  0  0   0  1  0   0  0  1       0 -1  1   0 -1  0   1 -1  0
                      -1  0  0  -1  0  1  -1  1  0       0  1 -1   1  0 -1   0  0 -1
                      -1  0  0  -1  1  0  -1  0  1       0 -1  1   1 -1  0   0 -1  0
                       1  0  0   0  0  1   0  1  0       0  1 -1   0  0 -1   1  0 -1
                      -1  0  1  -1  1  0  -1  0  0       0 -1  0   1 -1  0   0 -1  1
                       1  0 -1   0  0 -1   0  1 -1       0  1  0   0  0  1   1  0  0
                       1  0 -1   0  1 -1   0  0 -1       0 -1  0   0 -1  1   1 -1  0
                      -1  0  1  -1  0  0  -1  1  0       0  1  0   1  0  0   0  0  1
                       0  0 -1   0  1 -1   1  0 -1       1 -1  0   0 -1  1   0 -1  0
                       0  0  1   1  0  0   0  1  0      -1  1  0  -1  0  0  -1  0  1
                       0  0  1   0  1  0   1  0  0       1 -1  0   0 -1  0   0 -1  1
                       0  0 -1   1  0 -1   0  1 -1      -1  1  0  -1  0  1  -1  0  0
           tolwfr      1.00000000E-20
            typat      1  2
           useylm           1
           xangst      0.0000000000E+00  0.0000000000E+00  0.0000000000E+00
                       3.9761773008E+00  2.8115819326E+00  6.8869411049E+00
            xcart      0.0000000000E+00  0.0000000000E+00  0.0000000000E+00
                       7.5138861543E+00  5.3131198528E+00  1.3014432582E+01
             xred      0.0000000000E+00  0.0000000000E+00  0.0000000000E+00
                       7.5000000000E-01  7.5000000000E-01  7.5000000000E-01
            znucl       48.00000   52.00000

 chkinp: Checking input parameters for consistency.

== DATASET  1 ==================================================================
-   mpi_nproc: 1, omp_nthreads: -1 (-1 if OMP is not activated)

--- !DatasetInfo
iteration_state: {dtset: 1, }
dimensions: {natom: 2, nkpt: 1, mband: 27, nsppol: 1, nspinor: 1, nspden: 1, mpw: 7991, }
cutoff_energies: {ecut:  51.0, pawecutdg:  -1.0, }
electrons: {nelect:   3.60000000E+01, charge:   0.00000000E+00, occopt:   1.00000000E+00, tsmear:   1.00000000E-02, }
meta: {optdriver: 1, rfelfd: 2, }
...

 Real(R)+Recip(G) space primitive vectors, cartesian coordinates (Bohr,Bohr^-1):
 R(1)=  7.5138862  0.0000000  4.3381442  G(1)=  0.1330869 -0.0470533  0.0000000
 R(2)=  2.5046287  7.0841598  4.3381442  G(2)=  0.0000000  0.1411600  0.0000000
 R(3)=  0.0000000  0.0000000  8.6762884  G(3)= -0.0665435 -0.0470533  0.1152567
 Unit cell volume ucvol=  4.6183510E+02 bohr^3
 Angles (23,13,12)=  6.00000000E+01  6.00000000E+01  6.00000000E+01 degrees

 getcut: wavevector=  0.0000  0.0000  0.0000  ngfft=  60  60  60
         ecut(hartree)=     51.000   => boxcut(ratio)=   2.15113

--- Pseudopotential description ------------------------------------------------
- pspini: atom type   1  psp file is /scratch/users/j/a/jabreu/pseudos/PBEsol/Cd.psp8
- pspatm: opening atomic psp file    /scratch/users/j/a/jabreu/pseudos/PBEsol/Cd.psp8
- Cd    ONCVPSP-3.3.0  r_core=   1.25838   1.30423   1.35174
- 48.00000  20.00000    180112                znucl, zion, pspdat
    8 -116133    2    4       600   0.00000   pspcod,pspxc,lmax,lloc,mmax,r2well
    5.99000000000000    6.00000000000000    0.00000000000000   rchrg,fchrg,qchrg
     nproj     2     2     2
     extension_switch     1
  pspatm : epsatm=   23.26728021
         --- l  ekb(1:nproj) -->
             0   63.701523    3.700425
             1    8.703569    1.290373
             2    0.983656   -0.721725
 pspatm: atomic psp has been read  and splines computed

- pspini: atom type   2  psp file is /scratch/users/j/a/jabreu/pseudos/PBEsol/Te.psp8
- pspatm: opening atomic psp file    /scratch/users/j/a/jabreu/pseudos/PBEsol/Te.psp8
- Te    ONCVPSP-3.3.0  r_core=   2.26547   1.91704   1.80604
- 52.00000  16.00000    180112                znucl, zion, pspdat
    8 -116133    2    4       600   0.00000   pspcod,pspxc,lmax,lloc,mmax,r2well
    5.99000000000000    5.00000000000000    0.00000000000000   rchrg,fchrg,qchrg
     nproj     2     2     2
     extension_switch     1
  pspatm : epsatm=   36.82679836
         --- l  ekb(1:nproj) -->
             0    6.345999    0.785432
             1    5.709019    1.070069
             2   -6.035173   -1.870937
 pspatm: atomic psp has been read  and splines computed

   2.16338683E+03                                ecore*ucvol(ha*bohr**3)

-inwffil : will read wavefunctions from disk file /scratch/users/j/a/jabreu/flow_simple2/flow/w259/t1/indata/in_WFK

 ==>  initialize data related to q vector <==

 The list of irreducible perturbations for this q vector is:
    1)    idir= 1    ipert=   3
    2)    idir= 2    ipert=   3
    3)    idir= 3    ipert=   3

 Perturbation wavevector (in red.coord.)   0.000000  0.000000  0.000000
 Perturbation : derivative vs k along direction   1

 dfpt_looppert : COMMENT -
  In a d/dk calculation, iscf is set to -3 automatically.
 The set of symmetries contains only one element for this perturbation.
 symkpt : not enough symmetry to change the number of k points.

[...]

 Initialisation of the first-order wave-functions :
  ireadwf=   0

--- !BeginCycle
iteration_state: {dtset: 1, }
solver: {iscf: 7, nstep: 100, nline: 4, wfoptalg: 0, }
tolerances: {tolwfr: 1.00E-20, }
...

     iter   2DEtotal(Ha)        deltaE(Ha) residm    vres2
-ETOT  1  -78.826433344217     -7.883E+01 1.172E-01 0.000E+00
 ETOT  2  -78.877553565859     -5.112E-02 1.381E-03 0.000E+00
 ETOT  3  -78.877833758731     -2.802E-04 1.210E-05 0.000E+00
 ETOT  4  -78.877836697262     -2.939E-06 2.487E-07 0.000E+00
 ETOT  5  -78.877836733733     -3.647E-08 2.311E-09 0.000E+00
 ETOT  6  -78.877836734220     -4.873E-10 5.242E-11 0.000E+00
 ETOT  7  -78.877836734227     -6.835E-12 4.847E-13 0.000E+00
 ETOT  8  -78.877836734227      1.279E-13 1.143E-14 0.000E+00
 ETOT  9  -78.877836734227     -1.421E-13 1.043E-16 0.000E+00
 ETOT 10  -78.877836734227     -5.684E-14 2.530E-18 0.000E+00
 ETOT 11  -78.877836734227     -2.842E-14 2.285E-20 0.000E+00
 ETOT 12  -78.877836734227     -1.421E-14 9.063E-21 0.000E+00

 At SCF step   12   max residual=  9.06E-21 < tolwfr=  1.00E-20 =>converged.

 ----iterations are completed or convergence reached----

 dfpt_looppert: DFPT cycle converged with prtwf=-1. Will skip output of the 1st-order WFK file.
 dfpt_looppert : ek2=    5.6638994441E+01
          f-sum rule ratio=    2.0915307180E+00
 prteigrs : about to open file /scratch/users/j/a/jabreu/flow_simple2/flow/w259/t1/tmpdata/tmp_1WF1_EIG
 Expectation of eigenvalue derivatives (hartree) for nkpt=   1  k points:
  (in case of degenerate eigenvalues, averaged derivative)
 kpt#   1, nband= 27, wtk=  1.00000, kpt=  0.0000  0.0000  0.0000 (reduced coord)
   0.00000    0.00000    0.00000    0.00000   -0.00000   -0.00000   -0.00000   -0.00000
  -0.00000   -0.00000    0.00000    0.00000    0.00000    0.00000    0.00000   -0.00000
  -0.00000   -0.00000   -0.00000   -0.00000   -0.00000   -0.00000    0.00000    0.00000
  -0.00099    0.00000    0.00000

 Eight components of 2nd-order total energy (hartree) are
 1,2,3: 0th-order hamiltonian combined with 1st-order wavefunctions
     kin0=   5.27416325E+01 eigvalue=   7.22999879E+00  local=  -2.81177935E+01
 4,5,6: 1st-order hamiltonian combined with 1st and 0th-order wfs
     kin1=  -1.18462197E+02  Hartree=   0.00000000E+00     xc=   0.00000000E+00
 7,8,9: eventually, occupation + non-local contributions
    edocc=   4.10235734E+01     enl0=   6.00042554E+00   enl1=  -3.92934768E+01
 1-9 gives the relaxation energy (to be shifted if some occ is /=2.0)
   erelax=  -7.88778367E+01
  No Ewald or frozen-wf contrib.: the relaxation energy is the total one
 2DEtotal=   -0.7887783673E+02 Ha. Also 2DEtotal=   -0.214637509342E+04 eV
    (  non-var. 2DEtotal :   -7.8877836734E+01 Ha)

 Perturbation wavevector (in red.coord.)   0.000000  0.000000  0.000000
 Perturbation : derivative vs k along direction   2
 The set of symmetries contains only one element for this perturbation.
 symkpt : not enough symmetry to change the number of k points.

[...]

 Perturbation wavevector (in red.coord.)   0.000000  0.000000  0.000000
 Perturbation : derivative vs k along direction   3
 The set of symmetries contains only one element for this perturbation.
 symkpt : not enough symmetry to change the number of k points.

-inwffil : will read wavefunctions from disk file /scratch/users/j/a/jabreu/flow_simple2/flow/w259/t1/indata/in_WFK

 Initialisation of the first-order wave-functions :
  ireadwf=   0

--- !BeginCycle
iteration_state: {dtset: 1, }
solver: {iscf: 7, nstep: 100, nline: 4, wfoptalg: 0, }
tolerances: {tolwfr: 1.00E-20, }
...

     iter   2DEtotal(Ha)        deltaE(Ha) residm    vres2
-ETOT  1  -78.830946524277     -7.883E+01 8.410E-02 0.000E+00
 ETOT  2  -78.877610527497     -4.666E-02 4.227E-04 0.000E+00
 ETOT  3  -78.877858911306     -2.484E-04 8.217E-06 0.000E+00
 ETOT  4  -78.877861453683     -2.542E-06 4.377E-08 0.000E+00
 ETOT  5  -78.877861484569     -3.089E-08 1.414E-09 0.000E+00
 ETOT  6  -78.877861484972     -4.025E-10 7.540E-12 0.000E+00
 ETOT  7  -78.877861484977     -5.542E-12 2.646E-13 0.000E+00
 ETOT  8  -78.877861484978     -3.126E-13 1.478E-15 0.000E+00
 ETOT  9  -78.877861484978      0.000E+00 5.066E-17 0.000E+00
 ETOT 10  -78.877861484978      5.684E-14 3.334E-19 0.000E+00
 ETOT 11  -78.877861484978     -1.705E-13 9.972E-21 0.000E+00

 At SCF step   11   max residual=  9.97E-21 < tolwfr=  1.00E-20 =>converged.

 ----iterations are completed or convergence reached----

 dfpt_looppert: DFPT cycle converged with prtwf=-1. Will skip output of the 1st-order WFK file.
 dfpt_looppert : ek2=    5.6638994441E+01
          f-sum rule ratio=    2.0915313933E+00
 prteigrs : about to open file /scratch/users/j/a/jabreu/flow_simple2/flow/w259/t1/tmpdata/tmp_1WF1_EIG
 Expectation of eigenvalue derivatives (hartree) for nkpt=   1  k points:
  (in case of degenerate eigenvalues, averaged derivative)
 kpt#   1, nband= 27, wtk=  1.00000, kpt=  0.0000  0.0000  0.0000 (reduced coord)
  -0.00000   -0.00000   -0.00000   -0.00000   -0.00000   -0.00000   -0.00000    0.00000
   0.00000    0.00000   -0.00000   -0.00000   -0.00000   -0.00000   -0.00000    0.00000
   0.00000    0.00000    0.00000   -0.00000   -0.00000   -0.00000   -0.00000    0.00000
   0.00125    0.00000    0.00000

 Eight components of 2nd-order total energy (hartree) are
 1,2,3: 0th-order hamiltonian combined with 1st-order wavefunctions
     kin0=   5.26290976E+01 eigvalue=   7.21060702E+00  local=  -2.80239728E+01
 4,5,6: 1st-order hamiltonian combined with 1st and 0th-order wfs
     kin1=  -1.18462235E+02  Hartree=   0.00000000E+00     xc=   0.00000000E+00
 7,8,9: eventually, occupation + non-local contributions
    edocc=   4.10789739E+01     enl0=   5.98315582E+00   enl1=  -3.92934880E+01
 1-9 gives the relaxation energy (to be shifted if some occ is /=2.0)
   erelax=  -7.88778615E+01
  No Ewald or frozen-wf contrib.: the relaxation energy is the total one
 2DEtotal=   -0.7887786148E+02 Ha. Also 2DEtotal=   -0.214637576692E+04 eV
    (  non-var. 2DEtotal :   -7.8877861485E+01 Ha)

 CALCULATION OF EFFECTIVE MASSES
 NOTE : Additional infos (eff. mass eigenvalues, eigenvectors and, if degenerate, average mass) are available in stdout.

 COMMENTS:
 - At k-point ( 0.000, 0.000, 0.000), bands    16 through    18
   are DEGENERATE (effective mass tensor is therefore not defined).
   See Section IIIB Eqs. (67)-(70) and Appendix E of PRB 93 205147 (2016).
 - Angular average effective mass for Frohlich model is to be averaged over degenerate bands. See later.
 - Associated theta integrals calculated with ntheta=   1000 points.

 K-point ( 0.000, 0.000, 0.000) | band =    16
 Transport equivalent effective mass tensor:
             -0.0515429029             -0.0000000133             -0.0000000101
             -0.0000000133             -0.0515428949              0.0000000188
             -0.0000000101              0.0000000188             -0.0515428797
 Transport equivalent effective mass tensor eigenvalues:
             -0.0515429134             -0.0515429032             -0.0515428610
 Angular average effective mass 1/(<1/m>)=  -0.0511130098
 Angular average effective mass for Frohlich model (<m**0.5>)**2=  -0.0511426437
 Effective masses along directions: (cart. coord. / red. coord. -> eff. mass)
    1:   1.000000  0.000000  0.000000 /   0.948683  0.316228  0.000000 ->  -0.0502878108
    2:   0.000000  1.000000  0.000000 /   0.000000  1.000000  0.000000 ->  -0.0490718359
    3:   0.000000  0.000000  1.000000 /   0.408248  0.408248  0.816497 ->  -0.0503603058
    4:   0.577350  0.577350  0.577350 /   0.585539  0.688047  0.428644 ->  -0.0502556183
    5:   0.000000  0.707107  0.707107 /   0.289489  0.762222  0.578977 ->  -0.0519755519
    6:   0.707107  0.000000  0.707107 /   0.731423  0.422287  0.535439 ->  -0.0503240227
    7:   0.707107  0.707107  0.000000 /   0.616798  0.787122  0.000000 ->  -0.0541045427

[...]

 K-point ( 0.000, 0.000, 0.000) | band =    18
 Transport equivalent effective mass tensor:
             -6.6972956529              0.0000636680              0.0000355406
              0.0000636680             -6.6971885933              0.0000675676
              0.0000355406              0.0000675676             -6.6970597172
 Transport equivalent effective mass tensor eigenvalues:
             -6.6973253630             -6.6972002791             -6.6970183213
 Angular average effective mass 1/(<1/m>)=  -1.0876374782
 Angular average effective mass for Frohlich model (<m**0.5>)**2=  -1.2453961757
 Effective masses along directions: (cart. coord. / red. coord. -> eff. mass)
    1:   1.000000  0.000000  0.000000 /   0.948683  0.316228  0.000000 ->  -1.1451492591
    2:   0.000000  1.000000  0.000000 /   0.000000  1.000000  0.000000 ->  -1.1088148429
    3:   0.000000  0.000000  1.000000 /   0.408248  0.408248  0.816497 ->  -2.6281878936
    4:   0.577350  0.577350  0.577350 /   0.585539  0.688047  0.428644 ->  -1.3534030850
    5:   0.000000  0.707107  0.707107 /   0.289489  0.762222  0.578977 ->  -0.9638509746
    6:   0.707107  0.000000  0.707107 /   0.731423  0.422287  0.535439 ->  -1.7561557561
    7:   0.707107  0.707107  0.000000 /   0.616798  0.787122  0.000000 ->  -0.5557487992

 Angular average effective mass for Frohlich model, averaged over degenerate bands.
 Value of     (<<m**0.5>>)**2 =     4.979871E-01
 Absolute Value of <<m**0.5>> =     7.056820E-01

 K-point ( 0.000, 0.000, 0.000) | band =    19
 Effective mass tensor:
              0.0538455741             -0.0000000000             -0.0000000000
             -0.0000000000              0.0538455741             -0.0000000000
             -0.0000000000             -0.0000000000              0.0538455741
 Effective mass tensor eigenvalues:
              0.0538455741              0.0538455741              0.0538455741
 Angular average effective mass 1/(<1/m>)=   0.0538455741
 Angular average effective mass for Frohlich model (<m**0.5>)**2=   0.0538455741
 Effective masses along directions: (cart. coord. / red. coord. -> eff. mass)
    1:   1.000000  0.000000  0.000000 /   0.948683  0.316228  0.000000 ->   0.0538455741
    2:   0.000000  1.000000  0.000000 /   0.000000  1.000000  0.000000 ->   0.0538455741
    3:   0.000000  0.000000  1.000000 /   0.408248  0.408248  0.816497 ->   0.0538455741
    4:   0.577350  0.577350  0.577350 /   0.585539  0.688047  0.428644 ->   0.0538455741
    5:   0.000000  0.707107  0.707107 /   0.289489  0.762222  0.578977 ->   0.0538455741
    6:   0.707107  0.000000  0.707107 /   0.731423  0.422287  0.535439 ->   0.0538455741
    7:   0.707107  0.707107  0.000000 /   0.616798  0.787122  0.000000 ->   0.0538455741

 END OF EFFECTIVE MASSES SECTION

 ---- first-order wavefunction calculations are completed ----

 Total localisation tensor (bohr^2) in cartesian coordinates
  WARNING : still subject to testing - especially symmetries.
      direction              matrix element
   alpha     beta       real part   imaginary part
     1        1      27.5527519666    0.0000000000
     1        2       7.7930953969    0.0000000000
     1        3      19.0891066383    0.0000000000
     2        1       7.7930953969    0.0000000000
     2        2      22.0422024062    0.0000000000
     2        3      13.4980371758    0.0000000000
     3        1      19.0891066383    0.0000000000
     3        2      13.4980371758    0.0000000000
     3        3      49.5949561417    0.0000000000

 respfn : d/dk was computed, but no 2DTE, so no DDB output.

== END DATASET(S) ==============================================================

 -outvars: echo values of variables after computation  --------
            acell      1.0000000000E+00  1.0000000000E+00  1.0000000000E+00 Bohr
              amu      1.12411000E+02  1.27600000E+02
             ecut      5.10000000E+01 Hartree
           etotal     -7.8877861485E+01
            fcart      0.0000000000E+00  0.0000000000E+00  0.0000000000E+00
                       0.0000000000E+00  0.0000000000E+00  0.0000000000E+00
-          fftalg         512
           irdden           1
           irdwfk           1
           istwfk        1
              ixc     -116133
           kptopt           0
P           mkmem           1
P          mkqmem           1
P          mk1mem           1
            natom           2
            nband          27
           nbdbuf           4
            ngfft          60      60      60
             nkpt           1
            nstep         100
             nsym          24
           ntypat           2
              occ      2.000000  2.000000  2.000000  2.000000  2.000000  2.000000
                       2.000000  2.000000  2.000000  2.000000  2.000000  2.000000
                       2.000000  2.000000  2.000000  2.000000  2.000000  2.000000
                       0.000000  0.000000  0.000000  0.000000  0.000000  0.000000
                       0.000000  0.000000  0.000000
        optdriver           1
            prtwf          -1
            rfdir           1       1       1
           rfelfd           2
            rprim      7.5138861543E+00  0.0000000000E+00  4.3381441939E+00
                       2.5046287181E+00  7.0841598037E+00  4.3381441939E+00
                       0.0000000000E+00  0.0000000000E+00  8.6762883877E+00
          spgroup         216
           strten      0.0000000000E+00  0.0000000000E+00  0.0000000000E+00
                       0.0000000000E+00  0.0000000000E+00  0.0000000000E+00
           symrel      1  0  0   0  1  0   0  0  1       0 -1  1   0 -1  0   1 -1  0
                      -1  0  0  -1  0  1  -1  1  0       0  1 -1   1  0 -1   0  0 -1
                      -1  0  0  -1  1  0  -1  0  1       0 -1  1   1 -1  0   0 -1  0
                       1  0  0   0  0  1   0  1  0       0  1 -1   0  0 -1   1  0 -1
                      -1  0  1  -1  1  0  -1  0  0       0 -1  0   1 -1  0   0 -1  1
                       1  0 -1   0  0 -1   0  1 -1       0  1  0   0  0  1   1  0  0
                       1  0 -1   0  1 -1   0  0 -1       0 -1  0   0 -1  1   1 -1  0
                      -1  0  1  -1  0  0  -1  1  0       0  1  0   1  0  0   0  0  1
                       0  0 -1   0  1 -1   1  0 -1       1 -1  0   0 -1  1   0 -1  0
                       0  0  1   1  0  0   0  1  0      -1  1  0  -1  0  0  -1  0  1
                       0  0  1   0  1  0   1  0  0       1 -1  0   0 -1  0   0 -1  1
                       0  0 -1   1  0 -1   0  1 -1      -1  1  0  -1  0  1  -1  0  0
           tolwfr      1.00000000E-20
            typat      1  2
           useylm           1
           xangst      0.0000000000E+00  0.0000000000E+00  0.0000000000E+00
                       3.9761773008E+00  2.8115819326E+00  6.8869411049E+00
            xcart      0.0000000000E+00  0.0000000000E+00  0.0000000000E+00
                       7.5138861543E+00  5.3131198528E+00  1.3014432582E+01
             xred      0.0000000000E+00  0.0000000000E+00  0.0000000000E+00
                       7.5000000000E-01  7.5000000000E-01  7.5000000000E-01
            znucl       48.00000   52.00000

- Timing analysis has been suppressed with timopt=0

 Suggested references for the acknowledgment of ABINIT usage.

 Calculation completed.
.Delivered   6 WARNINGs and   5 COMMENTs to log file.