.Version 9.7.2 of ABINIT

 ABINIT is a project of the Universite Catholique de Louvain,
 Corning Inc. and other collaborators, see ~abinit/doc/developers/contributors.txt .
 acknowledgments of the ABINIT effort.

.Starting date : Thu  2 Dec 2021.
- ( at 14h17 )

- input  file    -> /scratch/users/j/a/jabreu/flow_simple_remain_atoms/flow/w296/t1/run.abi
- output file    -> /scratch/users/j/a/jabreu/flow_simple_remain_atoms/flow/w296/t1/run.abo
- root for input  files -> /scratch/users/j/a/jabreu/flow_simple_remain_atoms/flow/w296/t1/indata/in
- root for output files -> /scratch/users/j/a/jabreu/flow_simple_remain_atoms/flow/w296/t1/outdata/out

 Symmetries : space group I4/m m m (#139); Bravais tI (body-center tetrag.)
     intxc =       0      iscf =       7    lmnmax =      32     lnmax =       8
     mgfft =      90  mpssoang =       4    mqgrid =    3001     natom =       5
  nloc_mem =       1    nspden =       1   nspinor =       1    nsppol =       1
      nsym =      16    n1xccc =    2501    ntypat =       3    occopt =       1
   xclevel =       2
-    mband =          34        mffmem =           1         mkmem =           2
-   mkqmem =           2        mk1mem =           2           mpw =       13057
      nfft =      729000          nkpt =           2
  Rough estimation (10% accuracy) of disk space for files :

------------- Echo of variables that govern the present computation ------------
-
- outvars: echo of selected default values
-   iomode0 =  0 , fftalg0 =512 , wfoptalg0 =  0
-
- outvars: echo of global parameters not present in the input file
-  max_nthreads =    0
-
 -outvars: echo values of preprocessed input variables --------
            acell      1.0000000000E+00  1.0000000000E+00  1.0000000000E+00 Bohr
              amu      1.38905500E+02  1.27600000E+02  1.59994000E+01
             ecut      5.20000000E+01 Hartree
-          fftalg         512
           irdden           1
           irdwfk           1
              ixc     -116133
              kpt     -1.37396614E-01  1.37396614E-01  1.37396614E-01
                       5.00000000E-01  5.00000000E-01 -5.00000000E-01
           kptopt           0
P           mkmem           2
P          mkqmem           2
P          mk1mem           2
            natom           5
            nband          34
           nbdbuf           4
            ngfft          90      90      90
             nkpt           2
            nstep        2000
             nsym          16
           ntypat           3
              occ      2.000000  2.000000  2.000000  2.000000  2.000000  2.000000
                       2.000000  2.000000  2.000000  2.000000  2.000000  2.000000
                       2.000000  2.000000  2.000000  2.000000  2.000000  2.000000
                       2.000000  2.000000  2.000000  2.000000  2.000000  2.000000
                       2.000000  0.000000  0.000000  0.000000  0.000000  0.000000
                       0.000000  0.000000  0.000000  0.000000
        optdriver           1
            prtwf          -1
            rfdir           1       1       1
           rfelfd           2
            rprim      7.3832890250E+00  0.0000000000E+00 -1.1181249186E+01
                      -6.6615750820E-01  7.3531755726E+00 -1.1181249186E+01
                       0.0000000000E+00  0.0000000000E+00  1.3399003328E+01
          spgroup         139
           symrel      1  0  0   0  1  0   0  0  1      -1  0  0   0 -1  0   0  0 -1
                       0  0  1  -1 -1 -1   1  0  0       0  0 -1   1  1  1  -1  0  0
                       0  1  0   1  0  0  -1 -1 -1       0 -1  0  -1  0  0   1  1  1
                      -1 -1 -1   0  0  1   0  1  0       1  1  1   0  0 -1   0 -1  0
                       0  1  0   1  0  0   0  0  1       0 -1  0  -1  0  0   0  0 -1
                       0  0  1  -1 -1 -1   0  1  0       0  0 -1   1  1  1   0 -1  0
                       1  0  0   0  1  0  -1 -1 -1      -1  0  0   0 -1  0   1  1  1
                      -1 -1 -1   0  0  1   1  0  0       1  1  1   0  0 -1  -1  0  0
           tolwfr      1.00000000E-20
            typat      1  1  2  3  3
           useylm           1
              wtk        0.50000    0.50000
           xangst      2.3394645405E+00  2.5609880451E+00 -7.7884840942E+00
                       1.2150883653E+00  1.3301448787E+00 -4.0452403713E+00
                       0.0000000000E+00  0.0000000000E+00  0.0000000000E+00
                       7.1238054111E-01  2.9183496928E+00 -2.3716386432E+00
                       2.8421723647E+00  9.7278323095E-01 -2.3716386432E+00
            xcart      4.4209472791E+00  4.8395660349E+00 -1.4718101928E+01
                       2.2961842377E+00  2.5136095377E+00 -7.6443964434E+00
                       0.0000000000E+00  0.0000000000E+00  0.0000000000E+00
                       1.3462041251E+00  5.5148816794E+00 -4.4817475219E+00
                       5.3709273917E+00  1.8382938931E+00 -4.4817475219E+00
             xred      6.5816000000E-01  6.5816000000E-01 -5.5511151231E-17
                       3.4184000000E-01  3.4184000000E-01 -5.5511151231E-17
                       0.0000000000E+00  0.0000000000E+00  0.0000000000E+00
                       2.5000000000E-01  7.5000000000E-01  5.0000000000E-01
                       7.5000000000E-01  2.5000000000E-01  5.0000000000E-01
            znucl       57.00000   52.00000    8.00000

 chkinp: Checking input parameters for consistency.

== DATASET  1 ==================================================================
-   mpi_nproc: 1, omp_nthreads: -1 (-1 if OMP is not activated)

--- !DatasetInfo
iteration_state: {dtset: 1, }
dimensions: {natom: 5, nkpt: 2, mband: 34, nsppol: 1, nspinor: 1, nspden: 1, mpw: 13057, }
cutoff_energies: {ecut:  52.0, pawecutdg:  -1.0, }
electrons: {nelect:   5.00000000E+01, charge:   0.00000000E+00, occopt:   1.00000000E+00, tsmear:   1.00000000E-02, }
meta: {optdriver: 1, rfelfd: 2, }
...

 Real(R)+Recip(G) space primitive vectors, cartesian coordinates (Bohr,Bohr^-1):
 R(1)=  7.3832890  0.0000000-11.1812492  G(1)=  0.1354410  0.0122702  0.0000000
 R(2)= -0.6661575  7.3531756-11.1812492  G(2)=  0.0000000  0.1359957  0.0000000
 R(3)=  0.0000000  0.0000000 13.3990033  G(3)=  0.1130233  0.1237255  0.0746324
 Unit cell volume ucvol=  7.2744020E+02 bohr^3
 Angles (23,13,12)=  1.46562110E+02  1.46562110E+02  4.80125897E+01 degrees

 getcut: wavevector=  0.0000  0.0000  0.0000  ngfft=  90  90  90
         ecut(hartree)=     52.000   => boxcut(ratio)=   2.06995

--- Pseudopotential description ------------------------------------------------
- pspini: atom type   1  psp file is /scratch/users/j/a/jabreu/pseudos/PBEsol/La.psp8
- pspatm: opening atomic psp file    /scratch/users/j/a/jabreu/pseudos/PBEsol/La.psp8
- La    ONCVPSP-3.3.0  r_core=   2.11664   1.60878   1.85636   1.66739
- 57.00000  11.00000    180112                znucl, zion, pspdat
    8 -116133    3    4       600   0.00000   pspcod,pspxc,lmax,lloc,mmax,r2well
    5.99000000000000    5.00000000000000    0.00000000000000   rchrg,fchrg,qchrg
     nproj     2     2     2     2
     extension_switch     1
  pspatm : epsatm=   29.08531775
         --- l  ekb(1:nproj) -->
             0    6.695600    0.639047
             1    6.383649    1.151322
             2    3.612966    0.847811
             3  -13.718437   -4.858923
 pspatm: atomic psp has been read  and splines computed

- pspini: atom type   2  psp file is /scratch/users/j/a/jabreu/pseudos/PBEsol/Te.psp8
- pspatm: opening atomic psp file    /scratch/users/j/a/jabreu/pseudos/PBEsol/Te.psp8
- Te    ONCVPSP-3.3.0  r_core=   2.26547   1.91704   1.80604
- 52.00000  16.00000    180112                znucl, zion, pspdat
    8 -116133    2    4       600   0.00000   pspcod,pspxc,lmax,lloc,mmax,r2well
    5.99000000000000    5.00000000000000    0.00000000000000   rchrg,fchrg,qchrg
     nproj     2     2     2
     extension_switch     1
  pspatm : epsatm=   36.82679836
         --- l  ekb(1:nproj) -->
             0    6.345999    0.785432
             1    5.709019    1.070069
             2   -6.035173   -1.870937
 pspatm: atomic psp has been read  and splines computed

- pspini: atom type   3  psp file is /scratch/users/j/a/jabreu/pseudos/PBEsol/O.psp8
- pspatm: opening atomic psp file    /scratch/users/j/a/jabreu/pseudos/PBEsol/O.psp8
- O     ONCVPSP-3.3.0  r_core=   1.35509   1.45563   1.26150
-  8.00000   6.00000    180112                znucl, zion, pspdat
    8 -116133    2    4       600   0.00000   pspcod,pspxc,lmax,lloc,mmax,r2well
    5.99000000000000    4.00000000000000    0.00000000000000   rchrg,fchrg,qchrg
     nproj     2     2     1
     extension_switch     1
  pspatm : epsatm=    6.22910522
         --- l  ekb(1:nproj) -->
             0    6.050032    0.820363
             1   -4.739617   -1.153841
             2   -1.335834
 pspatm: atomic psp has been read  and splines computed

   5.37278221E+03                                ecore*ucvol(ha*bohr**3)

 ==>  initialize data related to q vector <==

 The list of irreducible perturbations for this q vector is:
    1)    idir= 1    ipert=   6
    2)    idir= 2    ipert=   6
    3)    idir= 3    ipert=   6

 Perturbation wavevector (in red.coord.)   0.000000  0.000000  0.000000
 Perturbation : derivative vs k along direction   1

 dfpt_looppert : COMMENT -
  In a d/dk calculation, iscf is set to -3 automatically.
 The set of symmetries contains only one element for this perturbation.
 symkpt : not enough symmetry to change the number of k points.

 Initialisation of the first-order wave-functions :
  ireadwf=   0

--- !BeginCycle
iteration_state: {dtset: 1, }
solver: {iscf: 7, nstep: 2000, nline: 4, wfoptalg: 0, }
tolerances: {tolwfr: 1.00E-20, }
...

     iter   2DEtotal(Ha)        deltaE(Ha) residm    vres2
-ETOT  1  -58.642813520066     -5.864E+01 1.712E-01 0.000E+00
 ETOT  2  -59.107640508160     -4.648E-01 7.194E-02 0.000E+00
 ETOT  3  -59.164593851788     -5.695E-02 1.875E-02 0.000E+00
 ETOT  4  -59.178893873826     -1.430E-02 1.730E-02 0.000E+00
 ETOT  5  -59.183553188860     -4.659E-03 7.319E-03 0.000E+00
 ETOT  6  -59.185249350239     -1.696E-03 7.688E-03 0.000E+00
 ETOT  7  -59.185900958517     -6.516E-04 4.087E-03 0.000E+00
 ETOT  8  -59.186169877295     -2.689E-04 3.901E-03 0.000E+00
 ETOT  9  -59.186288294342     -1.184E-04 3.630E-03 0.000E+00
 ETOT 10  -59.186344015517     -5.572E-05 2.603E-03 0.000E+00
 ETOT 11  -59.186371890527     -2.788E-05 3.273E-03 0.000E+00
 ETOT 12  -59.186386596334     -1.471E-05 2.362E-03 0.000E+00
 ETOT 13  -59.186394670985     -8.075E-06 2.966E-03 0.000E+00
 ETOT 14  -59.186399239132     -4.568E-06 2.149E-03 0.000E+00
 ETOT 15  -59.186401874819     -2.636E-06 2.695E-03 0.000E+00
 ETOT 16  -59.186403416857     -1.542E-06 1.959E-03 0.000E+00
 ETOT 17  -59.186404326763     -9.099E-07 2.452E-03 0.000E+00
 ETOT 18  -59.186404866974     -5.402E-07 1.787E-03 0.000E+00
 ETOT 19  -59.186405188876     -3.219E-07 2.233E-03 0.000E+00
 ETOT 20  -59.186405381215     -1.923E-07 1.631E-03 0.000E+00
 ETOT 21  -59.186405496344     -1.151E-07 2.034E-03 0.000E+00
 ETOT 22  -59.186405565351     -6.901E-08 1.489E-03 0.000E+00
[...]
   0.00000    0.00000   -0.00000   -0.00000    0.00000   -0.00000    0.00000   -0.00000
   0.00000    0.00000    0.00000   -0.00000   -0.00000   -0.00000    0.00000   -0.00000
  -0.00000    0.00000   -0.00000   -0.00000   -0.00000    0.00000    0.00000   -0.00000
  -0.00000   -0.00000    0.00000   -0.00000    0.00000   -0.00000    0.00000    0.00000
   0.00000   -0.00056
 prteigrs : prtvol=0 or 1, do not print more k-points.

 Eight components of 2nd-order total energy (hartree) are
 1,2,3: 0th-order hamiltonian combined with 1st-order wavefunctions
     kin0=   1.77131393E+02 eigvalue=  -8.39226073E-01  local=  -8.68913434E+01
 4,5,6: 1st-order hamiltonian combined with 1st and 0th-order wfs
     kin1=  -8.27579483E+01  Hartree=   0.00000000E+00     xc=   0.00000000E+00
 7,8,9: eventually, occupation + non-local contributions
    edocc=   8.86574080E+00     enl0=  -3.90801583E+01   enl1=  -3.56148630E+01
 1-9 gives the relaxation energy (to be shifted if some occ is /=2.0)
   erelax=  -5.91864057E+01
  No Ewald or frozen-wf contrib.: the relaxation energy is the total one
 2DEtotal=   -0.5918640567E+02 Ha. Also 2DEtotal=   -0.161054400396E+04 eV
    (  non-var. 2DEtotal :   -5.9186405669E+01 Ha)

 Perturbation wavevector (in red.coord.)   0.000000  0.000000  0.000000
 Perturbation : derivative vs k along direction   2
 The set of symmetries contains only one element for this perturbation.
 symkpt : not enough symmetry to change the number of k points.

[...]

 Perturbation wavevector (in red.coord.)   0.000000  0.000000  0.000000
 Perturbation : derivative vs k along direction   3
 The set of symmetries contains only one element for this perturbation.
 symkpt : not enough symmetry to change the number of k points.

 Initialisation of the first-order wave-functions :
  ireadwf=   0

--- !BeginCycle
iteration_state: {dtset: 1, }
solver: {iscf: 7, nstep: 2000, nline: 4, wfoptalg: 0, }
tolerances: {tolwfr: 1.00E-20, }
...

     iter   2DEtotal(Ha)        deltaE(Ha) residm    vres2
-ETOT  1  -104.79108927843     -1.048E+02 2.254E-01 0.000E+00
 ETOT  2  -105.49255561827     -7.015E-01 8.703E-02 0.000E+00
 ETOT  3  -105.58273691112     -9.018E-02 3.034E-02 0.000E+00
 ETOT  4  -105.60275357324     -2.002E-02 1.877E-02 0.000E+00
 ETOT  5  -105.60887925681     -6.126E-03 2.130E-02 0.000E+00
 ETOT  6  -105.61114620945     -2.267E-03 1.316E-02 0.000E+00
 ETOT  7  -105.61209627934     -9.501E-04 1.877E-02 0.000E+00
 ETOT  8  -105.61254467162     -4.484E-04 1.191E-02 0.000E+00
 ETOT  9  -105.61277167391     -2.270E-04 1.671E-02 0.000E+00
 ETOT 10  -105.61289221595     -1.205E-04 1.071E-02 0.000E+00
 ETOT 11  -105.61295832721     -6.611E-05 1.496E-02 0.000E+00
 ETOT 12  -105.61299543791     -3.711E-05 9.656E-03 0.000E+00
 ETOT 13  -105.61301660773     -2.117E-05 1.349E-02 0.000E+00
 ETOT 14  -105.61302882308     -1.222E-05 8.751E-03 0.000E+00
 ETOT 15  -105.61303592851     -7.105E-06 1.222E-02 0.000E+00
 ETOT 16  -105.61304008516     -4.157E-06 7.960E-03 0.000E+00
 ETOT 17  -105.61304252681     -2.442E-06 1.108E-02 0.000E+00
 ETOT 18  -105.61304396524     -1.438E-06 7.256E-03 0.000E+00
 ETOT 19  -105.61304481454     -8.493E-07 1.004E-02 0.000E+00
 ETOT 20  -105.61304531679     -5.023E-07 6.619E-03 0.000E+00
 ETOT 21  -105.61304561420     -2.974E-07 9.088E-03 0.000E+00
 ETOT 22  -105.61304579048     -1.763E-07 6.041E-03 0.000E+00
 ETOT 23  -105.61304589507     -1.046E-07 8.216E-03 0.000E+00
 ETOT 24  -105.61304595715     -6.208E-08 5.514E-03 0.000E+00
 ETOT 25  -105.61304599403     -3.688E-08 7.425E-03 0.000E+00
 ETOT 26  -105.61304601595     -2.192E-08 5.033E-03 0.000E+00
 ETOT 27  -105.61304602899     -1.304E-08 6.709E-03 0.000E+00
 ETOT 28  -105.61304603675     -7.757E-09 4.594E-03 0.000E+00
 ETOT 29  -105.61304604136     -4.617E-09 6.064E-03 0.000E+00
 ETOT 30  -105.61304604411     -2.750E-09 4.193E-03 0.000E+00
 ETOT 31  -105.61304604575     -1.639E-09 5.483E-03 0.000E+00
 ETOT 32  -105.61304604673     -9.768E-10 3.826E-03 0.000E+00
 ETOT 33  -105.61304604731     -5.825E-10 4.960E-03 0.000E+00
 ETOT 34  -105.61304604766     -3.474E-10 3.491E-03 0.000E+00
 ETOT 35  -105.61304604787     -2.075E-10 4.490E-03 0.000E+00
 ETOT 36  -105.61304604799     -1.238E-10 3.184E-03 0.000E+00
 ETOT 37  -105.61304604806     -7.417E-11 4.066E-03 0.000E+00
 ETOT 38  -105.61304604811     -4.411E-11 2.903E-03 0.000E+00
 ETOT 39  -105.61304604813     -2.672E-11 3.683E-03 0.000E+00
 ETOT 40  -105.61304604815     -1.558E-11 2.647E-03 0.000E+00
 ETOT 41  -105.61304604816     -9.521E-12 3.338E-03 0.000E+00
 ETOT 42  -105.61304604817     -5.556E-12 2.412E-03 0.000E+00
 ETOT 43  -105.61304604817     -3.396E-12 3.027E-03 0.000E+00
 ETOT 44  -105.61304604817     -2.203E-12 2.197E-03 0.000E+00
 ETOT 45  -105.61304604817     -1.108E-12 2.745E-03 0.000E+00
 ETOT 46  -105.61304604817     -7.532E-13 2.001E-03 0.000E+00
 ETOT 47  -105.61304604817     -3.837E-13 2.490E-03 0.000E+00
 ETOT 48  -105.61304604817     -3.411E-13 1.822E-03 0.000E+00
 ETOT 49  -105.61304604817     -2.274E-13 2.260E-03 0.000E+00
 ETOT 50  -105.61304604817      5.684E-14 1.658E-03 0.000E+00
 ETOT 51  -105.61304604817     -2.274E-13 2.051E-03 0.000E+00
 ETOT 52  -105.61304604817      1.421E-13 1.509E-03 0.000E+00
 ETOT 53  -105.61304604817      4.263E-14 1.861E-03 0.000E+00
 ETOT 54  -105.61304604817     -9.948E-14 1.373E-03 0.000E+00
 ETOT 55  -105.61304604817     -8.527E-14 1.690E-03 0.000E+00
 ETOT 56  -105.61304604817      1.421E-13 1.249E-03 0.000E+00
 ETOT 57  -105.61304604817     -7.105E-14 1.534E-03 0.000E+00
 ETOT 58  -105.61304604817     -4.263E-14 1.136E-03 0.000E+00
 ETOT 59  -105.61304604817      0.000E+00 1.393E-03 0.000E+00
 ETOT 60  -105.61304604817      1.705E-13 1.033E-03 0.000E+00
 ETOT 61  -105.61304604817     -1.990E-13 1.264E-03 0.000E+00
[...]
 ETOT  858  -105.61304604817      1.421E-14 1.830E-20 0.000E+00
 ETOT  859  -105.61304604817     -2.842E-14 2.725E-20 0.000E+00
 ETOT  860  -105.61304604817      2.842E-14 1.661E-20 0.000E+00
 ETOT  861  -105.61304604817     -4.263E-14 2.476E-20 0.000E+00
 ETOT  862  -105.61304604817      4.263E-14 1.509E-20 0.000E+00
 ETOT  863  -105.61304604817     -4.263E-14 2.248E-20 0.000E+00
 ETOT  864  -105.61304604817      9.948E-14 1.371E-20 0.000E+00
 ETOT  865  -105.61304604817     -5.684E-14 2.041E-20 0.000E+00
 ETOT  866  -105.61304604817      1.421E-14 1.244E-20 0.000E+00
 ETOT  867  -105.61304604817      2.842E-14 1.855E-20 0.000E+00
 ETOT  868  -105.61304604817     -2.842E-14 1.131E-20 0.000E+00
 ETOT  869  -105.61304604817     -8.527E-14 1.686E-20 0.000E+00
 ETOT  870  -105.61304604817      4.263E-14 1.026E-20 0.000E+00
 ETOT  871  -105.61304604817      0.000E+00 1.531E-20 0.000E+00
 ETOT  872  -105.61304604817      5.684E-14 1.000E-20 0.000E+00

 At SCF step  872   max residual=  1.00E-20 < tolwfr=  1.00E-20 =>converged.

 ----iterations are completed or convergence reached----

 dfpt_looppert: DFPT cycle converged with prtwf=-1. Will skip output of the 1st-order WFK file.
 dfpt_looppert : ek2=    1.3285375765E+02
          f-sum rule ratio=    1.1020871742E+00
 prteigrs : about to open file /scratch/users/j/a/jabreu/flow_simple_remain_atoms/flow/w296/t1/tmpdata/tmp_1WF1_EIG
 Expectation of eigenvalue derivatives (hartree) for nkpt=   2  k points:
  (in case of degenerate eigenvalues, averaged derivative)
 kpt#   1, nband= 34, wtk=  0.50000, kpt= -0.1374  0.1374  0.1374 (reduced coord)
  -0.00009   -0.00012    0.00001    0.00018    0.00020    0.01596   -0.00513   -0.01805
  -0.13000    0.02881   -0.02188   -0.01827    0.01636    0.12149   -0.00475    0.03922
   0.17932    0.06126    0.01680    0.03776   -0.08031   -0.07819   -0.16222   -0.06435
  -0.00130    0.06353   -0.01260   -0.05952   -0.01975    0.05919   -0.00476   -0.01533
   0.02955   -0.01174
 prteigrs : prtvol=0 or 1, do not print more k-points.

 Eight components of 2nd-order total energy (hartree) are
 1,2,3: 0th-order hamiltonian combined with 1st-order wavefunctions
     kin0=   2.98542218E+02 eigvalue=  -4.85835357E-02  local=  -1.48028885E+02
 4,5,6: 1st-order hamiltonian combined with 1st and 0th-order wfs
     kin1=  -1.46416422E+02  Hartree=   0.00000000E+00     xc=   0.00000000E+00
 7,8,9: eventually, occupation + non-local contributions
    edocc=   1.44816503E+01     enl0=  -5.93333536E+01   enl1=  -6.48096697E+01
 1-9 gives the relaxation energy (to be shifted if some occ is /=2.0)
   erelax=  -1.05613046E+02
  No Ewald or frozen-wf contrib.: the relaxation energy is the total one
 2DEtotal=   -0.1056130460E+03 Ha. Also 2DEtotal=   -0.287387713664E+04 eV
    (  non-var. 2DEtotal :   -1.0561304605E+02 Ha)

 CALCULATION OF EFFECTIVE MASSES
 NOTE : Additional infos (eff. mass eigenvalues, eigenvectors and, if degenerate, average mass) are available in stdout.

 K-point (-0.137, 0.137, 0.137) | band =    25
 Effective mass tensor:
             -0.3142762268              0.2085821403              0.4094256574
              0.2085821403             -3.7513616583             -0.6944059252
              0.4094256574             -0.6944059252             -1.5543451662
 Effective mass tensor eigenvalues:
             -3.9796944261             -1.4489934821             -0.1912951431
 Angular average effective mass 1/(<1/m>)=  -0.4863076785
 Angular average effective mass for Frohlich model (<m**0.5>)**2=  -0.7596628878
 Effective masses along directions: (cart. coord. / red. coord. -> eff. mass)
    1:   1.000000  0.000000  0.000000 /   0.995954 -0.089860  0.000000 ->  -0.2062390727
    2:   0.000000  1.000000  0.000000 /   0.000000  1.000000  0.000000 ->  -3.4379425497
    3:   0.000000  0.000000  1.000000 /  -0.539475 -0.539475  0.646478 ->  -0.9715145382
    4:   0.577350  0.577350  0.577350 /  -0.259529 -0.307107  0.915604 ->  -0.3520091778
    5:   0.000000  0.707107  0.707107 /  -0.625826 -0.214261  0.749956 ->  -1.8529615152
    6:   0.707107  0.000000  0.707107 /  -0.207716 -0.647952  0.732811 ->  -0.2380915560
    7:   0.707107  0.707107  0.000000 /   0.741191  0.671294  0.000000 ->  -0.3837330952

 K-point ( 0.500, 0.500,-0.500) | band =    26
 Effective mass tensor:
              0.6072676573              0.3061683066             -0.9311199224
              0.3061683066              0.6627420071             -1.0192875119
             -0.9311199224             -1.0192875119              3.4274427418
 Effective mass tensor eigenvalues:
              0.3275826740              0.3275826748              4.0422870574
 Angular average effective mass 1/(<1/m>)=   0.4722391313
 Angular average effective mass for Frohlich model (<m**0.5>)**2=   0.5859875069
 Effective masses along directions: (cart. coord. / red. coord. -> eff. mass)
    1:   1.000000  0.000000  0.000000 /   0.995954 -0.089860  0.000000 ->   0.3519328324
    2:   0.000000  1.000000  0.000000 /   0.000000  1.000000  0.000000 ->   0.3571992397
    3:   0.000000  0.000000  1.000000 /  -0.539475 -0.539475  0.646478 ->   1.4050777598
    4:   0.577350  0.577350  0.577350 /  -0.259529 -0.307107  0.915604 ->   0.3395157267
    5:   0.000000  0.707107  0.707107 /  -0.625826 -0.214261  0.749956 ->   0.3959801188
    6:   0.707107  0.000000  0.707107 /  -0.207716 -0.647952  0.732811 ->   0.4032675447
    7:   0.707107  0.707107  0.000000 /   0.741191  0.671294  0.000000 ->   0.3862060021

 END OF EFFECTIVE MASSES SECTION

 ---- first-order wavefunction calculations are completed ----

 Total localisation tensor (bohr^2) in cartesian coordinates
  WARNING : still subject to testing - especially symmetries.
      direction              matrix element
   alpha     beta       real part   imaginary part
     1        1       1.8596397421    0.0000000000
     1        2      -0.1310267181    0.0000000000
     1        3      -2.5990216941    0.0000000000
     2        1      -0.1310267181    0.0000000000
     2        2       1.4462982867    0.0000000000
     2        3      -2.1992432224    0.0000000000
     3        1      -2.5990216941    0.0000000000
     3        2      -2.1992432224    0.0000000000
     3        3      17.9099830962    0.0000000000

 respfn : d/dk was computed, but no 2DTE, so no DDB output.

== END DATASET(S) ==============================================================

 -outvars: echo values of variables after computation  --------
            acell      1.0000000000E+00  1.0000000000E+00  1.0000000000E+00 Bohr
              amu      1.38905500E+02  1.27600000E+02  1.59994000E+01
             ecut      5.20000000E+01 Hartree
           etotal     -1.0561304605E+02
            fcart      0.0000000000E+00  0.0000000000E+00  0.0000000000E+00
                       0.0000000000E+00  0.0000000000E+00  0.0000000000E+00
                       0.0000000000E+00  0.0000000000E+00  0.0000000000E+00
                       0.0000000000E+00  0.0000000000E+00  0.0000000000E+00
                       0.0000000000E+00  0.0000000000E+00  0.0000000000E+00
-          fftalg         512
           irdden           1
           irdwfk           1
              ixc     -116133
              kpt     -1.37396614E-01  1.37396614E-01  1.37396614E-01
                       5.00000000E-01  5.00000000E-01 -5.00000000E-01
           kptopt           0
P           mkmem           2
P          mkqmem           2
P          mk1mem           2
            natom           5
            nband          34
           nbdbuf           4
            ngfft          90      90      90
             nkpt           2
            nstep        2000
             nsym          16
           ntypat           3
              occ      2.000000  2.000000  2.000000  2.000000  2.000000  2.000000
                       2.000000  2.000000  2.000000  2.000000  2.000000  2.000000
                       2.000000  2.000000  2.000000  2.000000  2.000000  2.000000
                       2.000000  2.000000  2.000000  2.000000  2.000000  2.000000
                       2.000000  0.000000  0.000000  0.000000  0.000000  0.000000
                       0.000000  0.000000  0.000000  0.000000
        optdriver           1
            prtwf          -1
            rfdir           1       1       1
           rfelfd           2
            rprim      7.3832890250E+00  0.0000000000E+00 -1.1181249186E+01
                      -6.6615750820E-01  7.3531755726E+00 -1.1181249186E+01
                       0.0000000000E+00  0.0000000000E+00  1.3399003328E+01
          spgroup         139
           strten      0.0000000000E+00  0.0000000000E+00  0.0000000000E+00
                       0.0000000000E+00  0.0000000000E+00  0.0000000000E+00
           symrel      1  0  0   0  1  0   0  0  1      -1  0  0   0 -1  0   0  0 -1
                       0  0  1  -1 -1 -1   1  0  0       0  0 -1   1  1  1  -1  0  0
                       0  1  0   1  0  0  -1 -1 -1       0 -1  0  -1  0  0   1  1  1
                      -1 -1 -1   0  0  1   0  1  0       1  1  1   0  0 -1   0 -1  0
                       0  1  0   1  0  0   0  0  1       0 -1  0  -1  0  0   0  0 -1
                       0  0  1  -1 -1 -1   0  1  0       0  0 -1   1  1  1   0 -1  0
                       1  0  0   0  1  0  -1 -1 -1      -1  0  0   0 -1  0   1  1  1
                      -1 -1 -1   0  0  1   1  0  0       1  1  1   0  0 -1  -1  0  0
           tolwfr      1.00000000E-20
            typat      1  1  2  3  3
           useylm           1
              wtk        0.50000    0.50000
           xangst      2.3394645405E+00  2.5609880451E+00 -7.7884840942E+00
                       1.2150883653E+00  1.3301448787E+00 -4.0452403713E+00
                       0.0000000000E+00  0.0000000000E+00  0.0000000000E+00
                       7.1238054111E-01  2.9183496928E+00 -2.3716386432E+00
                       2.8421723647E+00  9.7278323095E-01 -2.3716386432E+00
            xcart      4.4209472791E+00  4.8395660349E+00 -1.4718101928E+01
                       2.2961842377E+00  2.5136095377E+00 -7.6443964434E+00
                       0.0000000000E+00  0.0000000000E+00  0.0000000000E+00
                       1.3462041251E+00  5.5148816794E+00 -4.4817475219E+00
                       5.3709273917E+00  1.8382938931E+00 -4.4817475219E+00
             xred      6.5816000000E-01  6.5816000000E-01 -5.5511151231E-17
                       3.4184000000E-01  3.4184000000E-01 -5.5511151231E-17
                       0.0000000000E+00  0.0000000000E+00  0.0000000000E+00
                       2.5000000000E-01  7.5000000000E-01  5.0000000000E-01
                       7.5000000000E-01  2.5000000000E-01  5.0000000000E-01
            znucl       57.00000   52.00000    8.00000

- Timing analysis has been suppressed with timopt=0

 Suggested references for the acknowledgment of ABINIT usage.

 Calculation completed.
.Delivered   2 WARNINGs and   7 COMMENTs to log file.