.Version 9.5.2 of ABINIT

 ABINIT is a project of the Universite Catholique de Louvain,
 Corning Inc. and other collaborators, see ~abinit/doc/developers/contributors.txt .
 acknowledgments of the ABINIT effort.

.Starting date : Wed 26 May 2021.
- ( at 02h08 )

- input  file    -> /scratch/users/j/a/jabreu/flow_simple_11atoms/flow/w212/t1/run.abi
- output file    -> /scratch/users/j/a/jabreu/flow_simple_11atoms/flow/w212/t1/run.abo
- root for input  files -> /scratch/users/j/a/jabreu/flow_simple_11atoms/flow/w212/t1/indata/in
- root for output files -> /scratch/users/j/a/jabreu/flow_simple_11atoms/flow/w212/t1/outdata/out

 Symmetries : space group Cm c m (# 63); Bravais oC (1-face-center ortho.)
     intxc =       0      iscf =       7    lmnmax =      18     lnmax =       6
     mgfft =      80  mpssoang =       3    mqgrid =    3950     natom =      12
  nloc_mem =       1    nspden =       1   nspinor =       1    nsppol =       1
      nsym =       8    n1xccc =    2501    ntypat =       3    occopt =       1
   xclevel =       2
-    mband =          49        mffmem =           1         mkmem =           2
-   mkqmem =           2        mk1mem =           2           mpw =       14245
      nfft =      233280          nkpt =           2
  Rough estimation (10% accuracy) of disk space for files :

------------- Echo of variables that govern the present computation ------------
-
- outvars: echo of selected default values
-   iomode0 =  0 , fftalg0 =512 , wfoptalg0 =  0
-
- outvars: echo of global parameters not present in the input file
-  max_nthreads =    0
-
 -outvars: echo values of preprocessed input variables --------
            acell      1.0000000000E+00  1.0000000000E+00  1.0000000000E+00 Bohr
              amu      4.00780000E+01  3.20660000E+01  1.59994000E+01
             ecut      4.40000000E+01 Hartree
-          fftalg         512
           irdden           1
           irdwfk           1
           istwfk        0    1
              ixc     -116133
              kpt     -5.00000000E-01  5.00000000E-01  0.00000000E+00
                       0.00000000E+00  0.00000000E+00  0.00000000E+00
           kptopt           0
P           mkmem           2
P          mkqmem           2
P          mk1mem           2
            natom          12
            nband          49
           nbdbuf           4
            ngfft          54      54      80
             nkpt           2
            nstep        2000
             nsym           8
           ntypat           3
              occ      2.000000  2.000000  2.000000  2.000000  2.000000  2.000000
                       2.000000  2.000000  2.000000  2.000000  2.000000  2.000000
                       2.000000  2.000000  2.000000  2.000000  2.000000  2.000000
                       2.000000  2.000000  2.000000  2.000000  2.000000  2.000000
                       2.000000  2.000000  2.000000  2.000000  2.000000  2.000000
                       2.000000  2.000000  2.000000  2.000000  2.000000  2.000000
                       2.000000  2.000000  2.000000  2.000000  0.000000  0.000000
                       0.000000  0.000000  0.000000  0.000000  0.000000  0.000000
                       0.000000
        optdriver           1
            prtwf          -1
            rfdir           1       1       1
           rfelfd           2
            rprim      8.8129698217E+00  0.0000000000E+00  0.0000000000E+00
                      -1.0961423572E+00  8.7445359517E+00  0.0000000000E+00
                       0.0000000000E+00  0.0000000000E+00  1.3225120330E+01
          spgroup          63
           symrel      1  0  0   0  1  0   0  0  1      -1  0  0   0 -1  0   0  0 -1
                       0 -1  0  -1  0  0   0  0 -1       0  1  0   1  0  0   0  0  1
                      -1  0  0   0 -1  0   0  0  1       1  0  0   0  1  0   0  0 -1
                       0  1  0   1  0  0   0  0 -1       0 -1  0  -1  0  0   0  0  1
            tnons      0.0000000  0.0000000  0.0000000    -0.0000000 -0.0000000 -0.0000000
                      -0.0000000 -0.0000000 -0.0000000     0.0000000 -0.0000000  0.0000000
                      -0.0000000 -0.0000000  0.5000000     0.0000000  0.0000000  0.5000000
                       0.0000000 -0.0000000  0.5000000    -0.0000000 -0.0000000  0.5000000
           tolwfr      1.00000000E-20
            typat      1  1  2  2  3  3  3  3  3  3  3  3
           useylm           1
              wtk        0.50000    0.50000
           xangst      6.0901942943E-01  6.9012716954E-01  1.7496080648E+00
                       3.4745497874E+00  3.9372819558E+00  5.2488241945E+00
                       2.6679713628E+00  3.0232853602E+00  1.7496080648E+00
                       1.4155978540E+00  1.6041237652E+00  5.2488241945E+00
                       2.9813653068E+00  1.5740779977E+00  1.7496080648E+00
                       1.1022039100E+00  3.0533311276E+00  5.2488241945E+00
                       1.1910378748E+00  3.1539957857E+00  1.7496080648E+00
                       2.8925313421E+00  1.4734133396E+00  5.2488241945E+00
                       8.2405201725E-01  9.3379727927E-01  6.4327839720E+00
                       3.2595171996E+00  3.6936118461E+00  2.9335678423E+00
                       8.2405201725E-01  9.3379727927E-01  4.0648644171E+00
                       3.2595171996E+00  3.6936118461E+00  5.6564828737E-01
            xcart      1.1508799312E+00  1.3041513473E+00  3.3062800824E+00
                       6.5659475333E+00  7.4403846044E+00  9.9188402473E+00
                       5.0417352061E+00  5.7131813523E+00  3.3062800824E+00
                       2.6750922584E+00  3.0313545994E+00  9.9188402473E+00
                       5.6339639320E+00  2.9745763275E+00  3.3062800824E+00
                       2.0828635325E+00  5.7699596242E+00  9.9188402473E+00
                       2.2507353972E+00  5.9601882593E+00  3.3062800824E+00
                       5.4660920673E+00  2.7843476924E+00  9.9188402473E+00
                       1.5572326319E+00  1.7646211214E+00  1.2156199979E+01
                       6.1595948326E+00  6.9799148303E+00  5.5436398142E+00
                       1.5572326319E+00  1.7646211214E+00  7.6814805156E+00
                       6.1595948326E+00  6.9799148303E+00  1.0689203507E+00
             xred      1.4913900000E-01  1.4913900000E-01  2.5000000000E-01
                       8.5086100000E-01  8.5086100000E-01  7.5000000000E-01
                       6.5334300000E-01  6.5334300000E-01  2.5000000000E-01
                       3.4665700000E-01  3.4665700000E-01  7.5000000000E-01
                       6.8159000000E-01  3.4016400000E-01  2.5000000000E-01
                       3.1841000000E-01  6.5983600000E-01  7.5000000000E-01
                       3.4016400000E-01  6.8159000000E-01  2.5000000000E-01
                       6.5983600000E-01  3.1841000000E-01  7.5000000000E-01
                       2.0179700000E-01  2.0179700000E-01  9.1917500000E-01
                       7.9820300000E-01  7.9820300000E-01  4.1917500000E-01
                       2.0179700000E-01  2.0179700000E-01  5.8082500000E-01
                       7.9820300000E-01  7.9820300000E-01  8.0825000000E-02
            znucl       20.00000   16.00000    8.00000

 chkinp: Checking input parameters for consistency.

== DATASET  1 ==================================================================
-   mpi_nproc: 1, omp_nthreads: -1 (-1 if OMP is not activated)

--- !DatasetInfo
iteration_state: {dtset: 1, }
dimensions: {natom: 12, nkpt: 2, mband: 49, nsppol: 1, nspinor: 1, nspden: 1, mpw: 14245, }
cutoff_energies: {ecut:  44.0, pawecutdg:  -1.0, }
electrons: {nelect:   8.00000000E+01, charge:   0.00000000E+00, occopt:   1.00000000E+00, tsmear:   1.00000000E-02, }
meta: {optdriver: 1, rfelfd: 2, }
...

 Real(R)+Recip(G) space primitive vectors, cartesian coordinates (Bohr,Bohr^-1):
 R(1)=  8.8129698  0.0000000  0.0000000  G(1)=  0.1134691  0.0142235  0.0000000
 R(2)= -1.0961424  8.7445360  0.0000000  G(2)=  0.0000000  0.1143571  0.0000000
 R(3)=  0.0000000  0.0000000 13.2251203  G(3)=  0.0000000  0.0000000  0.0756137
 Unit cell volume ucvol=  1.0191983E+03 bohr^3
 Angles (23,13,12)=  9.00000000E+01  9.00000000E+01  9.71448558E+01 degrees

 getcut: wavevector=  0.0000  0.0000  0.0000  ngfft=  54  54  80
         ecut(hartree)=     44.000   => boxcut(ratio)=   2.02581

--- Pseudopotential description ------------------------------------------------
- pspini: atom type   1  psp file is /scratch/users/j/a/jabreu/pseudos/PBEsol/Ca.psp8
- pspatm: opening atomic psp file    /scratch/users/j/a/jabreu/pseudos/PBEsol/Ca.psp8
- Ca    ONCVPSP-3.3.0  r_core=   1.45885   1.45885   1.85192
- 20.00000  10.00000    180112                znucl, zion, pspdat
    8 -116133    2    4       400   0.00000   pspcod,pspxc,lmax,lloc,mmax,r2well
    3.99000000000000    6.00000000000000    0.00000000000000   rchrg,fchrg,qchrg
     nproj     2     2     2
     extension_switch     1
  pspatm : epsatm=   12.46045226
         --- l  ekb(1:nproj) -->
             0   10.054847    0.973777
             1    2.998958    0.458102
             2   -3.447298   -1.091650
 pspatm: atomic psp has been read  and splines computed

- pspini: atom type   2  psp file is /scratch/users/j/a/jabreu/pseudos/PBEsol/S.psp8
- pspatm: opening atomic psp file    /scratch/users/j/a/jabreu/pseudos/PBEsol/S.psp8
- S     ONCVPSP-3.3.0  r_core=   1.45376   1.45376   1.61851
- 16.00000   6.00000    180112                znucl, zion, pspdat
    8 -116133    2    4       600   0.00000   pspcod,pspxc,lmax,lloc,mmax,r2well
    5.99000000000000    6.00000000000000    0.00000000000000   rchrg,fchrg,qchrg
     nproj     2     2     2
     extension_switch     1
  pspatm : epsatm=    8.71840985
         --- l  ekb(1:nproj) -->
             0    6.834532    0.579453
             1    3.282851    0.896984
             2   -3.496974   -0.974265
 pspatm: atomic psp has been read  and splines computed

- pspini: atom type   3  psp file is /scratch/users/j/a/jabreu/pseudos/PBEsol/O.psp8
- pspatm: opening atomic psp file    /scratch/users/j/a/jabreu/pseudos/PBEsol/O.psp8
- O     ONCVPSP-3.3.0  r_core=   1.35509   1.45563   1.26150
-  8.00000   6.00000    180112                znucl, zion, pspdat
    8 -116133    2    4       600   0.00000   pspcod,pspxc,lmax,lloc,mmax,r2well
    5.99000000000000    4.00000000000000    0.00000000000000   rchrg,fchrg,qchrg
     nproj     2     2     1
     extension_switch     1
  pspatm : epsatm=    6.22910522
         --- l  ekb(1:nproj) -->
             0    6.050032    0.820363
             1   -4.739617   -1.153841
             2   -1.335834
 pspatm: atomic psp has been read  and splines computed

   7.37524528E+03                                ecore*ucvol(ha*bohr**3)

 ==>  initialize data related to q vector <==

 The list of irreducible perturbations for this q vector is:
    1)    idir= 1    ipert=  13
    2)    idir= 2    ipert=  13
    3)    idir= 3    ipert=  13

 Perturbation wavevector (in red.coord.)   0.000000  0.000000  0.000000
 Perturbation : derivative vs k along direction   1

 dfpt_looppert : COMMENT -
[...]
 ETOT  8  -17.962909460230     -2.708E-11 5.863E-07 0.000E+00
 ETOT  9  -17.962909460231     -1.123E-12 2.266E-07 0.000E+00
 ETOT 10  -17.962909460231     -3.908E-14 5.164E-08 0.000E+00
 ETOT 11  -17.962909460231     -2.842E-14 2.077E-08 0.000E+00
 ETOT 12  -17.962909460231      7.105E-15 5.446E-09 0.000E+00
 ETOT 13  -17.962909460231      0.000E+00 2.018E-09 0.000E+00
 ETOT 14  -17.962909460231      7.105E-15 7.871E-10 0.000E+00
 ETOT 15  -17.962909460231      0.000E+00 4.297E-10 0.000E+00
 ETOT 16  -17.962909460231     -7.105E-15 1.480E-10 0.000E+00
 ETOT 17  -17.962909460231      0.000E+00 1.582E-10 0.000E+00
 ETOT 18  -17.962909460231      7.105E-15 6.024E-11 0.000E+00
 ETOT 19  -17.962909460231     -3.553E-15 5.858E-11 0.000E+00
 ETOT 20  -17.962909460231      0.000E+00 2.641E-11 0.000E+00
 ETOT 21  -17.962909460231      7.105E-15 2.175E-11 0.000E+00
 ETOT 22  -17.962909460231      0.000E+00 1.170E-11 0.000E+00
 ETOT 23  -17.962909460231     -7.105E-15 8.228E-12 0.000E+00
 ETOT 24  -17.962909460231      7.105E-15 5.205E-12 0.000E+00
 ETOT 25  -17.962909460231     -3.553E-15 3.656E-12 0.000E+00
 ETOT 26  -17.962909460231      3.553E-15 2.321E-12 0.000E+00
 ETOT 27  -17.962909460231      0.000E+00 1.626E-12 0.000E+00
 ETOT 28  -17.962909460231     -3.553E-15 1.036E-12 0.000E+00
 ETOT 29  -17.962909460231      3.553E-15 7.240E-13 0.000E+00
 ETOT 30  -17.962909460231     -1.066E-14 4.631E-13 0.000E+00
 ETOT 31  -17.962909460231      3.553E-15 3.226E-13 0.000E+00
 ETOT 32  -17.962909460231      3.553E-15 2.071E-13 0.000E+00
 ETOT 33  -17.962909460231      0.000E+00 1.437E-13 0.000E+00
 ETOT 34  -17.962909460231      0.000E+00 9.261E-14 0.000E+00
 ETOT 35  -17.962909460231      3.553E-15 6.408E-14 0.000E+00
 ETOT 36  -17.962909460231     -3.553E-15 4.142E-14 0.000E+00
 ETOT 37  -17.962909460231      0.000E+00 2.857E-14 0.000E+00
 ETOT 38  -17.962909460231      3.553E-15 1.853E-14 0.000E+00
 ETOT 39  -17.962909460231     -3.553E-15 1.274E-14 0.000E+00
 ETOT 40  -17.962909460231      0.000E+00 8.287E-15 0.000E+00
 ETOT 41  -17.962909460231     -3.553E-15 5.680E-15 0.000E+00
 ETOT 42  -17.962909460231      1.421E-14 3.707E-15 0.000E+00
 ETOT 43  -17.962909460231     -1.421E-14 2.533E-15 0.000E+00
 ETOT 44  -17.962909460231      7.105E-15 1.658E-15 0.000E+00
 ETOT 45  -17.962909460231     -3.553E-15 1.130E-15 0.000E+00
 ETOT 46  -17.962909460231      3.553E-15 7.413E-16 0.000E+00
 ETOT 47  -17.962909460231     -3.553E-15 5.038E-16 0.000E+00
 ETOT 48  -17.962909460231      0.000E+00 3.315E-16 0.000E+00
 ETOT 49  -17.962909460231      0.000E+00 2.247E-16 0.000E+00
 ETOT 50  -17.962909460231     -7.105E-15 1.482E-16 0.000E+00
 ETOT 51  -17.962909460231      7.105E-15 1.002E-16 0.000E+00
 ETOT 52  -17.962909460231      0.000E+00 6.628E-17 0.000E+00
 ETOT 53  -17.962909460231      0.000E+00 4.470E-17 0.000E+00
 ETOT 54  -17.962909460231      7.105E-15 2.963E-17 0.000E+00
 ETOT 55  -17.962909460231     -1.066E-14 1.994E-17 0.000E+00
 ETOT 56  -17.962909460231      3.553E-15 1.325E-17 0.000E+00
 ETOT 57  -17.962909460231      0.000E+00 8.894E-18 0.000E+00
 ETOT 58  -17.962909460231      7.105E-15 5.921E-18 0.000E+00
 ETOT 59  -17.962909460231     -7.105E-15 3.967E-18 0.000E+00
 ETOT 60  -17.962909460231      0.000E+00 2.647E-18 0.000E+00
 ETOT 61  -17.962909460231      0.000E+00 1.770E-18 0.000E+00
 ETOT 62  -17.962909460231      0.000E+00 1.183E-18 0.000E+00
 ETOT 63  -17.962909460231     -7.105E-15 7.894E-19 0.000E+00
 ETOT 64  -17.962909460231      0.000E+00 5.288E-19 0.000E+00
 ETOT 65  -17.962909460231      7.105E-15 3.522E-19 0.000E+00
 ETOT 66  -17.962909460231     -7.105E-15 2.363E-19 0.000E+00
 ETOT 67  -17.962909460231      0.000E+00 1.571E-19 0.000E+00
 ETOT 68  -17.962909460231     -7.105E-15 1.056E-19 0.000E+00
 ETOT 69  -17.962909460231      7.105E-15 7.008E-20 0.000E+00
 ETOT 70  -17.962909460231      0.000E+00 4.720E-20 0.000E+00
 ETOT 71  -17.962909460231      0.000E+00 3.126E-20 0.000E+00
 ETOT 72  -17.962909460231      0.000E+00 2.109E-20 0.000E+00
 ETOT 73  -17.962909460231      7.105E-15 1.395E-20 0.000E+00
 ETOT 74  -17.962909460231     -7.105E-15 9.812E-21 0.000E+00

 At SCF step   74   max residual=  9.81E-21 < tolwfr=  1.00E-20 =>converged.

 ----iterations are completed or convergence reached----

 dfpt_looppert: DFPT cycle converged with prtwf=-1. Will skip output of the 1st-order WFK file.
 dfpt_looppert : ek2=    3.6114404245E+01
          f-sum rule ratio=    1.0274840992E+00
 prteigrs : about to open file /scratch/users/j/a/jabreu/flow_simple_11atoms/flow/w212/t1/tmpdata/tmp_1WF1_EIG
 Expectation of eigenvalue derivatives (hartree) for nkpt=   2  k points:
  (in case of degenerate eigenvalues, averaged derivative)
 kpt#   1, nband= 49, wtk=  0.50000, kpt= -0.5000  0.5000  0.0000 (reduced coord)
   0.00000   -0.00000    0.00000    0.00000   -0.00000    0.00000   -0.00000    0.00000
   0.00000    0.00000   -0.00000   -0.00000    0.00000   -0.00000    0.00000    0.00000
  -0.00000   -0.00000   -0.00000   -0.00000    0.00000    0.00000   -0.00000    0.00000
   0.00000   -0.00000   -0.00000   -0.00000    0.00000    0.00000    0.00000   -0.00000
   0.00000   -0.00000    0.00000    0.00000    0.00000   -0.00000   -0.00000   -0.00000
   0.00000    0.00000   -0.00000   -0.00000    0.00000    0.00000    0.00000   -0.00002
   0.00002
 prteigrs : prtvol=0 or 1, do not print more k-points.

 Eight components of 2nd-order total energy (hartree) are
 1,2,3: 0th-order hamiltonian combined with 1st-order wavefunctions
     kin0=   2.87430953E+01 eigvalue=   8.82307736E-01  local=  -1.37944097E+01
 4,5,6: 1st-order hamiltonian combined with 1st and 0th-order wfs
     kin1=  -3.71069761E+01  Hartree=   0.00000000E+00     xc=   0.00000000E+00
 7,8,9: eventually, occupation + non-local contributions
    edocc=   3.53485881E+00     enl0=  -1.40294267E+00   enl1=   1.18115720E+00
 1-9 gives the relaxation energy (to be shifted if some occ is /=2.0)
   erelax=  -1.79629095E+01
  No Ewald or frozen-wf contrib.: the relaxation energy is the total one
 2DEtotal=   -0.1796290946E+02 Ha. Also 2DEtotal=   -0.488795624565E+03 eV
    (  non-var. 2DEtotal :   -1.7962909460E+01 Ha)

 CALCULATION OF EFFECTIVE MASSES
 NOTE : Additional infos (eff. mass eigenvalues, eigenvectors and, if degenerate, average mass) are available in stdout.

 K-point (-0.500, 0.500, 0.000) | band =    40
 Effective mass tensor:
             -5.1423491491             -4.1946593502             -0.0000006000
             -4.1946593502             -6.1939643687             -0.0000006811
             -0.0000006000             -0.0000006811            -38.7035508570
 Effective mass tensor eigenvalues:
            -38.7035508570             -9.8956430932             -1.4406704247
 Angular average effective mass 1/(<1/m>)=  -3.6540212960
 Angular average effective mass for Frohlich model (<m**0.5>)**2=  -5.8020430054
 Effective masses along directions: (cart. coord. / red. coord. -> eff. mass)
    1:   1.000000  0.000000  0.000000 /   0.992354 -0.123427  0.000000 ->  -2.3016535919
    2:   0.000000  1.000000  0.000000 /   0.000000  1.000000  0.000000 ->  -2.7723439082
    3:   0.000000  0.000000  1.000000 /   0.000000  0.000000  1.000000 -> -38.7035508570
    4:   0.577350  0.577350  0.577350 /   0.499681  0.433652  0.749843 -> -12.9003513865
    5:   0.000000  0.707107  0.707107 /   0.000000  0.551543  0.834146 ->  -5.1740682169
    6:   0.707107  0.000000  0.707107 /   0.553221 -0.068809  0.830188 ->  -4.3449200485
    7:   0.707107  0.707107  0.000000 /   0.755244  0.655444  0.000000 ->  -9.6751852107

 K-point ( 0.000, 0.000, 0.000) | band =    41
 Effective mass tensor:
              0.5180479257              0.0290298755             -0.0000000000
              0.0290298755              0.5253258136             -0.0000000000
             -0.0000000000             -0.0000000000              0.5468168397
 Effective mass tensor eigenvalues:
              0.4924298092              0.5468168397              0.5509439301
 Angular average effective mass 1/(<1/m>)=   0.5286735878
 Angular average effective mass for Frohlich model (<m**0.5>)**2=   0.5290979018
 Effective masses along directions: (cart. coord. / red. coord. -> eff. mass)
    1:   1.000000  0.000000  0.000000 /   0.992354 -0.123427  0.000000 ->   0.5164437143
    2:   0.000000  1.000000  0.000000 /   0.000000  1.000000  0.000000 ->   0.5236990652
    3:   0.000000  0.000000  1.000000 /   0.000000  0.000000  1.000000 ->   0.5468168397
    4:   0.577350  0.577350  0.577350 /   0.499681  0.433652  0.749843 ->   0.5493927760
    5:   0.000000  0.707107  0.707107 /   0.000000  0.551543  0.834146 ->   0.5350083384
    6:   0.707107  0.000000  0.707107 /   0.553221 -0.068809  0.830188 ->   0.5311964573
    7:   0.707107  0.707107  0.000000 /   0.755244  0.655444  0.000000 ->   0.5506898666

 END OF EFFECTIVE MASSES SECTION

 ---- first-order wavefunction calculations are completed ----

 Total localisation tensor (bohr^2) in cartesian coordinates
  WARNING : still subject to testing - especially symmetries.
      direction              matrix element
   alpha     beta       real part   imaginary part
     1        1       0.6229006409    0.0000000000
     1        2      -0.0757026346    0.0000000000
     1        3       0.0000000000    0.0000000000
     2        1      -0.0757026346    0.0000000000
     2        2       0.6039219321    0.0000000000
     2        3       0.0000000000    0.0000000000
     3        1       0.0000000000    0.0000000000
     3        2       0.0000000000    0.0000000000
     3        3       0.5937577084    0.0000000000

 respfn : d/dk was computed, but no 2DTE, so no DDB output.

== END DATASET(S) ==============================================================

 -outvars: echo values of variables after computation  --------
            acell      1.0000000000E+00  1.0000000000E+00  1.0000000000E+00 Bohr
              amu      4.00780000E+01  3.20660000E+01  1.59994000E+01
             ecut      4.40000000E+01 Hartree
           etotal     -1.7962909460E+01
            fcart      0.0000000000E+00  0.0000000000E+00  0.0000000000E+00
                       0.0000000000E+00  0.0000000000E+00  0.0000000000E+00
                       0.0000000000E+00  0.0000000000E+00  0.0000000000E+00
                       0.0000000000E+00  0.0000000000E+00  0.0000000000E+00
                       0.0000000000E+00  0.0000000000E+00  0.0000000000E+00
                       0.0000000000E+00  0.0000000000E+00  0.0000000000E+00
                       0.0000000000E+00  0.0000000000E+00  0.0000000000E+00
                       0.0000000000E+00  0.0000000000E+00  0.0000000000E+00
                       0.0000000000E+00  0.0000000000E+00  0.0000000000E+00
                       0.0000000000E+00  0.0000000000E+00  0.0000000000E+00
                       0.0000000000E+00  0.0000000000E+00  0.0000000000E+00
                       0.0000000000E+00  0.0000000000E+00  0.0000000000E+00
-          fftalg         512
           irdden           1
           irdwfk           1
           istwfk        0    1
              ixc     -116133
              kpt     -5.00000000E-01  5.00000000E-01  0.00000000E+00
                       0.00000000E+00  0.00000000E+00  0.00000000E+00
           kptopt           0
P           mkmem           2
P          mkqmem           2
P          mk1mem           2
            natom          12
            nband          49
           nbdbuf           4
            ngfft          54      54      80
             nkpt           2
            nstep        2000
             nsym           8
           ntypat           3
              occ      2.000000  2.000000  2.000000  2.000000  2.000000  2.000000
                       2.000000  2.000000  2.000000  2.000000  2.000000  2.000000
                       2.000000  2.000000  2.000000  2.000000  2.000000  2.000000
                       2.000000  2.000000  2.000000  2.000000  2.000000  2.000000
                       2.000000  2.000000  2.000000  2.000000  2.000000  2.000000
                       2.000000  2.000000  2.000000  2.000000  2.000000  2.000000
                       2.000000  2.000000  2.000000  2.000000  0.000000  0.000000
                       0.000000  0.000000  0.000000  0.000000  0.000000  0.000000
                       0.000000
        optdriver           1
            prtwf          -1
            rfdir           1       1       1
           rfelfd           2
            rprim      8.8129698217E+00  0.0000000000E+00  0.0000000000E+00
                      -1.0961423572E+00  8.7445359517E+00  0.0000000000E+00
                       0.0000000000E+00  0.0000000000E+00  1.3225120330E+01
          spgroup          63
           strten      0.0000000000E+00  0.0000000000E+00  0.0000000000E+00
                       0.0000000000E+00  0.0000000000E+00  0.0000000000E+00
           symrel      1  0  0   0  1  0   0  0  1      -1  0  0   0 -1  0   0  0 -1
                       0 -1  0  -1  0  0   0  0 -1       0  1  0   1  0  0   0  0  1
                      -1  0  0   0 -1  0   0  0  1       1  0  0   0  1  0   0  0 -1
                       0  1  0   1  0  0   0  0 -1       0 -1  0  -1  0  0   0  0  1
            tnons      0.0000000  0.0000000  0.0000000    -0.0000000 -0.0000000 -0.0000000
                      -0.0000000 -0.0000000 -0.0000000     0.0000000 -0.0000000  0.0000000
                      -0.0000000 -0.0000000  0.5000000     0.0000000  0.0000000  0.5000000
                       0.0000000 -0.0000000  0.5000000    -0.0000000 -0.0000000  0.5000000
           tolwfr      1.00000000E-20
            typat      1  1  2  2  3  3  3  3  3  3  3  3
           useylm           1
              wtk        0.50000    0.50000
           xangst      6.0901942943E-01  6.9012716954E-01  1.7496080648E+00
                       3.4745497874E+00  3.9372819558E+00  5.2488241945E+00
                       2.6679713628E+00  3.0232853602E+00  1.7496080648E+00
                       1.4155978540E+00  1.6041237652E+00  5.2488241945E+00
                       2.9813653068E+00  1.5740779977E+00  1.7496080648E+00
                       1.1022039100E+00  3.0533311276E+00  5.2488241945E+00
                       1.1910378748E+00  3.1539957857E+00  1.7496080648E+00
                       2.8925313421E+00  1.4734133396E+00  5.2488241945E+00
                       8.2405201725E-01  9.3379727927E-01  6.4327839720E+00
                       3.2595171996E+00  3.6936118461E+00  2.9335678423E+00
                       8.2405201725E-01  9.3379727927E-01  4.0648644171E+00
                       3.2595171996E+00  3.6936118461E+00  5.6564828737E-01
            xcart      1.1508799312E+00  1.3041513473E+00  3.3062800824E+00
                       6.5659475333E+00  7.4403846044E+00  9.9188402473E+00
                       5.0417352061E+00  5.7131813523E+00  3.3062800824E+00
                       2.6750922584E+00  3.0313545994E+00  9.9188402473E+00
                       5.6339639320E+00  2.9745763275E+00  3.3062800824E+00
                       2.0828635325E+00  5.7699596242E+00  9.9188402473E+00
                       2.2507353972E+00  5.9601882593E+00  3.3062800824E+00
                       5.4660920673E+00  2.7843476924E+00  9.9188402473E+00
                       1.5572326319E+00  1.7646211214E+00  1.2156199979E+01
                       6.1595948326E+00  6.9799148303E+00  5.5436398142E+00
                       1.5572326319E+00  1.7646211214E+00  7.6814805156E+00
                       6.1595948326E+00  6.9799148303E+00  1.0689203507E+00
             xred      1.4913900000E-01  1.4913900000E-01  2.5000000000E-01
                       8.5086100000E-01  8.5086100000E-01  7.5000000000E-01
                       6.5334300000E-01  6.5334300000E-01  2.5000000000E-01
                       3.4665700000E-01  3.4665700000E-01  7.5000000000E-01
                       6.8159000000E-01  3.4016400000E-01  2.5000000000E-01
                       3.1841000000E-01  6.5983600000E-01  7.5000000000E-01
                       3.4016400000E-01  6.8159000000E-01  2.5000000000E-01
                       6.5983600000E-01  3.1841000000E-01  7.5000000000E-01
                       2.0179700000E-01  2.0179700000E-01  9.1917500000E-01
                       7.9820300000E-01  7.9820300000E-01  4.1917500000E-01
                       2.0179700000E-01  2.0179700000E-01  5.8082500000E-01
                       7.9820300000E-01  7.9820300000E-01  8.0825000000E-02
            znucl       20.00000   16.00000    8.00000

- Timing analysis has been suppressed with timopt=0

 Suggested references for the acknowledgment of ABINIT usage.

 Calculation completed.
.Delivered   2 WARNINGs and   5 COMMENTs to log file.