.Version 9.5.1 of ABINIT

 ABINIT is a project of the Universite Catholique de Louvain,
 Corning Inc. and other collaborators, see ~abinit/doc/developers/contributors.txt .
 acknowledgments of the ABINIT effort.

.Starting date : Wed 19 May 2021.
- ( at 01h36 )

- input  file    -> /scratch/users/j/a/jabreu/flow_simple_8atoms/flow/w457/t1/run.abi
- output file    -> /scratch/users/j/a/jabreu/flow_simple_8atoms/flow/w457/t1/run.abo
- root for input  files -> /scratch/users/j/a/jabreu/flow_simple_8atoms/flow/w457/t1/indata/in
- root for output files -> /scratch/users/j/a/jabreu/flow_simple_8atoms/flow/w457/t1/outdata/out

 Symmetries : space group R-3 (#148); Bravais hR (rhombohedral)
     intxc =       0      iscf =       7    lmnmax =      18     lnmax =       6
     mgfft =      72  mpssoang =       3    mqgrid =    3001     natom =       8
  nloc_mem =       1    nspden =       1   nspinor =       1    nsppol =       1
      nsym =       6    n1xccc =    2501    ntypat =       3    occopt =       1
   xclevel =       2
-    mband =          42        mffmem =           1         mkmem =           1
-   mkqmem =           1        mk1mem =           1           mpw =       12729
      nfft =      373248          nkpt =           1
  Rough estimation (10% accuracy) of disk space for files :

------------- Echo of variables that govern the present computation ------------
-
- outvars: echo of selected default values
-   iomode0 =  0 , fftalg0 =512 , wfoptalg0 =  0
-
- outvars: echo of global parameters not present in the input file
-  max_nthreads =    0
-
 -outvars: echo values of preprocessed input variables --------
            acell      1.0000000000E+00  1.0000000000E+00  1.0000000000E+00 Bohr
              amu      4.00780000E+01  1.18710000E+02  1.89984032E+01
             ecut      4.20000000E+01 Hartree
-          fftalg         512
           irdden           1
           irdwfk           1
           istwfk        1
              ixc     -116133
           kptopt           0
P           mkmem           1
P          mkqmem           1
P          mk1mem           1
            natom           8
            nband          42
           nbdbuf           4
            ngfft          72      72      72
             nkpt           1
            nstep        2000
             nsym           6
           ntypat           3
              occ      2.000000  2.000000  2.000000  2.000000  2.000000  2.000000
                       2.000000  2.000000  2.000000  2.000000  2.000000  2.000000
                       2.000000  2.000000  2.000000  2.000000  2.000000  2.000000
                       2.000000  2.000000  2.000000  2.000000  2.000000  2.000000
                       2.000000  2.000000  2.000000  2.000000  2.000000  2.000000
                       2.000000  2.000000  2.000000  0.000000  0.000000  0.000000
                       0.000000  0.000000  0.000000  0.000000  0.000000  0.000000
        optdriver           1
            prtwf          -1
            rfdir           1       1       1
           rfelfd           2
            rprim      9.6362827832E+00  0.0000000000E+00  5.7288834494E+00
                       3.2589581950E+00  9.0684694056E+00  5.7288834494E+00
                       0.0000000000E+00  0.0000000000E+00  1.1210622260E+01
          spgroup         148
           symrel      1  0  0   0  1  0   0  0  1      -1  0  0   0 -1  0   0  0 -1
                       0  0  1   1  0  0   0  1  0       0  0 -1  -1  0  0   0 -1  0
                       0  1  0   0  0  1   1  0  0       0 -1  0   0  0 -1  -1  0  0
           tolwfr      1.00000000E-20
            typat      1  2  3  3  3  3  3  3
           useylm           1
           xangst      0.0000000000E+00  0.0000000000E+00  0.0000000000E+00
                       3.4119338125E+00  2.3994136631E+00  5.9977974491E+00
                       1.9933385312E+00  1.0159405379E+00  5.9647862473E+00
                       2.3455551351E+00  3.5228143414E+00  4.7615500498E+00
                       2.5298112963E+00  3.2665329680E+00  7.5461721381E+00
                       4.4783124899E+00  1.2760129849E+00  7.2340448484E+00
                       4.8305290938E+00  3.7828867883E+00  6.0308086509E+00
                       4.2940563286E+00  1.5322943582E+00  4.4494227602E+00
            xcart      0.0000000000E+00  0.0000000000E+00  0.0000000000E+00
                       6.4476204891E+00  4.5342347028E+00  1.1334194579E+01
                       3.7668639140E+00  1.9198493840E+00  1.1271812449E+01
                       4.4324568349E+00  6.6571543222E+00  8.9980255622E+00
                       4.7806505179E+00  6.1728527136E+00  1.4260198693E+01
                       8.4627841433E+00  2.4113150834E+00  1.3670363597E+01
                       9.1283770642E+00  7.1486200216E+00  1.1396576710E+01
                       8.1145904603E+00  2.8956166920E+00  8.4081904662E+00
             xred      0.0000000000E+00  0.0000000000E+00  0.0000000000E+00
                       5.0000000000E-01  5.0000000000E-01  5.0000000000E-01
                       3.1930600000E-01  2.1170600000E-01  7.3409900000E-01
                       2.1170600000E-01  7.3409900000E-01  3.1930600000E-01
                       2.6590100000E-01  6.8069400000E-01  7.8829400000E-01
                       7.8829400000E-01  2.6590100000E-01  6.8069400000E-01
                       6.8069400000E-01  7.8829400000E-01  2.6590100000E-01
                       7.3409900000E-01  3.1930600000E-01  2.1170600000E-01
            znucl       20.00000   50.00000    9.00000

 chkinp: Checking input parameters for consistency.

== DATASET  1 ==================================================================
-   mpi_nproc: 1, omp_nthreads: -1 (-1 if OMP is not activated)

--- !DatasetInfo
iteration_state: {dtset: 1, }
dimensions: {natom: 8, nkpt: 1, mband: 42, nsppol: 1, nspinor: 1, nspden: 1, mpw: 12729, }
cutoff_energies: {ecut:  42.0, pawecutdg:  -1.0, }
electrons: {nelect:   6.60000000E+01, charge:   0.00000000E+00, occopt:   1.00000000E+00, tsmear:   1.00000000E-02, }
meta: {optdriver: 1, rfelfd: 2, }
...

 Real(R)+Recip(G) space primitive vectors, cartesian coordinates (Bohr,Bohr^-1):
 R(1)=  9.6362828  0.0000000  5.7288834  G(1)=  0.1037745 -0.0372937  0.0000000
 R(2)=  3.2589582  9.0684694  5.7288834  G(2)=  0.0000000  0.1102722  0.0000000
 R(3)=  0.0000000  0.0000000 11.2106223  G(3)= -0.0530311 -0.0372937  0.0892011
 Unit cell volume ucvol=  9.7965520E+02 bohr^3
 Angles (23,13,12)=  5.92680188E+01  5.92680188E+01  5.92680188E+01 degrees

 getcut: wavevector=  0.0000  0.0000  0.0000  ngfft=  72  72  72
         ecut(hartree)=     42.000   => boxcut(ratio)=   2.20174

 getcut : COMMENT -
  Note that boxcut > 2.2 ; recall that boxcut=Gcut(box)/Gcut(sphere) = 2
  is sufficient for exact treatment of convolution.
  Such a large boxcut is a waste : you could raise ecut
  e.g. ecut=   50.900499 Hartrees makes boxcut=2

--- Pseudopotential description ------------------------------------------------
- pspini: atom type   1  psp file is /scratch/users/j/a/jabreu/pseudos/PBEsol/Ca.psp8
- pspatm: opening atomic psp file    /scratch/users/j/a/jabreu/pseudos/PBEsol/Ca.psp8
- Ca    ONCVPSP-3.3.0  r_core=   1.45885   1.45885   1.85192
- 20.00000  10.00000    180112                znucl, zion, pspdat
    8 -116133    2    4       400   0.00000   pspcod,pspxc,lmax,lloc,mmax,r2well
    3.99000000000000    6.00000000000000    0.00000000000000   rchrg,fchrg,qchrg
     nproj     2     2     2
     extension_switch     1
  pspatm : epsatm=   12.46045226
         --- l  ekb(1:nproj) -->
             0   10.054847    0.973777
             1    2.998958    0.458102
             2   -3.447298   -1.091650
 pspatm: atomic psp has been read  and splines computed

- pspini: atom type   2  psp file is /scratch/users/j/a/jabreu/pseudos/PBEsol/Sn.psp8
- pspatm: opening atomic psp file    /scratch/users/j/a/jabreu/pseudos/PBEsol/Sn.psp8
- Sn    ONCVPSP-3.3.0  r_core=   2.27326   2.62311   1.85601
- 50.00000  14.00000    180112                znucl, zion, pspdat
    8 -116133    2    4       600   0.00000   pspcod,pspxc,lmax,lloc,mmax,r2well
    5.99000000000000    6.50000000000000    0.00000000000000   rchrg,fchrg,qchrg
     nproj     2     2     2
     extension_switch     1
  pspatm : epsatm=   32.44586081
         --- l  ekb(1:nproj) -->
             0    5.587869    0.749373
             1    4.197111    0.728791
             2   -5.271877   -1.523486
 pspatm: atomic psp has been read  and splines computed

- pspini: atom type   3  psp file is /scratch/users/j/a/jabreu/pseudos/PBEsol/F.psp8
- pspatm: opening atomic psp file    /scratch/users/j/a/jabreu/pseudos/PBEsol/F.psp8
- F     ONCVPSP-3.3.0  r_core=   1.30942   1.45782   1.60379
-  9.00000   7.00000    180112                znucl, zion, pspdat
    8 -116133    2    4       600   0.00000   pspcod,pspxc,lmax,lloc,mmax,r2well
    5.99000000000000    2.50000000000000    0.00000000000000   rchrg,fchrg,qchrg
     nproj     2     2     1
     extension_switch     1
  pspatm : epsatm=    4.89824824
         --- l  ekb(1:nproj) -->
             0    6.506434    1.065875
             1   -3.978753   -1.295852
             2   -2.394754
 pspatm: atomic psp has been read  and splines computed

   4.90352296E+03                                ecore*ucvol(ha*bohr**3)

-inwffil : will read wavefunctions from disk file /scratch/users/j/a/jabreu/flow_simple_8atoms/flow/w457/t1/indata/in_WFK

 ==>  initialize data related to q vector <==

 The list of irreducible perturbations for this q vector is:
    1)    idir= 1    ipert=   9
    2)    idir= 2    ipert=   9
    3)    idir= 3    ipert=   9

 Perturbation wavevector (in red.coord.)   0.000000  0.000000  0.000000
 Perturbation : derivative vs k along direction   1

 dfpt_looppert : COMMENT -
  In a d/dk calculation, iscf is set to -3 automatically.
 The set of symmetries contains only one element for this perturbation.
 symkpt : not enough symmetry to change the number of k points.

[...]

 Initialisation of the first-order wave-functions :
  ireadwf=   0

--- !BeginCycle
iteration_state: {dtset: 1, }
solver: {iscf: 7, nstep: 2000, nline: 4, wfoptalg: 0, }
tolerances: {tolwfr: 1.00E-20, }
...

     iter   2DEtotal(Ha)        deltaE(Ha) residm    vres2
-ETOT  1  -41.723841657768     -4.172E+01 4.157E-02 0.000E+00
 ETOT  2  -41.760644651083     -3.680E-02 6.386E-03 0.000E+00
 ETOT  3  -41.760905117593     -2.605E-04 2.829E-04 0.000E+00
 ETOT  4  -41.760908307132     -3.190E-06 1.823E-04 0.000E+00
 ETOT  5  -41.760908358678     -5.155E-08 2.580E-05 0.000E+00
 ETOT  6  -41.760908359599     -9.210E-10 1.059E-05 0.000E+00
 ETOT  7  -41.760908359616     -1.734E-11 2.548E-06 0.000E+00
 ETOT  8  -41.760908359617     -3.695E-13 1.224E-06 0.000E+00
 ETOT  9  -41.760908359617     -1.421E-14 3.186E-07 0.000E+00
 ETOT 10  -41.760908359617      0.000E+00 1.614E-07 0.000E+00
 ETOT 11  -41.760908359617      0.000E+00 4.333E-08 0.000E+00
 ETOT 12  -41.760908359617      1.421E-14 2.233E-08 0.000E+00
 ETOT 13  -41.760908359617      0.000E+00 6.097E-09 0.000E+00
 ETOT 14  -41.760908359617      0.000E+00 3.175E-09 0.000E+00
[...]
  -0.00000    0.00000    0.00000   -0.00000   -0.00000    0.00000    0.00360    0.00000
  -0.02233   -0.00000

 Eight components of 2nd-order total energy (hartree) are
 1,2,3: 0th-order hamiltonian combined with 1st-order wavefunctions
     kin0=   5.18352351E+01 eigvalue=   5.74726744E+00  local=  -2.41236469E+01
 4,5,6: 1st-order hamiltonian combined with 1st and 0th-order wfs
     kin1=  -6.46596222E+01  Hartree=   0.00000000E+00     xc=   0.00000000E+00
 7,8,9: eventually, occupation + non-local contributions
    edocc=   5.91317761E+00     enl0=   2.38887510E+00   enl1=  -1.88621946E+01
 1-9 gives the relaxation energy (to be shifted if some occ is /=2.0)
   erelax=  -4.17609084E+01
  No Ewald or frozen-wf contrib.: the relaxation energy is the total one
 2DEtotal=   -0.4176090836E+02 Ha. Also 2DEtotal=   -0.113637210772E+04 eV
    (  non-var. 2DEtotal :   -4.1760908360E+01 Ha)

 Perturbation wavevector (in red.coord.)   0.000000  0.000000  0.000000
 Perturbation : derivative vs k along direction   2
 The set of symmetries contains only one element for this perturbation.
 symkpt : not enough symmetry to change the number of k points.

[...]

 Perturbation wavevector (in red.coord.)   0.000000  0.000000  0.000000
 Perturbation : derivative vs k along direction   3
 The set of symmetries contains only one element for this perturbation.
 symkpt : not enough symmetry to change the number of k points.

-inwffil : will read wavefunctions from disk file /scratch/users/j/a/jabreu/flow_simple_8atoms/flow/w457/t1/indata/in_WFK

 Initialisation of the first-order wave-functions :
  ireadwf=   0

--- !BeginCycle
iteration_state: {dtset: 1, }
solver: {iscf: 7, nstep: 2000, nline: 4, wfoptalg: 0, }
tolerances: {tolwfr: 1.00E-20, }
...

     iter   2DEtotal(Ha)        deltaE(Ha) residm    vres2
-ETOT  1  -41.721387516568     -4.172E+01 4.550E-02 0.000E+00
 ETOT  2  -41.760562141845     -3.917E-02 9.646E-03 0.000E+00
 ETOT  3  -41.760800694759     -2.386E-04 7.619E-04 0.000E+00
 ETOT  4  -41.760803226483     -2.532E-06 3.697E-04 0.000E+00
 ETOT  5  -41.760803262891     -3.641E-08 5.465E-05 0.000E+00
 ETOT  6  -41.760803263501     -6.100E-10 2.786E-05 0.000E+00
 ETOT  7  -41.760803263512     -1.110E-11 4.278E-06 0.000E+00
 ETOT  8  -41.760803263513     -1.847E-13 2.514E-06 0.000E+00
 ETOT  9  -41.760803263513     -2.842E-14 3.684E-07 0.000E+00
 ETOT 10  -41.760803263513      4.263E-14 2.382E-07 0.000E+00
 ETOT 11  -41.760803263513     -2.842E-14 4.166E-08 0.000E+00
 ETOT 12  -41.760803263513     -7.105E-15 2.355E-08 0.000E+00
 ETOT 13  -41.760803263513     -7.105E-15 5.810E-09 0.000E+00
 ETOT 14  -41.760803263513      0.000E+00 3.319E-09 0.000E+00
 ETOT 15  -41.760803263513      7.105E-15 8.194E-10 0.000E+00
 ETOT 16  -41.760803263513     -7.105E-15 4.678E-10 0.000E+00
 ETOT 17  -41.760803263513      7.105E-15 1.162E-10 0.000E+00
 ETOT 18  -41.760803263513      0.000E+00 6.615E-11 0.000E+00
 ETOT 19  -41.760803263513     -7.105E-15 1.657E-11 0.000E+00
 ETOT 20  -41.760803263513     -1.421E-14 9.413E-12 0.000E+00
 ETOT 21  -41.760803263513      1.421E-14 2.377E-12 0.000E+00
 ETOT 22  -41.760803263513      1.421E-14 1.348E-12 0.000E+00
 ETOT 23  -41.760803263513      0.000E+00 3.426E-13 0.000E+00
 ETOT 24  -41.760803263513      0.000E+00 1.941E-13 0.000E+00
 ETOT 25  -41.760803263513     -1.421E-14 4.954E-14 0.000E+00
 ETOT 26  -41.760803263513      1.421E-14 2.805E-14 0.000E+00
 ETOT 27  -41.760803263513     -7.105E-15 7.178E-15 0.000E+00
 ETOT 28  -41.760803263513      7.105E-15 4.064E-15 0.000E+00
 ETOT 29  -41.760803263513      0.000E+00 1.042E-15 0.000E+00
 ETOT 30  -41.760803263513     -7.105E-15 5.897E-16 0.000E+00
 ETOT 31  -41.760803263513      7.105E-15 1.513E-16 0.000E+00
 ETOT 32  -41.760803263513      7.105E-15 8.566E-17 0.000E+00
 ETOT 33  -41.760803263513     -7.105E-15 2.199E-17 0.000E+00
 ETOT 34  -41.760803263513      0.000E+00 1.245E-17 0.000E+00
 ETOT 35  -41.760803263513      0.000E+00 3.198E-18 0.000E+00
 ETOT 36  -41.760803263513      0.000E+00 1.812E-18 0.000E+00
 ETOT 37  -41.760803263513     -1.421E-14 4.653E-19 0.000E+00
 ETOT 38  -41.760803263513      0.000E+00 2.637E-19 0.000E+00
 ETOT 39  -41.760803263513      1.421E-14 6.772E-20 0.000E+00
 ETOT 40  -41.760803263513     -1.421E-14 3.839E-20 0.000E+00
 ETOT 41  -41.760803263513      1.421E-14 9.859E-21 0.000E+00

 At SCF step   41   max residual=  9.86E-21 < tolwfr=  1.00E-20 =>converged.

 ----iterations are completed or convergence reached----

 dfpt_looppert: DFPT cycle converged with prtwf=-1. Will skip output of the 1st-order WFK file.
 dfpt_looppert : ek2=    6.3367370157E+01
          f-sum rule ratio=    1.0203848346E+00
 prteigrs : about to open file /scratch/users/j/a/jabreu/flow_simple_8atoms/flow/w457/t1/tmpdata/tmp_1WF1_EIG
 Expectation of eigenvalue derivatives (hartree) for nkpt=   1  k points:
  (in case of degenerate eigenvalues, averaged derivative)
 kpt#   1, nband= 42, wtk=  1.00000, kpt=  0.0000  0.0000  0.0000 (reduced coord)
  -0.00000   -0.00000   -0.00000    0.00000    0.00000   -0.00000   -0.00000   -0.00000
  -0.00000    0.00000    0.00000    0.00000    0.00000    0.00000    0.00000    0.00000
  -0.00000   -0.00000    0.00000    0.00000    0.00000    0.00000    0.00000    0.00000
   0.00000    0.00000   -0.00000   -0.00000   -0.00000   -0.00000   -0.00000   -0.00000
  -0.00000   -0.00000   -0.00000    0.00000    0.00000   -0.00000   -0.00049    0.00000
   0.07295   -0.00000

 Eight components of 2nd-order total energy (hartree) are
 1,2,3: 0th-order hamiltonian combined with 1st-order wavefunctions
     kin0=   5.18755681E+01 eigvalue=   5.77777152E+00  local=  -2.41581660E+01
 4,5,6: 1st-order hamiltonian combined with 1st and 0th-order wfs
     kin1=  -6.46591035E+01  Hartree=   0.00000000E+00     xc=   0.00000000E+00
 7,8,9: eventually, occupation + non-local contributions
    edocc=   5.86954627E+00     enl0=   2.39608342E+00   enl1=  -1.88625030E+01
 1-9 gives the relaxation energy (to be shifted if some occ is /=2.0)
   erelax=  -4.17608033E+01
  No Ewald or frozen-wf contrib.: the relaxation energy is the total one
 2DEtotal=   -0.4176080326E+02 Ha. Also 2DEtotal=   -0.113636924791E+04 eV
    (  non-var. 2DEtotal :   -4.1760803264E+01 Ha)

 CALCULATION OF EFFECTIVE MASSES
 NOTE : Additional infos (eff. mass eigenvalues, eigenvectors and, if degenerate, average mass) are available in stdout.

 COMMENTS:
 - At k-point ( 0.000, 0.000, 0.000), bands    32 through    33
   are DEGENERATE (effective mass tensor is therefore not defined).
   See Section IIIB Eqs. (67)-(70) and Appendix E of PRB 93 205147 (2016).
 - Angular average effective mass for Frohlich model is to be averaged over degenerate bands. See later.
 - Associated theta integrals calculated with ntheta=   1000 points.

 K-point ( 0.000, 0.000, 0.000) | band =    32
 Transport equivalent effective mass tensor:
             -4.6441635535              0.0822656321              0.2009241937
              0.0822656321             -4.7017264196              0.1425499194
              0.2009241937              0.1425499194             -4.4090872847
 Transport equivalent effective mass tensor eigenvalues:
             -4.7601001521             -4.7591577533             -4.2357193523
 Angular average effective mass 1/(<1/m>)=  -4.2132455960
 Angular average effective mass for Frohlich model (<m**0.5>)**2=  -4.2385225948
 Effective masses along directions: (cart. coord. / red. coord. -> eff. mass)
    1:   1.000000  0.000000  0.000000 /   0.947292  0.320371  0.000000 ->  -4.4314925601
    2:   0.000000  1.000000  0.000000 /   0.000000  1.000000  0.000000 ->  -5.0916737371
    3:   0.000000  0.000000  1.000000 /   0.414183  0.414183  0.810497 ->  -4.3369433671
    4:   0.577350  0.577350  0.577350 /   0.585878  0.688492  0.427464 ->  -3.9333674446
    5:   0.000000  0.707107  0.707107 /   0.294873  0.761638  0.577025 ->  -3.7901560856
    6:   0.707107  0.000000  0.707107 /   0.730394  0.427243  0.532905 ->  -4.0530555983
    7:   0.707107  0.707107  0.000000 /   0.615862  0.787854  0.000000 ->  -3.7957633833

 K-point ( 0.000, 0.000, 0.000) | band =    33
 Transport equivalent effective mass tensor:
            -11.3737595394              0.8684362086              2.1789046852
              0.8684362086            -11.9929029314              1.5307404434
              2.1789046852              1.5307404434             -8.7805626904
 Transport equivalent effective mass tensor eigenvalues:
            -12.6129701931            -12.6043602055             -6.9298947625
 Angular average effective mass 1/(<1/m>)=  -7.6649850501
 Angular average effective mass for Frohlich model (<m**0.5>)**2=  -8.0731025383
 Effective masses along directions: (cart. coord. / red. coord. -> eff. mass)
    1:   1.000000  0.000000  0.000000 /   0.947292  0.320371  0.000000 ->  -7.8794963038
    2:   0.000000  1.000000  0.000000 /   0.000000  1.000000  0.000000 ->  -7.0645169683
    3:   0.000000  0.000000  1.000000 /   0.414183  0.414183  0.810497 ->  -5.4844899467
    4:   0.577350  0.577350  0.577350 /   0.585878  0.688492  0.427464 ->  -5.4060894629
    5:   0.000000  0.707107  0.707107 /   0.294873  0.761638  0.577025 ->  -6.7834275021
    6:   0.707107  0.000000  0.707107 /   0.730394  0.427243  0.532905 ->  -5.3512831022
    7:   0.707107  0.707107  0.000000 /   0.615862  0.787854  0.000000 ->  -9.7825261550

 Angular average effective mass for Frohlich model, averaged over degenerate bands.
 Value of     (<<m**0.5>>)**2 =     6.002715E+00
 Absolute Value of <<m**0.5>> =     2.450044E+00

 K-point ( 0.000, 0.000, 0.000) | band =    34
 Effective mass tensor:
              0.7836055543             -0.0026266178             -0.0072078865
             -0.0026266178              0.7854652849             -0.0050081071
             -0.0072078865             -0.0050081071              0.7749639843
 Effective mass tensor eigenvalues:
              0.7689468178              0.7873184016              0.7877696042
 Angular average effective mass 1/(<1/m>)=   0.7812457475
 Angular average effective mass for Frohlich model (<m**0.5>)**2=   0.7812756280
 Effective masses along directions: (cart. coord. / red. coord. -> eff. mass)
    1:   1.000000  0.000000  0.000000 /   0.947292  0.320371  0.000000 ->   0.7835294161
    2:   0.000000  1.000000  0.000000 /   0.000000  1.000000  0.000000 ->   0.7854238005
    3:   0.000000  0.000000  1.000000 /   0.414183  0.414183  0.810497 ->   0.7748654428
    4:   0.577350  0.577350  0.577350 /   0.585878  0.688492  0.427464 ->   0.7713981484
    5:   0.000000  0.707107  0.707107 /   0.294873  0.761638  0.577025 ->   0.7751093180
    6:   0.707107  0.000000  0.707107 /   0.730394  0.427243  0.532905 ->   0.7720159133
    7:   0.707107  0.707107  0.000000 /   0.615862  0.787854  0.000000 ->   0.7818113798

 END OF EFFECTIVE MASSES SECTION

 ---- first-order wavefunction calculations are completed ----

 Total localisation tensor (bohr^2) in cartesian coordinates
  WARNING : still subject to testing - especially symmetries.
      direction              matrix element
   alpha     beta       real part   imaginary part
     1        1       0.6164785780    0.0000000000
     1        2       0.1760765999    0.0000000000
     1        3       0.4401188173    0.0000000000
     2        1       0.1760765999    0.0000000000
     2        2       0.4899557356    0.0000000000
     2        3       0.3095229392    0.0000000000
     3        1       0.4401188173    0.0000000000
     3        2       0.3095229392    0.0000000000
     3        3       1.1397752373    0.0000000000

 respfn : d/dk was computed, but no 2DTE, so no DDB output.

== END DATASET(S) ==============================================================

 -outvars: echo values of variables after computation  --------
            acell      1.0000000000E+00  1.0000000000E+00  1.0000000000E+00 Bohr
              amu      4.00780000E+01  1.18710000E+02  1.89984032E+01
             ecut      4.20000000E+01 Hartree
           etotal     -4.1760803264E+01
            fcart      0.0000000000E+00  0.0000000000E+00  0.0000000000E+00
                       0.0000000000E+00  0.0000000000E+00  0.0000000000E+00
                       0.0000000000E+00  0.0000000000E+00  0.0000000000E+00
                       0.0000000000E+00  0.0000000000E+00  0.0000000000E+00
                       0.0000000000E+00  0.0000000000E+00  0.0000000000E+00
                       0.0000000000E+00  0.0000000000E+00  0.0000000000E+00
                       0.0000000000E+00  0.0000000000E+00  0.0000000000E+00
                       0.0000000000E+00  0.0000000000E+00  0.0000000000E+00
-          fftalg         512
           irdden           1
           irdwfk           1
           istwfk        1
              ixc     -116133
           kptopt           0
P           mkmem           1
P          mkqmem           1
P          mk1mem           1
            natom           8
            nband          42
           nbdbuf           4
            ngfft          72      72      72
             nkpt           1
            nstep        2000
             nsym           6
           ntypat           3
              occ      2.000000  2.000000  2.000000  2.000000  2.000000  2.000000
                       2.000000  2.000000  2.000000  2.000000  2.000000  2.000000
                       2.000000  2.000000  2.000000  2.000000  2.000000  2.000000
                       2.000000  2.000000  2.000000  2.000000  2.000000  2.000000
                       2.000000  2.000000  2.000000  2.000000  2.000000  2.000000
                       2.000000  2.000000  2.000000  0.000000  0.000000  0.000000
                       0.000000  0.000000  0.000000  0.000000  0.000000  0.000000
        optdriver           1
            prtwf          -1
            rfdir           1       1       1
           rfelfd           2
            rprim      9.6362827832E+00  0.0000000000E+00  5.7288834494E+00
                       3.2589581950E+00  9.0684694056E+00  5.7288834494E+00
                       0.0000000000E+00  0.0000000000E+00  1.1210622260E+01
          spgroup         148
           strten      0.0000000000E+00  0.0000000000E+00  0.0000000000E+00
                       0.0000000000E+00  0.0000000000E+00  0.0000000000E+00
           symrel      1  0  0   0  1  0   0  0  1      -1  0  0   0 -1  0   0  0 -1
                       0  0  1   1  0  0   0  1  0       0  0 -1  -1  0  0   0 -1  0
                       0  1  0   0  0  1   1  0  0       0 -1  0   0  0 -1  -1  0  0
           tolwfr      1.00000000E-20
            typat      1  2  3  3  3  3  3  3
           useylm           1
           xangst      0.0000000000E+00  0.0000000000E+00  0.0000000000E+00
                       3.4119338125E+00  2.3994136631E+00  5.9977974491E+00
                       1.9933385312E+00  1.0159405379E+00  5.9647862473E+00
                       2.3455551351E+00  3.5228143414E+00  4.7615500498E+00
                       2.5298112963E+00  3.2665329680E+00  7.5461721381E+00
                       4.4783124899E+00  1.2760129849E+00  7.2340448484E+00
                       4.8305290938E+00  3.7828867883E+00  6.0308086509E+00
                       4.2940563286E+00  1.5322943582E+00  4.4494227602E+00
            xcart      0.0000000000E+00  0.0000000000E+00  0.0000000000E+00
                       6.4476204891E+00  4.5342347028E+00  1.1334194579E+01
                       3.7668639140E+00  1.9198493840E+00  1.1271812449E+01
                       4.4324568349E+00  6.6571543222E+00  8.9980255622E+00
                       4.7806505179E+00  6.1728527136E+00  1.4260198693E+01
                       8.4627841433E+00  2.4113150834E+00  1.3670363597E+01
                       9.1283770642E+00  7.1486200216E+00  1.1396576710E+01
                       8.1145904603E+00  2.8956166920E+00  8.4081904662E+00
             xred      0.0000000000E+00  0.0000000000E+00  0.0000000000E+00
                       5.0000000000E-01  5.0000000000E-01  5.0000000000E-01
                       3.1930600000E-01  2.1170600000E-01  7.3409900000E-01
                       2.1170600000E-01  7.3409900000E-01  3.1930600000E-01
                       2.6590100000E-01  6.8069400000E-01  7.8829400000E-01
                       7.8829400000E-01  2.6590100000E-01  6.8069400000E-01
                       6.8069400000E-01  7.8829400000E-01  2.6590100000E-01
                       7.3409900000E-01  3.1930600000E-01  2.1170600000E-01
            znucl       20.00000   50.00000    9.00000

- Timing analysis has been suppressed with timopt=0

 Suggested references for the acknowledgment of ABINIT usage.

 Calculation completed.
.Delivered   6 WARNINGs and  11 COMMENTs to log file.