.Version 9.5.2 of ABINIT

 ABINIT is a project of the Universite Catholique de Louvain,
 Corning Inc. and other collaborators, see ~abinit/doc/developers/contributors.txt .
 acknowledgments of the ABINIT effort.

.Starting date : Mon 24 May 2021.
- ( at 10h48 )

- input  file    -> /scratch/users/j/a/jabreu/flow_simple_10atoms/flow/w257/t1/run.abi
- output file    -> /scratch/users/j/a/jabreu/flow_simple_10atoms/flow/w257/t1/run.abo
- root for input  files -> /scratch/users/j/a/jabreu/flow_simple_10atoms/flow/w257/t1/indata/in
- root for output files -> /scratch/users/j/a/jabreu/flow_simple_10atoms/flow/w257/t1/outdata/out

 Symmetries : space group R3 c (#161); Bravais hR (rhombohedral)
     intxc =       0      iscf =       7    lmnmax =      18     lnmax =       6
     mgfft =      64  mpssoang =       3    mqgrid =    3001     natom =      10
  nloc_mem =       1    nspden =       1   nspinor =       1    nsppol =       1
      nsym =       6    n1xccc =    2501    ntypat =       3    occopt =       1
   xclevel =       2
-    mband =          49        mffmem =           1         mkmem =           1
-   mkqmem =           1        mk1mem =           1           mpw =       11173
      nfft =      262144          nkpt =           1
  Rough estimation (10% accuracy) of disk space for files :

------------- Echo of variables that govern the present computation ------------
-
- outvars: echo of selected default values
-   iomode0 =  0 , fftalg0 =512 , wfoptalg0 =  0
-
- outvars: echo of global parameters not present in the input file
-  max_nthreads =    0
-
 -outvars: echo values of preprocessed input variables --------
            acell      1.0000000000E+00  1.0000000000E+00  1.0000000000E+00 Bohr
              amu      2.29897680E+01  9.29063800E+01  1.59994000E+01
             ecut      4.40000000E+01 Hartree
-          fftalg         512
           irdden           1
           irdwfk           1
           istwfk        1
              ixc     -116133
           kptopt           0
P           mkmem           1
P          mkqmem           1
P          mk1mem           1
            natom          10
            nband          49
           nbdbuf           4
            ngfft          64      64      64
             nkpt           1
            nstep        2000
             nsym           6
           ntypat           3
              occ      2.000000  2.000000  2.000000  2.000000  2.000000  2.000000
                       2.000000  2.000000  2.000000  2.000000  2.000000  2.000000
                       2.000000  2.000000  2.000000  2.000000  2.000000  2.000000
                       2.000000  2.000000  2.000000  2.000000  2.000000  2.000000
                       2.000000  2.000000  2.000000  2.000000  2.000000  2.000000
                       2.000000  2.000000  2.000000  2.000000  2.000000  2.000000
                       2.000000  2.000000  2.000000  2.000000  0.000000  0.000000
                       0.000000  0.000000  0.000000  0.000000  0.000000  0.000000
                       0.000000
        optdriver           1
            prtwf          -1
            rfdir           1       1       1
           rfelfd           2
            rprim      9.0192813427E+00  0.0000000000E+00  5.3905154496E+00
                       3.0581762909E+00  8.4849863707E+00  5.3905154496E+00
                       0.0000000000E+00  0.0000000000E+00  1.0507382774E+01
          spgroup         161
           symrel      1  0  0   0  1  0   0  0  1       0  1  0   1  0  0   0  0  1
                       0  0  1   1  0  0   0  1  0       1  0  0   0  0  1   0  1  0
                       0  1  0   0  0  1   1  0  0       0  0  1   0  1  0   1  0  0
            tnons      0.0000000  0.0000000  0.0000000     0.5000000  0.5000000  0.5000000
                       0.0000000  0.0000000 -0.0000000     0.5000000  0.5000000  0.5000000
                       0.0000000 -0.0000000 -0.0000000     0.5000000  0.5000000  0.5000000
           tolwfr      1.00000000E-20
            typat      1  1  2  2  3  3  3  3  3  3
           useylm           1
           xangst      1.7336283765E+00  1.2179560958E+00  3.0557919683E+00
                       4.9291860352E+00  3.4629867971E+00  8.6884636297E+00
                       8.0956257726E-02  5.6875607786E-02  1.4269810387E-01
                       3.2765139164E+00  2.3019063091E+00  5.7753697652E+00
                       4.9982291099E+00  3.0753193857E+00  5.6389532833E+00
                       3.6649129124E+00  1.0985518929E+00  7.1832635183E+00
                       2.4866507649E+00  3.6593865729E+00  6.8310420562E+00
                       2.7085180267E+00  3.3435825942E+00  4.0509083134E+00
                       1.3923365716E+00  1.4143558716E+00  5.5665491077E+00
                       3.8533805301E+00  8.3028868438E-01  4.4031297755E+00
            xcart      3.2760828479E+00  2.3016034630E+00  5.7746099392E+00
                       9.3148116647E+00  6.5440966483E+00  1.6418816776E+01
                       1.5298515584E-01  1.0747932236E-01  2.6966033599E-01
                       6.1917139726E+00  4.3499725077E+00  1.0913867172E+01
                       9.4452841671E+00  5.8115114101E+00  1.0656077382E+01
                       6.9256817053E+00  2.0759622204E+00  1.3574400790E+01
                       4.6990889337E+00  6.9152384372E+00  1.2908798688E+01
                       5.1183572964E+00  6.3184554058E+00  7.6551073017E+00
                       2.6311348052E+00  2.6727452518E+00  1.0519253319E+01
                       7.2818338877E+00  1.5690182247E+00  8.3207094032E+00
             xred      2.7125600000E-01  2.7125600000E-01  2.7125600000E-01
                       7.7125600000E-01  7.7125600000E-01  7.7125600000E-01
                       1.2667000000E-02  1.2667000000E-02  1.2667000000E-02
                       5.1266700000E-01  5.1266700000E-01  5.1266700000E-01
                       8.1499700000E-01  6.8491700000E-01  2.4466300000E-01
                       6.8491700000E-01  2.4466300000E-01  8.1499700000E-01
                       2.4466300000E-01  8.1499700000E-01  6.8491700000E-01
                       3.1499700000E-01  7.4466300000E-01  1.8491700000E-01
                       1.8491700000E-01  3.1499700000E-01  7.4466300000E-01
                       7.4466300000E-01  1.8491700000E-01  3.1499700000E-01
            znucl       11.00000   41.00000    8.00000

 chkinp: Checking input parameters for consistency.

== DATASET  1 ==================================================================
-   mpi_nproc: 1, omp_nthreads: -1 (-1 if OMP is not activated)

--- !DatasetInfo
iteration_state: {dtset: 1, }
dimensions: {natom: 10, nkpt: 1, mband: 49, nsppol: 1, nspinor: 1, nspden: 1, mpw: 11173, }
cutoff_energies: {ecut:  44.0, pawecutdg:  -1.0, }
electrons: {nelect:   8.00000000E+01, charge:   0.00000000E+00, occopt:   1.00000000E+00, tsmear:   1.00000000E-02, }
meta: {optdriver: 1, rfelfd: 2, }
...

 Real(R)+Recip(G) space primitive vectors, cartesian coordinates (Bohr,Bohr^-1):
 R(1)=  9.0192813  0.0000000  5.3905154  G(1)=  0.1108736 -0.0399613  0.0000000
 R(2)=  3.0581763  8.4849864  5.3905154  G(2)=  0.0000000  0.1178552  0.0000000
 R(3)=  0.0000000  0.0000000 10.5073828  G(3)= -0.0568806 -0.0399613  0.0951712
 Unit cell volume ucvol=  8.0411402E+02 bohr^3
 Angles (23,13,12)=  5.91346854E+01  5.91346854E+01  5.91346854E+01 degrees

 getcut: wavevector=  0.0000  0.0000  0.0000  ngfft=  64  64  64
         ecut(hartree)=     44.000   => boxcut(ratio)=   2.04018

--- Pseudopotential description ------------------------------------------------
- pspini: atom type   1  psp file is /scratch/users/j/a/jabreu/pseudos/PBEsol/Na.psp8
- pspatm: opening atomic psp file    /scratch/users/j/a/jabreu/pseudos/PBEsol/Na.psp8
- Na    ONCVPSP-3.3.0  r_core=   1.20708   1.55069
- 11.00000   9.00000    180112                znucl, zion, pspdat
    8 -116133    1    4       400   0.00000   pspcod,pspxc,lmax,lloc,mmax,r2well
    3.99000000000000    0.00000000000000    0.00000000000000   rchrg,fchrg,qchrg
     nproj     2     2
     extension_switch     1
  pspatm : epsatm=    9.32878306
         --- l  ekb(1:nproj) -->
             0    2.657905   -0.678300
             1   -6.761319   -2.404728
 pspatm: atomic psp has been read  and splines computed

- pspini: atom type   2  psp file is /scratch/users/j/a/jabreu/pseudos/PBEsol/Nb.psp8
- pspatm: opening atomic psp file    /scratch/users/j/a/jabreu/pseudos/PBEsol/Nb.psp8
- Nb    ONCVPSP-3.3.0  r_core=   1.50879   1.40458   1.40458
- 41.00000  13.00000    180112                znucl, zion, pspdat
    8 -116133    2    4       600   0.00000   pspcod,pspxc,lmax,lloc,mmax,r2well
    5.99000000000000    5.00000000000000    0.00000000000000   rchrg,fchrg,qchrg
     nproj     2     2     2
     extension_switch     1
  pspatm : epsatm=   15.66753381
         --- l  ekb(1:nproj) -->
             0   12.953547    1.345168
             1    7.772306    0.779703
             2    3.518917    1.091480
 pspatm: atomic psp has been read  and splines computed

- pspini: atom type   3  psp file is /scratch/users/j/a/jabreu/pseudos/PBEsol/O.psp8
- pspatm: opening atomic psp file    /scratch/users/j/a/jabreu/pseudos/PBEsol/O.psp8
- O     ONCVPSP-3.3.0  r_core=   1.35509   1.45563   1.26150
-  8.00000   6.00000    180112                znucl, zion, pspdat
    8 -116133    2    4       600   0.00000   pspcod,pspxc,lmax,lloc,mmax,r2well
    5.99000000000000    4.00000000000000    0.00000000000000   rchrg,fchrg,qchrg
     nproj     2     2     1
     extension_switch     1
  pspatm : epsatm=    6.22910522
         --- l  ekb(1:nproj) -->
             0    6.050032    0.820363
             1   -4.739617   -1.153841
             2   -1.335834
 pspatm: atomic psp has been read  and splines computed

   6.98938120E+03                                ecore*ucvol(ha*bohr**3)

 ==>  initialize data related to q vector <==

 The list of irreducible perturbations for this q vector is:
    1)    idir= 1    ipert=  11
    2)    idir= 2    ipert=  11
    3)    idir= 3    ipert=  11

 Perturbation wavevector (in red.coord.)   0.000000  0.000000  0.000000
 Perturbation : derivative vs k along direction   1

 dfpt_looppert : COMMENT -
  In a d/dk calculation, iscf is set to -3 automatically.
 The set of symmetries contains only one element for this perturbation.
 symkpt : not enough symmetry to change the number of k points.

 Initialisation of the first-order wave-functions :
  ireadwf=   0

--- !BeginCycle
iteration_state: {dtset: 1, }
solver: {iscf: 7, nstep: 2000, nline: 4, wfoptalg: 0, }
tolerances: {tolwfr: 1.00E-20, }
...

     iter   2DEtotal(Ha)        deltaE(Ha) residm    vres2
-ETOT  1  -50.033607538837     -5.003E+01 3.987E-02 0.000E+00
 ETOT  2  -50.080650303564     -4.704E-02 2.772E-03 0.000E+00
 ETOT  3  -50.081038366402     -3.881E-04 1.297E-04 0.000E+00
 ETOT  4  -50.081043148924     -4.783E-06 1.127E-05 0.000E+00
 ETOT  5  -50.081043225504     -7.658E-08 7.691E-07 0.000E+00
 ETOT  6  -50.081043226875     -1.371E-09 7.555E-08 0.000E+00
 ETOT  7  -50.081043226902     -2.718E-11 5.523E-09 0.000E+00
[...]

 At SCF step   19   max residual=  9.39E-21 < tolwfr=  1.00E-20 =>converged.

 ----iterations are completed or convergence reached----

 dfpt_looppert: DFPT cycle converged with prtwf=-1. Will skip output of the 1st-order WFK file.
 dfpt_looppert : ek2=    8.7735917332E+01
          f-sum rule ratio=    1.1034831650E+00
 prteigrs : about to open file /scratch/users/j/a/jabreu/flow_simple_10atoms/flow/w257/t1/tmpdata/tmp_1WF1_EIG
 Expectation of eigenvalue derivatives (hartree) for nkpt=   1  k points:
  (in case of degenerate eigenvalues, averaged derivative)
 kpt#   1, nband= 49, wtk=  1.00000, kpt=  0.0000  0.0000  0.0000 (reduced coord)
  -0.00000   -0.00000    0.00000   -0.00000   -0.00000   -0.00000   -0.00000    0.00000
   0.00000   -0.00000   -0.00000   -0.00000   -0.00000   -0.00000    0.00000    0.00000
  -0.00000   -0.00000   -0.00000   -0.00000    0.00000    0.00000   -0.00000   -0.00000
  -0.00000   -0.00000    0.00000   -0.00000    0.00000    0.00000   -0.00000    0.00000
   0.00000   -0.00000   -0.00000    0.00000    0.00000    0.00000    0.00000    0.00000
  -0.00000   -0.00000    0.00000   -0.00000   -0.00000   -0.00000    0.00000    0.00000
   0.00000

 Eight components of 2nd-order total energy (hartree) are
 1,2,3: 0th-order hamiltonian combined with 1st-order wavefunctions
     kin0=   6.10559666E+01 eigvalue=   1.00112962E+00  local=  -2.48782277E+01
 4,5,6: 1st-order hamiltonian combined with 1st and 0th-order wfs
     kin1=  -9.68151077E+01  Hartree=   0.00000000E+00     xc=   0.00000000E+00
 7,8,9: eventually, occupation + non-local contributions
    edocc=   1.31988898E+01     enl0=  -2.96715189E-01   enl1=  -3.34697872E+00
 1-9 gives the relaxation energy (to be shifted if some occ is /=2.0)
   erelax=  -5.00810432E+01
  No Ewald or frozen-wf contrib.: the relaxation energy is the total one
 2DEtotal=   -0.5008104323E+02 Ha. Also 2DEtotal=   -0.136277449136E+04 eV
    (  non-var. 2DEtotal :   -5.0081043227E+01 Ha)

 Perturbation wavevector (in red.coord.)   0.000000  0.000000  0.000000
 Perturbation : derivative vs k along direction   2
 The set of symmetries contains only one element for this perturbation.
 symkpt : not enough symmetry to change the number of k points.

[...]

 Perturbation wavevector (in red.coord.)   0.000000  0.000000  0.000000
 Perturbation : derivative vs k along direction   3
 The set of symmetries contains only one element for this perturbation.
 symkpt : not enough symmetry to change the number of k points.

 Initialisation of the first-order wave-functions :
  ireadwf=   0

--- !BeginCycle
iteration_state: {dtset: 1, }
solver: {iscf: 7, nstep: 2000, nline: 4, wfoptalg: 0, }
tolerances: {tolwfr: 1.00E-20, }
...

     iter   2DEtotal(Ha)        deltaE(Ha) residm    vres2
-ETOT  1  -50.032756177131     -5.003E+01 3.786E-02 0.000E+00
 ETOT  2  -50.080639302709     -4.788E-02 2.700E-03 0.000E+00
 ETOT  3  -50.081038214993     -3.989E-04 1.416E-04 0.000E+00
 ETOT  4  -50.081043167480     -4.952E-06 1.084E-05 0.000E+00
 ETOT  5  -50.081043247000     -7.952E-08 8.344E-07 0.000E+00
 ETOT  6  -50.081043248425     -1.425E-09 7.206E-08 0.000E+00
 ETOT  7  -50.081043248453     -2.817E-11 5.990E-09 0.000E+00
 ETOT  8  -50.081043248454     -6.111E-13 5.483E-10 0.000E+00
 ETOT  9  -50.081043248454      7.105E-15 4.643E-11 0.000E+00
 ETOT 10  -50.081043248454     -4.263E-14 4.451E-12 0.000E+00
 ETOT 11  -50.081043248454      1.421E-14 3.768E-13 0.000E+00
 ETOT 12  -50.081043248454     -7.105E-15 3.753E-14 0.000E+00
 ETOT 13  -50.081043248454     -7.105E-15 3.155E-15 0.000E+00
 ETOT 14  -50.081043248454      7.105E-15 3.245E-16 0.000E+00
 ETOT 15  -50.081043248454      1.421E-14 2.705E-17 0.000E+00
 ETOT 16  -50.081043248454     -2.132E-14 2.856E-18 0.000E+00
 ETOT 17  -50.081043248454     -1.421E-14 2.362E-19 0.000E+00
 ETOT 18  -50.081043248454      2.132E-14 2.546E-20 0.000E+00
 ETOT 19  -50.081043248454      2.132E-14 9.992E-21 0.000E+00

 At SCF step   19   max residual=  9.99E-21 < tolwfr=  1.00E-20 =>converged.

 ----iterations are completed or convergence reached----

 dfpt_looppert: DFPT cycle converged with prtwf=-1. Will skip output of the 1st-order WFK file.
 dfpt_looppert : ek2=    8.7735917333E+01
          f-sum rule ratio=    1.1034831655E+00
 prteigrs : about to open file /scratch/users/j/a/jabreu/flow_simple_10atoms/flow/w257/t1/tmpdata/tmp_1WF1_EIG
 Expectation of eigenvalue derivatives (hartree) for nkpt=   1  k points:
  (in case of degenerate eigenvalues, averaged derivative)
 kpt#   1, nband= 49, wtk=  1.00000, kpt=  0.0000  0.0000  0.0000 (reduced coord)
   0.00000   -0.00000    0.00000    0.00000    0.00000    0.00000    0.00000    0.00000
   0.00000    0.00000   -0.00000    0.00000    0.00000    0.00000    0.00000    0.00000
  -0.00000   -0.00000   -0.00000   -0.00000   -0.00000   -0.00000    0.00000    0.00000
   0.00000    0.00000    0.00000    0.00000   -0.00000   -0.00000   -0.00000    0.00000
   0.00000    0.00000    0.00000    0.00000    0.00000   -0.00000   -0.00000   -0.00000
   0.00000    0.00000   -0.00000   -0.00000   -0.00000    0.00000    0.00000    0.00000
   0.00000

 Eight components of 2nd-order total energy (hartree) are
 1,2,3: 0th-order hamiltonian combined with 1st-order wavefunctions
     kin0=   6.10559666E+01 eigvalue=   1.00112963E+00  local=  -2.48782277E+01
 4,5,6: 1st-order hamiltonian combined with 1st and 0th-order wfs
     kin1=  -9.68151078E+01  Hartree=   0.00000000E+00     xc=   0.00000000E+00
 7,8,9: eventually, occupation + non-local contributions
    edocc=   1.31988899E+01     enl0=  -2.96715201E-01   enl1=  -3.34697871E+00
 1-9 gives the relaxation energy (to be shifted if some occ is /=2.0)
   erelax=  -5.00810432E+01
  No Ewald or frozen-wf contrib.: the relaxation energy is the total one
 2DEtotal=   -0.5008104325E+02 Ha. Also 2DEtotal=   -0.136277449194E+04 eV
    (  non-var. 2DEtotal :   -5.0081043248E+01 Ha)

 CALCULATION OF EFFECTIVE MASSES
 NOTE : Additional infos (eff. mass eigenvalues, eigenvectors and, if degenerate, average mass) are available in stdout.

 COMMENTS:
 - At k-point ( 0.000, 0.000, 0.000), bands    39 through    40
   are DEGENERATE (effective mass tensor is therefore not defined).
   See Section IIIB Eqs. (67)-(70) and Appendix E of PRB 93 205147 (2016).
 - Angular average effective mass for Frohlich model is to be averaged over degenerate bands. See later.
 - Associated theta integrals calculated with ntheta=   1000 points.

 K-point ( 0.000, 0.000, 0.000) | band =    39
 Transport equivalent effective mass tensor:
             -2.6449836820             -0.1176743341             -0.2952388420
             -0.1176743341             -2.5601550016             -0.2074215219
             -0.2952388420             -0.2074215219             -2.9978886029
 Transport equivalent effective mass tensor eigenvalues:
             -3.2480587268             -2.4774868125             -2.4774817471
 Angular average effective mass 1/(<1/m>)=  -2.2513719848
 Angular average effective mass for Frohlich model (<m**0.5>)**2=  -2.2834026699
 Effective masses along directions: (cart. coord. / red. coord. -> eff. mass)
    1:   1.000000  0.000000  0.000000 /   0.947041  0.321114  0.000000 ->  -2.3575525763
    2:   0.000000  1.000000  0.000000 /   0.000000  1.000000  0.000000 ->  -2.8582493057
    3:   0.000000  0.000000  1.000000 /   0.415245  0.415245  0.809410 ->  -2.6468148646
    4:   0.577350  0.577350  0.577350 /   0.585940  0.688568  0.427258 ->  -2.6144906959
    5:   0.000000  0.707107  0.707107 /   0.295846  0.761526  0.576674 ->  -2.2217484133
    6:   0.707107  0.000000  0.707107 /   0.730204  0.428130  0.532453 ->  -2.6434902344
    7:   0.707107  0.707107  0.000000 /   0.615694  0.787985  0.000000 ->  -1.8884536887

[...]

 Angular average effective mass for Frohlich model, averaged over degenerate bands.
 Value of     (<<m**0.5>>)**2 =     4.242246E+00
 Absolute Value of <<m**0.5>> =     2.059671E+00

 COMMENTS:
 - At k-point ( 0.000, 0.000, 0.000), bands    41 through    42
   are DEGENERATE (effective mass tensor is therefore not defined).
   See Section IIIB Eqs. (67)-(70) and Appendix E of PRB 93 205147 (2016).
 - Angular average effective mass for Frohlich model is to be averaged over degenerate bands. See later.
 - Associated theta integrals calculated with ntheta=   1000 points.

[...]

 K-point ( 0.000, 0.000, 0.000) | band =    42
 Transport equivalent effective mass tensor:
              0.7280861271             -0.0336751479             -0.0844959229
             -0.0336751479              0.7523592726             -0.0593603636
             -0.0844959229             -0.0593603636              0.6270857295
 Transport equivalent effective mass tensor eigenvalues:
              0.7760231746              0.7760176845              0.5554902701
 Angular average effective mass 1/(<1/m>)=   0.5376763498
 Angular average effective mass for Frohlich model (<m**0.5>)**2=   0.5488716778
 Effective masses along directions: (cart. coord. / red. coord. -> eff. mass)
    1:   1.000000  0.000000  0.000000 /   0.947041  0.321114  0.000000 ->   0.5868830186
    2:   0.000000  1.000000  0.000000 /   0.000000  1.000000  0.000000 ->   0.9230604230
    3:   0.000000  0.000000  1.000000 /   0.415245  0.415245  0.809410 ->   0.5130467836
    4:   0.577350  0.577350  0.577350 /   0.585940  0.688568  0.427258 ->   0.4890486540
    5:   0.000000  0.707107  0.707107 /   0.295846  0.761526  0.576674 ->   0.4522995332
    6:   0.707107  0.000000  0.707107 /   0.730204  0.428130  0.532453 ->   0.4958033369
    7:   0.707107  0.707107  0.000000 /   0.615694  0.787985  0.000000 ->   0.4425595478

 Angular average effective mass for Frohlich model, averaged over degenerate bands.
 Value of     (<<m**0.5>>)**2 =     1.452035E+00
 Absolute Value of <<m**0.5>> =     1.205004E+00

 END OF EFFECTIVE MASSES SECTION

 ---- first-order wavefunction calculations are completed ----

 Total localisation tensor (bohr^2) in cartesian coordinates
  WARNING : still subject to testing - especially symmetries.
      direction              matrix element
   alpha     beta       real part   imaginary part
     1        1       1.1119164952    0.0000000000
     1        2       0.3181113286    0.0000000000
     1        3       0.7981256846    0.0000000000
     2        1       0.3181113286    0.0000000000
     2        2       0.8826078129    0.0000000000
     2        3       0.5607211188    0.0000000000
     3        1       0.7981256846    0.0000000000
     3        2       0.5607211188    0.0000000000
     3        3       2.0659412514    0.0000000000

 respfn : d/dk was computed, but no 2DTE, so no DDB output.

== END DATASET(S) ==============================================================

 -outvars: echo values of variables after computation  --------
            acell      1.0000000000E+00  1.0000000000E+00  1.0000000000E+00 Bohr
              amu      2.29897680E+01  9.29063800E+01  1.59994000E+01
             ecut      4.40000000E+01 Hartree
           etotal     -5.0081043248E+01
            fcart      0.0000000000E+00  0.0000000000E+00  0.0000000000E+00
                       0.0000000000E+00  0.0000000000E+00  0.0000000000E+00
                       0.0000000000E+00  0.0000000000E+00  0.0000000000E+00
                       0.0000000000E+00  0.0000000000E+00  0.0000000000E+00
                       0.0000000000E+00  0.0000000000E+00  0.0000000000E+00
                       0.0000000000E+00  0.0000000000E+00  0.0000000000E+00
                       0.0000000000E+00  0.0000000000E+00  0.0000000000E+00
                       0.0000000000E+00  0.0000000000E+00  0.0000000000E+00
                       0.0000000000E+00  0.0000000000E+00  0.0000000000E+00
                       0.0000000000E+00  0.0000000000E+00  0.0000000000E+00
-          fftalg         512
           irdden           1
           irdwfk           1
           istwfk        1
              ixc     -116133
           kptopt           0
P           mkmem           1
P          mkqmem           1
P          mk1mem           1
            natom          10
            nband          49
           nbdbuf           4
            ngfft          64      64      64
             nkpt           1
            nstep        2000
             nsym           6
           ntypat           3
              occ      2.000000  2.000000  2.000000  2.000000  2.000000  2.000000
                       2.000000  2.000000  2.000000  2.000000  2.000000  2.000000
                       2.000000  2.000000  2.000000  2.000000  2.000000  2.000000
                       2.000000  2.000000  2.000000  2.000000  2.000000  2.000000
                       2.000000  2.000000  2.000000  2.000000  2.000000  2.000000
                       2.000000  2.000000  2.000000  2.000000  2.000000  2.000000
                       2.000000  2.000000  2.000000  2.000000  0.000000  0.000000
                       0.000000  0.000000  0.000000  0.000000  0.000000  0.000000
                       0.000000
        optdriver           1
            prtwf          -1
            rfdir           1       1       1
           rfelfd           2
            rprim      9.0192813427E+00  0.0000000000E+00  5.3905154496E+00
                       3.0581762909E+00  8.4849863707E+00  5.3905154496E+00
                       0.0000000000E+00  0.0000000000E+00  1.0507382774E+01
          spgroup         161
           strten      0.0000000000E+00  0.0000000000E+00  0.0000000000E+00
                       0.0000000000E+00  0.0000000000E+00  0.0000000000E+00
           symrel      1  0  0   0  1  0   0  0  1       0  1  0   1  0  0   0  0  1
                       0  0  1   1  0  0   0  1  0       1  0  0   0  0  1   0  1  0
                       0  1  0   0  0  1   1  0  0       0  0  1   0  1  0   1  0  0
            tnons      0.0000000  0.0000000  0.0000000     0.5000000  0.5000000  0.5000000
                       0.0000000  0.0000000 -0.0000000     0.5000000  0.5000000  0.5000000
                       0.0000000 -0.0000000 -0.0000000     0.5000000  0.5000000  0.5000000
           tolwfr      1.00000000E-20
            typat      1  1  2  2  3  3  3  3  3  3
           useylm           1
           xangst      1.7336283765E+00  1.2179560958E+00  3.0557919683E+00
                       4.9291860352E+00  3.4629867971E+00  8.6884636297E+00
                       8.0956257726E-02  5.6875607786E-02  1.4269810387E-01
                       3.2765139164E+00  2.3019063091E+00  5.7753697652E+00
                       4.9982291099E+00  3.0753193857E+00  5.6389532833E+00
                       3.6649129124E+00  1.0985518929E+00  7.1832635183E+00
                       2.4866507649E+00  3.6593865729E+00  6.8310420562E+00
                       2.7085180267E+00  3.3435825942E+00  4.0509083134E+00
                       1.3923365716E+00  1.4143558716E+00  5.5665491077E+00
                       3.8533805301E+00  8.3028868438E-01  4.4031297755E+00
            xcart      3.2760828479E+00  2.3016034630E+00  5.7746099392E+00
                       9.3148116647E+00  6.5440966483E+00  1.6418816776E+01
                       1.5298515584E-01  1.0747932236E-01  2.6966033599E-01
                       6.1917139726E+00  4.3499725077E+00  1.0913867172E+01
                       9.4452841671E+00  5.8115114101E+00  1.0656077382E+01
                       6.9256817053E+00  2.0759622204E+00  1.3574400790E+01
                       4.6990889337E+00  6.9152384372E+00  1.2908798688E+01
                       5.1183572964E+00  6.3184554058E+00  7.6551073017E+00
                       2.6311348052E+00  2.6727452518E+00  1.0519253319E+01
                       7.2818338877E+00  1.5690182247E+00  8.3207094032E+00
             xred      2.7125600000E-01  2.7125600000E-01  2.7125600000E-01
                       7.7125600000E-01  7.7125600000E-01  7.7125600000E-01
                       1.2667000000E-02  1.2667000000E-02  1.2667000000E-02
                       5.1266700000E-01  5.1266700000E-01  5.1266700000E-01
                       8.1499700000E-01  6.8491700000E-01  2.4466300000E-01
                       6.8491700000E-01  2.4466300000E-01  8.1499700000E-01
                       2.4466300000E-01  8.1499700000E-01  6.8491700000E-01
                       3.1499700000E-01  7.4466300000E-01  1.8491700000E-01
                       1.8491700000E-01  3.1499700000E-01  7.4466300000E-01
                       7.4466300000E-01  1.8491700000E-01  3.1499700000E-01
            znucl       11.00000   41.00000    8.00000

- Timing analysis has been suppressed with timopt=0

 Suggested references for the acknowledgment of ABINIT usage.

 Calculation completed.
.Delivered   2 WARNINGs and   5 COMMENTs to log file.