.Version 9.5.2 of ABINIT

 ABINIT is a project of the Universite Catholique de Louvain,
 Corning Inc. and other collaborators, see ~abinit/doc/developers/contributors.txt .
 acknowledgments of the ABINIT effort.

.Starting date : Mon 24 May 2021.
- ( at 10h54 )

- input  file    -> /scratch/users/j/a/jabreu/flow_simple_10atoms/flow/w270/t1/run.abi
- output file    -> /scratch/users/j/a/jabreu/flow_simple_10atoms/flow/w270/t1/run.abo
- root for input  files -> /scratch/users/j/a/jabreu/flow_simple_10atoms/flow/w270/t1/indata/in
- root for output files -> /scratch/users/j/a/jabreu/flow_simple_10atoms/flow/w270/t1/outdata/out

 Symmetries : space group P-1 (#  2); Bravais aP (primitive triclinic)
     intxc =       0      iscf =       7    lmnmax =      18     lnmax =       6
     mgfft =      72  mpssoang =       3    mqgrid =    3157     natom =      10
  nloc_mem =       1    nspden =       1   nspinor =       1    nsppol =       1
      nsym =       2    n1xccc =    2501    ntypat =       2    occopt =       1
   xclevel =       2
-    mband =          44        mffmem =           1         mkmem =           2
-   mkqmem =           2        mk1mem =           2           mpw =       15194
      nfft =      311040          nkpt =           2
  Rough estimation (10% accuracy) of disk space for files :

------------- Echo of variables that govern the present computation ------------
-
- outvars: echo of selected default values
-   iomode0 =  0 , fftalg0 =512 , wfoptalg0 =  0
-
- outvars: echo of global parameters not present in the input file
-  max_nthreads =    0
-
 -outvars: echo values of preprocessed input variables --------
            acell      1.0000000000E+00  1.0000000000E+00  1.0000000000E+00 Bohr
              amu      5.49380500E+01  3.09737620E+01
             ecut      4.80000000E+01 Hartree
-          fftalg         512
           irdden           1
           irdwfk           1
           istwfk        1    0
              ixc     -116133
              kpt      0.00000000E+00  0.00000000E+00  0.00000000E+00
                      -5.00000000E-01  0.00000000E+00  5.00000000E-01
           kptopt           0
P           mkmem           2
P          mkqmem           2
P          mk1mem           2
            natom          10
            nband          44
           nbdbuf           4
            ngfft          60      72      72
             nkpt           2
            nstep        2000
             nsym           2
           ntypat           2
              occ      2.000000  2.000000  2.000000  2.000000  2.000000  2.000000
                       2.000000  2.000000  2.000000  2.000000  2.000000  2.000000
                       2.000000  2.000000  2.000000  2.000000  2.000000  2.000000
                       2.000000  2.000000  2.000000  2.000000  2.000000  2.000000
                       2.000000  2.000000  2.000000  2.000000  2.000000  2.000000
                       2.000000  2.000000  2.000000  2.000000  2.000000  0.000000
                       0.000000  0.000000  0.000000  0.000000  0.000000  0.000000
                       0.000000  0.000000
        optdriver           1
            prtwf          -1
            rfdir           1       1       1
           rfelfd           2
            rprim      8.6088282021E+00  0.0000000000E+00 -4.1578520845E+00
                      -1.0684863529E+00  1.0121425950E+01 -3.9043814866E+00
                       0.0000000000E+00  0.0000000000E+00  1.0966814709E+01
          spgroup           2
           symrel      1  0  0   0  1  0   0  0  1      -1  0  0   0 -1  0   0  0 -1
           tolwfr      1.00000000E-20
            typat      1  1  2  2  2  2  2  2  2  2
           useylm           1
              wtk        0.50000    0.50000
           xangst     -4.0072412552E-01  3.8783105368E+00 -2.5557528647E-01
                       4.3909011771E+00  1.4777173941E+00  1.7926134249E+00
                       1.8936474212E+00  1.0557962938E+00 -1.1165086928E+00
                       2.0965296304E+00  4.3002316371E+00  2.6535468313E+00
                       1.6481527310E+00  3.7269491875E+00  5.2437798386E-01
                       2.3420243205E+00  1.6290787434E+00  1.0126601546E+00
                       1.9922692402E-01  3.5773821075E+00  3.4460171592E+00
                       3.7909501276E+00  1.7786458234E+00 -1.9089790207E+00
                       3.5373462950E+00  4.5524630604E+00 -3.5553344018E-01
                       4.5283075661E-01  8.0356487047E-01  1.8925715786E+00
            xcart     -7.5725885207E-01  7.3289447729E+00 -4.8296729777E-01
                       8.2976007013E+00  2.7924811766E+00  3.3875484353E+00
                       3.5784750184E+00  1.9951658474E+00 -2.1098956544E+00
                       3.9618668308E+00  8.1262601021E+00  5.0144767919E+00
                       3.1145572868E+00  7.0429132756E+00  9.9093077961E-01
                       4.4257845624E+00  3.0785126739E+00  1.9136503579E+00
                       3.7648432469E-01  6.7602724559E+00  6.5120286801E+00
                       7.1638575245E+00  3.3611534936E+00 -3.6074475426E+00
                       6.6846157347E+00  8.6029084143E+00 -6.7186083303E-01
                       8.5572611454E-01  1.5185175352E+00  3.5764419705E+00
             xred      1.9090000000E-03  7.2410200000E-01  2.1447800000E-01
                       9.9809100000E-01  2.7589800000E-01  7.8552200000E-01
                       4.4014100000E-01  1.9712300000E-01  4.4661000000E-02
                       5.5985900000E-01  8.0287700000E-01  9.5533900000E-01
                       4.4815100000E-01  6.9584200000E-01  5.0799700000E-01
                       5.5184900000E-01  3.0415800000E-01  4.9200300000E-01
                       1.2663100000E-01  6.6791700000E-01  8.7959400000E-01
                       8.7336900000E-01  3.3208300000E-01  1.2040600000E-01
                       8.8197800000E-01  8.4997000000E-01  5.7572600000E-01
                       1.1802200000E-01  1.5003000000E-01  4.2427400000E-01
            znucl       25.00000   15.00000

 chkinp: Checking input parameters for consistency.

== DATASET  1 ==================================================================
-   mpi_nproc: 1, omp_nthreads: -1 (-1 if OMP is not activated)

--- !DatasetInfo
iteration_state: {dtset: 1, }
dimensions: {natom: 10, nkpt: 2, mband: 44, nsppol: 1, nspinor: 1, nspden: 1, mpw: 15194, }
cutoff_energies: {ecut:  48.0, pawecutdg:  -1.0, }
electrons: {nelect:   7.00000000E+01, charge:   0.00000000E+00, occopt:   1.00000000E+00, tsmear:   1.00000000E-02, }
meta: {optdriver: 1, rfelfd: 2, }
...

 Real(R)+Recip(G) space primitive vectors, cartesian coordinates (Bohr,Bohr^-1):
 R(1)=  8.6088282  0.0000000 -4.1578521  G(1)=  0.1161598  0.0122626  0.0000000
 R(2)= -1.0684864 10.1214259 -3.9043815  G(2)=  0.0000000  0.0988003  0.0000000
 R(3)=  0.0000000  0.0000000 10.9668147  G(3)=  0.0440397  0.0398238  0.0911842
 Unit cell volume ucvol=  9.5557823E+02 bohr^3
 Angles (23,13,12)=  1.10987933E+02  1.15779399E+02  8.61291202E+01 degrees

 getcut: wavevector=  0.0000  0.0000  0.0000  ngfft=  60  72  72
         ecut(hartree)=     48.000   => boxcut(ratio)=   2.01241

--- Pseudopotential description ------------------------------------------------
- pspini: atom type   1  psp file is /scratch/users/j/a/jabreu/pseudos/PBEsol/Mn.psp8
- pspatm: opening atomic psp file    /scratch/users/j/a/jabreu/pseudos/PBEsol/Mn.psp8
- Mn    ONCVPSP-3.3.0  r_core=   1.41250   1.20960   1.61055
- 25.00000  15.00000    180112                znucl, zion, pspdat
    8 -116133    2    4       600   0.00000   pspcod,pspxc,lmax,lloc,mmax,r2well
    5.99000000000000    4.00000000000000    0.00000000000000   rchrg,fchrg,qchrg
     nproj     2     2     2
     extension_switch     1
  pspatm : epsatm=   16.22562818
         --- l  ekb(1:nproj) -->
             0    9.231304    1.553930
             1    1.546511   -0.740368
             2   -6.657580   -2.171437
 pspatm: atomic psp has been read  and splines computed

- pspini: atom type   2  psp file is /scratch/users/j/a/jabreu/pseudos/PBEsol/P.psp8
- pspatm: opening atomic psp file    /scratch/users/j/a/jabreu/pseudos/PBEsol/P.psp8
- P     ONCVPSP-3.3.0  r_core=   1.46089   1.55067   1.70594
- 15.00000   5.00000    180112                znucl, zion, pspdat
    8 -116133    2    4       600   0.00000   pspcod,pspxc,lmax,lloc,mmax,r2well
    5.99000000000000    5.00000000000000    0.00000000000000   rchrg,fchrg,qchrg
     nproj     2     2     2
     extension_switch     1
  pspatm : epsatm=    7.31221086
         --- l  ekb(1:nproj) -->
             0    6.742364    1.063650
             1    3.449117    0.910422
             2   -3.077645   -0.799176
 pspatm: atomic psp has been read  and splines computed

   6.36642603E+03                                ecore*ucvol(ha*bohr**3)

 ==>  initialize data related to q vector <==

 The list of irreducible perturbations for this q vector is:
    1)    idir= 1    ipert=  11
    2)    idir= 2    ipert=  11
    3)    idir= 3    ipert=  11

 Perturbation wavevector (in red.coord.)   0.000000  0.000000  0.000000
 Perturbation : derivative vs k along direction   1

 dfpt_looppert : COMMENT -
  In a d/dk calculation, iscf is set to -3 automatically.
 The set of symmetries contains only one element for this perturbation.
 symkpt : not enough symmetry to change the number of k points.

 Initialisation of the first-order wave-functions :
  ireadwf=   0

--- !BeginCycle
iteration_state: {dtset: 1, }
solver: {iscf: 7, nstep: 2000, nline: 4, wfoptalg: 0, }
tolerances: {tolwfr: 1.00E-20, }
...

     iter   2DEtotal(Ha)        deltaE(Ha) residm    vres2
-ETOT  1  -35.692429514411     -3.569E+01 2.515E-01 0.000E+00
 ETOT  2  -36.129982438823     -4.376E-01 2.549E-02 0.000E+00
 ETOT  3  -36.167192348724     -3.721E-02 8.173E-03 0.000E+00
 ETOT  4  -36.171682362290     -4.490E-03 2.740E-03 0.000E+00
 ETOT  5  -36.172317093651     -6.347E-04 9.472E-04 0.000E+00
 ETOT  6  -36.172414315143     -9.722E-05 3.490E-04 0.000E+00
 ETOT  7  -36.172430269502     -1.595E-05 1.145E-04 0.000E+00
 ETOT  8  -36.172433005310     -2.736E-06 4.706E-05 0.000E+00
 ETOT  9  -36.172433491861     -4.866E-07 1.510E-05 0.000E+00
 ETOT 10  -36.172433580438     -8.858E-08 6.617E-06 0.000E+00
 ETOT 11  -36.172433596909     -1.647E-08 2.127E-06 0.000E+00
 ETOT 12  -36.172433600015     -3.107E-09 9.555E-07 0.000E+00
 ETOT 13  -36.172433600610     -5.944E-10 3.101E-07 0.000E+00
 ETOT 14  -36.172433600725     -1.149E-10 1.401E-07 0.000E+00
 ETOT 15  -36.172433600747     -2.250E-11 4.588E-08 0.000E+00
 ETOT 16  -36.172433600752     -4.292E-12 2.074E-08 0.000E+00
 ETOT 17  -36.172433600752     -8.882E-13 6.831E-09 0.000E+00
 ETOT 18  -36.172433600753     -1.279E-13 3.085E-09 0.000E+00
 ETOT 19  -36.172433600753     -1.066E-13 1.021E-09 0.000E+00
 ETOT 20  -36.172433600753      0.000E+00 4.605E-10 0.000E+00
 ETOT 21  -36.172433600753     -7.105E-15 1.529E-10 0.000E+00
 ETOT 22  -36.172433600753      4.263E-14 6.889E-11 0.000E+00
 ETOT 23  -36.172433600753     -1.421E-14 2.295E-11 0.000E+00
 ETOT 24  -36.172433600753     -7.105E-14 1.033E-11 0.000E+00
[...]

 At SCF step   46   max residual=  9.87E-21 < tolwfr=  1.00E-20 =>converged.

 ----iterations are completed or convergence reached----

 dfpt_looppert: DFPT cycle converged with prtwf=-1. Will skip output of the 1st-order WFK file.
 dfpt_looppert : ek2=    7.5407205658E+01
          f-sum rule ratio=    9.7601670848E-01
 prteigrs : about to open file /scratch/users/j/a/jabreu/flow_simple_10atoms/flow/w270/t1/tmpdata/tmp_1WF1_EIG
 Expectation of eigenvalue derivatives (hartree) for nkpt=   2  k points:
  (in case of degenerate eigenvalues, averaged derivative)
 kpt#   1, nband= 44, wtk=  0.50000, kpt=  0.0000  0.0000  0.0000 (reduced coord)
   0.00000    0.00000   -0.00000   -0.00000   -0.00000    0.00000   -0.00000    0.00000
   0.00000   -0.00000    0.00000    0.00000    0.00000    0.00000   -0.00000   -0.00000
   0.00000    0.00000   -0.00000    0.00000    0.00000    0.00000    0.00000    0.00000
  -0.00000   -0.00000    0.00000    0.00000   -0.00000   -0.00000   -0.00000    0.00000
  -0.00000    0.00000    0.00000    0.00000    0.00000   -0.00000   -0.00000   -0.00000
   0.00000   -0.00000    0.00000    0.00732
 prteigrs : prtvol=0 or 1, do not print more k-points.

 Eight components of 2nd-order total energy (hartree) are
 1,2,3: 0th-order hamiltonian combined with 1st-order wavefunctions
     kin0=   7.21011685E+01 eigvalue=  -9.44399738E+00  local=  -3.88686417E+01
 4,5,6: 1st-order hamiltonian combined with 1st and 0th-order wfs
     kin1=  -7.35986927E+01  Hartree=   0.00000000E+00     xc=   0.00000000E+00
 7,8,9: eventually, occupation + non-local contributions
    edocc=   1.26913360E+01     enl0=  -3.07431812E-01   enl1=   1.25382546E+00
 1-9 gives the relaxation energy (to be shifted if some occ is /=2.0)
   erelax=  -3.61724336E+01
  No Ewald or frozen-wf contrib.: the relaxation energy is the total one
 2DEtotal=   -0.3617243360E+02 Ha. Also 2DEtotal=   -0.984301975860E+03 eV
    (  non-var. 2DEtotal :   -3.6172433600E+01 Ha)

 Perturbation wavevector (in red.coord.)   0.000000  0.000000  0.000000
 Perturbation : derivative vs k along direction   2
 The set of symmetries contains only one element for this perturbation.
 symkpt : not enough symmetry to change the number of k points.

[...]

 Perturbation wavevector (in red.coord.)   0.000000  0.000000  0.000000
 Perturbation : derivative vs k along direction   3
 The set of symmetries contains only one element for this perturbation.
 symkpt : not enough symmetry to change the number of k points.

 Initialisation of the first-order wave-functions :
  ireadwf=   0

--- !BeginCycle
iteration_state: {dtset: 1, }
solver: {iscf: 7, nstep: 2000, nline: 4, wfoptalg: 0, }
tolerances: {tolwfr: 1.00E-20, }
...

     iter   2DEtotal(Ha)        deltaE(Ha) residm    vres2
-ETOT  1  -30.977014769065     -3.098E+01 2.041E-01 0.000E+00
 ETOT  2  -31.231710340882     -2.547E-01 3.550E-02 0.000E+00
 ETOT  3  -31.251742491894     -2.003E-02 4.211E-03 0.000E+00
 ETOT  4  -31.254311798161     -2.569E-03 2.399E-03 0.000E+00
 ETOT  5  -31.254708341020     -3.965E-04 3.769E-04 0.000E+00
 ETOT  6  -31.254774361923     -6.602E-05 2.066E-04 0.000E+00
 ETOT  7  -31.254786026845     -1.166E-05 3.873E-05 0.000E+00
 ETOT  8  -31.254788159616     -2.133E-06 1.875E-05 0.000E+00
 ETOT  9  -31.254788561797     -4.022E-07 3.990E-06 0.000E+00
 ETOT 10  -31.254788639162     -7.737E-08 1.807E-06 0.000E+00
 ETOT 11  -31.254788654318     -1.516E-08 4.210E-07 0.000E+00
 ETOT 12  -31.254788657324     -3.006E-09 1.812E-07 0.000E+00
 ETOT 13  -31.254788657927     -6.030E-10 5.713E-08 0.000E+00
 ETOT 14  -31.254788658049     -1.219E-10 2.086E-08 0.000E+00
 ETOT 15  -31.254788658073     -2.480E-11 8.906E-09 0.000E+00
 ETOT 16  -31.254788658079     -5.112E-12 3.236E-09 0.000E+00
 ETOT 17  -31.254788658080     -1.016E-12 1.392E-09 0.000E+00
 ETOT 18  -31.254788658080     -2.345E-13 5.034E-10 0.000E+00
 ETOT 19  -31.254788658080      1.066E-14 2.177E-10 0.000E+00
 ETOT 20  -31.254788658080     -5.329E-14 7.848E-11 0.000E+00
 ETOT 21  -31.254788658080     -3.553E-15 3.406E-11 0.000E+00
 ETOT 22  -31.254788658080      7.105E-15 1.225E-11 0.000E+00
 ETOT 23  -31.254788658080      0.000E+00 5.331E-12 0.000E+00
 ETOT 24  -31.254788658080      0.000E+00 1.915E-12 0.000E+00
 ETOT 25  -31.254788658080     -1.421E-14 8.351E-13 0.000E+00
 ETOT 26  -31.254788658080      3.553E-14 2.996E-13 0.000E+00
 ETOT 27  -31.254788658080     -1.421E-14 1.310E-13 0.000E+00
 ETOT 28  -31.254788658080      2.132E-14 4.692E-14 0.000E+00
 ETOT 29  -31.254788658080     -1.776E-14 2.056E-14 0.000E+00
 ETOT 30  -31.254788658080      0.000E+00 7.354E-15 0.000E+00
 ETOT 31  -31.254788658080      3.553E-15 3.230E-15 0.000E+00
 ETOT 32  -31.254788658080     -1.421E-14 1.153E-15 0.000E+00
 ETOT 33  -31.254788658080      3.553E-15 5.080E-16 0.000E+00
 ETOT 34  -31.254788658080     -1.066E-14 1.811E-16 0.000E+00
 ETOT 35  -31.254788658080      3.553E-15 7.996E-17 0.000E+00
 ETOT 36  -31.254788658080      1.421E-14 2.844E-17 0.000E+00
 ETOT 37  -31.254788658080      7.105E-15 1.260E-17 0.000E+00
 ETOT 38  -31.254788658080     -7.105E-15 4.468E-18 0.000E+00
 ETOT 39  -31.254788658080     -3.553E-15 1.985E-18 0.000E+00
 ETOT 40  -31.254788658080      3.553E-15 7.025E-19 0.000E+00
 ETOT 41  -31.254788658080      3.553E-15 3.131E-19 0.000E+00
 ETOT 42  -31.254788658080     -3.553E-15 1.105E-19 0.000E+00
 ETOT 43  -31.254788658080      0.000E+00 4.941E-20 0.000E+00
 ETOT 44  -31.254788658080      0.000E+00 1.799E-20 0.000E+00
 ETOT 45  -31.254788658080      0.000E+00 9.984E-21 0.000E+00

 At SCF step   45   max residual=  9.98E-21 < tolwfr=  1.00E-20 =>converged.

 ----iterations are completed or convergence reached----

 dfpt_looppert: DFPT cycle converged with prtwf=-1. Will skip output of the 1st-order WFK file.
 dfpt_looppert : ek2=    6.5439348277E+01
          f-sum rule ratio=    9.7520177691E-01
 prteigrs : about to open file /scratch/users/j/a/jabreu/flow_simple_10atoms/flow/w270/t1/tmpdata/tmp_1WF1_EIG
 Expectation of eigenvalue derivatives (hartree) for nkpt=   2  k points:
  (in case of degenerate eigenvalues, averaged derivative)
 kpt#   1, nband= 44, wtk=  0.50000, kpt=  0.0000  0.0000  0.0000 (reduced coord)
   0.00000    0.00000   -0.00000   -0.00000    0.00000   -0.00000   -0.00000    0.00000
   0.00000   -0.00000   -0.00000    0.00000    0.00000   -0.00000    0.00000   -0.00000
   0.00000    0.00000   -0.00000    0.00000    0.00000    0.00000    0.00000    0.00000
  -0.00000    0.00000    0.00000    0.00000    0.00000   -0.00000    0.00000   -0.00000
  -0.00000    0.00000   -0.00000    0.00000    0.00000   -0.00000    0.00000    0.00000
   0.00000    0.00000   -0.00000    0.01132
 prteigrs : prtvol=0 or 1, do not print more k-points.

 Eight components of 2nd-order total energy (hartree) are
 1,2,3: 0th-order hamiltonian combined with 1st-order wavefunctions
     kin0=   5.17643788E+01 eigvalue=  -6.18228528E+00  local=  -2.61309849E+01
 4,5,6: 1st-order hamiltonian combined with 1st and 0th-order wfs
     kin1=  -6.38165687E+01  Hartree=   0.00000000E+00     xc=   0.00000000E+00
 7,8,9: eventually, occupation + non-local contributions
    edocc=   1.17252358E+01     enl0=   7.84442177E-02   enl1=   1.30699140E+00
 1-9 gives the relaxation energy (to be shifted if some occ is /=2.0)
   erelax=  -3.12547887E+01
  No Ewald or frozen-wf contrib.: the relaxation energy is the total one
 2DEtotal=   -0.3125478866E+02 Ha. Also 2DEtotal=   -0.850486051638E+03 eV
    (  non-var. 2DEtotal :   -3.1254788658E+01 Ha)

 CALCULATION OF EFFECTIVE MASSES
 NOTE : Additional infos (eff. mass eigenvalues, eigenvectors and, if degenerate, average mass) are available in stdout.

 K-point ( 0.000, 0.000, 0.000) | band =    35
 Effective mass tensor:
             -0.9661727041             -0.2157546602             -0.6090301544
             -0.2157546602             -1.9257031224             -1.3378454305
             -0.6090301544             -1.3378454305             -2.4426491273
 Effective mass tensor eigenvalues:
             -3.6832497173             -1.0415889229             -0.6096863137
 Angular average effective mass 1/(<1/m>)=  -1.0446559997
 Angular average effective mass for Frohlich model (<m**0.5>)**2=  -1.1897567740
 Effective masses along directions: (cart. coord. / red. coord. -> eff. mass)
    1:   1.000000  0.000000  0.000000 /   0.992386 -0.123170  0.000000 ->  -0.8026873231
    2:   0.000000  1.000000  0.000000 /   0.000000  1.000000  0.000000 ->  -1.1759169496
    3:   0.000000  0.000000  1.000000 /  -0.336359 -0.315854  0.887186 ->  -1.2894184325
    4:   0.577350  0.577350  0.577350 /   0.344851  0.398898  0.849682 ->  -2.1914993283
    5:   0.000000  0.707107  0.707107 /  -0.313223  0.468347  0.826161 ->  -3.1592634936
    6:   0.707107  0.000000  0.707107 /   0.346706 -0.387358  0.854253 ->  -1.5805959775
    7:   0.707107  0.707107  0.000000 /   0.689109  0.724658  0.000000 ->  -0.8538688362

 K-point (-0.500, 0.000, 0.500) | band =    36
 Effective mass tensor:
              3.4898964696             -1.3979627481              1.7418976461
             -1.3979627481              2.1051337650             -0.9692156951
              1.7418976461             -0.9692156951              1.8433642554
 Effective mass tensor eigenvalues:
              0.7319840073              1.2507116524              5.4556988303
 Angular average effective mass 1/(<1/m>)=   1.2771449480
 Angular average effective mass for Frohlich model (<m**0.5>)**2=   1.4897093604
 Effective masses along directions: (cart. coord. / red. coord. -> eff. mass)
    1:   1.000000  0.000000  0.000000 /   0.992386 -0.123170  0.000000 ->   1.6982127994
    2:   0.000000  1.000000  0.000000 /   0.000000  1.000000  0.000000 ->   1.4694854670
    3:   0.000000  0.000000  1.000000 /  -0.336359 -0.315854  0.887186 ->   0.9262477225
    4:   0.577350  0.577350  0.577350 /   0.344851  0.398898  0.849682 ->   1.3899177843
    5:   0.000000  0.707107  0.707107 /  -0.313223  0.468347  0.826161 ->   0.9348069550
    6:   0.707107  0.000000  0.707107 /   0.346706 -0.387358  0.854253 ->   2.6928872257
    7:   0.707107  0.707107  0.000000 /   0.689109  0.724658  0.000000 ->   1.2306071277

 END OF EFFECTIVE MASSES SECTION

 ---- first-order wavefunction calculations are completed ----

 Total localisation tensor (bohr^2) in cartesian coordinates
  WARNING : still subject to testing - especially symmetries.
      direction              matrix element
   alpha     beta       real part   imaginary part
     1        1       1.7484907698    0.0000000000
     1        2      -0.1995526017    0.0000000000
     1        3      -0.7573253435    0.0000000000
     2        1      -0.1995526017    0.0000000000
     2        2       1.8902973125    0.0000000000
     2        3      -0.7291899252    0.0000000000
     3        1      -0.7573253435    0.0000000000
     3        2      -0.7291899252    0.0000000000
     3        3       3.0598126054    0.0000000000

 respfn : d/dk was computed, but no 2DTE, so no DDB output.

== END DATASET(S) ==============================================================

 -outvars: echo values of variables after computation  --------
            acell      1.0000000000E+00  1.0000000000E+00  1.0000000000E+00 Bohr
              amu      5.49380500E+01  3.09737620E+01
             ecut      4.80000000E+01 Hartree
           etotal     -3.1254788658E+01
            fcart      0.0000000000E+00  0.0000000000E+00  0.0000000000E+00
                       0.0000000000E+00  0.0000000000E+00  0.0000000000E+00
                       0.0000000000E+00  0.0000000000E+00  0.0000000000E+00
                       0.0000000000E+00  0.0000000000E+00  0.0000000000E+00
                       0.0000000000E+00  0.0000000000E+00  0.0000000000E+00
                       0.0000000000E+00  0.0000000000E+00  0.0000000000E+00
                       0.0000000000E+00  0.0000000000E+00  0.0000000000E+00
                       0.0000000000E+00  0.0000000000E+00  0.0000000000E+00
                       0.0000000000E+00  0.0000000000E+00  0.0000000000E+00
                       0.0000000000E+00  0.0000000000E+00  0.0000000000E+00
-          fftalg         512
           irdden           1
           irdwfk           1
           istwfk        1    0
              ixc     -116133
              kpt      0.00000000E+00  0.00000000E+00  0.00000000E+00
                      -5.00000000E-01  0.00000000E+00  5.00000000E-01
           kptopt           0
P           mkmem           2
P          mkqmem           2
P          mk1mem           2
            natom          10
            nband          44
           nbdbuf           4
            ngfft          60      72      72
             nkpt           2
            nstep        2000
             nsym           2
           ntypat           2
              occ      2.000000  2.000000  2.000000  2.000000  2.000000  2.000000
                       2.000000  2.000000  2.000000  2.000000  2.000000  2.000000
                       2.000000  2.000000  2.000000  2.000000  2.000000  2.000000
                       2.000000  2.000000  2.000000  2.000000  2.000000  2.000000
                       2.000000  2.000000  2.000000  2.000000  2.000000  2.000000
                       2.000000  2.000000  2.000000  2.000000  2.000000  0.000000
                       0.000000  0.000000  0.000000  0.000000  0.000000  0.000000
                       0.000000  0.000000
        optdriver           1
            prtwf          -1
            rfdir           1       1       1
           rfelfd           2
            rprim      8.6088282021E+00  0.0000000000E+00 -4.1578520845E+00
                      -1.0684863529E+00  1.0121425950E+01 -3.9043814866E+00
                       0.0000000000E+00  0.0000000000E+00  1.0966814709E+01
          spgroup           2
           strten      0.0000000000E+00  0.0000000000E+00  0.0000000000E+00
                       0.0000000000E+00  0.0000000000E+00  0.0000000000E+00
           symrel      1  0  0   0  1  0   0  0  1      -1  0  0   0 -1  0   0  0 -1
           tolwfr      1.00000000E-20
            typat      1  1  2  2  2  2  2  2  2  2
           useylm           1
              wtk        0.50000    0.50000
           xangst     -4.0072412552E-01  3.8783105368E+00 -2.5557528647E-01
                       4.3909011771E+00  1.4777173941E+00  1.7926134249E+00
                       1.8936474212E+00  1.0557962938E+00 -1.1165086928E+00
                       2.0965296304E+00  4.3002316371E+00  2.6535468313E+00
                       1.6481527310E+00  3.7269491875E+00  5.2437798386E-01
                       2.3420243205E+00  1.6290787434E+00  1.0126601546E+00
                       1.9922692402E-01  3.5773821075E+00  3.4460171592E+00
                       3.7909501276E+00  1.7786458234E+00 -1.9089790207E+00
                       3.5373462950E+00  4.5524630604E+00 -3.5553344018E-01
                       4.5283075661E-01  8.0356487047E-01  1.8925715786E+00
            xcart     -7.5725885207E-01  7.3289447729E+00 -4.8296729777E-01
                       8.2976007013E+00  2.7924811766E+00  3.3875484353E+00
                       3.5784750184E+00  1.9951658474E+00 -2.1098956544E+00
                       3.9618668308E+00  8.1262601021E+00  5.0144767919E+00
                       3.1145572868E+00  7.0429132756E+00  9.9093077961E-01
                       4.4257845624E+00  3.0785126739E+00  1.9136503579E+00
                       3.7648432469E-01  6.7602724559E+00  6.5120286801E+00
                       7.1638575245E+00  3.3611534936E+00 -3.6074475426E+00
                       6.6846157347E+00  8.6029084143E+00 -6.7186083303E-01
                       8.5572611454E-01  1.5185175352E+00  3.5764419705E+00
             xred      1.9090000000E-03  7.2410200000E-01  2.1447800000E-01
                       9.9809100000E-01  2.7589800000E-01  7.8552200000E-01
                       4.4014100000E-01  1.9712300000E-01  4.4661000000E-02
                       5.5985900000E-01  8.0287700000E-01  9.5533900000E-01
                       4.4815100000E-01  6.9584200000E-01  5.0799700000E-01
                       5.5184900000E-01  3.0415800000E-01  4.9200300000E-01
                       1.2663100000E-01  6.6791700000E-01  8.7959400000E-01
                       8.7336900000E-01  3.3208300000E-01  1.2040600000E-01
                       8.8197800000E-01  8.4997000000E-01  5.7572600000E-01
                       1.1802200000E-01  1.5003000000E-01  4.2427400000E-01
            znucl       25.00000   15.00000

- Timing analysis has been suppressed with timopt=0

 Suggested references for the acknowledgment of ABINIT usage.

 Calculation completed.
.Delivered   2 WARNINGs and   5 COMMENTs to log file.