.Version 9.7.2 of ABINIT

 ABINIT is a project of the Universite Catholique de Louvain,
 Corning Inc. and other collaborators, see ~abinit/doc/developers/contributors.txt .
 acknowledgments of the ABINIT effort.

.Starting date : Wed  1 Dec 2021.
- ( at 21h47 )

- input  file    -> /scratch/users/j/a/jabreu/flow_simple_remain_atoms/flow/w246/t1/run.abi
- output file    -> /scratch/users/j/a/jabreu/flow_simple_remain_atoms/flow/w246/t1/run.abo
- root for input  files -> /scratch/users/j/a/jabreu/flow_simple_remain_atoms/flow/w246/t1/indata/in
- root for output files -> /scratch/users/j/a/jabreu/flow_simple_remain_atoms/flow/w246/t1/outdata/out

 Symmetries : space group I-4 2 d (#122); Bravais tI (body-center tetrag.)
     intxc =       0      iscf =       7    lmnmax =      18     lnmax =       6
     mgfft =      90  mpssoang =       3    mqgrid =    3020     natom =       8
  nloc_mem =       1    nspden =       1   nspinor =       1    nsppol =       1
      nsym =       8    n1xccc =    2501    ntypat =       3    occopt =       1
   xclevel =       2
-    mband =          43        mffmem =           1         mkmem =           1
-   mkqmem =           1        mk1mem =           1           mpw =       19607
      nfft =      729000          nkpt =           1
  Rough estimation (10% accuracy) of disk space for files :

------------- Echo of variables that govern the present computation ------------
-
- outvars: echo of selected default values
-   iomode0 =  0 , fftalg0 =512 , wfoptalg0 =  0
-
- outvars: echo of global parameters not present in the input file
-  max_nthreads =    0
-
 -outvars: echo values of preprocessed input variables --------
            acell      1.0000000000E+00  1.0000000000E+00  1.0000000000E+00 Bohr
              amu      1.12411000E+02  2.80855000E+01  3.09737620E+01
             ecut      5.10000000E+01 Hartree
-          fftalg         512
           irdden           1
           irdwfk           1
           istwfk        1
              ixc     -116133
           kptopt           0
P           mkmem           1
P          mkqmem           1
P          mk1mem           1
            natom           8
            nband          43
           nbdbuf           4
            ngfft          90      90      90
             nkpt           1
            nstep        2000
             nsym           8
           ntypat           3
              occ      2.000000  2.000000  2.000000  2.000000  2.000000  2.000000
                       2.000000  2.000000  2.000000  2.000000  2.000000  2.000000
                       2.000000  2.000000  2.000000  2.000000  2.000000  2.000000
                       2.000000  2.000000  2.000000  2.000000  2.000000  2.000000
                       2.000000  2.000000  2.000000  2.000000  2.000000  2.000000
                       2.000000  2.000000  2.000000  2.000000  0.000000  0.000000
                       0.000000  0.000000  0.000000  0.000000  0.000000  0.000000
                       0.000000
        optdriver           1
            prtwf          -1
            rfdir           1       1       1
           rfelfd           2
            rprim      9.6396128389E+00  0.0000000000E+00 -7.8956639598E+00
                      -2.1616610877E+00  9.3941128919E+00 -7.8956639598E+00
                       0.0000000000E+00  0.0000000000E+00  1.2460483339E+01
          spgroup         122
           symrel      1  0  0   0  1  0   0  0  1       0  0  1  -1 -1 -1   1  0  0
                       0  1  0   1  0  0  -1 -1 -1      -1 -1 -1   0  0  1   0  1  0
                       0  1  0   1  0  0   0  0  1       0  0  1  -1 -1 -1   0  1  0
                       1  0  0   0  1  0  -1 -1 -1      -1 -1 -1   0  0  1   1  0  0
            tnons      0.0000000  0.0000000  0.0000000    -0.2500000  0.2500000  0.5000000
                       0.0000000  0.0000000  0.0000000    -0.2500000  0.2500000  0.5000000
                      -0.2500000  0.2500000  0.5000000     0.0000000  0.0000000  0.0000000
                      -0.2500000  0.2500000  0.5000000     0.0000000  0.0000000  0.0000000
           tolwfr      1.00000000E-20
            typat      1  1  2  2  3  3  3  3
           useylm           1
           xangst      0.0000000000E+00  0.0000000000E+00  0.0000000000E+00
                       3.5398221154E+00  1.2427876093E+00 -8.8130351863E-01
                       4.1733951826E-01  3.7283628280E+00 -8.8130351863E-01
                       1.9785808168E+00  2.4855752187E+00 -4.1782054142E+00
                       1.4350326676E+00  2.0767030663E+00  2.6651708114E-01
                       1.4076987607E-01  3.1069690233E+00 -3.0303848144E+00
                       3.5114193745E+00  4.1372349803E+00 -4.1182268255E+00
                       2.8271013492E+00  6.2139380466E-01  3.3568804843E+00
            xcart      0.0000000000E+00  0.0000000000E+00  0.0000000000E+00
                       6.6892943572E+00  2.3485282230E+00 -1.6654222902E+00
                       7.8865739395E-01  7.0455846689E+00 -1.6654222901E+00
                       3.7389758756E+00  4.6970564460E+00 -7.8956639598E+00
                       2.7118187335E+00  3.9244000547E+00  5.0364429309E-01
                       2.6601651353E-01  5.8713205574E+00 -5.7265973766E+00
                       6.6356209555E+00  7.8182410602E+00 -7.7823208533E+00
                       5.3424472999E+00  1.1742641115E+00  6.3435847762E+00
             xred      0.0000000000E+00  0.0000000000E+00  0.0000000000E+00
                       7.5000000000E-01  2.5000000000E-01  5.0000000000E-01
                       2.5000000000E-01  7.5000000000E-01  5.0000000000E-01
                       5.0000000000E-01  5.0000000000E-01  2.7755575616E-17
                       3.7500000000E-01  4.1775100000E-01  5.4275100000E-01
                       1.6775100000E-01  6.2500000000E-01  4.2751000000E-02
                       8.7500000000E-01  8.3224900000E-01  4.5724900000E-01
                       5.8224900000E-01  1.2500000000E-01  9.5724900000E-01
            znucl       48.00000   14.00000   15.00000

 chkinp: Checking input parameters for consistency.

== DATASET  1 ==================================================================
-   mpi_nproc: 1, omp_nthreads: -1 (-1 if OMP is not activated)

--- !DatasetInfo
iteration_state: {dtset: 1, }
dimensions: {natom: 8, nkpt: 1, mband: 43, nsppol: 1, nspinor: 1, nspden: 1, mpw: 19607, }
cutoff_energies: {ecut:  51.0, pawecutdg:  -1.0, }
electrons: {nelect:   6.80000000E+01, charge:   0.00000000E+00, occopt:   1.00000000E+00, tsmear:   1.00000000E-02, }
meta: {optdriver: 1, rfelfd: 2, }
...

 Real(R)+Recip(G) space primitive vectors, cartesian coordinates (Bohr,Bohr^-1):
 R(1)=  9.6396128  0.0000000 -7.8956640  G(1)=  0.1037386  0.0238711  0.0000000
 R(2)= -2.1616611  9.3941129 -7.8956640  G(2)=  0.0000000  0.1064496  0.0000000
 R(3)=  0.0000000  0.0000000 12.4604833  G(3)=  0.0657346  0.0825786  0.0802537
 Unit cell volume ucvol=  1.1283667E+03 bohr^3
 Angles (23,13,12)=  1.29320397E+02  1.29320397E+02  7.44955849E+01 degrees

 getcut: wavevector=  0.0000  0.0000  0.0000  ngfft=  90  90  90
         ecut(hartree)=     51.000   => boxcut(ratio)=   2.24714

 getcut : COMMENT -
  Note that boxcut > 2.2 ; recall that boxcut=Gcut(box)/Gcut(sphere) = 2
  is sufficient for exact treatment of convolution.
  Such a large boxcut is a waste : you could raise ecut
  e.g. ecut=   64.383047 Hartrees makes boxcut=2

--- Pseudopotential description ------------------------------------------------
- pspini: atom type   1  psp file is /scratch/users/j/a/jabreu/pseudos/PBEsol/Cd.psp8
- pspatm: opening atomic psp file    /scratch/users/j/a/jabreu/pseudos/PBEsol/Cd.psp8
- Cd    ONCVPSP-3.3.0  r_core=   1.25838   1.30423   1.35174
- 48.00000  20.00000    180112                znucl, zion, pspdat
    8 -116133    2    4       600   0.00000   pspcod,pspxc,lmax,lloc,mmax,r2well
    5.99000000000000    6.00000000000000    0.00000000000000   rchrg,fchrg,qchrg
     nproj     2     2     2
     extension_switch     1
  pspatm : epsatm=   23.26728021
         --- l  ekb(1:nproj) -->
             0   63.701523    3.700425
             1    8.703569    1.290373
             2    0.983656   -0.721725
 pspatm: atomic psp has been read  and splines computed

- pspini: atom type   2  psp file is /scratch/users/j/a/jabreu/pseudos/PBEsol/Si.psp8
- pspatm: opening atomic psp file    /scratch/users/j/a/jabreu/pseudos/PBEsol/Si.psp8
- Si    ONCVPSP-3.3.0  r_core=   1.60303   1.72197   1.91712
- 14.00000   4.00000    180112                znucl, zion, pspdat
    8 -116133    2    4       600   0.00000   pspcod,pspxc,lmax,lloc,mmax,r2well
    5.99000000000000    4.00000000000000    0.00000000000000   rchrg,fchrg,qchrg
     nproj     2     2     2
     extension_switch     1
  pspatm : epsatm=    7.86468782
         --- l  ekb(1:nproj) -->
             0    5.384426    0.843824
             1    2.663259    0.615854
             2   -2.267219   -0.458043
 pspatm: atomic psp has been read  and splines computed

- pspini: atom type   3  psp file is /scratch/users/j/a/jabreu/pseudos/PBEsol/P.psp8
- pspatm: opening atomic psp file    /scratch/users/j/a/jabreu/pseudos/PBEsol/P.psp8
- P     ONCVPSP-3.3.0  r_core=   1.46089   1.55067   1.70594
- 15.00000   5.00000    180112                znucl, zion, pspdat
    8 -116133    2    4       600   0.00000   pspcod,pspxc,lmax,lloc,mmax,r2well
    5.99000000000000    5.00000000000000    0.00000000000000   rchrg,fchrg,qchrg
     nproj     2     2     2
     extension_switch     1
  pspatm : epsatm=    7.31221086
         --- l  ekb(1:nproj) -->
             0    6.742364    1.063650
             1    3.449117    0.910422
             2   -3.077645   -0.799176
 pspatm: atomic psp has been read  and splines computed

   6.22286901E+03                                ecore*ucvol(ha*bohr**3)

 ==>  initialize data related to q vector <==

 The list of irreducible perturbations for this q vector is:
    1)    idir= 1    ipert=   9
    2)    idir= 2    ipert=   9
    3)    idir= 3    ipert=   9

 Perturbation wavevector (in red.coord.)   0.000000  0.000000  0.000000
 Perturbation : derivative vs k along direction   1

 dfpt_looppert : COMMENT -
  In a d/dk calculation, iscf is set to -3 automatically.
 The set of symmetries contains only one element for this perturbation.
 symkpt : not enough symmetry to change the number of k points.

 Initialisation of the first-order wave-functions :
  ireadwf=   0

--- !BeginCycle
iteration_state: {dtset: 1, }
solver: {iscf: 7, nstep: 2000, nline: 4, wfoptalg: 0, }
tolerances: {tolwfr: 1.00E-20, }
...

     iter   2DEtotal(Ha)        deltaE(Ha) residm    vres2
-ETOT  1  -37.679879122501     -3.768E+01 1.109E-01 0.000E+00
 ETOT  2  -37.778963541599     -9.908E-02 1.651E-02 0.000E+00
 ETOT  3  -37.780511421162     -1.548E-03 3.809E-04 0.000E+00
 ETOT  4  -37.780551117626     -3.970E-05 1.250E-04 0.000E+00
 ETOT  5  -37.780552279600     -1.162E-06 3.540E-06 0.000E+00
 ETOT  6  -37.780552316104     -3.650E-08 1.380E-06 0.000E+00
 ETOT  7  -37.780552317295     -1.190E-09 3.871E-08 0.000E+00
 ETOT  8  -37.780552317335     -3.992E-11 1.685E-08 0.000E+00
 ETOT  9  -37.780552317336     -1.457E-12 4.683E-10 0.000E+00
 ETOT 10  -37.780552317336     -1.421E-14 2.219E-10 0.000E+00
 ETOT 11  -37.780552317336     -9.237E-14 6.113E-12 0.000E+00
 ETOT 12  -37.780552317336      4.263E-14 3.056E-12 0.000E+00
 ETOT 13  -37.780552317336     -2.842E-14 8.330E-14 0.000E+00
 ETOT 14  -37.780552317336      0.000E+00 4.298E-14 0.000E+00
 ETOT 15  -37.780552317336      0.000E+00 1.159E-15 0.000E+00
 ETOT 16  -37.780552317336     -1.421E-14 6.101E-16 0.000E+00
 ETOT 17  -37.780552317336      1.421E-14 1.630E-17 0.000E+00
 ETOT 18  -37.780552317336      0.000E+00 8.701E-18 0.000E+00
 ETOT 19  -37.780552317336     -2.132E-14 2.306E-19 0.000E+00
 ETOT 20  -37.780552317336      2.132E-14 1.244E-19 0.000E+00
 ETOT 21  -37.780552317336      0.000E+00 9.554E-21 0.000E+00

 At SCF step   21   max residual=  9.55E-21 < tolwfr=  1.00E-20 =>converged.

 ----iterations are completed or convergence reached----

 dfpt_looppert: DFPT cycle converged with prtwf=-1. Will skip output of the 1st-order WFK file.
 dfpt_looppert : ek2=    6.0839704392E+01
          f-sum rule ratio=    1.2674149846E+00
 prteigrs : about to open file /scratch/users/j/a/jabreu/flow_simple_remain_atoms/flow/w246/t1/tmpdata/tmp_1WF1_EIG
 Expectation of eigenvalue derivatives (hartree) for nkpt=   1  k points:
  (in case of degenerate eigenvalues, averaged derivative)
 kpt#   1, nband= 43, wtk=  1.00000, kpt=  0.0000  0.0000  0.0000 (reduced coord)
   0.00000    0.00000    0.00000    0.00000    0.00000    0.00000   -0.00000   -0.00000
   0.00000   -0.00000    0.00000    0.00000   -0.00000   -0.00000    0.00000    0.00000
   0.00000    0.00000    0.00000    0.00000   -0.00000    0.00000    0.00000   -0.00000
  -0.00000   -0.00000    0.00000   -0.00000   -0.00000   -0.00000   -0.00000   -0.00000
  -0.00000   -0.00000   -0.00000   -0.00000    0.00000   -0.00000   -0.00000   -0.00000
  -0.00000    0.00000    0.00000

 Eight components of 2nd-order total energy (hartree) are
 1,2,3: 0th-order hamiltonian combined with 1st-order wavefunctions
     kin0=   3.98939122E+01 eigvalue=  -1.60800110E-01  local=  -2.16716127E+01
 4,5,6: 1st-order hamiltonian combined with 1st and 0th-order wfs
     kin1=  -7.71091530E+01  Hartree=   0.00000000E+00     xc=   0.00000000E+00
 7,8,9: eventually, occupation + non-local contributions
    edocc=   1.74993160E+01     enl0=   2.21973696E+00   enl1=   1.54804837E+00
 1-9 gives the relaxation energy (to be shifted if some occ is /=2.0)
   erelax=  -3.77805523E+01
  No Ewald or frozen-wf contrib.: the relaxation energy is the total one
 2DEtotal=   -0.3778055232E+02 Ha. Also 2DEtotal=   -0.102806111155E+04 eV
    (  non-var. 2DEtotal :   -3.7780552317E+01 Ha)

 Perturbation wavevector (in red.coord.)   0.000000  0.000000  0.000000
 Perturbation : derivative vs k along direction   2
 The set of symmetries contains only one element for this perturbation.
 symkpt : not enough symmetry to change the number of k points.

[...]

 Perturbation wavevector (in red.coord.)   0.000000  0.000000  0.000000
 Perturbation : derivative vs k along direction   3
 The set of symmetries contains only one element for this perturbation.
 symkpt : not enough symmetry to change the number of k points.

 Initialisation of the first-order wave-functions :
  ireadwf=   0

--- !BeginCycle
iteration_state: {dtset: 1, }
solver: {iscf: 7, nstep: 2000, nline: 4, wfoptalg: 0, }
tolerances: {tolwfr: 1.00E-20, }
...

     iter   2DEtotal(Ha)        deltaE(Ha) residm    vres2
-ETOT  1  -59.555555267735     -5.956E+01 1.932E-01 0.000E+00
 ETOT  2  -59.654040987283     -9.849E-02 1.823E-02 0.000E+00
 ETOT  3  -59.655484844010     -1.444E-03 8.221E-04 0.000E+00
 ETOT  4  -59.655518148870     -3.330E-05 1.700E-04 0.000E+00
 ETOT  5  -59.655519027005     -8.781E-07 9.854E-06 0.000E+00
 ETOT  6  -59.655519052588     -2.558E-08 2.143E-06 0.000E+00
 ETOT  7  -59.655519053367     -7.790E-10 1.319E-07 0.000E+00
 ETOT  8  -59.655519053391     -2.427E-11 2.888E-08 0.000E+00
 ETOT  9  -59.655519053392     -8.242E-13 1.860E-09 0.000E+00
 ETOT 10  -59.655519053392      1.421E-14 4.074E-10 0.000E+00
 ETOT 11  -59.655519053392      3.553E-14 2.718E-11 0.000E+00
 ETOT 12  -59.655519053392     -7.816E-14 5.906E-12 0.000E+00
 ETOT 13  -59.655519053392      0.000E+00 4.055E-13 0.000E+00
 ETOT 14  -59.655519053392      0.000E+00 8.587E-14 0.000E+00
 ETOT 15  -59.655519053392      1.421E-14 6.147E-15 0.000E+00
 ETOT 16  -59.655519053392      0.000E+00 1.203E-15 0.000E+00
 ETOT 17  -59.655519053392      0.000E+00 9.567E-17 0.000E+00
 ETOT 18  -59.655519053392      0.000E+00 1.630E-17 0.000E+00
 ETOT 19  -59.655519053392      0.000E+00 1.529E-18 0.000E+00
 ETOT 20  -59.655519053392      7.105E-15 2.379E-19 0.000E+00
 ETOT 21  -59.655519053392      7.105E-15 2.363E-20 0.000E+00
 ETOT 22  -59.655519053392     -1.421E-14 9.538E-21 0.000E+00

 At SCF step   22   max residual=  9.54E-21 < tolwfr=  1.00E-20 =>converged.

 ----iterations are completed or convergence reached----

 dfpt_looppert: DFPT cycle converged with prtwf=-1. Will skip output of the 1st-order WFK file.
 dfpt_looppert : ek2=    9.4393080232E+01
          f-sum rule ratio=    1.2902155210E+00
 prteigrs : about to open file /scratch/users/j/a/jabreu/flow_simple_remain_atoms/flow/w246/t1/tmpdata/tmp_1WF1_EIG
 Expectation of eigenvalue derivatives (hartree) for nkpt=   1  k points:
  (in case of degenerate eigenvalues, averaged derivative)
 kpt#   1, nband= 43, wtk=  1.00000, kpt=  0.0000  0.0000  0.0000 (reduced coord)
   0.00000    0.00000   -0.00000    0.00000    0.00000    0.00000   -0.00000   -0.00000
   0.00000    0.00000    0.00000    0.00000    0.00000   -0.00000    0.00000    0.00000
  -0.00000    0.00000    0.00000   -0.00000   -0.00000    0.00000    0.00000    0.00000
  -0.00000   -0.00000    0.00000   -0.00000   -0.00000   -0.00000   -0.00000   -0.00000
  -0.00000    0.00000   -0.00000   -0.00000   -0.00000   -0.00000   -0.00000    0.00000
  -0.00000    0.00000    0.00000

 Eight components of 2nd-order total energy (hartree) are
 1,2,3: 0th-order hamiltonian combined with 1st-order wavefunctions
     kin0=   6.21496735E+01 eigvalue=  -3.93808367E-01  local=  -3.36972600E+01
 4,5,6: 1st-order hamiltonian combined with 1st and 0th-order wfs
     kin1=  -1.21787417E+02  Hartree=   0.00000000E+00     xc=   0.00000000E+00
 7,8,9: eventually, occupation + non-local contributions
    edocc=   2.82332562E+01     enl0=   3.36365764E+00   enl1=   2.47637908E+00
 1-9 gives the relaxation energy (to be shifted if some occ is /=2.0)
   erelax=  -5.96555191E+01
  No Ewald or frozen-wf contrib.: the relaxation energy is the total one
 2DEtotal=   -0.5965551905E+02 Ha. Also 2DEtotal=   -0.162330922833E+04 eV
    (  non-var. 2DEtotal :   -5.9655519053E+01 Ha)

 CALCULATION OF EFFECTIVE MASSES
 NOTE : Additional infos (eff. mass eigenvalues, eigenvectors and, if degenerate, average mass) are available in stdout.

 K-point ( 0.000, 0.000, 0.000) | band =    34
 Effective mass tensor:
             -0.3837995754              0.0501818342             -0.0843547311
              0.0501818342             -0.3607050970             -0.1059699117
             -0.0843547311             -0.1059699117             -0.2456121706
 Effective mass tensor eigenvalues:
             -0.4237456060             -0.4237455887             -0.1426256483
 Angular average effective mass 1/(<1/m>)=  -0.2557288659
 Angular average effective mass for Frohlich model (<m**0.5>)**2=  -0.2795273900
 Effective masses along directions: (cart. coord. / red. coord. -> eff. mass)
    1:   1.000000  0.000000  0.000000 /   0.975767 -0.218813  0.000000 ->  -0.3310315992
    2:   0.000000  1.000000  0.000000 /   0.000000  1.000000  0.000000 ->  -0.2938596855
    3:   0.000000  0.000000  1.000000 /  -0.471901 -0.471901  0.744727 ->  -0.1884186448
    4:   0.577350  0.577350  0.577350 /   0.138415 -0.052638  0.988974 ->  -0.4229209177
    5:   0.000000  0.707107  0.707107 /  -0.532507  0.101060  0.840371 ->  -0.3843548125
    6:   0.707107  0.000000  0.707107 /   0.108269 -0.624384  0.773578 ->  -0.3612262229
    7:   0.707107  0.707107  0.000000 /   0.799891  0.600146  0.000000 ->  -0.2473876627

 K-point ( 0.000, 0.000, 0.000) | band =    35
 Effective mass tensor:
              0.3301740106              0.0793832017             -0.1334416770
              0.0793832017              0.3667074396             -0.1676349650
             -0.1334416770             -0.1676349650              0.5487742127
 Effective mass tensor eigenvalues:
              0.2669829717              0.2669829721              0.7116897191
 Angular average effective mass 1/(<1/m>)=   0.3372218321
 Angular average effective mass for Frohlich model (<m**0.5>)**2=   0.3550615128
 Effective masses along directions: (cart. coord. / red. coord. -> eff. mass)
    1:   1.000000  0.000000  0.000000 /   0.975767 -0.218813  0.000000 ->   0.2929983391
    2:   0.000000  1.000000  0.000000 /   0.000000  1.000000  0.000000 ->   0.3104899107
    3:   0.000000  0.000000  1.000000 /  -0.471901 -0.471901  0.744727 ->   0.4419858314
    4:   0.577350  0.577350  0.577350 /   0.138415 -0.052638  0.988974 ->   0.2671481188
    5:   0.000000  0.707107  0.707107 /  -0.532507  0.101060  0.840371 ->   0.2759485761
    6:   0.707107  0.000000  0.707107 /   0.108269 -0.624384  0.773578 ->   0.2824824035
    7:   0.707107  0.707107  0.000000 /   0.799891  0.600146  0.000000 ->   0.3449386632

 END OF EFFECTIVE MASSES SECTION

 ---- first-order wavefunction calculations are completed ----

 Total localisation tensor (bohr^2) in cartesian coordinates
  WARNING : still subject to testing - especially symmetries.
      direction              matrix element
   alpha     beta       real part   imaginary part
     1        1       3.0456979096    0.0000000000
     1        2      -0.6337281874    0.0000000000
     1        3      -1.8425995077    0.0000000000
     2        1      -0.6337281874    0.0000000000
     2        2       2.7540460292    0.0000000000
     2        3      -2.3147499106    0.0000000000
     3        1      -1.8425995077    0.0000000000
     3        2      -2.3147499106    0.0000000000
     3        3      11.5241759485    0.0000000000

 respfn : d/dk was computed, but no 2DTE, so no DDB output.

== END DATASET(S) ==============================================================

 -outvars: echo values of variables after computation  --------
            acell      1.0000000000E+00  1.0000000000E+00  1.0000000000E+00 Bohr
              amu      1.12411000E+02  2.80855000E+01  3.09737620E+01
             ecut      5.10000000E+01 Hartree
           etotal     -5.9655519053E+01
            fcart      0.0000000000E+00  0.0000000000E+00  0.0000000000E+00
                       0.0000000000E+00  0.0000000000E+00  0.0000000000E+00
                       0.0000000000E+00  0.0000000000E+00  0.0000000000E+00
                       0.0000000000E+00  0.0000000000E+00  0.0000000000E+00
                       0.0000000000E+00  0.0000000000E+00  0.0000000000E+00
                       0.0000000000E+00  0.0000000000E+00  0.0000000000E+00
                       0.0000000000E+00  0.0000000000E+00  0.0000000000E+00
                       0.0000000000E+00  0.0000000000E+00  0.0000000000E+00
-          fftalg         512
           irdden           1
           irdwfk           1
           istwfk        1
              ixc     -116133
           kptopt           0
P           mkmem           1
P          mkqmem           1
P          mk1mem           1
            natom           8
            nband          43
           nbdbuf           4
            ngfft          90      90      90
             nkpt           1
            nstep        2000
             nsym           8
           ntypat           3
              occ      2.000000  2.000000  2.000000  2.000000  2.000000  2.000000
                       2.000000  2.000000  2.000000  2.000000  2.000000  2.000000
                       2.000000  2.000000  2.000000  2.000000  2.000000  2.000000
                       2.000000  2.000000  2.000000  2.000000  2.000000  2.000000
                       2.000000  2.000000  2.000000  2.000000  2.000000  2.000000
                       2.000000  2.000000  2.000000  2.000000  0.000000  0.000000
                       0.000000  0.000000  0.000000  0.000000  0.000000  0.000000
                       0.000000
        optdriver           1
            prtwf          -1
            rfdir           1       1       1
           rfelfd           2
            rprim      9.6396128389E+00  0.0000000000E+00 -7.8956639598E+00
                      -2.1616610877E+00  9.3941128919E+00 -7.8956639598E+00
                       0.0000000000E+00  0.0000000000E+00  1.2460483339E+01
          spgroup         122
           strten      0.0000000000E+00  0.0000000000E+00  0.0000000000E+00
                       0.0000000000E+00  0.0000000000E+00  0.0000000000E+00
           symrel      1  0  0   0  1  0   0  0  1       0  0  1  -1 -1 -1   1  0  0
                       0  1  0   1  0  0  -1 -1 -1      -1 -1 -1   0  0  1   0  1  0
                       0  1  0   1  0  0   0  0  1       0  0  1  -1 -1 -1   0  1  0
                       1  0  0   0  1  0  -1 -1 -1      -1 -1 -1   0  0  1   1  0  0
            tnons      0.0000000  0.0000000  0.0000000    -0.2500000  0.2500000  0.5000000
                       0.0000000  0.0000000  0.0000000    -0.2500000  0.2500000  0.5000000
                      -0.2500000  0.2500000  0.5000000     0.0000000  0.0000000  0.0000000
                      -0.2500000  0.2500000  0.5000000     0.0000000  0.0000000  0.0000000
           tolwfr      1.00000000E-20
            typat      1  1  2  2  3  3  3  3
           useylm           1
           xangst      0.0000000000E+00  0.0000000000E+00  0.0000000000E+00
                       3.5398221154E+00  1.2427876093E+00 -8.8130351863E-01
                       4.1733951826E-01  3.7283628280E+00 -8.8130351863E-01
                       1.9785808168E+00  2.4855752187E+00 -4.1782054142E+00
                       1.4350326676E+00  2.0767030663E+00  2.6651708114E-01
                       1.4076987607E-01  3.1069690233E+00 -3.0303848144E+00
                       3.5114193745E+00  4.1372349803E+00 -4.1182268255E+00
                       2.8271013492E+00  6.2139380466E-01  3.3568804843E+00
            xcart      0.0000000000E+00  0.0000000000E+00  0.0000000000E+00
                       6.6892943572E+00  2.3485282230E+00 -1.6654222902E+00
                       7.8865739395E-01  7.0455846689E+00 -1.6654222901E+00
                       3.7389758756E+00  4.6970564460E+00 -7.8956639598E+00
                       2.7118187335E+00  3.9244000547E+00  5.0364429309E-01
                       2.6601651353E-01  5.8713205574E+00 -5.7265973766E+00
                       6.6356209555E+00  7.8182410602E+00 -7.7823208533E+00
                       5.3424472999E+00  1.1742641115E+00  6.3435847762E+00
             xred      0.0000000000E+00  0.0000000000E+00  0.0000000000E+00
                       7.5000000000E-01  2.5000000000E-01  5.0000000000E-01
                       2.5000000000E-01  7.5000000000E-01  5.0000000000E-01
                       5.0000000000E-01  5.0000000000E-01  2.7755575616E-17
                       3.7500000000E-01  4.1775100000E-01  5.4275100000E-01
                       1.6775100000E-01  6.2500000000E-01  4.2751000000E-02
                       8.7500000000E-01  8.3224900000E-01  4.5724900000E-01
                       5.8224900000E-01  1.2500000000E-01  9.5724900000E-01
            znucl       48.00000   14.00000   15.00000

- Timing analysis has been suppressed with timopt=0

 Suggested references for the acknowledgment of ABINIT usage.

 Calculation completed.
.Delivered   2 WARNINGs and  11 COMMENTs to log file.