.Version 9.5.1 of ABINIT

 ABINIT is a project of the Universite Catholique de Louvain,
 Corning Inc. and other collaborators, see ~abinit/doc/developers/contributors.txt .
 acknowledgments of the ABINIT effort.

.Starting date : Tue 18 May 2021.
- ( at 17h43 )

- input  file    -> /scratch/users/j/a/jabreu/flow_simple_8atoms/flow/w365/t1/run.abi
- output file    -> /scratch/users/j/a/jabreu/flow_simple_8atoms/flow/w365/t1/run.abo
- root for input  files -> /scratch/users/j/a/jabreu/flow_simple_8atoms/flow/w365/t1/indata/in
- root for output files -> /scratch/users/j/a/jabreu/flow_simple_8atoms/flow/w365/t1/outdata/out

 Symmetries : space group P-4 3 m (#215); Bravais cP (primitive cubic)
     intxc =       0      iscf =       7    lmnmax =      18     lnmax =       6
     mgfft =      72  mpssoang =       3    mqgrid =    3223     natom =       8
  nloc_mem =       1    nspden =       1   nspinor =       1    nsppol =       1
      nsym =      24    n1xccc =    2501    ntypat =       3    occopt =       1
   xclevel =       2
-    mband =          76        mffmem =           1         mkmem =           2
-   mkqmem =           2        mk1mem =           2           mpw =       17592
      nfft =      373248          nkpt =           2
  Rough estimation (10% accuracy) of disk space for files :

------------- Echo of variables that govern the present computation ------------
-
- outvars: echo of selected default values
-   iomode0 =  0 , fftalg0 =512 , wfoptalg0 =  0
-
- outvars: echo of global parameters not present in the input file
-  max_nthreads =    0
-
 -outvars: echo values of preprocessed input variables --------
            acell      1.0000000000E+00  1.0000000000E+00  1.0000000000E+00 Bohr
              amu      9.29063800E+01  6.35460000E+01  7.89600000E+01
             ecut      4.60000000E+01 Hartree
-          fftalg         512
           irdden           1
           irdwfk           1
           istwfk        1    1
              ixc     -116133
              kpt      5.00000000E-01  5.00000000E-01  5.00000000E-01
                       0.00000000E+00  5.00000000E-01  0.00000000E+00
           kptopt           0
P           mkmem           2
P          mkqmem           2
P          mk1mem           2
            natom           8
            nband          76
           nbdbuf           4
            ngfft          72      72      72
             nkpt           2
            nstep        2000
             nsym          24
           ntypat           3
              occ      2.000000  2.000000  2.000000  2.000000  2.000000  2.000000
                       2.000000  2.000000  2.000000  2.000000  2.000000  2.000000
                       2.000000  2.000000  2.000000  2.000000  2.000000  2.000000
                       2.000000  2.000000  2.000000  2.000000  2.000000  2.000000
                       2.000000  2.000000  2.000000  2.000000  2.000000  2.000000
                       2.000000  2.000000  2.000000  2.000000  2.000000  2.000000
                       2.000000  2.000000  2.000000  2.000000  2.000000  2.000000
                       2.000000  2.000000  2.000000  2.000000  2.000000  2.000000
                       2.000000  2.000000  2.000000  2.000000  2.000000  2.000000
                       2.000000  2.000000  2.000000  2.000000  2.000000  2.000000
                       2.000000  2.000000  2.000000  2.000000  2.000000  2.000000
                       2.000000  0.000000  0.000000  0.000000  0.000000  0.000000
                       0.000000  0.000000  0.000000  0.000000
        optdriver           1
            prtwf          -1
            rfdir           1       1       1
           rfelfd           2
            rprim      1.0553566376E+01  0.0000000000E+00  0.0000000000E+00
                       0.0000000000E+00  1.0553566376E+01  0.0000000000E+00
                       0.0000000000E+00  0.0000000000E+00  1.0553566376E+01
          spgroup         215
           symrel      1  0  0   0  1  0   0  0  1      -1  0  0   0  1  0   0  0 -1
                      -1  0  0   0 -1  0   0  0  1       1  0  0   0 -1  0   0  0 -1
                       0  1  0   1  0  0   0  0  1       0 -1  0   1  0  0   0  0 -1
                       0 -1  0  -1  0  0   0  0  1       0  1  0  -1  0  0   0  0 -1
                       0  0  1   1  0  0   0  1  0       0  0 -1   1  0  0   0 -1  0
                       0  0 -1  -1  0  0   0  1  0       0  0  1  -1  0  0   0 -1  0
                       1  0  0   0  0  1   0  1  0      -1  0  0   0  0  1   0 -1  0
                      -1  0  0   0  0 -1   0  1  0       1  0  0   0  0 -1   0 -1  0
                       0  1  0   0  0  1   1  0  0       0 -1  0   0  0  1  -1  0  0
                       0 -1  0   0  0 -1   1  0  0       0  1  0   0  0 -1  -1  0  0
                       0  0  1   0  1  0   1  0  0       0  0 -1   0  1  0  -1  0  0
                       0  0 -1   0 -1  0   1  0  0       0  0  1   0 -1  0  -1  0  0
           tolwfr      1.00000000E-20
            typat      1  2  2  2  3  3  3  3
           useylm           1
              wtk        0.50000    0.50000
           xangst      0.0000000000E+00  0.0000000000E+00  0.0000000000E+00
                       2.7923533978E+00  0.0000000000E+00  0.0000000000E+00
                       0.0000000000E+00  0.0000000000E+00  2.7923533978E+00
                       0.0000000000E+00  2.7923533978E+00  0.0000000000E+00
                       1.4111939755E+00  1.4111939755E+00  1.4111939755E+00
                       4.1735128201E+00  4.1735128201E+00  1.4111939755E+00
                       4.1735128201E+00  1.4111939755E+00  4.1735128201E+00
                       1.4111939755E+00  4.1735128201E+00  4.1735128201E+00
            xcart      0.0000000000E+00  0.0000000000E+00  0.0000000000E+00
                       5.2767831880E+00  0.0000000000E+00  0.0000000000E+00
                       0.0000000000E+00  0.0000000000E+00  5.2767831880E+00
                       0.0000000000E+00  5.2767831880E+00  0.0000000000E+00
                       2.6667701340E+00  2.6667701340E+00  2.6667701340E+00
                       7.8867962421E+00  7.8867962421E+00  2.6667701340E+00
                       7.8867962421E+00  2.6667701340E+00  7.8867962421E+00
                       2.6667701340E+00  7.8867962421E+00  7.8867962421E+00
             xred      0.0000000000E+00  0.0000000000E+00  0.0000000000E+00
                       5.0000000000E-01  0.0000000000E+00  0.0000000000E+00
                       0.0000000000E+00  0.0000000000E+00  5.0000000000E-01
                       0.0000000000E+00  5.0000000000E-01  0.0000000000E+00
                       2.5268900000E-01  2.5268900000E-01  2.5268900000E-01
                       7.4731100000E-01  7.4731100000E-01  2.5268900000E-01
                       7.4731100000E-01  2.5268900000E-01  7.4731100000E-01
                       2.5268900000E-01  7.4731100000E-01  7.4731100000E-01
            znucl       41.00000   29.00000   34.00000

 chkinp: Checking input parameters for consistency.

== DATASET  1 ==================================================================
-   mpi_nproc: 1, omp_nthreads: -1 (-1 if OMP is not activated)

--- !DatasetInfo
iteration_state: {dtset: 1, }
dimensions: {natom: 8, nkpt: 2, mband: 76, nsppol: 1, nspinor: 1, nspden: 1, mpw: 17592, }
cutoff_energies: {ecut:  46.0, pawecutdg:  -1.0, }
electrons: {nelect:   1.34000000E+02, charge:   0.00000000E+00, occopt:   1.00000000E+00, tsmear:   1.00000000E-02, }
meta: {optdriver: 1, rfelfd: 2, }
...

 Real(R)+Recip(G) space primitive vectors, cartesian coordinates (Bohr,Bohr^-1):
 R(1)= 10.5535664  0.0000000  0.0000000  G(1)=  0.0947547  0.0000000  0.0000000
 R(2)=  0.0000000 10.5535664  0.0000000  G(2)=  0.0000000  0.0947547  0.0000000
 R(3)=  0.0000000  0.0000000 10.5535664  G(3)=  0.0000000  0.0000000  0.0947547
 Unit cell volume ucvol=  1.1754326E+03 bohr^3
 Angles (23,13,12)=  9.00000000E+01  9.00000000E+01  9.00000000E+01 degrees

 getcut: wavevector=  0.0000  0.0000  0.0000  ngfft=  72  72  72
         ecut(hartree)=     46.000   => boxcut(ratio)=   2.23455

 getcut : COMMENT -
  Note that boxcut > 2.2 ; recall that boxcut=Gcut(box)/Gcut(sphere) = 2
  is sufficient for exact treatment of convolution.
  Such a large boxcut is a waste : you could raise ecut
  e.g. ecut=   57.421728 Hartrees makes boxcut=2

--- Pseudopotential description ------------------------------------------------
- pspini: atom type   1  psp file is /scratch/users/j/a/jabreu/pseudos/PBEsol/Nb.psp8
- pspatm: opening atomic psp file    /scratch/users/j/a/jabreu/pseudos/PBEsol/Nb.psp8
- Nb    ONCVPSP-3.3.0  r_core=   1.50879   1.40458   1.40458
- 41.00000  13.00000    180112                znucl, zion, pspdat
    8 -116133    2    4       600   0.00000   pspcod,pspxc,lmax,lloc,mmax,r2well
    5.99000000000000    5.00000000000000    0.00000000000000   rchrg,fchrg,qchrg
     nproj     2     2     2
     extension_switch     1
  pspatm : epsatm=   15.66753381
         --- l  ekb(1:nproj) -->
             0   12.953547    1.345168
             1    7.772306    0.779703
             2    3.518917    1.091480
 pspatm: atomic psp has been read  and splines computed

- pspini: atom type   2  psp file is /scratch/users/j/a/jabreu/pseudos/PBEsol/Cu.psp8
- pspatm: opening atomic psp file    /scratch/users/j/a/jabreu/pseudos/PBEsol/Cu.psp8
- Cu    ONCVPSP-3.3.0  r_core=   1.26204   1.45626   1.76249
- 29.00000  19.00000    180112                znucl, zion, pspdat
    8 -116133    2    4       600   0.00000   pspcod,pspxc,lmax,lloc,mmax,r2well
    5.99000000000000    3.50000000000000    0.00000000000000   rchrg,fchrg,qchrg
     nproj     2     2     2
     extension_switch     1
  pspatm : epsatm=   21.63488701
         --- l  ekb(1:nproj) -->
             0    5.008230   -0.401634
             1   -3.496700   -0.765945
             2   -6.895851   -2.521180
 pspatm: atomic psp has been read  and splines computed

- pspini: atom type   3  psp file is /scratch/users/j/a/jabreu/pseudos/PBEsol/Se.psp8
- pspatm: opening atomic psp file    /scratch/users/j/a/jabreu/pseudos/PBEsol/Se.psp8
- Se    ONCVPSP-3.3.0  r_core=   1.81943   1.50330   1.90835
- 34.00000  16.00000    180112                znucl, zion, pspdat
    8 -116133    2    4       600   0.00000   pspcod,pspxc,lmax,lloc,mmax,r2well
    5.99000000000000    5.00000000000000    0.00000000000000   rchrg,fchrg,qchrg
     nproj     2     2     2
     extension_switch     1
  pspatm : epsatm=   29.17862020
         --- l  ekb(1:nproj) -->
             0    8.973804    1.019550
             1    6.849857    1.297308
             2   -9.203962   -3.731027
 pspatm: atomic psp has been read  and splines computed

   2.64364145E+04                                ecore*ucvol(ha*bohr**3)

-inwffil : will read wavefunctions from disk file /scratch/users/j/a/jabreu/flow_simple_8atoms/flow/w365/t1/indata/in_WFK

 ==>  initialize data related to q vector <==

 The list of irreducible perturbations for this q vector is:
    1)    idir= 1    ipert=   9
    2)    idir= 2    ipert=   9
    3)    idir= 3    ipert=   9

[...]
 2DEtotal=   -0.8817708929E+02 Ha. Also 2DEtotal=   -0.239942062433E+04 eV
    (  non-var. 2DEtotal :   -8.8177089289E+01 Ha)

 Perturbation wavevector (in red.coord.)   0.000000  0.000000  0.000000
 Perturbation : derivative vs k along direction   2
 The set of symmetries contains only one element for this perturbation.
 symkpt : not enough symmetry to change the number of k points.

[...]

 Perturbation wavevector (in red.coord.)   0.000000  0.000000  0.000000
 Perturbation : derivative vs k along direction   3
 The set of symmetries contains only one element for this perturbation.
 symkpt : not enough symmetry to change the number of k points.

-inwffil : will read wavefunctions from disk file /scratch/users/j/a/jabreu/flow_simple_8atoms/flow/w365/t1/indata/in_WFK

 Initialisation of the first-order wave-functions :
  ireadwf=   0

--- !BeginCycle
iteration_state: {dtset: 1, }
solver: {iscf: 7, nstep: 2000, nline: 4, wfoptalg: 0, }
tolerances: {tolwfr: 1.00E-20, }
...

     iter   2DEtotal(Ha)        deltaE(Ha) residm    vres2
-ETOT  1  -87.888557262385     -8.789E+01 1.840E-01 0.000E+00
 ETOT  2  -88.166965757118     -2.784E-01 5.455E-03 0.000E+00
 ETOT  3  -88.176970588801     -1.000E-02 4.113E-04 0.000E+00
 ETOT  4  -88.177576753295     -6.062E-04 2.997E-05 0.000E+00
 ETOT  5  -88.177619793140     -4.304E-05 4.054E-06 0.000E+00
 ETOT  6  -88.177623095246     -3.302E-06 3.892E-07 0.000E+00
 ETOT  7  -88.177623364690     -2.694E-07 6.836E-08 0.000E+00
 ETOT  8  -88.177623387593     -2.290E-08 7.775E-09 0.000E+00
 ETOT  9  -88.177623389608     -2.014E-09 1.414E-09 0.000E+00
 ETOT 10  -88.177623389789     -1.817E-10 1.679E-10 0.000E+00
 ETOT 11  -88.177623389806     -1.680E-11 3.054E-11 0.000E+00
 ETOT 12  -88.177623389808     -1.620E-12 3.683E-12 0.000E+00
 ETOT 13  -88.177623389808     -5.684E-14 6.671E-13 0.000E+00
 ETOT 14  -88.177623389808     -5.684E-14 8.114E-14 0.000E+00
 ETOT 15  -88.177623389808     -2.842E-14 1.464E-14 0.000E+00
 ETOT 16  -88.177623389808      2.842E-14 1.792E-15 0.000E+00
 ETOT 17  -88.177623389808      0.000E+00 3.224E-16 0.000E+00
 ETOT 18  -88.177623389808     -1.421E-14 3.965E-17 0.000E+00
 ETOT 19  -88.177623389808     -1.421E-14 7.114E-18 0.000E+00
 ETOT 20  -88.177623389808      0.000E+00 8.785E-19 0.000E+00
 ETOT 21  -88.177623389808     -1.421E-14 1.572E-19 0.000E+00
 ETOT 22  -88.177623389808      1.421E-14 1.948E-20 0.000E+00
 ETOT 23  -88.177623389808      1.421E-14 9.979E-21 0.000E+00

 At SCF step   23   max residual=  9.98E-21 < tolwfr=  1.00E-20 =>converged.

 ----iterations are completed or convergence reached----

 dfpt_looppert: DFPT cycle converged with prtwf=-1. Will skip output of the 1st-order WFK file.
 dfpt_looppert : ek2=    9.4993970150E+01
          f-sum rule ratio=    1.0360480877E+00
 prteigrs : about to open file /scratch/users/j/a/jabreu/flow_simple_8atoms/flow/w365/t1/tmpdata/tmp_1WF1_EIG
 Expectation of eigenvalue derivatives (hartree) for nkpt=   2  k points:
  (in case of degenerate eigenvalues, averaged derivative)
 kpt#   1, nband= 76, wtk=  0.50000, kpt=  0.5000  0.5000  0.5000 (reduced coord)
  -0.00000   -0.00000   -0.00000    0.00000   -0.00000   -0.00000   -0.00000   -0.00000
  -0.00000   -0.00000   -0.00000   -0.00000   -0.00000   -0.00000   -0.00000   -0.00000
   0.00000    0.00000    0.00000   -0.00000   -0.00000    0.00000    0.00000    0.00000
   0.00000   -0.00000   -0.00000    0.00000    0.00000    0.00000   -0.00000   -0.00000
  -0.00000   -0.00000   -0.00000   -0.00000   -0.00000   -0.00000   -0.00000   -0.00000
   0.00000    0.00000    0.00000   -0.00000   -0.00000   -0.00000    0.00000    0.00000
   0.00000    0.00000    0.00000    0.00000   -0.00000   -0.00000   -0.00000   -0.00000
  -0.00000   -0.00000    0.00000   -0.00000   -0.00000   -0.00000   -0.00000   -0.00000
  -0.00000   -0.00000   -0.00000   -0.00000   -0.00000    0.00000    0.00000    0.00000
   0.00000    0.00000    0.00000    0.00000
 prteigrs : prtvol=0 or 1, do not print more k-points.

 Eight components of 2nd-order total energy (hartree) are
 1,2,3: 0th-order hamiltonian combined with 1st-order wavefunctions
     kin0=   1.10464215E+02 eigvalue=   9.60853582E+00  local=  -4.52023593E+01
 4,5,6: 1st-order hamiltonian combined with 1st and 0th-order wfs
     kin1=  -9.84183211E+01  Hartree=   0.00000000E+00     xc=   0.00000000E+00
 7,8,9: eventually, occupation + non-local contributions
    edocc=   1.00129022E+01     enl0=   3.29432991E+00   enl1=  -7.79369257E+01
 1-9 gives the relaxation energy (to be shifted if some occ is /=2.0)
   erelax=  -8.81776234E+01
  No Ewald or frozen-wf contrib.: the relaxation energy is the total one
 2DEtotal=   -0.8817762339E+02 Ha. Also 2DEtotal=   -0.239943515792E+04 eV
    (  non-var. 2DEtotal :   -8.8177623389E+01 Ha)

 CALCULATION OF EFFECTIVE MASSES
 NOTE : Additional infos (eff. mass eigenvalues, eigenvectors and, if degenerate, average mass) are available in stdout.

 COMMENTS:
 - At k-point ( 0.500, 0.500, 0.500), bands    65 through    67
   are DEGENERATE (effective mass tensor is therefore not defined).
   See Section IIIB Eqs. (67)-(70) and Appendix E of PRB 93 205147 (2016).
 - Angular average effective mass for Frohlich model is to be averaged over degenerate bands. See later.
 - Associated theta integrals calculated with ntheta=   1000 points.

 K-point ( 0.500, 0.500, 0.500) | band =    65
 Transport equivalent effective mass tensor:
             -0.4452748840             -0.0000000019             -0.0000000008
             -0.0000000019             -0.4452750276             -0.0000000005
             -0.0000000008             -0.0000000005             -0.4452743264
 Transport equivalent effective mass tensor eigenvalues:
             -0.4452750276             -0.4452748840             -0.4452743264
 Angular average effective mass 1/(<1/m>)=  -0.4346918059
 Angular average effective mass for Frohlich model (<m**0.5>)**2=  -0.4351161483
 Effective masses along directions: (cart. coord. / red. coord. -> eff. mass)
    1:   1.000000  0.000000  0.000000 /   1.000000  0.000000  0.000000 ->  -0.4205466627
    2:   0.000000  1.000000  0.000000 /   0.000000  1.000000  0.000000 ->  -0.4205466631
    3:   0.000000  0.000000  1.000000 /   0.000000  0.000000  1.000000 ->  -0.4205466620
    4:   0.577350  0.577350  0.577350 /   0.577350  0.577350  0.577350 ->  -0.4917508154
    5:   0.000000  0.707107  0.707107 /   0.000000  0.707107  0.707107 ->  -0.4205466650
    6:   0.707107  0.000000  0.707107 /   0.707107  0.000000  0.707107 ->  -0.4205466643
    7:   0.707107  0.707107  0.000000 /   0.707107  0.707107  0.000000 ->  -0.4205466657

[...]

 K-point ( 0.500, 0.500, 0.500) | band =    67
 Transport equivalent effective mass tensor:
             -1.9661517021             -0.0000000014             -0.0000000006
             -0.0000000014             -1.9661517009             -0.0000000003
             -0.0000000006             -0.0000000003             -1.9661517003
 Transport equivalent effective mass tensor eigenvalues:
             -1.9661517032             -1.9661517002             -1.9661516999
 Angular average effective mass 1/(<1/m>)=  -1.1519791606
 Angular average effective mass for Frohlich model (<m**0.5>)**2=  -1.1980573387
 Effective masses along directions: (cart. coord. / red. coord. -> eff. mass)
    1:   1.000000  0.000000  0.000000 /   1.000000  0.000000  0.000000 ->  -2.0526568515
    2:   0.000000  1.000000  0.000000 /   0.000000  1.000000  0.000000 ->  -2.0526568511
    3:   0.000000  0.000000  1.000000 /   0.000000  0.000000  1.000000 ->  -2.0526568504
    4:   0.577350  0.577350  0.577350 /   0.577350  0.577350  0.577350 ->  -0.8504936134
    5:   0.000000  0.707107  0.707107 /   0.000000  0.707107  0.707107 ->  -0.9963789500
    6:   0.707107  0.000000  0.707107 /   0.707107  0.000000  0.707107 ->  -0.9963789504
    7:   0.707107  0.707107  0.000000 /   0.707107  0.707107  0.000000 ->  -0.9963789505

 Angular average effective mass for Frohlich model, averaged over degenerate bands.
 Value of     (<<m**0.5>>)**2 =     6.667919E-01
 Absolute Value of <<m**0.5>> =     8.165732E-01

 K-point ( 0.000, 0.500, 0.000) | band =    68
 Effective mass tensor:
              0.7806367313             -0.0000163959             -0.0000029665
             -0.0000163959              3.3798639422             -0.0000254637
             -0.0000029665             -0.0000254637              0.7806327662
 Effective mass tensor eigenvalues:
              0.7806311804              0.7806383168              3.3798639426
 Angular average effective mass 1/(<1/m>)=   1.0497263993
 Angular average effective mass for Frohlich model (<m**0.5>)**2=   1.1610188989
 Effective masses along directions: (cart. coord. / red. coord. -> eff. mass)
    1:   1.000000  0.000000  0.000000 /   1.000000  0.000000  0.000000 ->   0.7806367313
    2:   0.000000  1.000000  0.000000 /   0.000000  1.000000  0.000000 ->   3.3798639411
    3:   0.000000  0.000000  1.000000 /   0.000000  0.000000  1.000000 ->   0.7806327660
    4:   0.577350  0.577350  0.577350 /   0.577350  0.577350  0.577350 ->   1.0497111683
    5:   0.000000  0.707107  0.707107 /   0.000000  0.707107  0.707107 ->   1.2683102172
    6:   0.707107  0.000000  0.707107 /   0.707107  0.000000  0.707107 ->   0.7806317820
    7:   0.707107  0.707107  0.000000 /   0.707107  0.707107  0.000000 ->   1.2683209793

 END OF EFFECTIVE MASSES SECTION

 ---- first-order wavefunction calculations are completed ----

 Total localisation tensor (bohr^2) in cartesian coordinates
  WARNING : still subject to testing - especially symmetries.
      direction              matrix element
   alpha     beta       real part   imaginary part
     1        1       0.8330191072    0.0000000000
     1        2       0.0000000000    0.0000000000
     1        3       0.0000000000    0.0000000000
     2        1       0.0000000000    0.0000000000
     2        2       0.7387163353    0.0000000000
     2        3       0.0000000000    0.0000000000
     3        1       0.0000000000    0.0000000000
     3        2       0.0000000000    0.0000000000
     3        3       0.8330532137    0.0000000000

 respfn : d/dk was computed, but no 2DTE, so no DDB output.

== END DATASET(S) ==============================================================

 -outvars: echo values of variables after computation  --------
            acell      1.0000000000E+00  1.0000000000E+00  1.0000000000E+00 Bohr
              amu      9.29063800E+01  6.35460000E+01  7.89600000E+01
             ecut      4.60000000E+01 Hartree
           etotal     -8.8177623390E+01
            fcart      0.0000000000E+00  0.0000000000E+00  0.0000000000E+00
                       0.0000000000E+00  0.0000000000E+00  0.0000000000E+00
                       0.0000000000E+00  0.0000000000E+00  0.0000000000E+00
                       0.0000000000E+00  0.0000000000E+00  0.0000000000E+00
                       0.0000000000E+00  0.0000000000E+00  0.0000000000E+00
                       0.0000000000E+00  0.0000000000E+00  0.0000000000E+00
                       0.0000000000E+00  0.0000000000E+00  0.0000000000E+00
                       0.0000000000E+00  0.0000000000E+00  0.0000000000E+00
-          fftalg         512
           irdden           1
           irdwfk           1
           istwfk        1    1
              ixc     -116133
              kpt      5.00000000E-01  5.00000000E-01  5.00000000E-01
                       0.00000000E+00  5.00000000E-01  0.00000000E+00
           kptopt           0
P           mkmem           2
P          mkqmem           2
P          mk1mem           2
            natom           8
            nband          76
           nbdbuf           4
            ngfft          72      72      72
             nkpt           2
            nstep        2000
             nsym          24
           ntypat           3
              occ      2.000000  2.000000  2.000000  2.000000  2.000000  2.000000
                       2.000000  2.000000  2.000000  2.000000  2.000000  2.000000
                       2.000000  2.000000  2.000000  2.000000  2.000000  2.000000
                       2.000000  2.000000  2.000000  2.000000  2.000000  2.000000
                       2.000000  2.000000  2.000000  2.000000  2.000000  2.000000
                       2.000000  2.000000  2.000000  2.000000  2.000000  2.000000
                       2.000000  2.000000  2.000000  2.000000  2.000000  2.000000
                       2.000000  2.000000  2.000000  2.000000  2.000000  2.000000
                       2.000000  2.000000  2.000000  2.000000  2.000000  2.000000
                       2.000000  2.000000  2.000000  2.000000  2.000000  2.000000
                       2.000000  2.000000  2.000000  2.000000  2.000000  2.000000
                       2.000000  0.000000  0.000000  0.000000  0.000000  0.000000
                       0.000000  0.000000  0.000000  0.000000
        optdriver           1
            prtwf          -1
            rfdir           1       1       1
           rfelfd           2
            rprim      1.0553566376E+01  0.0000000000E+00  0.0000000000E+00
                       0.0000000000E+00  1.0553566376E+01  0.0000000000E+00
                       0.0000000000E+00  0.0000000000E+00  1.0553566376E+01
          spgroup         215
           strten      0.0000000000E+00  0.0000000000E+00  0.0000000000E+00
                       0.0000000000E+00  0.0000000000E+00  0.0000000000E+00
           symrel      1  0  0   0  1  0   0  0  1      -1  0  0   0  1  0   0  0 -1
                      -1  0  0   0 -1  0   0  0  1       1  0  0   0 -1  0   0  0 -1
                       0  1  0   1  0  0   0  0  1       0 -1  0   1  0  0   0  0 -1
                       0 -1  0  -1  0  0   0  0  1       0  1  0  -1  0  0   0  0 -1
                       0  0  1   1  0  0   0  1  0       0  0 -1   1  0  0   0 -1  0
                       0  0 -1  -1  0  0   0  1  0       0  0  1  -1  0  0   0 -1  0
                       1  0  0   0  0  1   0  1  0      -1  0  0   0  0  1   0 -1  0
                      -1  0  0   0  0 -1   0  1  0       1  0  0   0  0 -1   0 -1  0
                       0  1  0   0  0  1   1  0  0       0 -1  0   0  0  1  -1  0  0
                       0 -1  0   0  0 -1   1  0  0       0  1  0   0  0 -1  -1  0  0
                       0  0  1   0  1  0   1  0  0       0  0 -1   0  1  0  -1  0  0
                       0  0 -1   0 -1  0   1  0  0       0  0  1   0 -1  0  -1  0  0
           tolwfr      1.00000000E-20
            typat      1  2  2  2  3  3  3  3
           useylm           1
              wtk        0.50000    0.50000
           xangst      0.0000000000E+00  0.0000000000E+00  0.0000000000E+00
                       2.7923533978E+00  0.0000000000E+00  0.0000000000E+00
                       0.0000000000E+00  0.0000000000E+00  2.7923533978E+00
                       0.0000000000E+00  2.7923533978E+00  0.0000000000E+00
                       1.4111939755E+00  1.4111939755E+00  1.4111939755E+00
                       4.1735128201E+00  4.1735128201E+00  1.4111939755E+00
                       4.1735128201E+00  1.4111939755E+00  4.1735128201E+00
                       1.4111939755E+00  4.1735128201E+00  4.1735128201E+00
            xcart      0.0000000000E+00  0.0000000000E+00  0.0000000000E+00
                       5.2767831880E+00  0.0000000000E+00  0.0000000000E+00
                       0.0000000000E+00  0.0000000000E+00  5.2767831880E+00
                       0.0000000000E+00  5.2767831880E+00  0.0000000000E+00
                       2.6667701340E+00  2.6667701340E+00  2.6667701340E+00
                       7.8867962421E+00  7.8867962421E+00  2.6667701340E+00
                       7.8867962421E+00  2.6667701340E+00  7.8867962421E+00
                       2.6667701340E+00  7.8867962421E+00  7.8867962421E+00
             xred      0.0000000000E+00  0.0000000000E+00  0.0000000000E+00
                       5.0000000000E-01  0.0000000000E+00  0.0000000000E+00
                       0.0000000000E+00  0.0000000000E+00  5.0000000000E-01
                       0.0000000000E+00  5.0000000000E-01  0.0000000000E+00
                       2.5268900000E-01  2.5268900000E-01  2.5268900000E-01
                       7.4731100000E-01  7.4731100000E-01  2.5268900000E-01
                       7.4731100000E-01  2.5268900000E-01  7.4731100000E-01
                       2.5268900000E-01  7.4731100000E-01  7.4731100000E-01
            znucl       41.00000   29.00000   34.00000

- Timing analysis has been suppressed with timopt=0

 Suggested references for the acknowledgment of ABINIT usage.

 Calculation completed.
.Delivered  14 WARNINGs and  17 COMMENTs to log file.