.Version 9.5.2 of ABINIT

 ABINIT is a project of the Universite Catholique de Louvain,
 Corning Inc. and other collaborators, see ~abinit/doc/developers/contributors.txt .
 acknowledgments of the ABINIT effort.

.Starting date : Wed 26 May 2021.
- ( at 02h14 )

- input  file    -> /scratch/users/j/a/jabreu/flow_simple_11atoms/flow/w218/t1/run.abi
- output file    -> /scratch/users/j/a/jabreu/flow_simple_11atoms/flow/w218/t1/run.abo
- root for input  files -> /scratch/users/j/a/jabreu/flow_simple_11atoms/flow/w218/t1/indata/in
- root for output files -> /scratch/users/j/a/jabreu/flow_simple_11atoms/flow/w218/t1/outdata/out

 Symmetries : space group Pc a 2_1 (# 29); Bravais oP (primitive ortho.)
     intxc =       0      iscf =       7    lmnmax =      18     lnmax =       6
     mgfft =      72  mpssoang =       3    mqgrid =    3243     natom =      12
  nloc_mem =       1    nspden =       1   nspinor =       1    nsppol =       1
      nsym =       4    n1xccc =    2501    ntypat =       3    occopt =       1
   xclevel =       2
-    mband =          85        mffmem =           1         mkmem =           2
-   mkqmem =           2        mk1mem =           2           mpw =       17808
      nfft =      373248          nkpt =           2
  Rough estimation (10% accuracy) of disk space for files :

------------- Echo of variables that govern the present computation ------------
-
- outvars: echo of selected default values
-   iomode0 =  0 , fftalg0 =512 , wfoptalg0 =  0
-
- outvars: echo of global parameters not present in the input file
-  max_nthreads =    0
-
 -outvars: echo values of preprocessed input variables --------
            acell      1.0000000000E+00  1.0000000000E+00  1.0000000000E+00 Bohr
              amu      5.89332000E+01  7.49215900E+01  3.20660000E+01
             ecut      4.80000000E+01 Hartree
-          fftalg         512
           irdden           1
           irdwfk           1
              ixc     -116133
              kpt      0.00000000E+00  0.00000000E+00  3.05555556E-01
                       0.00000000E+00  0.00000000E+00  8.33333333E-02
           kptopt           0
P           mkmem           2
P          mkqmem           2
P          mk1mem           2
            natom          12
            nband          85
           nbdbuf           4
            ngfft          72      72      72
             nkpt           2
            nstep        2000
             nsym           4
           ntypat           3
              occ      2.000000  2.000000  2.000000  2.000000  2.000000  2.000000
                       2.000000  2.000000  2.000000  2.000000  2.000000  2.000000
                       2.000000  2.000000  2.000000  2.000000  2.000000  2.000000
                       2.000000  2.000000  2.000000  2.000000  2.000000  2.000000
                       2.000000  2.000000  2.000000  2.000000  2.000000  2.000000
                       2.000000  2.000000  2.000000  2.000000  2.000000  2.000000
                       2.000000  2.000000  2.000000  2.000000  2.000000  2.000000
                       2.000000  2.000000  2.000000  2.000000  2.000000  2.000000
                       2.000000  2.000000  2.000000  2.000000  2.000000  2.000000
                       2.000000  2.000000  2.000000  2.000000  2.000000  2.000000
                       2.000000  2.000000  2.000000  2.000000  2.000000  2.000000
                       2.000000  2.000000  2.000000  2.000000  2.000000  2.000000
                       2.000000  2.000000  2.000000  2.000000  0.000000  0.000000
                       0.000000  0.000000  0.000000  0.000000  0.000000  0.000000
                       0.000000
        optdriver           1
            prtwf          -1
            rfdir           1       1       1
           rfelfd           2
            rprim      1.0377455542E+01  0.0000000000E+00  0.0000000000E+00
                       0.0000000000E+00  1.0388509911E+01  0.0000000000E+00
                       0.0000000000E+00  0.0000000000E+00  1.0397286498E+01
          spgroup          29
           symrel      1  0  0   0  1  0   0  0  1       1  0  0   0 -1  0   0  0  1
                       1  0  0   0  1  0   0  0 -1       1  0  0   0 -1  0   0  0 -1
            tnons      0.0000000  0.0000000  0.0000000     0.5000000  0.5000000  0.0000000
                       0.0000000  0.5000000 -0.0000000     0.5000000  0.0000000 -0.0000000
           tolwfr      1.00000000E-20
            typat      1  1  1  1  2  2  2  2  3  3  3  3
           useylm           1
              wtk        0.50000    0.50000
           xangst      2.7525110389E+00  2.7065275610E+00  1.3089659903E+00
                       2.7525110389E+00  5.4552088990E+00  4.1930410557E+00
                       6.7545609359E-03  4.2153776999E-02  1.3089659903E+00
                       6.7545609359E-03  2.7908351150E+00  4.1930410557E+00
                       2.0982302193E+00  4.8250791996E+00  2.0427906780E+00
                       4.8439866973E+00  3.4209648143E+00  2.0427906780E+00
                       2.0982302193E+00  2.0763978616E+00  3.4592163679E+00
                       4.8439866973E+00  6.7228347637E-01  3.4592163679E+00
                       3.4249687664E+00  6.5683038989E-01  7.0528027520E-01
                       6.7921228845E-01  2.0918509481E+00  7.0528027520E-01
                       6.7921228845E-01  4.8405322861E+00  4.7967267708E+00
                       3.4249687664E+00  3.4055117279E+00  4.7967267708E+00
            xcart      5.2014920413E+00  5.1145958614E+00  2.4735872389E+00
                       5.2014920413E+00  1.0308850817E+01  7.9236992592E+00
                       1.2764270317E-02  7.9659093995E-02  2.4735872389E+00
                       1.2764270317E-02  5.2739140493E+00  7.9236992592E+00
                       3.9650804782E+00  9.1180782567E+00  3.8603149283E+00
                       9.1538082492E+00  6.4646866093E+00  3.8603149283E+00
                       3.9650804782E+00  3.9238233014E+00  6.5369715698E+00
                       9.1538082492E+00  1.2704316540E+00  6.5369715698E+00
                       6.4722529823E+00  1.2412295526E+00  1.3327865670E+00
                       1.2835252113E+00  3.9530254027E+00  1.3327865670E+00
                       1.2835252113E+00  9.1472803581E+00  9.0644999311E+00
                       6.4722529823E+00  6.4354845080E+00  9.0644999311E+00
             xred      5.0123000000E-01  4.9233200000E-01  2.3790700000E-01
                       5.0123000000E-01  9.9233200000E-01  7.6209300000E-01
                       1.2300000000E-03  7.6680000000E-03  2.3790700000E-01
                       1.2300000000E-03  5.0766800000E-01  7.6209300000E-01
                       3.8208600000E-01  8.7770800000E-01  3.7128100000E-01
                       8.8208600000E-01  6.2229200000E-01  3.7128100000E-01
                       3.8208600000E-01  3.7770800000E-01  6.2871900000E-01
                       8.8208600000E-01  1.2229200000E-01  6.2871900000E-01
                       6.2368400000E-01  1.1948100000E-01  1.2818600000E-01
                       1.2368400000E-01  3.8051900000E-01  1.2818600000E-01
                       1.2368400000E-01  8.8051900000E-01  8.7181400000E-01
                       6.2368400000E-01  6.1948100000E-01  8.7181400000E-01
            znucl       27.00000   33.00000   16.00000

 chkinp: Checking input parameters for consistency.

== DATASET  1 ==================================================================
-   mpi_nproc: 1, omp_nthreads: -1 (-1 if OMP is not activated)

--- !DatasetInfo
iteration_state: {dtset: 1, }
dimensions: {natom: 12, nkpt: 2, mband: 85, nsppol: 1, nspinor: 1, nspden: 1, mpw: 17808, }
cutoff_energies: {ecut:  48.0, pawecutdg:  -1.0, }
electrons: {nelect:   1.52000000E+02, charge:   0.00000000E+00, occopt:   1.00000000E+00, tsmear:   1.00000000E-02, }
meta: {optdriver: 1, rfelfd: 2, }
...

 Real(R)+Recip(G) space primitive vectors, cartesian coordinates (Bohr,Bohr^-1):
 R(1)= 10.3774555  0.0000000  0.0000000  G(1)=  0.0963627  0.0000000  0.0000000
 R(2)=  0.0000000 10.3885099  0.0000000  G(2)=  0.0000000  0.0962602  0.0000000
 R(3)=  0.0000000  0.0000000 10.3972865  G(3)=  0.0000000  0.0000000  0.0961789
 Unit cell volume ucvol=  1.1208930E+03 bohr^3
 Angles (23,13,12)=  9.00000000E+01  9.00000000E+01  9.00000000E+01 degrees

 getcut: wavevector=  0.0000  0.0000  0.0000  ngfft=  72  72  72
         ecut(hartree)=     48.000   => boxcut(ratio)=   2.22038

 getcut : COMMENT -
  Note that boxcut > 2.2 ; recall that boxcut=Gcut(box)/Gcut(sphere) = 2
  is sufficient for exact treatment of convolution.
  Such a large boxcut is a waste : you could raise ecut
  e.g. ecut=   59.160894 Hartrees makes boxcut=2

--- Pseudopotential description ------------------------------------------------
- pspini: atom type   1  psp file is /scratch/users/j/a/jabreu/pseudos/PBEsol/Co.psp8
- pspatm: opening atomic psp file    /scratch/users/j/a/jabreu/pseudos/PBEsol/Co.psp8
- Co    ONCVPSP-3.3.0  r_core=   1.26190   1.32357   1.66026
- 27.00000  17.00000    180112                znucl, zion, pspdat
    8 -116133    2    4       600   0.00000   pspcod,pspxc,lmax,lloc,mmax,r2well
    5.99000000000000    6.00000000000000    0.00000000000000   rchrg,fchrg,qchrg
     nproj     2     2     2
     extension_switch     1
  pspatm : epsatm=   18.79313233
         --- l  ekb(1:nproj) -->
             0    6.295970   -0.649806
             1   -2.108725   -0.098055
             2   -6.914380   -2.516418
 pspatm: atomic psp has been read  and splines computed

- pspini: atom type   2  psp file is /scratch/users/j/a/jabreu/pseudos/PBEsol/As.psp8
- pspatm: opening atomic psp file    /scratch/users/j/a/jabreu/pseudos/PBEsol/As.psp8
- As    ONCVPSP-3.3.0  r_core=   1.76603   1.70395   1.80867
- 33.00000  15.00000    180112                znucl, zion, pspdat
    8 -116133    2    4       600   0.00000   pspcod,pspxc,lmax,lloc,mmax,r2well
    5.99000000000000    5.00000000000000    0.00000000000000   rchrg,fchrg,qchrg
     nproj     2     2     2
     extension_switch     1
  pspatm : epsatm=   28.79155382
         --- l  ekb(1:nproj) -->
             0    8.270760    0.868950
             1    4.919053    0.756587
             2  -10.048665   -4.076802
 pspatm: atomic psp has been read  and splines computed

- pspini: atom type   3  psp file is /scratch/users/j/a/jabreu/pseudos/PBEsol/S.psp8
- pspatm: opening atomic psp file    /scratch/users/j/a/jabreu/pseudos/PBEsol/S.psp8
- S     ONCVPSP-3.3.0  r_core=   1.45376   1.45376   1.61851
- 16.00000   6.00000    180112                znucl, zion, pspdat
    8 -116133    2    4       600   0.00000   pspcod,pspxc,lmax,lloc,mmax,r2well
    5.99000000000000    6.00000000000000    0.00000000000000   rchrg,fchrg,qchrg
     nproj     2     2     2
     extension_switch     1
  pspatm : epsatm=    8.71840985
         --- l  ekb(1:nproj) -->
             0    6.834532    0.579453
             1    3.282851    0.896984
             2   -3.496974   -0.974265
 pspatm: atomic psp has been read  and splines computed

   3.42322824E+04                                ecore*ucvol(ha*bohr**3)

[...]
 ETOT  4  -90.343303819344     -1.002E-02 9.304E-04 0.000E+00
 ETOT  5  -90.345098593688     -1.795E-03 3.775E-04 0.000E+00
 ETOT  6  -90.345439732273     -3.411E-04 1.677E-04 0.000E+00
 ETOT  7  -90.345507406808     -6.767E-05 7.347E-05 0.000E+00
 ETOT  8  -90.345521179708     -1.377E-05 3.306E-05 0.000E+00
 ETOT  9  -90.345524044310     -2.865E-06 1.499E-05 0.000E+00
 ETOT 10  -90.345524649513     -6.052E-07 6.755E-06 0.000E+00
 ETOT 11  -90.345524779172     -1.297E-07 3.143E-06 0.000E+00
 ETOT 12  -90.345524807248     -2.808E-08 1.409E-06 0.000E+00
 ETOT 13  -90.345524813386     -6.138E-09 7.156E-07 0.000E+00
 ETOT 14  -90.345524814738     -1.352E-09 3.329E-07 0.000E+00
 ETOT 15  -90.345524815038     -3.001E-10 1.879E-07 0.000E+00
 ETOT 16  -90.345524815105     -6.692E-11 8.773E-08 0.000E+00
 ETOT 17  -90.345524815120     -1.502E-11 4.952E-08 0.000E+00
 ETOT 18  -90.345524815124     -3.283E-12 2.319E-08 0.000E+00
 ETOT 19  -90.345524815125     -8.242E-13 1.309E-08 0.000E+00
 ETOT 20  -90.345524815125     -2.132E-13 6.139E-09 0.000E+00
 ETOT 21  -90.345524815125      0.000E+00 3.465E-09 0.000E+00
 ETOT 22  -90.345524815125     -2.842E-14 1.628E-09 0.000E+00
 ETOT 23  -90.345524815125     -1.421E-14 9.185E-10 0.000E+00
 ETOT 24  -90.345524815125      4.263E-14 4.319E-10 0.000E+00
 ETOT 25  -90.345524815125     -1.421E-14 2.437E-10 0.000E+00
 ETOT 26  -90.345524815125     -2.842E-14 1.147E-10 0.000E+00
 ETOT 27  -90.345524815125      0.000E+00 6.472E-11 0.000E+00
 ETOT 28  -90.345524815125      0.000E+00 3.048E-11 0.000E+00
 ETOT 29  -90.345524815125      0.000E+00 1.720E-11 0.000E+00
 ETOT 30  -90.345524815125     -4.263E-14 8.103E-12 0.000E+00
 ETOT 31  -90.345524815125      0.000E+00 4.572E-12 0.000E+00
 ETOT 32  -90.345524815125      4.263E-14 2.155E-12 0.000E+00
 ETOT 33  -90.345524815125     -5.684E-14 1.216E-12 0.000E+00
 ETOT 34  -90.345524815125      2.842E-14 5.735E-13 0.000E+00
 ETOT 35  -90.345524815125      2.842E-14 3.236E-13 0.000E+00
 ETOT 36  -90.345524815125     -4.263E-14 1.527E-13 0.000E+00
 ETOT 37  -90.345524815125      2.842E-14 8.614E-14 0.000E+00
 ETOT 38  -90.345524815125     -2.842E-14 4.064E-14 0.000E+00
 ETOT 39  -90.345524815125      0.000E+00 2.294E-14 0.000E+00
 ETOT 40  -90.345524815125      2.842E-14 1.082E-14 0.000E+00
 ETOT 41  -90.345524815125     -2.842E-14 6.110E-15 0.000E+00
 ETOT 42  -90.345524815125      1.421E-14 2.884E-15 0.000E+00
 ETOT 43  -90.345524815125      1.421E-14 1.628E-15 0.000E+00
 ETOT 44  -90.345524815125     -1.421E-14 7.684E-16 0.000E+00
 ETOT 45  -90.345524815125     -2.842E-14 4.338E-16 0.000E+00
 ETOT 46  -90.345524815125      0.000E+00 2.048E-16 0.000E+00
 ETOT 47  -90.345524815125     -1.421E-14 1.156E-16 0.000E+00
 ETOT 48  -90.345524815125      0.000E+00 5.460E-17 0.000E+00
 ETOT 49  -90.345524815125     -1.421E-14 3.083E-17 0.000E+00
 ETOT 50  -90.345524815125      1.421E-14 1.456E-17 0.000E+00
 ETOT 51  -90.345524815125      1.421E-14 8.223E-18 0.000E+00
 ETOT 52  -90.345524815125      1.421E-14 3.882E-18 0.000E+00
 ETOT 53  -90.345524815125      0.000E+00 2.193E-18 0.000E+00
 ETOT 54  -90.345524815125      0.000E+00 1.036E-18 0.000E+00
 ETOT 55  -90.345524815125     -1.421E-14 5.851E-19 0.000E+00
 ETOT 56  -90.345524815125      1.421E-14 2.762E-19 0.000E+00
 ETOT 57  -90.345524815125      0.000E+00 1.561E-19 0.000E+00
 ETOT 58  -90.345524815125     -1.421E-14 7.371E-20 0.000E+00
 ETOT 59  -90.345524815125      1.421E-14 4.166E-20 0.000E+00
 ETOT 60  -90.345524815125      0.000E+00 1.967E-20 0.000E+00
 ETOT 61  -90.345524815125     -2.842E-14 1.112E-20 0.000E+00
 ETOT 62  -90.345524815125      2.842E-14 9.874E-21 0.000E+00

 At SCF step   62   max residual=  9.87E-21 < tolwfr=  1.00E-20 =>converged.

 ----iterations are completed or convergence reached----

 dfpt_looppert: DFPT cycle converged with prtwf=-1. Will skip output of the 1st-order WFK file.
 dfpt_looppert : ek2=    1.1101797413E+02
          f-sum rule ratio=    9.8719288839E-01
 prteigrs : about to open file /scratch/users/j/a/jabreu/flow_simple_11atoms/flow/w218/t1/tmpdata/tmp_1WF1_EIG
 Expectation of eigenvalue derivatives (hartree) for nkpt=   2  k points:
  (in case of degenerate eigenvalues, averaged derivative)
 kpt#   1, nband= 85, wtk=  0.50000, kpt=  0.0000  0.0000  0.3056 (reduced coord)
   0.00000   -0.00000    0.00000    0.00000    0.00004   -0.00003    0.00000   -0.00000
   0.00002    0.00003   -0.00002   -0.00003    0.00000    0.00000   -0.00000   -0.00000
  -0.00001   -0.00000    0.00000   -0.00001   -0.00000   -0.00000    0.00000    0.00000
   0.00000    0.00000    0.00000    0.00000    0.00000    0.00000    0.00000   -0.00000
  -0.00000    0.00000    0.00000   -0.00000    0.06929   -0.11051    0.00661    0.01647
  -0.01878    0.05281    0.05820   -0.10415   -0.09615   -0.00242   -0.08242    0.00005
  -0.06078    0.02858   -0.00366    0.08512    0.04517   -0.02270    0.03354    0.00853
   0.06074    0.00663    0.05977    0.17336    0.04610   -0.05508    0.01914   -0.09046
   0.03572   -0.00878    0.01756   -0.01288   -0.00299    0.01310    0.02349    0.01280
   0.01783    0.03584    0.01305   -0.01234    0.07673    0.05642    0.04575    0.12105
  -0.15933   -0.07372   -0.07320   -0.01871   -0.05625
 prteigrs : prtvol=0 or 1, do not print more k-points.

 Eight components of 2nd-order total energy (hartree) are
 1,2,3: 0th-order hamiltonian combined with 1st-order wavefunctions
     kin0=   1.30019413E+02 eigvalue=  -3.26288121E-02  local=  -5.43997090E+01
 4,5,6: 1st-order hamiltonian combined with 1st and 0th-order wfs
     kin1=  -1.09596155E+02  Hartree=   0.00000000E+00     xc=   0.00000000E+00
 7,8,9: eventually, occupation + non-local contributions
    edocc=   1.00620959E+01     enl0=   4.69635401E+00   enl1=  -7.10948951E+01
 1-9 gives the relaxation energy (to be shifted if some occ is /=2.0)
   erelax=  -9.03455248E+01
  No Ewald or frozen-wf contrib.: the relaxation energy is the total one
 2DEtotal=   -0.9034552482E+02 Ha. Also 2DEtotal=   -0.245842675578E+04 eV
    (  non-var. 2DEtotal :   -9.0345524814E+01 Ha)

 CALCULATION OF EFFECTIVE MASSES
 NOTE : Additional infos (eff. mass eigenvalues, eigenvectors and, if degenerate, average mass) are available in stdout.

 K-point ( 0.000, 0.000, 0.306) | band =    76
 Effective mass tensor:
             -1.5816420052              0.0000352309             -0.0000061719
              0.0000352309             -1.0452767649             -0.0000323338
             -0.0000061719             -0.0000323338             -0.3730195423
 Effective mass tensor eigenvalues:
             -1.5816420076             -1.0452767642             -0.3730195407
 Angular average effective mass 1/(<1/m>)=  -0.7026150352
 Angular average effective mass for Frohlich model (<m**0.5>)**2=  -0.7906893731
 Effective masses along directions: (cart. coord. / red. coord. -> eff. mass)
    1:   1.000000  0.000000  0.000000 /   1.000000  0.000000  0.000000 ->  -1.5816420039
    2:   0.000000  1.000000  0.000000 /   0.000000  1.000000  0.000000 ->  -1.0452767613
    3:   0.000000  0.000000  1.000000 /   0.000000  0.000000  1.000000 ->  -0.3730195413
    4:   0.577350  0.577350  0.577350 /   0.576778  0.577392  0.577880 ->  -0.7026387582
    5:   0.000000  0.707107  0.707107 /   0.000000  0.706808  0.707405 ->  -0.5498518697
    6:   0.707107  0.000000  0.707107 /   0.706431  0.000000  0.707781 ->  -0.6036718762
    7:   0.707107  0.707107  0.000000 /   0.706730  0.707483  0.000000 ->  -1.2586679943

--- !WARNING
src_file: m_efmas.F90
src_line: 0
message: |

    Band(s)    77,
    are not band extrema, but saddle points;
    the transport equivalent formalism breaks down in these conditions.
    The associated tensor(s) will therefore not be printed.
...

 K-point ( 0.000, 0.000, 0.083) | band =    77
 Effective mass tensor:
     *** SADDLE POINT: TRANSPORT EQV. EFF. MASS NOT DEFINED (see WARNING above) ***
 Angular average effective mass 1/(<1/m>)=   7.5577298258
 Angular average effective mass for Frohlich model (<m**0.5>)**2=  20.1021797553
 Effective masses along directions: (cart. coord. / red. coord. -> eff. mass)
    1:   1.000000  0.000000  0.000000 /   1.000000  0.000000  0.000000 ->  -8.1347430513
    2:   0.000000  1.000000  0.000000 /   0.000000  1.000000  0.000000 ->  90.8223986552
    3:   0.000000  0.000000  1.000000 /   0.000000  0.000000  1.000000 ->   1.9651631311
    4:   0.577350  0.577350  0.577350 /   0.576778  0.577392  0.577880 ->   7.5576206117
    5:   0.000000  0.707107  0.707107 /   0.000000  0.706808  0.707405 ->   3.8470591104
    6:   0.707107  0.000000  0.707107 /   0.706431  0.000000  0.707781 ->   5.1822343590
    7:   0.707107  0.707107  0.000000 /   0.706730  0.707483  0.000000 -> -17.8704454581

 END OF EFFECTIVE MASSES SECTION

 ---- first-order wavefunction calculations are completed ----

 Total localisation tensor (bohr^2) in cartesian coordinates
  WARNING : still subject to testing - especially symmetries.
      direction              matrix element
   alpha     beta       real part   imaginary part
     1        1       0.7999562896    0.0000000000
     1        2       0.0000000000    0.0000000000
     1        3       0.0000000000    0.0000000000
     2        1       0.0000000000    0.0000000000
     2        2       0.7825951151    0.0000000000
     2        3       0.0000000000    0.0000000000
     3        1       0.0000000000    0.0000000000
     3        2       0.0000000000    0.0000000000
     3        3       0.9930088503    0.0000000000

 respfn : d/dk was computed, but no 2DTE, so no DDB output.

== END DATASET(S) ==============================================================

 -outvars: echo values of variables after computation  --------
            acell      1.0000000000E+00  1.0000000000E+00  1.0000000000E+00 Bohr
              amu      5.89332000E+01  7.49215900E+01  3.20660000E+01
             ecut      4.80000000E+01 Hartree
           etotal     -9.0345524815E+01
            fcart      0.0000000000E+00  0.0000000000E+00  0.0000000000E+00
                       0.0000000000E+00  0.0000000000E+00  0.0000000000E+00
                       0.0000000000E+00  0.0000000000E+00  0.0000000000E+00
                       0.0000000000E+00  0.0000000000E+00  0.0000000000E+00
                       0.0000000000E+00  0.0000000000E+00  0.0000000000E+00
                       0.0000000000E+00  0.0000000000E+00  0.0000000000E+00
                       0.0000000000E+00  0.0000000000E+00  0.0000000000E+00
                       0.0000000000E+00  0.0000000000E+00  0.0000000000E+00
                       0.0000000000E+00  0.0000000000E+00  0.0000000000E+00
                       0.0000000000E+00  0.0000000000E+00  0.0000000000E+00
                       0.0000000000E+00  0.0000000000E+00  0.0000000000E+00
                       0.0000000000E+00  0.0000000000E+00  0.0000000000E+00
-          fftalg         512
           irdden           1
           irdwfk           1
              ixc     -116133
              kpt      0.00000000E+00  0.00000000E+00  3.05555556E-01
                       0.00000000E+00  0.00000000E+00  8.33333333E-02
           kptopt           0
P           mkmem           2
P          mkqmem           2
P          mk1mem           2
            natom          12
            nband          85
           nbdbuf           4
            ngfft          72      72      72
             nkpt           2
            nstep        2000
             nsym           4
           ntypat           3
              occ      2.000000  2.000000  2.000000  2.000000  2.000000  2.000000
                       2.000000  2.000000  2.000000  2.000000  2.000000  2.000000
                       2.000000  2.000000  2.000000  2.000000  2.000000  2.000000
                       2.000000  2.000000  2.000000  2.000000  2.000000  2.000000
                       2.000000  2.000000  2.000000  2.000000  2.000000  2.000000
                       2.000000  2.000000  2.000000  2.000000  2.000000  2.000000
                       2.000000  2.000000  2.000000  2.000000  2.000000  2.000000
                       2.000000  2.000000  2.000000  2.000000  2.000000  2.000000
                       2.000000  2.000000  2.000000  2.000000  2.000000  2.000000
                       2.000000  2.000000  2.000000  2.000000  2.000000  2.000000
                       2.000000  2.000000  2.000000  2.000000  2.000000  2.000000
                       2.000000  2.000000  2.000000  2.000000  2.000000  2.000000
                       2.000000  2.000000  2.000000  2.000000  0.000000  0.000000
                       0.000000  0.000000  0.000000  0.000000  0.000000  0.000000
                       0.000000
        optdriver           1
            prtwf          -1
            rfdir           1       1       1
           rfelfd           2
            rprim      1.0377455542E+01  0.0000000000E+00  0.0000000000E+00
                       0.0000000000E+00  1.0388509911E+01  0.0000000000E+00
                       0.0000000000E+00  0.0000000000E+00  1.0397286498E+01
          spgroup          29
           strten      0.0000000000E+00  0.0000000000E+00  0.0000000000E+00
                       0.0000000000E+00  0.0000000000E+00  0.0000000000E+00
           symrel      1  0  0   0  1  0   0  0  1       1  0  0   0 -1  0   0  0  1
                       1  0  0   0  1  0   0  0 -1       1  0  0   0 -1  0   0  0 -1
            tnons      0.0000000  0.0000000  0.0000000     0.5000000  0.5000000  0.0000000
                       0.0000000  0.5000000 -0.0000000     0.5000000  0.0000000 -0.0000000
           tolwfr      1.00000000E-20
            typat      1  1  1  1  2  2  2  2  3  3  3  3
           useylm           1
              wtk        0.50000    0.50000
           xangst      2.7525110389E+00  2.7065275610E+00  1.3089659903E+00
                       2.7525110389E+00  5.4552088990E+00  4.1930410557E+00
                       6.7545609359E-03  4.2153776999E-02  1.3089659903E+00
                       6.7545609359E-03  2.7908351150E+00  4.1930410557E+00
                       2.0982302193E+00  4.8250791996E+00  2.0427906780E+00
                       4.8439866973E+00  3.4209648143E+00  2.0427906780E+00
                       2.0982302193E+00  2.0763978616E+00  3.4592163679E+00
                       4.8439866973E+00  6.7228347637E-01  3.4592163679E+00
                       3.4249687664E+00  6.5683038989E-01  7.0528027520E-01
                       6.7921228845E-01  2.0918509481E+00  7.0528027520E-01
                       6.7921228845E-01  4.8405322861E+00  4.7967267708E+00
                       3.4249687664E+00  3.4055117279E+00  4.7967267708E+00
            xcart      5.2014920413E+00  5.1145958614E+00  2.4735872389E+00
                       5.2014920413E+00  1.0308850817E+01  7.9236992592E+00
                       1.2764270317E-02  7.9659093995E-02  2.4735872389E+00
                       1.2764270317E-02  5.2739140493E+00  7.9236992592E+00
                       3.9650804782E+00  9.1180782567E+00  3.8603149283E+00
                       9.1538082492E+00  6.4646866093E+00  3.8603149283E+00
                       3.9650804782E+00  3.9238233014E+00  6.5369715698E+00
                       9.1538082492E+00  1.2704316540E+00  6.5369715698E+00
                       6.4722529823E+00  1.2412295526E+00  1.3327865670E+00
                       1.2835252113E+00  3.9530254027E+00  1.3327865670E+00
                       1.2835252113E+00  9.1472803581E+00  9.0644999311E+00
                       6.4722529823E+00  6.4354845080E+00  9.0644999311E+00
             xred      5.0123000000E-01  4.9233200000E-01  2.3790700000E-01
                       5.0123000000E-01  9.9233200000E-01  7.6209300000E-01
                       1.2300000000E-03  7.6680000000E-03  2.3790700000E-01
                       1.2300000000E-03  5.0766800000E-01  7.6209300000E-01
                       3.8208600000E-01  8.7770800000E-01  3.7128100000E-01
                       8.8208600000E-01  6.2229200000E-01  3.7128100000E-01
                       3.8208600000E-01  3.7770800000E-01  6.2871900000E-01
                       8.8208600000E-01  1.2229200000E-01  6.2871900000E-01
                       6.2368400000E-01  1.1948100000E-01  1.2818600000E-01
                       1.2368400000E-01  3.8051900000E-01  1.2818600000E-01
                       1.2368400000E-01  8.8051900000E-01  8.7181400000E-01
                       6.2368400000E-01  6.1948100000E-01  8.7181400000E-01
            znucl       27.00000   33.00000   16.00000

- Timing analysis has been suppressed with timopt=0

 Suggested references for the acknowledgment of ABINIT usage.

 Calculation completed.
.Delivered   3 WARNINGs and  11 COMMENTs to log file.