.Version 9.5.1 of ABINIT

 ABINIT is a project of the Universite Catholique de Louvain,
 Corning Inc. and other collaborators, see ~abinit/doc/developers/contributors.txt .
 acknowledgments of the ABINIT effort.

.Starting date : Tue 27 Apr 2021.
- ( at 18h28 )

- input  file    -> /scratch/users/j/a/jabreu/flow_simple_4atoms/flow/w165/t1/run.abi
- output file    -> /scratch/users/j/a/jabreu/flow_simple_4atoms/flow/w165/t1/run.abo
- root for input  files -> /scratch/users/j/a/jabreu/flow_simple_4atoms/flow/w165/t1/indata/in
- root for output files -> /scratch/users/j/a/jabreu/flow_simple_4atoms/flow/w165/t1/outdata/out

 Symmetries : space group R-3 m (#166); Bravais hR (rhombohedral)
     intxc =       0      iscf =       7    lmnmax =      18     lnmax =       6
     mgfft =      72  mpssoang =       3    mqgrid =    3001     natom =       4
  nloc_mem =       1    nspden =       1   nspinor =       1    nsppol =       1
      nsym =      12    n1xccc =    2501    ntypat =       3    occopt =       1
   xclevel =       2
-    mband =          31        mffmem =           1         mkmem =           2
-   mkqmem =           2        mk1mem =           2           mpw =        4383
      nfft =      373248          nkpt =           2
  Rough estimation (10% accuracy) of disk space for files :

------------- Echo of variables that govern the present computation ------------
-
- outvars: echo of selected default values
-   iomode0 =  0 , fftalg0 =512 , wfoptalg0 =  0
-
- outvars: echo of global parameters not present in the input file
-  max_nthreads =    0
-
 -outvars: echo values of preprocessed input variables --------
            acell      1.0000000000E+00  1.0000000000E+00  1.0000000000E+00 Bohr
              amu      6.97230000E+01  6.35460000E+01  1.59994000E+01
             ecut      4.60000000E+01 Hartree
-          fftalg         512
           irdden           1
           irdwfk           1
           istwfk        1    1
              ixc     -116133
              kpt      5.00000000E-01  5.00000000E-01 -5.55111512E-17
                       0.00000000E+00  0.00000000E+00  0.00000000E+00
           kptopt           0
P           mkmem           2
P          mkqmem           2
P          mk1mem           2
            natom           4
            nband          31
           nbdbuf           4
            ngfft          72      72      72
             nkpt           2
            nstep         100
             nsym          12
           ntypat           3
              occ      2.000000  2.000000  2.000000  2.000000  2.000000  2.000000
                       2.000000  2.000000  2.000000  2.000000  2.000000  2.000000
                       2.000000  2.000000  2.000000  2.000000  2.000000  2.000000
                       2.000000  2.000000  2.000000  2.000000  0.000000  0.000000
                       0.000000  0.000000  0.000000  0.000000  0.000000  0.000000
                       0.000000
        optdriver           1
            prtwf          -1
            rfdir           1       1       1
           rfelfd           2
            rprim      5.4337631699E+00  0.0000000000E+00  9.8522751413E+00
                       2.5367633960E+00  4.8052693639E+00  9.8522751413E+00
                       0.0000000000E+00  0.0000000000E+00  1.1251360258E+01
          spgroup         166
           symrel      1  0  0   0  1  0   0  0  1      -1  0  0   0 -1  0   0  0 -1
                       0  1  0   1  0  0   0  0  1       0 -1  0  -1  0  0   0  0 -1
                       0  0  1   1  0  0   0  1  0       0  0 -1  -1  0  0   0 -1  0
                       1  0  0   0  0  1   0  1  0      -1  0  0   0  0 -1   0 -1  0
                       0  1  0   0  0  1   1  0  0       0 -1  0   0  0 -1  -1  0  0
                       0  0  1   0  1  0   1  0  0       0  0 -1   0 -1  0  -1  0  0
           tolwfr      1.00000000E-20
            typat      1  2  3  3
           useylm           1
              wtk        0.50000    0.50000
           xangst      2.1089104996E+00  1.2714195143E+00  8.1905811645E+00
                       0.0000000000E+00  0.0000000000E+00  0.0000000000E+00
                       4.5381645040E-01  2.7359676527E-01  1.7625311608E+00
                       3.7640045487E+00  2.2692422632E+00  1.4618631168E+01
            xcart      3.9852632830E+00  2.4026346819E+00  1.5477955270E+01
                       0.0000000000E+00  0.0000000000E+00  0.0000000000E+00
                       8.5758880586E-01  5.1702295721E-01  3.3307011946E+00
                       7.1129377600E+00  4.2882464067E+00  2.7625209346E+01
             xred      5.0000000000E-01  5.0000000000E-01  5.0000000000E-01
                       0.0000000000E+00  0.0000000000E+00  0.0000000000E+00
                       1.0759500000E-01  1.0759500000E-01  1.0759500000E-01
                       8.9240500000E-01  8.9240500000E-01  8.9240500000E-01
            znucl       31.00000   29.00000    8.00000

 chkinp: Checking input parameters for consistency.

== DATASET  1 ==================================================================
-   mpi_nproc: 1, omp_nthreads: -1 (-1 if OMP is not activated)

--- !DatasetInfo
iteration_state: {dtset: 1, }
dimensions: {natom: 4, nkpt: 2, mband: 31, nsppol: 1, nspinor: 1, nspden: 1, mpw: 4383, }
cutoff_energies: {ecut:  46.0, pawecutdg:  -1.0, }
electrons: {nelect:   4.40000000E+01, charge:   0.00000000E+00, occopt:   1.00000000E+00, tsmear:   1.00000000E-02, }
meta: {optdriver: 1, rfelfd: 2, }
...

 Real(R)+Recip(G) space primitive vectors, cartesian coordinates (Bohr,Bohr^-1):
 R(1)=  5.4337632  0.0000000  9.8522751  G(1)=  0.1840345 -0.0971542  0.0000000
 R(2)=  2.5367634  4.8052694  9.8522751  G(2)=  0.0000000  0.2081049  0.0000000
 R(3)=  0.0000000  0.0000000 11.2513603  G(3)= -0.1611502 -0.0971542  0.0888781
 Unit cell volume ucvol=  2.9378084E+02 bohr^3
 Angles (23,13,12)=  2.88777765E+01  2.88777765E+01  2.88777765E+01 degrees

 getcut: wavevector=  0.0000  0.0000  0.0000  ngfft=  72  72  72
         ecut(hartree)=     46.000   => boxcut(ratio)=   2.09704

--- Pseudopotential description ------------------------------------------------
- pspini: atom type   1  psp file is /scratch/users/j/a/jabreu/pseudos/PBEsol/Ga.psp8
- pspatm: opening atomic psp file    /scratch/users/j/a/jabreu/pseudos/PBEsol/Ga.psp8
- Ga    ONCVPSP-3.3.0  r_core=   1.66857   1.75011   1.90252
- 31.00000  13.00000    180112                znucl, zion, pspdat
    8 -116133    2    4       600   0.00000   pspcod,pspxc,lmax,lloc,mmax,r2well
    5.99000000000000    5.00000000000000    0.00000000000000   rchrg,fchrg,qchrg
     nproj     2     2     2
     extension_switch     1
  pspatm : epsatm=   24.50969055
         --- l  ekb(1:nproj) -->
             0    7.053021    1.156713
             1    6.846070    1.293139
             2   -8.368667   -2.819170
 pspatm: atomic psp has been read  and splines computed

- pspini: atom type   2  psp file is /scratch/users/j/a/jabreu/pseudos/PBEsol/Cu.psp8
- pspatm: opening atomic psp file    /scratch/users/j/a/jabreu/pseudos/PBEsol/Cu.psp8
- Cu    ONCVPSP-3.3.0  r_core=   1.26204   1.45626   1.76249
- 29.00000  19.00000    180112                znucl, zion, pspdat
    8 -116133    2    4       600   0.00000   pspcod,pspxc,lmax,lloc,mmax,r2well
    5.99000000000000    3.50000000000000    0.00000000000000   rchrg,fchrg,qchrg
     nproj     2     2     2
     extension_switch     1
  pspatm : epsatm=   21.63488701
         --- l  ekb(1:nproj) -->
             0    5.008230   -0.401634
             1   -3.496700   -0.765945
             2   -6.895851   -2.521180
 pspatm: atomic psp has been read  and splines computed

- pspini: atom type   3  psp file is /scratch/users/j/a/jabreu/pseudos/PBEsol/O.psp8
- pspatm: opening atomic psp file    /scratch/users/j/a/jabreu/pseudos/PBEsol/O.psp8
- O     ONCVPSP-3.3.0  r_core=   1.35509   1.45563   1.26150
-  8.00000   6.00000    180112                znucl, zion, pspdat
    8 -116133    2    4       600   0.00000   pspcod,pspxc,lmax,lloc,mmax,r2well
    5.99000000000000    4.00000000000000    0.00000000000000   rchrg,fchrg,qchrg
     nproj     2     2     1
     extension_switch     1
  pspatm : epsatm=    6.22910522
         --- l  ekb(1:nproj) -->
             0    6.050032    0.820363
             1   -4.739617   -1.153841
             2   -1.335834
 pspatm: atomic psp has been read  and splines computed

   2.57852267E+03                                ecore*ucvol(ha*bohr**3)

-inwffil : will read wavefunctions from disk file /scratch/users/j/a/jabreu/flow_simple_4atoms/flow/w165/t1/indata/in_WFK

 ==>  initialize data related to q vector <==

 The list of irreducible perturbations for this q vector is:
    1)    idir= 1    ipert=   5
    2)    idir= 2    ipert=   5
    3)    idir= 3    ipert=   5

 Perturbation wavevector (in red.coord.)   0.000000  0.000000  0.000000
 Perturbation : derivative vs k along direction   1

 dfpt_looppert : COMMENT -
  In a d/dk calculation, iscf is set to -3 automatically.
 The set of symmetries contains only one element for this perturbation.
 symkpt : not enough symmetry to change the number of k points.

[...]

 Initialisation of the first-order wave-functions :
  ireadwf=   0

--- !BeginCycle
iteration_state: {dtset: 1, }
solver: {iscf: 7, nstep: 100, nline: 4, wfoptalg: 0, }
tolerances: {tolwfr: 1.00E-20, }
...

     iter   2DEtotal(Ha)        deltaE(Ha) residm    vres2
-ETOT  1  -124.01471734621     -1.240E+02 1.924E-01 0.000E+00
 ETOT  2  -124.08404621617     -6.933E-02 1.043E-03 0.000E+00
 ETOT  3  -124.08435862905     -3.124E-04 1.249E-05 0.000E+00
 ETOT  4  -124.08436155988     -2.931E-06 1.859E-07 0.000E+00
 ETOT  5  -124.08436159215     -3.228E-08 3.353E-09 0.000E+00
 ETOT  6  -124.08436159253     -3.784E-10 5.533E-11 0.000E+00
 ETOT  7  -124.08436159254     -4.690E-12 1.072E-12 0.000E+00
 ETOT  8  -124.08436159254     -1.137E-13 1.914E-14 0.000E+00
 ETOT  9  -124.08436159254      5.684E-14 3.668E-16 0.000E+00
 ETOT 10  -124.08436159254      0.000E+00 7.010E-18 0.000E+00
 ETOT 11  -124.08436159254      2.842E-14 1.753E-19 0.000E+00
 ETOT 12  -124.08436159254     -7.105E-14 9.955E-21 0.000E+00

 At SCF step   12   max residual=  9.96E-21 < tolwfr=  1.00E-20 =>converged.

 ----iterations are completed or convergence reached----

 dfpt_looppert: DFPT cycle converged with prtwf=-1. Will skip output of the 1st-order WFK file.
 dfpt_looppert : ek2=    1.5045510702E+02
          f-sum rule ratio=    1.1412569008E+00
 prteigrs : about to open file /scratch/users/j/a/jabreu/flow_simple_4atoms/flow/w165/t1/tmpdata/tmp_1WF1_EIG
 Expectation of eigenvalue derivatives (hartree) for nkpt=   2  k points:
  (in case of degenerate eigenvalues, averaged derivative)
 kpt#   1, nband= 31, wtk=  0.50000, kpt=  0.5000  0.5000  0.0000 (reduced coord)
  -0.00000    0.00000   -0.00000    0.00000    0.00000   -0.00000    0.00000   -0.00000
   0.00000   -0.00000    0.00000    0.00000   -0.00000   -0.00000   -0.00000   -0.00000
   0.00000    0.00000    0.00000    0.00000    0.00000   -0.00000   -0.00000   -0.00000
  -0.00000    0.00000   -0.00000    0.00000   -0.00000   -0.00000    0.00000
 prteigrs : prtvol=0 or 1, do not print more k-points.

 Eight components of 2nd-order total energy (hartree) are
 1,2,3: 0th-order hamiltonian combined with 1st-order wavefunctions
     kin0=   1.37135000E+02 eigvalue=   2.03054541E+00  local=  -4.61799268E+01
 4,5,6: 1st-order hamiltonian combined with 1st and 0th-order wfs
     kin1=  -1.71707929E+02  Hartree=   0.00000000E+00     xc=   0.00000000E+00
 7,8,9: eventually, occupation + non-local contributions
    edocc=   2.71103960E+01     enl0=   3.98834753E+00   enl1=  -7.64607940E+01
 1-9 gives the relaxation energy (to be shifted if some occ is /=2.0)
   erelax=  -1.24084362E+02
  No Ewald or frozen-wf contrib.: the relaxation energy is the total one
 2DEtotal=   -0.1240843616E+03 Ha. Also 2DEtotal=   -0.337650719432E+04 eV
    (  non-var. 2DEtotal :   -1.2408436159E+02 Ha)

 Perturbation wavevector (in red.coord.)   0.000000  0.000000  0.000000
 Perturbation : derivative vs k along direction   2
 The set of symmetries contains only one element for this perturbation.
 symkpt : not enough symmetry to change the number of k points.

[...]

 Perturbation wavevector (in red.coord.)   0.000000  0.000000  0.000000
 Perturbation : derivative vs k along direction   3
 The set of symmetries contains only one element for this perturbation.
 symkpt : not enough symmetry to change the number of k points.

-inwffil : will read wavefunctions from disk file /scratch/users/j/a/jabreu/flow_simple_4atoms/flow/w165/t1/indata/in_WFK

 Initialisation of the first-order wave-functions :
  ireadwf=   0

--- !BeginCycle
iteration_state: {dtset: 1, }
solver: {iscf: 7, nstep: 100, nline: 4, wfoptalg: 0, }
tolerances: {tolwfr: 1.00E-20, }
...

     iter   2DEtotal(Ha)        deltaE(Ha) residm    vres2
-ETOT  1  -122.14110412896     -1.221E+02 1.553E-01 0.000E+00
 ETOT  2  -122.22061282847     -7.951E-02 7.090E-04 0.000E+00
 ETOT  3  -122.22077264206     -1.598E-04 1.010E-05 0.000E+00
 ETOT  4  -122.22077351533     -8.733E-07 1.870E-07 0.000E+00
 ETOT  5  -122.22077352226     -6.926E-09 2.777E-09 0.000E+00
 ETOT  6  -122.22077352232     -6.469E-11 5.328E-11 0.000E+00
 ETOT  7  -122.22077352233     -5.826E-13 8.563E-13 0.000E+00
 ETOT  8  -122.22077352233     -5.684E-14 1.715E-14 0.000E+00
 ETOT  9  -122.22077352233      7.105E-14 2.873E-16 0.000E+00
 ETOT 10  -122.22077352233      7.105E-14 6.019E-18 0.000E+00
 ETOT 11  -122.22077352233     -4.263E-14 1.204E-19 0.000E+00
 ETOT 12  -122.22077352233     -1.421E-14 9.939E-21 0.000E+00

 At SCF step   12   max residual=  9.94E-21 < tolwfr=  1.00E-20 =>converged.

 ----iterations are completed or convergence reached----

 dfpt_looppert: DFPT cycle converged with prtwf=-1. Will skip output of the 1st-order WFK file.
 dfpt_looppert : ek2=    1.5045510702E+02
          f-sum rule ratio=    1.1162984411E+00
 prteigrs : about to open file /scratch/users/j/a/jabreu/flow_simple_4atoms/flow/w165/t1/tmpdata/tmp_1WF1_EIG
 Expectation of eigenvalue derivatives (hartree) for nkpt=   2  k points:
  (in case of degenerate eigenvalues, averaged derivative)
 kpt#   1, nband= 31, wtk=  0.50000, kpt=  0.5000  0.5000  0.0000 (reduced coord)
   0.00000   -0.00000    0.00000    0.00000   -0.00000    0.00000   -0.00000    0.00000
  -0.00000    0.00000   -0.00000    0.00000   -0.00000    0.00000    0.00000   -0.00000
   0.00000   -0.00000   -0.00000   -0.00000   -0.00000    0.00000   -0.00000    0.00000
   0.00000    0.00000    0.00000   -0.00000    0.00000    0.00000    0.00000
 prteigrs : prtvol=0 or 1, do not print more k-points.

 Eight components of 2nd-order total energy (hartree) are
 1,2,3: 0th-order hamiltonian combined with 1st-order wavefunctions
     kin0=   1.35996112E+02 eigvalue=   1.98468158E+00  local=  -4.55255539E+01
 4,5,6: 1st-order hamiltonian combined with 1st and 0th-order wfs
     kin1=  -1.67952801E+02  Hartree=   0.00000000E+00     xc=   0.00000000E+00
 7,8,9: eventually, occupation + non-local contributions
    edocc=   2.55003270E+01     enl0=   4.26520705E+00   enl1=  -7.64887456E+01
 1-9 gives the relaxation energy (to be shifted if some occ is /=2.0)
   erelax=  -1.22220774E+02
  No Ewald or frozen-wf contrib.: the relaxation energy is the total one
 2DEtotal=   -0.1222207735E+03 Ha. Also 2DEtotal=   -0.332579638398E+04 eV
    (  non-var. 2DEtotal :   -1.2222077352E+02 Ha)

 CALCULATION OF EFFECTIVE MASSES
 NOTE : Additional infos (eff. mass eigenvalues, eigenvectors and, if degenerate, average mass) are available in stdout.

 K-point ( 0.500, 0.500,-0.000) | band =    22
 Effective mass tensor:
            -36.1282455000             59.3110393644             -0.0400430509
             59.3110393644            -98.7503637632             -0.0241371070
             -0.0400430509             -0.0241371070             -3.0220835307
 Effective mass tensor eigenvalues:
           -134.5077906323             -3.0229078039             -0.3699943578
 Angular average effective mass 1/(<1/m>)=  -0.9865222185
 Angular average effective mass for Frohlich model (<m**0.5>)**2=  -2.0345622539
 Effective masses along directions: (cart. coord. / red. coord. -> eff. mass)
    1:   1.000000  0.000000  0.000000 /   0.906119  0.423023  0.000000 ->  -0.5041074572
    2:   0.000000  1.000000  0.000000 /   0.000000  1.000000  0.000000 ->  -1.3779088353
    3:   0.000000  0.000000  1.000000 /   0.550134  0.550134  0.628256 ->  -3.0161883419
    4:   0.577350  0.577350  0.577350 /   0.596865  0.671376  0.439325 ->  -0.5650649494
    5:   0.000000  0.707107  0.707107 /   0.470489  0.699962  0.537302 ->  -1.9721628250
    6:   0.707107  0.000000  0.707107 /   0.674406  0.546593  0.496400 ->  -0.8914056121
    7:   0.707107  0.707107  0.000000 /   0.594890  0.803807  0.000000 ->  -0.3927461848

 K-point ( 0.000, 0.000, 0.000) | band =    23
 Effective mass tensor:
              0.5132215507             -0.0042358272             -0.0272876023
             -0.0042358272              0.5176938521             -0.0164511432
             -0.0272876023             -0.0164511432              0.4142679689
 Effective mass tensor eigenvalues:
              0.4046882630              0.5202475447              0.5202475640
 Angular average effective mass 1/(<1/m>)=   0.4750321889
 Angular average effective mass for Frohlich model (<m**0.5>)**2=   0.4771169609
 Effective masses along directions: (cart. coord. / red. coord. -> eff. mass)
    1:   1.000000  0.000000  0.000000 /   0.906119  0.423023  0.000000 ->   0.5113694034
    2:   0.000000  1.000000  0.000000 /   0.000000  1.000000  0.000000 ->   0.5169852258
    3:   0.000000  0.000000  1.000000 /   0.550134  0.550134  0.628256 ->   0.4122798795
    4:   0.577350  0.577350  0.577350 /   0.596865  0.671376  0.439325 ->   0.4430598336
    5:   0.000000  0.707107  0.707107 /   0.470489  0.699962  0.537302 ->   0.4428594868
    6:   0.707107  0.000000  0.707107 /   0.674406  0.546593  0.496400 ->   0.4310077317
    7:   0.707107  0.707107  0.000000 /   0.594890  0.803807  0.000000 ->   0.5088977096

 END OF EFFECTIVE MASSES SECTION

 ---- first-order wavefunction calculations are completed ----

 Total localisation tensor (bohr^2) in cartesian coordinates
  WARNING : still subject to testing - especially symmetries.
      direction              matrix element
   alpha     beta       real part   imaginary part
     1        1       1.2103973497    0.0000000000
     1        2       0.4102952282    0.0000000000
     1        3       2.6431431113    0.0000000000
     2        1       0.4102952282    0.0000000000
     2        2       0.7772025933    0.0000000000
     2        3       1.5935035500    0.0000000000
     3        1       2.6431431113    0.0000000000
     3        2       1.5935035500    0.0000000000
     3        3      11.2479904467    0.0000000000

 respfn : d/dk was computed, but no 2DTE, so no DDB output.

== END DATASET(S) ==============================================================

 -outvars: echo values of variables after computation  --------
            acell      1.0000000000E+00  1.0000000000E+00  1.0000000000E+00 Bohr
              amu      6.97230000E+01  6.35460000E+01  1.59994000E+01
             ecut      4.60000000E+01 Hartree
           etotal     -1.2222077352E+02
            fcart      0.0000000000E+00  0.0000000000E+00  0.0000000000E+00
                       0.0000000000E+00  0.0000000000E+00  0.0000000000E+00
                       0.0000000000E+00  0.0000000000E+00  0.0000000000E+00
                       0.0000000000E+00  0.0000000000E+00  0.0000000000E+00
-          fftalg         512
           irdden           1
           irdwfk           1
           istwfk        1    1
              ixc     -116133
              kpt      5.00000000E-01  5.00000000E-01 -5.55111512E-17
                       0.00000000E+00  0.00000000E+00  0.00000000E+00
           kptopt           0
P           mkmem           2
P          mkqmem           2
P          mk1mem           2
            natom           4
            nband          31
           nbdbuf           4
            ngfft          72      72      72
             nkpt           2
            nstep         100
             nsym          12
           ntypat           3
              occ      2.000000  2.000000  2.000000  2.000000  2.000000  2.000000
                       2.000000  2.000000  2.000000  2.000000  2.000000  2.000000
                       2.000000  2.000000  2.000000  2.000000  2.000000  2.000000
                       2.000000  2.000000  2.000000  2.000000  0.000000  0.000000
                       0.000000  0.000000  0.000000  0.000000  0.000000  0.000000
                       0.000000
        optdriver           1
            prtwf          -1
            rfdir           1       1       1
           rfelfd           2
            rprim      5.4337631699E+00  0.0000000000E+00  9.8522751413E+00
                       2.5367633960E+00  4.8052693639E+00  9.8522751413E+00
                       0.0000000000E+00  0.0000000000E+00  1.1251360258E+01
          spgroup         166
           strten      0.0000000000E+00  0.0000000000E+00  0.0000000000E+00
                       0.0000000000E+00  0.0000000000E+00  0.0000000000E+00
           symrel      1  0  0   0  1  0   0  0  1      -1  0  0   0 -1  0   0  0 -1
                       0  1  0   1  0  0   0  0  1       0 -1  0  -1  0  0   0  0 -1
                       0  0  1   1  0  0   0  1  0       0  0 -1  -1  0  0   0 -1  0
                       1  0  0   0  0  1   0  1  0      -1  0  0   0  0 -1   0 -1  0
                       0  1  0   0  0  1   1  0  0       0 -1  0   0  0 -1  -1  0  0
                       0  0  1   0  1  0   1  0  0       0  0 -1   0 -1  0  -1  0  0
           tolwfr      1.00000000E-20
            typat      1  2  3  3
           useylm           1
              wtk        0.50000    0.50000
           xangst      2.1089104996E+00  1.2714195143E+00  8.1905811645E+00
                       0.0000000000E+00  0.0000000000E+00  0.0000000000E+00
                       4.5381645040E-01  2.7359676527E-01  1.7625311608E+00
                       3.7640045487E+00  2.2692422632E+00  1.4618631168E+01
            xcart      3.9852632830E+00  2.4026346819E+00  1.5477955270E+01
                       0.0000000000E+00  0.0000000000E+00  0.0000000000E+00
                       8.5758880586E-01  5.1702295721E-01  3.3307011946E+00
                       7.1129377600E+00  4.2882464067E+00  2.7625209346E+01
             xred      5.0000000000E-01  5.0000000000E-01  5.0000000000E-01
                       0.0000000000E+00  0.0000000000E+00  0.0000000000E+00
                       1.0759500000E-01  1.0759500000E-01  1.0759500000E-01
                       8.9240500000E-01  8.9240500000E-01  8.9240500000E-01
            znucl       31.00000   29.00000    8.00000

- Timing analysis has been suppressed with timopt=0

 Suggested references for the acknowledgment of ABINIT usage.

 Calculation completed.
.Delivered  14 WARNINGs and   9 COMMENTs to log file.