.Version 9.5.2 of ABINIT

 ABINIT is a project of the Universite Catholique de Louvain,
 Corning Inc. and other collaborators, see ~abinit/doc/developers/contributors.txt .
 acknowledgments of the ABINIT effort.

.Starting date : Mon 31 May 2021.
- ( at 21h51 )

- input  file    -> /scratch/users/j/a/jabreu/flow_simple_11atoms/flow/w303/t1/run.abi
- output file    -> /scratch/users/j/a/jabreu/flow_simple_11atoms/flow/w303/t1/run.abo
- root for input  files -> /scratch/users/j/a/jabreu/flow_simple_11atoms/flow/w303/t1/indata/in
- root for output files -> /scratch/users/j/a/jabreu/flow_simple_11atoms/flow/w303/t1/outdata/out

 Symmetries : space group Cm c 2_1 (# 36); Bravais oC (1-face-center ortho.)
     intxc =       0      iscf =       7    lmnmax =      18     lnmax =       6
     mgfft =      72  mpssoang =       3    mqgrid =    3001     natom =      12
  nloc_mem =       1    nspden =       1   nspinor =       1    nsppol =       1
      nsym =       4    n1xccc =    2501    ntypat =       3    occopt =       1
   xclevel =       2
-    mband =          49        mffmem =           1         mkmem =           2
-   mkqmem =           2        mk1mem =           2           mpw =       14542
      nfft =      311040          nkpt =           2
  Rough estimation (10% accuracy) of disk space for files :

------------- Echo of variables that govern the present computation ------------
-
- outvars: echo of selected default values
-   iomode0 =  0 , fftalg0 =512 , wfoptalg0 =  0
-
- outvars: echo of global parameters not present in the input file
-  max_nthreads =    0
-
 -outvars: echo values of preprocessed input variables --------
            acell      1.0000000000E+00  1.0000000000E+00  1.0000000000E+00 Bohr
              amu      2.29897680E+01  2.80855000E+01  1.59994000E+01
             ecut      4.40000000E+01 Hartree
-          fftalg         512
           irdden           1
           irdwfk           1
           istwfk        0    1
              ixc     -116133
              kpt      0.00000000E+00  0.00000000E+00  4.75000000E-01
                       0.00000000E+00  0.00000000E+00  0.00000000E+00
           kptopt           0
P           mkmem           2
P          mkqmem           2
P          mk1mem           2
            natom          12
            nband          49
           nbdbuf           4
            ngfft          72      72      60
             nkpt           2
            nstep        2000
             nsym           4
           ntypat           3
              occ      2.000000  2.000000  2.000000  2.000000  2.000000  2.000000
                       2.000000  2.000000  2.000000  2.000000  2.000000  2.000000
                       2.000000  2.000000  2.000000  2.000000  2.000000  2.000000
                       2.000000  2.000000  2.000000  2.000000  2.000000  2.000000
                       2.000000  2.000000  2.000000  2.000000  2.000000  2.000000
                       2.000000  2.000000  2.000000  2.000000  2.000000  2.000000
                       2.000000  2.000000  2.000000  2.000000  0.000000  0.000000
                       0.000000  0.000000  0.000000  0.000000  0.000000  0.000000
                       0.000000
        optdriver           1
            prtwf          -1
            rfdir           1       1       1
           rfelfd           2
            rprim      1.1494929666E+01  0.0000000000E+00  0.0000000000E+00
                      -5.7391060405E+00  9.9597223794E+00  0.0000000000E+00
                       0.0000000000E+00  0.0000000000E+00  9.0914483294E+00
          spgroup          36
           symrel      1  0  0   0  1  0   0  0  1       0  1  0   1  0  0   0  0  1
                      -1  0  0   0 -1  0   0  0  1       0 -1  0  -1  0  0   0  0  1
            tnons      0.0000000  0.0000000  0.0000000     0.0000000  0.0000000  0.0000000
                       0.0000000  0.0000000  0.5000000     0.0000000  0.0000000  0.5000000
           tolwfr      1.00000000E-20
            typat      1  1  1  1  2  2  3  3  3  3  3  3
           useylm           1
              wtk        0.50000    0.50000
           xangst      2.5379795041E+00  9.1273793152E-01  2.3959534368E+00
                      -4.7630714225E-01  2.6547244680E+00  2.3959534368E+00
                       5.0787117504E-01  4.3577201555E+00  4.8014470613E+00
                       3.5221578214E+00  2.6157336191E+00  4.8014470613E+00
                       2.5638417633E+00  4.4364028243E+00  2.2184087633E+00
                       4.8200891582E-01  8.3405526274E-01  4.6239023878E+00
                       2.6181827853E-01  4.5304330671E-01  2.9939254749E+00
                       2.7840324006E+00  4.8174147804E+00  5.8843185042E-01
                       9.7969486971E-01  4.4349903416E+00  2.4871408891E+00
                       2.0661558094E+00  8.3546774550E-01  8.1647264603E-02
                       3.3535394242E+00  3.0631217242E+00  2.4871408891E+00
                      -3.0768874513E-01  2.2073363628E+00  8.1647264603E-02
            xcart      4.7960861936E+00  1.7248247217E+00  4.5276958227E+00
                      -9.0009005399E-01  5.0167022028E+00  4.5276958227E+00
                       9.5973743161E-01  8.2348976577E+00  9.0734199874E+00
                       6.6559136792E+00  4.9430201766E+00  9.0734199874E+00
                       4.8449587807E+00  8.3835863531E+00  4.1921850135E+00
                       9.1086484451E-01  1.5761360263E+00  8.7379091782E+00
                       4.9476484300E-01  8.5612777601E-01  5.6576992099E+00
                       5.2610587822E+00  9.1035946034E+00  1.1119750452E+00
                       1.8513549976E+00  8.3809171475E+00  4.7000151343E+00
                       3.9044686276E+00  1.5788052319E+00  1.5429096960E-01
                       6.3372710877E+00  5.7884611705E+00  4.7000151343E+00
                      -5.8144746246E-01  4.1712612089E+00  1.5429096960E-01
             xred      5.0369900000E-01  1.7318000000E-01  4.9801700000E-01
                       1.7318000000E-01  5.0369900000E-01  4.9801700000E-01
                       4.9630100000E-01  8.2682000000E-01  9.9801700000E-01
                       8.2682000000E-01  4.9630100000E-01  9.9801700000E-01
                       8.4174900000E-01  8.4174900000E-01  4.6111300000E-01
                       1.5825100000E-01  1.5825100000E-01  9.6111300000E-01
                       8.5959000000E-02  8.5959000000E-02  6.2231000000E-01
                       9.1404100000E-01  9.1404100000E-01  1.2231000000E-01
                       5.8118700000E-01  8.4148100000E-01  5.1697100000E-01
                       4.1881300000E-01  1.5851900000E-01  1.6971000000E-02
                       8.4148100000E-01  5.8118700000E-01  5.1697100000E-01
                       1.5851900000E-01  4.1881300000E-01  1.6971000000E-02
            znucl       11.00000   14.00000    8.00000

 chkinp: Checking input parameters for consistency.

== DATASET  1 ==================================================================
-   mpi_nproc: 1, omp_nthreads: -1 (-1 if OMP is not activated)

--- !DatasetInfo
iteration_state: {dtset: 1, }
dimensions: {natom: 12, nkpt: 2, mband: 49, nsppol: 1, nspinor: 1, nspden: 1, mpw: 14542, }
cutoff_energies: {ecut:  44.0, pawecutdg:  -1.0, }
electrons: {nelect:   8.00000000E+01, charge:   0.00000000E+00, occopt:   1.00000000E+00, tsmear:   1.00000000E-02, }
meta: {optdriver: 1, rfelfd: 2, }
...

 Real(R)+Recip(G) space primitive vectors, cartesian coordinates (Bohr,Bohr^-1):
 R(1)= 11.4949297  0.0000000  0.0000000  G(1)=  0.0869949  0.0501292  0.0000000
 R(2)= -5.7391060  9.9597224  0.0000000  G(2)=  0.0000000  0.1004044  0.0000000
 R(3)=  0.0000000  0.0000000  9.0914483  G(3)=  0.0000000  0.0000000  0.1099935
 Unit cell volume ucvol=  1.0408464E+03 bohr^3
 Angles (23,13,12)=  9.00000000E+01  9.00000000E+01  1.19951902E+02 degrees

 getcut: wavevector=  0.0000  0.0000  0.0000  ngfft=  72  72  60
         ecut(hartree)=     44.000   => boxcut(ratio)=   2.09766

--- Pseudopotential description ------------------------------------------------
- pspini: atom type   1  psp file is /scratch/users/j/a/jabreu/pseudos/PBEsol/Na.psp8
- pspatm: opening atomic psp file    /scratch/users/j/a/jabreu/pseudos/PBEsol/Na.psp8
- Na    ONCVPSP-3.3.0  r_core=   1.20708   1.55069
- 11.00000   9.00000    180112                znucl, zion, pspdat
    8 -116133    1    4       400   0.00000   pspcod,pspxc,lmax,lloc,mmax,r2well
    3.99000000000000    0.00000000000000    0.00000000000000   rchrg,fchrg,qchrg
     nproj     2     2
     extension_switch     1
  pspatm : epsatm=    9.32878306
         --- l  ekb(1:nproj) -->
             0    2.657905   -0.678300
             1   -6.761319   -2.404728
 pspatm: atomic psp has been read  and splines computed

- pspini: atom type   2  psp file is /scratch/users/j/a/jabreu/pseudos/PBEsol/Si.psp8
- pspatm: opening atomic psp file    /scratch/users/j/a/jabreu/pseudos/PBEsol/Si.psp8
- Si    ONCVPSP-3.3.0  r_core=   1.60303   1.72197   1.91712
- 14.00000   4.00000    180112                znucl, zion, pspdat
    8 -116133    2    4       600   0.00000   pspcod,pspxc,lmax,lloc,mmax,r2well
    5.99000000000000    4.00000000000000    0.00000000000000   rchrg,fchrg,qchrg
     nproj     2     2     2
     extension_switch     1
  pspatm : epsatm=    7.86468782
         --- l  ekb(1:nproj) -->
             0    5.384426    0.843824
             1    2.663259    0.615854
             2   -2.267219   -0.458043
 pspatm: atomic psp has been read  and splines computed

- pspini: atom type   3  psp file is /scratch/users/j/a/jabreu/pseudos/PBEsol/O.psp8
- pspatm: opening atomic psp file    /scratch/users/j/a/jabreu/pseudos/PBEsol/O.psp8
- O     ONCVPSP-3.3.0  r_core=   1.35509   1.45563   1.26150
-  8.00000   6.00000    180112                znucl, zion, pspdat
    8 -116133    2    4       600   0.00000   pspcod,pspxc,lmax,lloc,mmax,r2well
    5.99000000000000    4.00000000000000    0.00000000000000   rchrg,fchrg,qchrg
     nproj     2     2     1
     extension_switch     1
  pspatm : epsatm=    6.22910522
         --- l  ekb(1:nproj) -->
             0    6.050032    0.820363
             1   -4.739617   -1.153841
             2   -1.335834
 pspatm: atomic psp has been read  and splines computed

   7.23353113E+03                                ecore*ucvol(ha*bohr**3)

 ==>  initialize data related to q vector <==

 The list of irreducible perturbations for this q vector is:
    1)    idir= 1    ipert=  13
    2)    idir= 2    ipert=  13
    3)    idir= 3    ipert=  13

 Perturbation wavevector (in red.coord.)   0.000000  0.000000  0.000000
 Perturbation : derivative vs k along direction   1

 dfpt_looppert : COMMENT -
  In a d/dk calculation, iscf is set to -3 automatically.
 The set of symmetries contains only one element for this perturbation.
 symkpt : not enough symmetry to change the number of k points.

 Initialisation of the first-order wave-functions :
  ireadwf=   0

--- !BeginCycle
iteration_state: {dtset: 1, }
solver: {iscf: 7, nstep: 2000, nline: 4, wfoptalg: 0, }
tolerances: {tolwfr: 1.00E-20, }
...

[...]
 ETOT 18  -35.158125730578      0.000E+00 3.808E-17 0.000E+00
 ETOT 19  -35.158125730578     -7.105E-15 6.040E-18 0.000E+00
 ETOT 20  -35.158125730578      1.421E-14 1.000E-18 0.000E+00
 ETOT 21  -35.158125730578      0.000E+00 1.564E-19 0.000E+00
 ETOT 22  -35.158125730578     -1.421E-14 2.635E-20 0.000E+00
 ETOT 23  -35.158125730578      7.105E-15 9.465E-21 0.000E+00

 At SCF step   23   max residual=  9.47E-21 < tolwfr=  1.00E-20 =>converged.

 ----iterations are completed or convergence reached----

 dfpt_looppert: DFPT cycle converged with prtwf=-1. Will skip output of the 1st-order WFK file.
 dfpt_looppert : ek2=    6.3677389887E+01
          f-sum rule ratio=    1.0126727518E+00
 prteigrs : about to open file /scratch/users/j/a/jabreu/flow_simple_11atoms/flow/w303/t1/tmpdata/tmp_1WF1_EIG
 Expectation of eigenvalue derivatives (hartree) for nkpt=   2  k points:
  (in case of degenerate eigenvalues, averaged derivative)
 kpt#   1, nband= 49, wtk=  0.50000, kpt=  0.0000  0.0000  0.4750 (reduced coord)
   0.00000   -0.00000   -0.00000   -0.00000    0.00000    0.00000   -0.00000    0.00000
   0.00000   -0.00000   -0.00000    0.00000   -0.00000    0.00000   -0.00000   -0.00000
   0.00000    0.00000    0.00000    0.00000   -0.00000   -0.00000   -0.00000   -0.00000
  -0.00000   -0.00000    0.00000    0.00000   -0.00000   -0.00000    0.00000    0.00000
  -0.00000    0.00000   -0.00000    0.00000   -0.00000   -0.00000    0.00000   -0.00000
  -0.00000    0.00000    0.00000   -0.00000    0.00000   -0.00000    0.00000    0.00000
   0.01389
 prteigrs : prtvol=0 or 1, do not print more k-points.

 Eight components of 2nd-order total energy (hartree) are
 1,2,3: 0th-order hamiltonian combined with 1st-order wavefunctions
     kin0=   4.77700091E+01 eigvalue=   4.11566772E+00  local=  -1.85983147E+01
 4,5,6: 1st-order hamiltonian combined with 1st and 0th-order wfs
     kin1=  -6.44843576E+01  Hartree=   0.00000000E+00     xc=   0.00000000E+00
 7,8,9: eventually, occupation + non-local contributions
    edocc=   4.01244101E+00     enl0=  -2.14167740E+00   enl1=  -5.83189381E+00
 1-9 gives the relaxation energy (to be shifted if some occ is /=2.0)
   erelax=  -3.51581257E+01
  No Ewald or frozen-wf contrib.: the relaxation energy is the total one
 2DEtotal=   -0.3515812573E+02 Ha. Also 2DEtotal=   -0.956701255053E+03 eV
    (  non-var. 2DEtotal :   -3.5158125731E+01 Ha)

 Perturbation wavevector (in red.coord.)   0.000000  0.000000  0.000000
 Perturbation : derivative vs k along direction   2
 The set of symmetries contains only one element for this perturbation.
 symkpt : not enough symmetry to change the number of k points.

[...]

 Perturbation wavevector (in red.coord.)   0.000000  0.000000  0.000000
 Perturbation : derivative vs k along direction   3
 The set of symmetries contains only one element for this perturbation.
 symkpt : not enough symmetry to change the number of k points.

 Initialisation of the first-order wave-functions :
  ireadwf=   0

--- !BeginCycle
iteration_state: {dtset: 1, }
solver: {iscf: 7, nstep: 2000, nline: 4, wfoptalg: 0, }
tolerances: {tolwfr: 1.00E-20, }
...

     iter   2DEtotal(Ha)        deltaE(Ha) residm    vres2
-ETOT  1  -41.973508548960     -4.197E+01 5.058E-02 0.000E+00
 ETOT  2  -42.003252850097     -2.974E-02 1.903E-03 0.000E+00
 ETOT  3  -42.003334817378     -8.197E-05 4.253E-05 0.000E+00
 ETOT  4  -42.003335341659     -5.243E-07 7.490E-06 0.000E+00
 ETOT  5  -42.003335346277     -4.619E-09 3.353E-07 0.000E+00
 ETOT  6  -42.003335346324     -4.653E-11 6.122E-08 0.000E+00
 ETOT  7  -42.003335346324     -4.334E-13 3.090E-09 0.000E+00
 ETOT  8  -42.003335346324      0.000E+00 5.764E-10 0.000E+00
 ETOT  9  -42.003335346324      7.105E-15 5.277E-11 0.000E+00
 ETOT 10  -42.003335346324      7.105E-15 1.156E-11 0.000E+00
 ETOT 11  -42.003335346324     -1.421E-14 1.051E-12 0.000E+00
 ETOT 12  -42.003335346324     -1.421E-14 2.358E-13 0.000E+00
 ETOT 13  -42.003335346324      0.000E+00 2.128E-14 0.000E+00
 ETOT 14  -42.003335346324      0.000E+00 4.868E-15 0.000E+00
 ETOT 15  -42.003335346324      1.421E-14 4.353E-16 0.000E+00
 ETOT 16  -42.003335346324     -7.105E-15 1.016E-16 0.000E+00
 ETOT 17  -42.003335346324      7.105E-15 8.985E-18 0.000E+00
 ETOT 18  -42.003335346324     -1.421E-14 2.141E-18 0.000E+00
 ETOT 19  -42.003335346324     -7.105E-15 1.869E-19 0.000E+00
 ETOT 20  -42.003335346324      0.000E+00 4.550E-20 0.000E+00
 ETOT 21  -42.003335346324      7.105E-15 9.998E-21 0.000E+00

 At SCF step   21   max residual=  1.00E-20 < tolwfr=  1.00E-20 =>converged.

 ----iterations are completed or convergence reached----

 dfpt_looppert: DFPT cycle converged with prtwf=-1. Will skip output of the 1st-order WFK file.
 dfpt_looppert : ek2=    7.6421150184E+01
          f-sum rule ratio=    1.0060489232E+00
 prteigrs : about to open file /scratch/users/j/a/jabreu/flow_simple_11atoms/flow/w303/t1/tmpdata/tmp_1WF1_EIG
 Expectation of eigenvalue derivatives (hartree) for nkpt=   2  k points:
  (in case of degenerate eigenvalues, averaged derivative)
 kpt#   1, nband= 49, wtk=  0.50000, kpt=  0.0000  0.0000  0.4750 (reduced coord)
   0.00080   -0.00080    0.00011   -0.00011    0.00206   -0.00060   -0.00251   -0.00093
   0.00153   -0.00152    0.00309   -0.00286    0.00273   -0.00319    0.00099    0.00002
   0.07900   -0.08205    0.01606   -0.01328    0.00229   -0.00088    0.10421   -0.10550
   0.09592    0.07109   -0.03608   -0.07599   -0.03407   -0.03147    0.02368   -0.02410
   0.03041   -0.02510    0.02604   -0.02940    0.00824   -0.01505    0.00638    0.00200
   0.25441   -0.26144    0.00867   -0.01331    0.06559   -0.05694    0.04092   -0.05598
   0.00374
 prteigrs : prtvol=0 or 1, do not print more k-points.

 Eight components of 2nd-order total energy (hartree) are
 1,2,3: 0th-order hamiltonian combined with 1st-order wavefunctions
     kin0=   5.61172918E+01 eigvalue=   4.84270838E+00  local=  -2.14482745E+01
 4,5,6: 1st-order hamiltonian combined with 1st and 0th-order wfs
     kin1=  -7.68834159E+01  Hartree=   0.00000000E+00     xc=   0.00000000E+00
 7,8,9: eventually, occupation + non-local contributions
    edocc=   5.12093249E+00     enl0=  -2.62932281E+00   enl1=  -7.12325484E+00
 1-9 gives the relaxation energy (to be shifted if some occ is /=2.0)
   erelax=  -4.20033353E+01
  No Ewald or frozen-wf contrib.: the relaxation energy is the total one
 2DEtotal=   -0.4200333535E+02 Ha. Also 2DEtotal=   -0.114296888151E+04 eV
    (  non-var. 2DEtotal :   -4.2003335346E+01 Ha)

 CALCULATION OF EFFECTIVE MASSES
 NOTE : Additional infos (eff. mass eigenvalues, eigenvectors and, if degenerate, average mass) are available in stdout.

 K-point ( 0.000, 0.000, 0.475) | band =    40
 Effective mass tensor:
            -17.2592789579            -23.9296989000             -0.0026960001
            -23.9296989000            -44.8113019569             -0.0056706683
             -0.0026960001             -0.0056706683             -2.8125635607
 Effective mass tensor eigenvalues:
            -58.6470455812             -3.4235364516             -2.8125624427
 Angular average effective mass 1/(<1/m>)=  -4.5133520411
 Angular average effective mass for Frohlich model (<m**0.5>)**2=  -5.8639729901
 Effective masses along directions: (cart. coord. / red. coord. -> eff. mass)
    1:   1.000000  0.000000  0.000000 /   0.894687 -0.446693  0.000000 ->  -4.4805721095
    2:   0.000000  1.000000  0.000000 /   0.000000  1.000000  0.000000 -> -11.6331770907
    3:   0.000000  0.000000  1.000000 /   0.000000  0.000000  1.000000 ->  -2.8125628185
    4:   0.577350  0.577350  0.577350 /   0.753703  0.276739  0.596111 ->  -7.0379254054
    5:   0.000000  0.707107  0.707107 /   0.000000  0.738567  0.674180 ->  -4.5311349810
    6:   0.707107  0.000000  0.707107 /   0.730334 -0.364636  0.577628 ->  -3.4555078827
    7:   0.707107  0.707107  0.000000 /   0.938723  0.344673  0.000000 -> -28.2566569354

 K-point ( 0.000, 0.000, 0.000) | band =    41
 Effective mass tensor:
              0.4722840333             -0.0083089633              0.0000009610
             -0.0083089633              0.4627087865              0.0000006250
              0.0000009610              0.0000006250              0.4641459546
 Effective mass tensor eigenvalues:
              0.4579068211              0.4641459547              0.4770859985
 Angular average effective mass 1/(<1/m>)=   0.4662437017
 Angular average effective mass for Frohlich model (<m**0.5>)**2=   0.4662843221
 Effective masses along directions: (cart. coord. / red. coord. -> eff. mass)
    1:   1.000000  0.000000  0.000000 /   0.894687 -0.446693  0.000000 ->   0.4721348275
    2:   0.000000  1.000000  0.000000 /   0.000000  1.000000  0.000000 ->   0.4625626056
    3:   0.000000  0.000000  1.000000 /   0.000000  0.000000  1.000000 ->   0.4641459546
    4:   0.577350  0.577350  0.577350 /   0.753703  0.276739  0.596111 ->   0.4607971732
    5:   0.000000  0.707107  0.707107 /   0.000000  0.738567  0.674180 ->   0.4633535693
    6:   0.707107  0.000000  0.707107 /   0.730334 -0.364636  0.577628 ->   0.4681072804
    7:   0.707107  0.707107  0.000000 /   0.938723  0.344673  0.000000 ->   0.4591392728

 END OF EFFECTIVE MASSES SECTION

 ---- first-order wavefunction calculations are completed ----

 Total localisation tensor (bohr^2) in cartesian coordinates
  WARNING : still subject to testing - especially symmetries.
      direction              matrix element
   alpha     beta       real part   imaginary part
     1        1       0.8213263914    0.0000000000
     1        2      -0.2844076925    0.0000000000
     1        3       0.0000000000    0.0000000000
     2        1      -0.2844076925    0.0000000000
     2        2       0.4935649628    0.0000000000
     2        3       0.0000000000    0.0000000000
     3        1       0.0000000000    0.0000000000
     3        2       0.0000000000    0.0000000000
     3        3       0.4807658675    0.0000000000

 respfn : d/dk was computed, but no 2DTE, so no DDB output.

== END DATASET(S) ==============================================================

 -outvars: echo values of variables after computation  --------
            acell      1.0000000000E+00  1.0000000000E+00  1.0000000000E+00 Bohr
              amu      2.29897680E+01  2.80855000E+01  1.59994000E+01
             ecut      4.40000000E+01 Hartree
           etotal     -4.2003335346E+01
            fcart      0.0000000000E+00  0.0000000000E+00  0.0000000000E+00
                       0.0000000000E+00  0.0000000000E+00  0.0000000000E+00
                       0.0000000000E+00  0.0000000000E+00  0.0000000000E+00
                       0.0000000000E+00  0.0000000000E+00  0.0000000000E+00
                       0.0000000000E+00  0.0000000000E+00  0.0000000000E+00
                       0.0000000000E+00  0.0000000000E+00  0.0000000000E+00
                       0.0000000000E+00  0.0000000000E+00  0.0000000000E+00
                       0.0000000000E+00  0.0000000000E+00  0.0000000000E+00
                       0.0000000000E+00  0.0000000000E+00  0.0000000000E+00
                       0.0000000000E+00  0.0000000000E+00  0.0000000000E+00
                       0.0000000000E+00  0.0000000000E+00  0.0000000000E+00
                       0.0000000000E+00  0.0000000000E+00  0.0000000000E+00
-          fftalg         512
           irdden           1
           irdwfk           1
           istwfk        0    1
              ixc     -116133
              kpt      0.00000000E+00  0.00000000E+00  4.75000000E-01
                       0.00000000E+00  0.00000000E+00  0.00000000E+00
           kptopt           0
P           mkmem           2
P          mkqmem           2
P          mk1mem           2
            natom          12
            nband          49
           nbdbuf           4
            ngfft          72      72      60
             nkpt           2
            nstep        2000
             nsym           4
           ntypat           3
              occ      2.000000  2.000000  2.000000  2.000000  2.000000  2.000000
                       2.000000  2.000000  2.000000  2.000000  2.000000  2.000000
                       2.000000  2.000000  2.000000  2.000000  2.000000  2.000000
                       2.000000  2.000000  2.000000  2.000000  2.000000  2.000000
                       2.000000  2.000000  2.000000  2.000000  2.000000  2.000000
                       2.000000  2.000000  2.000000  2.000000  2.000000  2.000000
                       2.000000  2.000000  2.000000  2.000000  0.000000  0.000000
                       0.000000  0.000000  0.000000  0.000000  0.000000  0.000000
                       0.000000
        optdriver           1
            prtwf          -1
            rfdir           1       1       1
           rfelfd           2
            rprim      1.1494929666E+01  0.0000000000E+00  0.0000000000E+00
                      -5.7391060405E+00  9.9597223794E+00  0.0000000000E+00
                       0.0000000000E+00  0.0000000000E+00  9.0914483294E+00
          spgroup          36
           strten      0.0000000000E+00  0.0000000000E+00  0.0000000000E+00
                       0.0000000000E+00  0.0000000000E+00  0.0000000000E+00
           symrel      1  0  0   0  1  0   0  0  1       0  1  0   1  0  0   0  0  1
                      -1  0  0   0 -1  0   0  0  1       0 -1  0  -1  0  0   0  0  1
            tnons      0.0000000  0.0000000  0.0000000     0.0000000  0.0000000  0.0000000
                       0.0000000  0.0000000  0.5000000     0.0000000  0.0000000  0.5000000
           tolwfr      1.00000000E-20
            typat      1  1  1  1  2  2  3  3  3  3  3  3
           useylm           1
              wtk        0.50000    0.50000
           xangst      2.5379795041E+00  9.1273793152E-01  2.3959534368E+00
                      -4.7630714225E-01  2.6547244680E+00  2.3959534368E+00
                       5.0787117504E-01  4.3577201555E+00  4.8014470613E+00
                       3.5221578214E+00  2.6157336191E+00  4.8014470613E+00
                       2.5638417633E+00  4.4364028243E+00  2.2184087633E+00
                       4.8200891582E-01  8.3405526274E-01  4.6239023878E+00
                       2.6181827853E-01  4.5304330671E-01  2.9939254749E+00
                       2.7840324006E+00  4.8174147804E+00  5.8843185042E-01
                       9.7969486971E-01  4.4349903416E+00  2.4871408891E+00
                       2.0661558094E+00  8.3546774550E-01  8.1647264603E-02
                       3.3535394242E+00  3.0631217242E+00  2.4871408891E+00
                      -3.0768874513E-01  2.2073363628E+00  8.1647264603E-02
            xcart      4.7960861936E+00  1.7248247217E+00  4.5276958227E+00
                      -9.0009005399E-01  5.0167022028E+00  4.5276958227E+00
                       9.5973743161E-01  8.2348976577E+00  9.0734199874E+00
                       6.6559136792E+00  4.9430201766E+00  9.0734199874E+00
                       4.8449587807E+00  8.3835863531E+00  4.1921850135E+00
                       9.1086484451E-01  1.5761360263E+00  8.7379091782E+00
                       4.9476484300E-01  8.5612777601E-01  5.6576992099E+00
                       5.2610587822E+00  9.1035946034E+00  1.1119750452E+00
                       1.8513549976E+00  8.3809171475E+00  4.7000151343E+00
                       3.9044686276E+00  1.5788052319E+00  1.5429096960E-01
                       6.3372710877E+00  5.7884611705E+00  4.7000151343E+00
                      -5.8144746246E-01  4.1712612089E+00  1.5429096960E-01
             xred      5.0369900000E-01  1.7318000000E-01  4.9801700000E-01
                       1.7318000000E-01  5.0369900000E-01  4.9801700000E-01
                       4.9630100000E-01  8.2682000000E-01  9.9801700000E-01
                       8.2682000000E-01  4.9630100000E-01  9.9801700000E-01
                       8.4174900000E-01  8.4174900000E-01  4.6111300000E-01
                       1.5825100000E-01  1.5825100000E-01  9.6111300000E-01
                       8.5959000000E-02  8.5959000000E-02  6.2231000000E-01
                       9.1404100000E-01  9.1404100000E-01  1.2231000000E-01
                       5.8118700000E-01  8.4148100000E-01  5.1697100000E-01
                       4.1881300000E-01  1.5851900000E-01  1.6971000000E-02
                       8.4148100000E-01  5.8118700000E-01  5.1697100000E-01
                       1.5851900000E-01  4.1881300000E-01  1.6971000000E-02
            znucl       11.00000   14.00000    8.00000

- Timing analysis has been suppressed with timopt=0

 Suggested references for the acknowledgment of ABINIT usage.

 Calculation completed.
.Delivered   2 WARNINGs and   5 COMMENTs to log file.