.Version 9.5.2 of ABINIT

 ABINIT is a project of the Universite Catholique de Louvain,
 Corning Inc. and other collaborators, see ~abinit/doc/developers/contributors.txt .
 acknowledgments of the ABINIT effort.

.Starting date : Mon 31 May 2021.
- ( at 22h53 )

- input  file    -> /scratch/users/j/a/jabreu/flow_simple_11atoms/flow/w389/t1/run.abi
- output file    -> /scratch/users/j/a/jabreu/flow_simple_11atoms/flow/w389/t1/run.abo
- root for input  files -> /scratch/users/j/a/jabreu/flow_simple_11atoms/flow/w389/t1/indata/in
- root for output files -> /scratch/users/j/a/jabreu/flow_simple_11atoms/flow/w389/t1/outdata/out

 Symmetries : space group Pn m a (# 62); Bravais oP (primitive ortho.)
     intxc =       0      iscf =       7    lmnmax =      32     lnmax =       8
     mgfft =      96  mpssoang =       4    mqgrid =    4544     natom =      12
  nloc_mem =       1    nspden =       1   nspinor =       1    nsppol =       1
      nsym =       8    n1xccc =    2501    ntypat =       2    occopt =       1
   xclevel =       2
-    mband =          57        mffmem =           1         mkmem =           2
-   mkqmem =           2        mk1mem =           2           mpw =       20911
      nfft =      368640          nkpt =           2
  Rough estimation (10% accuracy) of disk space for files :

------------- Echo of variables that govern the present computation ------------
-
- outvars: echo of selected default values
-   iomode0 =  0 , fftalg0 =512 , wfoptalg0 =  0
-
- outvars: echo of global parameters not present in the input file
-  max_nthreads =    0
-
 -outvars: echo values of preprocessed input variables --------
            acell      1.0000000000E+00  1.0000000000E+00  1.0000000000E+00 Bohr
              amu      1.32905430E+02  3.20660000E+01
             ecut      2.70000000E+01 Hartree
-          fftalg         512
           irdden           1
           irdwfk           1
           istwfk        0    1
              ixc     -116133
              kpt      4.44444444E-01  0.00000000E+00  0.00000000E+00
                       0.00000000E+00  0.00000000E+00  0.00000000E+00
           kptopt           0
P           mkmem           2
P          mkqmem           2
P          mk1mem           2
            natom          12
            nband          57
           nbdbuf           4
            ngfft          48      80      96
             nkpt           2
            nstep        2000
             nsym           8
           ntypat           2
              occ      2.000000  2.000000  2.000000  2.000000  2.000000  2.000000
                       2.000000  2.000000  2.000000  2.000000  2.000000  2.000000
                       2.000000  2.000000  2.000000  2.000000  2.000000  2.000000
                       2.000000  2.000000  2.000000  2.000000  2.000000  2.000000
                       2.000000  2.000000  2.000000  2.000000  2.000000  2.000000
                       2.000000  2.000000  2.000000  2.000000  2.000000  2.000000
                       2.000000  2.000000  2.000000  2.000000  2.000000  2.000000
                       2.000000  2.000000  2.000000  2.000000  2.000000  2.000000
                       0.000000  0.000000  0.000000  0.000000  0.000000  0.000000
                       0.000000  0.000000  0.000000
        optdriver           1
            prtwf          -1
            rfdir           1       1       1
           rfelfd           2
            rprim      9.9856285969E+00  0.0000000000E+00  0.0000000000E+00
                       0.0000000000E+00  1.6059877967E+01  0.0000000000E+00
                       0.0000000000E+00  0.0000000000E+00  1.9423429105E+01
          spgroup          62
           symrel      1  0  0   0  1  0   0  0  1      -1  0  0   0 -1  0   0  0 -1
                      -1  0  0   0  1  0   0  0 -1       1  0  0   0 -1  0   0  0  1
                      -1  0  0   0 -1  0   0  0  1       1  0  0   0  1  0   0  0 -1
                       1  0  0   0 -1  0   0  0 -1      -1  0  0   0  1  0   0  0  1
            tnons      0.0000000  0.0000000  0.0000000     0.0000000  0.0000000 -0.0000000
                       0.5000000  0.5000000  0.5000000     0.5000000  0.5000000  0.5000000
                       0.0000000  0.5000000  0.5000000     0.0000000  0.5000000  0.5000000
                       0.5000000  0.0000000 -0.0000000     0.5000000  0.0000000  0.0000000
           tolwfr      1.00000000E-20
            typat      1  1  1  1  1  1  1  1  2  2  2  2
           useylm           1
              wtk        0.50000    0.50000
           xangst      3.9631253002E+00  8.2913869310E+00  8.5261373913E+00
                       1.3210417667E+00  2.0713446191E-01  1.7522986037E+00
                       3.9631253002E+00  4.0421262345E+00  6.8915166013E+00
                       1.3210417667E+00  4.4563951583E+00  3.3869193938E+00
                       3.9631253002E+00  7.2744368641E+00  4.3745640301E+00
                       1.3210417667E+00  1.2240845288E+00  5.9038719650E+00
                       3.9631253002E+00  3.0251761676E+00  7.6465396742E-01
                       1.3210417667E+00  5.4733452253E+00  9.5137820277E+00
                       3.9631253002E+00  6.4226980530E+00  1.1335059215E+00
                       1.3210417667E+00  2.0758233399E+00  9.1449300735E+00
                       3.9631253002E+00  2.1734373566E+00  4.0057120760E+00
                       1.3210417667E+00  6.3250840363E+00  6.2727239191E+00
            xcart      7.4892214477E+00  1.5668450561E+01  1.6112064641E+01
                       2.4964071492E+00  3.9142740569E-01  3.3113644641E+00
                       7.4892214477E+00  7.6385115778E+00  1.3023079017E+01
                       2.4964071492E+00  8.4213663892E+00  6.4003500884E+00
                       7.4892214477E+00  1.3746693444E+01  8.2667279677E+00
                       2.4964071492E+00  2.3131845230E+00  1.1156701137E+01
                       7.4892214477E+00  5.7167544605E+00  1.4449865848E+00
                       2.4964071492E+00  1.0343123506E+01  1.7978442520E+01
                       7.4892214477E+00  1.2137140354E+01  2.1420157617E+00
                       2.4964071492E+00  3.9227376126E+00  1.7281413343E+01
                       7.4892214477E+00  4.1072013709E+00  7.5696987908E+00
                       2.4964071492E+00  1.1952676596E+01  1.1853730314E+01
             xred      7.5000000000E-01  9.7562700000E-01  8.2951700000E-01
                       2.5000000000E-01  2.4373000000E-02  1.7048300000E-01
                       7.5000000000E-01  4.7562700000E-01  6.7048300000E-01
                       2.5000000000E-01  5.2437300000E-01  3.2951700000E-01
                       7.5000000000E-01  8.5596500000E-01  4.2560600000E-01
                       2.5000000000E-01  1.4403500000E-01  5.7439400000E-01
                       7.5000000000E-01  3.5596500000E-01  7.4394000000E-02
                       2.5000000000E-01  6.4403500000E-01  9.2560600000E-01
                       7.5000000000E-01  7.5574300000E-01  1.1028000000E-01
                       2.5000000000E-01  2.4425700000E-01  8.8972000000E-01
                       7.5000000000E-01  2.5574300000E-01  3.8972000000E-01
                       2.5000000000E-01  7.4425700000E-01  6.1028000000E-01
            znucl       55.00000   16.00000

 chkinp: Checking input parameters for consistency.

== DATASET  1 ==================================================================
-   mpi_nproc: 1, omp_nthreads: -1 (-1 if OMP is not activated)

--- !DatasetInfo
iteration_state: {dtset: 1, }
dimensions: {natom: 12, nkpt: 2, mband: 57, nsppol: 1, nspinor: 1, nspden: 1, mpw: 20911, }
cutoff_energies: {ecut:  27.0, pawecutdg:  -1.0, }
electrons: {nelect:   9.60000000E+01, charge:   0.00000000E+00, occopt:   1.00000000E+00, tsmear:   1.00000000E-02, }
meta: {optdriver: 1, rfelfd: 2, }
...

 Real(R)+Recip(G) space primitive vectors, cartesian coordinates (Bohr,Bohr^-1):
 R(1)=  9.9856286  0.0000000  0.0000000  G(1)=  0.1001439  0.0000000  0.0000000
 R(2)=  0.0000000 16.0598780  0.0000000  G(2)=  0.0000000  0.0622670  0.0000000
 R(3)=  0.0000000  0.0000000 19.4234291  G(3)=  0.0000000  0.0000000  0.0514842
 Unit cell volume ucvol=  3.1148960E+03 bohr^3
 Angles (23,13,12)=  9.00000000E+01  9.00000000E+01  9.00000000E+01 degrees

 getcut: wavevector=  0.0000  0.0000  0.0000  ngfft=  48  80  96
         ecut(hartree)=     27.000   => boxcut(ratio)=   2.05503

--- Pseudopotential description ------------------------------------------------
- pspini: atom type   1  psp file is /scratch/users/j/a/jabreu/pseudos/PBEsol/Cs.psp8
- pspatm: opening atomic psp file    /scratch/users/j/a/jabreu/pseudos/PBEsol/Cs.psp8
- Cs    ONCVPSP-3.3.0  r_core=   2.27353   1.85623   2.01788   1.90105
- 55.00000   9.00000    180112                znucl, zion, pspdat
    8 -116133    3    4       600   0.00000   pspcod,pspxc,lmax,lloc,mmax,r2well
    5.99000000000000    5.00000000000000    0.00000000000000   rchrg,fchrg,qchrg
     nproj     2     2     2     2
     extension_switch     1
  pspatm : epsatm=   22.12462445
         --- l  ekb(1:nproj) -->
             0    6.214110    0.767882
             1    6.311966    0.793598
             2    3.769790    0.913105
             3   -9.247129   -2.432478
 pspatm: atomic psp has been read  and splines computed

- pspini: atom type   2  psp file is /scratch/users/j/a/jabreu/pseudos/PBEsol/S.psp8
- pspatm: opening atomic psp file    /scratch/users/j/a/jabreu/pseudos/PBEsol/S.psp8
- S     ONCVPSP-3.3.0  r_core=   1.45376   1.45376   1.61851
- 16.00000   6.00000    180112                znucl, zion, pspdat
    8 -116133    2    4       600   0.00000   pspcod,pspxc,lmax,lloc,mmax,r2well
    5.99000000000000    6.00000000000000    0.00000000000000   rchrg,fchrg,qchrg
     nproj     2     2     2
     extension_switch     1
  pspatm : epsatm=    8.71840985
         --- l  ekb(1:nproj) -->
             0    6.834532    0.579453
             1    3.282851    0.896984
             2   -3.496974   -0.974265
 pspatm: atomic psp has been read  and splines computed

   2.03395810E+04                                ecore*ucvol(ha*bohr**3)

 ==>  initialize data related to q vector <==

 The list of irreducible perturbations for this q vector is:
    1)    idir= 1    ipert=  13
    2)    idir= 2    ipert=  13
    3)    idir= 3    ipert=  13

 Perturbation wavevector (in red.coord.)   0.000000  0.000000  0.000000
 Perturbation : derivative vs k along direction   1

 dfpt_looppert : COMMENT -
  In a d/dk calculation, iscf is set to -3 automatically.
 The set of symmetries contains only one element for this perturbation.
 symkpt : not enough symmetry to change the number of k points.

 Initialisation of the first-order wave-functions :
  ireadwf=   0

--- !BeginCycle
iteration_state: {dtset: 1, }
solver: {iscf: 7, nstep: 2000, nline: 4, wfoptalg: 0, }
tolerances: {tolwfr: 1.00E-20, }
...

     iter   2DEtotal(Ha)        deltaE(Ha) residm    vres2
-ETOT  1  -41.998025366547     -4.200E+01 3.630E-02 0.000E+00
 ETOT  2  -42.032790555917     -3.477E-02 5.006E-03 0.000E+00
 ETOT  3  -42.034748239830     -1.958E-03 2.645E-04 0.000E+00
[...]
          f-sum rule ratio=    1.0099783347E+00
 prteigrs : about to open file /scratch/users/j/a/jabreu/flow_simple_11atoms/flow/w389/t1/tmpdata/tmp_1WF1_EIG
 Expectation of eigenvalue derivatives (hartree) for nkpt=   2  k points:
  (in case of degenerate eigenvalues, averaged derivative)
 kpt#   1, nband= 57, wtk=  0.50000, kpt=  0.4444  0.0000  0.0000 (reduced coord)
   0.00609   -0.00293    0.00217   -0.00182    0.00727    0.00331   -0.00598   -0.00682
   0.02175    0.00142   -0.00322   -0.03353   -0.00442    0.01349   -0.01282   -0.03208
   0.01695   -0.01543   -0.00198    0.03548   -0.02113    0.01663   -0.00015   -0.02051
   0.02197   -0.02172    0.00451   -0.01116   -0.00346   -0.01098    0.03634    0.00336
   0.01725   -0.00328   -0.01409   -0.00430    0.02742   -0.04639    0.03547   -0.02394
   0.00110   -0.01932    0.02922   -0.00765    0.03035   -0.00525    0.03205   -0.00170
  -0.01582   -0.03608    0.09220   -0.03949    0.02346    0.01220    0.00780    0.00589
   0.07310
 prteigrs : prtvol=0 or 1, do not print more k-points.

 Eight components of 2nd-order total energy (hartree) are
 1,2,3: 0th-order hamiltonian combined with 1st-order wavefunctions
     kin0=   6.18742540E+01 eigvalue=   1.46195541E+00  local=  -4.21454033E+01
 4,5,6: 1st-order hamiltonian combined with 1st and 0th-order wfs
     kin1=  -7.67754208E+01  Hartree=   0.00000000E+00     xc=   0.00000000E+00
 7,8,9: eventually, occupation + non-local contributions
    edocc=   6.90845803E+00     enl0=   1.39356361E+01   enl1=  -7.29437968E+00
 1-9 gives the relaxation energy (to be shifted if some occ is /=2.0)
   erelax=  -4.20349002E+01
  No Ewald or frozen-wf contrib.: the relaxation energy is the total one
 2DEtotal=   -0.4203490022E+02 Ha. Also 2DEtotal=   -0.114382780529E+04 eV
    (  non-var. 2DEtotal :   -4.2034900216E+01 Ha)

 Perturbation wavevector (in red.coord.)   0.000000  0.000000  0.000000
 Perturbation : derivative vs k along direction   2
 The set of symmetries contains only one element for this perturbation.
 symkpt : not enough symmetry to change the number of k points.

[...]

 Perturbation wavevector (in red.coord.)   0.000000  0.000000  0.000000
 Perturbation : derivative vs k along direction   3
 The set of symmetries contains only one element for this perturbation.
 symkpt : not enough symmetry to change the number of k points.

 Initialisation of the first-order wave-functions :
  ireadwf=   0

--- !BeginCycle
iteration_state: {dtset: 1, }
solver: {iscf: 7, nstep: 2000, nline: 4, wfoptalg: 0, }
tolerances: {tolwfr: 1.00E-20, }
...

     iter   2DEtotal(Ha)        deltaE(Ha) residm    vres2
-ETOT  1  -11.217914099551     -1.122E+01 1.512E-02 0.000E+00
 ETOT  2  -11.227771737945     -9.858E-03 1.373E-03 0.000E+00
 ETOT  3  -11.228377912908     -6.062E-04 1.942E-04 0.000E+00
 ETOT  4  -11.228424726702     -4.681E-05 1.843E-05 0.000E+00
 ETOT  5  -11.228428581826     -3.855E-06 2.804E-06 0.000E+00
 ETOT  6  -11.228428908210     -3.264E-07 2.525E-07 0.000E+00
 ETOT  7  -11.228428936306     -2.810E-08 4.182E-08 0.000E+00
 ETOT  8  -11.228428938753     -2.447E-09 3.864E-09 0.000E+00
 ETOT  9  -11.228428938968     -2.151E-10 6.224E-10 0.000E+00
 ETOT 10  -11.228428938987     -1.906E-11 6.224E-11 0.000E+00
 ETOT 11  -11.228428938988     -1.684E-12 9.105E-12 0.000E+00
 ETOT 12  -11.228428938989     -1.474E-13 1.023E-12 0.000E+00
 ETOT 13  -11.228428938989     -2.487E-14 1.409E-13 0.000E+00
 ETOT 14  -11.228428938989     -5.329E-15 1.698E-14 0.000E+00
 ETOT 15  -11.228428938989     -1.066E-14 2.279E-15 0.000E+00
 ETOT 16  -11.228428938989      1.066E-14 2.838E-16 0.000E+00
 ETOT 17  -11.228428938989     -3.553E-15 3.731E-17 0.000E+00
 ETOT 18  -11.228428938989      1.776E-15 4.769E-18 0.000E+00
 ETOT 19  -11.228428938989      0.000E+00 6.162E-19 0.000E+00
 ETOT 20  -11.228428938989      7.105E-15 9.041E-20 0.000E+00
 ETOT 21  -11.228428938989      0.000E+00 1.203E-20 0.000E+00
 ETOT 22  -11.228428938989      0.000E+00 9.997E-21 0.000E+00

 At SCF step   22   max residual=  1.00E-20 < tolwfr=  1.00E-20 =>converged.

 ----iterations are completed or convergence reached----

 dfpt_looppert: DFPT cycle converged with prtwf=-1. Will skip output of the 1st-order WFK file.
 dfpt_looppert : ek2=    2.0091351692E+01
          f-sum rule ratio=    1.0215206339E+00
 prteigrs : about to open file /scratch/users/j/a/jabreu/flow_simple_11atoms/flow/w389/t1/tmpdata/tmp_1WF1_EIG
 Expectation of eigenvalue derivatives (hartree) for nkpt=   2  k points:
  (in case of degenerate eigenvalues, averaged derivative)
 kpt#   1, nband= 57, wtk=  0.50000, kpt=  0.4444  0.0000  0.0000 (reduced coord)
  -0.00000   -0.00000   -0.00000    0.00000   -0.00000    0.00000   -0.00000   -0.00000
   0.00000   -0.00000   -0.00000   -0.00000    0.00000   -0.00000    0.00000   -0.00000
  -0.00000    0.00000   -0.00000   -0.00000    0.00000    0.00000   -0.00000    0.00000
  -0.00000    0.00000    0.00000    0.00000   -0.00000    0.00000   -0.00000   -0.00000
   0.00000    0.00000    0.00000    0.00000    0.00000    0.00000   -0.00000    0.00000
   0.00000   -0.00000    0.00000   -0.00000   -0.00000    0.00000    0.00000   -0.00000
  -0.00000    0.00000   -0.00000    0.00000   -0.00000    0.00000   -0.00000    0.00000
   0.00000
 prteigrs : prtvol=0 or 1, do not print more k-points.

 Eight components of 2nd-order total energy (hartree) are
 1,2,3: 0th-order hamiltonian combined with 1st-order wavefunctions
     kin0=   1.56886763E+01 eigvalue=   4.64672682E-01  local=  -1.06576880E+01
 4,5,6: 1st-order hamiltonian combined with 1st and 0th-order wfs
     kin1=  -2.05237303E+01  Hartree=   0.00000000E+00     xc=   0.00000000E+00
 7,8,9: eventually, occupation + non-local contributions
    edocc=   2.25411032E+00     enl0=   3.47865769E+00   enl1=  -1.93312756E+00
 1-9 gives the relaxation energy (to be shifted if some occ is /=2.0)
   erelax=  -1.12284289E+01
  No Ewald or frozen-wf contrib.: the relaxation energy is the total one
 2DEtotal=   -0.1122842894E+02 Ha. Also 2DEtotal=   -0.305541090004E+03 eV
    (  non-var. 2DEtotal :   -1.1228428939E+01 Ha)

 CALCULATION OF EFFECTIVE MASSES
 NOTE : Additional infos (eff. mass eigenvalues, eigenvectors and, if degenerate, average mass) are available in stdout.

 K-point ( 0.444, 0.000, 0.000) | band =    48
 Effective mass tensor:
             -1.2971789169             -0.0000137298             -0.0000091914
             -0.0000137298             -2.5628374771             -0.0000675735
             -0.0000091914             -0.0000675735             -1.4903204830
 Effective mass tensor eigenvalues:
             -2.5628374815             -1.4903204792             -1.2971789163
 Angular average effective mass 1/(<1/m>)=  -1.6374716291
 Angular average effective mass for Frohlich model (<m**0.5>)**2=  -1.6759333388
 Effective masses along directions: (cart. coord. / red. coord. -> eff. mass)
    1:   1.000000  0.000000  0.000000 /   1.000000  0.000000  0.000000 ->  -1.2971789168
    2:   0.000000  1.000000  0.000000 /   0.000000  1.000000  0.000000 ->  -2.5628374738
    3:   0.000000  0.000000  1.000000 /   0.000000  0.000000  1.000000 ->  -1.4903204812
    4:   0.577350  0.577350  0.577350 /   0.368350  0.592417  0.716492 ->  -1.6375191363
    5:   0.000000  0.707107  0.707107 /   0.000000  0.637222  0.770680 ->  -1.8847410231
    6:   0.707107  0.000000  0.707107 /   0.457219  0.000000  0.889354 ->  -1.3870676043
    7:   0.707107  0.707107  0.000000 /   0.528028  0.849227  0.000000 ->  -1.7225224201

 K-point ( 0.000, 0.000, 0.000) | band =    49
 Effective mass tensor:
              0.2923602187             -0.0000000026             -0.0000000109
             -0.0000000026              0.2937768619              0.0000000355
             -0.0000000109              0.0000000355              0.2926131300
 Effective mass tensor eigenvalues:
              0.2923602187              0.2926131300              0.2937768619
 Angular average effective mass 1/(<1/m>)=   0.2929154393
 Angular average effective mass for Frohlich model (<m**0.5>)**2=   0.2929158283
 Effective masses along directions: (cart. coord. / red. coord. -> eff. mass)
    1:   1.000000  0.000000  0.000000 /   1.000000  0.000000  0.000000 ->   0.2923602187
    2:   0.000000  1.000000  0.000000 /   0.000000  1.000000  0.000000 ->   0.2937768619
    3:   0.000000  0.000000  1.000000 /   0.000000  0.000000  1.000000 ->   0.2926131300
    4:   0.577350  0.577350  0.577350 /   0.368350  0.592417  0.716492 ->   0.2929154539
    5:   0.000000  0.707107  0.707107 /   0.000000  0.637222  0.770680 ->   0.2931938767
    6:   0.707107  0.000000  0.707107 /   0.457219  0.000000  0.889354 ->   0.2924866088
    7:   0.707107  0.707107  0.000000 /   0.528028  0.849227  0.000000 ->   0.2930668258

 END OF EFFECTIVE MASSES SECTION

 ---- first-order wavefunction calculations are completed ----

 Total localisation tensor (bohr^2) in cartesian coordinates
  WARNING : still subject to testing - especially symmetries.
      direction              matrix element
   alpha     beta       real part   imaginary part
     1        1       1.3814812177    0.0000000000
     1        2       0.0000000000    0.0000000000
     1        3       0.0000000000    0.0000000000
     2        1       0.0000000000    0.0000000000
     2        2       1.5079376147    0.0000000000
     2        3       0.0000000000    0.0000000000
     3        1       0.0000000000    0.0000000000
     3        2       0.0000000000    0.0000000000
     3        3       1.4412071128    0.0000000000

 respfn : d/dk was computed, but no 2DTE, so no DDB output.

== END DATASET(S) ==============================================================

 -outvars: echo values of variables after computation  --------
            acell      1.0000000000E+00  1.0000000000E+00  1.0000000000E+00 Bohr
              amu      1.32905430E+02  3.20660000E+01
             ecut      2.70000000E+01 Hartree
           etotal     -1.1228428939E+01
            fcart      0.0000000000E+00  0.0000000000E+00  0.0000000000E+00
                       0.0000000000E+00  0.0000000000E+00  0.0000000000E+00
                       0.0000000000E+00  0.0000000000E+00  0.0000000000E+00
                       0.0000000000E+00  0.0000000000E+00  0.0000000000E+00
                       0.0000000000E+00  0.0000000000E+00  0.0000000000E+00
                       0.0000000000E+00  0.0000000000E+00  0.0000000000E+00
                       0.0000000000E+00  0.0000000000E+00  0.0000000000E+00
                       0.0000000000E+00  0.0000000000E+00  0.0000000000E+00
                       0.0000000000E+00  0.0000000000E+00  0.0000000000E+00
                       0.0000000000E+00  0.0000000000E+00  0.0000000000E+00
                       0.0000000000E+00  0.0000000000E+00  0.0000000000E+00
                       0.0000000000E+00  0.0000000000E+00  0.0000000000E+00
-          fftalg         512
           irdden           1
           irdwfk           1
           istwfk        0    1
              ixc     -116133
              kpt      4.44444444E-01  0.00000000E+00  0.00000000E+00
                       0.00000000E+00  0.00000000E+00  0.00000000E+00
           kptopt           0
P           mkmem           2
P          mkqmem           2
P          mk1mem           2
            natom          12
            nband          57
           nbdbuf           4
            ngfft          48      80      96
             nkpt           2
            nstep        2000
             nsym           8
           ntypat           2
              occ      2.000000  2.000000  2.000000  2.000000  2.000000  2.000000
                       2.000000  2.000000  2.000000  2.000000  2.000000  2.000000
                       2.000000  2.000000  2.000000  2.000000  2.000000  2.000000
                       2.000000  2.000000  2.000000  2.000000  2.000000  2.000000
                       2.000000  2.000000  2.000000  2.000000  2.000000  2.000000
                       2.000000  2.000000  2.000000  2.000000  2.000000  2.000000
                       2.000000  2.000000  2.000000  2.000000  2.000000  2.000000
                       2.000000  2.000000  2.000000  2.000000  2.000000  2.000000
                       0.000000  0.000000  0.000000  0.000000  0.000000  0.000000
                       0.000000  0.000000  0.000000
        optdriver           1
            prtwf          -1
            rfdir           1       1       1
           rfelfd           2
            rprim      9.9856285969E+00  0.0000000000E+00  0.0000000000E+00
                       0.0000000000E+00  1.6059877967E+01  0.0000000000E+00
                       0.0000000000E+00  0.0000000000E+00  1.9423429105E+01
          spgroup          62
           strten      0.0000000000E+00  0.0000000000E+00  0.0000000000E+00
                       0.0000000000E+00  0.0000000000E+00  0.0000000000E+00
           symrel      1  0  0   0  1  0   0  0  1      -1  0  0   0 -1  0   0  0 -1
                      -1  0  0   0  1  0   0  0 -1       1  0  0   0 -1  0   0  0  1
                      -1  0  0   0 -1  0   0  0  1       1  0  0   0  1  0   0  0 -1
                       1  0  0   0 -1  0   0  0 -1      -1  0  0   0  1  0   0  0  1
            tnons      0.0000000  0.0000000  0.0000000     0.0000000  0.0000000 -0.0000000
                       0.5000000  0.5000000  0.5000000     0.5000000  0.5000000  0.5000000
                       0.0000000  0.5000000  0.5000000     0.0000000  0.5000000  0.5000000
                       0.5000000  0.0000000 -0.0000000     0.5000000  0.0000000  0.0000000
           tolwfr      1.00000000E-20
            typat      1  1  1  1  1  1  1  1  2  2  2  2
           useylm           1
              wtk        0.50000    0.50000
           xangst      3.9631253002E+00  8.2913869310E+00  8.5261373913E+00
                       1.3210417667E+00  2.0713446191E-01  1.7522986037E+00
                       3.9631253002E+00  4.0421262345E+00  6.8915166013E+00
                       1.3210417667E+00  4.4563951583E+00  3.3869193938E+00
                       3.9631253002E+00  7.2744368641E+00  4.3745640301E+00
                       1.3210417667E+00  1.2240845288E+00  5.9038719650E+00
                       3.9631253002E+00  3.0251761676E+00  7.6465396742E-01
                       1.3210417667E+00  5.4733452253E+00  9.5137820277E+00
                       3.9631253002E+00  6.4226980530E+00  1.1335059215E+00
                       1.3210417667E+00  2.0758233399E+00  9.1449300735E+00
                       3.9631253002E+00  2.1734373566E+00  4.0057120760E+00
                       1.3210417667E+00  6.3250840363E+00  6.2727239191E+00
            xcart      7.4892214477E+00  1.5668450561E+01  1.6112064641E+01
                       2.4964071492E+00  3.9142740569E-01  3.3113644641E+00
                       7.4892214477E+00  7.6385115778E+00  1.3023079017E+01
                       2.4964071492E+00  8.4213663892E+00  6.4003500884E+00
                       7.4892214477E+00  1.3746693444E+01  8.2667279677E+00
                       2.4964071492E+00  2.3131845230E+00  1.1156701137E+01
                       7.4892214477E+00  5.7167544605E+00  1.4449865848E+00
                       2.4964071492E+00  1.0343123506E+01  1.7978442520E+01
                       7.4892214477E+00  1.2137140354E+01  2.1420157617E+00
                       2.4964071492E+00  3.9227376126E+00  1.7281413343E+01
                       7.4892214477E+00  4.1072013709E+00  7.5696987908E+00
                       2.4964071492E+00  1.1952676596E+01  1.1853730314E+01
             xred      7.5000000000E-01  9.7562700000E-01  8.2951700000E-01
                       2.5000000000E-01  2.4373000000E-02  1.7048300000E-01
                       7.5000000000E-01  4.7562700000E-01  6.7048300000E-01
                       2.5000000000E-01  5.2437300000E-01  3.2951700000E-01
                       7.5000000000E-01  8.5596500000E-01  4.2560600000E-01
                       2.5000000000E-01  1.4403500000E-01  5.7439400000E-01
                       7.5000000000E-01  3.5596500000E-01  7.4394000000E-02
                       2.5000000000E-01  6.4403500000E-01  9.2560600000E-01
                       7.5000000000E-01  7.5574300000E-01  1.1028000000E-01
                       2.5000000000E-01  2.4425700000E-01  8.8972000000E-01
                       7.5000000000E-01  2.5574300000E-01  3.8972000000E-01
                       2.5000000000E-01  7.4425700000E-01  6.1028000000E-01
            znucl       55.00000   16.00000

- Timing analysis has been suppressed with timopt=0

 Suggested references for the acknowledgment of ABINIT usage.

 Calculation completed.
.Delivered   2 WARNINGs and   5 COMMENTs to log file.