.Version 9.5.1 of ABINIT

 ABINIT is a project of the Universite Catholique de Louvain,
 Corning Inc. and other collaborators, see ~abinit/doc/developers/contributors.txt .
 acknowledgments of the ABINIT effort.

.Starting date : Wed  5 May 2021.
- ( at 19h58 )

- input  file    -> /scratch/users/j/a/jabreu/flow_simple_7atoms/flow/w167/t1/run.abi
- output file    -> /scratch/users/j/a/jabreu/flow_simple_7atoms/flow/w167/t1/run.abo
- root for input  files -> /scratch/users/j/a/jabreu/flow_simple_7atoms/flow/w167/t1/indata/in
- root for output files -> /scratch/users/j/a/jabreu/flow_simple_7atoms/flow/w167/t1/outdata/out

 Symmetries : space group I-4 (# 82); Bravais tI (body-center tetrag.)
     intxc =       0      iscf =       7    lmnmax =      18     lnmax =       6
     mgfft =      72  mpssoang =       3    mqgrid =    3001     natom =       7
  nloc_mem =       1    nspden =       1   nspinor =       1    nsppol =       1
      nsym =       4    n1xccc =    2501    ntypat =       3    occopt =       1
   xclevel =       2
-    mband =          44        mffmem =           1         mkmem =           1
-   mkqmem =           1        mk1mem =           1           mpw =       12537
      nfft =      373248          nkpt =           1
  Rough estimation (10% accuracy) of disk space for files :

------------- Echo of variables that govern the present computation ------------
-
- outvars: echo of selected default values
-   iomode0 =  0 , fftalg0 =512 , wfoptalg0 =  0
-
- outvars: echo of global parameters not present in the input file
-  max_nthreads =    0
-
 -outvars: echo values of preprocessed input variables --------
            acell      1.0000000000E+00  1.0000000000E+00  1.0000000000E+00 Bohr
              amu      6.53900000E+01  6.97230000E+01  3.20660000E+01
             ecut      4.20000000E+01 Hartree
-          fftalg         512
           irdden           1
           irdwfk           1
           istwfk        1
              ixc     -116133
           kptopt           0
P           mkmem           1
P          mkqmem           1
P          mk1mem           1
            natom           7
            nband          44
           nbdbuf           4
            ngfft          72      72      72
             nkpt           1
            nstep        2000
             nsym           4
           ntypat           3
              occ      2.000000  2.000000  2.000000  2.000000  2.000000  2.000000
                       2.000000  2.000000  2.000000  2.000000  2.000000  2.000000
                       2.000000  2.000000  2.000000  2.000000  2.000000  2.000000
                       2.000000  2.000000  2.000000  2.000000  2.000000  2.000000
                       2.000000  2.000000  2.000000  2.000000  2.000000  2.000000
                       2.000000  2.000000  2.000000  2.000000  2.000000  0.000000
                       0.000000  0.000000  0.000000  0.000000  0.000000  0.000000
                       0.000000  0.000000
        optdriver           1
            prtwf          -1
            rfdir           1       1       1
           rfelfd           2
            rprim      9.0494549346E+00  0.0000000000E+00 -7.9266610067E+00
                      -1.8607363037E+00  8.8560880202E+00 -7.9266610067E+00
                       0.0000000000E+00  0.0000000000E+00  1.2030153338E+01
          spgroup          82
           symrel      1  0  0   0  1  0   0  0  1       0  1  0   1  0  0  -1 -1 -1
                      -1 -1 -1   0  0  1   1  0  0       0  0  1  -1 -1 -1   0  1  0
           tolwfr      1.00000000E-20
            typat      1  2  2  3  3  3  3
           useylm           1
           xangst      3.3454091654E+00  1.1716099844E+00 -1.0115668639E+00
                       1.9020530292E+00  2.3432199688E+00 -4.1946083450E+00
                       4.5869689305E-01  3.5148299532E+00 -1.0115668639E+00
                       2.4229954065E+00  3.0229822237E+00 -2.0753627271E+00
                       3.8639615160E+00  1.6936372155E+00 -5.1711415032E+00
                       4.8280714523E-01  5.5679944381E-01  2.0332628231E+00
                       8.3844804916E-01  4.0994609922E+00  1.1669739516E+00
            xcart      6.3219071250E+00  2.2140220050E+00 -1.9115843379E+00
                       3.5943593154E+00  4.4280440101E+00 -7.9266610067E+00
                       8.6681150587E-01  6.6420660152E+00 -1.9115843379E+00
                       4.5787977395E+00  5.7126085073E+00 -3.9218671807E+00
                       7.3018290532E+00  3.2005105057E+00 -9.7720412354E+00
                       9.1237327949E-01  1.0521984597E+00  3.8423098919E+00
                       1.5844371896E+00  7.7468585676E+00  2.2052611728E+00
             xred      7.5000000000E-01  2.5000000000E-01  5.0000000000E-01
                       5.0000000000E-01  5.0000000000E-01 -1.1102230246E-16
                       2.5000000000E-01  7.5000000000E-01  5.0000000000E-01
                       6.3860900000E-01  6.4504875000E-01  5.1979825000E-01
                       8.8118925000E-01  3.6139100000E-01  6.4397500000E-03
                       1.2525050000E-01  1.1881075000E-01  4.8020175000E-01
                       3.5495125000E-01  8.7474950000E-01  9.9356025000E-01
            znucl       30.00000   31.00000   16.00000

 chkinp: Checking input parameters for consistency.

== DATASET  1 ==================================================================
-   mpi_nproc: 1, omp_nthreads: -1 (-1 if OMP is not activated)

--- !DatasetInfo
iteration_state: {dtset: 1, }
dimensions: {natom: 7, nkpt: 1, mband: 44, nsppol: 1, nspinor: 1, nspden: 1, mpw: 12537, }
cutoff_energies: {ecut:  42.0, pawecutdg:  -1.0, }
electrons: {nelect:   7.00000000E+01, charge:   0.00000000E+00, occopt:   1.00000000E+00, tsmear:   1.00000000E-02, }
meta: {optdriver: 1, rfelfd: 2, }
...

 Real(R)+Recip(G) space primitive vectors, cartesian coordinates (Bohr,Bohr^-1):
 R(1)=  9.0494549  0.0000000 -7.9266610  G(1)=  0.1105039  0.0232178  0.0000000
 R(2)= -1.8607363  8.8560880 -7.9266610  G(2)=  0.0000000  0.1129167  0.0000000
 R(3)=  0.0000000  0.0000000 12.0301533  G(3)=  0.0728110  0.0896989  0.0831245
 Unit cell volume ucvol=  9.6412981E+02 bohr^3
 Angles (23,13,12)=  1.31215990E+02  1.31215990E+02  7.14701403E+01 degrees

 getcut: wavevector=  0.0000  0.0000  0.0000  ngfft=  72  72  72
         ecut(hartree)=     42.000   => boxcut(ratio)=   2.05178

--- Pseudopotential description ------------------------------------------------
- pspini: atom type   1  psp file is /scratch/users/j/a/jabreu/pseudos/PBEsol/Zn.psp8
- pspatm: opening atomic psp file    /scratch/users/j/a/jabreu/pseudos/PBEsol/Zn.psp8
- Zn    ONCVPSP-3.3.0  r_core=   1.35823   1.66358   1.85211
- 30.00000  20.00000    180112                znucl, zion, pspdat
    8 -116133    2    4       600   0.00000   pspcod,pspxc,lmax,lloc,mmax,r2well
    5.99000000000000    2.50000000000000    0.00000000000000   rchrg,fchrg,qchrg
     nproj     2     2     2
     extension_switch     1
  pspatm : epsatm=   26.57343589
         --- l  ekb(1:nproj) -->
             0    2.830835   -1.519107
             1   -4.626739   -1.324150
             2   -6.948510   -2.555500
 pspatm: atomic psp has been read  and splines computed

- pspini: atom type   2  psp file is /scratch/users/j/a/jabreu/pseudos/PBEsol/Ga.psp8
- pspatm: opening atomic psp file    /scratch/users/j/a/jabreu/pseudos/PBEsol/Ga.psp8
- Ga    ONCVPSP-3.3.0  r_core=   1.66857   1.75011   1.90252
- 31.00000  13.00000    180112                znucl, zion, pspdat
    8 -116133    2    4       600   0.00000   pspcod,pspxc,lmax,lloc,mmax,r2well
    5.99000000000000    5.00000000000000    0.00000000000000   rchrg,fchrg,qchrg
     nproj     2     2     2
     extension_switch     1
  pspatm : epsatm=   24.50969055
         --- l  ekb(1:nproj) -->
             0    7.053021    1.156713
             1    6.846070    1.293139
             2   -8.368667   -2.819170
 pspatm: atomic psp has been read  and splines computed

- pspini: atom type   3  psp file is /scratch/users/j/a/jabreu/pseudos/PBEsol/S.psp8
- pspatm: opening atomic psp file    /scratch/users/j/a/jabreu/pseudos/PBEsol/S.psp8
- S     ONCVPSP-3.3.0  r_core=   1.45376   1.45376   1.61851
- 16.00000   6.00000    180112                znucl, zion, pspdat
    8 -116133    2    4       600   0.00000   pspcod,pspxc,lmax,lloc,mmax,r2well
    5.99000000000000    6.00000000000000    0.00000000000000   rchrg,fchrg,qchrg
     nproj     2     2     2
     extension_switch     1
  pspatm : epsatm=    8.71840985
         --- l  ekb(1:nproj) -->
             0    6.834532    0.579453
             1    3.282851    0.896984
             2   -3.496974   -0.974265
 pspatm: atomic psp has been read  and splines computed

   7.73265195E+03                                ecore*ucvol(ha*bohr**3)

-inwffil : will read wavefunctions from disk file /scratch/users/j/a/jabreu/flow_simple_7atoms/flow/w167/t1/indata/in_WFK

 ==>  initialize data related to q vector <==

 The list of irreducible perturbations for this q vector is:
    1)    idir= 1    ipert=   8
    2)    idir= 2    ipert=   8
    3)    idir= 3    ipert=   8

 Perturbation wavevector (in red.coord.)   0.000000  0.000000  0.000000
 Perturbation : derivative vs k along direction   1

 dfpt_looppert : COMMENT -
  In a d/dk calculation, iscf is set to -3 automatically.
 The set of symmetries contains only one element for this perturbation.
 symkpt : not enough symmetry to change the number of k points.

[...]

 Initialisation of the first-order wave-functions :
  ireadwf=   0

--- !BeginCycle
iteration_state: {dtset: 1, }
solver: {iscf: 7, nstep: 2000, nline: 4, wfoptalg: 0, }
tolerances: {tolwfr: 1.00E-20, }
...

     iter   2DEtotal(Ha)        deltaE(Ha) residm    vres2
-ETOT  1  -61.399043952424     -6.140E+01 1.442E-01 0.000E+00
 ETOT  2  -61.464769460360     -6.573E-02 4.836E-03 0.000E+00
 ETOT  3  -61.465182536777     -4.131E-04 4.348E-04 0.000E+00
 ETOT  4  -61.465187408693     -4.872E-06 1.836E-05 0.000E+00
 ETOT  5  -61.465187482403     -7.371E-08 2.413E-06 0.000E+00
 ETOT  6  -61.465187483682     -1.279E-09 1.261E-07 0.000E+00
 ETOT  7  -61.465187483706     -2.426E-11 1.706E-08 0.000E+00
 ETOT  8  -61.465187483707     -4.547E-13 9.727E-10 0.000E+00
 ETOT  9  -61.465187483707     -5.684E-14 1.282E-10 0.000E+00
 ETOT 10  -61.465187483707      7.816E-14 7.766E-12 0.000E+00
 ETOT 11  -61.465187483707     -2.842E-14 9.905E-13 0.000E+00
 ETOT 12  -61.465187483707      3.553E-14 6.305E-14 0.000E+00
 ETOT 13  -61.465187483707      2.842E-14 7.801E-15 0.000E+00
 ETOT 14  -61.465187483707     -1.421E-14 5.174E-16 0.000E+00
 ETOT 15  -61.465187483707     -1.421E-14 6.244E-17 0.000E+00
 ETOT 16  -61.465187483707      0.000E+00 4.280E-18 0.000E+00
 ETOT 17  -61.465187483707      0.000E+00 5.066E-19 0.000E+00
 ETOT 18  -61.465187483707     -1.421E-14 3.561E-20 0.000E+00
 ETOT 19  -61.465187483707      1.421E-14 9.853E-21 0.000E+00

 At SCF step   19   max residual=  9.85E-21 < tolwfr=  1.00E-20 =>converged.

 ----iterations are completed or convergence reached----

 dfpt_looppert: DFPT cycle converged with prtwf=-1. Will skip output of the 1st-order WFK file.
 dfpt_looppert : ek2=    7.0469943573E+01
          f-sum rule ratio=    1.1369862465E+00
 prteigrs : about to open file /scratch/users/j/a/jabreu/flow_simple_7atoms/flow/w167/t1/tmpdata/tmp_1WF1_EIG
 Expectation of eigenvalue derivatives (hartree) for nkpt=   1  k points:
  (in case of degenerate eigenvalues, averaged derivative)
 kpt#   1, nband= 44, wtk=  1.00000, kpt=  0.0000  0.0000  0.0000 (reduced coord)
   0.00000   -0.00000    0.00000    0.00000   -0.00000    0.00000    0.00000    0.00000
   0.00000    0.00000    0.00000    0.00000   -0.00000   -0.00000   -0.00000   -0.00000
  -0.00000    0.00000   -0.00000    0.00000   -0.00000   -0.00000   -0.00000   -0.00000
  -0.00000    0.00000    0.00000    0.00000    0.00000   -0.00000    0.00000    0.00000
   0.00000   -0.00000   -0.00000    0.00000    0.00000   -0.00000    0.00000    0.00000
   0.00000   -0.00000   -0.00000   -0.00000

 Eight components of 2nd-order total energy (hartree) are
 1,2,3: 0th-order hamiltonian combined with 1st-order wavefunctions
     kin0=   6.54483791E+01 eigvalue=   2.57334451E+00  local=  -2.54163679E+01
 4,5,6: 1st-order hamiltonian combined with 1st and 0th-order wfs
     kin1=  -8.01233566E+01  Hartree=   0.00000000E+00     xc=   0.00000000E+00
 7,8,9: eventually, occupation + non-local contributions
    edocc=   1.46021822E+01     enl0=   4.25764952E+00   enl1=  -4.28070183E+01
 1-9 gives the relaxation energy (to be shifted if some occ is /=2.0)
   erelax=  -6.14651875E+01
  No Ewald or frozen-wf contrib.: the relaxation energy is the total one
 2DEtotal=   -0.6146518748E+02 Ha. Also 2DEtotal=   -0.167255281065E+04 eV
    (  non-var. 2DEtotal :   -6.1465187484E+01 Ha)

 Perturbation wavevector (in red.coord.)   0.000000  0.000000  0.000000
 Perturbation : derivative vs k along direction   2
 The set of symmetries contains only one element for this perturbation.
 symkpt : not enough symmetry to change the number of k points.

[...]

 Perturbation wavevector (in red.coord.)   0.000000  0.000000  0.000000
 Perturbation : derivative vs k along direction   3
 The set of symmetries contains only one element for this perturbation.
 symkpt : not enough symmetry to change the number of k points.

-inwffil : will read wavefunctions from disk file /scratch/users/j/a/jabreu/flow_simple_7atoms/flow/w167/t1/indata/in_WFK

 Initialisation of the first-order wave-functions :
  ireadwf=   0

--- !BeginCycle
iteration_state: {dtset: 1, }
solver: {iscf: 7, nstep: 2000, nline: 4, wfoptalg: 0, }
tolerances: {tolwfr: 1.00E-20, }
...

     iter   2DEtotal(Ha)        deltaE(Ha) residm    vres2
-ETOT  1  -98.739806779734     -9.874E+01 1.164E-01 0.000E+00
 ETOT  2  -98.835576827365     -9.577E-02 5.468E-03 0.000E+00
 ETOT  3  -98.836174789910     -5.980E-04 3.633E-04 0.000E+00
 ETOT  4  -98.836181937848     -7.148E-06 1.733E-05 0.000E+00
 ETOT  5  -98.836182049748     -1.119E-07 2.321E-06 0.000E+00
 ETOT  6  -98.836182051727     -1.979E-09 1.254E-07 0.000E+00
 ETOT  7  -98.836182051765     -3.780E-11 1.728E-08 0.000E+00
 ETOT  8  -98.836182051766     -8.811E-13 9.710E-10 0.000E+00
 ETOT  9  -98.836182051766      2.842E-14 1.332E-10 0.000E+00
 ETOT 10  -98.836182051766      1.421E-14 7.691E-12 0.000E+00
 ETOT 11  -98.836182051766     -1.421E-14 1.043E-12 0.000E+00
 ETOT 12  -98.836182051766      1.421E-14 6.164E-14 0.000E+00
 ETOT 13  -98.836182051766     -1.421E-14 8.241E-15 0.000E+00
 ETOT 14  -98.836182051766     -1.421E-14 4.986E-16 0.000E+00
 ETOT 15  -98.836182051766      2.842E-14 6.547E-17 0.000E+00
 ETOT 16  -98.836182051766      1.421E-14 4.073E-18 0.000E+00
 ETOT 17  -98.836182051766     -1.421E-14 5.223E-19 0.000E+00
 ETOT 18  -98.836182051766      2.842E-14 3.366E-20 0.000E+00
 ETOT 19  -98.836182051766     -1.421E-14 9.700E-21 0.000E+00

 At SCF step   19   max residual=  9.70E-21 < tolwfr=  1.00E-20 =>converged.

 ----iterations are completed or convergence reached----

 dfpt_looppert: DFPT cycle converged with prtwf=-1. Will skip output of the 1st-order WFK file.
 dfpt_looppert : ek2=    1.1196002413E+02
          f-sum rule ratio=    1.1588452312E+00
 prteigrs : about to open file /scratch/users/j/a/jabreu/flow_simple_7atoms/flow/w167/t1/tmpdata/tmp_1WF1_EIG
 Expectation of eigenvalue derivatives (hartree) for nkpt=   1  k points:
  (in case of degenerate eigenvalues, averaged derivative)
 kpt#   1, nband= 44, wtk=  1.00000, kpt=  0.0000  0.0000  0.0000 (reduced coord)
   0.00000   -0.00000    0.00000    0.00000   -0.00000   -0.00000   -0.00000    0.00000
   0.00000    0.00000   -0.00000   -0.00000    0.00000   -0.00000    0.00000   -0.00000
  -0.00000    0.00000   -0.00000   -0.00000   -0.00000   -0.00000   -0.00000    0.00000
  -0.00000   -0.00000    0.00000    0.00000   -0.00000    0.00000    0.00000    0.00000
  -0.00000   -0.00000   -0.00000   -0.00000   -0.00000    0.00000   -0.00000   -0.00000
   0.00000    0.00000   -0.00000   -0.00000

 Eight components of 2nd-order total energy (hartree) are
 1,2,3: 0th-order hamiltonian combined with 1st-order wavefunctions
     kin0=   1.03431317E+02 eigvalue=   4.10686852E+00  local=  -4.00364576E+01
 4,5,6: 1st-order hamiltonian combined with 1st and 0th-order wfs
     kin1=  -1.29744340E+02  Hartree=   0.00000000E+00     xc=   0.00000000E+00
 7,8,9: eventually, occupation + non-local contributions
    edocc=   2.46778171E+01     enl0=   6.65663715E+00   enl1=  -6.79280240E+01
 1-9 gives the relaxation energy (to be shifted if some occ is /=2.0)
   erelax=  -9.88361821E+01
  No Ewald or frozen-wf contrib.: the relaxation energy is the total one
 2DEtotal=   -0.9883618205E+02 Ha. Also 2DEtotal=   -0.268946928907E+04 eV
    (  non-var. 2DEtotal :   -9.8836182052E+01 Ha)

 CALCULATION OF EFFECTIVE MASSES
 NOTE : Additional infos (eff. mass eigenvalues, eigenvectors and, if degenerate, average mass) are available in stdout.

 COMMENTS:
 - At k-point ( 0.000, 0.000, 0.000), bands    34 through    35
   are DEGENERATE (effective mass tensor is therefore not defined).
   See Section IIIB Eqs. (67)-(70) and Appendix E of PRB 93 205147 (2016).
 - Angular average effective mass for Frohlich model is to be averaged over degenerate bands. See later.
 - Associated theta integrals calculated with ntheta=   1000 points.

 K-point ( 0.000, 0.000, 0.000) | band =    34
 Transport equivalent effective mass tensor:
             -0.2796918543             -0.0997846657              0.1786249692
             -0.0997846657             -0.3216229995              0.2200556930
              0.1786249692              0.2200556930             -0.5926166937
 Transport equivalent effective mass tensor eigenvalues:
             -0.7965434913             -0.1986940283             -0.1986940279
 Angular average effective mass 1/(<1/m>)=  -0.2591010473
 Angular average effective mass for Frohlich model (<m**0.5>)**2=  -0.2844173868
 Effective masses along directions: (cart. coord. / red. coord. -> eff. mass)
    1:   1.000000  0.000000  0.000000 /   0.979508 -0.201405  0.000000 ->  -0.2314428639
    2:   0.000000  1.000000  0.000000 /   0.000000  1.000000  0.000000 ->  -0.2525855229
    3:   0.000000  0.000000  1.000000 /  -0.482055 -0.482055  0.731606 ->  -0.3622921659
    4:   0.577350  0.577350  0.577350 /   0.092653 -0.076852  0.992728 ->  -0.1795007506
    5:   0.000000  0.707107  0.707107 /  -0.549060  0.064379  0.833299 ->  -0.2112419137
    6:   0.707107  0.000000  0.707107 /   0.072209 -0.629446  0.773682 ->  -0.2245291695
    7:   0.707107  0.707107  0.000000 /   0.791175  0.611589  0.000000 ->  -0.2430689143

 K-point ( 0.000, 0.000, 0.000) | band =    35
 Transport equivalent effective mass tensor:
             -7.8663106757              0.1297301873             -0.2322305679
              0.1297301873             -7.8117959598             -0.2860946881
             -0.2322305679             -0.2860946881             -7.4594766774
 Transport equivalent effective mass tensor eigenvalues:
             -7.9716160771             -7.9716160555             -7.1943511804
 Angular average effective mass 1/(<1/m>)=  -1.2074380807
 Angular average effective mass for Frohlich model (<m**0.5>)**2=  -1.4452469812
 Effective masses along directions: (cart. coord. / red. coord. -> eff. mass)
    1:   1.000000  0.000000  0.000000 /   0.979508 -0.201405  0.000000 ->  -1.0127290386
    2:   0.000000  1.000000  0.000000 /   0.000000  1.000000  0.000000 ->  -0.8856211150
    3:   0.000000  0.000000  1.000000 /  -0.482055 -0.482055  0.731606 ->  -1.1031042280
    4:   0.577350  0.577350  0.577350 /   0.092653 -0.076852  0.992728 ->  -6.1762737264
    5:   0.000000  0.707107  0.707107 /  -0.549060  0.064379  0.833299 ->  -1.2533808525
    6:   0.707107  0.000000  0.707107 /   0.072209 -0.629446  0.773682 ->  -1.0302492510
    7:   0.707107  0.707107  0.000000 /   0.791175  0.611589  0.000000 ->  -1.7834567180

 Angular average effective mass for Frohlich model, averaged over degenerate bands.
 Value of     (<<m**0.5>>)**2 =     7.529833E-01
 Absolute Value of <<m**0.5>> =     8.677461E-01

 K-point ( 0.000, 0.000, 0.000) | band =    36
 Effective mass tensor:
              0.2064073616              0.0079337022             -0.0142021548
              0.0079337022              0.2097412326             -0.0174962382
             -0.0142021548             -0.0174962382              0.2312874605
 Effective mass tensor eigenvalues:
              0.1999673677              0.1999673680              0.2475013191
 Angular average effective mass 1/(<1/m>)=   0.2136445611
 Angular average effective mass for Frohlich model (<m**0.5>)**2=   0.2142680315
 Effective masses along directions: (cart. coord. / red. coord. -> eff. mass)
    1:   1.000000  0.000000  0.000000 /   0.979508 -0.201405  0.000000 ->   0.2053095296
    2:   0.000000  1.000000  0.000000 /   0.000000  1.000000  0.000000 ->   0.2081887743
    3:   0.000000  0.000000  1.000000 /  -0.482055 -0.482055  0.731606 ->   0.2289384150
    4:   0.577350  0.577350  0.577350 /   0.092653 -0.076852  0.992728 ->   0.1999685986
    5:   0.000000  0.707107  0.707107 /  -0.549060  0.064379  0.833299 ->   0.2024629584
    6:   0.707107  0.000000  0.707107 /   0.072209 -0.629446  0.773682 ->   0.2038196527
    7:   0.707107  0.707107  0.000000 /   0.791175  0.611589  0.000000 ->   0.2138254571

 END OF EFFECTIVE MASSES SECTION

 ---- first-order wavefunction calculations are completed ----

 Total localisation tensor (bohr^2) in cartesian coordinates
  WARNING : still subject to testing - especially symmetries.
      direction              matrix element
   alpha     beta       real part   imaginary part
     1        1       1.7433590907    0.0000000000
     1        2      -0.3365772600    0.0000000000
     1        3      -1.1638574375    0.0000000000
     2        1      -0.3365772600    0.0000000000
     2        2       1.6019238373    0.0000000000
     2        3      -1.4338054441    0.0000000000
     3        1      -1.1638574375    0.0000000000
     3        2      -1.4338054441    0.0000000000
     3        3       7.4475582650    0.0000000000

 respfn : d/dk was computed, but no 2DTE, so no DDB output.

== END DATASET(S) ==============================================================

 -outvars: echo values of variables after computation  --------
            acell      1.0000000000E+00  1.0000000000E+00  1.0000000000E+00 Bohr
              amu      6.53900000E+01  6.97230000E+01  3.20660000E+01
             ecut      4.20000000E+01 Hartree
           etotal     -9.8836182052E+01
            fcart      0.0000000000E+00  0.0000000000E+00  0.0000000000E+00
                       0.0000000000E+00  0.0000000000E+00  0.0000000000E+00
                       0.0000000000E+00  0.0000000000E+00  0.0000000000E+00
                       0.0000000000E+00  0.0000000000E+00  0.0000000000E+00
                       0.0000000000E+00  0.0000000000E+00  0.0000000000E+00
                       0.0000000000E+00  0.0000000000E+00  0.0000000000E+00
                       0.0000000000E+00  0.0000000000E+00  0.0000000000E+00
-          fftalg         512
           irdden           1
           irdwfk           1
           istwfk        1
              ixc     -116133
           kptopt           0
P           mkmem           1
P          mkqmem           1
P          mk1mem           1
            natom           7
            nband          44
           nbdbuf           4
            ngfft          72      72      72
             nkpt           1
            nstep        2000
             nsym           4
           ntypat           3
              occ      2.000000  2.000000  2.000000  2.000000  2.000000  2.000000
                       2.000000  2.000000  2.000000  2.000000  2.000000  2.000000
                       2.000000  2.000000  2.000000  2.000000  2.000000  2.000000
                       2.000000  2.000000  2.000000  2.000000  2.000000  2.000000
                       2.000000  2.000000  2.000000  2.000000  2.000000  2.000000
                       2.000000  2.000000  2.000000  2.000000  2.000000  0.000000
                       0.000000  0.000000  0.000000  0.000000  0.000000  0.000000
                       0.000000  0.000000
        optdriver           1
            prtwf          -1
            rfdir           1       1       1
           rfelfd           2
            rprim      9.0494549346E+00  0.0000000000E+00 -7.9266610067E+00
                      -1.8607363037E+00  8.8560880202E+00 -7.9266610067E+00
                       0.0000000000E+00  0.0000000000E+00  1.2030153338E+01
          spgroup          82
           strten      0.0000000000E+00  0.0000000000E+00  0.0000000000E+00
                       0.0000000000E+00  0.0000000000E+00  0.0000000000E+00
           symrel      1  0  0   0  1  0   0  0  1       0  1  0   1  0  0  -1 -1 -1
                      -1 -1 -1   0  0  1   1  0  0       0  0  1  -1 -1 -1   0  1  0
           tolwfr      1.00000000E-20
            typat      1  2  2  3  3  3  3
           useylm           1
           xangst      3.3454091654E+00  1.1716099844E+00 -1.0115668639E+00
                       1.9020530292E+00  2.3432199688E+00 -4.1946083450E+00
                       4.5869689305E-01  3.5148299532E+00 -1.0115668639E+00
                       2.4229954065E+00  3.0229822237E+00 -2.0753627271E+00
                       3.8639615160E+00  1.6936372155E+00 -5.1711415032E+00
                       4.8280714523E-01  5.5679944381E-01  2.0332628231E+00
                       8.3844804916E-01  4.0994609922E+00  1.1669739516E+00
            xcart      6.3219071250E+00  2.2140220050E+00 -1.9115843379E+00
                       3.5943593154E+00  4.4280440101E+00 -7.9266610067E+00
                       8.6681150587E-01  6.6420660152E+00 -1.9115843379E+00
                       4.5787977395E+00  5.7126085073E+00 -3.9218671807E+00
                       7.3018290532E+00  3.2005105057E+00 -9.7720412354E+00
                       9.1237327949E-01  1.0521984597E+00  3.8423098919E+00
                       1.5844371896E+00  7.7468585676E+00  2.2052611728E+00
             xred      7.5000000000E-01  2.5000000000E-01  5.0000000000E-01
                       5.0000000000E-01  5.0000000000E-01 -1.1102230246E-16
                       2.5000000000E-01  7.5000000000E-01  5.0000000000E-01
                       6.3860900000E-01  6.4504875000E-01  5.1979825000E-01
                       8.8118925000E-01  3.6139100000E-01  6.4397500000E-03
                       1.2525050000E-01  1.1881075000E-01  4.8020175000E-01
                       3.5495125000E-01  8.7474950000E-01  9.9356025000E-01
            znucl       30.00000   31.00000   16.00000

- Timing analysis has been suppressed with timopt=0

 Suggested references for the acknowledgment of ABINIT usage.

 Calculation completed.
.Delivered   6 WARNINGs and   5 COMMENTs to log file.