.Version 9.5.1 of ABINIT

 ABINIT is a project of the Universite Catholique de Louvain,
 Corning Inc. and other collaborators, see ~abinit/doc/developers/contributors.txt .
 acknowledgments of the ABINIT effort.

.Starting date : Wed 19 May 2021.
- ( at 01h47 )

- input  file    -> /scratch/users/j/a/jabreu/flow_simple_8atoms/flow/w481/t1/run.abi
- output file    -> /scratch/users/j/a/jabreu/flow_simple_8atoms/flow/w481/t1/run.abo
- root for input  files -> /scratch/users/j/a/jabreu/flow_simple_8atoms/flow/w481/t1/indata/in
- root for output files -> /scratch/users/j/a/jabreu/flow_simple_8atoms/flow/w481/t1/outdata/out

 Symmetries : space group Fm -3 m (#225); Bravais cF (face-center cubic)
     intxc =       0      iscf =       7    lmnmax =      18     lnmax =       6
     mgfft =      72  mpssoang =       3    mqgrid =    3001     natom =       8
  nloc_mem =       1    nspden =       1   nspinor =       1    nsppol =       1
      nsym =      48    n1xccc =    2501    ntypat =       3    occopt =       1
   xclevel =       2
-    mband =          42        mffmem =           1         mkmem =           1
-   mkqmem =           1        mk1mem =           1           mpw =       14163
      nfft =      373248          nkpt =           1
  Rough estimation (10% accuracy) of disk space for files :

------------- Echo of variables that govern the present computation ------------
-
- outvars: echo of selected default values
-   iomode0 =  0 , fftalg0 =512 , wfoptalg0 =  0
-
- outvars: echo of global parameters not present in the input file
-  max_nthreads =    0
-
 -outvars: echo values of preprocessed input variables --------
            acell      1.0000000000E+00  1.0000000000E+00  1.0000000000E+00 Bohr
              amu      2.29897680E+01  1.21753000E+02  1.89984032E+01
             ecut      4.40000000E+01 Hartree
-          fftalg         512
           irdden           1
           irdwfk           1
           istwfk        1
              ixc     -116133
           kptopt           0
P           mkmem           1
P          mkqmem           1
P          mk1mem           1
            natom           8
            nband          42
           nbdbuf           4
            ngfft          72      72      72
             nkpt           1
            nstep        2000
             nsym          48
           ntypat           3
              occ      2.000000  2.000000  2.000000  2.000000  2.000000  2.000000
                       2.000000  2.000000  2.000000  2.000000  2.000000  2.000000
                       2.000000  2.000000  2.000000  2.000000  2.000000  2.000000
                       2.000000  2.000000  2.000000  2.000000  2.000000  2.000000
                       2.000000  2.000000  2.000000  2.000000  2.000000  2.000000
                       2.000000  2.000000  2.000000  0.000000  0.000000  0.000000
                       0.000000  0.000000  0.000000  0.000000  0.000000  0.000000
        optdriver           1
            prtwf          -1
            rfdir           1       1       1
           rfelfd           2
            rprim      9.7417498515E+00  0.0000000000E+00  5.6244018992E+00
                       3.2472499505E+00  9.1846098409E+00  5.6244018992E+00
                       0.0000000000E+00  0.0000000000E+00  1.1248803798E+01
          spgroup         225
           symrel      1  0  0   0  1  0   0  0  1      -1  0  0   0 -1  0   0  0 -1
                       0 -1  1   0 -1  0   1 -1  0       0  1 -1   0  1  0  -1  1  0
                      -1  0  0  -1  0  1  -1  1  0       1  0  0   1  0 -1   1 -1  0
                       0  1 -1   1  0 -1   0  0 -1       0 -1  1  -1  0  1   0  0  1
                      -1  0  0  -1  1  0  -1  0  1       1  0  0   1 -1  0   1  0 -1
                       0 -1  1   1 -1  0   0 -1  0       0  1 -1  -1  1  0   0  1  0
                       1  0  0   0  0  1   0  1  0      -1  0  0   0  0 -1   0 -1  0
                       0  1 -1   0  0 -1   1  0 -1       0 -1  1   0  0  1  -1  0  1
                      -1  0  1  -1  1  0  -1  0  0       1  0 -1   1 -1  0   1  0  0
                       0 -1  0   1 -1  0   0 -1  1       0  1  0  -1  1  0   0  1 -1
                       1  0 -1   0  0 -1   0  1 -1      -1  0  1   0  0  1   0 -1  1
                       0  1  0   0  0  1   1  0  0       0 -1  0   0  0 -1  -1  0  0
                       1  0 -1   0  1 -1   0  0 -1      -1  0  1   0 -1  1   0  0  1
                       0 -1  0   0 -1  1   1 -1  0       0  1  0   0  1 -1  -1  1  0
                      -1  0  1  -1  0  0  -1  1  0       1  0 -1   1  0  0   1 -1  0
                       0  1  0   1  0  0   0  0  1       0 -1  0  -1  0  0   0  0 -1
                       0  0 -1   0  1 -1   1  0 -1       0  0  1   0 -1  1  -1  0  1
                       1 -1  0   0 -1  1   0 -1  0      -1  1  0   0  1 -1   0  1  0
                       0  0  1   1  0  0   0  1  0       0  0 -1  -1  0  0   0 -1  0
                      -1  1  0  -1  0  0  -1  0  1       1 -1  0   1  0  0   1  0 -1
                       0  0  1   0  1  0   1  0  0       0  0 -1   0 -1  0  -1  0  0
                       1 -1  0   0 -1  0   0 -1  1      -1  1  0   0  1  0   0  1 -1
                       0  0 -1   1  0 -1   0  1 -1       0  0  1  -1  0  1   0 -1  1
                      -1  1  0  -1  0  1  -1  0  0       1 -1  0   1  0 -1   1  0  0
           tolwfr      1.00000000E-20
            typat      1  2  3  3  3  3  3  3
           useylm           1
           xangst      3.4367413288E+00  2.4301430988E+00  5.9526105940E+00
                       0.0000000000E+00  0.0000000000E+00  0.0000000000E+00
                       2.4967753917E+00  3.7594556753E+00  4.3245418335E+00
                       1.5568094545E+00  1.1008305223E+00  5.9526105940E+00
                       4.3767072659E+00  1.1008305223E+00  7.5806793545E+00
                       4.3767072659E+00  1.1008305223E+00  4.3245418335E+00
                       2.4967753917E+00  3.7594556753E+00  7.5806793545E+00
                       5.3166732031E+00  3.7594556753E+00  5.9526105940E+00
            xcart      6.4944999010E+00  4.5923049204E+00  1.1248803798E+01
                       0.0000000000E+00  0.0000000000E+00  0.0000000000E+00
                       4.7182217056E+00  7.1043416350E+00  8.1721997155E+00
                       2.9419435102E+00  2.0802682059E+00  1.1248803798E+01
                       8.2707780964E+00  2.0802682059E+00  1.4325407881E+01
                       8.2707780964E+00  2.0802682059E+00  8.1721997155E+00
                       4.7182217056E+00  7.1043416350E+00  1.4325407881E+01
                       1.0047056292E+01  7.1043416350E+00  1.1248803798E+01
             xred      5.0000000000E-01  5.0000000000E-01  5.0000000000E-01
                       0.0000000000E+00  0.0000000000E+00  0.0000000000E+00
                       2.2649500000E-01  7.7350500000E-01  2.2649500000E-01
                       2.2649500000E-01  2.2649500000E-01  7.7350500000E-01
                       7.7350500000E-01  2.2649500000E-01  7.7350500000E-01
                       7.7350500000E-01  2.2649500000E-01  2.2649500000E-01
                       2.2649500000E-01  7.7350500000E-01  7.7350500000E-01
                       7.7350500000E-01  7.7350500000E-01  2.2649500000E-01
            znucl       11.00000   51.00000    9.00000

 chkinp: Checking input parameters for consistency.

== DATASET  1 ==================================================================
-   mpi_nproc: 1, omp_nthreads: -1 (-1 if OMP is not activated)

--- !DatasetInfo
iteration_state: {dtset: 1, }
dimensions: {natom: 8, nkpt: 1, mband: 42, nsppol: 1, nspinor: 1, nspden: 1, mpw: 14163, }
cutoff_energies: {ecut:  44.0, pawecutdg:  -1.0, }
electrons: {nelect:   6.60000000E+01, charge:   0.00000000E+00, occopt:   1.00000000E+00, tsmear:   1.00000000E-02, }
meta: {optdriver: 1, rfelfd: 2, }
...

 Real(R)+Recip(G) space primitive vectors, cartesian coordinates (Bohr,Bohr^-1):
 R(1)=  9.7417499  0.0000000  5.6244019  G(1)=  0.1026510 -0.0362926  0.0000000
 R(2)=  3.2472500  9.1846098  5.6244019  G(2)=  0.0000000  0.1088778  0.0000000
 R(3)=  0.0000000  0.0000000 11.2488038  G(3)= -0.0513255 -0.0362926  0.0888983
 Unit cell volume ucvol=  1.0064774E+03 bohr^3
 Angles (23,13,12)=  6.00000000E+01  6.00000000E+01  6.00000000E+01 degrees

 getcut: wavevector=  0.0000  0.0000  0.0000  ngfft=  72  72  72
         ecut(hartree)=     44.000   => boxcut(ratio)=   2.14356

--- Pseudopotential description ------------------------------------------------
- pspini: atom type   1  psp file is /scratch/users/j/a/jabreu/pseudos/PBEsol/Na.psp8
- pspatm: opening atomic psp file    /scratch/users/j/a/jabreu/pseudos/PBEsol/Na.psp8
- Na    ONCVPSP-3.3.0  r_core=   1.20708   1.55069
- 11.00000   9.00000    180112                znucl, zion, pspdat
    8 -116133    1    4       400   0.00000   pspcod,pspxc,lmax,lloc,mmax,r2well
    3.99000000000000    0.00000000000000    0.00000000000000   rchrg,fchrg,qchrg
     nproj     2     2
     extension_switch     1
  pspatm : epsatm=    9.32878306
         --- l  ekb(1:nproj) -->
             0    2.657905   -0.678300
             1   -6.761319   -2.404728
 pspatm: atomic psp has been read  and splines computed

- pspini: atom type   2  psp file is /scratch/users/j/a/jabreu/pseudos/PBEsol/Sb.psp8
- pspatm: opening atomic psp file    /scratch/users/j/a/jabreu/pseudos/PBEsol/Sb.psp8
- Sb    ONCVPSP-3.3.0  r_core=   1.81962   2.12485   1.81962
- 51.00000  15.00000    180112                znucl, zion, pspdat
    8 -116133    2    4       600   0.00000   pspcod,pspxc,lmax,lloc,mmax,r2well
    5.99000000000000    5.00000000000000    0.00000000000000   rchrg,fchrg,qchrg
     nproj     2     2     2
     extension_switch     1
  pspatm : epsatm=   26.35641246
         --- l  ekb(1:nproj) -->
             0    9.727814    1.485032
             1    5.505335    0.704623
             2   -4.710637   -1.436443
 pspatm: atomic psp has been read  and splines computed

- pspini: atom type   3  psp file is /scratch/users/j/a/jabreu/pseudos/PBEsol/F.psp8
- pspatm: opening atomic psp file    /scratch/users/j/a/jabreu/pseudos/PBEsol/F.psp8
- F     ONCVPSP-3.3.0  r_core=   1.30942   1.45782   1.60379
-  9.00000   7.00000    180112                znucl, zion, pspdat
    8 -116133    2    4       600   0.00000   pspcod,pspxc,lmax,lloc,mmax,r2well
    5.99000000000000    2.50000000000000    0.00000000000000   rchrg,fchrg,qchrg
     nproj     2     2     1
     extension_switch     1
  pspatm : epsatm=    4.89824824
         --- l  ekb(1:nproj) -->
             0    6.506434    1.065875
             1   -3.978753   -1.295852
             2   -2.394754
 pspatm: atomic psp has been read  and splines computed

   4.29492921E+03                                ecore*ucvol(ha*bohr**3)

-inwffil : will read wavefunctions from disk file /scratch/users/j/a/jabreu/flow_simple_8atoms/flow/w481/t1/indata/in_WFK

 ==>  initialize data related to q vector <==

 The list of irreducible perturbations for this q vector is:
    1)    idir= 1    ipert=   9
    2)    idir= 2    ipert=   9
    3)    idir= 3    ipert=   9

[...]
 1,2,3: 0th-order hamiltonian combined with 1st-order wavefunctions
     kin0=   5.34003995E+01 eigvalue=   7.49248280E+00  local=  -2.58129005E+01
 4,5,6: 1st-order hamiltonian combined with 1st and 0th-order wfs
     kin1=  -6.38179383E+01  Hartree=   0.00000000E+00     xc=   0.00000000E+00
 7,8,9: eventually, occupation + non-local contributions
    edocc=   4.46162900E+00     enl0=   2.55450790E+00   enl1=  -2.03742990E+01
 1-9 gives the relaxation energy (to be shifted if some occ is /=2.0)
   erelax=  -4.20961187E+01
  No Ewald or frozen-wf contrib.: the relaxation energy is the total one
 2DEtotal=   -0.4209611867E+02 Ha. Also 2DEtotal=   -0.114549364409E+04 eV
    (  non-var. 2DEtotal :   -4.2096118668E+01 Ha)

 Perturbation wavevector (in red.coord.)   0.000000  0.000000  0.000000
 Perturbation : derivative vs k along direction   2
 The set of symmetries contains only one element for this perturbation.
 symkpt : not enough symmetry to change the number of k points.

[...]

 Perturbation wavevector (in red.coord.)   0.000000  0.000000  0.000000
 Perturbation : derivative vs k along direction   3
 The set of symmetries contains only one element for this perturbation.
 symkpt : not enough symmetry to change the number of k points.

-inwffil : will read wavefunctions from disk file /scratch/users/j/a/jabreu/flow_simple_8atoms/flow/w481/t1/indata/in_WFK

 Initialisation of the first-order wave-functions :
  ireadwf=   0

--- !BeginCycle
iteration_state: {dtset: 1, }
solver: {iscf: 7, nstep: 2000, nline: 4, wfoptalg: 0, }
tolerances: {tolwfr: 1.00E-20, }
...

     iter   2DEtotal(Ha)        deltaE(Ha) residm    vres2
-ETOT  1  -42.075622470805     -4.208E+01 3.010E-02 0.000E+00
 ETOT  2  -42.096100928543     -2.048E-02 8.764E-04 0.000E+00
 ETOT  3  -42.096117781499     -1.685E-05 1.563E-05 0.000E+00
 ETOT  4  -42.096117818927     -3.743E-08 1.149E-06 0.000E+00
 ETOT  5  -42.096117819106     -1.786E-10 2.883E-08 0.000E+00
 ETOT  6  -42.096117819107     -1.513E-12 2.169E-09 0.000E+00
 ETOT  7  -42.096117819107      7.105E-15 7.344E-11 0.000E+00
 ETOT  8  -42.096117819107      2.842E-14 5.475E-12 0.000E+00
 ETOT  9  -42.096117819107      2.842E-14 1.964E-13 0.000E+00
 ETOT 10  -42.096117819107     -7.105E-15 1.490E-14 0.000E+00
 ETOT 11  -42.096117819107     -7.105E-15 6.018E-16 0.000E+00
 ETOT 12  -42.096117819107      0.000E+00 4.256E-17 0.000E+00
 ETOT 13  -42.096117819107      0.000E+00 2.113E-18 0.000E+00
 ETOT 14  -42.096117819107      7.105E-15 1.340E-19 0.000E+00
 ETOT 15  -42.096117819107      0.000E+00 9.705E-21 0.000E+00

 At SCF step   15   max residual=  9.71E-21 < tolwfr=  1.00E-20 =>converged.

 ----iterations are completed or convergence reached----

 dfpt_looppert: DFPT cycle converged with prtwf=-1. Will skip output of the 1st-order WFK file.
 dfpt_looppert : ek2=    6.1774927336E+01
          f-sum rule ratio=    1.0330717808E+00
 prteigrs : about to open file /scratch/users/j/a/jabreu/flow_simple_8atoms/flow/w481/t1/tmpdata/tmp_1WF1_EIG
 Expectation of eigenvalue derivatives (hartree) for nkpt=   1  k points:
  (in case of degenerate eigenvalues, averaged derivative)
 kpt#   1, nband= 42, wtk=  1.00000, kpt=  0.0000  0.0000  0.0000 (reduced coord)
   0.00000    0.00000    0.00000    0.00000    0.00000    0.00000    0.00000    0.00000
   0.00000    0.00000    0.00000    0.00000    0.00000    0.00000    0.00000    0.00000
   0.00000    0.00000    0.00000   -0.00000   -0.00000   -0.00000   -0.00000   -0.00000
   0.00000    0.00000    0.00000   -0.00000   -0.00000   -0.00000   -0.00000   -0.00000
  -0.00000    0.00000   -0.00000    0.00000    0.00000    0.00000   -0.00000    0.00000
   0.00000    0.00001

 Eight components of 2nd-order total energy (hartree) are
 1,2,3: 0th-order hamiltonian combined with 1st-order wavefunctions
     kin0=   5.34005176E+01 eigvalue=   7.49250991E+00  local=  -2.58129962E+01
 4,5,6: 1st-order hamiltonian combined with 1st and 0th-order wfs
     kin1=  -6.38179342E+01  Hartree=   0.00000000E+00     xc=   0.00000000E+00
 7,8,9: eventually, occupation + non-local contributions
    edocc=   4.46158708E+00     enl0=   2.55449943E+00   enl1=  -2.03743014E+01
 1-9 gives the relaxation energy (to be shifted if some occ is /=2.0)
   erelax=  -4.20961178E+01
  No Ewald or frozen-wf contrib.: the relaxation energy is the total one
 2DEtotal=   -0.4209611782E+02 Ha. Also 2DEtotal=   -0.114549362099E+04 eV
    (  non-var. 2DEtotal :   -4.2096117819E+01 Ha)

 CALCULATION OF EFFECTIVE MASSES
 NOTE : Additional infos (eff. mass eigenvalues, eigenvectors and, if degenerate, average mass) are available in stdout.

 COMMENTS:
 - At k-point ( 0.000, 0.000, 0.000), bands    31 through    33
   are DEGENERATE (effective mass tensor is therefore not defined).
   See Section IIIB Eqs. (67)-(70) and Appendix E of PRB 93 205147 (2016).
 - Angular average effective mass for Frohlich model is to be averaged over degenerate bands. See later.
 - Associated theta integrals calculated with ntheta=   1000 points.

 K-point ( 0.000, 0.000, 0.000) | band =    31
 Transport equivalent effective mass tensor:
             -3.9227565473             -0.0000012756             -0.0000000038
             -0.0000012756             -3.9227552366              0.0000000030
             -0.0000000038              0.0000000030             -3.9227492516
 Transport equivalent effective mass tensor eigenvalues:
             -3.9227573261             -3.9227544578             -3.9227492516
 Angular average effective mass 1/(<1/m>)=  -3.7000422371
 Angular average effective mass for Frohlich model (<m**0.5>)**2=  -3.7085588606
 Effective masses along directions: (cart. coord. / red. coord. -> eff. mass)
    1:   1.000000  0.000000  0.000000 /   0.948683  0.316228  0.000000 ->  -3.9528172687
    2:   0.000000  1.000000  0.000000 /   0.000000  1.000000  0.000000 ->  -4.5036745496
    3:   0.000000  0.000000  1.000000 /   0.408248  0.408248  0.816497 ->  -3.5220279821
    4:   0.577350  0.577350  0.577350 /   0.585539  0.688047  0.428644 ->  -3.8104948546
    5:   0.000000  0.707107  0.707107 /   0.289489  0.762222  0.578977 ->  -3.5463842271
    6:   0.707107  0.000000  0.707107 /   0.731423  0.422287  0.535439 ->  -3.6538098657
    7:   0.707107  0.707107  0.000000 /   0.616798  0.787122  0.000000 ->  -3.5552670620

[...]

 K-point ( 0.000, 0.000, 0.000) | band =    33
 Transport equivalent effective mass tensor:
           -762.9722639539              0.0000004740             -0.0000021974
              0.0000004740           -762.9722614056              0.0000019648
             -0.0000021974              0.0000019648           -762.9722660669
 Transport equivalent effective mass tensor eigenvalues:
           -762.9722680107           -762.9722627660           -762.9722606497
 Angular average effective mass 1/(<1/m>)= -14.3178343074
 Angular average effective mass for Frohlich model (<m**0.5>)**2= -20.3365598315
 Effective masses along directions: (cart. coord. / red. coord. -> eff. mass)
    1:   1.000000  0.000000  0.000000 /   0.948683  0.316228  0.000000 -> -12.1135611727
    2:   0.000000  1.000000  0.000000 /   0.000000  1.000000  0.000000 ->  -7.8601668080
    3:   0.000000  0.000000  1.000000 /   0.408248  0.408248  0.816497 -> -10.3863135230
    4:   0.577350  0.577350  0.577350 /   0.585539  0.688047  0.428644 -> -11.6570495467
    5:   0.000000  0.707107  0.707107 /   0.289489  0.762222  0.578977 -> -21.8390322980
    6:   0.707107  0.000000  0.707107 /   0.731423  0.422287  0.535439 -> -11.2653822346
    7:   0.707107  0.707107  0.000000 /   0.616798  0.787122  0.000000 -> -94.8809152242

 Angular average effective mass for Frohlich model, averaged over degenerate bands.
 Value of     (<<m**0.5>>)**2 =     8.074459E+00
 Absolute Value of <<m**0.5>> =     2.841559E+00

 K-point ( 0.000, 0.000, 0.000) | band =    34
 Effective mass tensor:
              0.9248511331              0.0000000001              0.0000000001
              0.0000000001              0.9248511333              0.0000000002
              0.0000000001              0.0000000002              0.9248511335
 Effective mass tensor eigenvalues:
              0.9248511330              0.9248511332              0.9248511336
 Angular average effective mass 1/(<1/m>)=   0.9248511333
 Angular average effective mass for Frohlich model (<m**0.5>)**2=   0.9248511333
 Effective masses along directions: (cart. coord. / red. coord. -> eff. mass)
    1:   1.000000  0.000000  0.000000 /   0.948683  0.316228  0.000000 ->   0.9248511331
    2:   0.000000  1.000000  0.000000 /   0.000000  1.000000  0.000000 ->   0.9248511333
    3:   0.000000  0.000000  1.000000 /   0.408248  0.408248  0.816497 ->   0.9248511335
    4:   0.577350  0.577350  0.577350 /   0.585539  0.688047  0.428644 ->   0.9248511336
    5:   0.000000  0.707107  0.707107 /   0.289489  0.762222  0.578977 ->   0.9248511335
    6:   0.707107  0.000000  0.707107 /   0.731423  0.422287  0.535439 ->   0.9248511334
    7:   0.707107  0.707107  0.000000 /   0.616798  0.787122  0.000000 ->   0.9248511334

 END OF EFFECTIVE MASSES SECTION

 ---- first-order wavefunction calculations are completed ----

 Total localisation tensor (bohr^2) in cartesian coordinates
  WARNING : still subject to testing - especially symmetries.
      direction              matrix element
   alpha     beta       real part   imaginary part
     1        1       0.5843857248    0.0000000000
     1        2       0.1652892259    0.0000000000
     1        3       0.4048742994    0.0000000000
     2        1       0.1652892259    0.0000000000
     2        2       0.4675085300    0.0000000000
     2        3       0.2862893372    0.0000000000
     3        1       0.4048742994    0.0000000000
     3        2       0.2862893372    0.0000000000
     3        3       1.0518942573    0.0000000000

 respfn : d/dk was computed, but no 2DTE, so no DDB output.

== END DATASET(S) ==============================================================

 -outvars: echo values of variables after computation  --------
            acell      1.0000000000E+00  1.0000000000E+00  1.0000000000E+00 Bohr
              amu      2.29897680E+01  1.21753000E+02  1.89984032E+01
             ecut      4.40000000E+01 Hartree
           etotal     -4.2096117819E+01
            fcart      0.0000000000E+00  0.0000000000E+00  0.0000000000E+00
                       0.0000000000E+00  0.0000000000E+00  0.0000000000E+00
                       0.0000000000E+00  0.0000000000E+00  0.0000000000E+00
                       0.0000000000E+00  0.0000000000E+00  0.0000000000E+00
                       0.0000000000E+00  0.0000000000E+00  0.0000000000E+00
                       0.0000000000E+00  0.0000000000E+00  0.0000000000E+00
                       0.0000000000E+00  0.0000000000E+00  0.0000000000E+00
                       0.0000000000E+00  0.0000000000E+00  0.0000000000E+00
-          fftalg         512
           irdden           1
           irdwfk           1
           istwfk        1
              ixc     -116133
           kptopt           0
P           mkmem           1
P          mkqmem           1
P          mk1mem           1
            natom           8
            nband          42
           nbdbuf           4
            ngfft          72      72      72
             nkpt           1
            nstep        2000
             nsym          48
           ntypat           3
              occ      2.000000  2.000000  2.000000  2.000000  2.000000  2.000000
                       2.000000  2.000000  2.000000  2.000000  2.000000  2.000000
                       2.000000  2.000000  2.000000  2.000000  2.000000  2.000000
                       2.000000  2.000000  2.000000  2.000000  2.000000  2.000000
                       2.000000  2.000000  2.000000  2.000000  2.000000  2.000000
                       2.000000  2.000000  2.000000  0.000000  0.000000  0.000000
                       0.000000  0.000000  0.000000  0.000000  0.000000  0.000000
        optdriver           1
            prtwf          -1
            rfdir           1       1       1
           rfelfd           2
            rprim      9.7417498515E+00  0.0000000000E+00  5.6244018992E+00
                       3.2472499505E+00  9.1846098409E+00  5.6244018992E+00
                       0.0000000000E+00  0.0000000000E+00  1.1248803798E+01
          spgroup         225
           strten      0.0000000000E+00  0.0000000000E+00  0.0000000000E+00
                       0.0000000000E+00  0.0000000000E+00  0.0000000000E+00
           symrel      1  0  0   0  1  0   0  0  1      -1  0  0   0 -1  0   0  0 -1
                       0 -1  1   0 -1  0   1 -1  0       0  1 -1   0  1  0  -1  1  0
                      -1  0  0  -1  0  1  -1  1  0       1  0  0   1  0 -1   1 -1  0
                       0  1 -1   1  0 -1   0  0 -1       0 -1  1  -1  0  1   0  0  1
                      -1  0  0  -1  1  0  -1  0  1       1  0  0   1 -1  0   1  0 -1
                       0 -1  1   1 -1  0   0 -1  0       0  1 -1  -1  1  0   0  1  0
                       1  0  0   0  0  1   0  1  0      -1  0  0   0  0 -1   0 -1  0
                       0  1 -1   0  0 -1   1  0 -1       0 -1  1   0  0  1  -1  0  1
                      -1  0  1  -1  1  0  -1  0  0       1  0 -1   1 -1  0   1  0  0
                       0 -1  0   1 -1  0   0 -1  1       0  1  0  -1  1  0   0  1 -1
                       1  0 -1   0  0 -1   0  1 -1      -1  0  1   0  0  1   0 -1  1
                       0  1  0   0  0  1   1  0  0       0 -1  0   0  0 -1  -1  0  0
                       1  0 -1   0  1 -1   0  0 -1      -1  0  1   0 -1  1   0  0  1
                       0 -1  0   0 -1  1   1 -1  0       0  1  0   0  1 -1  -1  1  0
                      -1  0  1  -1  0  0  -1  1  0       1  0 -1   1  0  0   1 -1  0
                       0  1  0   1  0  0   0  0  1       0 -1  0  -1  0  0   0  0 -1
                       0  0 -1   0  1 -1   1  0 -1       0  0  1   0 -1  1  -1  0  1
                       1 -1  0   0 -1  1   0 -1  0      -1  1  0   0  1 -1   0  1  0
                       0  0  1   1  0  0   0  1  0       0  0 -1  -1  0  0   0 -1  0
                      -1  1  0  -1  0  0  -1  0  1       1 -1  0   1  0  0   1  0 -1
                       0  0  1   0  1  0   1  0  0       0  0 -1   0 -1  0  -1  0  0
                       1 -1  0   0 -1  0   0 -1  1      -1  1  0   0  1  0   0  1 -1
                       0  0 -1   1  0 -1   0  1 -1       0  0  1  -1  0  1   0 -1  1
                      -1  1  0  -1  0  1  -1  0  0       1 -1  0   1  0 -1   1  0  0
           tolwfr      1.00000000E-20
            typat      1  2  3  3  3  3  3  3
           useylm           1
           xangst      3.4367413288E+00  2.4301430988E+00  5.9526105940E+00
                       0.0000000000E+00  0.0000000000E+00  0.0000000000E+00
                       2.4967753917E+00  3.7594556753E+00  4.3245418335E+00
                       1.5568094545E+00  1.1008305223E+00  5.9526105940E+00
                       4.3767072659E+00  1.1008305223E+00  7.5806793545E+00
                       4.3767072659E+00  1.1008305223E+00  4.3245418335E+00
                       2.4967753917E+00  3.7594556753E+00  7.5806793545E+00
                       5.3166732031E+00  3.7594556753E+00  5.9526105940E+00
            xcart      6.4944999010E+00  4.5923049204E+00  1.1248803798E+01
                       0.0000000000E+00  0.0000000000E+00  0.0000000000E+00
                       4.7182217056E+00  7.1043416350E+00  8.1721997155E+00
                       2.9419435102E+00  2.0802682059E+00  1.1248803798E+01
                       8.2707780964E+00  2.0802682059E+00  1.4325407881E+01
                       8.2707780964E+00  2.0802682059E+00  8.1721997155E+00
                       4.7182217056E+00  7.1043416350E+00  1.4325407881E+01
                       1.0047056292E+01  7.1043416350E+00  1.1248803798E+01
             xred      5.0000000000E-01  5.0000000000E-01  5.0000000000E-01
                       0.0000000000E+00  0.0000000000E+00  0.0000000000E+00
                       2.2649500000E-01  7.7350500000E-01  2.2649500000E-01
                       2.2649500000E-01  2.2649500000E-01  7.7350500000E-01
                       7.7350500000E-01  2.2649500000E-01  7.7350500000E-01
                       7.7350500000E-01  2.2649500000E-01  2.2649500000E-01
                       2.2649500000E-01  7.7350500000E-01  7.7350500000E-01
                       7.7350500000E-01  7.7350500000E-01  2.2649500000E-01
            znucl       11.00000   51.00000    9.00000

- Timing analysis has been suppressed with timopt=0

 Suggested references for the acknowledgment of ABINIT usage.

 Calculation completed.
.Delivered   6 WARNINGs and   5 COMMENTs to log file.