.Version 9.7.2 of ABINIT

 ABINIT is a project of the Universite Catholique de Louvain,
 Corning Inc. and other collaborators, see ~abinit/doc/developers/contributors.txt .
 acknowledgments of the ABINIT effort.

.Starting date : Wed  1 Dec 2021.
- ( at 21h47 )

- input  file    -> /scratch/users/j/a/jabreu/flow_simple_remain_atoms/flow/w241/t1/run.abi
- output file    -> /scratch/users/j/a/jabreu/flow_simple_remain_atoms/flow/w241/t1/run.abo
- root for input  files -> /scratch/users/j/a/jabreu/flow_simple_remain_atoms/flow/w241/t1/indata/in
- root for output files -> /scratch/users/j/a/jabreu/flow_simple_remain_atoms/flow/w241/t1/outdata/out

 Symmetries : space group Cm c m (# 63); Bravais oC (1-face-center ortho.)
     intxc =       0      iscf =       7    lmnmax =      32     lnmax =       8
     mgfft =      80  mpssoang =       4    mqgrid =    3844     natom =       6
  nloc_mem =       1    nspden =       1   nspinor =       1    nsppol =       1
      nsym =       8    n1xccc =    2501    ntypat =       3    occopt =       1
   xclevel =       2
-    mband =          53        mffmem =           1         mkmem =           2
-   mkqmem =           2        mk1mem =           2           mpw =       19212
      nfft =      327680          nkpt =           2
  Rough estimation (10% accuracy) of disk space for files :

------------- Echo of variables that govern the present computation ------------
-
- outvars: echo of selected default values
-   iomode0 =  0 , fftalg0 =512 , wfoptalg0 =  0
-
- outvars: echo of global parameters not present in the input file
-  max_nthreads =    0
-
 -outvars: echo values of preprocessed input variables --------
            acell      1.0000000000E+00  1.0000000000E+00  1.0000000000E+00 Bohr
              amu      1.32905430E+02  1.96966540E+02  7.89600000E+01
             ecut      4.30000000E+01 Hartree
-          fftalg         512
           irdden           1
           irdwfk           1
              ixc     -116133
              kpt     -5.00000000E-01  5.00000000E-01  0.00000000E+00
                      -6.81818182E-02  6.81818182E-02  0.00000000E+00
           kptopt           0
P           mkmem           2
P          mkqmem           2
P          mk1mem           2
            natom           6
            nband          53
           nbdbuf           4
            ngfft          64      64      80
             nkpt           2
            nstep        2000
             nsym           8
           ntypat           3
              occ      2.000000  2.000000  2.000000  2.000000  2.000000  2.000000
                       2.000000  2.000000  2.000000  2.000000  2.000000  2.000000
                       2.000000  2.000000  2.000000  2.000000  2.000000  2.000000
                       2.000000  2.000000  2.000000  2.000000  2.000000  2.000000
                       2.000000  2.000000  2.000000  2.000000  2.000000  2.000000
                       2.000000  2.000000  2.000000  2.000000  2.000000  2.000000
                       2.000000  2.000000  2.000000  2.000000  2.000000  2.000000
                       2.000000  2.000000  0.000000  0.000000  0.000000  0.000000
                       0.000000  0.000000  0.000000  0.000000  0.000000
        optdriver           1
            prtwf          -1
            rfdir           1       1       1
           rfelfd           2
            rprim      1.0554766182E+01  0.0000000000E+00  0.0000000000E+00
                      -1.9617250004E+00  1.0370859375E+01  0.0000000000E+00
                       0.0000000000E+00  0.0000000000E+00  1.3021297361E+01
          spgroup          63
           symrel      1  0  0   0  1  0   0  0  1      -1  0  0   0 -1  0   0  0 -1
                       0 -1  0  -1  0  0   0  0 -1       0  1  0   1  0  0   0  0  1
                      -1  0  0   0 -1  0   0  0  1       1  0  0   0  1  0   0  0 -1
                       0  1  0   1  0  0   0  0 -1       0 -1  0  -1  0  0   0  0  1
            tnons      0.0000000  0.0000000  0.0000000     0.0000000  0.0000000  0.0000000
                       0.0000000  0.0000000  0.5000000    -0.0000000 -0.0000000  0.5000000
                       0.0000000  0.0000000  0.5000000     0.0000000  0.0000000  0.5000000
                      -0.0000000 -0.0000000  0.0000000     0.0000000  0.0000000  0.0000000
           tolwfr      1.00000000E-20
            typat      1  1  2  2  3  3
           useylm           1
              wtk        0.50000    0.50000
           xangst      3.1530615135E+00  2.0153280553E+00  5.1679303424E+00
                       1.3941800324E+00  3.4726943596E+00  1.7226434475E+00
                       0.0000000000E+00  0.0000000000E+00  0.0000000000E+00
                       0.0000000000E+00  0.0000000000E+00  3.4452868949E+00
                       2.7188417239E-01  4.4026013417E+00  5.1679303424E+00
                       4.2753573734E+00  1.0854210732E+00  1.7226434475E+00
            xcart      5.9584227406E+00  3.8084180924E+00  9.7659730210E+00
                       2.6346184411E+00  6.5624412829E+00  3.2553243403E+00
                       0.0000000000E+00  0.0000000000E+00  0.0000000000E+00
                       0.0000000000E+00  0.0000000000E+00  6.5106486807E+00
                       5.1378662567E-01  8.3197108081E+00  9.7659730210E+00
                       8.0792545560E+00  2.0511485672E+00  3.2553243403E+00
             xred      6.3277700000E-01  3.6722300000E-01  7.5000000000E-01
                       3.6722300000E-01  6.3277700000E-01  2.5000000000E-01
                       0.0000000000E+00  0.0000000000E+00  0.0000000000E+00
                       0.0000000000E+00  0.0000000000E+00  5.0000000000E-01
                       1.9778000000E-01  8.0222000000E-01  7.5000000000E-01
                       8.0222000000E-01  1.9778000000E-01  2.5000000000E-01
            znucl       55.00000   79.00000   34.00000

 chkinp: Checking input parameters for consistency.

== DATASET  1 ==================================================================
-   mpi_nproc: 1, omp_nthreads: -1 (-1 if OMP is not activated)

--- !DatasetInfo
iteration_state: {dtset: 1, }
dimensions: {natom: 6, nkpt: 2, mband: 53, nsppol: 1, nspinor: 1, nspden: 1, mpw: 19212, }
cutoff_energies: {ecut:  43.0, pawecutdg:  -1.0, }
electrons: {nelect:   8.80000000E+01, charge:   0.00000000E+00, occopt:   1.00000000E+00, tsmear:   1.00000000E-02, }
meta: {optdriver: 1, rfelfd: 2, }
...

 Real(R)+Recip(G) space primitive vectors, cartesian coordinates (Bohr,Bohr^-1):
 R(1)= 10.5547662  0.0000000  0.0000000  G(1)=  0.0947439  0.0179215  0.0000000
 R(2)= -1.9617250 10.3708594  0.0000000  G(2)=  0.0000000  0.0964240  0.0000000
 R(3)=  0.0000000  0.0000000 13.0212974  G(3)=  0.0000000  0.0000000  0.0767973
 Unit cell volume ucvol=  1.4253372E+03 bohr^3
 Angles (23,13,12)=  9.00000000E+01  9.00000000E+01  1.00711366E+02 degrees

 getcut: wavevector=  0.0000  0.0000  0.0000  ngfft=  64  64  80
         ecut(hartree)=     43.000   => boxcut(ratio)=   2.05415

--- Pseudopotential description ------------------------------------------------
- pspini: atom type   1  psp file is /scratch/users/j/a/jabreu/pseudos/PBEsol/Cs.psp8
- pspatm: opening atomic psp file    /scratch/users/j/a/jabreu/pseudos/PBEsol/Cs.psp8
- Cs    ONCVPSP-3.3.0  r_core=   2.27353   1.85623   2.01788   1.90105
- 55.00000   9.00000    180112                znucl, zion, pspdat
    8 -116133    3    4       600   0.00000   pspcod,pspxc,lmax,lloc,mmax,r2well
    5.99000000000000    5.00000000000000    0.00000000000000   rchrg,fchrg,qchrg
     nproj     2     2     2     2
     extension_switch     1
  pspatm : epsatm=   22.12462445
         --- l  ekb(1:nproj) -->
             0    6.214110    0.767882
             1    6.311966    0.793598
             2    3.769790    0.913105
             3   -9.247129   -2.432478
 pspatm: atomic psp has been read  and splines computed

- pspini: atom type   2  psp file is /scratch/users/j/a/jabreu/pseudos/PBEsol/Au.psp8
- pspatm: opening atomic psp file    /scratch/users/j/a/jabreu/pseudos/PBEsol/Au.psp8
- Au    ONCVPSP-3.3.0  r_core=   1.45604   1.56407   1.56407   1.60183
- 79.00000  19.00000    180112                znucl, zion, pspdat
    8 -116133    3    4       500   0.00000   pspcod,pspxc,lmax,lloc,mmax,r2well
    4.99000000000000    5.00000000000000    0.00000000000000   rchrg,fchrg,qchrg
     nproj     2     2     2     1
     extension_switch     1
  pspatm : epsatm=   32.21965837
         --- l  ekb(1:nproj) -->
             0    9.413866   -0.196587
             1    2.474292   -1.517497
             2    1.503483    0.298081
             3    1.177996
 pspatm: atomic psp has been read  and splines computed

- pspini: atom type   3  psp file is /scratch/users/j/a/jabreu/pseudos/PBEsol/Se.psp8
- pspatm: opening atomic psp file    /scratch/users/j/a/jabreu/pseudos/PBEsol/Se.psp8
- Se    ONCVPSP-3.3.0  r_core=   1.81943   1.50330   1.90835
- 34.00000  16.00000    180112                znucl, zion, pspdat
    8 -116133    2    4       600   0.00000   pspcod,pspxc,lmax,lloc,mmax,r2well
    5.99000000000000    5.00000000000000    0.00000000000000   rchrg,fchrg,qchrg
     nproj     2     2     2
     extension_switch     1
  pspatm : epsatm=   29.17862020
         --- l  ekb(1:nproj) -->
             0    8.973804    1.019550
             1    6.849857    1.297308
             2   -9.203962   -3.731027
 pspatm: atomic psp has been read  and splines computed

   1.47000309E+04                                ecore*ucvol(ha*bohr**3)

 ==>  initialize data related to q vector <==

 The list of irreducible perturbations for this q vector is:
    1)    idir= 1    ipert=   7
    2)    idir= 2    ipert=   7
    3)    idir= 3    ipert=   7

 Perturbation wavevector (in red.coord.)   0.000000  0.000000  0.000000
 Perturbation : derivative vs k along direction   1

 dfpt_looppert : COMMENT -
  In a d/dk calculation, iscf is set to -3 automatically.
 The set of symmetries contains only one element for this perturbation.
 symkpt : not enough symmetry to change the number of k points.

 Initialisation of the first-order wave-functions :
  ireadwf=   0

--- !BeginCycle
iteration_state: {dtset: 1, }
solver: {iscf: 7, nstep: 2000, nline: 4, wfoptalg: 0, }
tolerances: {tolwfr: 1.00E-20, }
...

     iter   2DEtotal(Ha)        deltaE(Ha) residm    vres2
-ETOT  1  -54.134638606896     -5.413E+01 6.810E-02 0.000E+00
 ETOT  2  -54.189209526929     -5.457E-02 7.265E-03 0.000E+00
 ETOT  3  -54.190084134607     -8.746E-04 7.162E-04 0.000E+00
 ETOT  4  -54.190152536917     -6.840E-05 1.985E-04 0.000E+00
 ETOT  5  -54.190159061569     -6.525E-06 2.819E-05 0.000E+00
 ETOT  6  -54.190159765033     -7.035E-07 8.558E-06 0.000E+00
 ETOT  7  -54.190159846399     -8.137E-08 1.202E-06 0.000E+00
 ETOT  8  -54.190159856409     -1.001E-08 3.818E-07 0.000E+00
 ETOT  9  -54.190159857698     -1.290E-09 5.269E-08 0.000E+00
 ETOT 10  -54.190159857870     -1.719E-10 1.744E-08 0.000E+00
 ETOT 11  -54.190159857894     -2.341E-11 2.369E-09 0.000E+00
 ETOT 12  -54.190159857897     -3.219E-12 8.102E-10 0.000E+00
 ETOT 13  -54.190159857897     -4.547E-13 1.085E-10 0.000E+00
 ETOT 14  -54.190159857897     -4.263E-14 3.805E-11 0.000E+00
 ETOT 15  -54.190159857897     -7.105E-14 5.024E-12 0.000E+00
 ETOT 16  -54.190159857897      4.263E-14 1.799E-12 0.000E+00
 ETOT 17  -54.190159857897      7.105E-15 2.346E-13 0.000E+00
 ETOT 18  -54.190159857897      3.553E-14 8.548E-14 0.000E+00
 ETOT 19  -54.190159857897     -7.105E-15 1.101E-14 0.000E+00
 ETOT 20  -54.190159857897     -7.105E-15 4.074E-15 0.000E+00
 ETOT 21  -54.190159857897      1.421E-14 5.185E-16 0.000E+00
 ETOT 22  -54.190159857897      1.421E-14 1.947E-16 0.000E+00
 ETOT 23  -54.190159857897      0.000E+00 2.449E-17 0.000E+00
 ETOT 24  -54.190159857897      0.000E+00 9.315E-18 0.000E+00
 ETOT 25  -54.190159857897     -7.105E-15 1.160E-18 0.000E+00
 ETOT 26  -54.190159857897     -7.105E-15 4.464E-19 0.000E+00
 ETOT 27  -54.190159857897      0.000E+00 5.499E-20 0.000E+00
 ETOT 28  -54.190159857897      0.000E+00 2.141E-20 0.000E+00
 ETOT 29  -54.190159857897      0.000E+00 9.882E-21 0.000E+00

 At SCF step   29   max residual=  9.88E-21 < tolwfr=  1.00E-20 =>converged.

 ----iterations are completed or convergence reached----

 dfpt_looppert: DFPT cycle converged with prtwf=-1. Will skip output of the 1st-order WFK file.
 dfpt_looppert : ek2=    6.4601546341E+01
          f-sum rule ratio=    1.0488374323E+00
 prteigrs : about to open file /scratch/users/j/a/jabreu/flow_simple_remain_atoms/flow/w241/t1/tmpdata/tmp_1WF1_EIG
 Expectation of eigenvalue derivatives (hartree) for nkpt=   2  k points:
  (in case of degenerate eigenvalues, averaged derivative)
 kpt#   1, nband= 53, wtk=  0.50000, kpt= -0.5000  0.5000  0.0000 (reduced coord)
   0.00000    0.00000    0.00000   -0.00000   -0.00000    0.00000    0.00000   -0.00000
   0.00000   -0.00000    0.00000   -0.00000    0.00000    0.00000   -0.00000   -0.00000
   0.00000   -0.00000    0.00000    0.00000   -0.00000   -0.00000   -0.00000   -0.00000
  -0.00000    0.00000    0.00000   -0.00000   -0.00000   -0.00000   -0.00000   -0.00000
   0.00000    0.00000    0.00000   -0.00000    0.00000    0.00000   -0.00000    0.00000
  -0.00000    0.00000    0.00000    0.00000   -0.00000   -0.00000    0.00000   -0.00000
  -0.00000    0.00000   -0.00000    0.00000   -0.00001
 prteigrs : prtvol=0 or 1, do not print more k-points.

 Eight components of 2nd-order total energy (hartree) are
 1,2,3: 0th-order hamiltonian combined with 1st-order wavefunctions
     kin0=   6.65393910E+01 eigvalue=   6.36779205E+00  local=  -3.32359938E+01
 4,5,6: 1st-order hamiltonian combined with 1st and 0th-order wfs
     kin1=  -6.77565200E+01  Hartree=   0.00000000E+00     xc=   0.00000000E+00
 7,8,9: eventually, occupation + non-local contributions
    edocc=   7.94848783E+00     enl0=   6.57048286E+00   enl1=  -4.06237997E+01
 1-9 gives the relaxation energy (to be shifted if some occ is /=2.0)
   erelax=  -5.41901599E+01
  No Ewald or frozen-wf contrib.: the relaxation energy is the total one
 2DEtotal=   -0.5419015986E+02 Ha. Also 2DEtotal=   -0.147458924133E+04 eV
    (  non-var. 2DEtotal :   -5.4190159858E+01 Ha)

 Perturbation wavevector (in red.coord.)   0.000000  0.000000  0.000000
 Perturbation : derivative vs k along direction   2
 The set of symmetries contains only one element for this perturbation.
 symkpt : not enough symmetry to change the number of k points.

[...]

 Perturbation wavevector (in red.coord.)   0.000000  0.000000  0.000000
 Perturbation : derivative vs k along direction   3
 The set of symmetries contains only one element for this perturbation.
 symkpt : not enough symmetry to change the number of k points.

 Initialisation of the first-order wave-functions :
  ireadwf=   0

--- !BeginCycle
iteration_state: {dtset: 1, }
solver: {iscf: 7, nstep: 2000, nline: 4, wfoptalg: 0, }
tolerances: {tolwfr: 1.00E-20, }
...

     iter   2DEtotal(Ha)        deltaE(Ha) residm    vres2
-ETOT  1  -33.872414078432     -3.387E+01 2.564E-01 0.000E+00
 ETOT  2  -33.905329189327     -3.292E-02 1.848E-02 0.000E+00
 ETOT  3  -33.905819058613     -4.899E-04 2.674E-03 0.000E+00
 ETOT  4  -33.905850904445     -3.185E-05 3.814E-04 0.000E+00
 ETOT  5  -33.905853676546     -2.772E-06 6.632E-05 0.000E+00
 ETOT  6  -33.905853945595     -2.690E-07 1.112E-05 0.000E+00
 ETOT  7  -33.905853972903     -2.731E-08 2.207E-06 0.000E+00
 ETOT  8  -33.905853975759     -2.857E-09 3.729E-07 0.000E+00
 ETOT  9  -33.905853976065     -3.059E-10 7.953E-08 0.000E+00
 ETOT 10  -33.905853976099     -3.352E-11 1.352E-08 0.000E+00
 ETOT 11  -33.905853976102     -3.773E-12 3.065E-09 0.000E+00
 ETOT 12  -33.905853976103     -4.334E-13 5.111E-10 0.000E+00
 ETOT 13  -33.905853976103     -3.553E-14 1.184E-10 0.000E+00
 ETOT 14  -33.905853976103     -1.421E-14 1.967E-11 0.000E+00
 ETOT 15  -33.905853976103     -2.842E-14 4.741E-12 0.000E+00
 ETOT 16  -33.905853976103      7.105E-15 7.706E-13 0.000E+00
 ETOT 17  -33.905853976103      1.421E-14 1.875E-13 0.000E+00
 ETOT 18  -33.905853976103     -2.842E-14 3.053E-14 0.000E+00
 ETOT 19  -33.905853976103      1.421E-14 7.631E-15 0.000E+00
 ETOT 20  -33.905853976103      7.105E-15 1.226E-15 0.000E+00
 ETOT 21  -33.905853976103     -7.105E-15 3.074E-16 0.000E+00
 ETOT 22  -33.905853976103     -7.105E-15 4.951E-17 0.000E+00
 ETOT 23  -33.905853976103      7.105E-15 1.257E-17 0.000E+00
 ETOT 24  -33.905853976103      0.000E+00 2.011E-18 0.000E+00
 ETOT 25  -33.905853976103      0.000E+00 5.120E-19 0.000E+00
 ETOT 26  -33.905853976103     -7.105E-15 8.183E-20 0.000E+00
 ETOT 27  -33.905853976103      7.105E-15 2.098E-20 0.000E+00
 ETOT 28  -33.905853976103      0.000E+00 9.949E-21 0.000E+00

 At SCF step   28   max residual=  9.95E-21 < tolwfr=  1.00E-20 =>converged.

 ----iterations are completed or convergence reached----

 dfpt_looppert: DFPT cycle converged with prtwf=-1. Will skip output of the 1st-order WFK file.
 dfpt_looppert : ek2=    4.0979239171E+01
          f-sum rule ratio=    1.0266515891E+00
 prteigrs : about to open file /scratch/users/j/a/jabreu/flow_simple_remain_atoms/flow/w241/t1/tmpdata/tmp_1WF1_EIG
 Expectation of eigenvalue derivatives (hartree) for nkpt=   2  k points:
  (in case of degenerate eigenvalues, averaged derivative)
 kpt#   1, nband= 53, wtk=  0.50000, kpt= -0.5000  0.5000  0.0000 (reduced coord)
  -0.00000   -0.00000   -0.00000   -0.00000    0.00000    0.00000   -0.00000    0.00000
   0.00000   -0.00000   -0.00000    0.00000    0.00000    0.00000    0.00000    0.00000
   0.00000    0.00000   -0.00000    0.00000    0.00000    0.00000   -0.00000   -0.00000
   0.00000   -0.00000    0.00000   -0.00000    0.00000    0.00000   -0.00000    0.00000
   0.00000    0.00000    0.00000    0.00000   -0.00000    0.00000   -0.00000   -0.00000
   0.00000   -0.00000   -0.00000   -0.00000    0.00000    0.00000   -0.00000   -0.00000
   0.00000    0.00000   -0.00000    0.00000    0.00037
 prteigrs : prtvol=0 or 1, do not print more k-points.

 Eight components of 2nd-order total energy (hartree) are
 1,2,3: 0th-order hamiltonian combined with 1st-order wavefunctions
     kin0=   4.05809245E+01 eigvalue=   4.11285892E+00  local=  -2.01390301E+01
 4,5,6: 1st-order hamiltonian combined with 1st and 0th-order wfs
     kin1=  -4.20714010E+01  Hartree=   0.00000000E+00     xc=   0.00000000E+00
 7,8,9: eventually, occupation + non-local contributions
    edocc=   5.41821942E+00     enl0=   3.93288128E+00   enl1=  -2.57403069E+01
 1-9 gives the relaxation energy (to be shifted if some occ is /=2.0)
   erelax=  -3.39058540E+01
  No Ewald or frozen-wf contrib.: the relaxation energy is the total one
 2DEtotal=   -0.3390585398E+02 Ha. Also 2DEtotal=   -0.922625207645E+03 eV
    (  non-var. 2DEtotal :   -3.3905853976E+01 Ha)

 CALCULATION OF EFFECTIVE MASSES
 NOTE : Additional infos (eff. mass eigenvalues, eigenvectors and, if degenerate, average mass) are available in stdout.

 K-point (-0.500, 0.500, 0.000) | band =    44
 Effective mass tensor:
             -2.1127715052              1.2055717151             -0.0000053083
              1.2055717151             -1.6568508238             -0.0000064002
             -0.0000053083             -0.0000064002             -0.4653955961
 Effective mass tensor eigenvalues:
             -3.1117459946             -0.6578763348             -0.4653955957
 Angular average effective mass 1/(<1/m>)=  -0.7518580024
 Angular average effective mass for Frohlich model (<m**0.5>)**2=  -0.8641578502
 Effective masses along directions: (cart. coord. / red. coord. -> eff. mass)
    1:   1.000000  0.000000  0.000000 /   0.983163 -0.182732  0.000000 ->  -1.2355632859
    2:   0.000000  1.000000  0.000000 /   0.000000  1.000000  0.000000 ->  -0.9689377404
    3:   0.000000  0.000000  1.000000 /   0.000000  0.000000  1.000000 ->  -0.4653955960
    4:   0.577350  0.577350  0.577350 /   0.562834  0.448418  0.694362 ->  -0.5805125368
    5:   0.000000  0.707107  0.707107 /   0.000000  0.623002  0.782220 ->  -0.6287872905
    6:   0.707107  0.000000  0.707107 /   0.625424 -0.116242  0.771578 ->  -0.6761273959
    7:   0.707107  0.707107  0.000000 /   0.782121  0.623127  0.000000 ->  -0.6624240839

 K-point (-0.068, 0.068, 0.000) | band =    45
 Effective mass tensor:
              0.6072891830              0.4295535110              0.0000000024
              0.4295535110              0.7697956518             -0.0000000018
              0.0000000024             -0.0000000018              0.2780106240
 Effective mass tensor eigenvalues:
              0.2513716191              0.2780106240              1.1257132157
 Angular average effective mass 1/(<1/m>)=   0.3544639368
 Angular average effective mass for Frohlich model (<m**0.5>)**2=   0.3916464858
 Effective masses along directions: (cart. coord. / red. coord. -> eff. mass)
    1:   1.000000  0.000000  0.000000 /   0.983163 -0.182732  0.000000 ->   0.3675941181
    2:   0.000000  1.000000  0.000000 /   0.000000  1.000000  0.000000 ->   0.4659598123
    3:   0.000000  0.000000  1.000000 /   0.000000  0.000000  1.000000 ->   0.2780106240
    4:   0.577350  0.577350  0.577350 /   0.562834  0.448418  0.694362 ->   0.5527433263
    5:   0.000000  0.707107  0.707107 /   0.000000  0.623002  0.782220 ->   0.3482444210
    6:   0.707107  0.000000  0.707107 /   0.625424 -0.116242  0.771578 ->   0.3165871146
    7:   0.707107  0.707107  0.000000 /   0.782121  0.623127  0.000000 ->   1.0926041489

 END OF EFFECTIVE MASSES SECTION

 ---- first-order wavefunction calculations are completed ----

 Total localisation tensor (bohr^2) in cartesian coordinates
  WARNING : still subject to testing - especially symmetries.
      direction              matrix element
   alpha     beta       real part   imaginary part
     1        1       1.0565118762    0.0000000000
     1        2      -0.1865001680    0.0000000000
     1        3       0.0000000000    0.0000000000
     2        1      -0.1865001680    0.0000000000
     2        2       0.9859521675    0.0000000000
     2        3       0.0000000000    0.0000000000
     3        1       0.0000000000    0.0000000000
     3        2       0.0000000000    0.0000000000
     3        3       1.1114770848    0.0000000000

 respfn : d/dk was computed, but no 2DTE, so no DDB output.

== END DATASET(S) ==============================================================

 -outvars: echo values of variables after computation  --------
            acell      1.0000000000E+00  1.0000000000E+00  1.0000000000E+00 Bohr
              amu      1.32905430E+02  1.96966540E+02  7.89600000E+01
             ecut      4.30000000E+01 Hartree
           etotal     -3.3905853976E+01
            fcart      0.0000000000E+00  0.0000000000E+00  0.0000000000E+00
                       0.0000000000E+00  0.0000000000E+00  0.0000000000E+00
                       0.0000000000E+00  0.0000000000E+00  0.0000000000E+00
                       0.0000000000E+00  0.0000000000E+00  0.0000000000E+00
                       0.0000000000E+00  0.0000000000E+00  0.0000000000E+00
                       0.0000000000E+00  0.0000000000E+00  0.0000000000E+00
-          fftalg         512
           irdden           1
           irdwfk           1
              ixc     -116133
              kpt     -5.00000000E-01  5.00000000E-01  0.00000000E+00
                      -6.81818182E-02  6.81818182E-02  0.00000000E+00
           kptopt           0
P           mkmem           2
P          mkqmem           2
P          mk1mem           2
            natom           6
            nband          53
           nbdbuf           4
            ngfft          64      64      80
             nkpt           2
            nstep        2000
             nsym           8
           ntypat           3
              occ      2.000000  2.000000  2.000000  2.000000  2.000000  2.000000
                       2.000000  2.000000  2.000000  2.000000  2.000000  2.000000
                       2.000000  2.000000  2.000000  2.000000  2.000000  2.000000
                       2.000000  2.000000  2.000000  2.000000  2.000000  2.000000
                       2.000000  2.000000  2.000000  2.000000  2.000000  2.000000
                       2.000000  2.000000  2.000000  2.000000  2.000000  2.000000
                       2.000000  2.000000  2.000000  2.000000  2.000000  2.000000
                       2.000000  2.000000  0.000000  0.000000  0.000000  0.000000
                       0.000000  0.000000  0.000000  0.000000  0.000000
        optdriver           1
            prtwf          -1
            rfdir           1       1       1
           rfelfd           2
            rprim      1.0554766182E+01  0.0000000000E+00  0.0000000000E+00
                      -1.9617250004E+00  1.0370859375E+01  0.0000000000E+00
                       0.0000000000E+00  0.0000000000E+00  1.3021297361E+01
          spgroup          63
           strten      0.0000000000E+00  0.0000000000E+00  0.0000000000E+00
                       0.0000000000E+00  0.0000000000E+00  0.0000000000E+00
           symrel      1  0  0   0  1  0   0  0  1      -1  0  0   0 -1  0   0  0 -1
                       0 -1  0  -1  0  0   0  0 -1       0  1  0   1  0  0   0  0  1
                      -1  0  0   0 -1  0   0  0  1       1  0  0   0  1  0   0  0 -1
                       0  1  0   1  0  0   0  0 -1       0 -1  0  -1  0  0   0  0  1
            tnons      0.0000000  0.0000000  0.0000000     0.0000000  0.0000000  0.0000000
                       0.0000000  0.0000000  0.5000000    -0.0000000 -0.0000000  0.5000000
                       0.0000000  0.0000000  0.5000000     0.0000000  0.0000000  0.5000000
                      -0.0000000 -0.0000000  0.0000000     0.0000000  0.0000000  0.0000000
           tolwfr      1.00000000E-20
            typat      1  1  2  2  3  3
           useylm           1
              wtk        0.50000    0.50000
           xangst      3.1530615135E+00  2.0153280553E+00  5.1679303424E+00
                       1.3941800324E+00  3.4726943596E+00  1.7226434475E+00
                       0.0000000000E+00  0.0000000000E+00  0.0000000000E+00
                       0.0000000000E+00  0.0000000000E+00  3.4452868949E+00
                       2.7188417239E-01  4.4026013417E+00  5.1679303424E+00
                       4.2753573734E+00  1.0854210732E+00  1.7226434475E+00
            xcart      5.9584227406E+00  3.8084180924E+00  9.7659730210E+00
                       2.6346184411E+00  6.5624412829E+00  3.2553243403E+00
                       0.0000000000E+00  0.0000000000E+00  0.0000000000E+00
                       0.0000000000E+00  0.0000000000E+00  6.5106486807E+00
                       5.1378662567E-01  8.3197108081E+00  9.7659730210E+00
                       8.0792545560E+00  2.0511485672E+00  3.2553243403E+00
             xred      6.3277700000E-01  3.6722300000E-01  7.5000000000E-01
                       3.6722300000E-01  6.3277700000E-01  2.5000000000E-01
                       0.0000000000E+00  0.0000000000E+00  0.0000000000E+00
                       0.0000000000E+00  0.0000000000E+00  5.0000000000E-01
                       1.9778000000E-01  8.0222000000E-01  7.5000000000E-01
                       8.0222000000E-01  1.9778000000E-01  2.5000000000E-01
            znucl       55.00000   79.00000   34.00000

- Timing analysis has been suppressed with timopt=0

 Suggested references for the acknowledgment of ABINIT usage.

 Calculation completed.
.Delivered   2 WARNINGs and   5 COMMENTs to log file.