.Version 9.5.1 of ABINIT

 ABINIT is a project of the Universite Catholique de Louvain,
 Corning Inc. and other collaborators, see ~abinit/doc/developers/contributors.txt .
 acknowledgments of the ABINIT effort.

.Starting date : Tue  4 May 2021.
- ( at 19h17 )

- input  file    -> /scratch/users/j/a/jabreu/flow_simple_6atoms/flow/w177/t1/run.abi
- output file    -> /scratch/users/j/a/jabreu/flow_simple_6atoms/flow/w177/t1/run.abo
- root for input  files -> /scratch/users/j/a/jabreu/flow_simple_6atoms/flow/w177/t1/indata/in
- root for output files -> /scratch/users/j/a/jabreu/flow_simple_6atoms/flow/w177/t1/outdata/out

 Symmetries : space group C2/m (# 12); Bravais mC (1-face-center monocl.)
     intxc =       0      iscf =       7    lmnmax =      18     lnmax =       6
     mgfft =      96  mpssoang =       3    mqgrid =    4534     natom =       6
  nloc_mem =       1    nspden =       1   nspinor =       1    nsppol =       1
      nsym =       4    n1xccc =    2501    ntypat =       2    occopt =       1
   xclevel =       2
-    mband =          48        mffmem =           1         mkmem =           2
-   mkqmem =           2        mk1mem =           2           mpw =       20908
      nfft =      614400          nkpt =           2
  Rough estimation (10% accuracy) of disk space for files :

------------- Echo of variables that govern the present computation ------------
-
- outvars: echo of selected default values
-   iomode0 =  0 , fftalg0 =512 , wfoptalg0 =  0
-
- outvars: echo of global parameters not present in the input file
-  max_nthreads =    0
-
 -outvars: echo values of preprocessed input variables --------
            acell      1.0000000000E+00  1.0000000000E+00  1.0000000000E+00 Bohr
              amu      8.54678000E+01  1.21753000E+02
             ecut      4.20000000E+01 Hartree
-          fftalg         512
           irdden           1
           irdwfk           1
           istwfk        0    1
              ixc     -116133
              kpt      5.10763362E-01  4.89236638E-01  0.00000000E+00
                       0.00000000E+00  0.00000000E+00  5.00000000E-01
           kptopt           0
P           mkmem           2
P          mkqmem           2
P          mk1mem           2
            natom           6
            nband          48
           nbdbuf           4
            ngfft          80      80      96
             nkpt           2
            nstep        1000
             nsym           4
           ntypat           2
              occ      2.000000  2.000000  2.000000  2.000000  2.000000  2.000000
                       2.000000  2.000000  2.000000  2.000000  2.000000  2.000000
                       2.000000  2.000000  2.000000  2.000000  2.000000  2.000000
                       2.000000  2.000000  2.000000  2.000000  2.000000  2.000000
                       2.000000  2.000000  2.000000  2.000000  2.000000  2.000000
                       2.000000  2.000000  2.000000  2.000000  2.000000  2.000000
                       2.000000  2.000000  2.000000  0.000000  0.000000  0.000000
                       0.000000  0.000000  0.000000  0.000000  0.000000  0.000000
        optdriver           1
            prtwf          -1
            rfdir           1       1       1
           rfelfd           2
            rprim      1.3306421601E+01  0.0000000000E+00  3.2145566869E+00
                       1.0978082606E+01  7.5194785787E+00  3.2145566869E+00
                       0.0000000000E+00  0.0000000000E+00  1.6028480942E+01
          spgroup          12
           symrel      1  0  0   0  1  0   0  0  1      -1  0  0   0 -1  0   0  0 -1
                       0 -1  0  -1  0  0   0  0 -1       0  1  0   1  0  0   0  0  1
           tolwfr      1.00000000E-20
            typat      1  1  2  2  2  2
           useylm           1
              wtk        0.50000    0.50000
           xangst      2.1429233284E+00  6.6353695866E-01  3.1226391152E+00
                       1.0707882820E+01  3.3155997257E+00  8.7614079566E+00
                       5.6189121819E+00  1.7398456821E+00  4.1790118364E+00
                       1.2301177169E+00  3.8089490083E-01  7.8833134554E+00
                       1.1620688431E+01  3.5982417835E+00  4.0007336164E+00
                       7.2318939664E+00  2.2392910022E+00  7.7050352354E+00
            xcart      4.0495382145E+00  1.2539031309E+00  5.9009327395E+00
                       2.0234965992E+01  6.2655754478E+00  1.6556661576E+01
                       1.0618205188E+01  3.2878318527E+00  7.8971878769E+00
                       2.3245855962E+00  7.1978704799E-01  1.4897303450E+01
                       2.1959918611E+01  6.7996915307E+00  7.5602908656E+00
                       1.3666299019E+01  4.2316467260E+00  1.4560406439E+01
             xred      1.6675400000E-01  1.6675400000E-01  3.0126700000E-01
                       8.3324600000E-01  8.3324600000E-01  6.9873300000E-01
                       4.3724200000E-01  4.3724200000E-01  3.1731700000E-01
                       9.5723000000E-02  9.5723000000E-02  8.9103200000E-01
                       9.0427700000E-01  9.0427700000E-01  1.0896800000E-01
                       5.6275800000E-01  5.6275800000E-01  6.8268300000E-01
            znucl       37.00000   51.00000

 chkinp: Checking input parameters for consistency.

== DATASET  1 ==================================================================
-   mpi_nproc: 1, omp_nthreads: -1 (-1 if OMP is not activated)

--- !DatasetInfo
iteration_state: {dtset: 1, }
dimensions: {natom: 6, nkpt: 2, mband: 48, nsppol: 1, nspinor: 1, nspden: 1, mpw: 20908, }
cutoff_energies: {ecut:  42.0, pawecutdg:  -1.0, }
electrons: {nelect:   7.80000000E+01, charge:   0.00000000E+00, occopt:   1.00000000E+00, tsmear:   1.00000000E-02, }
meta: {optdriver: 1, rfelfd: 2, }
...

 Real(R)+Recip(G) space primitive vectors, cartesian coordinates (Bohr,Bohr^-1):
 R(1)= 13.3064216  0.0000000  3.2145567  G(1)=  0.0751517 -0.1097179  0.0000000
 R(2)= 10.9780826  7.5194786  3.2145567  G(2)=  0.0000000  0.1329879  0.0000000
 R(3)=  0.0000000  0.0000000 16.0284809  G(3)= -0.0150719 -0.0046669  0.0623889
 Unit cell volume ucvol=  1.6037674E+03 bohr^3
 Angles (23,13,12)=  7.64187357E+01  7.64187357E+01  3.34184926E+01 degrees

 getcut: wavevector=  0.0000  0.0000  0.0000  ngfft=  80  80  96
         ecut(hartree)=     42.000   => boxcut(ratio)=   2.00350

--- Pseudopotential description ------------------------------------------------
- pspini: atom type   1  psp file is /scratch/users/j/a/jabreu/pseudos/PBEsol/Rb.psp8
- pspatm: opening atomic psp file    /scratch/users/j/a/jabreu/pseudos/PBEsol/Rb.psp8
- Rb    ONCVPSP-3.3.0  r_core=   1.71227   1.75361   1.90633
- 37.00000   9.00000    180112                znucl, zion, pspdat
    8 -116133    2    4       600   0.00000   pspcod,pspxc,lmax,lloc,mmax,r2well
    5.99000000000000    7.00000000000000    0.00000000000000   rchrg,fchrg,qchrg
     nproj     2     2     2
     extension_switch     1
  pspatm : epsatm=   34.48400912
         --- l  ekb(1:nproj) -->
             0    8.196957   -0.477221
             1    3.231347   -0.378736
             2   -1.047201    0.996637
 pspatm: atomic psp has been read  and splines computed

- pspini: atom type   2  psp file is /scratch/users/j/a/jabreu/pseudos/PBEsol/Sb.psp8
- pspatm: opening atomic psp file    /scratch/users/j/a/jabreu/pseudos/PBEsol/Sb.psp8
- Sb    ONCVPSP-3.3.0  r_core=   1.81962   2.12485   1.81962
- 51.00000  15.00000    180112                znucl, zion, pspdat
    8 -116133    2    4       600   0.00000   pspcod,pspxc,lmax,lloc,mmax,r2well
    5.99000000000000    5.00000000000000    0.00000000000000   rchrg,fchrg,qchrg
     nproj     2     2     2
     extension_switch     1
  pspatm : epsatm=   26.35641246
         --- l  ekb(1:nproj) -->
             0    9.727814    1.485032
             1    5.505335    0.704623
             2   -4.710637   -1.436443
 pspatm: atomic psp has been read  and splines computed

   1.36027061E+04                                ecore*ucvol(ha*bohr**3)

-inwffil : will read wavefunctions from disk file /scratch/users/j/a/jabreu/flow_simple_6atoms/flow/w177/t1/indata/in_WFK

 ==>  initialize data related to q vector <==

 The list of irreducible perturbations for this q vector is:
    1)    idir= 1    ipert=   7
    2)    idir= 2    ipert=   7
    3)    idir= 3    ipert=   7

 Perturbation wavevector (in red.coord.)   0.000000  0.000000  0.000000
 Perturbation : derivative vs k along direction   1

 dfpt_looppert : COMMENT -
  In a d/dk calculation, iscf is set to -3 automatically.
 The set of symmetries contains only one element for this perturbation.
 symkpt : not enough symmetry to change the number of k points.

[...]

 Initialisation of the first-order wave-functions :
  ireadwf=   0

--- !BeginCycle
iteration_state: {dtset: 1, }
solver: {iscf: 7, nstep: 1000, nline: 4, wfoptalg: 0, }
tolerances: {tolwfr: 1.00E-20, }
...

     iter   2DEtotal(Ha)        deltaE(Ha) residm    vres2
-ETOT  1  -119.88111458129     -1.199E+02 3.296E-01 0.000E+00
 ETOT  2  -119.97746047290     -9.635E-02 2.093E-02 0.000E+00
 ETOT  3  -119.97773058402     -2.701E-04 1.389E-03 0.000E+00
 ETOT  4  -119.97773340552     -2.822E-06 1.877E-04 0.000E+00
 ETOT  5  -119.97773345145     -4.593E-08 1.593E-05 0.000E+00
 ETOT  6  -119.97773345231     -8.626E-10 2.272E-06 0.000E+00
 ETOT  7  -119.97773345233     -1.732E-11 1.955E-07 0.000E+00
 ETOT  8  -119.97773345233     -2.274E-13 2.859E-08 0.000E+00
 ETOT  9  -119.97773345233     -1.137E-13 2.470E-09 0.000E+00
 ETOT 10  -119.97773345233     -2.842E-14 3.706E-10 0.000E+00
 ETOT 11  -119.97773345233      5.684E-14 3.238E-11 0.000E+00
 ETOT 12  -119.97773345233     -2.842E-14 4.969E-12 0.000E+00
 ETOT 13  -119.97773345233      1.421E-14 4.406E-13 0.000E+00
 ETOT 14  -119.97773345233      1.421E-14 6.876E-14 0.000E+00
 ETOT 15  -119.97773345233      0.000E+00 6.177E-15 0.000E+00
 ETOT 16  -119.97773345233     -4.263E-14 9.749E-16 0.000E+00
 ETOT 17  -119.97773345233      0.000E+00 8.842E-17 0.000E+00
 ETOT 18  -119.97773345233      0.000E+00 1.405E-17 0.000E+00
 ETOT 19  -119.97773345233      1.421E-14 1.282E-18 0.000E+00
 ETOT 20  -119.97773345233      2.842E-14 2.048E-19 0.000E+00
 ETOT 21  -119.97773345233      0.000E+00 1.874E-20 0.000E+00
 ETOT 22  -119.97773345233     -2.842E-14 9.992E-21 0.000E+00

 At SCF step   22   max residual=  9.99E-21 < tolwfr=  1.00E-20 =>converged.

 ----iterations are completed or convergence reached----

 dfpt_looppert: DFPT cycle converged with prtwf=-1. Will skip output of the 1st-order WFK file.
 dfpt_looppert : ek2=    1.0892031337E+02
          f-sum rule ratio=    1.2570839246E+00
 prteigrs : about to open file /scratch/users/j/a/jabreu/flow_simple_6atoms/flow/w177/t1/tmpdata/tmp_1WF1_EIG
 Expectation of eigenvalue derivatives (hartree) for nkpt=   2  k points:
  (in case of degenerate eigenvalues, averaged derivative)
 kpt#   1, nband= 48, wtk=  0.50000, kpt=  0.5108  0.4892  0.0000 (reduced coord)
  -0.00006    0.00021    0.00031    0.00009    0.00014    0.00017    0.00008   -0.00001
  -0.00001   -0.00007   -0.00005   -0.00004   -0.00046   -0.00038   -0.00002   -0.00002
   0.00002    0.00002    0.00014    0.00011    0.00028    0.00026    0.00658    0.00245
   0.00098    0.00062   -0.00545   -0.00527    0.00574    0.01123   -0.00474   -0.00538
   0.01137   -0.00129   -0.13963    0.04629   -0.11781    0.02970   -0.00048    0.09680
   0.12426   -0.00176   -0.07036   -0.19108    0.03620    0.12316    0.00512    0.02318
 prteigrs : prtvol=0 or 1, do not print more k-points.

 Eight components of 2nd-order total energy (hartree) are
 1,2,3: 0th-order hamiltonian combined with 1st-order wavefunctions
     kin0=   1.23020117E+02 eigvalue=   2.07047777E+01  local=  -7.39556163E+01
 4,5,6: 1st-order hamiltonian combined with 1st and 0th-order wfs
     kin1=  -1.36921975E+02  Hartree=   0.00000000E+00     xc=   0.00000000E+00
 7,8,9: eventually, occupation + non-local contributions
    edocc=   3.15055322E+01     enl0=   1.87029227E+01   enl1=  -1.03033492E+02
 1-9 gives the relaxation energy (to be shifted if some occ is /=2.0)
   erelax=  -1.19977733E+02
  No Ewald or frozen-wf contrib.: the relaxation energy is the total one
 2DEtotal=   -0.1199777335E+03 Ha. Also 2DEtotal=   -0.326476015962E+04 eV
    (  non-var. 2DEtotal :   -1.1997773345E+02 Ha)

 Perturbation wavevector (in red.coord.)   0.000000  0.000000  0.000000
 Perturbation : derivative vs k along direction   2
 The set of symmetries contains only one element for this perturbation.
 symkpt : not enough symmetry to change the number of k points.

[...]

 Perturbation wavevector (in red.coord.)   0.000000  0.000000  0.000000
 Perturbation : derivative vs k along direction   3
 The set of symmetries contains only one element for this perturbation.
 symkpt : not enough symmetry to change the number of k points.

-inwffil : will read wavefunctions from disk file /scratch/users/j/a/jabreu/flow_simple_6atoms/flow/w177/t1/indata/in_WFK

 Initialisation of the first-order wave-functions :
  ireadwf=   0

--- !BeginCycle
iteration_state: {dtset: 1, }
solver: {iscf: 7, nstep: 1000, nline: 4, wfoptalg: 0, }
tolerances: {tolwfr: 1.00E-20, }
...

     iter   2DEtotal(Ha)        deltaE(Ha) residm    vres2
-ETOT  1  -24.709939711470     -2.471E+01 2.186E-02 0.000E+00
 ETOT  2  -24.735081354648     -2.514E-02 8.784E-04 0.000E+00
 ETOT  3  -24.735159456794     -7.810E-05 2.528E-05 0.000E+00
 ETOT  4  -24.735160084863     -6.281E-07 1.363E-06 0.000E+00
 ETOT  5  -24.735160091855     -6.992E-09 5.217E-08 0.000E+00
 ETOT  6  -24.735160091944     -8.934E-11 3.389E-09 0.000E+00
 ETOT  7  -24.735160091946     -1.215E-12 1.457E-10 0.000E+00
 ETOT  8  -24.735160091946     -4.619E-14 9.395E-12 0.000E+00
 ETOT  9  -24.735160091946      0.000E+00 4.213E-13 0.000E+00
 ETOT 10  -24.735160091946     -7.105E-15 2.744E-14 0.000E+00
 ETOT 11  -24.735160091946      0.000E+00 1.253E-15 0.000E+00
 ETOT 12  -24.735160091946      0.000E+00 8.215E-17 0.000E+00
 ETOT 13  -24.735160091946      3.553E-15 3.822E-18 0.000E+00
 ETOT 14  -24.735160091946      0.000E+00 2.618E-19 0.000E+00
 ETOT 15  -24.735160091946     -3.553E-15 1.176E-20 0.000E+00
 ETOT 16  -24.735160091946      0.000E+00 9.854E-21 0.000E+00

 At SCF step   16   max residual=  9.85E-21 < tolwfr=  1.00E-20 =>converged.

 ----iterations are completed or convergence reached----

 dfpt_looppert: DFPT cycle converged with prtwf=-1. Will skip output of the 1st-order WFK file.
 dfpt_looppert : ek2=    2.5504880575E+01
          f-sum rule ratio=    1.0263193203E+00
 prteigrs : about to open file /scratch/users/j/a/jabreu/flow_simple_6atoms/flow/w177/t1/tmpdata/tmp_1WF1_EIG
 Expectation of eigenvalue derivatives (hartree) for nkpt=   2  k points:
  (in case of degenerate eigenvalues, averaged derivative)
 kpt#   1, nband= 48, wtk=  0.50000, kpt=  0.5108  0.4892  0.0000 (reduced coord)
  -0.00000   -0.00000    0.00000   -0.00000   -0.00000   -0.00000    0.00000    0.00000
   0.00000    0.00000    0.00000   -0.00000    0.00000    0.00000   -0.00000    0.00000
   0.00000   -0.00000    0.00000   -0.00000    0.00000    0.00000   -0.00000   -0.00000
  -0.00000    0.00000    0.00000   -0.00000    0.00000   -0.00000    0.00000    0.00000
   0.00000   -0.00000    0.00000   -0.00000   -0.00000    0.00000    0.00000   -0.00000
   0.00000    0.00000   -0.00000   -0.00000    0.00000   -0.00000   -0.00000    0.00000
 prteigrs : prtvol=0 or 1, do not print more k-points.

 Eight components of 2nd-order total energy (hartree) are
 1,2,3: 0th-order hamiltonian combined with 1st-order wavefunctions
     kin0=   2.97986742E+01 eigvalue=   4.87119784E+00  local=  -1.79411251E+01
 4,5,6: 1st-order hamiltonian combined with 1st and 0th-order wfs
     kin1=  -2.61761517E+01  Hartree=   0.00000000E+00     xc=   0.00000000E+00
 7,8,9: eventually, occupation + non-local contributions
    edocc=   3.55871058E+00     enl0=   4.44770257E+00   enl1=  -2.32941685E+01
 1-9 gives the relaxation energy (to be shifted if some occ is /=2.0)
   erelax=  -2.47351601E+01
  No Ewald or frozen-wf contrib.: the relaxation energy is the total one
 2DEtotal=   -0.2473516009E+02 Ha. Also 2DEtotal=   -0.673077936100E+03 eV
    (  non-var. 2DEtotal :   -2.4735160092E+01 Ha)

 CALCULATION OF EFFECTIVE MASSES
 NOTE : Additional infos (eff. mass eigenvalues, eigenvectors and, if degenerate, average mass) are available in stdout.

 K-point ( 0.511, 0.489, 0.000) | band =    39
 Effective mass tensor:
             -0.9864757782              0.8472144183              0.0394708199
              0.8472144183             -3.4602617107              0.0122220051
              0.0394708199              0.0122220051             -0.3534187171
 Effective mass tensor eigenvalues:
             -3.7225940379             -0.7286929850             -0.3488691831
 Angular average effective mass 1/(<1/m>)=  -0.6655789806
 Angular average effective mass for Frohlich model (<m**0.5>)**2=  -0.8159807829
 Effective masses along directions: (cart. coord. / red. coord. -> eff. mass)
    1:   1.000000  0.000000  0.000000 /   0.771365  0.636393  0.000000 ->  -0.7739402487
    2:   0.000000  1.000000  0.000000 /   0.000000  1.000000  0.000000 ->  -2.7266033337
    3:   0.000000  0.000000  1.000000 /   0.192942  0.192942  0.962053 ->  -0.3510610032
    4:   0.577350  0.577350  0.577350 /   0.522108  0.686162  0.506543 ->  -0.5407506701
    5:   0.000000  0.707107  0.707107 /   0.164371  0.548867  0.819590 ->  -0.6039710988
    6:   0.707107  0.000000  0.707107 /   0.610931  0.524831  0.592719 ->  -0.4493246809
    7:   0.707107  0.707107  0.000000 /   0.583963  0.811780  0.000000 ->  -0.8723505965

 K-point ( 0.000, 0.000, 0.500) | band =    40
 Effective mass tensor:
              0.6816454512              0.1780325836              0.2334677079
              0.1780325836              0.1618076842              0.0722912535
              0.2334677079              0.0722912535              0.2793601262
 Effective mass tensor eigenvalues:
              0.1066814489              0.1733428420              0.8427889707
 Angular average effective mass 1/(<1/m>)=   0.1837205029
 Angular average effective mass for Frohlich model (<m**0.5>)**2=   0.2154737976
 Effective masses along directions: (cart. coord. / red. coord. -> eff. mass)
    1:   1.000000  0.000000  0.000000 /   0.771365  0.636393  0.000000 ->   0.3898593177
    2:   0.000000  1.000000  0.000000 /   0.000000  1.000000  0.000000 ->   0.1146670500
    3:   0.000000  0.000000  1.000000 /   0.192942  0.192942  0.962053 ->   0.1982858979
    4:   0.577350  0.577350  0.577350 /   0.522108  0.686162  0.506543 ->   0.3784628527
    5:   0.000000  0.707107  0.707107 /   0.164371  0.548867  0.819590 ->   0.1565624944
    6:   0.707107  0.000000  0.707107 /   0.610931  0.524831  0.592719 ->   0.4533024696
    7:   0.707107  0.707107  0.000000 /   0.583963  0.811780  0.000000 ->   0.2829079598

 END OF EFFECTIVE MASSES SECTION

 ---- first-order wavefunction calculations are completed ----

 Total localisation tensor (bohr^2) in cartesian coordinates
  WARNING : still subject to testing - especially symmetries.
      direction              matrix element
   alpha     beta       real part   imaginary part
     1        1      15.8376174265    0.0000000000
     1        2       4.3934082736    0.0000000000
     1        3       4.1546809035    0.0000000000
     2        1       4.3934082736    0.0000000000
     2        2       3.0092813641    0.0000000000
     2        3       1.2864596169    0.0000000000
     3        1       4.1546809035    0.0000000000
     3        2       1.2864596169    0.0000000000
     3        3       3.2441833967    0.0000000000

 respfn : d/dk was computed, but no 2DTE, so no DDB output.

== END DATASET(S) ==============================================================

 -outvars: echo values of variables after computation  --------
            acell      1.0000000000E+00  1.0000000000E+00  1.0000000000E+00 Bohr
              amu      8.54678000E+01  1.21753000E+02
             ecut      4.20000000E+01 Hartree
           etotal     -2.4735160092E+01
            fcart      0.0000000000E+00  0.0000000000E+00  0.0000000000E+00
                       0.0000000000E+00  0.0000000000E+00  0.0000000000E+00
                       0.0000000000E+00  0.0000000000E+00  0.0000000000E+00
                       0.0000000000E+00  0.0000000000E+00  0.0000000000E+00
                       0.0000000000E+00  0.0000000000E+00  0.0000000000E+00
                       0.0000000000E+00  0.0000000000E+00  0.0000000000E+00
-          fftalg         512
           irdden           1
           irdwfk           1
           istwfk        0    1
              ixc     -116133
              kpt      5.10763362E-01  4.89236638E-01  0.00000000E+00
                       0.00000000E+00  0.00000000E+00  5.00000000E-01
           kptopt           0
P           mkmem           2
P          mkqmem           2
P          mk1mem           2
            natom           6
            nband          48
           nbdbuf           4
            ngfft          80      80      96
             nkpt           2
            nstep        1000
             nsym           4
           ntypat           2
              occ      2.000000  2.000000  2.000000  2.000000  2.000000  2.000000
                       2.000000  2.000000  2.000000  2.000000  2.000000  2.000000
                       2.000000  2.000000  2.000000  2.000000  2.000000  2.000000
                       2.000000  2.000000  2.000000  2.000000  2.000000  2.000000
                       2.000000  2.000000  2.000000  2.000000  2.000000  2.000000
                       2.000000  2.000000  2.000000  2.000000  2.000000  2.000000
                       2.000000  2.000000  2.000000  0.000000  0.000000  0.000000
                       0.000000  0.000000  0.000000  0.000000  0.000000  0.000000
        optdriver           1
            prtwf          -1
            rfdir           1       1       1
           rfelfd           2
            rprim      1.3306421601E+01  0.0000000000E+00  3.2145566869E+00
                       1.0978082606E+01  7.5194785787E+00  3.2145566869E+00
                       0.0000000000E+00  0.0000000000E+00  1.6028480942E+01
          spgroup          12
           strten      0.0000000000E+00  0.0000000000E+00  0.0000000000E+00
                       0.0000000000E+00  0.0000000000E+00  0.0000000000E+00
           symrel      1  0  0   0  1  0   0  0  1      -1  0  0   0 -1  0   0  0 -1
                       0 -1  0  -1  0  0   0  0 -1       0  1  0   1  0  0   0  0  1
           tolwfr      1.00000000E-20
            typat      1  1  2  2  2  2
           useylm           1
              wtk        0.50000    0.50000
           xangst      2.1429233284E+00  6.6353695866E-01  3.1226391152E+00
                       1.0707882820E+01  3.3155997257E+00  8.7614079566E+00
                       5.6189121819E+00  1.7398456821E+00  4.1790118364E+00
                       1.2301177169E+00  3.8089490083E-01  7.8833134554E+00
                       1.1620688431E+01  3.5982417835E+00  4.0007336164E+00
                       7.2318939664E+00  2.2392910022E+00  7.7050352354E+00
            xcart      4.0495382145E+00  1.2539031309E+00  5.9009327395E+00
                       2.0234965992E+01  6.2655754478E+00  1.6556661576E+01
                       1.0618205188E+01  3.2878318527E+00  7.8971878769E+00
                       2.3245855962E+00  7.1978704799E-01  1.4897303450E+01
                       2.1959918611E+01  6.7996915307E+00  7.5602908656E+00
                       1.3666299019E+01  4.2316467260E+00  1.4560406439E+01
             xred      1.6675400000E-01  1.6675400000E-01  3.0126700000E-01
                       8.3324600000E-01  8.3324600000E-01  6.9873300000E-01
                       4.3724200000E-01  4.3724200000E-01  3.1731700000E-01
                       9.5723000000E-02  9.5723000000E-02  8.9103200000E-01
                       9.0427700000E-01  9.0427700000E-01  1.0896800000E-01
                       5.6275800000E-01  5.6275800000E-01  6.8268300000E-01
            znucl       37.00000   51.00000

- Timing analysis has been suppressed with timopt=0

 Suggested references for the acknowledgment of ABINIT usage.

 Calculation completed.
.Delivered  14 WARNINGs and   9 COMMENTs to log file.