.Version 9.5.1 of ABINIT

 ABINIT is a project of the Universite Catholique de Louvain,
 Corning Inc. and other collaborators, see ~abinit/doc/developers/contributors.txt .
 acknowledgments of the ABINIT effort.

.Starting date : Tue  4 May 2021.
- ( at 19h33 )

- input  file    -> /scratch/users/j/a/jabreu/flow_simple_6atoms/flow/w222/t1/run.abi
- output file    -> /scratch/users/j/a/jabreu/flow_simple_6atoms/flow/w222/t1/run.abo
- root for input  files -> /scratch/users/j/a/jabreu/flow_simple_6atoms/flow/w222/t1/indata/in
- root for output files -> /scratch/users/j/a/jabreu/flow_simple_6atoms/flow/w222/t1/outdata/out

 Symmetries : space group I-4 2 d (#122); Bravais tI (body-center tetrag.)
     intxc =       0      iscf =       7    lmnmax =      18     lnmax =       6
     mgfft =      60  mpssoang =       3    mqgrid =    3001     natom =       6
  nloc_mem =       1    nspden =       1   nspinor =       1    nsppol =       1
      nsym =       8    n1xccc =    2501    ntypat =       2    occopt =       1
   xclevel =       2
-    mband =          25        mffmem =           1         mkmem =           1
-   mkqmem =           1        mk1mem =           1           mpw =        8605
      nfft =      216000          nkpt =           1
  Rough estimation (10% accuracy) of disk space for files :

------------- Echo of variables that govern the present computation ------------
-
- outvars: echo of selected default values
-   iomode0 =  0 , fftalg0 =512 , wfoptalg0 =  0
-
- outvars: echo of global parameters not present in the input file
-  max_nthreads =    0
-
 -outvars: echo values of preprocessed input variables --------
            acell      1.0000000000E+00  1.0000000000E+00  1.0000000000E+00 Bohr
              amu      2.80855000E+01  1.59994000E+01
             ecut      4.40000000E+01 Hartree
-          fftalg         512
           irdden           1
           irdwfk           1
           istwfk        1
              ixc     -116133
           kptopt           0
P           mkmem           1
P          mkqmem           1
P          mk1mem           1
            natom           6
            nband          25
           nbdbuf           4
            ngfft          60      60      60
             nkpt           1
            nstep        1000
             nsym           8
           ntypat           2
              occ      2.000000  2.000000  2.000000  2.000000  2.000000  2.000000
                       2.000000  2.000000  2.000000  2.000000  2.000000  2.000000
                       2.000000  2.000000  2.000000  2.000000  0.000000  0.000000
                       0.000000  0.000000  0.000000  0.000000  0.000000  0.000000
                       0.000000
        optdriver           1
            prtwf          -1
            rfdir           1       1       1
           rfelfd           2
            rprim      8.2182304731E+00  0.0000000000E+00 -4.9916035454E+00
                      -2.6014424558E+00  7.7956275731E+00 -4.9916035454E+00
                       0.0000000000E+00  0.0000000000E+00  9.6153740470E+00
          spgroup         122
           symrel      1  0  0   0  1  0   0  0  1      -1 -1 -1   0  0  1   0  1  0
                       0  1  0   1  0  0  -1 -1 -1       0  0  1  -1 -1 -1   1  0  0
                       0  1  0   1  0  0   0  0  1      -1 -1 -1   0  0  1   1  0  0
                       1  0  0   0  1  0  -1 -1 -1       0  0  1  -1 -1 -1   0  1  0
            tnons      0.0000000  0.0000000  0.0000000    -0.2500000  0.2500000  0.5000000
                      -0.0000000  0.0000000  0.0000000    -0.2500000  0.2500000  0.5000000
                      -0.2500000  0.2500000  0.5000000    -0.0000000 -0.0000000 -0.0000000
                      -0.2500000  0.2500000  0.5000000    -0.0000000 -0.0000000  0.0000000
           tolwfr      1.00000000E-20
            typat      1  1  2  2  2  2
           useylm           1
           xangst      2.9175191817E+00  1.0313171096E+00 -9.7324431673E-02
                       0.0000000000E+00  0.0000000000E+00  0.0000000000E+00
                       2.5384842658E+00  2.5782927740E+00 -3.7464443733E-01
                       3.5045614501E+00  9.0117314089E-01  1.4033925576E+00
                       1.5874078622E+00  1.3014396869E-01 -2.7732000566E-01
                       4.0396231487E+00  5.1565855479E-01 -1.1407258413E+00
            xcart      5.5133122409E+00  1.9489068933E+00 -1.8391652190E-01
                       0.0000000000E+00  0.0000000000E+00  0.0000000000E+00
                       4.7970400549E+00  4.8722672332E+00 -7.0797538377E-01
                       6.6226613566E+00  1.7029704346E+00  2.6520275908E+00
                       2.9997661208E+00  2.4593645868E-01 -5.2405886187E-01
                       7.6337814312E+00  9.7445344664E-01 -2.1556594327E+00
             xred      7.5000000000E-01  2.5000000000E-01  5.0000000000E-01
                       0.0000000000E+00  0.0000000000E+00  0.0000000000E+00
                       7.8154800000E-01  6.2500000000E-01  6.5654800000E-01
                       8.7500000000E-01  2.1845200000E-01  8.4345200000E-01
                       3.7500000000E-01  3.1548000000E-02  1.5654800000E-01
                       9.6845200000E-01  1.2500000000E-01  3.4345200000E-01
            znucl       14.00000    8.00000

 chkinp: Checking input parameters for consistency.

== DATASET  1 ==================================================================
-   mpi_nproc: 1, omp_nthreads: -1 (-1 if OMP is not activated)

--- !DatasetInfo
iteration_state: {dtset: 1, }
dimensions: {natom: 6, nkpt: 1, mband: 25, nsppol: 1, nspinor: 1, nspden: 1, mpw: 8605, }
cutoff_energies: {ecut:  44.0, pawecutdg:  -1.0, }
electrons: {nelect:   3.20000000E+01, charge:   0.00000000E+00, occopt:   1.00000000E+00, tsmear:   1.00000000E-02, }
meta: {optdriver: 1, rfelfd: 2, }
...

 Real(R)+Recip(G) space primitive vectors, cartesian coordinates (Bohr,Bohr^-1):
 R(1)=  8.2182305  0.0000000 -4.9916035  G(1)=  0.1216807  0.0406055  0.0000000
 R(2)= -2.6014425  7.7956276 -4.9916035  G(2)=  0.0000000  0.1282770  0.0000000
 R(3)=  0.0000000  0.0000000  9.6153740  G(3)=  0.0631678  0.0876715  0.1040001
 Unit cell volume ucvol=  6.1602109E+02 bohr^3
 Angles (23,13,12)=  1.21273733E+02  1.21273733E+02  8.78076334E+01 degrees

 getcut: wavevector=  0.0000  0.0000  0.0000  ngfft=  60  60  60
         ecut(hartree)=     44.000   => boxcut(ratio)=   2.09038

--- Pseudopotential description ------------------------------------------------
- pspini: atom type   1  psp file is /scratch/users/j/a/jabreu/pseudos/PBEsol/Si.psp8
- pspatm: opening atomic psp file    /scratch/users/j/a/jabreu/pseudos/PBEsol/Si.psp8
- Si    ONCVPSP-3.3.0  r_core=   1.60303   1.72197   1.91712
- 14.00000   4.00000    180112                znucl, zion, pspdat
    8 -116133    2    4       600   0.00000   pspcod,pspxc,lmax,lloc,mmax,r2well
    5.99000000000000    4.00000000000000    0.00000000000000   rchrg,fchrg,qchrg
     nproj     2     2     2
     extension_switch     1
  pspatm : epsatm=    7.86468782
         --- l  ekb(1:nproj) -->
             0    5.384426    0.843824
             1    2.663259    0.615854
             2   -2.267219   -0.458043
 pspatm: atomic psp has been read  and splines computed

- pspini: atom type   2  psp file is /scratch/users/j/a/jabreu/pseudos/PBEsol/O.psp8
- pspatm: opening atomic psp file    /scratch/users/j/a/jabreu/pseudos/PBEsol/O.psp8
- O     ONCVPSP-3.3.0  r_core=   1.35509   1.45563   1.26150
-  8.00000   6.00000    180112                znucl, zion, pspdat
    8 -116133    2    4       600   0.00000   pspcod,pspxc,lmax,lloc,mmax,r2well
    5.99000000000000    4.00000000000000    0.00000000000000   rchrg,fchrg,qchrg
     nproj     2     2     1
     extension_switch     1
  pspatm : epsatm=    6.22910522
         --- l  ekb(1:nproj) -->
             0    6.050032    0.820363
             1   -4.739617   -1.153841
             2   -1.335834
 pspatm: atomic psp has been read  and splines computed

   1.30066549E+03                                ecore*ucvol(ha*bohr**3)

-inwffil : will read wavefunctions from disk file /scratch/users/j/a/jabreu/flow_simple_6atoms/flow/w222/t1/indata/in_WFK

 ==>  initialize data related to q vector <==

 The list of irreducible perturbations for this q vector is:
    1)    idir= 1    ipert=   7
    2)    idir= 2    ipert=   7
    3)    idir= 3    ipert=   7

 Perturbation wavevector (in red.coord.)   0.000000  0.000000  0.000000
 Perturbation : derivative vs k along direction   1

 dfpt_looppert : COMMENT -
  In a d/dk calculation, iscf is set to -3 automatically.
 The set of symmetries contains only one element for this perturbation.
 symkpt : not enough symmetry to change the number of k points.

[...]

 Initialisation of the first-order wave-functions :
  ireadwf=   0

--- !BeginCycle
iteration_state: {dtset: 1, }
solver: {iscf: 7, nstep: 1000, nline: 4, wfoptalg: 0, }
tolerances: {tolwfr: 1.00E-20, }
...

     iter   2DEtotal(Ha)        deltaE(Ha) residm    vres2
-ETOT  1  -22.576214195751     -2.258E+01 3.179E-02 0.000E+00
 ETOT  2  -22.590667029304     -1.445E-02 1.286E-03 0.000E+00
 ETOT  3  -22.590707014425     -3.999E-05 2.911E-05 0.000E+00
 ETOT  4  -22.590707282206     -2.678E-07 2.493E-06 0.000E+00
 ETOT  5  -22.590707284461     -2.254E-09 1.309E-07 0.000E+00
 ETOT  6  -22.590707284482     -2.111E-11 1.117E-08 0.000E+00
 ETOT  7  -22.590707284482     -1.954E-13 6.499E-10 0.000E+00
 ETOT  8  -22.590707284482      4.619E-14 5.552E-11 0.000E+00
 ETOT  9  -22.590707284482     -7.105E-15 3.370E-12 0.000E+00
 ETOT 10  -22.590707284482     -3.553E-15 2.880E-13 0.000E+00
 ETOT 11  -22.590707284482      0.000E+00 1.795E-14 0.000E+00
 ETOT 12  -22.590707284482      3.553E-15 1.533E-15 0.000E+00
 ETOT 13  -22.590707284482     -1.066E-14 9.724E-17 0.000E+00
 ETOT 14  -22.590707284482     -3.553E-15 8.298E-18 0.000E+00
 ETOT 15  -22.590707284482      0.000E+00 5.328E-19 0.000E+00
 ETOT 16  -22.590707284482      1.066E-14 4.546E-20 0.000E+00
 ETOT 17  -22.590707284482     -3.553E-15 9.399E-21 0.000E+00

 At SCF step   17   max residual=  9.40E-21 < tolwfr=  1.00E-20 =>converged.

 ----iterations are completed or convergence reached----

 dfpt_looppert: DFPT cycle converged with prtwf=-1. Will skip output of the 1st-order WFK file.
 dfpt_looppert : ek2=    4.1575506103E+01
          f-sum rule ratio=    1.0979121279E+00
 prteigrs : about to open file /scratch/users/j/a/jabreu/flow_simple_6atoms/flow/w222/t1/tmpdata/tmp_1WF1_EIG
 Expectation of eigenvalue derivatives (hartree) for nkpt=   1  k points:
  (in case of degenerate eigenvalues, averaged derivative)
 kpt#   1, nband= 25, wtk=  1.00000, kpt=  0.0000  0.0000  0.0000 (reduced coord)
  -0.00000    0.00000    0.00000    0.00000    0.00000   -0.00000   -0.00000    0.00000
   0.00000   -0.00000    0.00000    0.00000    0.00000    0.00000    0.00000    0.00000
  -0.00000   -0.00000    0.00000    0.00000    0.00000    0.00000    0.00000    0.00000
   0.00007

 Eight components of 2nd-order total energy (hartree) are
 1,2,3: 0th-order hamiltonian combined with 1st-order wavefunctions
     kin0=   2.62462341E+01 eigvalue=   1.70672084E+00  local=  -1.12247378E+01
 4,5,6: 1st-order hamiltonian combined with 1st and 0th-order wfs
     kin1=  -4.56462524E+01  Hartree=   0.00000000E+00     xc=   0.00000000E+00
 7,8,9: eventually, occupation + non-local contributions
    edocc=   7.20245662E+00     enl0=  -1.33996647E+00   enl1=   4.64837807E-01
 1-9 gives the relaxation energy (to be shifted if some occ is /=2.0)
   erelax=  -2.25907073E+01
  No Ewald or frozen-wf contrib.: the relaxation energy is the total one
 2DEtotal=   -0.2259070728E+02 Ha. Also 2DEtotal=   -0.614724407587E+03 eV
    (  non-var. 2DEtotal :   -2.2590707284E+01 Ha)

 Perturbation wavevector (in red.coord.)   0.000000  0.000000  0.000000
 Perturbation : derivative vs k along direction   2
 The set of symmetries contains only one element for this perturbation.
 symkpt : not enough symmetry to change the number of k points.

[...]

 Perturbation wavevector (in red.coord.)   0.000000  0.000000  0.000000
 Perturbation : derivative vs k along direction   3
 The set of symmetries contains only one element for this perturbation.
 symkpt : not enough symmetry to change the number of k points.

-inwffil : will read wavefunctions from disk file /scratch/users/j/a/jabreu/flow_simple_6atoms/flow/w222/t1/indata/in_WFK

 Initialisation of the first-order wave-functions :
  ireadwf=   0

--- !BeginCycle
iteration_state: {dtset: 1, }
solver: {iscf: 7, nstep: 1000, nline: 4, wfoptalg: 0, }
tolerances: {tolwfr: 1.00E-20, }
...

     iter   2DEtotal(Ha)        deltaE(Ha) residm    vres2
-ETOT  1  -30.579856771497     -3.058E+01 6.626E-02 0.000E+00
 ETOT  2  -30.596878993460     -1.702E-02 4.218E-03 0.000E+00
 ETOT  3  -30.596919089116     -4.010E-05 3.373E-05 0.000E+00
 ETOT  4  -30.596919290326     -2.012E-07 6.166E-06 0.000E+00
 ETOT  5  -30.596919291657     -1.331E-09 9.941E-08 0.000E+00
 ETOT  6  -30.596919291667     -1.086E-11 1.626E-08 0.000E+00
 ETOT  7  -30.596919291668     -6.750E-14 2.943E-10 0.000E+00
 ETOT  8  -30.596919291668     -1.066E-14 4.777E-11 0.000E+00
 ETOT  9  -30.596919291668     -1.066E-14 9.100E-13 0.000E+00
 ETOT 10  -30.596919291668      7.105E-15 1.459E-13 0.000E+00
 ETOT 11  -30.596919291668      7.105E-15 2.877E-15 0.000E+00
 ETOT 12  -30.596919291668      3.553E-15 4.577E-16 0.000E+00
 ETOT 13  -30.596919291668     -3.553E-15 9.291E-18 0.000E+00
 ETOT 14  -30.596919291668      0.000E+00 1.467E-18 0.000E+00
 ETOT 15  -30.596919291668      3.553E-15 3.046E-20 0.000E+00
 ETOT 16  -30.596919291668      3.553E-15 9.977E-21 0.000E+00

 At SCF step   16   max residual=  9.98E-21 < tolwfr=  1.00E-20 =>converged.

 ----iterations are completed or convergence reached----

 dfpt_looppert: DFPT cycle converged with prtwf=-1. Will skip output of the 1st-order WFK file.
 dfpt_looppert : ek2=    5.6829947839E+01
          f-sum rule ratio=    1.0863190766E+00
 prteigrs : about to open file /scratch/users/j/a/jabreu/flow_simple_6atoms/flow/w222/t1/tmpdata/tmp_1WF1_EIG
 Expectation of eigenvalue derivatives (hartree) for nkpt=   1  k points:
  (in case of degenerate eigenvalues, averaged derivative)
 kpt#   1, nband= 25, wtk=  1.00000, kpt=  0.0000  0.0000  0.0000 (reduced coord)
  -0.00000   -0.00000   -0.00000   -0.00000    0.00000   -0.00000   -0.00000    0.00000
   0.00000   -0.00000    0.00000    0.00000    0.00000    0.00000    0.00000    0.00000
   0.00000   -0.00000    0.00000    0.00000   -0.00000    0.00000    0.00000    0.00000
  -0.00007

 Eight components of 2nd-order total energy (hartree) are
 1,2,3: 0th-order hamiltonian combined with 1st-order wavefunctions
     kin0=   3.66005819E+01 eigvalue=   2.38829164E+00  local=  -1.58647741E+01
 4,5,6: 1st-order hamiltonian combined with 1st and 0th-order wfs
     kin1=  -6.17354565E+01  Hartree=   0.00000000E+00     xc=   0.00000000E+00
 7,8,9: eventually, occupation + non-local contributions
    edocc=   9.36457578E+00     enl0=  -1.89175591E+00   enl1=   5.41617876E-01
 1-9 gives the relaxation energy (to be shifted if some occ is /=2.0)
   erelax=  -3.05969193E+01
  No Ewald or frozen-wf contrib.: the relaxation energy is the total one
 2DEtotal=   -0.3059691929E+02 Ha. Also 2DEtotal=   -0.832584515779E+03 eV
    (  non-var. 2DEtotal :   -3.0596919292E+01 Ha)

 CALCULATION OF EFFECTIVE MASSES
 NOTE : Additional infos (eff. mass eigenvalues, eigenvectors and, if degenerate, average mass) are available in stdout.

 COMMENTS:
 - At k-point ( 0.000, 0.000, 0.000), bands    15 through    16
   are DEGENERATE (effective mass tensor is therefore not defined).
   See Section IIIB Eqs. (67)-(70) and Appendix E of PRB 93 205147 (2016).
 - Angular average effective mass for Frohlich model is to be averaged over degenerate bands. See later.
 - Associated theta integrals calculated with ntheta=   1000 points.

 K-point ( 0.000, 0.000, 0.000) | band =    15
 Transport equivalent effective mass tensor:
             -3.0167285280              0.0352166409             -0.0451660829
              0.0352166409             -2.9930669165             -0.0625329133
             -0.0451660829             -0.0625329133             -2.9618702043
 Transport equivalent effective mass tensor eigenvalues:
             -3.0421441099             -3.0419072667             -2.8876142722
 Angular average effective mass 1/(<1/m>)=  -2.6745670177
 Angular average effective mass for Frohlich model (<m**0.5>)**2=  -2.6908288040
 Effective masses along directions: (cart. coord. / red. coord. -> eff. mass)
    1:   1.000000  0.000000  0.000000 /   0.953376 -0.301787  0.000000 ->  -2.5883112697
    2:   0.000000  1.000000  0.000000 /   0.000000  1.000000  0.000000 ->  -2.4650592410
    3:   0.000000  0.000000  1.000000 /  -0.418462 -0.418462  0.806088 ->  -2.9204748852
    4:   0.577350  0.577350  0.577350 /   0.318072  0.019970  0.947856 ->  -3.2027262361
    5:   0.000000  0.707107  0.707107 /  -0.446045  0.250565  0.859221 ->  -2.6635566047
    6:   0.707107  0.000000  0.707107 /   0.254673 -0.599308  0.758928 ->  -2.4954507138
    7:   0.707107  0.707107  0.000000 /   0.845316  0.534267  0.000000 ->  -2.7373101210

 K-point ( 0.000, 0.000, 0.000) | band =    16
 Transport equivalent effective mass tensor:
             -5.9532105230              0.6678079738             -0.8523924700
              0.6678079738             -5.5121516634             -1.1867281588
             -0.8523924700             -1.1867281588             -4.9179406915
 Transport equivalent effective mass tensor eigenvalues:
             -6.4389881370             -6.4328309045             -3.5114838363
 Angular average effective mass 1/(<1/m>)=  -3.8063039825
 Angular average effective mass for Frohlich model (<m**0.5>)**2=  -4.0196227331
 Effective masses along directions: (cart. coord. / red. coord. -> eff. mass)
    1:   1.000000  0.000000  0.000000 /   0.953376 -0.301787  0.000000 ->  -4.8209912427
    2:   0.000000  1.000000  0.000000 /   0.000000  1.000000  0.000000 ->  -4.4120704162
    3:   0.000000  0.000000  1.000000 /  -0.418462 -0.418462  0.806088 ->  -2.9296840314
    4:   0.577350  0.577350  0.577350 /   0.318072  0.019970  0.947856 ->  -4.0815750414
    5:   0.000000  0.707107  0.707107 /  -0.446045  0.250565  0.859221 ->  -5.5647140822
    6:   0.707107  0.000000  0.707107 /   0.254673 -0.599308  0.758928 ->  -6.0991666019
    7:   0.707107  0.707107  0.000000 /   0.845316  0.534267  0.000000 ->  -3.2719525750

 Angular average effective mass for Frohlich model, averaged over degenerate bands.
 Value of     (<<m**0.5>>)**2 =     3.322006E+00
 Absolute Value of <<m**0.5>> =     1.822637E+00

 K-point ( 0.000, 0.000, 0.000) | band =    17
 Effective mass tensor:
              0.5566521582             -0.0016459044              0.0021077461
             -0.0016459044              0.5555536214              0.0029254159
              0.0021077461              0.0029254159              0.5540917259
 Effective mass tensor eigenvalues:
              0.5506214578              0.5578380206              0.5578380271
 Angular average effective mass 1/(<1/m>)=   0.5554115751
 Angular average effective mass for Frohlich model (<m**0.5>)**2=   0.5554178673
 Effective masses along directions: (cart. coord. / red. coord. -> eff. mass)
    1:   1.000000  0.000000  0.000000 /   0.953376 -0.301787  0.000000 ->   0.5566391979
    2:   0.000000  1.000000  0.000000 /   0.000000  1.000000  0.000000 ->   0.5555332435
    3:   0.000000  0.000000  1.000000 /  -0.418462 -0.418462  0.806088 ->   0.5540682746
    4:   0.577350  0.577350  0.577350 /   0.318072  0.019970  0.947856 ->   0.5576887823
    5:   0.000000  0.707107  0.707107 /  -0.446045  0.250565  0.859221 ->   0.5577469257
    6:   0.707107  0.000000  0.707107 /   0.254673 -0.599308  0.758928 ->   0.5574752278
    7:   0.707107  0.707107  0.000000 /   0.845316  0.534267  0.000000 ->   0.5544335775

 END OF EFFECTIVE MASSES SECTION

 ---- first-order wavefunction calculations are completed ----

 Total localisation tensor (bohr^2) in cartesian coordinates
  WARNING : still subject to testing - especially symmetries.
      direction              matrix element
   alpha     beta       real part   imaginary part
     1        1       0.8713228538    0.0000000000
     1        2      -0.2377984071    0.0000000000
     1        3      -0.3287628511    0.0000000000
     2        1      -0.2377984071    0.0000000000
     2        2       0.7125999712    0.0000000000
     2        3      -0.4562835396    0.0000000000
     3        1      -0.3287628511    0.0000000000
     3        2      -0.4562835396    0.0000000000
     3        3       2.0396544039    0.0000000000

 respfn : d/dk was computed, but no 2DTE, so no DDB output.

== END DATASET(S) ==============================================================

 -outvars: echo values of variables after computation  --------
            acell      1.0000000000E+00  1.0000000000E+00  1.0000000000E+00 Bohr
              amu      2.80855000E+01  1.59994000E+01
             ecut      4.40000000E+01 Hartree
           etotal     -3.0596919292E+01
            fcart      0.0000000000E+00  0.0000000000E+00  0.0000000000E+00
                       0.0000000000E+00  0.0000000000E+00  0.0000000000E+00
                       0.0000000000E+00  0.0000000000E+00  0.0000000000E+00
                       0.0000000000E+00  0.0000000000E+00  0.0000000000E+00
                       0.0000000000E+00  0.0000000000E+00  0.0000000000E+00
                       0.0000000000E+00  0.0000000000E+00  0.0000000000E+00
-          fftalg         512
           irdden           1
           irdwfk           1
           istwfk        1
              ixc     -116133
           kptopt           0
P           mkmem           1
P          mkqmem           1
P          mk1mem           1
            natom           6
            nband          25
           nbdbuf           4
            ngfft          60      60      60
             nkpt           1
            nstep        1000
             nsym           8
           ntypat           2
              occ      2.000000  2.000000  2.000000  2.000000  2.000000  2.000000
                       2.000000  2.000000  2.000000  2.000000  2.000000  2.000000
                       2.000000  2.000000  2.000000  2.000000  0.000000  0.000000
                       0.000000  0.000000  0.000000  0.000000  0.000000  0.000000
                       0.000000
        optdriver           1
            prtwf          -1
            rfdir           1       1       1
           rfelfd           2
            rprim      8.2182304731E+00  0.0000000000E+00 -4.9916035454E+00
                      -2.6014424558E+00  7.7956275731E+00 -4.9916035454E+00
                       0.0000000000E+00  0.0000000000E+00  9.6153740470E+00
          spgroup         122
           strten      0.0000000000E+00  0.0000000000E+00  0.0000000000E+00
                       0.0000000000E+00  0.0000000000E+00  0.0000000000E+00
           symrel      1  0  0   0  1  0   0  0  1      -1 -1 -1   0  0  1   0  1  0
                       0  1  0   1  0  0  -1 -1 -1       0  0  1  -1 -1 -1   1  0  0
                       0  1  0   1  0  0   0  0  1      -1 -1 -1   0  0  1   1  0  0
                       1  0  0   0  1  0  -1 -1 -1       0  0  1  -1 -1 -1   0  1  0
            tnons      0.0000000  0.0000000  0.0000000    -0.2500000  0.2500000  0.5000000
                      -0.0000000  0.0000000  0.0000000    -0.2500000  0.2500000  0.5000000
                      -0.2500000  0.2500000  0.5000000    -0.0000000 -0.0000000 -0.0000000
                      -0.2500000  0.2500000  0.5000000    -0.0000000 -0.0000000  0.0000000
           tolwfr      1.00000000E-20
            typat      1  1  2  2  2  2
           useylm           1
           xangst      2.9175191817E+00  1.0313171096E+00 -9.7324431673E-02
                       0.0000000000E+00  0.0000000000E+00  0.0000000000E+00
                       2.5384842658E+00  2.5782927740E+00 -3.7464443733E-01
                       3.5045614501E+00  9.0117314089E-01  1.4033925576E+00
                       1.5874078622E+00  1.3014396869E-01 -2.7732000566E-01
                       4.0396231487E+00  5.1565855479E-01 -1.1407258413E+00
            xcart      5.5133122409E+00  1.9489068933E+00 -1.8391652190E-01
                       0.0000000000E+00  0.0000000000E+00  0.0000000000E+00
                       4.7970400549E+00  4.8722672332E+00 -7.0797538377E-01
                       6.6226613566E+00  1.7029704346E+00  2.6520275908E+00
                       2.9997661208E+00  2.4593645868E-01 -5.2405886187E-01
                       7.6337814312E+00  9.7445344664E-01 -2.1556594327E+00
             xred      7.5000000000E-01  2.5000000000E-01  5.0000000000E-01
                       0.0000000000E+00  0.0000000000E+00  0.0000000000E+00
                       7.8154800000E-01  6.2500000000E-01  6.5654800000E-01
                       8.7500000000E-01  2.1845200000E-01  8.4345200000E-01
                       3.7500000000E-01  3.1548000000E-02  1.5654800000E-01
                       9.6845200000E-01  1.2500000000E-01  3.4345200000E-01
            znucl       14.00000    8.00000

- Timing analysis has been suppressed with timopt=0

 Suggested references for the acknowledgment of ABINIT usage.

 Calculation completed.
.Delivered   6 WARNINGs and   5 COMMENTs to log file.