.Version 9.5.2 of ABINIT

 ABINIT is a project of the Universite Catholique de Louvain,
 Corning Inc. and other collaborators, see ~abinit/doc/developers/contributors.txt .
 acknowledgments of the ABINIT effort.

.Starting date : Mon 31 May 2021.
- ( at 22h03 )

- input  file    -> /scratch/users/j/a/jabreu/flow_simple_11atoms/flow/w335/t1/run.abi
- output file    -> /scratch/users/j/a/jabreu/flow_simple_11atoms/flow/w335/t1/run.abo
- root for input  files -> /scratch/users/j/a/jabreu/flow_simple_11atoms/flow/w335/t1/indata/in
- root for output files -> /scratch/users/j/a/jabreu/flow_simple_11atoms/flow/w335/t1/outdata/out

 Symmetries : space group Cm c m (# 63); Bravais oC (1-face-center ortho.)
     intxc =       0      iscf =       7    lmnmax =      32     lnmax =       8
     mgfft =      72  mpssoang =       4    mqgrid =    3157     natom =      12
  nloc_mem =       1    nspden =       1   nspinor =       1    nsppol =       1
      nsym =       8    n1xccc =    2501    ntypat =       4    occopt =       1
   xclevel =       2
-    mband =          57        mffmem =           1         mkmem =           2
-   mkqmem =           2        mk1mem =           2           mpw =       17556
      nfft =      331776          nkpt =           2
  Rough estimation (10% accuracy) of disk space for files :

------------- Echo of variables that govern the present computation ------------
-
- outvars: echo of selected default values
-   iomode0 =  0 , fftalg0 =512 , wfoptalg0 =  0
-
- outvars: echo of global parameters not present in the input file
-  max_nthreads =    0
-
 -outvars: echo values of preprocessed input variables --------
            acell      1.0000000000E+00  1.0000000000E+00  1.0000000000E+00 Bohr
              amu      1.32905430E+02  2.29897680E+01  4.78800000E+01
                       1.59994000E+01
             ecut      4.40000000E+01 Hartree
-          fftalg         512
           irdden           1
           irdwfk           1
           istwfk        0    1
              ixc     -116133
              kpt     -5.00000000E-01  5.00000000E-01  0.00000000E+00
                       0.00000000E+00  0.00000000E+00  0.00000000E+00
           kptopt           0
P           mkmem           2
P          mkqmem           2
P          mk1mem           2
            natom          12
            nband          57
           nbdbuf           4
            ngfft          72      72      64
             nkpt           2
            nstep        2000
             nsym           8
           ntypat           4
              occ      2.000000  2.000000  2.000000  2.000000  2.000000  2.000000
                       2.000000  2.000000  2.000000  2.000000  2.000000  2.000000
                       2.000000  2.000000  2.000000  2.000000  2.000000  2.000000
                       2.000000  2.000000  2.000000  2.000000  2.000000  2.000000
                       2.000000  2.000000  2.000000  2.000000  2.000000  2.000000
                       2.000000  2.000000  2.000000  2.000000  2.000000  2.000000
                       2.000000  2.000000  2.000000  2.000000  2.000000  2.000000
                       2.000000  2.000000  2.000000  2.000000  2.000000  2.000000
                       0.000000  0.000000  0.000000  0.000000  0.000000  0.000000
                       0.000000  0.000000  0.000000
        optdriver           1
            prtwf          -1
            rfdir           1       1       1
           rfelfd           2
            rprim      1.1958774017E+01  0.0000000000E+00  0.0000000000E+00
                      -6.6289077847E+00  9.9533842268E+00  0.0000000000E+00
                       0.0000000000E+00  0.0000000000E+00  1.0570420220E+01
          spgroup          63
           symrel      1  0  0   0  1  0   0  0  1      -1  0  0   0 -1  0   0  0 -1
                       0  1  0   1  0  0   0  0 -1       0 -1  0  -1  0  0   0  0  1
                      -1  0  0   0 -1  0   0  0  1       1  0  0   0  1  0   0  0 -1
                       0 -1  0  -1  0  0   0  0 -1       0  1  0   1  0  0   0  0  1
            tnons      0.0000000  0.0000000  0.0000000     0.0000000  0.0000000  0.0000000
                       0.0000000  0.0000000  0.0000000     0.0000000  0.0000000  0.0000000
                       0.0000000  0.0000000  0.5000000     0.0000000  0.0000000  0.5000000
                       0.0000000  0.0000000  0.5000000     0.0000000  0.0000000  0.5000000
           tolwfr      1.00000000E-20
            typat      1  1  2  2  3  3  4  4  4  4  4  4
           useylm           1
              wtk        0.50000    0.50000
           xangst      3.7053365245E+00  1.4045575769E+00  1.3984063664E+00
                      -8.8489278967E-01  3.8625465043E+00  4.1952190992E+00
                       2.1390236083E+00  2.2432912308E+00  4.1952190992E+00
                       6.8142012655E-01  3.0238128504E+00  1.3984063664E+00
                       5.8488166681E+00  2.5676078975E-01  4.1952190992E+00
                      -3.0283729333E+00  5.0103432914E+00  1.3984063664E+00
                       4.3058941822E+00  1.0829692701E+00  4.1952190992E+00
                       2.2235870725E+00  4.1524900497E+00  0.0000000000E+00
                       5.9685666227E-01  1.1146140314E+00  2.7968127328E+00
                       2.2235870725E+00  4.1524900497E+00  2.7968127328E+00
                       5.9685666227E-01  1.1146140314E+00  0.0000000000E+00
                      -1.4854504474E+00  4.1841348110E+00  1.3984063664E+00
            xcart      7.0020712614E+00  2.6542291582E+00  2.6426050550E+00
                      -1.6722050294E+00  7.2991550686E+00  7.9278151649E+00
                       4.0421688114E+00  4.2392060625E+00  7.9278151649E+00
                       1.2876974206E+00  5.7141781643E+00  2.6426050550E+00
                       1.1052661704E+01  4.8520757429E-01  7.9278151649E+00
                      -5.7227954722E+00  9.4681766525E+00  2.6426050550E+00
                       8.1369607615E+00  2.0465153309E+00  7.9278151649E+00
                       4.2019705997E+00  7.8470689635E+00  0.0000000000E+00
                       1.1278956323E+00  2.1063152633E+00  5.2852101099E+00
                       4.2019705997E+00  7.8470689635E+00  5.2852101099E+00
                       1.1278956323E+00  2.1063152633E+00  0.0000000000E+00
                      -2.8070945295E+00  7.9068688959E+00  2.6426050550E+00
             xred      7.3333400000E-01  2.6666600000E-01  2.5000000000E-01
                       2.6666600000E-01  7.3333400000E-01  7.5000000000E-01
                       5.7409400000E-01  4.2590600000E-01  7.5000000000E-01
                       4.2590600000E-01  5.7409400000E-01  2.5000000000E-01
                       9.5125200000E-01  4.8748000000E-02  7.5000000000E-01
                       4.8748000000E-02  9.5125200000E-01  2.5000000000E-01
                       7.9439000000E-01  2.0561000000E-01  7.5000000000E-01
                       7.8838200000E-01  7.8838200000E-01  0.0000000000E+00
                       2.1161800000E-01  2.1161800000E-01  5.0000000000E-01
                       7.8838200000E-01  7.8838200000E-01  5.0000000000E-01
                       2.1161800000E-01  2.1161800000E-01  0.0000000000E+00
                       2.0561000000E-01  7.9439000000E-01  2.5000000000E-01
            znucl       55.00000   11.00000   22.00000    8.00000

 chkinp: Checking input parameters for consistency.

== DATASET  1 ==================================================================
-   mpi_nproc: 1, omp_nthreads: -1 (-1 if OMP is not activated)

--- !DatasetInfo
iteration_state: {dtset: 1, }
dimensions: {natom: 12, nkpt: 2, mband: 57, nsppol: 1, nspinor: 1, nspden: 1, mpw: 17556, }
cutoff_energies: {ecut:  44.0, pawecutdg:  -1.0, }
electrons: {nelect:   9.60000000E+01, charge:   0.00000000E+00, occopt:   1.00000000E+00, tsmear:   1.00000000E-02, }
meta: {optdriver: 1, rfelfd: 2, }
...

 Real(R)+Recip(G) space primitive vectors, cartesian coordinates (Bohr,Bohr^-1):
 R(1)= 11.9587740  0.0000000  0.0000000  G(1)=  0.0836206  0.0556909  0.0000000
 R(2)= -6.6289078  9.9533842  0.0000000  G(2)=  0.0000000  0.1004683  0.0000000
 R(3)=  0.0000000  0.0000000 10.5704202  G(3)=  0.0000000  0.0000000  0.0946036
 Unit cell volume ucvol=  1.2582000E+03 bohr^3
 Angles (23,13,12)=  9.00000000E+01  9.00000000E+01  1.23663431E+02 degrees

 getcut: wavevector=  0.0000  0.0000  0.0000  ngfft=  72  72  64
         ecut(hartree)=     44.000   => boxcut(ratio)=   2.01630

--- Pseudopotential description ------------------------------------------------
- pspini: atom type   1  psp file is /scratch/users/j/a/jabreu/pseudos/PBEsol/Cs.psp8
- pspatm: opening atomic psp file    /scratch/users/j/a/jabreu/pseudos/PBEsol/Cs.psp8
- Cs    ONCVPSP-3.3.0  r_core=   2.27353   1.85623   2.01788   1.90105
- 55.00000   9.00000    180112                znucl, zion, pspdat
    8 -116133    3    4       600   0.00000   pspcod,pspxc,lmax,lloc,mmax,r2well
    5.99000000000000    5.00000000000000    0.00000000000000   rchrg,fchrg,qchrg
     nproj     2     2     2     2
     extension_switch     1
  pspatm : epsatm=   22.12462445
         --- l  ekb(1:nproj) -->
             0    6.214110    0.767882
             1    6.311966    0.793598
             2    3.769790    0.913105
             3   -9.247129   -2.432478
 pspatm: atomic psp has been read  and splines computed

- pspini: atom type   2  psp file is /scratch/users/j/a/jabreu/pseudos/PBEsol/Na.psp8
- pspatm: opening atomic psp file    /scratch/users/j/a/jabreu/pseudos/PBEsol/Na.psp8
- Na    ONCVPSP-3.3.0  r_core=   1.20708   1.55069
- 11.00000   9.00000    180112                znucl, zion, pspdat
    8 -116133    1    4       400   0.00000   pspcod,pspxc,lmax,lloc,mmax,r2well
    3.99000000000000    0.00000000000000    0.00000000000000   rchrg,fchrg,qchrg
     nproj     2     2
     extension_switch     1
  pspatm : epsatm=    9.32878306
         --- l  ekb(1:nproj) -->
             0    2.657905   -0.678300
             1   -6.761319   -2.404728
 pspatm: atomic psp has been read  and splines computed

[...]

- pspini: atom type   4  psp file is /scratch/users/j/a/jabreu/pseudos/PBEsol/O.psp8
- pspatm: opening atomic psp file    /scratch/users/j/a/jabreu/pseudos/PBEsol/O.psp8
- O     ONCVPSP-3.3.0  r_core=   1.35509   1.45563   1.26150
-  8.00000   6.00000    180112                znucl, zion, pspdat
    8 -116133    2    4       600   0.00000   pspcod,pspxc,lmax,lloc,mmax,r2well
    5.99000000000000    4.00000000000000    0.00000000000000   rchrg,fchrg,qchrg
     nproj     2     2     1
     extension_switch     1
  pspatm : epsatm=    6.22910522
         --- l  ekb(1:nproj) -->
             0    6.050032    0.820363
             1   -4.739617   -1.153841
             2   -1.335834
 pspatm: atomic psp has been read  and splines computed

   1.24627051E+04                                ecore*ucvol(ha*bohr**3)

 ==>  initialize data related to q vector <==

 The list of irreducible perturbations for this q vector is:
    1)    idir= 1    ipert=  13
    2)    idir= 2    ipert=  13
    3)    idir= 3    ipert=  13

[...]
 ETOT 14  -37.093459702337      1.421E-14 1.672E-06 0.000E+00
 ETOT 15  -37.093459702337     -2.132E-14 1.239E-06 0.000E+00
 ETOT 16  -37.093459702337      3.553E-14 7.840E-07 0.000E+00
 ETOT 17  -37.093459702337     -2.842E-14 5.870E-07 0.000E+00
 ETOT 18  -37.093459702337     -7.105E-15 3.687E-07 0.000E+00
 ETOT 19  -37.093459702337      2.132E-14 2.786E-07 0.000E+00
 ETOT 20  -37.093459702337      7.105E-15 1.737E-07 0.000E+00
 ETOT 21  -37.093459702337     -7.105E-15 1.324E-07 0.000E+00
 ETOT 22  -37.093459702337     -1.421E-14 8.195E-08 0.000E+00
 ETOT 23  -37.093459702337      7.105E-15 6.296E-08 0.000E+00
 ETOT 24  -37.093459702337      7.105E-15 3.872E-08 0.000E+00
 ETOT 25  -37.093459702337     -7.105E-15 2.996E-08 0.000E+00
 ETOT 26  -37.093459702337      7.105E-15 1.831E-08 0.000E+00
 ETOT 27  -37.093459702337     -7.105E-15 1.427E-08 0.000E+00
 ETOT 28  -37.093459702337     -7.105E-15 8.666E-09 0.000E+00
 ETOT 29  -37.093459702337      0.000E+00 6.797E-09 0.000E+00
 ETOT 30  -37.093459702337      7.105E-15 4.105E-09 0.000E+00
 ETOT 31  -37.093459702337      0.000E+00 3.240E-09 0.000E+00
 ETOT 32  -37.093459702337      0.000E+00 1.946E-09 0.000E+00
 ETOT 33  -37.093459702337      0.000E+00 1.545E-09 0.000E+00
 ETOT 34  -37.093459702337      0.000E+00 9.233E-10 0.000E+00
 ETOT 35  -37.093459702337      7.105E-15 7.367E-10 0.000E+00
 ETOT 36  -37.093459702337     -7.105E-15 4.383E-10 0.000E+00
 ETOT 37  -37.093459702337      0.000E+00 3.515E-10 0.000E+00
 ETOT 38  -37.093459702337      7.105E-15 2.082E-10 0.000E+00
 ETOT 39  -37.093459702337      7.105E-15 1.677E-10 0.000E+00
 ETOT 40  -37.093459702337      0.000E+00 9.894E-11 0.000E+00
 ETOT 41  -37.093459702337     -7.105E-15 8.007E-11 0.000E+00
 ETOT 42  -37.093459702337     -1.421E-14 4.704E-11 0.000E+00
 ETOT 43  -37.093459702337     -1.421E-14 3.823E-11 0.000E+00
 ETOT 44  -37.093459702337      2.132E-14 2.238E-11 0.000E+00
 ETOT 45  -37.093459702337      0.000E+00 1.826E-11 0.000E+00
 ETOT 46  -37.093459702337     -7.105E-15 1.065E-11 0.000E+00
 ETOT 47  -37.093459702337     -7.105E-15 8.719E-12 0.000E+00
 ETOT 48  -37.093459702337      0.000E+00 5.070E-12 0.000E+00
 ETOT 49  -37.093459702337     -7.105E-15 4.165E-12 0.000E+00
 ETOT 50  -37.093459702337      1.421E-14 2.414E-12 0.000E+00
 ETOT 51  -37.093459702337      7.105E-15 1.990E-12 0.000E+00
 ETOT 52  -37.093459702337     -1.421E-14 1.150E-12 0.000E+00
 ETOT 53  -37.093459702337     -2.132E-14 9.509E-13 0.000E+00
 ETOT 54  -37.093459702337      0.000E+00 5.481E-13 0.000E+00
 ETOT 55  -37.093459702337      0.000E+00 4.544E-13 0.000E+00
 ETOT 56  -37.093459702337      2.842E-14 2.613E-13 0.000E+00
 ETOT 57  -37.093459702337     -2.842E-14 2.172E-13 0.000E+00
 ETOT 58  -37.093459702337      2.842E-14 1.246E-13 0.000E+00
 ETOT 59  -37.093459702337      0.000E+00 1.038E-13 0.000E+00
 ETOT 60  -37.093459702337     -7.105E-15 5.940E-14 0.000E+00
 ETOT 61  -37.093459702337     -7.105E-15 4.963E-14 0.000E+00
[...]
 ETOT 89  -37.093459702337      7.105E-15 1.625E-18 0.000E+00
 ETOT 90  -37.093459702337      0.000E+00 9.086E-19 0.000E+00
 ETOT 91  -37.093459702337     -7.105E-15 7.772E-19 0.000E+00
 ETOT 92  -37.093459702337     -1.421E-14 4.342E-19 0.000E+00
 ETOT 93  -37.093459702337      2.132E-14 3.718E-19 0.000E+00
 ETOT 94  -37.093459702337     -1.421E-14 2.075E-19 0.000E+00
 ETOT 95  -37.093459702337      1.421E-14 1.779E-19 0.000E+00
 ETOT 96  -37.093459702337     -7.105E-15 9.918E-20 0.000E+00
 ETOT 97  -37.093459702337      0.000E+00 8.511E-20 0.000E+00
 ETOT 98  -37.093459702337      1.421E-14 4.741E-20 0.000E+00
 ETOT 99  -37.093459702337     -1.421E-14 4.072E-20 0.000E+00
 ETOT  100  -37.093459702337      7.105E-15 2.266E-20 0.000E+00
 ETOT  101  -37.093459702337      0.000E+00 1.948E-20 0.000E+00
 ETOT  102  -37.093459702337      0.000E+00 1.083E-20 0.000E+00
 ETOT  103  -37.093459702337      0.000E+00 9.883E-21 0.000E+00

 At SCF step  103   max residual=  9.88E-21 < tolwfr=  1.00E-20 =>converged.

 ----iterations are completed or convergence reached----

 dfpt_looppert: DFPT cycle converged with prtwf=-1. Will skip output of the 1st-order WFK file.
 dfpt_looppert : ek2=    6.7838534902E+01
          f-sum rule ratio=    1.0501127608E+00
 prteigrs : about to open file /scratch/users/j/a/jabreu/flow_simple_11atoms/flow/w335/t1/tmpdata/tmp_1WF1_EIG
 Expectation of eigenvalue derivatives (hartree) for nkpt=   2  k points:
  (in case of degenerate eigenvalues, averaged derivative)
 kpt#   1, nband= 57, wtk=  0.50000, kpt= -0.5000  0.5000  0.0000 (reduced coord)
   0.00000   -0.00000   -0.00000   -0.00000    0.00000    0.00000    0.00000    0.00000
  -0.00000    0.00000    0.00000   -0.00000   -0.00000    0.00000    0.00000   -0.00000
   0.00000    0.00000    0.00000   -0.00000   -0.00000   -0.00000    0.00000   -0.00000
   0.00000   -0.00000   -0.00000    0.00000   -0.00000   -0.00000    0.00000    0.00000
  -0.00000   -0.00000   -0.00000   -0.00000    0.00000    0.00000   -0.00000    0.00000
   0.00000   -0.00000    0.00000   -0.00000    0.00000    0.00000    0.00000   -0.00000
  -0.00000   -0.00000   -0.00000    0.00000    0.00000    0.00000    0.00000    0.00000
  -0.00000
 prteigrs : prtvol=0 or 1, do not print more k-points.

 Eight components of 2nd-order total energy (hartree) are
 1,2,3: 0th-order hamiltonian combined with 1st-order wavefunctions
     kin0=   6.42303912E+01 eigvalue=   9.78881478E-01  local=  -3.27061892E+01
 4,5,6: 1st-order hamiltonian combined with 1st and 0th-order wfs
     kin1=  -7.12381112E+01  Hartree=   0.00000000E+00     xc=   0.00000000E+00
 7,8,9: eventually, occupation + non-local contributions
    edocc=   5.58523325E+00     enl0=  -9.94857032E-01   enl1=  -2.94880823E+00
 1-9 gives the relaxation energy (to be shifted if some occ is /=2.0)
   erelax=  -3.70934597E+01
  No Ewald or frozen-wf contrib.: the relaxation energy is the total one
 2DEtotal=   -0.3709345970E+02 Ha. Also 2DEtotal=   -0.100936437066E+04 eV
    (  non-var. 2DEtotal :   -3.7093459702E+01 Ha)

 CALCULATION OF EFFECTIVE MASSES
 NOTE : Additional infos (eff. mass eigenvalues, eigenvectors and, if degenerate, average mass) are available in stdout.

 K-point (-0.500, 0.500, 0.000) | band =    48
 Effective mass tensor:
             -8.7839996092             -6.2763890278             -0.0000000004
             -6.2763890278            -17.1440916332             -0.0000000007
             -0.0000000004             -0.0000000007             -0.6916336274
 Effective mass tensor eigenvalues:
            -20.5049901171             -5.4231011252             -0.6916336274
 Angular average effective mass 1/(<1/m>)=  -1.7867595888
 Angular average effective mass for Frohlich model (<m**0.5>)**2=  -2.9399163373
 Effective masses along directions: (cart. coord. / red. coord. -> eff. mass)
    1:   1.000000  0.000000  0.000000 /   0.874618 -0.484812  0.000000 ->  -6.4862366205
    2:   0.000000  1.000000  0.000000 /   0.000000  1.000000  0.000000 -> -12.6594535433
    3:   0.000000  0.000000  1.000000 /   0.000000  0.000000  1.000000 ->  -0.6916336274
    4:   0.577350  0.577350  0.577350 /   0.733518  0.203914  0.648360 ->  -1.9155459984
    5:   0.000000  0.707107  0.707107 /   0.000000  0.685538  0.728037 ->  -1.3116091092
    6:   0.707107  0.000000  0.707107 /   0.691954 -0.383559  0.611622 ->  -1.2499806230
    7:   0.707107  0.707107  0.000000 /   0.963464  0.267838  0.000000 -> -16.6277429806

 K-point ( 0.000, 0.000, 0.000) | band =    49
 Effective mass tensor:
              2.7021680713             -0.6540763205             -0.0000001919
             -0.6540763205              1.8309421508              0.0000000561
             -0.0000001919              0.0000000561              0.9947674017
 Effective mass tensor eigenvalues:
              0.9947674017              1.4806960371              3.0524141850
 Angular average effective mass 1/(<1/m>)=   1.4938544932
 Angular average effective mass for Frohlich model (<m**0.5>)**2=   1.5819580651
 Effective masses along directions: (cart. coord. / red. coord. -> eff. mass)
    1:   1.000000  0.000000  0.000000 /   0.874618 -0.484812  0.000000 ->   2.4685092237
    2:   0.000000  1.000000  0.000000 /   0.000000  1.000000  0.000000 ->   1.6726189741
    3:   0.000000  0.000000  1.000000 /   0.000000  0.000000  1.000000 ->   0.9947674017
    4:   0.577350  0.577350  0.577350 /   0.733518  0.203914  0.648360 ->   1.3056753504
    5:   0.000000  0.707107  0.707107 /   0.000000  0.685538  0.728037 ->   1.2475634262
    6:   0.707107  0.000000  0.707107 /   0.691954 -0.383559  0.611622 ->   1.4180745741
    7:   0.707107  0.707107  0.000000 /   0.963464  0.267838  0.000000 ->   1.5475070009

 END OF EFFECTIVE MASSES SECTION

 ---- first-order wavefunction calculations are completed ----

 Total localisation tensor (bohr^2) in cartesian coordinates
  WARNING : still subject to testing - especially symmetries.
      direction              matrix element
   alpha     beta       real part   imaginary part
     1        1       1.4192341366    0.0000000000
     1        2      -0.5008761314    0.0000000000
     1        3       0.0000000000    0.0000000000
     2        1      -0.5008761314    0.0000000000
     2        2       0.7520714946    0.0000000000
     2        3       0.0000000000    0.0000000000
     3        1       0.0000000000    0.0000000000
     3        2       0.0000000000    0.0000000000
     3        3       0.7610165747    0.0000000000

 respfn : d/dk was computed, but no 2DTE, so no DDB output.

== END DATASET(S) ==============================================================

 -outvars: echo values of variables after computation  --------
            acell      1.0000000000E+00  1.0000000000E+00  1.0000000000E+00 Bohr
              amu      1.32905430E+02  2.29897680E+01  4.78800000E+01
                       1.59994000E+01
             ecut      4.40000000E+01 Hartree
           etotal     -3.7093459702E+01
            fcart      0.0000000000E+00  0.0000000000E+00  0.0000000000E+00
                       0.0000000000E+00  0.0000000000E+00  0.0000000000E+00
                       0.0000000000E+00  0.0000000000E+00  0.0000000000E+00
                       0.0000000000E+00  0.0000000000E+00  0.0000000000E+00
                       0.0000000000E+00  0.0000000000E+00  0.0000000000E+00
                       0.0000000000E+00  0.0000000000E+00  0.0000000000E+00
                       0.0000000000E+00  0.0000000000E+00  0.0000000000E+00
                       0.0000000000E+00  0.0000000000E+00  0.0000000000E+00
                       0.0000000000E+00  0.0000000000E+00  0.0000000000E+00
                       0.0000000000E+00  0.0000000000E+00  0.0000000000E+00
                       0.0000000000E+00  0.0000000000E+00  0.0000000000E+00
                       0.0000000000E+00  0.0000000000E+00  0.0000000000E+00
-          fftalg         512
           irdden           1
           irdwfk           1
           istwfk        0    1
              ixc     -116133
              kpt     -5.00000000E-01  5.00000000E-01  0.00000000E+00
                       0.00000000E+00  0.00000000E+00  0.00000000E+00
           kptopt           0
P           mkmem           2
P          mkqmem           2
P          mk1mem           2
            natom          12
            nband          57
           nbdbuf           4
            ngfft          72      72      64
             nkpt           2
            nstep        2000
             nsym           8
           ntypat           4
              occ      2.000000  2.000000  2.000000  2.000000  2.000000  2.000000
                       2.000000  2.000000  2.000000  2.000000  2.000000  2.000000
                       2.000000  2.000000  2.000000  2.000000  2.000000  2.000000
                       2.000000  2.000000  2.000000  2.000000  2.000000  2.000000
                       2.000000  2.000000  2.000000  2.000000  2.000000  2.000000
                       2.000000  2.000000  2.000000  2.000000  2.000000  2.000000
                       2.000000  2.000000  2.000000  2.000000  2.000000  2.000000
                       2.000000  2.000000  2.000000  2.000000  2.000000  2.000000
                       0.000000  0.000000  0.000000  0.000000  0.000000  0.000000
                       0.000000  0.000000  0.000000
        optdriver           1
            prtwf          -1
            rfdir           1       1       1
           rfelfd           2
            rprim      1.1958774017E+01  0.0000000000E+00  0.0000000000E+00
                      -6.6289077847E+00  9.9533842268E+00  0.0000000000E+00
                       0.0000000000E+00  0.0000000000E+00  1.0570420220E+01
          spgroup          63
           strten      0.0000000000E+00  0.0000000000E+00  0.0000000000E+00
                       0.0000000000E+00  0.0000000000E+00  0.0000000000E+00
           symrel      1  0  0   0  1  0   0  0  1      -1  0  0   0 -1  0   0  0 -1
                       0  1  0   1  0  0   0  0 -1       0 -1  0  -1  0  0   0  0  1
                      -1  0  0   0 -1  0   0  0  1       1  0  0   0  1  0   0  0 -1
                       0 -1  0  -1  0  0   0  0 -1       0  1  0   1  0  0   0  0  1
            tnons      0.0000000  0.0000000  0.0000000     0.0000000  0.0000000  0.0000000
                       0.0000000  0.0000000  0.0000000     0.0000000  0.0000000  0.0000000
                       0.0000000  0.0000000  0.5000000     0.0000000  0.0000000  0.5000000
                       0.0000000  0.0000000  0.5000000     0.0000000  0.0000000  0.5000000
           tolwfr      1.00000000E-20
            typat      1  1  2  2  3  3  4  4  4  4  4  4
           useylm           1
              wtk        0.50000    0.50000
           xangst      3.7053365245E+00  1.4045575769E+00  1.3984063664E+00
                      -8.8489278967E-01  3.8625465043E+00  4.1952190992E+00
                       2.1390236083E+00  2.2432912308E+00  4.1952190992E+00
                       6.8142012655E-01  3.0238128504E+00  1.3984063664E+00
                       5.8488166681E+00  2.5676078975E-01  4.1952190992E+00
                      -3.0283729333E+00  5.0103432914E+00  1.3984063664E+00
                       4.3058941822E+00  1.0829692701E+00  4.1952190992E+00
                       2.2235870725E+00  4.1524900497E+00  0.0000000000E+00
                       5.9685666227E-01  1.1146140314E+00  2.7968127328E+00
                       2.2235870725E+00  4.1524900497E+00  2.7968127328E+00
                       5.9685666227E-01  1.1146140314E+00  0.0000000000E+00
                      -1.4854504474E+00  4.1841348110E+00  1.3984063664E+00
            xcart      7.0020712614E+00  2.6542291582E+00  2.6426050550E+00
                      -1.6722050294E+00  7.2991550686E+00  7.9278151649E+00
                       4.0421688114E+00  4.2392060625E+00  7.9278151649E+00
                       1.2876974206E+00  5.7141781643E+00  2.6426050550E+00
                       1.1052661704E+01  4.8520757429E-01  7.9278151649E+00
                      -5.7227954722E+00  9.4681766525E+00  2.6426050550E+00
                       8.1369607615E+00  2.0465153309E+00  7.9278151649E+00
                       4.2019705997E+00  7.8470689635E+00  0.0000000000E+00
                       1.1278956323E+00  2.1063152633E+00  5.2852101099E+00
                       4.2019705997E+00  7.8470689635E+00  5.2852101099E+00
                       1.1278956323E+00  2.1063152633E+00  0.0000000000E+00
                      -2.8070945295E+00  7.9068688959E+00  2.6426050550E+00
             xred      7.3333400000E-01  2.6666600000E-01  2.5000000000E-01
                       2.6666600000E-01  7.3333400000E-01  7.5000000000E-01
                       5.7409400000E-01  4.2590600000E-01  7.5000000000E-01
                       4.2590600000E-01  5.7409400000E-01  2.5000000000E-01
                       9.5125200000E-01  4.8748000000E-02  7.5000000000E-01
                       4.8748000000E-02  9.5125200000E-01  2.5000000000E-01
                       7.9439000000E-01  2.0561000000E-01  7.5000000000E-01
                       7.8838200000E-01  7.8838200000E-01  0.0000000000E+00
                       2.1161800000E-01  2.1161800000E-01  5.0000000000E-01
                       7.8838200000E-01  7.8838200000E-01  5.0000000000E-01
                       2.1161800000E-01  2.1161800000E-01  0.0000000000E+00
                       2.0561000000E-01  7.9439000000E-01  2.5000000000E-01
            znucl       55.00000   11.00000   22.00000    8.00000

- Timing analysis has been suppressed with timopt=0

 Suggested references for the acknowledgment of ABINIT usage.

 Calculation completed.
.Delivered   2 WARNINGs and   5 COMMENTs to log file.