.Version 9.5.1 of ABINIT

 ABINIT is a project of the Universite Catholique de Louvain,
 Corning Inc. and other collaborators, see ~abinit/doc/developers/contributors.txt .
 acknowledgments of the ABINIT effort.

.Starting date : Fri  7 May 2021.
- ( at 11h47 )

- input  file    -> /scratch/users/j/a/jabreu/flow_simple_7atoms/flow/w168/t1/run.abi
- output file    -> /scratch/users/j/a/jabreu/flow_simple_7atoms/flow/w168/t1/run.abo
- root for input  files -> /scratch/users/j/a/jabreu/flow_simple_7atoms/flow/w168/t1/indata/in
- root for output files -> /scratch/users/j/a/jabreu/flow_simple_7atoms/flow/w168/t1/outdata/out

 Symmetries : space group R-3 m (#166); Bravais hR (rhombohedral)
     intxc =       0      iscf =       7    lmnmax =      18     lnmax =       6
     mgfft =     108  mpssoang =       3    mqgrid =    3001     natom =       7
  nloc_mem =       1    nspden =       1   nspinor =       1    nsppol =       1
      nsym =      12    n1xccc =    2501    ntypat =       3    occopt =       1
   xclevel =       2
-    mband =          52        mffmem =           1         mkmem =           2
-   mkqmem =           2        mk1mem =           2           mpw =       21856
      nfft =     1259712          nkpt =           2
  Rough estimation (10% accuracy) of disk space for files :

------------- Echo of variables that govern the present computation ------------
-
- outvars: echo of selected default values
-   iomode0 =  0 , fftalg0 =512 , wfoptalg0 =  0
-
- outvars: echo of global parameters not present in the input file
-  max_nthreads =    0
-
 -outvars: echo values of preprocessed input variables --------
            acell      1.0000000000E+00  1.0000000000E+00  1.0000000000E+00 Bohr
              amu      3.90983000E+01  6.53900000E+01  7.49215900E+01
        autoparal           1
             ecut      4.20000000E+01 Hartree
-          fftalg         512
           irdden           1
           irdwfk           1
           istwfk        1    1
              ixc     -116133
              kpt      5.00000000E-01  5.00000000E-01  5.55111512E-17
                       0.00000000E+00  0.00000000E+00  0.00000000E+00
           kptopt           0
P           mkmem           2
P          mkqmem           2
P          mk1mem           2
            natom           7
            nband          52
           nbdbuf           4
            ngfft         108     108     108
             nkpt           2
            nstep        2000
             nsym          12
           ntypat           3
              occ      2.000000  2.000000  2.000000  2.000000  2.000000  2.000000
                       2.000000  2.000000  2.000000  2.000000  2.000000  2.000000
                       2.000000  2.000000  2.000000  2.000000  2.000000  2.000000
                       2.000000  2.000000  2.000000  2.000000  2.000000  2.000000
                       2.000000  2.000000  2.000000  2.000000  2.000000  2.000000
                       2.000000  2.000000  2.000000  2.000000  2.000000  2.000000
                       2.000000  2.000000  2.000000  2.000000  2.000000  2.000000
                       2.000000  0.000000  0.000000  0.000000  0.000000  0.000000
                       0.000000  0.000000  0.000000  0.000000
        optdriver           1
            prtwf          -1
            rfdir           1       1       1
           rfelfd           2
            rprim      1.0245298098E+01  0.0000000000E+00  1.4696694058E+01
                       4.6170708159E+00  9.1459712556E+00  1.4696694058E+01
                       0.0000000000E+00  0.0000000000E+00  1.7915327219E+01
          spgroup         166
           symrel      1  0  0   0  1  0   0  0  1      -1  0  0   0 -1  0   0  0 -1
                       0  1  0   1  0  0   0  0  1       0 -1  0  -1  0  0   0  0 -1
                       0  0  1   1  0  0   0  1  0       0  0 -1  -1  0  0   0 -1  0
                       1  0  0   0  0  1   0  1  0      -1  0  0   0  0 -1   0 -1  0
                       0  1  0   0  0  1   1  0  0       0 -1  0   0  0 -1  -1  0  0
                       0  0  1   0  1  0   1  0  0       0  0 -1   0 -1  0  -1  0  0
           tolwfr      1.00000000E-20
            typat      1  1  1  1  2  3  3
           useylm           1
              wtk        0.50000    0.50000
           xangst      4.8454097425E+00  2.9817573822E+00  1.5423524440E+01
                       6.2241768159E+00  3.8302199720E+00  1.9812306562E+01
                       1.6406500793E+00  1.0096195668E+00  5.2223873604E+00
                       3.0194171526E+00  1.8580821567E+00  9.6111694826E+00
                       0.0000000000E+00  0.0000000000E+00  0.0000000000E+00
                       7.1906853930E+00  4.4249878530E+00  2.2888820098E+01
                       6.7414150215E-01  4.1485168591E-01  2.1458738243E+00
            xcart      9.1564974150E+00  5.6347048470E+00  2.9146237195E+01
                       1.1761989585E+01  7.2380667759E+00  3.7439833463E+01
                       3.1003793298E+00  1.9079044797E+00  9.8688818710E+00
                       5.7058714994E+00  3.5112664086E+00  1.8162478139E+01
                       0.0000000000E+00  0.0000000000E+00  0.0000000000E+00
                       1.3588426101E+01  8.3620151835E+00  4.3253601491E+01
                       1.2739428139E+00  7.8395607215E-01  4.0551138436E+00
             xred      6.1608600000E-01  6.1608600000E-01  6.1608600000E-01
                       7.9139400000E-01  7.9139400000E-01  7.9139400000E-01
                       2.0860600000E-01  2.0860600000E-01  2.0860600000E-01
                       3.8391400000E-01  3.8391400000E-01  3.8391400000E-01
                       0.0000000000E+00  0.0000000000E+00  0.0000000000E+00
                       9.1428400000E-01  9.1428400000E-01  9.1428400000E-01
                       8.5716000000E-02  8.5716000000E-02  8.5716000000E-02
            znucl       19.00000   30.00000   33.00000

 chkinp: Checking input parameters for consistency.

== DATASET  1 ==================================================================
-   mpi_nproc: 1, omp_nthreads: -1 (-1 if OMP is not activated)

--- !DatasetInfo
iteration_state: {dtset: 1, }
dimensions: {natom: 7, nkpt: 2, mband: 52, nsppol: 1, nspinor: 1, nspden: 1, mpw: 21856, }
cutoff_energies: {ecut:  42.0, pawecutdg:  -1.0, }
electrons: {nelect:   8.60000000E+01, charge:   0.00000000E+00, occopt:   1.00000000E+00, tsmear:   1.00000000E-02, }
meta: {optdriver: 1, rfelfd: 2, }
...

 Real(R)+Recip(G) space primitive vectors, cartesian coordinates (Bohr,Bohr^-1):
 R(1)= 10.2452981  0.0000000 14.6966941  G(1)=  0.0976057 -0.0492734  0.0000000
 R(2)=  4.6170708  9.1459713 14.6966941  G(2)=  0.0000000  0.1093378  0.0000000
 R(3)=  0.0000000  0.0000000 17.9153272  G(3)= -0.0800701 -0.0492734  0.0558181
 Unit cell volume ucvol=  1.6787235E+03 bohr^3
 Angles (23,13,12)=  3.48809634E+01  3.48809634E+01  3.48809634E+01 degrees

 getcut: wavevector=  0.0000  0.0000  0.0000  ngfft= 108 108 108
         ecut(hartree)=     42.000   => boxcut(ratio)=   2.06651

--- Pseudopotential description ------------------------------------------------
- pspini: atom type   1  psp file is /scratch/users/j/a/jabreu/pseudos/PBEsol/K.psp8
- pspatm: opening atomic psp file    /scratch/users/j/a/jabreu/pseudos/PBEsol/K.psp8
- K     ONCVPSP-3.3.0  r_core=   1.36296   1.46408   1.61068
- 19.00000   9.00000    180112                znucl, zion, pspdat
    8 -116133    2    4       400   0.00000   pspcod,pspxc,lmax,lloc,mmax,r2well
    3.99000000000000    5.00000000000000    0.00000000000000   rchrg,fchrg,qchrg
     nproj     2     2     2
     extension_switch     1
  pspatm : epsatm=    8.32487830
         --- l  ekb(1:nproj) -->
             0   10.921326    0.816676
             1    4.431000    0.560368
             2   -3.384038   -1.043186
 pspatm: atomic psp has been read  and splines computed

- pspini: atom type   2  psp file is /scratch/users/j/a/jabreu/pseudos/PBEsol/Zn.psp8
- pspatm: opening atomic psp file    /scratch/users/j/a/jabreu/pseudos/PBEsol/Zn.psp8
- Zn    ONCVPSP-3.3.0  r_core=   1.35823   1.66358   1.85211
- 30.00000  20.00000    180112                znucl, zion, pspdat
    8 -116133    2    4       600   0.00000   pspcod,pspxc,lmax,lloc,mmax,r2well
    5.99000000000000    2.50000000000000    0.00000000000000   rchrg,fchrg,qchrg
     nproj     2     2     2
     extension_switch     1
  pspatm : epsatm=   26.57343589
         --- l  ekb(1:nproj) -->
             0    2.830835   -1.519107
             1   -4.626739   -1.324150
             2   -6.948510   -2.555500
 pspatm: atomic psp has been read  and splines computed

- pspini: atom type   3  psp file is /scratch/users/j/a/jabreu/pseudos/PBEsol/As.psp8
- pspatm: opening atomic psp file    /scratch/users/j/a/jabreu/pseudos/PBEsol/As.psp8
- As    ONCVPSP-3.3.0  r_core=   1.76603   1.70395   1.80867
- 33.00000  15.00000    180112                znucl, zion, pspdat
    8 -116133    2    4       600   0.00000   pspcod,pspxc,lmax,lloc,mmax,r2well
    5.99000000000000    5.00000000000000    0.00000000000000   rchrg,fchrg,qchrg
     nproj     2     2     2
     extension_switch     1
  pspatm : epsatm=   28.79155382
         --- l  ekb(1:nproj) -->
             0    8.270760    0.868950
             1    4.919053    0.756587
             2  -10.048665   -4.076802
 pspatm: atomic psp has been read  and splines computed

   1.01012209E+04                                ecore*ucvol(ha*bohr**3)

-inwffil : will read wavefunctions from disk file /scratch/users/j/a/jabreu/flow_simple_7atoms/flow/w168/t1/indata/in_WFK

 ==>  initialize data related to q vector <==

 The list of irreducible perturbations for this q vector is:
    1)    idir= 1    ipert=   8
    2)    idir= 2    ipert=   8
    3)    idir= 3    ipert=   8

 Perturbation wavevector (in red.coord.)   0.000000  0.000000  0.000000
 Perturbation : derivative vs k along direction   1

 dfpt_looppert : COMMENT -
  In a d/dk calculation, iscf is set to -3 automatically.
 The set of symmetries contains only one element for this perturbation.
 symkpt : not enough symmetry to change the number of k points.

[...]

 Initialisation of the first-order wave-functions :
  ireadwf=   0

--- !BeginCycle
iteration_state: {dtset: 1, }
solver: {iscf: 7, nstep: 2000, nline: 4, wfoptalg: 0, }
tolerances: {tolwfr: 1.00E-20, }
...

     iter   2DEtotal(Ha)        deltaE(Ha) residm    vres2
-ETOT  1  -64.889883216971     -6.489E+01 1.107E-01 0.000E+00
 ETOT  2  -65.057599899251     -1.677E-01 8.259E-03 0.000E+00
 ETOT  3  -65.061102895501     -3.503E-03 1.250E-03 0.000E+00
 ETOT  4  -65.061241984108     -1.391E-04 1.133E-04 0.000E+00
 ETOT  5  -65.061249058547     -7.074E-06 2.750E-05 0.000E+00
 ETOT  6  -65.061249452346     -3.938E-07 2.796E-06 0.000E+00
 ETOT  7  -65.061249475197     -2.285E-08 6.516E-07 0.000E+00
 ETOT  8  -65.061249476550     -1.352E-09 7.909E-08 0.000E+00
 ETOT  9  -65.061249476636     -8.609E-11 1.639E-08 0.000E+00
 ETOT 10  -65.061249476642     -5.613E-12 2.280E-09 0.000E+00
 ETOT 11  -65.061249476642     -3.553E-13 5.219E-10 0.000E+00
 ETOT 12  -65.061249476642      1.421E-14 6.642E-11 0.000E+00
 ETOT 13  -65.061249476642     -1.421E-14 1.679E-11 0.000E+00
 ETOT 14  -65.061249476642     -4.263E-14 1.949E-12 0.000E+00
 ETOT 15  -65.061249476642      0.000E+00 5.434E-13 0.000E+00
 ETOT 16  -65.061249476642      1.421E-14 6.239E-14 0.000E+00
 ETOT 17  -65.061249476642      2.842E-14 1.766E-14 0.000E+00
 ETOT 18  -65.061249476642     -1.421E-14 2.023E-15 0.000E+00
 ETOT 19  -65.061249476642      0.000E+00 5.759E-16 0.000E+00
 ETOT 20  -65.061249476642      0.000E+00 6.575E-17 0.000E+00
 ETOT 21  -65.061249476642      0.000E+00 1.882E-17 0.000E+00
 ETOT 22  -65.061249476642      0.000E+00 2.141E-18 0.000E+00
 ETOT 23  -65.061249476642      0.000E+00 6.160E-19 0.000E+00
 ETOT 24  -65.061249476642      0.000E+00 6.983E-20 0.000E+00
 ETOT 25  -65.061249476642      0.000E+00 2.019E-20 0.000E+00
 ETOT 26  -65.061249476642      1.421E-14 9.979E-21 0.000E+00

 At SCF step   26   max residual=  9.98E-21 < tolwfr=  1.00E-20 =>converged.

 ----iterations are completed or convergence reached----

 dfpt_looppert: DFPT cycle converged with prtwf=-1. Will skip output of the 1st-order WFK file.
 dfpt_looppert : ek2=    8.1176162991E+01
          f-sum rule ratio=    1.0412009906E+00
 prteigrs : about to open file /scratch/users/j/a/jabreu/flow_simple_7atoms/flow/w168/t1/tmpdata/tmp_1WF1_EIG
 Expectation of eigenvalue derivatives (hartree) for nkpt=   2  k points:
  (in case of degenerate eigenvalues, averaged derivative)
 kpt#   1, nband= 52, wtk=  0.50000, kpt=  0.5000  0.5000  0.0000 (reduced coord)
  -0.00000   -0.00000   -0.00000   -0.00000    0.00000    0.00000    0.00000    0.00000
  -0.00000    0.00000   -0.00000    0.00000   -0.00000   -0.00000   -0.00000    0.00000
   0.00000    0.00000    0.00000    0.00000    0.00000    0.00000   -0.00000    0.00000
  -0.00000    0.00000    0.00000    0.00000   -0.00000    0.00000    0.00000    0.00000
   0.00000   -0.00000    0.00000    0.00000    0.00000    0.00000    0.00000   -0.00000
   0.00000    0.00000   -0.00000   -0.00000    0.00000    0.00000   -0.00000    0.00000
  -0.00000   -0.00000    0.00001   -0.00024
 prteigrs : prtvol=0 or 1, do not print more k-points.

 Eight components of 2nd-order total energy (hartree) are
 1,2,3: 0th-order hamiltonian combined with 1st-order wavefunctions
     kin0=   8.31384198E+01 eigvalue=   1.05348359E+01  local=  -3.95225117E+01
 4,5,6: 1st-order hamiltonian combined with 1st and 0th-order wfs
     kin1=  -8.45207013E+01  Hartree=   0.00000000E+00     xc=   0.00000000E+00
 7,8,9: eventually, occupation + non-local contributions
    edocc=   7.56047640E+00     enl0=   3.35002910E+00   enl1=  -4.56017976E+01
 1-9 gives the relaxation energy (to be shifted if some occ is /=2.0)
   erelax=  -6.50612495E+01
  No Ewald or frozen-wf contrib.: the relaxation energy is the total one
 2DEtotal=   -0.6506124948E+02 Ha. Also 2DEtotal=   -0.177040663392E+04 eV
    (  non-var. 2DEtotal :   -6.5061249476E+01 Ha)

 Perturbation wavevector (in red.coord.)   0.000000  0.000000  0.000000
 Perturbation : derivative vs k along direction   2
 The set of symmetries contains only one element for this perturbation.
 symkpt : not enough symmetry to change the number of k points.

[...]

 Perturbation wavevector (in red.coord.)   0.000000  0.000000  0.000000
 Perturbation : derivative vs k along direction   3
 The set of symmetries contains only one element for this perturbation.
 symkpt : not enough symmetry to change the number of k points.

-inwffil : will read wavefunctions from disk file /scratch/users/j/a/jabreu/flow_simple_7atoms/flow/w168/t1/indata/in_WFK

 Initialisation of the first-order wave-functions :
  ireadwf=   0

--- !BeginCycle
iteration_state: {dtset: 1, }
solver: {iscf: 7, nstep: 2000, nline: 4, wfoptalg: 0, }
tolerances: {tolwfr: 1.00E-20, }
...

     iter   2DEtotal(Ha)        deltaE(Ha) residm    vres2
-ETOT  1  -64.475883790692     -6.448E+01 1.107E-01 0.000E+00
 ETOT  2  -64.634825603329     -1.589E-01 8.349E-03 0.000E+00
 ETOT  3  -64.638161523044     -3.336E-03 1.592E-03 0.000E+00
 ETOT  4  -64.638287006489     -1.255E-04 1.531E-04 0.000E+00
 ETOT  5  -64.638292951912     -5.945E-06 3.932E-05 0.000E+00
 ETOT  6  -64.638293258467     -3.066E-07 4.008E-06 0.000E+00
 ETOT  7  -64.638293275058     -1.659E-08 1.072E-06 0.000E+00
 ETOT  8  -64.638293275980     -9.221E-10 1.119E-07 0.000E+00
 ETOT  9  -64.638293276034     -5.419E-11 3.002E-08 0.000E+00
 ETOT 10  -64.638293276037     -3.141E-12 3.204E-09 0.000E+00
 ETOT 11  -64.638293276037     -2.558E-13 8.524E-10 0.000E+00
 ETOT 12  -64.638293276037     -8.527E-14 9.273E-11 0.000E+00
 ETOT 13  -64.638293276037      9.948E-14 2.440E-11 0.000E+00
 ETOT 14  -64.638293276037     -8.527E-14 2.697E-12 0.000E+00
 ETOT 15  -64.638293276037      5.684E-14 7.016E-13 0.000E+00
 ETOT 16  -64.638293276037      0.000E+00 7.862E-14 0.000E+00
 ETOT 17  -64.638293276037     -1.421E-14 2.024E-14 0.000E+00
 ETOT 18  -64.638293276037     -1.421E-14 2.293E-15 0.000E+00
 ETOT 19  -64.638293276037      2.842E-14 5.848E-16 0.000E+00
 ETOT 20  -64.638293276037      0.000E+00 6.685E-17 0.000E+00
 ETOT 21  -64.638293276037      0.000E+00 1.882E-17 0.000E+00
 ETOT 22  -64.638293276037      0.000E+00 2.141E-18 0.000E+00
 ETOT 23  -64.638293276037      0.000E+00 6.160E-19 0.000E+00
 ETOT 24  -64.638293276037     -2.842E-14 6.983E-20 0.000E+00
 ETOT 25  -64.638293276037      1.421E-14 2.019E-20 0.000E+00
 ETOT 26  -64.638293276037      0.000E+00 9.957E-21 0.000E+00

 At SCF step   26   max residual=  9.96E-21 < tolwfr=  1.00E-20 =>converged.

 ----iterations are completed or convergence reached----

 dfpt_looppert: DFPT cycle converged with prtwf=-1. Will skip output of the 1st-order WFK file.
 dfpt_looppert : ek2=    8.1176162991E+01
          f-sum rule ratio=    1.0319937410E+00
 prteigrs : about to open file /scratch/users/j/a/jabreu/flow_simple_7atoms/flow/w168/t1/tmpdata/tmp_1WF1_EIG
 Expectation of eigenvalue derivatives (hartree) for nkpt=   2  k points:
  (in case of degenerate eigenvalues, averaged derivative)
 kpt#   1, nband= 52, wtk=  0.50000, kpt=  0.5000  0.5000  0.0000 (reduced coord)
  -0.00000    0.00000    0.00000    0.00000    0.00000   -0.00000   -0.00000   -0.00000
   0.00000    0.00000    0.00000   -0.00000   -0.00000    0.00000    0.00000   -0.00000
   0.00000    0.00000   -0.00000   -0.00000   -0.00000    0.00000    0.00000   -0.00000
  -0.00000   -0.00000   -0.00000   -0.00000    0.00000   -0.00000   -0.00000   -0.00000
   0.00000    0.00000   -0.00000   -0.00000    0.00000    0.00000    0.00000   -0.00000
  -0.00000   -0.00000    0.00000    0.00000   -0.00000   -0.00000   -0.00000    0.00000
  -0.00000    0.00000   -0.00000    0.00008
 prteigrs : prtvol=0 or 1, do not print more k-points.

 Eight components of 2nd-order total energy (hartree) are
 1,2,3: 0th-order hamiltonian combined with 1st-order wavefunctions
     kin0=   8.45856036E+01 eigvalue=   1.03915077E+01  local=  -4.03469845E+01
 4,5,6: 1st-order hamiltonian combined with 1st and 0th-order wfs
     kin1=  -8.37732921E+01  Hartree=   0.00000000E+00     xc=   0.00000000E+00
 7,8,9: eventually, occupation + non-local contributions
    edocc=   6.71362380E+00     enl0=   3.29454267E+00   enl1=  -4.55032944E+01
 1-9 gives the relaxation energy (to be shifted if some occ is /=2.0)
   erelax=  -6.46382933E+01
  No Ewald or frozen-wf contrib.: the relaxation energy is the total one
 2DEtotal=   -0.6463829328E+02 Ha. Also 2DEtotal=   -0.175889741039E+04 eV
    (  non-var. 2DEtotal :   -6.4638293276E+01 Ha)

 CALCULATION OF EFFECTIVE MASSES
 NOTE : Additional infos (eff. mass eigenvalues, eigenvectors and, if degenerate, average mass) are available in stdout.

 K-point ( 0.500, 0.500, 0.000) | band =    43
 Effective mass tensor:
             -8.2318046258             -4.5049113504             -2.3450297419
             -4.5049113504             -3.6835046707             -1.4431377205
             -2.3450297419             -1.4431377205             -5.1652184745
 Effective mass tensor eigenvalues:
            -12.0977023659             -4.0715540559             -0.9112713492
 Angular average effective mass 1/(<1/m>)=  -2.1043257806
 Angular average effective mass for Frohlich model (<m**0.5>)**2=  -2.8586134923
 Effective masses along directions: (cart. coord. / red. coord. -> eff. mass)
    1:   1.000000  0.000000  0.000000 /   0.911699  0.410859  0.000000 ->  -2.6491632250
    2:   0.000000  1.000000  0.000000 /   0.000000  1.000000  0.000000 ->  -1.2124826104
    3:   0.000000  0.000000  1.000000 /   0.535597  0.535597  0.652895 ->  -4.4762158530
    4:   0.577350  0.577350  0.577350 /   0.595714  0.679732  0.427889 ->  -7.7759066516
    5:   0.000000  0.707107  0.707107 /   0.442033  0.717117  0.538840 ->  -2.0211351008
    6:   0.707107  0.000000  0.707107 /   0.687526  0.532384  0.493836 ->  -3.9551164841
    7:   0.707107  0.707107  0.000000 /   0.597125  0.802149  0.000000 ->  -6.3246144892

 K-point ( 0.000, 0.000, 0.000) | band =    44
 Effective mass tensor:
              0.2419888279             -0.0013204352             -0.0068300999
             -0.0013204352              0.2433219814             -0.0042031075
             -0.0068300999             -0.0042031075              0.2223935044
 Effective mass tensor eigenvalues:
              0.2194352118              0.2441345509              0.2441345509
 Angular average effective mass 1/(<1/m>)=   0.2353059739
 Angular average effective mass for Frohlich model (<m**0.5>)**2=   0.2354877523
 Effective masses along directions: (cart. coord. / red. coord. -> eff. mass)
    1:   1.000000  0.000000  0.000000 /   0.911699  0.410859  0.000000 ->   0.2417704254
    2:   0.000000  1.000000  0.000000 /   0.000000  1.000000  0.000000 ->   0.2432338549
    3:   0.000000  0.000000  1.000000 /   0.535597  0.535597  0.652895 ->   0.2221268265
    4:   0.577350  0.577350  0.577350 /   0.595714  0.679732  0.427889 ->   0.2270910931
    5:   0.000000  0.707107  0.707107 /   0.442033  0.717117  0.538840 ->   0.2280471143
    6:   0.707107  0.000000  0.707107 /   0.687526  0.532384  0.493836 ->   0.2248940433
    7:   0.707107  0.707107  0.000000 /   0.597125  0.802149  0.000000 ->   0.2410590893

 END OF EFFECTIVE MASSES SECTION

 ---- first-order wavefunction calculations are completed ----

 Total localisation tensor (bohr^2) in cartesian coordinates
  WARNING : still subject to testing - especially symmetries.
      direction              matrix element
   alpha     beta       real part   imaginary part
     1        1       1.7025109874    0.0000000000
     1        2       0.5692994279    0.0000000000
     1        3       2.9447691473    0.0000000000
     2        1       0.5692994279    0.0000000000
     2        2       1.1277271697    0.0000000000
     2        3       1.8121488391    0.0000000000
     3        1       2.9447691473    0.0000000000
     3        2       1.8121488391    0.0000000000
     3        3       9.8637877494    0.0000000000

 respfn : d/dk was computed, but no 2DTE, so no DDB output.

== END DATASET(S) ==============================================================

 -outvars: echo values of variables after computation  --------
            acell      1.0000000000E+00  1.0000000000E+00  1.0000000000E+00 Bohr
              amu      3.90983000E+01  6.53900000E+01  7.49215900E+01
        autoparal           1
             ecut      4.20000000E+01 Hartree
           etotal     -6.4638293276E+01
            fcart      0.0000000000E+00  0.0000000000E+00  0.0000000000E+00
                       0.0000000000E+00  0.0000000000E+00  0.0000000000E+00
                       0.0000000000E+00  0.0000000000E+00  0.0000000000E+00
                       0.0000000000E+00  0.0000000000E+00  0.0000000000E+00
                       0.0000000000E+00  0.0000000000E+00  0.0000000000E+00
                       0.0000000000E+00  0.0000000000E+00  0.0000000000E+00
                       0.0000000000E+00  0.0000000000E+00  0.0000000000E+00
-          fftalg         512
           irdden           1
           irdwfk           1
           istwfk        1    1
              ixc     -116133
              kpt      5.00000000E-01  5.00000000E-01  5.55111512E-17
                       0.00000000E+00  0.00000000E+00  0.00000000E+00
           kptopt           0
P           mkmem           2
P          mkqmem           2
P          mk1mem           2
            natom           7
            nband          52
           nbdbuf           4
            ngfft         108     108     108
             nkpt           2
            nstep        2000
             nsym          12
           ntypat           3
              occ      2.000000  2.000000  2.000000  2.000000  2.000000  2.000000
                       2.000000  2.000000  2.000000  2.000000  2.000000  2.000000
                       2.000000  2.000000  2.000000  2.000000  2.000000  2.000000
                       2.000000  2.000000  2.000000  2.000000  2.000000  2.000000
                       2.000000  2.000000  2.000000  2.000000  2.000000  2.000000
                       2.000000  2.000000  2.000000  2.000000  2.000000  2.000000
                       2.000000  2.000000  2.000000  2.000000  2.000000  2.000000
                       2.000000  0.000000  0.000000  0.000000  0.000000  0.000000
                       0.000000  0.000000  0.000000  0.000000
        optdriver           1
            prtwf          -1
            rfdir           1       1       1
           rfelfd           2
            rprim      1.0245298098E+01  0.0000000000E+00  1.4696694058E+01
                       4.6170708159E+00  9.1459712556E+00  1.4696694058E+01
                       0.0000000000E+00  0.0000000000E+00  1.7915327219E+01
          spgroup         166
           strten      0.0000000000E+00  0.0000000000E+00  0.0000000000E+00
                       0.0000000000E+00  0.0000000000E+00  0.0000000000E+00
           symrel      1  0  0   0  1  0   0  0  1      -1  0  0   0 -1  0   0  0 -1
                       0  1  0   1  0  0   0  0  1       0 -1  0  -1  0  0   0  0 -1
                       0  0  1   1  0  0   0  1  0       0  0 -1  -1  0  0   0 -1  0
                       1  0  0   0  0  1   0  1  0      -1  0  0   0  0 -1   0 -1  0
                       0  1  0   0  0  1   1  0  0       0 -1  0   0  0 -1  -1  0  0
                       0  0  1   0  1  0   1  0  0       0  0 -1   0 -1  0  -1  0  0
           tolwfr      1.00000000E-20
            typat      1  1  1  1  2  3  3
           useylm           1
              wtk        0.50000    0.50000
           xangst      4.8454097425E+00  2.9817573822E+00  1.5423524440E+01
                       6.2241768159E+00  3.8302199720E+00  1.9812306562E+01
                       1.6406500793E+00  1.0096195668E+00  5.2223873604E+00
                       3.0194171526E+00  1.8580821567E+00  9.6111694826E+00
                       0.0000000000E+00  0.0000000000E+00  0.0000000000E+00
                       7.1906853930E+00  4.4249878530E+00  2.2888820098E+01
                       6.7414150215E-01  4.1485168591E-01  2.1458738243E+00
            xcart      9.1564974150E+00  5.6347048470E+00  2.9146237195E+01
                       1.1761989585E+01  7.2380667759E+00  3.7439833463E+01
                       3.1003793298E+00  1.9079044797E+00  9.8688818710E+00
                       5.7058714994E+00  3.5112664086E+00  1.8162478139E+01
                       0.0000000000E+00  0.0000000000E+00  0.0000000000E+00
                       1.3588426101E+01  8.3620151835E+00  4.3253601491E+01
                       1.2739428139E+00  7.8395607215E-01  4.0551138436E+00
             xred      6.1608600000E-01  6.1608600000E-01  6.1608600000E-01
                       7.9139400000E-01  7.9139400000E-01  7.9139400000E-01
                       2.0860600000E-01  2.0860600000E-01  2.0860600000E-01
                       3.8391400000E-01  3.8391400000E-01  3.8391400000E-01
                       0.0000000000E+00  0.0000000000E+00  0.0000000000E+00
                       9.1428400000E-01  9.1428400000E-01  9.1428400000E-01
                       8.5716000000E-02  8.5716000000E-02  8.5716000000E-02
            znucl       19.00000   30.00000   33.00000

- Timing analysis has been suppressed with timopt=0

 Suggested references for the acknowledgment of ABINIT usage.

 Calculation completed.
.Delivered  14 WARNINGs and  11 COMMENTs to log file.