.Version 9.5.1 of ABINIT

 ABINIT is a project of the Universite Catholique de Louvain,
 Corning Inc. and other collaborators, see ~abinit/doc/developers/contributors.txt .
 acknowledgments of the ABINIT effort.

.Starting date : Tue  4 May 2021.
- ( at 21h50 )

- input  file    -> /scratch/users/j/a/jabreu/flow_simple_6atoms/flow/w268/t1/run.abi
- output file    -> /scratch/users/j/a/jabreu/flow_simple_6atoms/flow/w268/t1/run.abo
- root for input  files -> /scratch/users/j/a/jabreu/flow_simple_6atoms/flow/w268/t1/indata/in
- root for output files -> /scratch/users/j/a/jabreu/flow_simple_6atoms/flow/w268/t1/outdata/out

 Symmetries : space group P4_2/m n m (#136); Bravais tP (primitive tetrag.)
     intxc =       0      iscf =       7    lmnmax =      18     lnmax =       6
     mgfft =      72  mpssoang =       3    mqgrid =    3438     natom =       6
  nloc_mem =       1    nspden =       1   nspinor =       1    nsppol =       1
      nsym =      16    n1xccc =    2501    ntypat =       2    occopt =       1
   xclevel =       2
-    mband =          33        mffmem =           1         mkmem =           1
-   mkqmem =           1        mk1mem =           1           mpw =       13619
      nfft =      248832          nkpt =           1
  Rough estimation (10% accuracy) of disk space for files :

------------- Echo of variables that govern the present computation ------------
-
- outvars: echo of selected default values
-   iomode0 =  0 , fftalg0 =512 , wfoptalg0 =  0
-
- outvars: echo of global parameters not present in the input file
-  max_nthreads =    0
-
 -outvars: echo values of preprocessed input variables --------
            acell      1.0000000000E+00  1.0000000000E+00  1.0000000000E+00 Bohr
              amu      4.00780000E+01  7.99040000E+01
             ecut      3.60000000E+01 Hartree
-          fftalg         512
           irdden           1
           irdwfk           1
           istwfk        1
              ixc     -116133
           kptopt           0
P           mkmem           1
P          mkqmem           1
P          mk1mem           1
            natom           6
            nband          33
           nbdbuf           4
            ngfft          72      72      48
             nkpt           1
            nstep        1000
             nsym          16
           ntypat           2
              occ      2.000000  2.000000  2.000000  2.000000  2.000000  2.000000
                       2.000000  2.000000  2.000000  2.000000  2.000000  2.000000
                       2.000000  2.000000  2.000000  2.000000  2.000000  2.000000
                       2.000000  2.000000  2.000000  2.000000  2.000000  2.000000
                       0.000000  0.000000  0.000000  0.000000  0.000000  0.000000
                       0.000000  0.000000  0.000000
        optdriver           1
            prtwf          -1
            rfdir           1       1       1
           rfelfd           2
            rprim      1.2725937155E+01  0.0000000000E+00  0.0000000000E+00
                       0.0000000000E+00  1.2725937155E+01  0.0000000000E+00
                       0.0000000000E+00  0.0000000000E+00  8.1680634595E+00
          spgroup         136
           symrel      1  0  0   0  1  0   0  0  1      -1  0  0   0 -1  0   0  0 -1
                      -1  0  0   0  1  0   0  0 -1       1  0  0   0 -1  0   0  0  1
                      -1  0  0   0 -1  0   0  0  1       1  0  0   0  1  0   0  0 -1
                       1  0  0   0 -1  0   0  0 -1      -1  0  0   0  1  0   0  0  1
                       0  1  0   1  0  0   0  0  1       0 -1  0  -1  0  0   0  0 -1
                       0 -1  0   1  0  0   0  0 -1       0  1  0  -1  0  0   0  0  1
                       0 -1  0  -1  0  0   0  0  1       0  1  0   1  0  0   0  0 -1
                       0  1  0  -1  0  0   0  0 -1       0 -1  0   1  0  0   0  0  1
            tnons      0.0000000  0.0000000  0.0000000     0.0000000  0.0000000  0.0000000
                       0.5000000  0.5000000  0.5000000     0.5000000  0.5000000  0.5000000
                       0.0000000  0.0000000  0.0000000     0.0000000  0.0000000  0.0000000
                       0.5000000  0.5000000  0.5000000     0.5000000  0.5000000  0.5000000
                       0.0000000  0.0000000  0.0000000     0.0000000  0.0000000  0.0000000
                       0.5000000  0.5000000  0.5000000     0.5000000  0.5000000  0.5000000
                       0.0000000  0.0000000  0.0000000     0.0000000  0.0000000  0.0000000
                       0.5000000  0.5000000  0.5000000     0.5000000  0.5000000  0.5000000
           tolwfr      1.00000000E-20
            typat      1  1  2  2  2  2
           useylm           1
           xangst      0.0000000000E+00  0.0000000000E+00  0.0000000000E+00
                       3.3671379503E+00  3.3671379503E+00  2.1611765105E+00
                       1.3307871978E+00  5.4034887028E+00  2.1611765105E+00
                       4.6979251481E+00  4.6979251481E+00  0.0000000000E+00
                       2.0363507525E+00  2.0363507525E+00  0.0000000000E+00
                       5.4034887028E+00  1.3307871978E+00  2.1611765105E+00
            xcart      0.0000000000E+00  0.0000000000E+00  0.0000000000E+00
                       6.3629685777E+00  6.3629685777E+00  4.0840317298E+00
                       2.5148233450E+00  1.0211113810E+01  4.0840317298E+00
                       8.8777919227E+00  8.8777919227E+00  0.0000000000E+00
                       3.8481452327E+00  3.8481452327E+00  0.0000000000E+00
                       1.0211113810E+01  2.5148233450E+00  4.0840317298E+00
             xred      0.0000000000E+00  0.0000000000E+00  0.0000000000E+00
                       5.0000000000E-01  5.0000000000E-01  5.0000000000E-01
                       1.9761400000E-01  8.0238600000E-01  5.0000000000E-01
                       6.9761400000E-01  6.9761400000E-01  0.0000000000E+00
                       3.0238600000E-01  3.0238600000E-01  0.0000000000E+00
                       8.0238600000E-01  1.9761400000E-01  5.0000000000E-01
            znucl       20.00000   35.00000

 chkinp: Checking input parameters for consistency.

== DATASET  1 ==================================================================
-   mpi_nproc: 1, omp_nthreads: -1 (-1 if OMP is not activated)

--- !DatasetInfo
iteration_state: {dtset: 1, }
dimensions: {natom: 6, nkpt: 1, mband: 33, nsppol: 1, nspinor: 1, nspden: 1, mpw: 13619, }
cutoff_energies: {ecut:  36.0, pawecutdg:  -1.0, }
electrons: {nelect:   4.80000000E+01, charge:   0.00000000E+00, occopt:   1.00000000E+00, tsmear:   1.00000000E-02, }
meta: {optdriver: 1, rfelfd: 2, }
...

 Real(R)+Recip(G) space primitive vectors, cartesian coordinates (Bohr,Bohr^-1):
 R(1)= 12.7259372  0.0000000  0.0000000  G(1)=  0.0785797  0.0000000  0.0000000
 R(2)=  0.0000000 12.7259372  0.0000000  G(2)=  0.0000000  0.0785797  0.0000000
 R(3)=  0.0000000  0.0000000  8.1680635  G(3)=  0.0000000  0.0000000  0.1224280
 Unit cell volume ucvol=  1.3228136E+03 bohr^3
 Angles (23,13,12)=  9.00000000E+01  9.00000000E+01  9.00000000E+01 degrees

 getcut: wavevector=  0.0000  0.0000  0.0000  ngfft=  72  72  48
         ecut(hartree)=     36.000   => boxcut(ratio)=   2.09472

--- Pseudopotential description ------------------------------------------------
- pspini: atom type   1  psp file is /scratch/users/j/a/jabreu/pseudos/PBEsol/Ca.psp8
- pspatm: opening atomic psp file    /scratch/users/j/a/jabreu/pseudos/PBEsol/Ca.psp8
- Ca    ONCVPSP-3.3.0  r_core=   1.45885   1.45885   1.85192
- 20.00000  10.00000    180112                znucl, zion, pspdat
    8 -116133    2    4       400   0.00000   pspcod,pspxc,lmax,lloc,mmax,r2well
    3.99000000000000    6.00000000000000    0.00000000000000   rchrg,fchrg,qchrg
     nproj     2     2     2
     extension_switch     1
  pspatm : epsatm=   12.46045226
         --- l  ekb(1:nproj) -->
             0   10.054847    0.973777
             1    2.998958    0.458102
             2   -3.447298   -1.091650
 pspatm: atomic psp has been read  and splines computed

- pspini: atom type   2  psp file is /scratch/users/j/a/jabreu/pseudos/PBEsol/Br.psp8
- pspatm: opening atomic psp file    /scratch/users/j/a/jabreu/pseudos/PBEsol/Br.psp8
- Br    ONCVPSP-3.3.0  r_core=   1.81012   1.51356   1.92136
- 35.00000   7.00000    180112                znucl, zion, pspdat
    8 -116133    2    4       600   0.00000   pspcod,pspxc,lmax,lloc,mmax,r2well
    5.99000000000000    8.00000000000000    0.00000000000000   rchrg,fchrg,qchrg
     nproj     2     2     2
     extension_switch     1
  pspatm : epsatm=   10.94933070
         --- l  ekb(1:nproj) -->
             0    8.508690    0.897946
             1    5.393311    0.892021
             2    2.527513    0.394763
 pspatm: atomic psp has been read  and splines computed

   3.29847491E+03                                ecore*ucvol(ha*bohr**3)

-inwffil : will read wavefunctions from disk file /scratch/users/j/a/jabreu/flow_simple_6atoms/flow/w268/t1/indata/in_WFK

 ==>  initialize data related to q vector <==

 The list of irreducible perturbations for this q vector is:
    1)    idir= 1    ipert=   7
    2)    idir= 2    ipert=   7
    3)    idir= 3    ipert=   7

 Perturbation wavevector (in red.coord.)   0.000000  0.000000  0.000000
 Perturbation : derivative vs k along direction   1

 dfpt_looppert : COMMENT -
  In a d/dk calculation, iscf is set to -3 automatically.
 The set of symmetries contains only one element for this perturbation.
 symkpt : not enough symmetry to change the number of k points.

[...]

 Initialisation of the first-order wave-functions :
  ireadwf=   0

--- !BeginCycle
iteration_state: {dtset: 1, }
solver: {iscf: 7, nstep: 1000, nline: 4, wfoptalg: 0, }
tolerances: {tolwfr: 1.00E-20, }
...

     iter   2DEtotal(Ha)        deltaE(Ha) residm    vres2
-ETOT  1  -12.465799552513     -1.247E+01 9.863E-03 0.000E+00
 ETOT  2  -12.493018347688     -2.722E-02 5.631E-04 0.000E+00
 ETOT  3  -12.493674595886     -6.562E-04 7.391E-06 0.000E+00
 ETOT  4  -12.493701738062     -2.714E-05 1.225E-06 0.000E+00
 ETOT  5  -12.493703202890     -1.465E-06 7.986E-07 0.000E+00
 ETOT  6  -12.493703293053     -9.016E-08 1.522E-07 0.000E+00
 ETOT  7  -12.493703299480     -6.427E-09 1.456E-07 0.000E+00
 ETOT  8  -12.493703299969     -4.888E-10 2.951E-08 0.000E+00
 ETOT  9  -12.493703300010     -4.066E-11 2.834E-08 0.000E+00
 ETOT 10  -12.493703300013     -3.503E-12 6.201E-09 0.000E+00
 ETOT 11  -12.493703300014     -3.251E-13 6.351E-09 0.000E+00
 ETOT 12  -12.493703300014     -1.776E-14 2.121E-09 0.000E+00
 ETOT 13  -12.493703300014     -1.066E-14 1.799E-09 0.000E+00
 ETOT 14  -12.493703300014      2.132E-14 4.951E-10 0.000E+00
 ETOT 15  -12.493703300014     -3.197E-14 3.998E-10 0.000E+00
 ETOT 16  -12.493703300014      3.197E-14 1.110E-10 0.000E+00
 ETOT 17  -12.493703300014     -2.842E-14 8.963E-11 0.000E+00
 ETOT 18  -12.493703300014      1.066E-14 2.503E-11 0.000E+00
 ETOT 19  -12.493703300014     -1.776E-15 2.021E-11 0.000E+00
 ETOT 20  -12.493703300014     -3.553E-15 5.670E-12 0.000E+00
 ETOT 21  -12.493703300014      3.553E-15 4.578E-12 0.000E+00
[...]
 ETOT 36  -12.493703300014     -1.776E-15 4.221E-17 0.000E+00
 ETOT 37  -12.493703300014      3.553E-15 3.416E-17 0.000E+00
 ETOT 38  -12.493703300014     -7.105E-15 9.696E-18 0.000E+00
 ETOT 39  -12.493703300014      1.776E-15 7.849E-18 0.000E+00
 ETOT 40  -12.493703300014      5.329E-15 2.229E-18 0.000E+00
 ETOT 41  -12.493703300014     -1.776E-15 1.805E-18 0.000E+00
 ETOT 42  -12.493703300014     -3.553E-15 5.126E-19 0.000E+00
 ETOT 43  -12.493703300014      0.000E+00 4.152E-19 0.000E+00
 ETOT 44  -12.493703300014      0.000E+00 1.180E-19 0.000E+00
 ETOT 45  -12.493703300014     -1.776E-15 9.557E-20 0.000E+00
 ETOT 46  -12.493703300014      3.553E-15 2.716E-20 0.000E+00
 ETOT 47  -12.493703300014      5.329E-15 2.201E-20 0.000E+00
 ETOT 48  -12.493703300014     -1.243E-14 9.478E-21 0.000E+00

 At SCF step   48   max residual=  9.48E-21 < tolwfr=  1.00E-20 =>converged.

 ----iterations are completed or convergence reached----

 dfpt_looppert: DFPT cycle converged with prtwf=-1. Will skip output of the 1st-order WFK file.
 dfpt_looppert : ek2=    2.3401916279E+01
          f-sum rule ratio=    1.0895491181E+00
 prteigrs : about to open file /scratch/users/j/a/jabreu/flow_simple_6atoms/flow/w268/t1/tmpdata/tmp_1WF1_EIG
 Expectation of eigenvalue derivatives (hartree) for nkpt=   1  k points:
  (in case of degenerate eigenvalues, averaged derivative)
 kpt#   1, nband= 33, wtk=  1.00000, kpt=  0.0000  0.0000  0.0000 (reduced coord)
  -0.00000   -0.00000   -0.00000   -0.00000   -0.00000   -0.00000   -0.00000    0.00000
   0.00000    0.00000    0.00000    0.00000   -0.00000    0.00000   -0.00000   -0.00000
  -0.00000    0.00000    0.00000    0.00000   -0.00000   -0.00000   -0.00000    0.00000
   0.00000    0.00000   -0.00000    0.00000   -0.00000   -0.00000   -0.00000   -0.00000
  -0.00053

 Eight components of 2nd-order total energy (hartree) are
 1,2,3: 0th-order hamiltonian combined with 1st-order wavefunctions
     kin0=   1.52188957E+01 eigvalue=   1.06816631E+00  local=  -9.39474158E+00
 4,5,6: 1st-order hamiltonian combined with 1st and 0th-order wfs
     kin1=  -2.54975372E+01  Hartree=   0.00000000E+00     xc=   0.00000000E+00
 7,8,9: eventually, occupation + non-local contributions
    edocc=   4.70076059E+00     enl0=   9.00622331E-01   enl1=   5.10130643E-01
 1-9 gives the relaxation energy (to be shifted if some occ is /=2.0)
   erelax=  -1.24937033E+01
  No Ewald or frozen-wf contrib.: the relaxation energy is the total one
 2DEtotal=   -0.1249370330E+02 Ha. Also 2DEtotal=   -0.339970956330E+03 eV
    (  non-var. 2DEtotal :   -1.2493703300E+01 Ha)

 Perturbation wavevector (in red.coord.)   0.000000  0.000000  0.000000
 Perturbation : derivative vs k along direction   2
 The set of symmetries contains only one element for this perturbation.
 symkpt : not enough symmetry to change the number of k points.

[...]

 Perturbation wavevector (in red.coord.)   0.000000  0.000000  0.000000
 Perturbation : derivative vs k along direction   3
 The set of symmetries contains only one element for this perturbation.
 symkpt : not enough symmetry to change the number of k points.

-inwffil : will read wavefunctions from disk file /scratch/users/j/a/jabreu/flow_simple_6atoms/flow/w268/t1/indata/in_WFK

 Initialisation of the first-order wave-functions :
  ireadwf=   0

--- !BeginCycle
iteration_state: {dtset: 1, }
solver: {iscf: 7, nstep: 1000, nline: 4, wfoptalg: 0, }
tolerances: {tolwfr: 1.00E-20, }
...

     iter   2DEtotal(Ha)        deltaE(Ha) residm    vres2
-ETOT  1  -32.677575138883     -3.268E+01 3.807E-02 0.000E+00
 ETOT  2  -32.783230974676     -1.057E-01 2.079E-03 0.000E+00
 ETOT  3  -32.785411194080     -2.180E-03 1.055E-04 0.000E+00
 ETOT  4  -32.785480600140     -6.941E-05 9.318E-06 0.000E+00
 ETOT  5  -32.785483506507     -2.906E-06 7.959E-06 0.000E+00
 ETOT  6  -32.785483642004     -1.355E-07 8.244E-07 0.000E+00
 ETOT  7  -32.785483649134     -7.130E-09 1.012E-06 0.000E+00
 ETOT  8  -32.785483649531     -3.966E-10 1.521E-07 0.000E+00
 ETOT  9  -32.785483649554     -2.341E-11 1.217E-07 0.000E+00
 ETOT 10  -32.785483649556     -1.506E-12 2.371E-08 0.000E+00
 ETOT 11  -32.785483649556     -1.421E-13 1.648E-08 0.000E+00
 ETOT 12  -32.785483649556      2.132E-14 3.332E-09 0.000E+00
 ETOT 13  -32.785483649556      7.105E-15 2.254E-09 0.000E+00
 ETOT 14  -32.785483649556      7.105E-14 4.753E-10 0.000E+00
 ETOT 15  -32.785483649556      7.105E-15 3.147E-10 0.000E+00
 ETOT 16  -32.785483649556     -7.105E-15 6.729E-11 0.000E+00
 ETOT 17  -32.785483649556      7.105E-15 4.455E-11 0.000E+00
 ETOT 18  -32.785483649556      0.000E+00 9.474E-12 0.000E+00
 ETOT 19  -32.785483649556     -7.105E-15 6.367E-12 0.000E+00
 ETOT 20  -32.785483649556      7.105E-15 1.334E-12 0.000E+00
 ETOT 21  -32.785483649556      7.105E-15 9.162E-13 0.000E+00
 ETOT 22  -32.785483649556     -2.132E-14 1.885E-13 0.000E+00
 ETOT 23  -32.785483649556     -7.105E-15 1.327E-13 0.000E+00
 ETOT 24  -32.785483649556      1.421E-14 2.683E-14 0.000E+00
 ETOT 25  -32.785483649556      0.000E+00 1.940E-14 0.000E+00
 ETOT 26  -32.785483649556      1.421E-14 3.846E-15 0.000E+00
 ETOT 27  -32.785483649556     -7.105E-15 2.862E-15 0.000E+00
 ETOT 28  -32.785483649556     -1.421E-14 5.555E-16 0.000E+00
 ETOT 29  -32.785483649556      7.105E-15 4.266E-16 0.000E+00
 ETOT 30  -32.785483649556      0.000E+00 8.092E-17 0.000E+00
 ETOT 31  -32.785483649556      0.000E+00 6.415E-17 0.000E+00
 ETOT 32  -32.785483649556      0.000E+00 1.190E-17 0.000E+00
 ETOT 33  -32.785483649556     -7.105E-15 9.723E-18 0.000E+00
 ETOT 34  -32.785483649556      1.421E-14 1.765E-18 0.000E+00
 ETOT 35  -32.785483649556     -1.421E-14 1.483E-18 0.000E+00
 ETOT 36  -32.785483649556     -7.105E-15 2.640E-19 0.000E+00
 ETOT 37  -32.785483649556      0.000E+00 2.274E-19 0.000E+00
 ETOT 38  -32.785483649556      2.132E-14 3.978E-20 0.000E+00
 ETOT 39  -32.785483649556      1.421E-14 3.499E-20 0.000E+00
 ETOT 40  -32.785483649556     -2.132E-14 9.716E-21 0.000E+00

 At SCF step   40   max residual=  9.72E-21 < tolwfr=  1.00E-20 =>converged.

 ----iterations are completed or convergence reached----

 dfpt_looppert: DFPT cycle converged with prtwf=-1. Will skip output of the 1st-order WFK file.
 dfpt_looppert : ek2=    5.6805810842E+01
          f-sum rule ratio=    1.1675180994E+00
 prteigrs : about to open file /scratch/users/j/a/jabreu/flow_simple_6atoms/flow/w268/t1/tmpdata/tmp_1WF1_EIG
 Expectation of eigenvalue derivatives (hartree) for nkpt=   1  k points:
  (in case of degenerate eigenvalues, averaged derivative)
 kpt#   1, nband= 33, wtk=  1.00000, kpt=  0.0000  0.0000  0.0000 (reduced coord)
  -0.00000    0.00000   -0.00000   -0.00000   -0.00000   -0.00000   -0.00000    0.00000
  -0.00000   -0.00000    0.00000    0.00000    0.00000   -0.00000   -0.00000   -0.00000
  -0.00000   -0.00000    0.00000    0.00000   -0.00000    0.00000    0.00000   -0.00000
  -0.00000   -0.00000   -0.00000   -0.00000    0.00000    0.00000   -0.00000    0.00000
   0.00000

 Eight components of 2nd-order total energy (hartree) are
 1,2,3: 0th-order hamiltonian combined with 1st-order wavefunctions
     kin0=   4.20675944E+01 eigvalue=   2.61493729E+00  local=  -2.68892560E+01
 4,5,6: 1st-order hamiltonian combined with 1st and 0th-order wfs
     kin1=  -6.63218123E+01  Hartree=   0.00000000E+00     xc=   0.00000000E+00
 7,8,9: eventually, occupation + non-local contributions
    edocc=   1.36765964E+01     enl0=   1.31561149E+00   enl1=   7.50845009E-01
 1-9 gives the relaxation energy (to be shifted if some occ is /=2.0)
   erelax=  -3.27854836E+01
  No Ewald or frozen-wf contrib.: the relaxation energy is the total one
 2DEtotal=   -0.3278548365E+02 Ha. Also 2DEtotal=   -0.892138380624E+03 eV
    (  non-var. 2DEtotal :   -3.2785483649E+01 Ha)

 CALCULATION OF EFFECTIVE MASSES
 NOTE : Additional infos (eff. mass eigenvalues, eigenvectors and, if degenerate, average mass) are available in stdout.

 K-point ( 0.000, 0.000, 0.000) | band =    24
 Effective mass tensor:
             -1.4695629339             -0.0000172927             -0.0001076306
             -0.0000172927             -1.4695176308             -0.0000188816
             -0.0001076306             -0.0000188816             -1.9645840098
 Effective mass tensor eigenvalues:
             -1.9645840339             -1.4695687567             -1.4695117839
 Angular average effective mass 1/(<1/m>)=  -1.6042922699
 Angular average effective mass for Frohlich model (<m**0.5>)**2=  -1.6128459262
 Effective masses along directions: (cart. coord. / red. coord. -> eff. mass)
    1:   1.000000  0.000000  0.000000 /   1.000000  0.000000  0.000000 ->  -1.4695629278
    2:   0.000000  1.000000  0.000000 /   0.000000  1.000000  0.000000 ->  -1.4695176304
    3:   0.000000  0.000000  1.000000 /   0.000000  0.000000  1.000000 ->  -1.9645840017
    4:   0.577350  0.577350  0.577350 /   0.643894  0.643894  0.413280 ->  -1.6043812013
    5:   0.000000  0.707107  0.707107 /   0.000000  0.841566  0.540154 ->  -1.6813844675
    6:   0.707107  0.000000  0.707107 /   0.841566  0.000000  0.540154 ->  -1.6815010292
    7:   0.707107  0.707107  0.000000 /   0.707107  0.707107  0.000000 ->  -1.4695575707

 K-point ( 0.000, 0.000, 0.000) | band =    25
 Effective mass tensor:
              1.0052038453             -0.0000056268              0.0000000883
             -0.0000056268              1.0051955139              0.0000002711
              0.0000000883              0.0000002711              0.5150312505
 Effective mass tensor eigenvalues:
              0.5150312505              1.0051926786              1.0052066807
 Angular average effective mass 1/(<1/m>)=   0.7631094208
 Angular average effective mass for Frohlich model (<m**0.5>)**2=   0.7884187350
 Effective masses along directions: (cart. coord. / red. coord. -> eff. mass)
    1:   1.000000  0.000000  0.000000 /   1.000000  0.000000  0.000000 ->   1.0052038453
    2:   0.000000  1.000000  0.000000 /   0.000000  1.000000  0.000000 ->   1.0051955139
    3:   0.000000  0.000000  1.000000 /   0.000000  0.000000  1.000000 ->   0.5150312505
    4:   0.577350  0.577350  0.577350 /   0.643894  0.643894  0.413280 ->   0.7631075284
    5:   0.000000  0.707107  0.707107 /   0.000000  0.841566  0.540154 ->   0.6810921887
    6:   0.707107  0.000000  0.707107 /   0.841566  0.000000  0.540154 ->   0.6810939374
    7:   0.707107  0.707107  0.000000 /   0.707107  0.707107  0.000000 ->   1.0051940528

 END OF EFFECTIVE MASSES SECTION

 ---- first-order wavefunction calculations are completed ----

 Total localisation tensor (bohr^2) in cartesian coordinates
  WARNING : still subject to testing - especially symmetries.
      direction              matrix element
   alpha     beta       real part   imaginary part
     1        1       1.2654694951    0.0000000000
     1        2       0.0000000000    0.0000000000
     1        3       0.0000000000    0.0000000000
     2        1       0.0000000000    0.0000000000
     2        2       1.2654739135    0.0000000000
     2        3       0.0000000000    0.0000000000
     3        1       0.0000000000    0.0000000000
     3        2       0.0000000000    0.0000000000
     3        3       1.4708679338    0.0000000000

 respfn : d/dk was computed, but no 2DTE, so no DDB output.

== END DATASET(S) ==============================================================

 -outvars: echo values of variables after computation  --------
            acell      1.0000000000E+00  1.0000000000E+00  1.0000000000E+00 Bohr
              amu      4.00780000E+01  7.99040000E+01
             ecut      3.60000000E+01 Hartree
           etotal     -3.2785483650E+01
            fcart      0.0000000000E+00  0.0000000000E+00  0.0000000000E+00
                       0.0000000000E+00  0.0000000000E+00  0.0000000000E+00
                       0.0000000000E+00  0.0000000000E+00  0.0000000000E+00
                       0.0000000000E+00  0.0000000000E+00  0.0000000000E+00
                       0.0000000000E+00  0.0000000000E+00  0.0000000000E+00
                       0.0000000000E+00  0.0000000000E+00  0.0000000000E+00
-          fftalg         512
           irdden           1
           irdwfk           1
           istwfk        1
              ixc     -116133
           kptopt           0
P           mkmem           1
P          mkqmem           1
P          mk1mem           1
            natom           6
            nband          33
           nbdbuf           4
            ngfft          72      72      48
             nkpt           1
            nstep        1000
             nsym          16
           ntypat           2
              occ      2.000000  2.000000  2.000000  2.000000  2.000000  2.000000
                       2.000000  2.000000  2.000000  2.000000  2.000000  2.000000
                       2.000000  2.000000  2.000000  2.000000  2.000000  2.000000
                       2.000000  2.000000  2.000000  2.000000  2.000000  2.000000
                       0.000000  0.000000  0.000000  0.000000  0.000000  0.000000
                       0.000000  0.000000  0.000000
        optdriver           1
            prtwf          -1
            rfdir           1       1       1
           rfelfd           2
            rprim      1.2725937155E+01  0.0000000000E+00  0.0000000000E+00
                       0.0000000000E+00  1.2725937155E+01  0.0000000000E+00
                       0.0000000000E+00  0.0000000000E+00  8.1680634595E+00
          spgroup         136
           strten      0.0000000000E+00  0.0000000000E+00  0.0000000000E+00
                       0.0000000000E+00  0.0000000000E+00  0.0000000000E+00
           symrel      1  0  0   0  1  0   0  0  1      -1  0  0   0 -1  0   0  0 -1
                      -1  0  0   0  1  0   0  0 -1       1  0  0   0 -1  0   0  0  1
                      -1  0  0   0 -1  0   0  0  1       1  0  0   0  1  0   0  0 -1
                       1  0  0   0 -1  0   0  0 -1      -1  0  0   0  1  0   0  0  1
                       0  1  0   1  0  0   0  0  1       0 -1  0  -1  0  0   0  0 -1
                       0 -1  0   1  0  0   0  0 -1       0  1  0  -1  0  0   0  0  1
                       0 -1  0  -1  0  0   0  0  1       0  1  0   1  0  0   0  0 -1
                       0  1  0  -1  0  0   0  0 -1       0 -1  0   1  0  0   0  0  1
            tnons      0.0000000  0.0000000  0.0000000     0.0000000  0.0000000  0.0000000
                       0.5000000  0.5000000  0.5000000     0.5000000  0.5000000  0.5000000
                       0.0000000  0.0000000  0.0000000     0.0000000  0.0000000  0.0000000
                       0.5000000  0.5000000  0.5000000     0.5000000  0.5000000  0.5000000
                       0.0000000  0.0000000  0.0000000     0.0000000  0.0000000  0.0000000
                       0.5000000  0.5000000  0.5000000     0.5000000  0.5000000  0.5000000
                       0.0000000  0.0000000  0.0000000     0.0000000  0.0000000  0.0000000
                       0.5000000  0.5000000  0.5000000     0.5000000  0.5000000  0.5000000
           tolwfr      1.00000000E-20
            typat      1  1  2  2  2  2
           useylm           1
           xangst      0.0000000000E+00  0.0000000000E+00  0.0000000000E+00
                       3.3671379503E+00  3.3671379503E+00  2.1611765105E+00
                       1.3307871978E+00  5.4034887028E+00  2.1611765105E+00
                       4.6979251481E+00  4.6979251481E+00  0.0000000000E+00
                       2.0363507525E+00  2.0363507525E+00  0.0000000000E+00
                       5.4034887028E+00  1.3307871978E+00  2.1611765105E+00
            xcart      0.0000000000E+00  0.0000000000E+00  0.0000000000E+00
                       6.3629685777E+00  6.3629685777E+00  4.0840317298E+00
                       2.5148233450E+00  1.0211113810E+01  4.0840317298E+00
                       8.8777919227E+00  8.8777919227E+00  0.0000000000E+00
                       3.8481452327E+00  3.8481452327E+00  0.0000000000E+00
                       1.0211113810E+01  2.5148233450E+00  4.0840317298E+00
             xred      0.0000000000E+00  0.0000000000E+00  0.0000000000E+00
                       5.0000000000E-01  5.0000000000E-01  5.0000000000E-01
                       1.9761400000E-01  8.0238600000E-01  5.0000000000E-01
                       6.9761400000E-01  6.9761400000E-01  0.0000000000E+00
                       3.0238600000E-01  3.0238600000E-01  0.0000000000E+00
                       8.0238600000E-01  1.9761400000E-01  5.0000000000E-01
            znucl       20.00000   35.00000

- Timing analysis has been suppressed with timopt=0

 Suggested references for the acknowledgment of ABINIT usage.

 Calculation completed.
.Delivered   6 WARNINGs and   5 COMMENTs to log file.