.Version 9.5.1 of ABINIT

 ABINIT is a project of the Universite Catholique de Louvain,
 Corning Inc. and other collaborators, see ~abinit/doc/developers/contributors.txt .
 acknowledgments of the ABINIT effort.

.Starting date : Tue 11 May 2021.
- ( at 21h38 )

- input  file    -> /scratch/users/j/a/jabreu/flow_simple_8atoms/flow/w332/t1/run.abi
- output file    -> /scratch/users/j/a/jabreu/flow_simple_8atoms/flow/w332/t1/run.abo
- root for input  files -> /scratch/users/j/a/jabreu/flow_simple_8atoms/flow/w332/t1/indata/in
- root for output files -> /scratch/users/j/a/jabreu/flow_simple_8atoms/flow/w332/t1/outdata/out

 Symmetries : space group Pm n 2_1 (# 31); Bravais oP (primitive ortho.)
     intxc =       0      iscf =       7    lmnmax =      18     lnmax =       6
     mgfft =      60  mpssoang =       3    mqgrid =    3001     natom =       8
  nloc_mem =       1    nspden =       1   nspinor =       1    nsppol =       1
      nsym =       4    n1xccc =    2501    ntypat =       3    occopt =       1
   xclevel =       2
-    mband =          35        mffmem =           1         mkmem =           1
-   mkqmem =           1        mk1mem =           1           mpw =        7503
      nfft =      129600          nkpt =           1
  Rough estimation (10% accuracy) of disk space for files :

------------- Echo of variables that govern the present computation ------------
-
- outvars: echo of selected default values
-   iomode0 =  0 , fftalg0 =512 , wfoptalg0 =  0
-
- outvars: echo of global parameters not present in the input file
-  max_nthreads =    0
-
 -outvars: echo values of preprocessed input variables --------
            acell      1.0000000000E+00  1.0000000000E+00  1.0000000000E+00 Bohr
              amu      1.14820000E+02  1.00794000E+00  1.59994000E+01
             ecut      4.40000000E+01 Hartree
-          fftalg         512
           irdden           1
           irdwfk           1
           istwfk        1
              ixc     -116133
           kptopt           0
P           mkmem           1
P          mkqmem           1
P          mk1mem           1
            natom           8
            nband          35
           nbdbuf           4
            ngfft          40      54      60
             nkpt           1
            nstep        2000
             nsym           4
           ntypat           3
              occ      2.000000  2.000000  2.000000  2.000000  2.000000  2.000000
                       2.000000  2.000000  2.000000  2.000000  2.000000  2.000000
                       2.000000  2.000000  2.000000  2.000000  2.000000  2.000000
                       2.000000  2.000000  2.000000  2.000000  2.000000  2.000000
                       2.000000  2.000000  0.000000  0.000000  0.000000  0.000000
                       0.000000  0.000000  0.000000  0.000000  0.000000
        optdriver           1
            prtwf          -1
            rfdir           1       1       1
           rfelfd           2
            rprim      6.2261872812E+00  0.0000000000E+00  0.0000000000E+00
                       0.0000000000E+00  8.6166250096E+00  0.0000000000E+00
                       0.0000000000E+00  0.0000000000E+00  1.0006974773E+01
          spgroup          31
           symrel      1  0  0   0  1  0   0  0  1       1  0  0   0 -1  0   0  0  1
                      -1  0  0   0 -1  0   0  0  1      -1  0  0   0  1  0   0  0  1
            tnons      0.0000000  0.0000000  0.0000000     0.5000000  0.0000000  0.5000000
                       0.5000000  0.0000000  0.5000000     0.0000000  0.0000000  0.0000000
           tolwfr      1.00000000E-20
            typat      1  1  2  2  3  3  3  3
           useylm           1
           xangst      0.0000000000E+00  1.0619910717E+00  5.2926299042E+00
                       1.6473782028E+00  3.4977304983E+00  2.6448984157E+00
                       0.0000000000E+00  1.3183477378E+00  2.5613624873E+00
                       1.6473782028E+00  3.2413738322E+00  5.2090939757E+00
                       0.0000000000E+00  1.2425241278E-01  3.3552900695E+00
                       1.6473782028E+00  4.4354691573E+00  7.0755858112E-01
                       0.0000000000E+00  2.1827295961E+00  1.9340566476E+00
                       1.6473782028E+00  2.3769919739E+00  4.5817881360E+00
            xcart      0.0000000000E+00  2.0068722811E+00  1.0001621042E+01
                       3.1130936406E+00  6.6097527285E+00  4.9981336550E+00
                       0.0000000000E+00  2.4913161724E+00  4.8402736280E+00
                       3.1130936406E+00  6.1253088372E+00  9.8437610146E+00
                       0.0000000000E+00  2.3480303151E-01  6.3405793278E+00
                       3.1130936406E+00  8.3818219781E+00  1.3370919413E+00
                       0.0000000000E+00  4.1247611588E+00  3.6548373894E+00
                       3.1130936406E+00  4.4918638508E+00  8.6583247760E+00
             xred      0.0000000000E+00  2.3290700000E-01  9.9946500000E-01
                       5.0000000000E-01  7.6709300000E-01  4.9946500000E-01
                       0.0000000000E+00  2.8912900000E-01  4.8369000000E-01
                       5.0000000000E-01  7.1087100000E-01  9.8369000000E-01
                       0.0000000000E+00  2.7250000000E-02  6.3361600000E-01
                       5.0000000000E-01  9.7275000000E-01  1.3361600000E-01
                       0.0000000000E+00  4.7869800000E-01  3.6522900000E-01
                       5.0000000000E-01  5.2130200000E-01  8.6522900000E-01
            znucl       49.00000    1.00000    8.00000

 chkinp: Checking input parameters for consistency.

== DATASET  1 ==================================================================
-   mpi_nproc: 1, omp_nthreads: -1 (-1 if OMP is not activated)

--- !DatasetInfo
iteration_state: {dtset: 1, }
dimensions: {natom: 8, nkpt: 1, mband: 35, nsppol: 1, nspinor: 1, nspden: 1, mpw: 7503, }
cutoff_energies: {ecut:  44.0, pawecutdg:  -1.0, }
electrons: {nelect:   5.20000000E+01, charge:   0.00000000E+00, occopt:   1.00000000E+00, tsmear:   1.00000000E-02, }
meta: {optdriver: 1, rfelfd: 2, }
...

 Real(R)+Recip(G) space primitive vectors, cartesian coordinates (Bohr,Bohr^-1):
 R(1)=  6.2261873  0.0000000  0.0000000  G(1)=  0.1606119  0.0000000  0.0000000
 R(2)=  0.0000000  8.6166250  0.0000000  G(2)=  0.0000000  0.1160547  0.0000000
 R(3)=  0.0000000  0.0000000 10.0069748  G(3)=  0.0000000  0.0000000  0.0999303
 Unit cell volume ucvol=  5.3686140E+02 bohr^3
 Angles (23,13,12)=  9.00000000E+01  9.00000000E+01  9.00000000E+01 degrees

 getcut: wavevector=  0.0000  0.0000  0.0000  ngfft=  40  54  60
         ecut(hartree)=     44.000   => boxcut(ratio)=   2.00797

--- Pseudopotential description ------------------------------------------------
- pspini: atom type   1  psp file is /scratch/users/j/a/jabreu/pseudos/PBEsol/In.psp8
- pspatm: opening atomic psp file    /scratch/users/j/a/jabreu/pseudos/PBEsol/In.psp8
- In    ONCVPSP-3.3.0  r_core=   2.10853   2.37566   1.87143
- 49.00000  13.00000    180112                znucl, zion, pspdat
    8 -116133    2    4       600   0.00000   pspcod,pspxc,lmax,lloc,mmax,r2well
    5.99000000000000    5.00000000000000    0.00000000000000   rchrg,fchrg,qchrg
     nproj     2     2     2
     extension_switch     1
  pspatm : epsatm=   25.17984752
         --- l  ekb(1:nproj) -->
             0   12.999887    1.931740
             1    5.981707    1.012544
             2   -4.048011   -1.239028
 pspatm: atomic psp has been read  and splines computed

- pspini: atom type   2  psp file is /scratch/users/j/a/jabreu/pseudos/PBEsol/H.psp8
- pspatm: opening atomic psp file    /scratch/users/j/a/jabreu/pseudos/PBEsol/H.psp8
- H     ONCVPSP-3.3.0  r_core=   1.00957   0.70586
-  1.00000   1.00000    180112                znucl, zion, pspdat
    8 -116133    1    4       300   0.00000   pspcod,pspxc,lmax,lloc,mmax,r2well
    2.99000000000000    0.00000000000000    0.00000000000000   rchrg,fchrg,qchrg
     nproj     2     1
     extension_switch     1
  pspatm : epsatm=    0.35627032
         --- l  ekb(1:nproj) -->
             0   -1.674911   -0.523609
             1   -0.494138
 pspatm: atomic psp has been read  and splines computed

- pspini: atom type   3  psp file is /scratch/users/j/a/jabreu/pseudos/PBEsol/O.psp8
- pspatm: opening atomic psp file    /scratch/users/j/a/jabreu/pseudos/PBEsol/O.psp8
- O     ONCVPSP-3.3.0  r_core=   1.35509   1.45563   1.26150
-  8.00000   6.00000    180112                znucl, zion, pspdat
    8 -116133    2    4       600   0.00000   pspcod,pspxc,lmax,lloc,mmax,r2well
    5.99000000000000    4.00000000000000    0.00000000000000   rchrg,fchrg,qchrg
     nproj     2     2     1
     extension_switch     1
  pspatm : epsatm=    6.22910522
         --- l  ekb(1:nproj) -->
             0    6.050032    0.820363
             1   -4.739617   -1.153841
             2   -1.335834
 pspatm: atomic psp has been read  and splines computed

   3.95141014E+03                                ecore*ucvol(ha*bohr**3)

-inwffil : will read wavefunctions from disk file /scratch/users/j/a/jabreu/flow_simple_8atoms/flow/w332/t1/indata/in_WFK

 ==>  initialize data related to q vector <==

 The list of irreducible perturbations for this q vector is:
    1)    idir= 1    ipert=   9
    2)    idir= 2    ipert=   9
    3)    idir= 3    ipert=   9

 Perturbation wavevector (in red.coord.)   0.000000  0.000000  0.000000
 Perturbation : derivative vs k along direction   1

 dfpt_looppert : COMMENT -
  In a d/dk calculation, iscf is set to -3 automatically.
 The set of symmetries contains only one element for this perturbation.
 symkpt : not enough symmetry to change the number of k points.

[...]

 Initialisation of the first-order wave-functions :
  ireadwf=   0

--- !BeginCycle
iteration_state: {dtset: 1, }
solver: {iscf: 7, nstep: 2000, nline: 4, wfoptalg: 0, }
tolerances: {tolwfr: 1.00E-20, }
...

     iter   2DEtotal(Ha)        deltaE(Ha) residm    vres2
-ETOT  1  -100.01776080222     -1.000E+02 1.186E-01 0.000E+00
 ETOT  2  -100.08425317683     -6.649E-02 4.632E-03 0.000E+00
 ETOT  3  -100.08466385357     -4.107E-04 5.419E-04 0.000E+00
 ETOT  4  -100.08467023218     -6.379E-06 3.452E-05 0.000E+00
 ETOT  5  -100.08467038989     -1.577E-07 3.213E-06 0.000E+00
 ETOT  6  -100.08467039446     -4.570E-09 1.829E-07 0.000E+00
 ETOT  7  -100.08467039460     -1.432E-10 2.420E-08 0.000E+00
 ETOT  8  -100.08467039460     -4.292E-12 1.417E-09 0.000E+00
 ETOT  9  -100.08467039460     -2.984E-13 1.970E-10 0.000E+00
 ETOT 10  -100.08467039460      1.137E-13 1.192E-11 0.000E+00
 ETOT 11  -100.08467039460     -1.421E-14 1.605E-12 0.000E+00
 ETOT 12  -100.08467039460      1.279E-13 1.072E-13 0.000E+00
 ETOT 13  -100.08467039460     -2.842E-14 1.293E-14 0.000E+00
 ETOT 14  -100.08467039460      4.263E-14 1.003E-15 0.000E+00
 ETOT 15  -100.08467039460     -1.421E-14 1.178E-16 0.000E+00
 ETOT 16  -100.08467039460      0.000E+00 9.542E-18 0.000E+00
 ETOT 17  -100.08467039460      0.000E+00 1.093E-18 0.000E+00
 ETOT 18  -100.08467039460      0.000E+00 9.159E-20 0.000E+00
 ETOT 19  -100.08467039460      2.842E-14 1.022E-20 0.000E+00
 ETOT 20  -100.08467039460     -2.842E-14 8.680E-21 0.000E+00

 At SCF step   20   max residual=  8.68E-21 < tolwfr=  1.00E-20 =>converged.

 ----iterations are completed or convergence reached----

 dfpt_looppert: DFPT cycle converged with prtwf=-1. Will skip output of the 1st-order WFK file.
 dfpt_looppert : ek2=    1.0591286501E+02
          f-sum rule ratio=    1.2992678909E+00
 prteigrs : about to open file /scratch/users/j/a/jabreu/flow_simple_8atoms/flow/w332/t1/tmpdata/tmp_1WF1_EIG
 Expectation of eigenvalue derivatives (hartree) for nkpt=   1  k points:
  (in case of degenerate eigenvalues, averaged derivative)
 kpt#   1, nband= 35, wtk=  1.00000, kpt=  0.0000  0.0000  0.0000 (reduced coord)
   0.00000    0.00000   -0.00000    0.00000   -0.00000    0.00000   -0.00000   -0.00000
   0.00000    0.00000   -0.00000   -0.00000    0.00000   -0.00000    0.00000   -0.00000
  -0.00000    0.00000   -0.00000   -0.00000    0.00000   -0.00000    0.00000    0.00000
   0.00000    0.00000   -0.00000   -0.00000    0.00000    0.00000    0.00000    0.00000
  -0.00000    0.00000    0.00002

 Eight components of 2nd-order total energy (hartree) are
 1,2,3: 0th-order hamiltonian combined with 1st-order wavefunctions
     kin0=   1.09300882E+02 eigvalue=   4.19088711E+00  local=  -4.86821500E+01
 4,5,6: 1st-order hamiltonian combined with 1st and 0th-order wfs
     kin1=  -1.37609185E+02  Hartree=   0.00000000E+00     xc=   0.00000000E+00
 7,8,9: eventually, occupation + non-local contributions
    edocc=   2.54470326E+01     enl0=   9.82801882E+00   enl1=  -6.25601560E+01
 1-9 gives the relaxation energy (to be shifted if some occ is /=2.0)
   erelax=  -1.00084670E+02
  No Ewald or frozen-wf contrib.: the relaxation energy is the total one
 2DEtotal=   -0.1000846704E+03 Ha. Also 2DEtotal=   -0.272344238461E+04 eV
    (  non-var. 2DEtotal :   -1.0008467039E+02 Ha)

 Perturbation wavevector (in red.coord.)   0.000000  0.000000  0.000000
 Perturbation : derivative vs k along direction   2
 The set of symmetries contains only one element for this perturbation.
 symkpt : not enough symmetry to change the number of k points.

[...]

 Perturbation wavevector (in red.coord.)   0.000000  0.000000  0.000000
 Perturbation : derivative vs k along direction   3
 The set of symmetries contains only one element for this perturbation.
 symkpt : not enough symmetry to change the number of k points.

-inwffil : will read wavefunctions from disk file /scratch/users/j/a/jabreu/flow_simple_8atoms/flow/w332/t1/indata/in_WFK

 Initialisation of the first-order wave-functions :
  ireadwf=   0

--- !BeginCycle
iteration_state: {dtset: 1, }
solver: {iscf: 7, nstep: 2000, nline: 4, wfoptalg: 0, }
tolerances: {tolwfr: 1.00E-20, }
...

     iter   2DEtotal(Ha)        deltaE(Ha) residm    vres2
-ETOT  1  -36.479327442337     -3.648E+01 7.927E-02 0.000E+00
 ETOT  2  -36.505970217703     -2.664E-02 7.517E-03 0.000E+00
 ETOT  3  -36.506196445901     -2.262E-04 5.989E-04 0.000E+00
 ETOT  4  -36.506201142578     -4.697E-06 3.118E-04 0.000E+00
 ETOT  5  -36.506201265095     -1.225E-07 1.095E-04 0.000E+00
 ETOT  6  -36.506201268544     -3.449E-09 5.338E-05 0.000E+00
 ETOT  7  -36.506201268644     -9.977E-11 2.061E-05 0.000E+00
 ETOT  8  -36.506201268647     -2.892E-12 9.841E-06 0.000E+00
 ETOT  9  -36.506201268647     -6.395E-14 4.009E-06 0.000E+00
 ETOT 10  -36.506201268647     -2.132E-14 1.891E-06 0.000E+00
 ETOT 11  -36.506201268647      7.105E-15 7.895E-07 0.000E+00
 ETOT 12  -36.506201268647      2.132E-14 3.700E-07 0.000E+00
 ETOT 13  -36.506201268647     -1.421E-14 1.561E-07 0.000E+00
 ETOT 14  -36.506201268647      1.421E-14 7.295E-08 0.000E+00
 ETOT 15  -36.506201268647      0.000E+00 3.093E-08 0.000E+00
 ETOT 16  -36.506201268647      0.000E+00 1.444E-08 0.000E+00
 ETOT 17  -36.506201268647      0.000E+00 6.134E-09 0.000E+00
 ETOT 18  -36.506201268647      0.000E+00 2.865E-09 0.000E+00
 ETOT 19  -36.506201268647      0.000E+00 1.217E-09 0.000E+00
 ETOT 20  -36.506201268647     -7.105E-15 5.692E-10 0.000E+00
 ETOT 21  -36.506201268647      7.105E-15 2.417E-10 0.000E+00
 ETOT 22  -36.506201268647      0.000E+00 1.132E-10 0.000E+00
 ETOT 23  -36.506201268647      0.000E+00 4.801E-11 0.000E+00
 ETOT 24  -36.506201268647     -7.105E-15 2.251E-11 0.000E+00
 ETOT 25  -36.506201268647      0.000E+00 9.538E-12 0.000E+00
 ETOT 26  -36.506201268647      0.000E+00 4.478E-12 0.000E+00
 ETOT 27  -36.506201268647      0.000E+00 1.896E-12 0.000E+00
 ETOT 28  -36.506201268647      0.000E+00 8.913E-13 0.000E+00
 ETOT 29  -36.506201268647      7.105E-15 3.768E-13 0.000E+00
 ETOT 30  -36.506201268647      0.000E+00 1.774E-13 0.000E+00
 ETOT 31  -36.506201268647     -1.421E-14 7.490E-14 0.000E+00
 ETOT 32  -36.506201268647      7.105E-15 3.532E-14 0.000E+00
 ETOT 33  -36.506201268647      0.000E+00 1.489E-14 0.000E+00
 ETOT 34  -36.506201268647      0.000E+00 7.032E-15 0.000E+00
 ETOT 35  -36.506201268647     -7.105E-15 2.960E-15 0.000E+00
 ETOT 36  -36.506201268647      0.000E+00 1.400E-15 0.000E+00
 ETOT 37  -36.506201268647      1.421E-14 5.884E-16 0.000E+00
 ETOT 38  -36.506201268647      0.000E+00 2.788E-16 0.000E+00
 ETOT 39  -36.506201268647     -1.421E-14 1.170E-16 0.000E+00
 ETOT 40  -36.506201268647      0.000E+00 5.553E-17 0.000E+00
 ETOT 41  -36.506201268647      0.000E+00 2.324E-17 0.000E+00
 ETOT 42  -36.506201268647      0.000E+00 1.106E-17 0.000E+00
 ETOT 43  -36.506201268647      0.000E+00 4.619E-18 0.000E+00
 ETOT 44  -36.506201268647      0.000E+00 2.203E-18 0.000E+00
 ETOT 45  -36.506201268647      0.000E+00 9.175E-19 0.000E+00
 ETOT 46  -36.506201268647      7.105E-15 4.390E-19 0.000E+00
 ETOT 47  -36.506201268647     -7.105E-15 1.822E-19 0.000E+00
 ETOT 48  -36.506201268647      7.105E-15 8.747E-20 0.000E+00
 ETOT 49  -36.506201268647     -7.105E-15 3.617E-20 0.000E+00
 ETOT 50  -36.506201268647      0.000E+00 1.743E-20 0.000E+00
 ETOT 51  -36.506201268647      0.000E+00 9.322E-21 0.000E+00

 At SCF step   51   max residual=  9.32E-21 < tolwfr=  1.00E-20 =>converged.

 ----iterations are completed or convergence reached----

 dfpt_looppert: DFPT cycle converged with prtwf=-1. Will skip output of the 1st-order WFK file.
 dfpt_looppert : ek2=    4.1000340748E+01
          f-sum rule ratio=    1.1878864856E+00
 prteigrs : about to open file /scratch/users/j/a/jabreu/flow_simple_8atoms/flow/w332/t1/tmpdata/tmp_1WF1_EIG
 Expectation of eigenvalue derivatives (hartree) for nkpt=   1  k points:
  (in case of degenerate eigenvalues, averaged derivative)
 kpt#   1, nband= 35, wtk=  1.00000, kpt=  0.0000  0.0000  0.0000 (reduced coord)
   0.00000    0.00000   -0.00000   -0.00000   -0.00000   -0.00000   -0.00000   -0.00000
   0.00000   -0.00000    0.00000    0.00000    0.00000   -0.00000   -0.00000   -0.00000
  -0.00000   -0.00000    0.00000   -0.00000   -0.00000    0.00000    0.00000    0.00000
   0.00000    0.00000   -0.00000    0.00000   -0.00000   -0.00000    0.00000   -0.00000
   0.00000   -0.00000   -0.00000

 Eight components of 2nd-order total energy (hartree) are
 1,2,3: 0th-order hamiltonian combined with 1st-order wavefunctions
     kin0=   4.21709870E+01 eigvalue=   1.55714606E+00  local=  -1.88608213E+01
 4,5,6: 1st-order hamiltonian combined with 1st and 0th-order wfs
     kin1=  -4.87037507E+01  Hartree=   0.00000000E+00     xc=   0.00000000E+00
 7,8,9: eventually, occupation + non-local contributions
    edocc=   7.97519852E+00     enl0=   3.66369106E+00   enl1=  -2.43086519E+01
 1-9 gives the relaxation energy (to be shifted if some occ is /=2.0)
   erelax=  -3.65062013E+01
  No Ewald or frozen-wf contrib.: the relaxation energy is the total one
 2DEtotal=   -0.3650620127E+02 Ha. Also 2DEtotal=   -0.993384255992E+03 eV
    (  non-var. 2DEtotal :   -3.6506201269E+01 Ha)

 CALCULATION OF EFFECTIVE MASSES
 NOTE : Additional infos (eff. mass eigenvalues, eigenvectors and, if degenerate, average mass) are available in stdout.

 K-point ( 0.000, 0.000, 0.000) | band =    26
 Effective mass tensor:
             -5.4805009085              0.0002712298             -0.0000017907
              0.0002712298            -25.7299869209              0.0000000227
             -0.0000017907              0.0000000227             -0.4113442493
 Effective mass tensor eigenvalues:
            -25.7299869245             -5.4805009049             -0.4113442493
 Angular average effective mass 1/(<1/m>)=  -1.1310579335
 Angular average effective mass for Frohlich model (<m**0.5>)**2=  -2.2550006808
 Effective masses along directions: (cart. coord. / red. coord. -> eff. mass)
    1:   1.000000  0.000000  0.000000 /   1.000000  0.000000  0.000000 ->  -5.4805009056
    2:   0.000000  1.000000  0.000000 /   0.000000  1.000000  0.000000 -> -25.7299869074
    3:   0.000000  0.000000  1.000000 /   0.000000  0.000000  1.000000 ->  -0.4113442493
    4:   0.577350  0.577350  0.577350 /   0.426460  0.590192  0.685423 ->  -1.1310569687
    5:   0.000000  0.707107  0.707107 /   0.000000  0.652502  0.757787 ->  -0.8097431663
    6:   0.707107  0.000000  0.707107 /   0.528279  0.000000  0.849071 ->  -0.7652522569
    7:   0.707107  0.707107  0.000000 /   0.585680  0.810542  0.000000 ->  -9.0361141761

 K-point ( 0.000, 0.000, 0.000) | band =    27
 Effective mass tensor:
              0.2380905080              0.0000000067             -0.0000000023
              0.0000000067              0.2314718723              0.0000000000
             -0.0000000023              0.0000000000              0.2286470872
 Effective mass tensor eigenvalues:
              0.2286470872              0.2314718723              0.2380905080
 Angular average effective mass 1/(<1/m>)=   0.2326696928
 Angular average effective mass for Frohlich model (<m**0.5>)**2=   0.2326896513
 Effective masses along directions: (cart. coord. / red. coord. -> eff. mass)
    1:   1.000000  0.000000  0.000000 /   1.000000  0.000000  0.000000 ->   0.2380905080
    2:   0.000000  1.000000  0.000000 /   0.000000  1.000000  0.000000 ->   0.2314718723
    3:   0.000000  0.000000  1.000000 /   0.000000  0.000000  1.000000 ->   0.2286470872
    4:   0.577350  0.577350  0.577350 /   0.426460  0.590192  0.685423 ->   0.2326696957
    5:   0.000000  0.707107  0.707107 /   0.000000  0.652502  0.757787 ->   0.2300508087
    6:   0.707107  0.000000  0.707107 /   0.528279  0.000000  0.849071 ->   0.2332732617
    7:   0.707107  0.707107  0.000000 /   0.585680  0.810542  0.000000 ->   0.2347345509

 END OF EFFECTIVE MASSES SECTION

 ---- first-order wavefunction calculations are completed ----

 Total localisation tensor (bohr^2) in cartesian coordinates
  WARNING : still subject to testing - especially symmetries.
      direction              matrix element
   alpha     beta       real part   imaginary part
     1        1       1.4793871383    0.0000000000
     1        2       0.0000000000    0.0000000000
     1        3       0.0000000000    0.0000000000
     2        1       0.0000000000    0.0000000000
     2        2       1.4024227319    0.0000000000
     2        3       0.0000000000    0.0000000000
     3        1       0.0000000000    0.0000000000
     3        2       0.0000000000    0.0000000000
     3        3       1.4329596937    0.0000000000

 respfn : d/dk was computed, but no 2DTE, so no DDB output.

== END DATASET(S) ==============================================================

 -outvars: echo values of variables after computation  --------
            acell      1.0000000000E+00  1.0000000000E+00  1.0000000000E+00 Bohr
              amu      1.14820000E+02  1.00794000E+00  1.59994000E+01
             ecut      4.40000000E+01 Hartree
           etotal     -3.6506201269E+01
            fcart      0.0000000000E+00  0.0000000000E+00  0.0000000000E+00
                       0.0000000000E+00  0.0000000000E+00  0.0000000000E+00
                       0.0000000000E+00  0.0000000000E+00  0.0000000000E+00
                       0.0000000000E+00  0.0000000000E+00  0.0000000000E+00
                       0.0000000000E+00  0.0000000000E+00  0.0000000000E+00
                       0.0000000000E+00  0.0000000000E+00  0.0000000000E+00
                       0.0000000000E+00  0.0000000000E+00  0.0000000000E+00
                       0.0000000000E+00  0.0000000000E+00  0.0000000000E+00
-          fftalg         512
           irdden           1
           irdwfk           1
           istwfk        1
              ixc     -116133
           kptopt           0
P           mkmem           1
P          mkqmem           1
P          mk1mem           1
            natom           8
            nband          35
           nbdbuf           4
            ngfft          40      54      60
             nkpt           1
            nstep        2000
             nsym           4
           ntypat           3
              occ      2.000000  2.000000  2.000000  2.000000  2.000000  2.000000
                       2.000000  2.000000  2.000000  2.000000  2.000000  2.000000
                       2.000000  2.000000  2.000000  2.000000  2.000000  2.000000
                       2.000000  2.000000  2.000000  2.000000  2.000000  2.000000
                       2.000000  2.000000  0.000000  0.000000  0.000000  0.000000
                       0.000000  0.000000  0.000000  0.000000  0.000000
        optdriver           1
            prtwf          -1
            rfdir           1       1       1
           rfelfd           2
            rprim      6.2261872812E+00  0.0000000000E+00  0.0000000000E+00
                       0.0000000000E+00  8.6166250096E+00  0.0000000000E+00
                       0.0000000000E+00  0.0000000000E+00  1.0006974773E+01
          spgroup          31
           strten      0.0000000000E+00  0.0000000000E+00  0.0000000000E+00
                       0.0000000000E+00  0.0000000000E+00  0.0000000000E+00
           symrel      1  0  0   0  1  0   0  0  1       1  0  0   0 -1  0   0  0  1
                      -1  0  0   0 -1  0   0  0  1      -1  0  0   0  1  0   0  0  1
            tnons      0.0000000  0.0000000  0.0000000     0.5000000  0.0000000  0.5000000
                       0.5000000  0.0000000  0.5000000     0.0000000  0.0000000  0.0000000
           tolwfr      1.00000000E-20
            typat      1  1  2  2  3  3  3  3
           useylm           1
           xangst      0.0000000000E+00  1.0619910717E+00  5.2926299042E+00
                       1.6473782028E+00  3.4977304983E+00  2.6448984157E+00
                       0.0000000000E+00  1.3183477378E+00  2.5613624873E+00
                       1.6473782028E+00  3.2413738322E+00  5.2090939757E+00
                       0.0000000000E+00  1.2425241278E-01  3.3552900695E+00
                       1.6473782028E+00  4.4354691573E+00  7.0755858112E-01
                       0.0000000000E+00  2.1827295961E+00  1.9340566476E+00
                       1.6473782028E+00  2.3769919739E+00  4.5817881360E+00
            xcart      0.0000000000E+00  2.0068722811E+00  1.0001621042E+01
                       3.1130936406E+00  6.6097527285E+00  4.9981336550E+00
                       0.0000000000E+00  2.4913161724E+00  4.8402736280E+00
                       3.1130936406E+00  6.1253088372E+00  9.8437610146E+00
                       0.0000000000E+00  2.3480303151E-01  6.3405793278E+00
                       3.1130936406E+00  8.3818219781E+00  1.3370919413E+00
                       0.0000000000E+00  4.1247611588E+00  3.6548373894E+00
                       3.1130936406E+00  4.4918638508E+00  8.6583247760E+00
             xred      0.0000000000E+00  2.3290700000E-01  9.9946500000E-01
                       5.0000000000E-01  7.6709300000E-01  4.9946500000E-01
                       0.0000000000E+00  2.8912900000E-01  4.8369000000E-01
                       5.0000000000E-01  7.1087100000E-01  9.8369000000E-01
                       0.0000000000E+00  2.7250000000E-02  6.3361600000E-01
                       5.0000000000E-01  9.7275000000E-01  1.3361600000E-01
                       0.0000000000E+00  4.7869800000E-01  3.6522900000E-01
                       5.0000000000E-01  5.2130200000E-01  8.6522900000E-01
            znucl       49.00000    1.00000    8.00000

- Timing analysis has been suppressed with timopt=0

 Suggested references for the acknowledgment of ABINIT usage.

 Calculation completed.
.Delivered   6 WARNINGs and   5 COMMENTs to log file.