.Version 9.5.2 of ABINIT

 ABINIT is a project of the Universite Catholique de Louvain,
 Corning Inc. and other collaborators, see ~abinit/doc/developers/contributors.txt .
 acknowledgments of the ABINIT effort.

.Starting date : Wed 26 May 2021.
- ( at 03h25 )

- input  file    -> /scratch/users/j/a/jabreu/flow_simple_11atoms/flow/w297/t1/run.abi
- output file    -> /scratch/users/j/a/jabreu/flow_simple_11atoms/flow/w297/t1/run.abo
- root for input  files -> /scratch/users/j/a/jabreu/flow_simple_11atoms/flow/w297/t1/indata/in
- root for output files -> /scratch/users/j/a/jabreu/flow_simple_11atoms/flow/w297/t1/outdata/out

 Symmetries : space group I4_1/a (# 88); Bravais tI (body-center tetrag.)
     intxc =       0      iscf =       7    lmnmax =      18     lnmax =       6
     mgfft =      80  mpssoang =       3    mqgrid =    3001     natom =      12
  nloc_mem =       1    nspden =       1   nspinor =       1    nsppol =       1
      nsym =       8    n1xccc =    2501    ntypat =       3    occopt =       1
   xclevel =       2
-    mband =          67        mffmem =           1         mkmem =           1
-   mkqmem =           1        mk1mem =           1           mpw =       15011
      nfft =      512000          nkpt =           1
  Rough estimation (10% accuracy) of disk space for files :

------------- Echo of variables that govern the present computation ------------
-
- outvars: echo of selected default values
-   iomode0 =  0 , fftalg0 =512 , wfoptalg0 =  0
-
- outvars: echo of global parameters not present in the input file
-  max_nthreads =    0
-
 -outvars: echo values of preprocessed input variables --------
            acell      1.0000000000E+00  1.0000000000E+00  1.0000000000E+00 Bohr
              amu      8.76200000E+01  6.53900000E+01  1.89984032E+01
             ecut      4.20000000E+01 Hartree
-          fftalg         512
           irdden           1
           irdwfk           1
           istwfk        1
              ixc     -116133
           kptopt           0
P           mkmem           1
P          mkqmem           1
P          mk1mem           1
            natom          12
            nband          67
           nbdbuf           4
            ngfft          80      80      80
             nkpt           1
            nstep        2000
             nsym           8
           ntypat           3
              occ      2.000000  2.000000  2.000000  2.000000  2.000000  2.000000
                       2.000000  2.000000  2.000000  2.000000  2.000000  2.000000
                       2.000000  2.000000  2.000000  2.000000  2.000000  2.000000
                       2.000000  2.000000  2.000000  2.000000  2.000000  2.000000
                       2.000000  2.000000  2.000000  2.000000  2.000000  2.000000
                       2.000000  2.000000  2.000000  2.000000  2.000000  2.000000
                       2.000000  2.000000  2.000000  2.000000  2.000000  2.000000
                       2.000000  2.000000  2.000000  2.000000  2.000000  2.000000
                       2.000000  2.000000  2.000000  2.000000  2.000000  2.000000
                       2.000000  2.000000  2.000000  2.000000  0.000000  0.000000
                       0.000000  0.000000  0.000000  0.000000  0.000000  0.000000
                       0.000000
        optdriver           1
            prtwf          -1
            rfdir           1       1       1
           rfelfd           2
            rprim      9.4405107409E+00  0.0000000000E+00 -9.1489526217E+00
                      -1.6926206779E+00  9.2875334880E+00 -9.1489526217E+00
                       0.0000000000E+00  0.0000000000E+00  1.3146352236E+01
          spgroup          88
           symrel      1  0  0   0  1  0   0  0  1      -1  0  0   0 -1  0   0  0 -1
                       0  1  0   1  0  0  -1 -1 -1       0 -1  0  -1  0  0   1  1  1
                       0  0  1  -1 -1 -1   0  1  0       0  0 -1   1  1  1   0 -1  0
                      -1 -1 -1   0  0  1   1  0  0       1  1  1   0  0 -1  -1  0  0
            tnons      0.0000000  0.0000000  0.0000000    -0.2500000  0.2500000  0.5000000
                       0.0000000  0.0000000 -0.0000000    -0.2500000  0.2500000  0.5000000
                       0.0000000  0.0000000 -0.0000000    -0.2500000  0.2500000  0.5000000
                       0.0000000  0.0000000 -0.0000000    -0.2500000  0.2500000  0.5000000
           tolwfr      1.00000000E-20
            typat      1  1  2  2  3  3  3  3  3  3  3  3
           useylm           1
           xangst      2.0500034180E+00  2.4573755229E+00 -4.8414172099E+00
                       5.7715356623E-01  3.6860632844E+00 -1.3630422201E+00
                       0.0000000000E+00  0.0000000000E+00  0.0000000000E+00
                       3.5228532698E+00  1.2286877615E+00 -1.3630422201E+00
                       4.5389290169E-03  2.4516400085E+00  3.5421136635E+00
                       4.2969752566E+00  1.6727158595E+00 -5.4708244322E+00
                       4.9998764142E-01  4.0774888019E+00  1.0987646519E+00
                       2.7424205510E+00  8.4118913001E-01 -3.0727562339E+00
                       7.8043271874E-01  3.8749863146E-01  1.7097140138E+00
                       2.1271693428E+00  2.0659500054E+00 -3.4647410223E-01
                       3.3258848491E+00  4.4707229479E+00 -5.5750522076E+00
                       2.6226180552E+00  3.6917987989E+00 -2.7898231138E+00
            xcart      3.8739450315E+00  4.6437667440E+00 -9.1489526217E+00
                       1.0906621768E+00  6.9656501160E+00 -2.5757765035E+00
                       0.0000000000E+00  0.0000000000E+00  0.0000000000E+00
                       6.6572278862E+00  2.3218833720E+00 -2.5757765035E+00
                       8.5773327785E-03  4.6329281924E+00  6.6936247555E+00
                       8.1201064348E+00  3.1609748725E+00 -1.0338359898E+01
                       9.4483971212E-01  7.7053371456E+00  2.0763642765E+00
                       5.1824237826E+00  1.5896170817E+00 -5.8066677552E+00
                       1.4748041036E+00  7.3226629033E-01  3.2308912517E+00
                       4.0197674962E+00  3.9040797144E+00 -6.5474116535E-01
                       6.2850115144E+00  8.4484419875E+00 -1.0535321849E+01
                       4.9560298755E+00  6.9764886676E+00 -5.2720016443E+00
             xred      5.0000000000E-01  5.0000000000E-01 -5.5511151231E-17
                       2.5000000000E-01  7.5000000000E-01  5.0000000000E-01
                       0.0000000000E+00  0.0000000000E+00  0.0000000000E+00
                       7.5000000000E-01  2.5000000000E-01  5.0000000000E-01
                       9.0346000000E-02  4.9883300000E-01  9.1919000000E-01
                       9.2115600000E-01  3.4034600000E-01  9.1513000000E-02
                       2.4883300000E-01  8.2964300000E-01  9.0848700000E-01
                       5.7964300000E-01  1.7115600000E-01  8.0810000000E-02
                       1.7035700000E-01  7.8844000000E-02  4.1919000000E-01
                       5.0116700000E-01  4.2035700000E-01  5.9151300000E-01
                       8.2884400000E-01  9.0965400000E-01  4.0848700000E-01
                       6.5965400000E-01  7.5116700000E-01  5.8081000000E-01
            znucl       38.00000   30.00000    9.00000

 chkinp: Checking input parameters for consistency.

== DATASET  1 ==================================================================
-   mpi_nproc: 1, omp_nthreads: -1 (-1 if OMP is not activated)

--- !DatasetInfo
iteration_state: {dtset: 1, }
dimensions: {natom: 12, nkpt: 1, mband: 67, nsppol: 1, nspinor: 1, nspden: 1, mpw: 15011, }
cutoff_energies: {ecut:  42.0, pawecutdg:  -1.0, }
electrons: {nelect:   1.16000000E+02, charge:   0.00000000E+00, occopt:   1.00000000E+00, tsmear:   1.00000000E-02, }
meta: {optdriver: 1, rfelfd: 2, }
...

 Real(R)+Recip(G) space primitive vectors, cartesian coordinates (Bohr,Bohr^-1):
 R(1)=  9.4405107  0.0000000 -9.1489526  G(1)=  0.1059265  0.0193047  0.0000000
 R(2)= -1.6926207  9.2875335 -9.1489526  G(2)=  0.0000000  0.1076712  0.0000000
 R(3)=  0.0000000  0.0000000 13.1463522  G(3)=  0.0737175  0.0883665  0.0760667
 Unit cell volume ucvol=  1.1526598E+03 bohr^3
 Angles (23,13,12)=  1.34101444E+02  1.34101444E+02  6.69296054E+01 degrees

 getcut: wavevector=  0.0000  0.0000  0.0000  ngfft=  80  80  80
         ecut(hartree)=     42.000   => boxcut(ratio)=   2.08599

--- Pseudopotential description ------------------------------------------------
- pspini: atom type   1  psp file is /scratch/users/j/a/jabreu/pseudos/PBEsol/Sr.psp8
- pspatm: opening atomic psp file    /scratch/users/j/a/jabreu/pseudos/PBEsol/Sr.psp8
- Sr    ONCVPSP-3.3.0  r_core=   1.66721   1.31335   1.51547
- 38.00000  10.00000    180112                znucl, zion, pspdat
    8 -116133    2    4       600   0.00000   pspcod,pspxc,lmax,lloc,mmax,r2well
    5.99000000000000    6.00000000000000    0.00000000000000   rchrg,fchrg,qchrg
     nproj     2     2     2
     extension_switch     1
  pspatm : epsatm=   12.46450977
         --- l  ekb(1:nproj) -->
             0   10.029206    1.044171
             1    7.472414    1.670829
             2    4.142950    0.968140
 pspatm: atomic psp has been read  and splines computed

- pspini: atom type   2  psp file is /scratch/users/j/a/jabreu/pseudos/PBEsol/Zn.psp8
- pspatm: opening atomic psp file    /scratch/users/j/a/jabreu/pseudos/PBEsol/Zn.psp8
- Zn    ONCVPSP-3.3.0  r_core=   1.35823   1.66358   1.85211
- 30.00000  20.00000    180112                znucl, zion, pspdat
    8 -116133    2    4       600   0.00000   pspcod,pspxc,lmax,lloc,mmax,r2well
    5.99000000000000    2.50000000000000    0.00000000000000   rchrg,fchrg,qchrg
     nproj     2     2     2
     extension_switch     1
  pspatm : epsatm=   26.57343589
         --- l  ekb(1:nproj) -->
             0    2.830835   -1.519107
             1   -4.626739   -1.324150
             2   -6.948510   -2.555500
 pspatm: atomic psp has been read  and splines computed

- pspini: atom type   3  psp file is /scratch/users/j/a/jabreu/pseudos/PBEsol/F.psp8
- pspatm: opening atomic psp file    /scratch/users/j/a/jabreu/pseudos/PBEsol/F.psp8
- F     ONCVPSP-3.3.0  r_core=   1.30942   1.45782   1.60379
-  9.00000   7.00000    180112                znucl, zion, pspdat
    8 -116133    2    4       600   0.00000   pspcod,pspxc,lmax,lloc,mmax,r2well
    5.99000000000000    2.50000000000000    0.00000000000000   rchrg,fchrg,qchrg
     nproj     2     2     1
     extension_switch     1
  pspatm : epsatm=    4.89824824
         --- l  ekb(1:nproj) -->
             0    6.506434    1.065875
             1   -3.978753   -1.295852
             2   -2.394754
 pspatm: atomic psp has been read  and splines computed

   1.36023778E+04                                ecore*ucvol(ha*bohr**3)

 ==>  initialize data related to q vector <==

 The list of irreducible perturbations for this q vector is:
    1)    idir= 1    ipert=  13
    2)    idir= 2    ipert=  13
    3)    idir= 3    ipert=  13

 Perturbation wavevector (in red.coord.)   0.000000  0.000000  0.000000
 Perturbation : derivative vs k along direction   1

[...]
  -0.00000    0.00000    0.00000    0.00000    0.00000    0.00000    0.00000    0.00000
   0.00000   -0.00000    0.00000   -0.00000   -0.00000   -0.00000   -0.00000   -0.00000
  -0.00140    0.00157    0.00016

 Eight components of 2nd-order total energy (hartree) are
 1,2,3: 0th-order hamiltonian combined with 1st-order wavefunctions
     kin0=   8.85076742E+01 eigvalue=   3.36837534E+00  local=  -3.69529522E+01
 4,5,6: 1st-order hamiltonian combined with 1st and 0th-order wfs
     kin1=  -1.07339592E+02  Hartree=   0.00000000E+00     xc=   0.00000000E+00
 7,8,9: eventually, occupation + non-local contributions
    edocc=   5.84451118E+00     enl0=  -9.50374726E-01   enl1=  -1.22948757E+01
 1-9 gives the relaxation energy (to be shifted if some occ is /=2.0)
   erelax=  -5.98172338E+01
  No Ewald or frozen-wf contrib.: the relaxation energy is the total one
 2DEtotal=   -0.5981723377E+02 Ha. Also 2DEtotal=   -0.162770970952E+04 eV
    (  non-var. 2DEtotal :   -5.9817233768E+01 Ha)

 Perturbation wavevector (in red.coord.)   0.000000  0.000000  0.000000
 Perturbation : derivative vs k along direction   2
 The set of symmetries contains only one element for this perturbation.
 symkpt : not enough symmetry to change the number of k points.

[...]

 Perturbation wavevector (in red.coord.)   0.000000  0.000000  0.000000
 Perturbation : derivative vs k along direction   3
 The set of symmetries contains only one element for this perturbation.
 symkpt : not enough symmetry to change the number of k points.

 Initialisation of the first-order wave-functions :
  ireadwf=   0

--- !BeginCycle
iteration_state: {dtset: 1, }
solver: {iscf: 7, nstep: 2000, nline: 4, wfoptalg: 0, }
tolerances: {tolwfr: 1.00E-20, }
...

     iter   2DEtotal(Ha)        deltaE(Ha) residm    vres2
-ETOT  1  -98.043980036361     -9.804E+01 9.199E-02 0.000E+00
 ETOT  2  -98.195708489668     -1.517E-01 8.156E-03 0.000E+00
 ETOT  3  -98.196578507328     -8.700E-04 1.692E-03 0.000E+00
 ETOT  4  -98.196587280770     -8.773E-06 3.468E-04 0.000E+00
 ETOT  5  -98.196587410638     -1.299E-07 1.249E-04 0.000E+00
 ETOT  6  -98.196587412992     -2.354E-09 2.480E-05 0.000E+00
 ETOT  7  -98.196587413041     -4.925E-11 9.533E-06 0.000E+00
 ETOT  8  -98.196587413042     -1.009E-12 1.874E-06 0.000E+00
 ETOT  9  -98.196587413042     -9.948E-14 7.043E-07 0.000E+00
 ETOT 10  -98.196587413042     -2.842E-14 1.458E-07 0.000E+00
 ETOT 11  -98.196587413043     -5.684E-14 5.218E-08 0.000E+00
 ETOT 12  -98.196587413042      5.684E-14 1.173E-08 0.000E+00
 ETOT 13  -98.196587413043     -5.684E-14 4.023E-09 0.000E+00
 ETOT 14  -98.196587413043      0.000E+00 9.647E-10 0.000E+00
 ETOT 15  -98.196587413043      0.000E+00 3.215E-10 0.000E+00
 ETOT 16  -98.196587413043      0.000E+00 8.044E-11 0.000E+00
 ETOT 17  -98.196587413043      1.421E-14 2.632E-11 0.000E+00
 ETOT 18  -98.196587413043     -1.421E-14 6.774E-12 0.000E+00
 ETOT 19  -98.196587413043      0.000E+00 2.191E-12 0.000E+00
 ETOT 20  -98.196587413043     -2.842E-14 5.750E-13 0.000E+00
 ETOT 21  -98.196587413043      2.842E-14 1.846E-13 0.000E+00
 ETOT 22  -98.196587413043      0.000E+00 4.914E-14 0.000E+00
 ETOT 23  -98.196587413043     -1.421E-14 1.572E-14 0.000E+00
 ETOT 24  -98.196587413043      0.000E+00 4.224E-15 0.000E+00
 ETOT 25  -98.196587413043     -1.421E-14 1.348E-15 0.000E+00
 ETOT 26  -98.196587413043      1.421E-14 3.647E-16 0.000E+00
 ETOT 27  -98.196587413043      1.421E-14 1.163E-16 0.000E+00
 ETOT 28  -98.196587413043      1.421E-14 3.161E-17 0.000E+00
 ETOT 29  -98.196587413043     -2.842E-14 1.008E-17 0.000E+00
 ETOT 30  -98.196587413043     -2.842E-14 2.746E-18 0.000E+00
 ETOT 31  -98.196587413043     -1.421E-14 8.760E-19 0.000E+00
 ETOT 32  -98.196587413043      1.421E-14 2.392E-19 0.000E+00
 ETOT 33  -98.196587413043      5.684E-14 7.633E-20 0.000E+00
 ETOT 34  -98.196587413043      0.000E+00 2.086E-20 0.000E+00
 ETOT 35  -98.196587413043     -7.105E-14 9.924E-21 0.000E+00

 At SCF step   35   max residual=  9.92E-21 < tolwfr=  1.00E-20 =>converged.

 ----iterations are completed or convergence reached----

 dfpt_looppert: DFPT cycle converged with prtwf=-1. Will skip output of the 1st-order WFK file.
 dfpt_looppert : ek2=    1.7428695849E+02
          f-sum rule ratio=    1.0111436951E+00
 prteigrs : about to open file /scratch/users/j/a/jabreu/flow_simple_11atoms/flow/w297/t1/tmpdata/tmp_1WF1_EIG
 Expectation of eigenvalue derivatives (hartree) for nkpt=   1  k points:
  (in case of degenerate eigenvalues, averaged derivative)
 kpt#   1, nband= 67, wtk=  1.00000, kpt=  0.0000  0.0000  0.0000 (reduced coord)
   0.00000   -0.00000    0.00000   -0.00000    0.00000    0.00000   -0.00000   -0.00000
  -0.00000   -0.00000   -0.00000   -0.00000   -0.00000   -0.00000   -0.00000   -0.00000
   0.00000    0.00000    0.00000    0.00000   -0.00000    0.00000    0.00000    0.00000
   0.00000    0.00000    0.00000    0.00000   -0.00000    0.00000   -0.00000   -0.00000
   0.00000   -0.00000    0.00000   -0.00000   -0.00000    0.00000    0.00000   -0.00000
  -0.00000   -0.00000    0.00000   -0.00000   -0.00000    0.00000    0.00000   -0.00000
  -0.00000    0.00000    0.00000    0.00000   -0.00000   -0.00000    0.00000    0.00000
   0.00000    0.00000    0.00000   -0.00000   -0.00000   -0.00000   -0.00000    0.00000
  -0.00151    0.00095    0.00003

 Eight components of 2nd-order total energy (hartree) are
 1,2,3: 0th-order hamiltonian combined with 1st-order wavefunctions
     kin0=   1.43337230E+02 eigvalue=   5.40216748E+00  local=  -5.91976398E+01
 4,5,6: 1st-order hamiltonian combined with 1st and 0th-order wfs
     kin1=  -1.76229159E+02  Hartree=   0.00000000E+00     xc=   0.00000000E+00
 7,8,9: eventually, occupation + non-local contributions
    edocc=   1.04064162E+01     enl0=  -1.75158635E+00   enl1=  -2.01640156E+01
 1-9 gives the relaxation energy (to be shifted if some occ is /=2.0)
   erelax=  -9.81965874E+01
  No Ewald or frozen-wf contrib.: the relaxation energy is the total one
 2DEtotal=   -0.9819658741E+02 Ha. Also 2DEtotal=   -0.267206503384E+04 eV
    (  non-var. 2DEtotal :   -9.8196587412E+01 Ha)

 CALCULATION OF EFFECTIVE MASSES
 NOTE : Additional infos (eff. mass eigenvalues, eigenvectors and, if degenerate, average mass) are available in stdout.

 K-point ( 0.000, 0.000, 0.000) | band =    58
 Effective mass tensor:
             -5.5276857282              0.6807321121             -1.3405034667
              0.6807321121             -5.2801238743             -1.6072040592
             -1.3405034667             -1.6072040592             -2.9291994655
 Effective mass tensor eigenvalues:
             -6.0959941411             -6.0951974756             -1.5458174513
 Angular average effective mass 1/(<1/m>)=  -3.0768831195
 Angular average effective mass for Frohlich model (<m**0.5>)**2=  -3.5470421472
 Effective masses along directions: (cart. coord. / red. coord. -> eff. mass)
    1:   1.000000  0.000000  0.000000 /   0.984304 -0.176479  0.000000 ->  -4.4581942446
    2:   0.000000  1.000000  0.000000 /   0.000000  1.000000  0.000000 ->  -3.9901255924
    3:   0.000000  0.000000  1.000000 /  -0.496002 -0.496002  0.712717 ->  -1.9996483789
    4:   0.577350  0.577350  0.577350 /   0.022019 -0.117365  0.992845 ->  -6.0755966550
    5:   0.000000  0.707107  0.707107 /  -0.571197  0.008652  0.820767 ->  -4.8830617288
    6:   0.707107  0.000000  0.707107 /   0.017108 -0.636144  0.771380 ->  -4.5471653317
    7:   0.707107  0.707107  0.000000 /   0.779155  0.626832  0.000000 ->  -3.2290470954

 K-point ( 0.000, 0.000, 0.000) | band =    59
 Effective mass tensor:
              0.5435445101              0.0018550484             -0.0036542193
              0.0018550484              0.5442178517             -0.0043821953
             -0.0036542193             -0.0043821953              0.5506273738
 Effective mass tensor eigenvalues:
              0.5419935880              0.5419972677              0.5543988800
 Angular average effective mass 1/(<1/m>)=   0.5460677819
 Angular average effective mass for Frohlich model (<m**0.5>)**2=   0.5460863464
 Effective masses along directions: (cart. coord. / red. coord. -> eff. mass)
    1:   1.000000  0.000000  0.000000 /   0.984304 -0.176479  0.000000 ->   0.5435141321
    2:   0.000000  1.000000  0.000000 /   0.000000  1.000000  0.000000 ->   0.5441768415
    3:   0.000000  0.000000  1.000000 /  -0.496002 -0.496002  0.712717 ->   0.5505677201
    4:   0.577350  0.577350  0.577350 /   0.022019 -0.117365  0.992845 ->   0.5420086948
    5:   0.000000  0.707107  0.707107 /  -0.571197  0.008652  0.820767 ->   0.5430189321
    6:   0.707107  0.000000  0.707107 /   0.017108 -0.636144  0.771380 ->   0.5434032670
    7:   0.707107  0.707107  0.000000 /   0.779155  0.626832  0.000000 ->   0.5456773810

 END OF EFFECTIVE MASSES SECTION

 ---- first-order wavefunction calculations are completed ----

 Total localisation tensor (bohr^2) in cartesian coordinates
  WARNING : still subject to testing - especially symmetries.
      direction              matrix element
   alpha     beta       real part   imaginary part
     1        1       0.4499595874    0.0000000000
     1        2      -0.0768969586    0.0000000000
     1        3      -0.3467322016    0.0000000000
     2        1      -0.0768969586    0.0000000000
     2        2       0.4219392373    0.0000000000
     2        3      -0.4156434102    0.0000000000
     3        1      -0.3467322016    0.0000000000
     3        2      -0.4156434102    0.0000000000
     3        3       2.2075099595    0.0000000000

 respfn : d/dk was computed, but no 2DTE, so no DDB output.

== END DATASET(S) ==============================================================

 -outvars: echo values of variables after computation  --------
            acell      1.0000000000E+00  1.0000000000E+00  1.0000000000E+00 Bohr
              amu      8.76200000E+01  6.53900000E+01  1.89984032E+01
             ecut      4.20000000E+01 Hartree
           etotal     -9.8196587413E+01
            fcart      0.0000000000E+00  0.0000000000E+00  0.0000000000E+00
                       0.0000000000E+00  0.0000000000E+00  0.0000000000E+00
                       0.0000000000E+00  0.0000000000E+00  0.0000000000E+00
                       0.0000000000E+00  0.0000000000E+00  0.0000000000E+00
                       0.0000000000E+00  0.0000000000E+00  0.0000000000E+00
                       0.0000000000E+00  0.0000000000E+00  0.0000000000E+00
                       0.0000000000E+00  0.0000000000E+00  0.0000000000E+00
                       0.0000000000E+00  0.0000000000E+00  0.0000000000E+00
                       0.0000000000E+00  0.0000000000E+00  0.0000000000E+00
                       0.0000000000E+00  0.0000000000E+00  0.0000000000E+00
                       0.0000000000E+00  0.0000000000E+00  0.0000000000E+00
                       0.0000000000E+00  0.0000000000E+00  0.0000000000E+00
-          fftalg         512
           irdden           1
           irdwfk           1
           istwfk        1
              ixc     -116133
           kptopt           0
P           mkmem           1
P          mkqmem           1
P          mk1mem           1
            natom          12
            nband          67
           nbdbuf           4
            ngfft          80      80      80
             nkpt           1
            nstep        2000
             nsym           8
           ntypat           3
              occ      2.000000  2.000000  2.000000  2.000000  2.000000  2.000000
                       2.000000  2.000000  2.000000  2.000000  2.000000  2.000000
                       2.000000  2.000000  2.000000  2.000000  2.000000  2.000000
                       2.000000  2.000000  2.000000  2.000000  2.000000  2.000000
                       2.000000  2.000000  2.000000  2.000000  2.000000  2.000000
                       2.000000  2.000000  2.000000  2.000000  2.000000  2.000000
                       2.000000  2.000000  2.000000  2.000000  2.000000  2.000000
                       2.000000  2.000000  2.000000  2.000000  2.000000  2.000000
                       2.000000  2.000000  2.000000  2.000000  2.000000  2.000000
                       2.000000  2.000000  2.000000  2.000000  0.000000  0.000000
                       0.000000  0.000000  0.000000  0.000000  0.000000  0.000000
                       0.000000
        optdriver           1
            prtwf          -1
            rfdir           1       1       1
           rfelfd           2
            rprim      9.4405107409E+00  0.0000000000E+00 -9.1489526217E+00
                      -1.6926206779E+00  9.2875334880E+00 -9.1489526217E+00
                       0.0000000000E+00  0.0000000000E+00  1.3146352236E+01
          spgroup          88
           strten      0.0000000000E+00  0.0000000000E+00  0.0000000000E+00
                       0.0000000000E+00  0.0000000000E+00  0.0000000000E+00
           symrel      1  0  0   0  1  0   0  0  1      -1  0  0   0 -1  0   0  0 -1
                       0  1  0   1  0  0  -1 -1 -1       0 -1  0  -1  0  0   1  1  1
                       0  0  1  -1 -1 -1   0  1  0       0  0 -1   1  1  1   0 -1  0
                      -1 -1 -1   0  0  1   1  0  0       1  1  1   0  0 -1  -1  0  0
            tnons      0.0000000  0.0000000  0.0000000    -0.2500000  0.2500000  0.5000000
                       0.0000000  0.0000000 -0.0000000    -0.2500000  0.2500000  0.5000000
                       0.0000000  0.0000000 -0.0000000    -0.2500000  0.2500000  0.5000000
                       0.0000000  0.0000000 -0.0000000    -0.2500000  0.2500000  0.5000000
           tolwfr      1.00000000E-20
            typat      1  1  2  2  3  3  3  3  3  3  3  3
           useylm           1
           xangst      2.0500034180E+00  2.4573755229E+00 -4.8414172099E+00
                       5.7715356623E-01  3.6860632844E+00 -1.3630422201E+00
                       0.0000000000E+00  0.0000000000E+00  0.0000000000E+00
                       3.5228532698E+00  1.2286877615E+00 -1.3630422201E+00
                       4.5389290169E-03  2.4516400085E+00  3.5421136635E+00
                       4.2969752566E+00  1.6727158595E+00 -5.4708244322E+00
                       4.9998764142E-01  4.0774888019E+00  1.0987646519E+00
                       2.7424205510E+00  8.4118913001E-01 -3.0727562339E+00
                       7.8043271874E-01  3.8749863146E-01  1.7097140138E+00
                       2.1271693428E+00  2.0659500054E+00 -3.4647410223E-01
                       3.3258848491E+00  4.4707229479E+00 -5.5750522076E+00
                       2.6226180552E+00  3.6917987989E+00 -2.7898231138E+00
            xcart      3.8739450315E+00  4.6437667440E+00 -9.1489526217E+00
                       1.0906621768E+00  6.9656501160E+00 -2.5757765035E+00
                       0.0000000000E+00  0.0000000000E+00  0.0000000000E+00
                       6.6572278862E+00  2.3218833720E+00 -2.5757765035E+00
                       8.5773327785E-03  4.6329281924E+00  6.6936247555E+00
                       8.1201064348E+00  3.1609748725E+00 -1.0338359898E+01
                       9.4483971212E-01  7.7053371456E+00  2.0763642765E+00
                       5.1824237826E+00  1.5896170817E+00 -5.8066677552E+00
                       1.4748041036E+00  7.3226629033E-01  3.2308912517E+00
                       4.0197674962E+00  3.9040797144E+00 -6.5474116535E-01
                       6.2850115144E+00  8.4484419875E+00 -1.0535321849E+01
                       4.9560298755E+00  6.9764886676E+00 -5.2720016443E+00
             xred      5.0000000000E-01  5.0000000000E-01 -5.5511151231E-17
                       2.5000000000E-01  7.5000000000E-01  5.0000000000E-01
                       0.0000000000E+00  0.0000000000E+00  0.0000000000E+00
                       7.5000000000E-01  2.5000000000E-01  5.0000000000E-01
                       9.0346000000E-02  4.9883300000E-01  9.1919000000E-01
                       9.2115600000E-01  3.4034600000E-01  9.1513000000E-02
                       2.4883300000E-01  8.2964300000E-01  9.0848700000E-01
                       5.7964300000E-01  1.7115600000E-01  8.0810000000E-02
                       1.7035700000E-01  7.8844000000E-02  4.1919000000E-01
                       5.0116700000E-01  4.2035700000E-01  5.9151300000E-01
                       8.2884400000E-01  9.0965400000E-01  4.0848700000E-01
                       6.5965400000E-01  7.5116700000E-01  5.8081000000E-01
            znucl       38.00000   30.00000    9.00000

- Timing analysis has been suppressed with timopt=0

 Suggested references for the acknowledgment of ABINIT usage.

 Calculation completed.
.Delivered   2 WARNINGs and   5 COMMENTs to log file.