.Version 9.5.1 of ABINIT

 ABINIT is a project of the Universite Catholique de Louvain,
 Corning Inc. and other collaborators, see ~abinit/doc/developers/contributors.txt .
 acknowledgments of the ABINIT effort.

.Starting date : Tue 27 Apr 2021.
- ( at 18h30 )

- input  file    -> /scratch/users/j/a/jabreu/flow_simple_4atoms/flow/w172/t1/run.abi
- output file    -> /scratch/users/j/a/jabreu/flow_simple_4atoms/flow/w172/t1/run.abo
- root for input  files -> /scratch/users/j/a/jabreu/flow_simple_4atoms/flow/w172/t1/indata/in
- root for output files -> /scratch/users/j/a/jabreu/flow_simple_4atoms/flow/w172/t1/outdata/out

 Symmetries : space group P4/m m m (#123); Bravais tP (primitive tetrag.)
     intxc =       0      iscf =       7    lmnmax =      18     lnmax =       6
     mgfft =      64  mpssoang =       3    mqgrid =    3057     natom =       4
  nloc_mem =       1    nspden =       1   nspinor =       1    nsppol =       1
      nsym =      16    n1xccc =    2501    ntypat =       2    occopt =       1
   xclevel =       2
-    mband =          21        mffmem =           1         mkmem =           1
-   mkqmem =           1        mk1mem =           1           mpw =        6748
      nfft =      129600          nkpt =           1
  Rough estimation (10% accuracy) of disk space for files :

------------- Echo of variables that govern the present computation ------------
-
- outvars: echo of selected default values
-   iomode0 =  0 , fftalg0 =512 , wfoptalg0 =  0
-
- outvars: echo of global parameters not present in the input file
-  max_nthreads =    0
-
 -outvars: echo values of preprocessed input variables --------
            acell      1.0000000000E+00  1.0000000000E+00  1.0000000000E+00 Bohr
              amu      8.54678000E+01  1.40067400E+01
             ecut      4.20000000E+01 Hartree
-          fftalg         512
           irdden           1
           irdwfk           1
           istwfk        1
              ixc     -116133
              kpt      0.00000000E+00  5.00000000E-01  0.00000000E+00
           kptopt           0
P           mkmem           1
P          mkqmem           1
P          mk1mem           1
            natom           4
            nband          21
           nbdbuf           4
            ngfft          45      45      64
             nkpt           1
            nstep         100
             nsym          16
           ntypat           2
              occ      2.000000  2.000000  2.000000  2.000000  2.000000  2.000000
                       2.000000  2.000000  2.000000  2.000000  2.000000  2.000000
                       0.000000  0.000000  0.000000  0.000000  0.000000  0.000000
                       0.000000  0.000000  0.000000
        optdriver           1
            prtwf          -1
            rfdir           1       1       1
           rfelfd           2
            rprim      7.0419528529E+00  0.0000000000E+00  0.0000000000E+00
                       0.0000000000E+00  7.0419528529E+00  0.0000000000E+00
                       0.0000000000E+00  0.0000000000E+00  1.0475571823E+01
          spgroup         123
           symrel      1  0  0   0  1  0   0  0  1      -1  0  0   0 -1  0   0  0 -1
                      -1  0  0   0  1  0   0  0 -1       1  0  0   0 -1  0   0  0  1
                      -1  0  0   0 -1  0   0  0  1       1  0  0   0  1  0   0  0 -1
                       1  0  0   0 -1  0   0  0 -1      -1  0  0   0  1  0   0  0  1
                       0  1  0   1  0  0   0  0  1       0 -1  0  -1  0  0   0  0 -1
                       0 -1  0   1  0  0   0  0 -1       0  1  0  -1  0  0   0  0  1
                       0 -1  0  -1  0  0   0  0  1       0  1  0   1  0  0   0  0 -1
                       0  1  0  -1  0  0   0  0 -1       0 -1  0   1  0  0   0  0  1
           tolwfr      1.00000000E-20
            typat      1  2  2  2
           useylm           1
           xangst      1.8632204769E+00  1.8632204769E+00  2.7717169279E+00
                       0.0000000000E+00  0.0000000000E+00  1.1854910472E+00
                       0.0000000000E+00  0.0000000000E+00  4.3579428086E+00
                       0.0000000000E+00  0.0000000000E+00  0.0000000000E+00
            xcart      3.5209764264E+00  3.5209764264E+00  5.2377859116E+00
                       0.0000000000E+00  0.0000000000E+00  2.2402534123E+00
                       0.0000000000E+00  0.0000000000E+00  8.2353184109E+00
                       0.0000000000E+00  0.0000000000E+00  0.0000000000E+00
             xred      5.0000000000E-01  5.0000000000E-01  5.0000000000E-01
                       0.0000000000E+00  0.0000000000E+00  2.1385500000E-01
                       0.0000000000E+00  0.0000000000E+00  7.8614500000E-01
                       0.0000000000E+00  0.0000000000E+00  0.0000000000E+00
            znucl       37.00000    7.00000

 chkinp: Checking input parameters for consistency.

== DATASET  1 ==================================================================
-   mpi_nproc: 1, omp_nthreads: -1 (-1 if OMP is not activated)

--- !DatasetInfo
iteration_state: {dtset: 1, }
dimensions: {natom: 4, nkpt: 1, mband: 21, nsppol: 1, nspinor: 1, nspden: 1, mpw: 6748, }
cutoff_energies: {ecut:  42.0, pawecutdg:  -1.0, }
electrons: {nelect:   2.40000000E+01, charge:   0.00000000E+00, occopt:   1.00000000E+00, tsmear:   1.00000000E-02, }
meta: {optdriver: 1, rfelfd: 2, }
...

 Real(R)+Recip(G) space primitive vectors, cartesian coordinates (Bohr,Bohr^-1):
 R(1)=  7.0419529  0.0000000  0.0000000  G(1)=  0.1420061  0.0000000  0.0000000
 R(2)=  0.0000000  7.0419529  0.0000000  G(2)=  0.0000000  0.1420061  0.0000000
 R(3)=  0.0000000  0.0000000 10.4755718  G(3)=  0.0000000  0.0000000  0.0954602
 Unit cell volume ucvol=  5.1947418E+02 bohr^3
 Angles (23,13,12)=  9.00000000E+01  9.00000000E+01  9.00000000E+01 degrees

 getcut: wavevector=  0.0000  0.0000  0.0000  ngfft=  45  45  64
         ecut(hartree)=     42.000   => boxcut(ratio)=   2.09417

--- Pseudopotential description ------------------------------------------------
- pspini: atom type   1  psp file is /scratch/users/j/a/jabreu/pseudos/PBEsol/Rb.psp8
- pspatm: opening atomic psp file    /scratch/users/j/a/jabreu/pseudos/PBEsol/Rb.psp8
- Rb    ONCVPSP-3.3.0  r_core=   1.71227   1.75361   1.90633
- 37.00000   9.00000    180112                znucl, zion, pspdat
    8 -116133    2    4       600   0.00000   pspcod,pspxc,lmax,lloc,mmax,r2well
    5.99000000000000    7.00000000000000    0.00000000000000   rchrg,fchrg,qchrg
     nproj     2     2     2
     extension_switch     1
  pspatm : epsatm=   34.48400912
         --- l  ekb(1:nproj) -->
             0    8.196957   -0.477221
             1    3.231347   -0.378736
             2   -1.047201    0.996637
 pspatm: atomic psp has been read  and splines computed

- pspini: atom type   2  psp file is /scratch/users/j/a/jabreu/pseudos/PBEsol/N.psp8
- pspatm: opening atomic psp file    /scratch/users/j/a/jabreu/pseudos/PBEsol/N.psp8
- N     ONCVPSP-3.3.0  r_core=   1.20551   1.35824
-  7.00000   5.00000    180112                znucl, zion, pspdat
    8 -116133    1    4       600   0.00000   pspcod,pspxc,lmax,lloc,mmax,r2well
    5.99000000000000    4.00000000000000    0.00000000000000   rchrg,fchrg,qchrg
     nproj     2     2
     extension_switch     1
  pspatm : epsatm=    5.26508895
         --- l  ekb(1:nproj) -->
             0    7.464189    0.625868
             1   -4.309714   -1.012941
 pspatm: atomic psp has been read  and splines computed

   1.20670262E+03                                ecore*ucvol(ha*bohr**3)

-inwffil : will read wavefunctions from disk file /scratch/users/j/a/jabreu/flow_simple_4atoms/flow/w172/t1/indata/in_WFK

 ==>  initialize data related to q vector <==

 The list of irreducible perturbations for this q vector is:
    1)    idir= 1    ipert=   5
    2)    idir= 2    ipert=   5
    3)    idir= 3    ipert=   5

 Perturbation wavevector (in red.coord.)   0.000000  0.000000  0.000000
 Perturbation : derivative vs k along direction   1

 dfpt_looppert : COMMENT -
  In a d/dk calculation, iscf is set to -3 automatically.
 The set of symmetries contains only one element for this perturbation.
 symkpt : not enough symmetry to change the number of k points.

[...]

 Initialisation of the first-order wave-functions :
  ireadwf=   0

--- !BeginCycle
iteration_state: {dtset: 1, }
solver: {iscf: 7, nstep: 100, nline: 4, wfoptalg: 0, }
tolerances: {tolwfr: 1.00E-20, }
...

     iter   2DEtotal(Ha)        deltaE(Ha) residm    vres2
-ETOT  1  -22.582242791248     -2.258E+01 2.170E-02 0.000E+00
 ETOT  2  -22.585738140373     -3.495E-03 4.642E-04 0.000E+00
 ETOT  3  -22.585740405372     -2.265E-06 2.569E-06 0.000E+00
 ETOT  4  -22.585740407834     -2.462E-09 6.362E-08 0.000E+00
 ETOT  5  -22.585740407842     -7.546E-12 1.479E-09 0.000E+00
 ETOT  6  -22.585740407842     -2.487E-14 2.074E-11 0.000E+00
 ETOT  7  -22.585740407842     -3.553E-15 7.096E-13 0.000E+00
 ETOT  8  -22.585740407842      7.105E-15 8.899E-15 0.000E+00
 ETOT  9  -22.585740407842     -3.553E-15 3.246E-16 0.000E+00
 ETOT 10  -22.585740407842     -7.105E-15 4.838E-18 0.000E+00
 ETOT 11  -22.585740407842      0.000E+00 1.709E-19 0.000E+00
 ETOT 12  -22.585740407842      1.066E-14 9.749E-21 0.000E+00

 At SCF step   12   max residual=  9.75E-21 < tolwfr=  1.00E-20 =>converged.

 ----iterations are completed or convergence reached----

 dfpt_looppert: DFPT cycle converged with prtwf=-1. Will skip output of the 1st-order WFK file.
 dfpt_looppert : ek2=    3.8213317961E+01
          f-sum rule ratio=    1.1687608738E+00
 prteigrs : about to open file /scratch/users/j/a/jabreu/flow_simple_4atoms/flow/w172/t1/tmpdata/tmp_1WF1_EIG
 Expectation of eigenvalue derivatives (hartree) for nkpt=   1  k points:
  (in case of degenerate eigenvalues, averaged derivative)
 kpt#   1, nband= 21, wtk=  1.00000, kpt=  0.0000  0.5000  0.0000 (reduced coord)
  -0.00000   -0.00000    0.00000   -0.00000    0.00000    0.00000    0.00000   -0.00000
   0.00000   -0.00000    0.00000   -0.00000   -0.00000    0.00000    0.00000   -0.00000
   0.00000   -0.00000   -0.00000   -0.00000    0.00000

 Eight components of 2nd-order total energy (hartree) are
 1,2,3: 0th-order hamiltonian combined with 1st-order wavefunctions
     kin0=   1.64907816E+01 eigvalue=   1.36566897E+00  local=  -6.48605780E+00
 4,5,6: 1st-order hamiltonian combined with 1st and 0th-order wfs
     kin1=  -4.46622309E+01  Hartree=   0.00000000E+00     xc=   0.00000000E+00
 7,8,9: eventually, occupation + non-local contributions
    edocc=   1.19352816E+01     enl0=  -7.19933894E-01   enl1=  -5.09249924E-01
 1-9 gives the relaxation energy (to be shifted if some occ is /=2.0)
   erelax=  -2.25857404E+01
  No Ewald or frozen-wf contrib.: the relaxation energy is the total one
 2DEtotal=   -0.2258574041E+02 Ha. Also 2DEtotal=   -0.614589252000E+03 eV
    (  non-var. 2DEtotal :   -2.2585740408E+01 Ha)

 Perturbation wavevector (in red.coord.)   0.000000  0.000000  0.000000
 Perturbation : derivative vs k along direction   2
 The set of symmetries contains only one element for this perturbation.
 symkpt : not enough symmetry to change the number of k points.

[...]

 Perturbation wavevector (in red.coord.)   0.000000  0.000000  0.000000
 Perturbation : derivative vs k along direction   3
 The set of symmetries contains only one element for this perturbation.
 symkpt : not enough symmetry to change the number of k points.

-inwffil : will read wavefunctions from disk file /scratch/users/j/a/jabreu/flow_simple_4atoms/flow/w172/t1/indata/in_WFK

 Initialisation of the first-order wave-functions :
  ireadwf=   0

--- !BeginCycle
iteration_state: {dtset: 1, }
solver: {iscf: 7, nstep: 100, nline: 4, wfoptalg: 0, }
tolerances: {tolwfr: 1.00E-20, }
...

     iter   2DEtotal(Ha)        deltaE(Ha) residm    vres2
-ETOT  1  -10.101824342886     -1.010E+01 1.172E-02 0.000E+00
 ETOT  2  -10.104124096838     -2.300E-03 3.853E-05 0.000E+00
 ETOT  3  -10.104127788639     -3.692E-06 1.011E-07 0.000E+00
 ETOT  4  -10.104127798639     -9.999E-09 5.203E-09 0.000E+00
 ETOT  5  -10.104127798674     -3.491E-11 9.145E-11 0.000E+00
 ETOT  6  -10.104127798674     -1.830E-13 4.389E-12 0.000E+00
 ETOT  7  -10.104127798674     -1.243E-14 9.153E-14 0.000E+00
 ETOT  8  -10.104127798674     -2.132E-14 4.249E-15 0.000E+00
 ETOT  9  -10.104127798674      7.105E-15 1.015E-16 0.000E+00
 ETOT 10  -10.104127798674     -3.553E-15 4.540E-18 0.000E+00
 ETOT 11  -10.104127798674     -7.105E-15 1.178E-19 0.000E+00
 ETOT 12  -10.104127798674      3.553E-15 7.574E-21 0.000E+00

 At SCF step   12   max residual=  7.57E-21 < tolwfr=  1.00E-20 =>converged.

 ----iterations are completed or convergence reached----

 dfpt_looppert: DFPT cycle converged with prtwf=-1. Will skip output of the 1st-order WFK file.
 dfpt_looppert : ek2=    1.7268137432E+01
          f-sum rule ratio=    1.1517554305E+00
 prteigrs : about to open file /scratch/users/j/a/jabreu/flow_simple_4atoms/flow/w172/t1/tmpdata/tmp_1WF1_EIG
 Expectation of eigenvalue derivatives (hartree) for nkpt=   1  k points:
  (in case of degenerate eigenvalues, averaged derivative)
 kpt#   1, nband= 21, wtk=  1.00000, kpt=  0.0000  0.5000  0.0000 (reduced coord)
   0.00000    0.00000    0.00000    0.00000   -0.00000   -0.00000   -0.00000   -0.00000
   0.00000    0.00000    0.00000   -0.00000    0.00000    0.00000   -0.00000    0.00000
  -0.00000    0.00000   -0.00000   -0.00000   -0.00000

 Eight components of 2nd-order total energy (hartree) are
 1,2,3: 0th-order hamiltonian combined with 1st-order wavefunctions
     kin0=   6.31747668E+00 eigvalue=   6.90252256E-01  local=  -2.87101975E+00
 4,5,6: 1st-order hamiltonian combined with 1st and 0th-order wfs
     kin1=  -1.98886711E+01  Hartree=   0.00000000E+00     xc=   0.00000000E+00
 7,8,9: eventually, occupation + non-local contributions
    edocc=   6.59486028E+00     enl0=  -6.27441665E-01   enl1=  -3.19584535E-01
 1-9 gives the relaxation energy (to be shifted if some occ is /=2.0)
   erelax=  -1.01041278E+01
  No Ewald or frozen-wf contrib.: the relaxation energy is the total one
 2DEtotal=   -0.1010412780E+02 Ha. Also 2DEtotal=   -0.274947300100E+03 eV
    (  non-var. 2DEtotal :   -1.0104127799E+01 Ha)

 CALCULATION OF EFFECTIVE MASSES
 NOTE : Additional infos (eff. mass eigenvalues, eigenvectors and, if degenerate, average mass) are available in stdout.

 K-point ( 0.000, 0.500, 0.000) | band =    12
 Effective mass tensor:
             -1.2170691541             -0.0000000022             -0.0000000931
             -0.0000000022             -8.0194204666              0.0000001530
             -0.0000000931              0.0000001530             -2.0363422649
 Effective mass tensor eigenvalues:
             -8.0194204666             -2.0363422649             -1.2170691541
 Angular average effective mass 1/(<1/m>)=  -2.0870728598
 Angular average effective mass for Frohlich model (<m**0.5>)**2=  -2.3992322777
 Effective masses along directions: (cart. coord. / red. coord. -> eff. mass)
    1:   1.000000  0.000000  0.000000 /   1.000000  0.000000  0.000000 ->  -1.2170691541
    2:   0.000000  1.000000  0.000000 /   0.000000  1.000000  0.000000 ->  -8.0194204666
    3:   0.000000  0.000000  1.000000 /   0.000000  0.000000  1.000000 ->  -2.0363422649
    4:   0.577350  0.577350  0.577350 /   0.487200  0.487200  0.724756 ->  -2.0870729423
    5:   0.000000  0.707107  0.707107 /   0.000000  0.557890  0.829915 ->  -3.2479454370
    6:   0.707107  0.000000  0.707107 /   0.557890  0.000000  0.829915 ->  -1.5235512393
    7:   0.707107  0.707107  0.000000 /   0.707107  0.707107  0.000000 ->  -2.1133979876

 K-point ( 0.000, 0.500, 0.000) | band =    13
 Effective mass tensor:
              0.7336752508              0.0000000002             -0.0000000000
              0.0000000002              1.1252113891              0.0000000000
             -0.0000000000              0.0000000000              0.3846968846
 Effective mass tensor eigenvalues:
              0.3846968846              0.7336752508              1.1252113891
 Angular average effective mass 1/(<1/m>)=   0.6184072713
 Angular average effective mass for Frohlich model (<m**0.5>)**2=   0.6562801657
 Effective masses along directions: (cart. coord. / red. coord. -> eff. mass)
    1:   1.000000  0.000000  0.000000 /   1.000000  0.000000  0.000000 ->   0.7336752508
    2:   0.000000  1.000000  0.000000 /   0.000000  1.000000  0.000000 ->   1.1252113891
    3:   0.000000  0.000000  1.000000 /   0.000000  0.000000  1.000000 ->   0.3846968846
    4:   0.577350  0.577350  0.577350 /   0.487200  0.487200  0.724756 ->   0.6184072714
    5:   0.000000  0.707107  0.707107 /   0.000000  0.557890  0.829915 ->   0.5733663739
    6:   0.707107  0.000000  0.707107 /   0.557890  0.000000  0.829915 ->   0.5047382251
    7:   0.707107  0.707107  0.000000 /   0.707107  0.707107  0.000000 ->   0.8882088133

 END OF EFFECTIVE MASSES SECTION

 ---- first-order wavefunction calculations are completed ----

 Total localisation tensor (bohr^2) in cartesian coordinates
  WARNING : still subject to testing - especially symmetries.
      direction              matrix element
   alpha     beta       real part   imaginary part
     1        1       0.8590180799    0.0000000000
     1        2       0.0000000000    0.0000000000
     1        3       0.0000000000    0.0000000000
     2        1       0.0000000000    0.0000000000
     2        2       0.5551849101    0.0000000000
     2        3       0.0000000000    0.0000000000
     3        1       0.0000000000    0.0000000000
     3        2       0.0000000000    0.0000000000
     3        3       1.5668535005    0.0000000000

 respfn : d/dk was computed, but no 2DTE, so no DDB output.

== END DATASET(S) ==============================================================

 -outvars: echo values of variables after computation  --------
            acell      1.0000000000E+00  1.0000000000E+00  1.0000000000E+00 Bohr
              amu      8.54678000E+01  1.40067400E+01
             ecut      4.20000000E+01 Hartree
           etotal     -1.0104127799E+01
            fcart      0.0000000000E+00  0.0000000000E+00  0.0000000000E+00
                       0.0000000000E+00  0.0000000000E+00  0.0000000000E+00
                       0.0000000000E+00  0.0000000000E+00  0.0000000000E+00
                       0.0000000000E+00  0.0000000000E+00  0.0000000000E+00
-          fftalg         512
           irdden           1
           irdwfk           1
           istwfk        1
              ixc     -116133
              kpt      0.00000000E+00  5.00000000E-01  0.00000000E+00
           kptopt           0
P           mkmem           1
P          mkqmem           1
P          mk1mem           1
            natom           4
            nband          21
           nbdbuf           4
            ngfft          45      45      64
             nkpt           1
            nstep         100
             nsym          16
           ntypat           2
              occ      2.000000  2.000000  2.000000  2.000000  2.000000  2.000000
                       2.000000  2.000000  2.000000  2.000000  2.000000  2.000000
                       0.000000  0.000000  0.000000  0.000000  0.000000  0.000000
                       0.000000  0.000000  0.000000
        optdriver           1
            prtwf          -1
            rfdir           1       1       1
           rfelfd           2
            rprim      7.0419528529E+00  0.0000000000E+00  0.0000000000E+00
                       0.0000000000E+00  7.0419528529E+00  0.0000000000E+00
                       0.0000000000E+00  0.0000000000E+00  1.0475571823E+01
          spgroup         123
           strten      0.0000000000E+00  0.0000000000E+00  0.0000000000E+00
                       0.0000000000E+00  0.0000000000E+00  0.0000000000E+00
           symrel      1  0  0   0  1  0   0  0  1      -1  0  0   0 -1  0   0  0 -1
                      -1  0  0   0  1  0   0  0 -1       1  0  0   0 -1  0   0  0  1
                      -1  0  0   0 -1  0   0  0  1       1  0  0   0  1  0   0  0 -1
                       1  0  0   0 -1  0   0  0 -1      -1  0  0   0  1  0   0  0  1
                       0  1  0   1  0  0   0  0  1       0 -1  0  -1  0  0   0  0 -1
                       0 -1  0   1  0  0   0  0 -1       0  1  0  -1  0  0   0  0  1
                       0 -1  0  -1  0  0   0  0  1       0  1  0   1  0  0   0  0 -1
                       0  1  0  -1  0  0   0  0 -1       0 -1  0   1  0  0   0  0  1
           tolwfr      1.00000000E-20
            typat      1  2  2  2
           useylm           1
           xangst      1.8632204769E+00  1.8632204769E+00  2.7717169279E+00
                       0.0000000000E+00  0.0000000000E+00  1.1854910472E+00
                       0.0000000000E+00  0.0000000000E+00  4.3579428086E+00
                       0.0000000000E+00  0.0000000000E+00  0.0000000000E+00
            xcart      3.5209764264E+00  3.5209764264E+00  5.2377859116E+00
                       0.0000000000E+00  0.0000000000E+00  2.2402534123E+00
                       0.0000000000E+00  0.0000000000E+00  8.2353184109E+00
                       0.0000000000E+00  0.0000000000E+00  0.0000000000E+00
             xred      5.0000000000E-01  5.0000000000E-01  5.0000000000E-01
                       0.0000000000E+00  0.0000000000E+00  2.1385500000E-01
                       0.0000000000E+00  0.0000000000E+00  7.8614500000E-01
                       0.0000000000E+00  0.0000000000E+00  0.0000000000E+00
            znucl       37.00000    7.00000

- Timing analysis has been suppressed with timopt=0

 Suggested references for the acknowledgment of ABINIT usage.

 Calculation completed.
.Delivered   6 WARNINGs and   5 COMMENTs to log file.