.Version 9.5.2 of ABINIT

 ABINIT is a project of the Universite Catholique de Louvain,
 Corning Inc. and other collaborators, see ~abinit/doc/developers/contributors.txt .
 acknowledgments of the ABINIT effort.

.Starting date : Mon 24 May 2021.
- ( at 22h49 )

- input  file    -> /scratch/users/j/a/jabreu/flow_simple_10atoms/flow/w439/t1/run.abi
- output file    -> /scratch/users/j/a/jabreu/flow_simple_10atoms/flow/w439/t1/run.abo
- root for input  files -> /scratch/users/j/a/jabreu/flow_simple_10atoms/flow/w439/t1/indata/in
- root for output files -> /scratch/users/j/a/jabreu/flow_simple_10atoms/flow/w439/t1/outdata/out

 Symmetries : space group Fm -3 m (#225); Bravais cF (face-center cubic)
     intxc =       0      iscf =       7    lmnmax =      32     lnmax =       8
     mgfft =      80  mpssoang =       4    mqgrid =    3105     natom =      10
  nloc_mem =       1    nspden =       1   nspinor =       1    nsppol =       1
      nsym =      48    n1xccc =    2501    ntypat =       4    occopt =       1
   xclevel =       2
-    mband =          53        mffmem =           1         mkmem =           1
-   mkqmem =           1        mk1mem =           1           mpw =       20179
      nfft =      512000          nkpt =           1
  Rough estimation (10% accuracy) of disk space for files :

------------- Echo of variables that govern the present computation ------------
-
- outvars: echo of selected default values
-   iomode0 =  0 , fftalg0 =512 , wfoptalg0 =  0
-
- outvars: echo of global parameters not present in the input file
-  max_nthreads =    0
-
 -outvars: echo values of preprocessed input variables --------
            acell      1.0000000000E+00  1.0000000000E+00  1.0000000000E+00 Bohr
              amu      1.32905430E+02  2.04383300E+02  2.08980370E+02
                       1.89984032E+01
             ecut      4.20000000E+01 Hartree
-          fftalg         512
           irdden           1
           irdwfk           1
           istwfk        1
              ixc     -116133
           kptopt           0
P           mkmem           1
P          mkqmem           1
P          mk1mem           1
            natom          10
            nband          53
           nbdbuf           4
            ngfft          80      80      80
             nkpt           1
            nstep        2000
             nsym          48
           ntypat           4
              occ      2.000000  2.000000  2.000000  2.000000  2.000000  2.000000
                       2.000000  2.000000  2.000000  2.000000  2.000000  2.000000
                       2.000000  2.000000  2.000000  2.000000  2.000000  2.000000
                       2.000000  2.000000  2.000000  2.000000  2.000000  2.000000
                       2.000000  2.000000  2.000000  2.000000  2.000000  2.000000
                       2.000000  2.000000  2.000000  2.000000  2.000000  2.000000
                       2.000000  2.000000  2.000000  2.000000  2.000000  2.000000
                       2.000000  2.000000  0.000000  0.000000  0.000000  0.000000
                       0.000000  0.000000  0.000000  0.000000  0.000000
        optdriver           1
            prtwf          -1
            rfdir           1       1       1
           rfelfd           2
            rprim      1.1286762584E+01  0.0000000000E+00  6.5164154161E+00
                       3.7622541947E+00  1.0641261814E+01  6.5164154161E+00
                       0.0000000000E+00  0.0000000000E+00  1.3032830832E+01
          spgroup         225
           symrel      1  0  0   0  1  0   0  0  1      -1  0  0   0 -1  0   0  0 -1
                       0 -1  1   0 -1  0   1 -1  0       0  1 -1   0  1  0  -1  1  0
                      -1  0  0  -1  0  1  -1  1  0       1  0  0   1  0 -1   1 -1  0
                       0  1 -1   1  0 -1   0  0 -1       0 -1  1  -1  0  1   0  0  1
                      -1  0  0  -1  1  0  -1  0  1       1  0  0   1 -1  0   1  0 -1
                       0 -1  1   1 -1  0   0 -1  0       0  1 -1  -1  1  0   0  1  0
                       1  0  0   0  0  1   0  1  0      -1  0  0   0  0 -1   0 -1  0
                       0  1 -1   0  0 -1   1  0 -1       0 -1  1   0  0  1  -1  0  1
                      -1  0  1  -1  1  0  -1  0  0       1  0 -1   1 -1  0   1  0  0
                       0 -1  0   1 -1  0   0 -1  1       0  1  0  -1  1  0   0  1 -1
                       1  0 -1   0  0 -1   0  1 -1      -1  0  1   0  0  1   0 -1  1
                       0  1  0   0  0  1   1  0  0       0 -1  0   0  0 -1  -1  0  0
                       1  0 -1   0  1 -1   0  0 -1      -1  0  1   0 -1  1   0  0  1
                       0 -1  0   0 -1  1   1 -1  0       0  1  0   0  1 -1  -1  1  0
                      -1  0  1  -1  0  0  -1  1  0       1  0 -1   1  0  0   1 -1  0
                       0  1  0   1  0  0   0  0  1       0 -1  0  -1  0  0   0  0 -1
                       0  0 -1   0  1 -1   1  0 -1       0  0  1   0 -1  1  -1  0  1
                       1 -1  0   0 -1  1   0 -1  0      -1  1  0   0  1 -1   0  1  0
                       0  0  1   1  0  0   0  1  0       0  0 -1  -1  0  0   0 -1  0
                      -1  1  0  -1  0  0  -1  0  1       1 -1  0   1  0  0   1  0 -1
                       0  0  1   0  1  0   1  0  0       0  0 -1   0 -1  0  -1  0  0
                       1 -1  0   0 -1  0   0 -1  1      -1  1  0   0  1  0   0  1 -1
                       0  0 -1   1  0 -1   0  1 -1       0  0  1  -1  0  1   0 -1  1
                      -1  1  0  -1  0  1  -1  0  0       1 -1  0   1  0 -1   1  0  0
           tolwfr      1.00000000E-20
            typat      1  1  2  3  4  4  4  4  4  4
           useylm           1
           xangst      1.9908991727E+00  1.4077783057E+00  3.4483385199E+00
                       5.9726975182E+00  4.2233349171E+00  1.0345015560E+01
                       3.9817983455E+00  2.8155566114E+00  6.8966770398E+00
                       0.0000000000E+00  0.0000000000E+00  0.0000000000E+00
                       2.9113714963E+00  4.3293687791E+00  8.7507107285E+00
                       1.8409446471E+00  1.3017444437E+00  6.8966770398E+00
                       6.1226520439E+00  4.3293687791E+00  6.8966770398E+00
                       5.0522251947E+00  1.3017444437E+00  5.0426433512E+00
                       5.0522251947E+00  1.3017444437E+00  8.7507107285E+00
                       2.9113714963E+00  4.3293687791E+00  5.0426433512E+00
            xcart      3.7622541947E+00  2.6603154536E+00  6.5164154161E+00
                       1.1286762584E+01  7.9809463608E+00  1.9549246248E+01
                       7.5245083894E+00  5.3206309072E+00  1.3032830832E+01
                       0.0000000000E+00  0.0000000000E+00  0.0000000000E+00
                       5.5016947991E+00  8.1813213208E+00  1.6536446745E+01
                       3.4788812087E+00  2.4599404936E+00  1.3032830832E+01
                       1.1570135570E+01  8.1813213208E+00  1.3032830832E+01
                       9.5473219796E+00  2.4599404936E+00  9.5292149196E+00
                       9.5473219796E+00  2.4599404936E+00  1.6536446745E+01
                       5.5016947991E+00  8.1813213208E+00  9.5292149196E+00
             xred      2.5000000000E-01  2.5000000000E-01  2.5000000000E-01
                       7.5000000000E-01  7.5000000000E-01  7.5000000000E-01
                       5.0000000000E-01  5.0000000000E-01  5.0000000000E-01
                       0.0000000000E+00  0.0000000000E+00  0.0000000000E+00
                       2.3117000000E-01  7.6883000000E-01  7.6883000000E-01
                       2.3117000000E-01  2.3117000000E-01  7.6883000000E-01
                       7.6883000000E-01  7.6883000000E-01  2.3117000000E-01
                       7.6883000000E-01  2.3117000000E-01  2.3117000000E-01
                       7.6883000000E-01  2.3117000000E-01  7.6883000000E-01
                       2.3117000000E-01  7.6883000000E-01  2.3117000000E-01
            znucl       55.00000   81.00000   83.00000    9.00000

 chkinp: Checking input parameters for consistency.

== DATASET  1 ==================================================================
-   mpi_nproc: 1, omp_nthreads: -1 (-1 if OMP is not activated)

--- !DatasetInfo
iteration_state: {dtset: 1, }
dimensions: {natom: 10, nkpt: 1, mband: 53, nsppol: 1, nspinor: 1, nspden: 1, mpw: 20179, }
cutoff_energies: {ecut:  42.0, pawecutdg:  -1.0, }
electrons: {nelect:   8.80000000E+01, charge:   0.00000000E+00, occopt:   1.00000000E+00, tsmear:   1.00000000E-02, }
meta: {optdriver: 1, rfelfd: 2, }
...

 Real(R)+Recip(G) space primitive vectors, cartesian coordinates (Bohr,Bohr^-1):
 R(1)= 11.2867626  0.0000000  6.5164154  G(1)=  0.0885994 -0.0313246  0.0000000
 R(2)=  3.7622542 10.6412618  6.5164154  G(2)=  0.0000000  0.0939738  0.0000000
 R(3)=  0.0000000  0.0000000 13.0328308  G(3)= -0.0442997 -0.0313246  0.0767293
 Unit cell volume ucvol=  1.5653133E+03 bohr^3
 Angles (23,13,12)=  6.00000000E+01  6.00000000E+01  6.00000000E+01 degrees

 getcut: wavevector=  0.0000  0.0000  0.0000  ngfft=  80  80  80
         ecut(hartree)=     42.000   => boxcut(ratio)=   2.10408

--- Pseudopotential description ------------------------------------------------
- pspini: atom type   1  psp file is /scratch/users/j/a/jabreu/pseudos/PBEsol/Cs.psp8
- pspatm: opening atomic psp file    /scratch/users/j/a/jabreu/pseudos/PBEsol/Cs.psp8
- Cs    ONCVPSP-3.3.0  r_core=   2.27353   1.85623   2.01788   1.90105
- 55.00000   9.00000    180112                znucl, zion, pspdat
    8 -116133    3    4       600   0.00000   pspcod,pspxc,lmax,lloc,mmax,r2well
    5.99000000000000    5.00000000000000    0.00000000000000   rchrg,fchrg,qchrg
     nproj     2     2     2     2
     extension_switch     1
  pspatm : epsatm=   22.12462445
         --- l  ekb(1:nproj) -->
             0    6.214110    0.767882
             1    6.311966    0.793598
             2    3.769790    0.913105
             3   -9.247129   -2.432478
 pspatm: atomic psp has been read  and splines computed

- pspini: atom type   2  psp file is /scratch/users/j/a/jabreu/pseudos/PBEsol/Tl.psp8
- pspatm: opening atomic psp file    /scratch/users/j/a/jabreu/pseudos/PBEsol/Tl.psp8
- Tl    ONCVPSP-3.3.0  r_core=   2.10510   2.60929   2.00701
- 81.00000  13.00000    180112                znucl, zion, pspdat
    8 -116133    2    4       600   0.00000   pspcod,pspxc,lmax,lloc,mmax,r2well
    5.99000000000000    7.00000000000000    0.00000000000000   rchrg,fchrg,qchrg
     nproj     2     2     2
     extension_switch     1
  pspatm : epsatm=   37.24354552
         --- l  ekb(1:nproj) -->
             0    6.297242    0.908324
             1    4.393460    0.899003
             2   -2.697741   -0.589563
 pspatm: atomic psp has been read  and splines computed

[...]

- pspini: atom type   4  psp file is /scratch/users/j/a/jabreu/pseudos/PBEsol/F.psp8
- pspatm: opening atomic psp file    /scratch/users/j/a/jabreu/pseudos/PBEsol/F.psp8
- F     ONCVPSP-3.3.0  r_core=   1.30942   1.45782   1.60379
-  9.00000   7.00000    180112                znucl, zion, pspdat
[...]
-ETOT  1  -47.231043503185     -4.723E+01 1.925E-02 0.000E+00
 ETOT  2  -47.273843172617     -4.280E-02 3.980E-04 0.000E+00
 ETOT  3  -47.274135161983     -2.920E-04 1.765E-04 0.000E+00
 ETOT  4  -47.274143596370     -8.434E-06 1.353E-05 0.000E+00
 ETOT  5  -47.274144143933     -5.476E-07 6.482E-06 0.000E+00
 ETOT  6  -47.274144193442     -4.951E-08 4.778E-07 0.000E+00
 ETOT  7  -47.274144199331     -5.889E-09 2.394E-07 0.000E+00
 ETOT  8  -47.274144200130     -7.992E-10 1.740E-08 0.000E+00
 ETOT  9  -47.274144200246     -1.160E-10 9.068E-09 0.000E+00
 ETOT 10  -47.274144200264     -1.759E-11 6.582E-10 0.000E+00
 ETOT 11  -47.274144200266     -2.679E-12 3.527E-10 0.000E+00
 ETOT 12  -47.274144200267     -4.405E-13 2.573E-11 0.000E+00
 ETOT 13  -47.274144200267     -1.208E-13 1.400E-11 0.000E+00
 ETOT 14  -47.274144200267      2.132E-14 1.028E-12 0.000E+00
 ETOT 15  -47.274144200267     -4.263E-14 5.633E-13 0.000E+00
 ETOT 16  -47.274144200267     -7.105E-15 4.161E-14 0.000E+00
 ETOT 17  -47.274144200267      7.105E-15 2.286E-14 0.000E+00
 ETOT 18  -47.274144200267      1.421E-14 1.697E-15 0.000E+00
 ETOT 19  -47.274144200267     -1.421E-14 9.324E-16 0.000E+00
 ETOT 20  -47.274144200267      1.421E-14 6.949E-17 0.000E+00
 ETOT 21  -47.274144200267     -7.105E-15 3.816E-17 0.000E+00
 ETOT 22  -47.274144200267      7.105E-15 2.854E-18 0.000E+00
 ETOT 23  -47.274144200267     -2.132E-14 1.566E-18 0.000E+00
 ETOT 24  -47.274144200267      7.105E-15 1.174E-19 0.000E+00
 ETOT 25  -47.274144200267      1.421E-14 6.437E-20 0.000E+00
 ETOT 26  -47.274144200267     -1.421E-14 9.942E-21 0.000E+00

 At SCF step   26   max residual=  9.94E-21 < tolwfr=  1.00E-20 =>converged.

 ----iterations are completed or convergence reached----

 dfpt_looppert: DFPT cycle converged with prtwf=-1. Will skip output of the 1st-order WFK file.
 dfpt_looppert : ek2=    6.1360112527E+01
          f-sum rule ratio=    1.0761677739E+00
 prteigrs : about to open file /scratch/users/j/a/jabreu/flow_simple_10atoms/flow/w439/t1/tmpdata/tmp_1WF1_EIG
 Expectation of eigenvalue derivatives (hartree) for nkpt=   1  k points:
  (in case of degenerate eigenvalues, averaged derivative)
 kpt#   1, nband= 53, wtk=  1.00000, kpt=  0.0000  0.0000  0.0000 (reduced coord)
   0.00000    0.00000   -0.00000    0.00000    0.00000    0.00000    0.00000    0.00000
   0.00000    0.00000    0.00000   -0.00000    0.00000    0.00000    0.00000    0.00000
   0.00000    0.00000    0.00000   -0.00000   -0.00000   -0.00000   -0.00000   -0.00000
  -0.00000   -0.00000   -0.00000   -0.00000   -0.00000    0.00000    0.00000    0.00000
   0.00000    0.00000   -0.00000   -0.00000   -0.00000    0.00000    0.00000    0.00000
  -0.00000   -0.00000   -0.00000    0.00000   -0.00000   -0.00000   -0.00000    0.00000
   0.00000    0.00000   -0.00001   -0.00001   -0.00001

 Eight components of 2nd-order total energy (hartree) are
 1,2,3: 0th-order hamiltonian combined with 1st-order wavefunctions
     kin0=   5.65381857E+01 eigvalue=   5.50765943E+00  local=  -2.87827589E+01
 4,5,6: 1st-order hamiltonian combined with 1st and 0th-order wfs
     kin1=  -6.60337757E+01  Hartree=   0.00000000E+00     xc=   0.00000000E+00
 7,8,9: eventually, occupation + non-local contributions
    edocc=   7.42217969E+00     enl0=   6.58887834E+00   enl1=  -2.85145127E+01
 1-9 gives the relaxation energy (to be shifted if some occ is /=2.0)
   erelax=  -4.72741442E+01
  No Ewald or frozen-wf contrib.: the relaxation energy is the total one
 2DEtotal=   -0.4727414420E+02 Ha. Also 2DEtotal=   -0.128639488449E+04 eV
    (  non-var. 2DEtotal :   -4.7274144200E+01 Ha)

 CALCULATION OF EFFECTIVE MASSES
 NOTE : Additional infos (eff. mass eigenvalues, eigenvectors and, if degenerate, average mass) are available in stdout.

 K-point ( 0.000, 0.000, 0.000) | band =    44
 Effective mass tensor:
             -0.3704038827              0.0000000007             -0.0000000003
              0.0000000007             -0.3704038825             -0.0000000006
             -0.0000000003             -0.0000000006             -0.3704038817
 Effective mass tensor eigenvalues:
             -0.3704038833             -0.3704038825             -0.3704038811
 Angular average effective mass 1/(<1/m>)=  -0.3704038823
 Angular average effective mass for Frohlich model (<m**0.5>)**2=  -0.3704038823
 Effective masses along directions: (cart. coord. / red. coord. -> eff. mass)
    1:   1.000000  0.000000  0.000000 /   0.948683  0.316228  0.000000 ->  -0.3704038827
    2:   0.000000  1.000000  0.000000 /   0.000000  1.000000  0.000000 ->  -0.3704038825
    3:   0.000000  0.000000  1.000000 /   0.408248  0.408248  0.816497 ->  -0.3704038817
    4:   0.577350  0.577350  0.577350 /   0.585539  0.688047  0.428644 ->  -0.3704038825
    5:   0.000000  0.707107  0.707107 /   0.289489  0.762222  0.578977 ->  -0.3704038827
    6:   0.707107  0.000000  0.707107 /   0.731423  0.422287  0.535439 ->  -0.3704038825
    7:   0.707107  0.707107  0.000000 /   0.616798  0.787122  0.000000 ->  -0.3704038819

 COMMENTS:
 - At k-point ( 0.000, 0.000, 0.000), bands    45 through    47
   are DEGENERATE (effective mass tensor is therefore not defined).
   See Section IIIB Eqs. (67)-(70) and Appendix E of PRB 93 205147 (2016).
 - Angular average effective mass for Frohlich model is to be averaged over degenerate bands. See later.
 - Associated theta integrals calculated with ntheta=   1000 points.

 K-point ( 0.000, 0.000, 0.000) | band =    45
 Transport equivalent effective mass tensor:
              0.8873815682             -0.0000003570             -0.0000000002
             -0.0000003570              0.8873816466             -0.0000000001
             -0.0000000002             -0.0000000001              0.8873821507
 Transport equivalent effective mass tensor eigenvalues:
              0.8873821507              0.8873819666              0.8873812482
 Angular average effective mass 1/(<1/m>)=   0.7744999602
 Angular average effective mass for Frohlich model (<m**0.5>)**2=   0.7792856167
 Effective masses along directions: (cart. coord. / red. coord. -> eff. mass)
    1:   1.000000  0.000000  0.000000 /   0.948683  0.316228  0.000000 ->   0.6985576024
    2:   0.000000  1.000000  0.000000 /   0.000000  1.000000  0.000000 ->   0.5926240399
    3:   0.000000  0.000000  1.000000 /   0.408248  0.408248  0.816497 ->   0.8506063865
    4:   0.577350  0.577350  0.577350 /   0.585539  0.688047  0.428644 ->   0.7355971885
    5:   0.000000  0.707107  0.707107 /   0.289489  0.762222  0.578977 ->   0.8384449727
    6:   0.707107  0.000000  0.707107 /   0.731423  0.422287  0.535439 ->   0.7907609267
    7:   0.707107  0.707107  0.000000 /   0.616798  0.787122  0.000000 ->   0.8350146866

[...]

 K-point ( 0.000, 0.000, 0.000) | band =    47
 Transport equivalent effective mass tensor:
              0.2951512954             -0.0000000000             -0.0000000000
             -0.0000000000              0.2951512954             -0.0000000000
             -0.0000000000             -0.0000000000              0.2951512954
 Transport equivalent effective mass tensor eigenvalues:
              0.2951512954              0.2951512954              0.2951512954
 Angular average effective mass 1/(<1/m>)=   0.2772193624
 Angular average effective mass for Frohlich model (<m**0.5>)**2=   0.2784174447
 Effective masses along directions: (cart. coord. / red. coord. -> eff. mass)
    1:   1.000000  0.000000  0.000000 /   0.948683  0.316228  0.000000 ->   0.2870966350
    2:   0.000000  1.000000  0.000000 /   0.000000  1.000000  0.000000 ->   0.3170244370
    3:   0.000000  0.000000  1.000000 /   0.408248  0.408248  0.816497 ->   0.2932361921
    4:   0.577350  0.577350  0.577350 /   0.585539  0.688047  0.428644 ->   0.2888869452
    5:   0.000000  0.707107  0.707107 /   0.289489  0.762222  0.578977 ->   0.2632433930
    6:   0.707107  0.000000  0.707107 /   0.731423  0.422287  0.535439 ->   0.2900140854
    7:   0.707107  0.707107  0.000000 /   0.616798  0.787122  0.000000 ->   0.2431409783

 Angular average effective mass for Frohlich model, averaged over degenerate bands.
 Value of     (<<m**0.5>>)**2 =     5.372225E-01
 Absolute Value of <<m**0.5>> =     7.329546E-01

 END OF EFFECTIVE MASSES SECTION

 ---- first-order wavefunction calculations are completed ----

 Total localisation tensor (bohr^2) in cartesian coordinates
  WARNING : still subject to testing - especially symmetries.
      direction              matrix element
   alpha     beta       real part   imaginary part
     1        1       1.2555424462    0.0000000000
     1        2       0.3551210267    0.0000000000
     1        3       0.8698653214    0.0000000000
     2        1       0.3551210267    0.0000000000
     2        2       1.0044339446    0.0000000000
     2        3       0.6150876611    0.0000000000
     3        1       0.8698653214    0.0000000000
     3        2       0.6150876611    0.0000000000
     3        3       2.2599764273    0.0000000000

 respfn : d/dk was computed, but no 2DTE, so no DDB output.

== END DATASET(S) ==============================================================

 -outvars: echo values of variables after computation  --------
            acell      1.0000000000E+00  1.0000000000E+00  1.0000000000E+00 Bohr
              amu      1.32905430E+02  2.04383300E+02  2.08980370E+02
                       1.89984032E+01
             ecut      4.20000000E+01 Hartree
           etotal     -4.7274144200E+01
            fcart      0.0000000000E+00  0.0000000000E+00  0.0000000000E+00
                       0.0000000000E+00  0.0000000000E+00  0.0000000000E+00
                       0.0000000000E+00  0.0000000000E+00  0.0000000000E+00
                       0.0000000000E+00  0.0000000000E+00  0.0000000000E+00
                       0.0000000000E+00  0.0000000000E+00  0.0000000000E+00
                       0.0000000000E+00  0.0000000000E+00  0.0000000000E+00
                       0.0000000000E+00  0.0000000000E+00  0.0000000000E+00
                       0.0000000000E+00  0.0000000000E+00  0.0000000000E+00
                       0.0000000000E+00  0.0000000000E+00  0.0000000000E+00
                       0.0000000000E+00  0.0000000000E+00  0.0000000000E+00
-          fftalg         512
           irdden           1
           irdwfk           1
           istwfk        1
              ixc     -116133
           kptopt           0
P           mkmem           1
P          mkqmem           1
P          mk1mem           1
            natom          10
            nband          53
           nbdbuf           4
            ngfft          80      80      80
             nkpt           1
            nstep        2000
             nsym          48
           ntypat           4
              occ      2.000000  2.000000  2.000000  2.000000  2.000000  2.000000
                       2.000000  2.000000  2.000000  2.000000  2.000000  2.000000
                       2.000000  2.000000  2.000000  2.000000  2.000000  2.000000
                       2.000000  2.000000  2.000000  2.000000  2.000000  2.000000
                       2.000000  2.000000  2.000000  2.000000  2.000000  2.000000
                       2.000000  2.000000  2.000000  2.000000  2.000000  2.000000
                       2.000000  2.000000  2.000000  2.000000  2.000000  2.000000
                       2.000000  2.000000  0.000000  0.000000  0.000000  0.000000
                       0.000000  0.000000  0.000000  0.000000  0.000000
        optdriver           1
            prtwf          -1
            rfdir           1       1       1
           rfelfd           2
            rprim      1.1286762584E+01  0.0000000000E+00  6.5164154161E+00
                       3.7622541947E+00  1.0641261814E+01  6.5164154161E+00
                       0.0000000000E+00  0.0000000000E+00  1.3032830832E+01
          spgroup         225
           strten      0.0000000000E+00  0.0000000000E+00  0.0000000000E+00
                       0.0000000000E+00  0.0000000000E+00  0.0000000000E+00
           symrel      1  0  0   0  1  0   0  0  1      -1  0  0   0 -1  0   0  0 -1
                       0 -1  1   0 -1  0   1 -1  0       0  1 -1   0  1  0  -1  1  0
                      -1  0  0  -1  0  1  -1  1  0       1  0  0   1  0 -1   1 -1  0
                       0  1 -1   1  0 -1   0  0 -1       0 -1  1  -1  0  1   0  0  1
                      -1  0  0  -1  1  0  -1  0  1       1  0  0   1 -1  0   1  0 -1
                       0 -1  1   1 -1  0   0 -1  0       0  1 -1  -1  1  0   0  1  0
                       1  0  0   0  0  1   0  1  0      -1  0  0   0  0 -1   0 -1  0
                       0  1 -1   0  0 -1   1  0 -1       0 -1  1   0  0  1  -1  0  1
                      -1  0  1  -1  1  0  -1  0  0       1  0 -1   1 -1  0   1  0  0
                       0 -1  0   1 -1  0   0 -1  1       0  1  0  -1  1  0   0  1 -1
                       1  0 -1   0  0 -1   0  1 -1      -1  0  1   0  0  1   0 -1  1
                       0  1  0   0  0  1   1  0  0       0 -1  0   0  0 -1  -1  0  0
                       1  0 -1   0  1 -1   0  0 -1      -1  0  1   0 -1  1   0  0  1
                       0 -1  0   0 -1  1   1 -1  0       0  1  0   0  1 -1  -1  1  0
                      -1  0  1  -1  0  0  -1  1  0       1  0 -1   1  0  0   1 -1  0
                       0  1  0   1  0  0   0  0  1       0 -1  0  -1  0  0   0  0 -1
                       0  0 -1   0  1 -1   1  0 -1       0  0  1   0 -1  1  -1  0  1
                       1 -1  0   0 -1  1   0 -1  0      -1  1  0   0  1 -1   0  1  0
                       0  0  1   1  0  0   0  1  0       0  0 -1  -1  0  0   0 -1  0
                      -1  1  0  -1  0  0  -1  0  1       1 -1  0   1  0  0   1  0 -1
                       0  0  1   0  1  0   1  0  0       0  0 -1   0 -1  0  -1  0  0
                       1 -1  0   0 -1  0   0 -1  1      -1  1  0   0  1  0   0  1 -1
                       0  0 -1   1  0 -1   0  1 -1       0  0  1  -1  0  1   0 -1  1
                      -1  1  0  -1  0  1  -1  0  0       1 -1  0   1  0 -1   1  0  0
           tolwfr      1.00000000E-20
            typat      1  1  2  3  4  4  4  4  4  4
           useylm           1
           xangst      1.9908991727E+00  1.4077783057E+00  3.4483385199E+00
                       5.9726975182E+00  4.2233349171E+00  1.0345015560E+01
                       3.9817983455E+00  2.8155566114E+00  6.8966770398E+00
                       0.0000000000E+00  0.0000000000E+00  0.0000000000E+00
                       2.9113714963E+00  4.3293687791E+00  8.7507107285E+00
                       1.8409446471E+00  1.3017444437E+00  6.8966770398E+00
                       6.1226520439E+00  4.3293687791E+00  6.8966770398E+00
                       5.0522251947E+00  1.3017444437E+00  5.0426433512E+00
                       5.0522251947E+00  1.3017444437E+00  8.7507107285E+00
                       2.9113714963E+00  4.3293687791E+00  5.0426433512E+00
            xcart      3.7622541947E+00  2.6603154536E+00  6.5164154161E+00
                       1.1286762584E+01  7.9809463608E+00  1.9549246248E+01
                       7.5245083894E+00  5.3206309072E+00  1.3032830832E+01
                       0.0000000000E+00  0.0000000000E+00  0.0000000000E+00
                       5.5016947991E+00  8.1813213208E+00  1.6536446745E+01
                       3.4788812087E+00  2.4599404936E+00  1.3032830832E+01
                       1.1570135570E+01  8.1813213208E+00  1.3032830832E+01
                       9.5473219796E+00  2.4599404936E+00  9.5292149196E+00
                       9.5473219796E+00  2.4599404936E+00  1.6536446745E+01
                       5.5016947991E+00  8.1813213208E+00  9.5292149196E+00
             xred      2.5000000000E-01  2.5000000000E-01  2.5000000000E-01
                       7.5000000000E-01  7.5000000000E-01  7.5000000000E-01
                       5.0000000000E-01  5.0000000000E-01  5.0000000000E-01
                       0.0000000000E+00  0.0000000000E+00  0.0000000000E+00
                       2.3117000000E-01  7.6883000000E-01  7.6883000000E-01
                       2.3117000000E-01  2.3117000000E-01  7.6883000000E-01
                       7.6883000000E-01  7.6883000000E-01  2.3117000000E-01
                       7.6883000000E-01  2.3117000000E-01  2.3117000000E-01
                       7.6883000000E-01  2.3117000000E-01  7.6883000000E-01
                       2.3117000000E-01  7.6883000000E-01  2.3117000000E-01
            znucl       55.00000   81.00000   83.00000    9.00000

- Timing analysis has been suppressed with timopt=0

 Suggested references for the acknowledgment of ABINIT usage.

 Calculation completed.
.Delivered   2 WARNINGs and   5 COMMENTs to log file.