.Version 9.5.2 of ABINIT

 ABINIT is a project of the Universite Catholique de Louvain,
 Corning Inc. and other collaborators, see ~abinit/doc/developers/contributors.txt .
 acknowledgments of the ABINIT effort.

.Starting date : Mon 24 May 2021.
- ( at 11h23 )

- input  file    -> /scratch/users/j/a/jabreu/flow_simple_10atoms/flow/w323/t1/run.abi
- output file    -> /scratch/users/j/a/jabreu/flow_simple_10atoms/flow/w323/t1/run.abo
- root for input  files -> /scratch/users/j/a/jabreu/flow_simple_10atoms/flow/w323/t1/indata/in
- root for output files -> /scratch/users/j/a/jabreu/flow_simple_10atoms/flow/w323/t1/outdata/out

 Symmetries : space group I4/m m m (#139); Bravais tI (body-center tetrag.)
     intxc =       0      iscf =       7    lmnmax =      32     lnmax =       8
     mgfft =      80  mpssoang =       4    mqgrid =    3158     natom =      10
  nloc_mem =       1    nspden =       1   nspinor =       1    nsppol =       1
      nsym =      16    n1xccc =    2501    ntypat =       3    occopt =       1
   xclevel =       2
-    mband =          50        mffmem =           1         mkmem =           2
-   mkqmem =           2        mk1mem =           2           mpw =       21420
      nfft =      512000          nkpt =           2
  Rough estimation (10% accuracy) of disk space for files :

------------- Echo of variables that govern the present computation ------------
-
- outvars: echo of selected default values
-   iomode0 =  0 , fftalg0 =512 , wfoptalg0 =  0
-
- outvars: echo of global parameters not present in the input file
-  max_nthreads =    0
-
 -outvars: echo values of preprocessed input variables --------
            acell      1.0000000000E+00  1.0000000000E+00  1.0000000000E+00 Bohr
              amu      1.32905430E+02  2.04383300E+02  1.89984032E+01
             ecut      4.20000000E+01 Hartree
-          fftalg         512
           irdden           1
           irdwfk           1
           istwfk        1    1
              ixc     -116133
              kpt      0.00000000E+00  0.00000000E+00  5.00000000E-01
                       0.00000000E+00  0.00000000E+00  0.00000000E+00
           kptopt           0
P           mkmem           2
P          mkqmem           2
P          mk1mem           2
            natom          10
            nband          50
           nbdbuf           4
            ngfft          80      80      80
             nkpt           2
            nstep        2000
             nsym          16
           ntypat           3
              occ      2.000000  2.000000  2.000000  2.000000  2.000000  2.000000
                       2.000000  2.000000  2.000000  2.000000  2.000000  2.000000
                       2.000000  2.000000  2.000000  2.000000  2.000000  2.000000
                       2.000000  2.000000  2.000000  2.000000  2.000000  2.000000
                       2.000000  2.000000  2.000000  2.000000  2.000000  2.000000
                       2.000000  2.000000  2.000000  2.000000  2.000000  2.000000
                       2.000000  2.000000  2.000000  2.000000  2.000000  0.000000
                       0.000000  0.000000  0.000000  0.000000  0.000000  0.000000
                       0.000000  0.000000
        optdriver           1
            prtwf          -1
            rfdir           1       1       1
           rfelfd           2
            rprim      1.1424352674E+01  0.0000000000E+00 -6.8603883189E+00
                      -3.6591482241E+00  1.0822498247E+01 -6.8603883189E+00
                       0.0000000000E+00  0.0000000000E+00  1.3325943190E+01
          spgroup         139
           symrel      1  0  0   0  1  0   0  0  1      -1  0  0   0 -1  0   0  0 -1
                       0  0  1  -1 -1 -1   1  0  0       0  0 -1   1  1  1  -1  0  0
                       0  1  0   1  0  0  -1 -1 -1       0 -1  0  -1  0  0   1  1  1
                      -1 -1 -1   0  0  1   0  1  0       1  1  1   0  0 -1   0 -1  0
                       0  1  0   1  0  0   0  0  1       0 -1  0  -1  0  0   0  0 -1
                       0  0  1  -1 -1 -1   0  1  0       0  0 -1   1  1  1   0 -1  0
                       1  0  0   0  1  0  -1 -1 -1      -1  0  0   0 -1  0   1  1  1
                      -1 -1 -1   0  0  1   1  0  0       1  1  1   0  0 -1  -1  0  0
           tolwfr      1.00000000E-20
            typat      1  1  1  2  3  3  3  3  3  3
           useylm           1
              wtk        0.50000    0.50000
           xangst      2.0545846075E+00  2.8635097060E+00 -3.6303611404E+00
                       4.0500458327E+00  1.4317548530E+00 -1.0446843086E-01
                       5.9123382209E-02  4.2952645590E+00 -1.0446843086E-01
                       0.0000000000E+00  0.0000000000E+00  0.0000000000E+00
                      -1.3386561864E+00  3.9592832382E+00  2.3653469323E+00
                       3.1890111710E+00  4.4445794092E+00 -5.6348432620E+00
                       1.8660424816E+00  0.0000000000E+00  1.0560773464E+00
                       9.2015804396E-01  1.2824400029E+00 -1.6258790189E+00
                      -5.9768165666E-01  1.7677361738E+00  1.0560773464E+00
                       4.1794645764E+00  0.0000000000E+00  2.3653469323E+00
            xcart      3.8826022249E+00  5.4112491233E+00 -6.8603883189E+00
                       7.6534774495E+00  2.7056245616E+00 -1.9741672385E-01
                       1.1172700042E-01  8.1168736849E+00 -1.9741672385E-01
                       0.0000000000E+00  0.0000000000E+00  0.0000000000E+00
                      -2.5296935784E+00  7.4819610027E+00  4.4698579113E+00
                       6.0263577478E+00  8.3990378592E+00 -1.0648310567E+01
                       3.5263092425E+00  0.0000000000E+00  1.9956969599E+00
                       1.7388467021E+00  2.4234603873E+00 -3.0724660709E+00
                      -1.1294546457E+00  3.3405372438E+00  1.9956969599E+00
                       7.8980434315E+00  0.0000000000E+00  4.4698579113E+00
             xred      5.0000000000E-01  5.0000000000E-01 -5.5511151231E-17
                       7.5000000000E-01  2.5000000000E-01  5.0000000000E-01
                       2.5000000000E-01  7.5000000000E-01  5.0000000000E-01
                       0.0000000000E+00  0.0000000000E+00  0.0000000000E+00
                      -2.7755575616E-17  6.9133400000E-01  6.9133400000E-01
                       7.7607200000E-01  7.7607200000E-01 -2.2204460493E-16
                       3.0866600000E-01  0.0000000000E+00  3.0866600000E-01
                       2.2392800000E-01  2.2392800000E-01 -4.1633363423E-17
                       0.0000000000E+00  3.0866600000E-01  3.0866600000E-01
                       6.9133400000E-01  0.0000000000E+00  6.9133400000E-01
            znucl       55.00000   81.00000    9.00000

 chkinp: Checking input parameters for consistency.

== DATASET  1 ==================================================================
-   mpi_nproc: 1, omp_nthreads: -1 (-1 if OMP is not activated)

--- !DatasetInfo
iteration_state: {dtset: 1, }
dimensions: {natom: 10, nkpt: 2, mband: 50, nsppol: 1, nspinor: 1, nspden: 1, mpw: 21420, }
cutoff_energies: {ecut:  42.0, pawecutdg:  -1.0, }
electrons: {nelect:   8.20000000E+01, charge:   0.00000000E+00, occopt:   1.00000000E+00, tsmear:   1.00000000E-02, }
meta: {optdriver: 1, rfelfd: 2, }
...

 Real(R)+Recip(G) space primitive vectors, cartesian coordinates (Bohr,Bohr^-1):
 R(1)= 11.4243527  0.0000000 -6.8603883  G(1)=  0.0875323  0.0295952  0.0000000
 R(2)= -3.6591482 10.8224982 -6.8603883  G(2)=  0.0000000  0.0924001  0.0000000
 R(3)=  0.0000000  0.0000000 13.3259432  G(3)=  0.0450629  0.0628049  0.0750416
 Unit cell volume ucvol=  1.6476201E+03 bohr^3
 Angles (23,13,12)=  1.20985054E+02  1.20985054E+02  8.83021388E+01 degrees

 getcut: wavevector=  0.0000  0.0000  0.0000  ngfft=  80  80  80
         ecut(hartree)=     42.000   => boxcut(ratio)=   2.05815

--- Pseudopotential description ------------------------------------------------
- pspini: atom type   1  psp file is /scratch/users/j/a/jabreu/pseudos/PBEsol/Cs.psp8
- pspatm: opening atomic psp file    /scratch/users/j/a/jabreu/pseudos/PBEsol/Cs.psp8
- Cs    ONCVPSP-3.3.0  r_core=   2.27353   1.85623   2.01788   1.90105
- 55.00000   9.00000    180112                znucl, zion, pspdat
    8 -116133    3    4       600   0.00000   pspcod,pspxc,lmax,lloc,mmax,r2well
    5.99000000000000    5.00000000000000    0.00000000000000   rchrg,fchrg,qchrg
     nproj     2     2     2     2
     extension_switch     1
  pspatm : epsatm=   22.12462445
         --- l  ekb(1:nproj) -->
             0    6.214110    0.767882
             1    6.311966    0.793598
             2    3.769790    0.913105
             3   -9.247129   -2.432478
 pspatm: atomic psp has been read  and splines computed

- pspini: atom type   2  psp file is /scratch/users/j/a/jabreu/pseudos/PBEsol/Tl.psp8
- pspatm: opening atomic psp file    /scratch/users/j/a/jabreu/pseudos/PBEsol/Tl.psp8
- Tl    ONCVPSP-3.3.0  r_core=   2.10510   2.60929   2.00701
- 81.00000  13.00000    180112                znucl, zion, pspdat
    8 -116133    2    4       600   0.00000   pspcod,pspxc,lmax,lloc,mmax,r2well
    5.99000000000000    7.00000000000000    0.00000000000000   rchrg,fchrg,qchrg
     nproj     2     2     2
     extension_switch     1
  pspatm : epsatm=   37.24354552
         --- l  ekb(1:nproj) -->
             0    6.297242    0.908324
             1    4.393460    0.899003
             2   -2.697741   -0.589563
 pspatm: atomic psp has been read  and splines computed

- pspini: atom type   3  psp file is /scratch/users/j/a/jabreu/pseudos/PBEsol/F.psp8
- pspatm: opening atomic psp file    /scratch/users/j/a/jabreu/pseudos/PBEsol/F.psp8
- F     ONCVPSP-3.3.0  r_core=   1.30942   1.45782   1.60379
-  9.00000   7.00000    180112                znucl, zion, pspdat
    8 -116133    2    4       600   0.00000   pspcod,pspxc,lmax,lloc,mmax,r2well
    5.99000000000000    2.50000000000000    0.00000000000000   rchrg,fchrg,qchrg
     nproj     2     2     1
     extension_switch     1
  pspatm : epsatm=    4.89824824
         --- l  ekb(1:nproj) -->
             0    6.506434    1.065875
             1   -3.978753   -1.295852
             2   -2.394754
 pspatm: atomic psp has been read  and splines computed

   1.09065665E+04                                ecore*ucvol(ha*bohr**3)

 ==>  initialize data related to q vector <==

 The list of irreducible perturbations for this q vector is:
    1)    idir= 1    ipert=  11
    2)    idir= 2    ipert=  11
    3)    idir= 3    ipert=  11

 Perturbation wavevector (in red.coord.)   0.000000  0.000000  0.000000
 Perturbation : derivative vs k along direction   1

 dfpt_looppert : COMMENT -
  In a d/dk calculation, iscf is set to -3 automatically.
 The set of symmetries contains only one element for this perturbation.
 symkpt : not enough symmetry to change the number of k points.

 Initialisation of the first-order wave-functions :
  ireadwf=   0

--- !BeginCycle
iteration_state: {dtset: 1, }
solver: {iscf: 7, nstep: 2000, nline: 4, wfoptalg: 0, }
tolerances: {tolwfr: 1.00E-20, }
...

[...]
 ETOT 30  -35.357573433518     -7.105E-15 9.965E-21 0.000E+00

 At SCF step   30   max residual=  9.97E-21 < tolwfr=  1.00E-20 =>converged.

 ----iterations are completed or convergence reached----

 dfpt_looppert: DFPT cycle converged with prtwf=-1. Will skip output of the 1st-order WFK file.
 dfpt_looppert : ek2=    5.5277518237E+01
          f-sum rule ratio=    1.0041866573E+00
 prteigrs : about to open file /scratch/users/j/a/jabreu/flow_simple_10atoms/flow/w323/t1/tmpdata/tmp_1WF1_EIG
 Expectation of eigenvalue derivatives (hartree) for nkpt=   2  k points:
  (in case of degenerate eigenvalues, averaged derivative)
 kpt#   1, nband= 50, wtk=  0.50000, kpt=  0.0000  0.0000  0.5000 (reduced coord)
  -0.00000    0.00000    0.00000   -0.00000   -0.00000    0.00000    0.00000    0.00000
   0.00000   -0.00000   -0.00000    0.00000   -0.00000   -0.00000    0.00000    0.00000
   0.00000   -0.00000    0.00000    0.00000    0.00000    0.00000   -0.00000   -0.00000
  -0.00000    0.00000    0.00000   -0.00000   -0.00000    0.00000    0.00000    0.00000
   0.00000    0.00000   -0.00000   -0.00000    0.00000    0.00000   -0.00000    0.00000
   0.00000   -0.00000   -0.00000    0.00000    0.00000    0.00000    0.00000    0.00000
  -0.00000   -0.00000
 prteigrs : prtvol=0 or 1, do not print more k-points.

 Eight components of 2nd-order total energy (hartree) are
 1,2,3: 0th-order hamiltonian combined with 1st-order wavefunctions
     kin0=   4.70201760E+01 eigvalue=   3.54481592E+00  local=  -2.49523982E+01
 4,5,6: 1st-order hamiltonian combined with 1st and 0th-order wfs
     kin1=  -5.55089463E+01  Hartree=   0.00000000E+00     xc=   0.00000000E+00
 7,8,9: eventually, occupation + non-local contributions
    edocc=   4.42379497E+00     enl0=   5.32118477E+00   enl1=  -1.52062006E+01
 1-9 gives the relaxation energy (to be shifted if some occ is /=2.0)
   erelax=  -3.53575734E+01
  No Ewald or frozen-wf contrib.: the relaxation energy is the total one
 2DEtotal=   -0.3535757343E+02 Ha. Also 2DEtotal=   -0.962128503058E+03 eV
    (  non-var. 2DEtotal :   -3.5357573433E+01 Ha)

 Perturbation wavevector (in red.coord.)   0.000000  0.000000  0.000000
 Perturbation : derivative vs k along direction   2
 The set of symmetries contains only one element for this perturbation.
 symkpt : not enough symmetry to change the number of k points.

[...]

 Perturbation wavevector (in red.coord.)   0.000000  0.000000  0.000000
 Perturbation : derivative vs k along direction   3
 The set of symmetries contains only one element for this perturbation.
 symkpt : not enough symmetry to change the number of k points.

 Initialisation of the first-order wave-functions :
  ireadwf=   0

--- !BeginCycle
iteration_state: {dtset: 1, }
solver: {iscf: 7, nstep: 2000, nline: 4, wfoptalg: 0, }
tolerances: {tolwfr: 1.00E-20, }
...

     iter   2DEtotal(Ha)        deltaE(Ha) residm    vres2
-ETOT  1  -47.987158454903     -4.799E+01 5.996E-02 0.000E+00
 ETOT  2  -48.044300190867     -5.714E-02 1.699E-03 0.000E+00
 ETOT  3  -48.045106262337     -8.061E-04 1.971E-04 0.000E+00
 ETOT  4  -48.045134689094     -2.843E-05 3.408E-05 0.000E+00
 ETOT  5  -48.045136119577     -1.430E-06 7.955E-06 0.000E+00
 ETOT  6  -48.045136211311     -9.173E-08 1.208E-06 0.000E+00
 ETOT  7  -48.045136217861     -6.549E-09 4.019E-07 0.000E+00
 ETOT  8  -48.045136218367     -5.058E-10 4.930E-08 0.000E+00
 ETOT  9  -48.045136218408     -4.131E-11 2.317E-08 0.000E+00
 ETOT 10  -48.045136218412     -3.595E-12 2.167E-09 0.000E+00
 ETOT 11  -48.045136218412     -2.700E-13 1.354E-09 0.000E+00
 ETOT 12  -48.045136218412     -9.237E-14 1.265E-10 0.000E+00
 ETOT 13  -48.045136218412      2.132E-14 7.984E-11 0.000E+00
 ETOT 14  -48.045136218412      0.000E+00 7.470E-12 0.000E+00
 ETOT 15  -48.045136218412      7.105E-15 4.741E-12 0.000E+00
 ETOT 16  -48.045136218412     -7.105E-15 4.462E-13 0.000E+00
 ETOT 17  -48.045136218412      7.105E-15 2.834E-13 0.000E+00
 ETOT 18  -48.045136218412     -7.105E-15 2.691E-14 0.000E+00
 ETOT 19  -48.045136218412      7.105E-15 1.703E-14 0.000E+00
 ETOT 20  -48.045136218412     -7.105E-15 1.637E-15 0.000E+00
 ETOT 21  -48.045136218412      7.105E-15 1.029E-15 0.000E+00
 ETOT 22  -48.045136218412     -7.105E-15 1.004E-16 0.000E+00
 ETOT 23  -48.045136218412      1.421E-14 6.244E-17 0.000E+00
 ETOT 24  -48.045136218412      7.105E-15 6.194E-18 0.000E+00
 ETOT 25  -48.045136218412     -1.421E-14 3.803E-18 0.000E+00
 ETOT 26  -48.045136218412     -7.105E-15 3.844E-19 0.000E+00
 ETOT 27  -48.045136218412      7.105E-15 2.324E-19 0.000E+00
 ETOT 28  -48.045136218412     -7.105E-15 2.397E-20 0.000E+00
 ETOT 29  -48.045136218412      7.105E-15 1.424E-20 0.000E+00
 ETOT 30  -48.045136218412     -7.105E-15 9.956E-21 0.000E+00

 At SCF step   30   max residual=  9.96E-21 < tolwfr=  1.00E-20 =>converged.

 ----iterations are completed or convergence reached----

 dfpt_looppert: DFPT cycle converged with prtwf=-1. Will skip output of the 1st-order WFK file.
 dfpt_looppert : ek2=    7.5144954444E+01
          f-sum rule ratio=    1.0030466259E+00
 prteigrs : about to open file /scratch/users/j/a/jabreu/flow_simple_10atoms/flow/w323/t1/tmpdata/tmp_1WF1_EIG
 Expectation of eigenvalue derivatives (hartree) for nkpt=   2  k points:
  (in case of degenerate eigenvalues, averaged derivative)
 kpt#   1, nband= 50, wtk=  0.50000, kpt=  0.0000  0.0000  0.5000 (reduced coord)
   0.00000    0.00000    0.00000   -0.00000   -0.00000   -0.00000    0.00000   -0.00000
   0.00000   -0.00000   -0.00000    0.00000   -0.00000    0.00000    0.00000   -0.00000
   0.00000    0.00000   -0.00000   -0.00000    0.00000   -0.00000   -0.00000    0.00000
  -0.00000    0.00000    0.00000   -0.00000    0.00000   -0.00000   -0.00000   -0.00000
   0.00000   -0.00000   -0.00000   -0.00000   -0.00000    0.00000    0.00000    0.00000
  -0.00000   -0.00000    0.00000    0.00000    0.00000    0.00000    0.00000   -0.00000
  -0.00000    0.00002
 prteigrs : prtvol=0 or 1, do not print more k-points.

 Eight components of 2nd-order total energy (hartree) are
 1,2,3: 0th-order hamiltonian combined with 1st-order wavefunctions
     kin0=   6.19652416E+01 eigvalue=   4.68330088E+00  local=  -3.24124904E+01
 4,5,6: 1st-order hamiltonian combined with 1st and 0th-order wfs
     kin1=  -7.53738930E+01  Hartree=   0.00000000E+00     xc=   0.00000000E+00
 7,8,9: eventually, occupation + non-local contributions
    edocc=   6.59250654E+00     enl0=   7.21657752E+00   enl1=  -2.07163794E+01
 1-9 gives the relaxation energy (to be shifted if some occ is /=2.0)
   erelax=  -4.80451362E+01
  No Ewald or frozen-wf contrib.: the relaxation energy is the total one
 2DEtotal=   -0.4804513622E+02 Ha. Also 2DEtotal=   -0.130737464425E+04 eV
    (  non-var. 2DEtotal :   -4.8045136218E+01 Ha)

 CALCULATION OF EFFECTIVE MASSES
 NOTE : Additional infos (eff. mass eigenvalues, eigenvectors and, if degenerate, average mass) are available in stdout.

 K-point ( 0.000, 0.000, 0.500) | band =    41
 Effective mass tensor:
            -63.3042512175            -86.9205949887            110.0312155886
            -86.9205949887           -122.0809466337            153.3523869886
            110.0312155886            153.3523869886           -195.6363741382
 Effective mass tensor eigenvalues:
           -378.8673162303             -1.2160290138             -0.9382267453
 Angular average effective mass 1/(<1/m>)=  -1.5866059330
 Angular average effective mass for Frohlich model (<m**0.5>)**2=  -2.4618957814
 Effective masses along directions: (cart. coord. / red. coord. -> eff. mass)
    1:   1.000000  0.000000  0.000000 /   0.952343 -0.305029  0.000000 ->  -1.1793486388
    2:   0.000000  1.000000  0.000000 /   0.000000  1.000000  0.000000 ->  -1.5562932408
    3:   0.000000  0.000000  1.000000 /  -0.416194 -0.416194  0.808434 ->  -2.4978108676
    4:   0.577350  0.577350  0.577350 /   0.323936  0.021503  0.945835 ->  -1.2362070871
    5:   0.000000  0.707107  0.707107 /  -0.442519  0.255570  0.859570 ->  -1.1705355089
    6:   0.707107  0.000000  0.707107 /   0.259605 -0.598367  0.757999 ->  -1.1587943108
    7:   0.707107  0.707107  0.000000 /   0.847226  0.531232  0.000000 ->  -2.2648645113

 K-point ( 0.000, 0.000, 0.000) | band =    42
 Effective mass tensor:
              0.6356600859             -0.0081141823              0.0102871690
             -0.0081141823              0.6301731775              0.0143374147
              0.0102871690              0.0143374147              0.6233050756
 Effective mass tensor eigenvalues:
              0.6061742211              0.6414820551              0.6414820628
 Angular average effective mass 1/(<1/m>)=   0.6292644671
 Angular average effective mass for Frohlich model (<m**0.5>)**2=   0.6294002509
 Effective masses along directions: (cart. coord. / red. coord. -> eff. mass)
    1:   1.000000  0.000000  0.000000 /   0.952343 -0.305029  0.000000 ->   0.6353795845
    2:   0.000000  1.000000  0.000000 /   0.000000  1.000000  0.000000 ->   0.6297336490
    3:   0.000000  0.000000  1.000000 /  -0.416194 -0.416194  0.808434 ->   0.6228063382
    4:   0.577350  0.577350  0.577350 /   0.323936  0.021503  0.945835 ->   0.6406763228
    5:   0.000000  0.707107  0.707107 /  -0.442519  0.255570  0.859570 ->   0.6410532077
    6:   0.707107  0.000000  0.707107 /   0.259605 -0.598367  0.757999 ->   0.6396751172
    7:   0.707107  0.707107  0.000000 /   0.847226  0.531232  0.000000 ->   0.6243035978

 END OF EFFECTIVE MASSES SECTION

 ---- first-order wavefunction calculations are completed ----

 Total localisation tensor (bohr^2) in cartesian coordinates
  WARNING : still subject to testing - especially symmetries.
      direction              matrix element
   alpha     beta       real part   imaginary part
     1        1       0.8649918612    0.0000000000
     1        2      -0.2380358653    0.0000000000
     1        3      -0.3202119537    0.0000000000
     2        1      -0.2380358653    0.0000000000
     2        2       0.7040279807    0.0000000000
     2        3      -0.4462837715    0.0000000000
     3        1      -0.3202119537    0.0000000000
     3        2      -0.4462837715    0.0000000000
     3        3       2.0022720849    0.0000000000

 respfn : d/dk was computed, but no 2DTE, so no DDB output.

== END DATASET(S) ==============================================================

 -outvars: echo values of variables after computation  --------
            acell      1.0000000000E+00  1.0000000000E+00  1.0000000000E+00 Bohr
              amu      1.32905430E+02  2.04383300E+02  1.89984032E+01
             ecut      4.20000000E+01 Hartree
           etotal     -4.8045136218E+01
            fcart      0.0000000000E+00  0.0000000000E+00  0.0000000000E+00
                       0.0000000000E+00  0.0000000000E+00  0.0000000000E+00
                       0.0000000000E+00  0.0000000000E+00  0.0000000000E+00
                       0.0000000000E+00  0.0000000000E+00  0.0000000000E+00
                       0.0000000000E+00  0.0000000000E+00  0.0000000000E+00
                       0.0000000000E+00  0.0000000000E+00  0.0000000000E+00
                       0.0000000000E+00  0.0000000000E+00  0.0000000000E+00
                       0.0000000000E+00  0.0000000000E+00  0.0000000000E+00
                       0.0000000000E+00  0.0000000000E+00  0.0000000000E+00
                       0.0000000000E+00  0.0000000000E+00  0.0000000000E+00
-          fftalg         512
           irdden           1
           irdwfk           1
           istwfk        1    1
              ixc     -116133
              kpt      0.00000000E+00  0.00000000E+00  5.00000000E-01
                       0.00000000E+00  0.00000000E+00  0.00000000E+00
           kptopt           0
P           mkmem           2
P          mkqmem           2
P          mk1mem           2
            natom          10
            nband          50
           nbdbuf           4
            ngfft          80      80      80
             nkpt           2
            nstep        2000
             nsym          16
           ntypat           3
              occ      2.000000  2.000000  2.000000  2.000000  2.000000  2.000000
                       2.000000  2.000000  2.000000  2.000000  2.000000  2.000000
                       2.000000  2.000000  2.000000  2.000000  2.000000  2.000000
                       2.000000  2.000000  2.000000  2.000000  2.000000  2.000000
                       2.000000  2.000000  2.000000  2.000000  2.000000  2.000000
                       2.000000  2.000000  2.000000  2.000000  2.000000  2.000000
                       2.000000  2.000000  2.000000  2.000000  2.000000  0.000000
                       0.000000  0.000000  0.000000  0.000000  0.000000  0.000000
                       0.000000  0.000000
        optdriver           1
            prtwf          -1
            rfdir           1       1       1
           rfelfd           2
            rprim      1.1424352674E+01  0.0000000000E+00 -6.8603883189E+00
                      -3.6591482241E+00  1.0822498247E+01 -6.8603883189E+00
                       0.0000000000E+00  0.0000000000E+00  1.3325943190E+01
          spgroup         139
           strten      0.0000000000E+00  0.0000000000E+00  0.0000000000E+00
                       0.0000000000E+00  0.0000000000E+00  0.0000000000E+00
           symrel      1  0  0   0  1  0   0  0  1      -1  0  0   0 -1  0   0  0 -1
                       0  0  1  -1 -1 -1   1  0  0       0  0 -1   1  1  1  -1  0  0
                       0  1  0   1  0  0  -1 -1 -1       0 -1  0  -1  0  0   1  1  1
                      -1 -1 -1   0  0  1   0  1  0       1  1  1   0  0 -1   0 -1  0
                       0  1  0   1  0  0   0  0  1       0 -1  0  -1  0  0   0  0 -1
                       0  0  1  -1 -1 -1   0  1  0       0  0 -1   1  1  1   0 -1  0
                       1  0  0   0  1  0  -1 -1 -1      -1  0  0   0 -1  0   1  1  1
                      -1 -1 -1   0  0  1   1  0  0       1  1  1   0  0 -1  -1  0  0
           tolwfr      1.00000000E-20
            typat      1  1  1  2  3  3  3  3  3  3
           useylm           1
              wtk        0.50000    0.50000
           xangst      2.0545846075E+00  2.8635097060E+00 -3.6303611404E+00
                       4.0500458327E+00  1.4317548530E+00 -1.0446843086E-01
                       5.9123382209E-02  4.2952645590E+00 -1.0446843086E-01
                       0.0000000000E+00  0.0000000000E+00  0.0000000000E+00
                      -1.3386561864E+00  3.9592832382E+00  2.3653469323E+00
                       3.1890111710E+00  4.4445794092E+00 -5.6348432620E+00
                       1.8660424816E+00  0.0000000000E+00  1.0560773464E+00
                       9.2015804396E-01  1.2824400029E+00 -1.6258790189E+00
                      -5.9768165666E-01  1.7677361738E+00  1.0560773464E+00
                       4.1794645764E+00  0.0000000000E+00  2.3653469323E+00
            xcart      3.8826022249E+00  5.4112491233E+00 -6.8603883189E+00
                       7.6534774495E+00  2.7056245616E+00 -1.9741672385E-01
                       1.1172700042E-01  8.1168736849E+00 -1.9741672385E-01
                       0.0000000000E+00  0.0000000000E+00  0.0000000000E+00
                      -2.5296935784E+00  7.4819610027E+00  4.4698579113E+00
                       6.0263577478E+00  8.3990378592E+00 -1.0648310567E+01
                       3.5263092425E+00  0.0000000000E+00  1.9956969599E+00
                       1.7388467021E+00  2.4234603873E+00 -3.0724660709E+00
                      -1.1294546457E+00  3.3405372438E+00  1.9956969599E+00
                       7.8980434315E+00  0.0000000000E+00  4.4698579113E+00
             xred      5.0000000000E-01  5.0000000000E-01 -5.5511151231E-17
                       7.5000000000E-01  2.5000000000E-01  5.0000000000E-01
                       2.5000000000E-01  7.5000000000E-01  5.0000000000E-01
                       0.0000000000E+00  0.0000000000E+00  0.0000000000E+00
                      -2.7755575616E-17  6.9133400000E-01  6.9133400000E-01
                       7.7607200000E-01  7.7607200000E-01 -2.2204460493E-16
                       3.0866600000E-01  0.0000000000E+00  3.0866600000E-01
                       2.2392800000E-01  2.2392800000E-01 -4.1633363423E-17
                       0.0000000000E+00  3.0866600000E-01  3.0866600000E-01
                       6.9133400000E-01  0.0000000000E+00  6.9133400000E-01
            znucl       55.00000   81.00000    9.00000

- Timing analysis has been suppressed with timopt=0

 Suggested references for the acknowledgment of ABINIT usage.

 Calculation completed.
.Delivered   2 WARNINGs and   5 COMMENTs to log file.