.Version 9.5.2 of ABINIT

 ABINIT is a project of the Universite Catholique de Louvain,
 Corning Inc. and other collaborators, see ~abinit/doc/developers/contributors.txt .
 acknowledgments of the ABINIT effort.

.Starting date : Mon 24 May 2021.
- ( at 23h01 )

- input  file    -> /scratch/users/j/a/jabreu/flow_simple_10atoms/flow/w466/t1/run.abi
- output file    -> /scratch/users/j/a/jabreu/flow_simple_10atoms/flow/w466/t1/run.abo
- root for input  files -> /scratch/users/j/a/jabreu/flow_simple_10atoms/flow/w466/t1/indata/in
- root for output files -> /scratch/users/j/a/jabreu/flow_simple_10atoms/flow/w466/t1/outdata/out

 Symmetries : space group Im m m (# 71); Bravais oI (body-center ortho.)
     intxc =       0      iscf =       7    lmnmax =      32     lnmax =       8
     mgfft =      72  mpssoang =       4    mqgrid =    3001     natom =      10
  nloc_mem =       1    nspden =       1   nspinor =       1    nsppol =       1
      nsym =       8    n1xccc =    2501    ntypat =       3    occopt =       1
   xclevel =       2
-    mband =          41        mffmem =           1         mkmem =           2
-   mkqmem =           2        mk1mem =           2           mpw =       13528
      nfft =      373248          nkpt =           2
  Rough estimation (10% accuracy) of disk space for files :

------------- Echo of variables that govern the present computation ------------
-
- outvars: echo of selected default values
-   iomode0 =  0 , fftalg0 =512 , wfoptalg0 =  0
-
- outvars: echo of global parameters not present in the input file
-  max_nthreads =    0
-
 -outvars: echo values of preprocessed input variables --------
            acell      1.0000000000E+00  1.0000000000E+00  1.0000000000E+00 Bohr
              amu      1.32905430E+02  3.09737620E+01  3.20660000E+01
             ecut      2.70000000E+01 Hartree
-          fftalg         512
           irdden           1
           irdwfk           1
           istwfk        0    1
              ixc     -116133
              kpt      1.50000000E-01  1.50000000E-01 -1.50000000E-01
                       5.00000000E-01  0.00000000E+00  0.00000000E+00
           kptopt           0
P           mkmem           2
P          mkqmem           2
P          mk1mem           2
            natom          10
            nband          41
           nbdbuf           4
            ngfft          72      72      72
             nkpt           2
            nstep        2000
             nsym           8
           ntypat           3
              occ      2.000000  2.000000  2.000000  2.000000  2.000000  2.000000
                       2.000000  2.000000  2.000000  2.000000  2.000000  2.000000
                       2.000000  2.000000  2.000000  2.000000  2.000000  2.000000
                       2.000000  2.000000  2.000000  2.000000  2.000000  2.000000
                       2.000000  2.000000  2.000000  2.000000  2.000000  2.000000
                       2.000000  2.000000  0.000000  0.000000  0.000000  0.000000
                       0.000000  0.000000  0.000000  0.000000  0.000000
        optdriver           1
            prtwf          -1
            rfdir           1       1       1
           rfelfd           2
            rprim      1.3417416636E+01  0.0000000000E+00 -3.9026891507E+00
                      -4.8400493579E+00  1.0733402528E+01 -7.5250278523E+00
                       0.0000000000E+00  0.0000000000E+00  1.3973476725E+01
          spgroup          71
           symrel      1  0  0   0  1  0   0  0  1      -1  0  0   0 -1  0   0  0 -1
                       0  0  1  -1 -1 -1   1  0  0       0  0 -1   1  1  1  -1  0  0
                      -1 -1 -1   0  0  1   0  1  0       1  1  1   0  0 -1   0 -1  0
                       0  1  0   1  0  0  -1 -1 -1       0 -1  0  -1  0  0   1  1  1
           tolwfr      1.00000000E-20
            typat      1  1  2  2  3  3  3  3  3  3
           useylm           1
              wtk        0.50000    0.50000
           xangst      5.2391741977E+00  0.0000000000E+00  3.9323971106E+00
                       1.8610168841E+00  0.0000000000E+00  1.3968341463E+00
                       2.9801638448E+00  3.7292676306E+00 -3.9705037616E+00
                       1.5587834283E+00  1.9506043577E+00 -2.0767836226E+00
                       1.0194849966E+00  2.8399359941E+00  3.4325905528E+00
                       3.5194622765E+00  2.8399359941E+00 -2.0854325293E+00
                       5.4139102918E+00  1.6091077343E-02  1.8143555335E-01
                       4.6042340077E-01  2.7023978939E+00 -6.1342695882E-01
                      -8.7496301868E-01  5.6637809109E+00  1.1657224701E+00
                       4.0785238724E+00  2.9774740943E+00  1.9605849823E+00
            xcart      9.9006043962E+00  0.0000000000E+00  7.4311535848E+00
                       3.5168122396E+00  0.0000000000E+00  2.6396339896E+00
                       5.6316934979E+00  7.0472944980E+00 -7.5031647190E+00
                       2.9456737800E+00  3.6861080297E+00 -3.9245522840E+00
                       1.9265474402E+00  5.3667012638E+00  6.4866560711E+00
                       6.6508198377E+00  5.3667012638E+00 -3.9408963490E+00
                       1.0230807760E+01  3.0407729361E-02  3.4286350660E-01
                       8.7007413262E-01  5.1067919216E+00 -1.1592089547E+00
                      -1.6534404817E+00  1.0702994798E+01  2.2028962155E+00
                       7.7072931453E+00  5.6266106061E+00  3.7049686768E+00
             xred      7.3789200000E-01  0.0000000000E+00  7.3789200000E-01
                       2.6210800000E-01  0.0000000000E+00  2.6210800000E-01
                       6.5657600000E-01  6.5657600000E-01  2.7755575616E-17
                       3.4342400000E-01  3.4342400000E-01 -1.3877787808E-17
                       3.2395000000E-01  5.0000000000E-01  8.2395000000E-01
                       6.7605000000E-01  5.0000000000E-01  1.7605000000E-01
                       7.6352400000E-01  2.8330000000E-03  2.3930900000E-01
                       2.3647600000E-01  4.7578500000E-01  2.3930900000E-01
                       2.3647600000E-01  9.9716700000E-01  7.6069100000E-01
                       7.6352400000E-01  5.2421500000E-01  7.6069100000E-01
            znucl       55.00000   15.00000   16.00000

 chkinp: Checking input parameters for consistency.

== DATASET  1 ==================================================================
-   mpi_nproc: 1, omp_nthreads: -1 (-1 if OMP is not activated)

--- !DatasetInfo
iteration_state: {dtset: 1, }
dimensions: {natom: 10, nkpt: 2, mband: 41, nsppol: 1, nspinor: 1, nspden: 1, mpw: 13528, }
cutoff_energies: {ecut:  27.0, pawecutdg:  -1.0, }
electrons: {nelect:   6.40000000E+01, charge:   0.00000000E+00, occopt:   1.00000000E+00, tsmear:   1.00000000E-02, }
meta: {optdriver: 1, rfelfd: 2, }
...

 Real(R)+Recip(G) space primitive vectors, cartesian coordinates (Bohr,Bohr^-1):
 R(1)= 13.4174166  0.0000000 -3.9026892  G(1)=  0.0745300  0.0336081  0.0000000
 R(2)= -4.8400494 10.7334025 -7.5250279  G(2)=  0.0000000  0.0931671  0.0000000
 R(3)=  0.0000000  0.0000000 13.9734767  G(3)=  0.0208157  0.0595590  0.0715642
 Unit cell volume ucvol=  2.0123837E+03 bohr^3
 Angles (23,13,12)=  1.22583097E+02  1.06217992E+02  1.00497064E+02 degrees

 getcut: wavevector=  0.0000  0.0000  0.0000  ngfft=  72  72  72
         ecut(hartree)=     27.000   => boxcut(ratio)=   2.20307

 getcut : COMMENT -
  Note that boxcut > 2.2 ; recall that boxcut=Gcut(box)/Gcut(sphere) = 2
  is sufficient for exact treatment of convolution.
  Such a large boxcut is a waste : you could raise ecut
  e.g. ecut=   32.761268 Hartrees makes boxcut=2

--- Pseudopotential description ------------------------------------------------
- pspini: atom type   1  psp file is /scratch/users/j/a/jabreu/pseudos/PBEsol/Cs.psp8
- pspatm: opening atomic psp file    /scratch/users/j/a/jabreu/pseudos/PBEsol/Cs.psp8
- Cs    ONCVPSP-3.3.0  r_core=   2.27353   1.85623   2.01788   1.90105
- 55.00000   9.00000    180112                znucl, zion, pspdat
    8 -116133    3    4       600   0.00000   pspcod,pspxc,lmax,lloc,mmax,r2well
    5.99000000000000    5.00000000000000    0.00000000000000   rchrg,fchrg,qchrg
     nproj     2     2     2     2
     extension_switch     1
  pspatm : epsatm=   22.12462445
         --- l  ekb(1:nproj) -->
             0    6.214110    0.767882
             1    6.311966    0.793598
             2    3.769790    0.913105
             3   -9.247129   -2.432478
 pspatm: atomic psp has been read  and splines computed

- pspini: atom type   2  psp file is /scratch/users/j/a/jabreu/pseudos/PBEsol/P.psp8
- pspatm: opening atomic psp file    /scratch/users/j/a/jabreu/pseudos/PBEsol/P.psp8
- P     ONCVPSP-3.3.0  r_core=   1.46089   1.55067   1.70594
- 15.00000   5.00000    180112                znucl, zion, pspdat
    8 -116133    2    4       600   0.00000   pspcod,pspxc,lmax,lloc,mmax,r2well
    5.99000000000000    5.00000000000000    0.00000000000000   rchrg,fchrg,qchrg
     nproj     2     2     2
     extension_switch     1
  pspatm : epsatm=    7.31221086
         --- l  ekb(1:nproj) -->
             0    6.742364    1.063650
             1    3.449117    0.910422
             2   -3.077645   -0.799176
 pspatm: atomic psp has been read  and splines computed

- pspini: atom type   3  psp file is /scratch/users/j/a/jabreu/pseudos/PBEsol/S.psp8
- pspatm: opening atomic psp file    /scratch/users/j/a/jabreu/pseudos/PBEsol/S.psp8
- S     ONCVPSP-3.3.0  r_core=   1.45376   1.45376   1.61851
- 16.00000   6.00000    180112                znucl, zion, pspdat
    8 -116133    2    4       600   0.00000   pspcod,pspxc,lmax,lloc,mmax,r2well
    5.99000000000000    6.00000000000000    0.00000000000000   rchrg,fchrg,qchrg
     nproj     2     2     2
     extension_switch     1
  pspatm : epsatm=    8.71840985
         --- l  ekb(1:nproj) -->
             0    6.834532    0.579453
             1    3.282851    0.896984
             2   -3.496974   -0.974265
 pspatm: atomic psp has been read  and splines computed

   7.11578430E+03                                ecore*ucvol(ha*bohr**3)

 ==>  initialize data related to q vector <==

 The list of irreducible perturbations for this q vector is:
    1)    idir= 1    ipert=  11
    2)    idir= 2    ipert=  11
    3)    idir= 3    ipert=  11

 Perturbation wavevector (in red.coord.)   0.000000  0.000000  0.000000
 Perturbation : derivative vs k along direction   1

 dfpt_looppert : COMMENT -
  In a d/dk calculation, iscf is set to -3 automatically.
 The set of symmetries contains only one element for this perturbation.
 symkpt : not enough symmetry to change the number of k points.

 Initialisation of the first-order wave-functions :
  ireadwf=   0

--- !BeginCycle
iteration_state: {dtset: 1, }
solver: {iscf: 7, nstep: 2000, nline: 4, wfoptalg: 0, }
tolerances: {tolwfr: 1.00E-20, }
...

     iter   2DEtotal(Ha)        deltaE(Ha) residm    vres2
-ETOT  1  -16.434892141096     -1.643E+01 7.782E-02 0.000E+00
 ETOT  2  -16.458287939056     -2.340E-02 1.891E-03 0.000E+00
 ETOT  3  -16.458710962364     -4.230E-04 1.194E-04 0.000E+00
[...]
 ETOT  5  -16.458735727083     -1.420E-06 1.411E-06 0.000E+00
 ETOT  6  -16.458735824118     -9.704E-08 1.891E-07 0.000E+00
 ETOT  7  -16.458735831193     -7.075E-09 2.201E-08 0.000E+00
 ETOT  8  -16.458735831742     -5.491E-10 2.779E-09 0.000E+00
 ETOT  9  -16.458735831787     -4.414E-11 3.520E-10 0.000E+00
 ETOT 10  -16.458735831790     -3.631E-12 4.244E-11 0.000E+00
 ETOT 11  -16.458735831790     -3.126E-13 5.742E-12 0.000E+00
 ETOT 12  -16.458735831791     -5.684E-14 6.640E-13 0.000E+00
 ETOT 13  -16.458735831791     -3.553E-15 9.433E-14 0.000E+00
 ETOT 14  -16.458735831791      2.487E-14 1.055E-14 0.000E+00
 ETOT 15  -16.458735831791      3.553E-15 1.559E-15 0.000E+00
 ETOT 16  -16.458735831791     -2.487E-14 1.690E-16 0.000E+00
 ETOT 17  -16.458735831791      2.487E-14 2.582E-17 0.000E+00
 ETOT 18  -16.458735831791     -7.105E-15 2.728E-18 0.000E+00
 ETOT 19  -16.458735831791      7.105E-15 4.287E-19 0.000E+00
 ETOT 20  -16.458735831791      7.105E-15 4.462E-20 0.000E+00
 ETOT 21  -16.458735831791     -1.066E-14 9.959E-21 0.000E+00

 At SCF step   21   max residual=  9.96E-21 < tolwfr=  1.00E-20 =>converged.

 ----iterations are completed or convergence reached----

 dfpt_looppert: DFPT cycle converged with prtwf=-1. Will skip output of the 1st-order WFK file.
 dfpt_looppert : ek2=    3.3776961139E+01
          f-sum rule ratio=    9.7763988870E-01
 prteigrs : about to open file /scratch/users/j/a/jabreu/flow_simple_10atoms/flow/w466/t1/tmpdata/tmp_1WF1_EIG
 Expectation of eigenvalue derivatives (hartree) for nkpt=   2  k points:
  (in case of degenerate eigenvalues, averaged derivative)
 kpt#   1, nband= 41, wtk=  0.50000, kpt=  0.1500  0.1500 -0.1500 (reduced coord)
   0.00028   -0.00011    0.00042   -0.00218   -0.00032   -0.00239   -0.00350    0.00217
  -0.00699   -0.00176    0.03066    0.00876    0.01372    0.00322    0.01629    0.00052
  -0.00873   -0.01963    0.00243   -0.01566   -0.01059    0.00649    0.00503   -0.00824
  -0.01059   -0.05500   -0.04712   -0.03249    0.00114   -0.01547    0.00014    0.00092
  -0.00395    0.05275    0.03218    0.04496   -0.02965    0.04776    0.08429    0.06353
   0.04612
 prteigrs : prtvol=0 or 1, do not print more k-points.

 Eight components of 2nd-order total energy (hartree) are
 1,2,3: 0th-order hamiltonian combined with 1st-order wavefunctions
     kin0=   2.26694436E+01 eigvalue=   8.55218720E-01  local=  -1.43523984E+01
 4,5,6: 1st-order hamiltonian combined with 1st and 0th-order wfs
     kin1=  -3.30217045E+01  Hartree=   0.00000000E+00     xc=   0.00000000E+00
 7,8,9: eventually, occupation + non-local contributions
    edocc=   4.17976247E+00     enl0=   3.10670947E+00   enl1=   1.04232865E-01
 1-9 gives the relaxation energy (to be shifted if some occ is /=2.0)
   erelax=  -1.64587358E+01
  No Ewald or frozen-wf contrib.: the relaxation energy is the total one
 2DEtotal=   -0.1645873583E+02 Ha. Also 2DEtotal=   -0.447864978569E+03 eV
    (  non-var. 2DEtotal :   -1.6458735832E+01 Ha)

 Perturbation wavevector (in red.coord.)   0.000000  0.000000  0.000000
 Perturbation : derivative vs k along direction   2
 The set of symmetries contains only one element for this perturbation.
 symkpt : not enough symmetry to change the number of k points.

[...]

 Perturbation wavevector (in red.coord.)   0.000000  0.000000  0.000000
 Perturbation : derivative vs k along direction   3
 The set of symmetries contains only one element for this perturbation.
 symkpt : not enough symmetry to change the number of k points.

 Initialisation of the first-order wave-functions :
  ireadwf=   0

--- !BeginCycle
iteration_state: {dtset: 1, }
solver: {iscf: 7, nstep: 2000, nline: 4, wfoptalg: 0, }
tolerances: {tolwfr: 1.00E-20, }
...

     iter   2DEtotal(Ha)        deltaE(Ha) residm    vres2
-ETOT  1  -25.821811901563     -2.582E+01 4.046E-02 0.000E+00
 ETOT  2  -25.853729868767     -3.192E-02 1.601E-03 0.000E+00
 ETOT  3  -25.854247707538     -5.178E-04 6.182E-05 0.000E+00
 ETOT  4  -25.854277963297     -3.026E-05 8.214E-06 0.000E+00
 ETOT  5  -25.854279906313     -1.943E-06 1.316E-06 0.000E+00
 ETOT  6  -25.854280046197     -1.399E-07 2.368E-07 0.000E+00
 ETOT  7  -25.854280056880     -1.068E-08 4.391E-08 0.000E+00
 ETOT  8  -25.854280057743     -8.625E-10 7.549E-09 0.000E+00
 ETOT  9  -25.854280057815     -7.214E-11 1.364E-09 0.000E+00
 ETOT 10  -25.854280057821     -6.288E-12 2.535E-10 0.000E+00
 ETOT 11  -25.854280057822     -5.898E-13 4.541E-11 0.000E+00
 ETOT 12  -25.854280057822      3.553E-15 8.645E-12 0.000E+00
 ETOT 13  -25.854280057822     -2.487E-14 1.550E-12 0.000E+00
 ETOT 14  -25.854280057822     -3.553E-15 2.978E-13 0.000E+00
 ETOT 15  -25.854280057822      2.842E-14 5.361E-14 0.000E+00
 ETOT 16  -25.854280057822     -1.421E-14 1.036E-14 0.000E+00
 ETOT 17  -25.854280057822      7.105E-15 1.874E-15 0.000E+00
 ETOT 18  -25.854280057822     -1.066E-14 3.633E-16 0.000E+00
 ETOT 19  -25.854280057822      0.000E+00 6.602E-17 0.000E+00
 ETOT 20  -25.854280057822      0.000E+00 1.282E-17 0.000E+00
 ETOT 21  -25.854280057822     -7.105E-15 2.340E-18 0.000E+00
 ETOT 22  -25.854280057822      7.105E-15 4.549E-19 0.000E+00
 ETOT 23  -25.854280057822     -3.553E-15 8.333E-20 0.000E+00
 ETOT 24  -25.854280057822     -7.105E-15 1.621E-20 0.000E+00
 ETOT 25  -25.854280057822      7.105E-15 9.926E-21 0.000E+00

 At SCF step   25   max residual=  9.93E-21 < tolwfr=  1.00E-20 =>converged.

 ----iterations are completed or convergence reached----

 dfpt_looppert: DFPT cycle converged with prtwf=-1. Will skip output of the 1st-order WFK file.
 dfpt_looppert : ek2=    4.5994564178E+01
          f-sum rule ratio=    1.1352745356E+00
 prteigrs : about to open file /scratch/users/j/a/jabreu/flow_simple_10atoms/flow/w466/t1/tmpdata/tmp_1WF1_EIG
 Expectation of eigenvalue derivatives (hartree) for nkpt=   2  k points:
  (in case of degenerate eigenvalues, averaged derivative)
 kpt#   1, nband= 41, wtk=  0.50000, kpt=  0.1500  0.1500 -0.1500 (reduced coord)
  -0.00000    0.00000   -0.00000   -0.00000    0.00000    0.00000   -0.00000    0.00000
  -0.00000    0.00000   -0.00000   -0.00000    0.00000    0.00000    0.00000    0.00000
   0.00000    0.00000    0.00000    0.00000   -0.00000   -0.00000    0.00000    0.00000
   0.00000    0.00000   -0.00000   -0.00000   -0.00000    0.00000   -0.00000   -0.00000
   0.00000    0.00000   -0.00000    0.00000   -0.00000    0.00000    0.00000   -0.00000
  -0.00002
 prteigrs : prtvol=0 or 1, do not print more k-points.

 Eight components of 2nd-order total energy (hartree) are
 1,2,3: 0th-order hamiltonian combined with 1st-order wavefunctions
     kin0=   3.19693774E+01 eigvalue=   1.09335775E+00  local=  -2.07545643E+01
 4,5,6: 1st-order hamiltonian combined with 1st and 0th-order wfs
     kin1=  -5.22164575E+01  Hartree=   0.00000000E+00     xc=   0.00000000E+00
 7,8,9: eventually, occupation + non-local contributions
    edocc=   8.88596431E+00     enl0=   4.66014488E+00   enl1=   5.07897374E-01
 1-9 gives the relaxation energy (to be shifted if some occ is /=2.0)
   erelax=  -2.58542801E+01
  No Ewald or frozen-wf contrib.: the relaxation energy is the total one
 2DEtotal=   -0.2585428006E+02 Ha. Also 2DEtotal=   -0.703530739077E+03 eV
    (  non-var. 2DEtotal :   -2.5854280058E+01 Ha)

 CALCULATION OF EFFECTIVE MASSES
 NOTE : Additional infos (eff. mass eigenvalues, eigenvectors and, if degenerate, average mass) are available in stdout.

 K-point ( 0.150, 0.150,-0.150) | band =    32
 Effective mass tensor:
             -6.1910291461             -0.2295526242             -3.7775008203
             -0.2295526242             -0.9364237463              0.3058381553
             -3.7775008203              0.3058381553             -3.9935228208
 Effective mass tensor eigenvalues:
             -9.0263287233             -1.4454819292             -0.6491650607
 Angular average effective mass 1/(<1/m>)=  -1.2803889245
 Angular average effective mass for Frohlich model (<m**0.5>)**2=  -1.6246043955
 Effective masses along directions: (cart. coord. / red. coord. -> eff. mass)
    1:   1.000000  0.000000  0.000000 /   0.940669 -0.339326  0.000000 ->  -2.3230109266
    2:   0.000000  1.000000  0.000000 /   0.000000  1.000000  0.000000 ->  -0.8101688250
    3:   0.000000  0.000000  1.000000 /  -0.238789 -0.460425  0.854979 ->  -1.4743790594
    4:   0.577350  0.577350  0.577350 /   0.560223 -0.096072  0.822752 ->  -1.8140283349
    5:   0.000000  0.707107  0.707107 /  -0.262652  0.215925  0.940420 ->  -0.7799035182
    6:   0.707107  0.000000  0.707107 /   0.454277 -0.590366  0.667158 ->  -7.7858122921
    7:   0.707107  0.707107  0.000000 /   0.915574  0.402149  0.000000 ->  -1.7013765616

 K-point ( 0.500, 0.000, 0.000) | band =    33
 Effective mass tensor:
              5.8440510891              1.1279303020              1.8802135084
              1.1279303020              1.0115615231              0.5572058244
              1.8802135084              0.5572058244              1.3214774439
 Effective mass tensor eigenvalues:
              0.5453355775              0.8377000076              6.7940544710
 Angular average effective mass 1/(<1/m>)=   0.9449814276
 Angular average effective mass for Frohlich model (<m**0.5>)**2=   1.1652042521
 Effective masses along directions: (cart. coord. / red. coord. -> eff. mass)
    1:   1.000000  0.000000  0.000000 /   0.940669 -0.339326  0.000000 ->   3.0242424717
    2:   0.000000  1.000000  0.000000 /   0.000000  1.000000  0.000000 ->   0.7411709300
    3:   0.000000  0.000000  1.000000 /  -0.238789 -0.460425  0.854979 ->   0.6689912709
    4:   0.577350  0.577350  0.577350 /   0.560223 -0.096072  0.822752 ->   2.2439682050
    5:   0.000000  0.707107  0.707107 /  -0.262652  0.215925  0.940420 ->   0.9468611966
    6:   0.707107  0.000000  0.707107 /   0.454277 -0.590366  0.667158 ->   1.9903605210
    7:   0.707107  0.707107  0.000000 /   0.915574  0.402149  0.000000 ->   1.4342080600

 END OF EFFECTIVE MASSES SECTION

 ---- first-order wavefunction calculations are completed ----

 Total localisation tensor (bohr^2) in cartesian coordinates
  WARNING : still subject to testing - especially symmetries.
      direction              matrix element
   alpha     beta       real part   imaginary part
     1        1       1.8807110321    0.0000000000
     1        2      -0.8118047293    0.0000000000
     1        3       0.1285843927    0.0000000000
     2        1      -0.8118047293    0.0000000000
     2        2       1.8002764620    0.0000000000
     2        3      -1.2621468806    0.0000000000
     3        1       0.1285843927    0.0000000000
     3        2      -1.2621468806    0.0000000000
     3        3       4.0574394654    0.0000000000

 respfn : d/dk was computed, but no 2DTE, so no DDB output.

== END DATASET(S) ==============================================================

 -outvars: echo values of variables after computation  --------
            acell      1.0000000000E+00  1.0000000000E+00  1.0000000000E+00 Bohr
              amu      1.32905430E+02  3.09737620E+01  3.20660000E+01
             ecut      2.70000000E+01 Hartree
           etotal     -2.5854280058E+01
            fcart      0.0000000000E+00  0.0000000000E+00  0.0000000000E+00
                       0.0000000000E+00  0.0000000000E+00  0.0000000000E+00
                       0.0000000000E+00  0.0000000000E+00  0.0000000000E+00
                       0.0000000000E+00  0.0000000000E+00  0.0000000000E+00
                       0.0000000000E+00  0.0000000000E+00  0.0000000000E+00
                       0.0000000000E+00  0.0000000000E+00  0.0000000000E+00
                       0.0000000000E+00  0.0000000000E+00  0.0000000000E+00
                       0.0000000000E+00  0.0000000000E+00  0.0000000000E+00
                       0.0000000000E+00  0.0000000000E+00  0.0000000000E+00
                       0.0000000000E+00  0.0000000000E+00  0.0000000000E+00
-          fftalg         512
           irdden           1
           irdwfk           1
           istwfk        0    1
              ixc     -116133
              kpt      1.50000000E-01  1.50000000E-01 -1.50000000E-01
                       5.00000000E-01  0.00000000E+00  0.00000000E+00
           kptopt           0
P           mkmem           2
P          mkqmem           2
P          mk1mem           2
            natom          10
            nband          41
           nbdbuf           4
            ngfft          72      72      72
             nkpt           2
            nstep        2000
             nsym           8
           ntypat           3
              occ      2.000000  2.000000  2.000000  2.000000  2.000000  2.000000
                       2.000000  2.000000  2.000000  2.000000  2.000000  2.000000
                       2.000000  2.000000  2.000000  2.000000  2.000000  2.000000
                       2.000000  2.000000  2.000000  2.000000  2.000000  2.000000
                       2.000000  2.000000  2.000000  2.000000  2.000000  2.000000
                       2.000000  2.000000  0.000000  0.000000  0.000000  0.000000
                       0.000000  0.000000  0.000000  0.000000  0.000000
        optdriver           1
            prtwf          -1
            rfdir           1       1       1
           rfelfd           2
            rprim      1.3417416636E+01  0.0000000000E+00 -3.9026891507E+00
                      -4.8400493579E+00  1.0733402528E+01 -7.5250278523E+00
                       0.0000000000E+00  0.0000000000E+00  1.3973476725E+01
          spgroup          71
           strten      0.0000000000E+00  0.0000000000E+00  0.0000000000E+00
                       0.0000000000E+00  0.0000000000E+00  0.0000000000E+00
           symrel      1  0  0   0  1  0   0  0  1      -1  0  0   0 -1  0   0  0 -1
                       0  0  1  -1 -1 -1   1  0  0       0  0 -1   1  1  1  -1  0  0
                      -1 -1 -1   0  0  1   0  1  0       1  1  1   0  0 -1   0 -1  0
                       0  1  0   1  0  0  -1 -1 -1       0 -1  0  -1  0  0   1  1  1
           tolwfr      1.00000000E-20
            typat      1  1  2  2  3  3  3  3  3  3
           useylm           1
              wtk        0.50000    0.50000
           xangst      5.2391741977E+00  0.0000000000E+00  3.9323971106E+00
                       1.8610168841E+00  0.0000000000E+00  1.3968341463E+00
                       2.9801638448E+00  3.7292676306E+00 -3.9705037616E+00
                       1.5587834283E+00  1.9506043577E+00 -2.0767836226E+00
                       1.0194849966E+00  2.8399359941E+00  3.4325905528E+00
                       3.5194622765E+00  2.8399359941E+00 -2.0854325293E+00
                       5.4139102918E+00  1.6091077343E-02  1.8143555335E-01
                       4.6042340077E-01  2.7023978939E+00 -6.1342695882E-01
                      -8.7496301868E-01  5.6637809109E+00  1.1657224701E+00
                       4.0785238724E+00  2.9774740943E+00  1.9605849823E+00
            xcart      9.9006043962E+00  0.0000000000E+00  7.4311535848E+00
                       3.5168122396E+00  0.0000000000E+00  2.6396339896E+00
                       5.6316934979E+00  7.0472944980E+00 -7.5031647190E+00
                       2.9456737800E+00  3.6861080297E+00 -3.9245522840E+00
                       1.9265474402E+00  5.3667012638E+00  6.4866560711E+00
                       6.6508198377E+00  5.3667012638E+00 -3.9408963490E+00
                       1.0230807760E+01  3.0407729361E-02  3.4286350660E-01
                       8.7007413262E-01  5.1067919216E+00 -1.1592089547E+00
                      -1.6534404817E+00  1.0702994798E+01  2.2028962155E+00
                       7.7072931453E+00  5.6266106061E+00  3.7049686768E+00
             xred      7.3789200000E-01  0.0000000000E+00  7.3789200000E-01
                       2.6210800000E-01  0.0000000000E+00  2.6210800000E-01
                       6.5657600000E-01  6.5657600000E-01  2.7755575616E-17
                       3.4342400000E-01  3.4342400000E-01 -1.3877787808E-17
                       3.2395000000E-01  5.0000000000E-01  8.2395000000E-01
                       6.7605000000E-01  5.0000000000E-01  1.7605000000E-01
                       7.6352400000E-01  2.8330000000E-03  2.3930900000E-01
                       2.3647600000E-01  4.7578500000E-01  2.3930900000E-01
                       2.3647600000E-01  9.9716700000E-01  7.6069100000E-01
                       7.6352400000E-01  5.2421500000E-01  7.6069100000E-01
            znucl       55.00000   15.00000   16.00000

- Timing analysis has been suppressed with timopt=0

 Suggested references for the acknowledgment of ABINIT usage.

 Calculation completed.
.Delivered   2 WARNINGs and  11 COMMENTs to log file.