.Version 9.5.1 of ABINIT

 ABINIT is a project of the Universite Catholique de Louvain,
 Corning Inc. and other collaborators, see ~abinit/doc/developers/contributors.txt .
 acknowledgments of the ABINIT effort.

.Starting date : Tue 27 Apr 2021.
- ( at 18h23 )

- input  file    -> /scratch/users/j/a/jabreu/flow_simple_4atoms/flow/w140/t1/run.abi
- output file    -> /scratch/users/j/a/jabreu/flow_simple_4atoms/flow/w140/t1/run.abo
- root for input  files -> /scratch/users/j/a/jabreu/flow_simple_4atoms/flow/w140/t1/indata/in
- root for output files -> /scratch/users/j/a/jabreu/flow_simple_4atoms/flow/w140/t1/outdata/out

 Symmetries : space group R-3 m (#166); Bravais hR (rhombohedral)
     intxc =       0      iscf =       7    lmnmax =      18     lnmax =       6
     mgfft =      90  mpssoang =       3    mqgrid =    3001     natom =       4
  nloc_mem =       1    nspden =       1   nspinor =       1    nsppol =       1
      nsym =      12    n1xccc =    2501    ntypat =       3    occopt =       1
   xclevel =       2
-    mband =          25        mffmem =           1         mkmem =           1
-   mkqmem =           1        mk1mem =           1           mpw =        9150
      nfft =      729000          nkpt =           1
  Rough estimation (10% accuracy) of disk space for files :

------------- Echo of variables that govern the present computation ------------
-
- outvars: echo of selected default values
-   iomode0 =  0 , fftalg0 =512 , wfoptalg0 =  0
-
- outvars: echo of global parameters not present in the input file
-  max_nthreads =    0
-
 -outvars: echo values of preprocessed input variables --------
            acell      1.0000000000E+00  1.0000000000E+00  1.0000000000E+00 Bohr
              amu      8.76200000E+01  1.26904470E+02  1.40067400E+01
             ecut      4.20000000E+01 Hartree
-          fftalg         512
           irdden           1
           irdwfk           1
           istwfk        1
              ixc     -116133
              kpt      5.00000000E-01  5.00000000E-01  5.55111512E-17
           kptopt           0
P           mkmem           1
P          mkqmem           1
P          mk1mem           1
            natom           4
            nband          25
           nbdbuf           4
            ngfft          90      90      90
             nkpt           1
            nstep         100
             nsym          12
           ntypat           3
              occ      2.000000  2.000000  2.000000  2.000000  2.000000  2.000000
                       2.000000  2.000000  2.000000  2.000000  2.000000  2.000000
                       2.000000  2.000000  2.000000  2.000000  0.000000  0.000000
                       0.000000  0.000000  0.000000  0.000000  0.000000  0.000000
                       0.000000
        optdriver           1
            prtwf          -1
            rfdir           1       1       1
           rfelfd           2
            rprim      7.2480289285E+00  0.0000000000E+00  1.3290604074E+01
                       3.3884533961E+00  6.4072074206E+00  1.3290604074E+01
                       0.0000000000E+00  0.0000000000E+00  1.5138496623E+01
          spgroup         166
           symrel      1  0  0   0  1  0   0  0  1      -1  0  0   0 -1  0   0  0 -1
                       0  1  0   1  0  0   0  0  1       0 -1  0  -1  0  0   0  0 -1
                       0  0  1   1  0  0   0  1  0       0  0 -1  -1  0  0   0 -1  0
                       1  0  0   0  0  1   0  1  0      -1  0  0   0  0 -1   0 -1  0
                       0  1  0   0  0  1   1  0  0       0 -1  0   0  0 -1  -1  0  0
                       0  0  1   0  1  0   1  0  0       0  0 -1   0 -1  0  -1  0  0
           tolwfr      1.00000000E-20
            typat      1  1  2  3
           useylm           1
           xangst      1.2581799016E+00  7.5790278741E-01  4.9349862521E+00
                       4.3704041241E+00  2.6326453503E+00  1.7142130661E+01
                       0.0000000000E+00  0.0000000000E+00  0.0000000000E+00
                       2.8142920129E+00  1.6952740688E+00  1.1038558457E+01
            xcart      2.3776154399E+00  1.4322287036E+00  9.3257724861E+00
                       8.2588668847E+00  4.9749787170E+00  3.2393932284E+01
                       0.0000000000E+00  0.0000000000E+00  0.0000000000E+00
                       5.3182411623E+00  3.2036037103E+00  2.0859852385E+01
             xred      2.2353400000E-01  2.2353400000E-01  2.2353400000E-01
                       7.7646600000E-01  7.7646600000E-01  7.7646600000E-01
                       0.0000000000E+00  0.0000000000E+00  0.0000000000E+00
                       5.0000000000E-01  5.0000000000E-01  5.0000000000E-01
            znucl       38.00000   53.00000    7.00000

 chkinp: Checking input parameters for consistency.

== DATASET  1 ==================================================================
-   mpi_nproc: 1, omp_nthreads: -1 (-1 if OMP is not activated)

--- !DatasetInfo
iteration_state: {dtset: 1, }
dimensions: {natom: 4, nkpt: 1, mband: 25, nsppol: 1, nspinor: 1, nspden: 1, mpw: 9150, }
cutoff_energies: {ecut:  42.0, pawecutdg:  -1.0, }
electrons: {nelect:   3.20000000E+01, charge:   0.00000000E+00, occopt:   1.00000000E+00, tsmear:   1.00000000E-02, }
meta: {optdriver: 1, rfelfd: 2, }
...

 Real(R)+Recip(G) space primitive vectors, cartesian coordinates (Bohr,Bohr^-1):
 R(1)=  7.2480289  0.0000000 13.2906041  G(1)=  0.1379685 -0.0729647  0.0000000
 R(2)=  3.3884534  6.4072074 13.2906041  G(2)=  0.0000000  0.1560742  0.0000000
 R(3)=  0.0000000  0.0000000 15.1384966  G(3)= -0.1211273 -0.0729647  0.0660568
 Unit cell volume ucvol=  7.0302610E+02 bohr^3
 Angles (23,13,12)=  2.86058363E+01  2.86058363E+01  2.86058363E+01 degrees

 getcut: wavevector=  0.0000  0.0000  0.0000  ngfft=  90  90  90
         ecut(hartree)=     42.000   => boxcut(ratio)=   2.03857

--- Pseudopotential description ------------------------------------------------
- pspini: atom type   1  psp file is /scratch/users/j/a/jabreu/pseudos/PBEsol/Sr.psp8
- pspatm: opening atomic psp file    /scratch/users/j/a/jabreu/pseudos/PBEsol/Sr.psp8
- Sr    ONCVPSP-3.3.0  r_core=   1.66721   1.31335   1.51547
- 38.00000  10.00000    180112                znucl, zion, pspdat
    8 -116133    2    4       600   0.00000   pspcod,pspxc,lmax,lloc,mmax,r2well
    5.99000000000000    6.00000000000000    0.00000000000000   rchrg,fchrg,qchrg
     nproj     2     2     2
     extension_switch     1
  pspatm : epsatm=   12.46450977
         --- l  ekb(1:nproj) -->
             0   10.029206    1.044171
             1    7.472414    1.670829
             2    4.142950    0.968140
 pspatm: atomic psp has been read  and splines computed

- pspini: atom type   2  psp file is /scratch/users/j/a/jabreu/pseudos/PBEsol/I.psp8
- pspatm: opening atomic psp file    /scratch/users/j/a/jabreu/pseudos/PBEsol/I.psp8
- I     ONCVPSP-3.3.0  r_core=   2.02042   2.17032   2.27639
- 53.00000   7.00000    180112                znucl, zion, pspdat
    8 -116133    2    4       600   0.00000   pspcod,pspxc,lmax,lloc,mmax,r2well
    5.99000000000000    4.00000000000000    0.00000000000000   rchrg,fchrg,qchrg
     nproj     2     2     2
     extension_switch     1
  pspatm : epsatm=   18.14229533
         --- l  ekb(1:nproj) -->
             0    6.015861    0.935228
             1    4.063749    0.754139
             2    4.149534    0.722940
 pspatm: atomic psp has been read  and splines computed

- pspini: atom type   3  psp file is /scratch/users/j/a/jabreu/pseudos/PBEsol/N.psp8
- pspatm: opening atomic psp file    /scratch/users/j/a/jabreu/pseudos/PBEsol/N.psp8
- N     ONCVPSP-3.3.0  r_core=   1.20551   1.35824
-  7.00000   5.00000    180112                znucl, zion, pspdat
    8 -116133    1    4       600   0.00000   pspcod,pspxc,lmax,lloc,mmax,r2well
    5.99000000000000    4.00000000000000    0.00000000000000   rchrg,fchrg,qchrg
     nproj     2     2
     extension_switch     1
  pspatm : epsatm=    5.26508895
         --- l  ekb(1:nproj) -->
             0    7.464189    0.625868
             1   -4.309714   -1.012941
 pspatm: atomic psp has been read  and splines computed

   1.54676492E+03                                ecore*ucvol(ha*bohr**3)

-inwffil : will read wavefunctions from disk file /scratch/users/j/a/jabreu/flow_simple_4atoms/flow/w140/t1/indata/in_WFK

 ==>  initialize data related to q vector <==

 The list of irreducible perturbations for this q vector is:
    1)    idir= 1    ipert=   5
    2)    idir= 2    ipert=   5
    3)    idir= 3    ipert=   5

 Perturbation wavevector (in red.coord.)   0.000000  0.000000  0.000000
 Perturbation : derivative vs k along direction   1

 dfpt_looppert : COMMENT -
  In a d/dk calculation, iscf is set to -3 automatically.
 The set of symmetries contains only one element for this perturbation.
 symkpt : not enough symmetry to change the number of k points.

[...]

 Initialisation of the first-order wave-functions :
  ireadwf=   0

--- !BeginCycle
iteration_state: {dtset: 1, }
solver: {iscf: 7, nstep: 100, nline: 4, wfoptalg: 0, }
tolerances: {tolwfr: 1.00E-20, }
...

     iter   2DEtotal(Ha)        deltaE(Ha) residm    vres2
-ETOT  1  -36.266482724721     -3.627E+01 1.170E-01 0.000E+00
 ETOT  2  -36.301002302352     -3.452E-02 1.042E-02 0.000E+00
 ETOT  3  -36.301267172799     -2.649E-04 6.817E-04 0.000E+00
 ETOT  4  -36.301270105134     -2.932E-06 7.950E-05 0.000E+00
 ETOT  5  -36.301270142279     -3.714E-08 6.529E-06 0.000E+00
 ETOT  6  -36.301270142778     -4.997E-10 8.101E-07 0.000E+00
 ETOT  7  -36.301270142785     -6.914E-12 7.014E-08 0.000E+00
 ETOT  8  -36.301270142785     -1.634E-13 9.094E-09 0.000E+00
 ETOT  9  -36.301270142785      7.816E-14 7.910E-10 0.000E+00
 ETOT 10  -36.301270142785     -3.553E-14 1.051E-10 0.000E+00
 ETOT 11  -36.301270142785      7.105E-15 9.142E-12 0.000E+00
 ETOT 12  -36.301270142785      1.421E-14 1.232E-12 0.000E+00
 ETOT 13  -36.301270142785      7.105E-15 1.071E-13 0.000E+00
 ETOT 14  -36.301270142785      7.105E-15 1.455E-14 0.000E+00
 ETOT 15  -36.301270142785      0.000E+00 1.265E-15 0.000E+00
 ETOT 16  -36.301270142785      0.000E+00 1.729E-16 0.000E+00
 ETOT 17  -36.301270142785      0.000E+00 1.503E-17 0.000E+00
 ETOT 18  -36.301270142785      0.000E+00 2.062E-18 0.000E+00
 ETOT 19  -36.301270142785     -1.421E-14 1.794E-19 0.000E+00
 ETOT 20  -36.301270142785      0.000E+00 2.467E-20 0.000E+00
 ETOT 21  -36.301270142785      0.000E+00 9.688E-21 0.000E+00

 At SCF step   21   max residual=  9.69E-21 < tolwfr=  1.00E-20 =>converged.

 ----iterations are completed or convergence reached----

 dfpt_looppert: DFPT cycle converged with prtwf=-1. Will skip output of the 1st-order WFK file.
 dfpt_looppert : ek2=    6.1546327492E+01
          f-sum rule ratio=    1.1253204776E+00
 prteigrs : about to open file /scratch/users/j/a/jabreu/flow_simple_4atoms/flow/w140/t1/tmpdata/tmp_1WF1_EIG
 Expectation of eigenvalue derivatives (hartree) for nkpt=   1  k points:
  (in case of degenerate eigenvalues, averaged derivative)
 kpt#   1, nband= 25, wtk=  1.00000, kpt=  0.5000  0.5000  0.0000 (reduced coord)
   0.00000    0.00000   -0.00000   -0.00000   -0.00000   -0.00000    0.00000   -0.00000
   0.00000   -0.00000    0.00000   -0.00000   -0.00000    0.00000    0.00000    0.00000
  -0.00000    0.00000   -0.00000    0.00000   -0.00000   -0.00000   -0.00000    0.00000
   0.00001

 Eight components of 2nd-order total energy (hartree) are
 1,2,3: 0th-order hamiltonian combined with 1st-order wavefunctions
     kin0=   3.42659564E+01 eigvalue=   1.70073280E-01  local=  -2.15501305E+01
 4,5,6: 1st-order hamiltonian combined with 1st and 0th-order wfs
     kin1=  -6.92593426E+01  Hartree=   0.00000000E+00     xc=   0.00000000E+00
 7,8,9: eventually, occupation + non-local contributions
    edocc=   1.85571716E+01     enl0=   4.85819928E+00   enl1=  -3.34319764E+00
 1-9 gives the relaxation energy (to be shifted if some occ is /=2.0)
   erelax=  -3.63012701E+01
  No Ewald or frozen-wf contrib.: the relaxation energy is the total one
 2DEtotal=   -0.3630127014E+02 Ha. Also 2DEtotal=   -0.987807796461E+03 eV
    (  non-var. 2DEtotal :   -3.6301270143E+01 Ha)

 Perturbation wavevector (in red.coord.)   0.000000  0.000000  0.000000
 Perturbation : derivative vs k along direction   2
 The set of symmetries contains only one element for this perturbation.
 symkpt : not enough symmetry to change the number of k points.

[...]

 Perturbation wavevector (in red.coord.)   0.000000  0.000000  0.000000
 Perturbation : derivative vs k along direction   3
 The set of symmetries contains only one element for this perturbation.
 symkpt : not enough symmetry to change the number of k points.

-inwffil : will read wavefunctions from disk file /scratch/users/j/a/jabreu/flow_simple_4atoms/flow/w140/t1/indata/in_WFK

 Initialisation of the first-order wave-functions :
  ireadwf=   0

--- !BeginCycle
iteration_state: {dtset: 1, }
solver: {iscf: 7, nstep: 100, nline: 4, wfoptalg: 0, }
tolerances: {tolwfr: 1.00E-20, }
...

     iter   2DEtotal(Ha)        deltaE(Ha) residm    vres2
-ETOT  1  -30.692622092051     -3.069E+01 6.320E-02 0.000E+00
 ETOT  2  -30.719465567395     -2.684E-02 8.571E-03 0.000E+00
 ETOT  3  -30.719575561380     -1.100E-04 1.610E-04 0.000E+00
 ETOT  4  -30.719576260593     -6.992E-07 2.652E-05 0.000E+00
 ETOT  5  -30.719576265514     -4.921E-09 7.678E-07 0.000E+00
 ETOT  6  -30.719576265551     -3.611E-11 1.358E-07 0.000E+00
 ETOT  7  -30.719576265551     -2.451E-13 4.017E-09 0.000E+00
 ETOT  8  -30.719576265551      3.908E-14 7.442E-10 0.000E+00
 ETOT  9  -30.719576265551      2.132E-14 2.170E-11 0.000E+00
 ETOT 10  -30.719576265551     -4.619E-14 4.162E-12 0.000E+00
 ETOT 11  -30.719576265551      3.553E-15 1.190E-13 0.000E+00
 ETOT 12  -30.719576265551     -3.553E-15 2.356E-14 0.000E+00
 ETOT 13  -30.719576265551      1.066E-14 6.581E-16 0.000E+00
 ETOT 14  -30.719576265551     -1.421E-14 1.343E-16 0.000E+00
 ETOT 15  -30.719576265551      7.105E-15 3.662E-18 0.000E+00
 ETOT 16  -30.719576265551      0.000E+00 7.693E-19 0.000E+00
 ETOT 17  -30.719576265551      7.105E-15 2.047E-20 0.000E+00
 ETOT 18  -30.719576265551     -1.421E-14 9.674E-21 0.000E+00

 At SCF step   18   max residual=  9.67E-21 < tolwfr=  1.00E-20 =>converged.

 ----iterations are completed or convergence reached----

 dfpt_looppert: DFPT cycle converged with prtwf=-1. Will skip output of the 1st-order WFK file.
 dfpt_looppert : ek2=    6.1546327493E+01
          f-sum rule ratio=    9.5290418067E-01
 prteigrs : about to open file /scratch/users/j/a/jabreu/flow_simple_4atoms/flow/w140/t1/tmpdata/tmp_1WF1_EIG
 Expectation of eigenvalue derivatives (hartree) for nkpt=   1  k points:
  (in case of degenerate eigenvalues, averaged derivative)
 kpt#   1, nband= 25, wtk=  1.00000, kpt=  0.5000  0.5000  0.0000 (reduced coord)
  -0.00000   -0.00000    0.00000    0.00000    0.00000   -0.00000   -0.00000    0.00000
  -0.00000    0.00000   -0.00000   -0.00000   -0.00000   -0.00000   -0.00000    0.00000
  -0.00000    0.00000   -0.00000    0.00000    0.00000    0.00000    0.00000   -0.00000
   0.00000

 Eight components of 2nd-order total energy (hartree) are
 1,2,3: 0th-order hamiltonian combined with 1st-order wavefunctions
     kin0=   4.32092494E+01 eigvalue=  -1.42238362E-02  local=  -2.83900800E+01
 4,5,6: 1st-order hamiltonian combined with 1st and 0th-order wfs
     kin1=  -5.86477528E+01  Hartree=   0.00000000E+00     xc=   0.00000000E+00
 7,8,9: eventually, occupation + non-local contributions
    edocc=   9.31100203E+00     enl0=   6.60362869E+00   enl1=  -2.79139976E+00
 1-9 gives the relaxation energy (to be shifted if some occ is /=2.0)
   erelax=  -3.07195763E+01
  No Ewald or frozen-wf contrib.: the relaxation energy is the total one
 2DEtotal=   -0.3071957627E+02 Ha. Also 2DEtotal=   -0.835922181778E+03 eV
    (  non-var. 2DEtotal :   -3.0719576265E+01 Ha)

 CALCULATION OF EFFECTIVE MASSES
 NOTE : Additional infos (eff. mass eigenvalues, eigenvectors and, if degenerate, average mass) are available in stdout.

 K-point ( 0.500, 0.500, 0.000) | band =    16
 Effective mass tensor:
             -4.3533938498              5.1684263882             -0.7139854645
              5.1684263882             -9.8200413448             -0.4300905727
             -0.7139854645             -0.4300905727             -7.4531912620
 Effective mass tensor eigenvalues:
            -12.9333995656             -7.5630678403             -1.1301590506
 Angular average effective mass 1/(<1/m>)=  -2.7412985103
 Angular average effective mass for Frohlich model (<m**0.5>)**2=  -3.8672478960
 Effective masses along directions: (cart. coord. / red. coord. -> eff. mass)
    1:   1.000000  0.000000  0.000000 /   0.905894  0.423505  0.000000 ->  -1.5142363817
    2:   0.000000  1.000000  0.000000 /   0.000000  1.000000  0.000000 ->  -3.4614453231
    3:   0.000000  0.000000  1.000000 /   0.550698  0.550698  0.627266 ->  -6.8929225665
    4:   0.577350  0.577350  0.577350 /   0.596896  0.670935  0.439956 ->  -1.9618820277
    5:   0.000000  0.707107  0.707107 /   0.471720  0.699129  0.537307 ->  -5.9999302558
    6:   0.707107  0.000000  0.707107 /   0.673778  0.547163  0.496624 ->  -3.1327749211
    7:   0.707107  0.707107  0.000000 /   0.594803  0.803872  0.000000 ->  -1.2108245618

 K-point ( 0.500, 0.500, 0.000) | band =    17
 Effective mass tensor:
              0.6342222192              0.1850627326             -0.4433413809
              0.1850627326              0.4384812653             -0.2670601136
             -0.4433413809             -0.2670601136              1.1511093106
 Effective mass tensor eigenvalues:
              0.3270031209              0.3925615247              1.5042481494
 Angular average effective mass 1/(<1/m>)=   0.4784513396
 Angular average effective mass for Frohlich model (<m**0.5>)**2=   0.5287768664
 Effective masses along directions: (cart. coord. / red. coord. -> eff. mass)
    1:   1.000000  0.000000  0.000000 /   0.905894  0.423505  0.000000 ->   0.4455243110
    2:   0.000000  1.000000  0.000000 /   0.000000  1.000000  0.000000 ->   0.3619416557
    3:   0.000000  0.000000  1.000000 /   0.550698  0.550698  0.627266 ->   0.7918863608
    4:   0.577350  0.577350  0.577350 /   0.596896  0.670935  0.439956 ->   0.3898035572
    5:   0.000000  0.707107  0.707107 /   0.471720  0.699129  0.537307 ->   0.4056638436
    6:   0.707107  0.000000  0.707107 /   0.673778  0.547163  0.496624 ->   0.3992886113
    7:   0.707107  0.707107  0.000000 /   0.594803  0.803872  0.000000 ->   0.4966086912

 END OF EFFECTIVE MASSES SECTION

 ---- first-order wavefunction calculations are completed ----

 Total localisation tensor (bohr^2) in cartesian coordinates
  WARNING : still subject to testing - especially symmetries.
      direction              matrix element
   alpha     beta       real part   imaginary part
     1        1       2.5537894879    0.0000000000
     1        2       0.8661038793    0.0000000000
     1        3       5.6395237061    0.0000000000
     2        1       0.8661038793    0.0000000000
     2        2       1.6377109418    0.0000000000
     2        3       3.3971379863    0.0000000000
     3        1       5.6395237061    0.0000000000
     3        2       3.3971379863    0.0000000000
     3        3      19.9653576266    0.0000000000

 respfn : d/dk was computed, but no 2DTE, so no DDB output.

== END DATASET(S) ==============================================================

 -outvars: echo values of variables after computation  --------
            acell      1.0000000000E+00  1.0000000000E+00  1.0000000000E+00 Bohr
              amu      8.76200000E+01  1.26904470E+02  1.40067400E+01
             ecut      4.20000000E+01 Hartree
           etotal     -3.0719576266E+01
            fcart      0.0000000000E+00  0.0000000000E+00  0.0000000000E+00
                       0.0000000000E+00  0.0000000000E+00  0.0000000000E+00
                       0.0000000000E+00  0.0000000000E+00  0.0000000000E+00
                       0.0000000000E+00  0.0000000000E+00  0.0000000000E+00
-          fftalg         512
           irdden           1
           irdwfk           1
           istwfk        1
              ixc     -116133
              kpt      5.00000000E-01  5.00000000E-01  5.55111512E-17
           kptopt           0
P           mkmem           1
P          mkqmem           1
P          mk1mem           1
            natom           4
            nband          25
           nbdbuf           4
            ngfft          90      90      90
             nkpt           1
            nstep         100
             nsym          12
           ntypat           3
              occ      2.000000  2.000000  2.000000  2.000000  2.000000  2.000000
                       2.000000  2.000000  2.000000  2.000000  2.000000  2.000000
                       2.000000  2.000000  2.000000  2.000000  0.000000  0.000000
                       0.000000  0.000000  0.000000  0.000000  0.000000  0.000000
                       0.000000
        optdriver           1
            prtwf          -1
            rfdir           1       1       1
           rfelfd           2
            rprim      7.2480289285E+00  0.0000000000E+00  1.3290604074E+01
                       3.3884533961E+00  6.4072074206E+00  1.3290604074E+01
                       0.0000000000E+00  0.0000000000E+00  1.5138496623E+01
          spgroup         166
           strten      0.0000000000E+00  0.0000000000E+00  0.0000000000E+00
                       0.0000000000E+00  0.0000000000E+00  0.0000000000E+00
           symrel      1  0  0   0  1  0   0  0  1      -1  0  0   0 -1  0   0  0 -1
                       0  1  0   1  0  0   0  0  1       0 -1  0  -1  0  0   0  0 -1
                       0  0  1   1  0  0   0  1  0       0  0 -1  -1  0  0   0 -1  0
                       1  0  0   0  0  1   0  1  0      -1  0  0   0  0 -1   0 -1  0
                       0  1  0   0  0  1   1  0  0       0 -1  0   0  0 -1  -1  0  0
                       0  0  1   0  1  0   1  0  0       0  0 -1   0 -1  0  -1  0  0
           tolwfr      1.00000000E-20
            typat      1  1  2  3
           useylm           1
           xangst      1.2581799016E+00  7.5790278741E-01  4.9349862521E+00
                       4.3704041241E+00  2.6326453503E+00  1.7142130661E+01
                       0.0000000000E+00  0.0000000000E+00  0.0000000000E+00
                       2.8142920129E+00  1.6952740688E+00  1.1038558457E+01
            xcart      2.3776154399E+00  1.4322287036E+00  9.3257724861E+00
                       8.2588668847E+00  4.9749787170E+00  3.2393932284E+01
                       0.0000000000E+00  0.0000000000E+00  0.0000000000E+00
                       5.3182411623E+00  3.2036037103E+00  2.0859852385E+01
             xred      2.2353400000E-01  2.2353400000E-01  2.2353400000E-01
                       7.7646600000E-01  7.7646600000E-01  7.7646600000E-01
                       0.0000000000E+00  0.0000000000E+00  0.0000000000E+00
                       5.0000000000E-01  5.0000000000E-01  5.0000000000E-01
            znucl       38.00000   53.00000    7.00000

- Timing analysis has been suppressed with timopt=0

 Suggested references for the acknowledgment of ABINIT usage.

 Calculation completed.
.Delivered   6 WARNINGs and   5 COMMENTs to log file.