.Version 9.5.2 of ABINIT

 ABINIT is a project of the Universite Catholique de Louvain,
 Corning Inc. and other collaborators, see ~abinit/doc/developers/contributors.txt .
 acknowledgments of the ABINIT effort.

.Starting date : Mon 31 May 2021.
- ( at 22h47 )

- input  file    -> /scratch/users/j/a/jabreu/flow_simple_11atoms/flow/w385/t1/run.abi
- output file    -> /scratch/users/j/a/jabreu/flow_simple_11atoms/flow/w385/t1/run.abo
- root for input  files -> /scratch/users/j/a/jabreu/flow_simple_11atoms/flow/w385/t1/indata/in
- root for output files -> /scratch/users/j/a/jabreu/flow_simple_11atoms/flow/w385/t1/outdata/out

 Symmetries : space group C2/m (# 12); Bravais mC (1-face-center monocl.)
     intxc =       0      iscf =       7    lmnmax =      18     lnmax =       6
     mgfft =      80  mpssoang =       3    mqgrid =    3001     natom =      11
  nloc_mem =       1    nspden =       1   nspinor =       1    nsppol =       1
      nsym =       4    n1xccc =    2501    ntypat =       3    occopt =       1
   xclevel =       2
-    mband =          45        mffmem =           1         mkmem =           2
-   mkqmem =           2        mk1mem =           2           mpw =       12259
      nfft =      345600          nkpt =           2
  Rough estimation (10% accuracy) of disk space for files :

------------- Echo of variables that govern the present computation ------------
-
- outvars: echo of selected default values
-   iomode0 =  0 , fftalg0 =512 , wfoptalg0 =  0
-
- outvars: echo of global parameters not present in the input file
-  max_nthreads =    0
-
 -outvars: echo values of preprocessed input variables --------
            acell      1.0000000000E+00  1.0000000000E+00  1.0000000000E+00 Bohr
              amu      1.37327000E+02  1.08110000E+01  1.89984032E+01
             ecut      4.20000000E+01 Hartree
-          fftalg         512
           irdden           1
           irdwfk           1
           istwfk        1    1
              ixc     -116133
              kpt      5.00000000E-01  5.00000000E-01  5.00000000E-01
                       0.00000000E+00  0.00000000E+00  0.00000000E+00
           kptopt           0
P           mkmem           2
P          mkqmem           2
P          mk1mem           2
            natom          11
            nband          45
           nbdbuf           4
            ngfft          80      80      54
             nkpt           2
            nstep        2000
             nsym           4
           ntypat           3
              occ      2.000000  2.000000  2.000000  2.000000  2.000000  2.000000
                       2.000000  2.000000  2.000000  2.000000  2.000000  2.000000
                       2.000000  2.000000  2.000000  2.000000  2.000000  2.000000
                       2.000000  2.000000  2.000000  2.000000  2.000000  2.000000
                       2.000000  2.000000  2.000000  2.000000  2.000000  2.000000
                       2.000000  2.000000  2.000000  2.000000  2.000000  2.000000
                       0.000000  0.000000  0.000000  0.000000  0.000000  0.000000
                       0.000000  0.000000  0.000000
        optdriver           1
            prtwf          -1
            rfdir           1       1       1
           rfelfd           2
            rprim      1.1923185655E+01  0.0000000000E+00  4.5280437731E+00
                       8.1532096883E+00  8.6998579260E+00  4.5280437731E+00
                       0.0000000000E+00  0.0000000000E+00  9.0639276053E+00
          spgroup          12
           symrel      1  0  0   0  1  0   0  0  1      -1  0  0   0 -1  0   0  0 -1
                       0 -1  0  -1  0  0   0  0 -1       0  1  0   1  0  0   0  0  1
           tolwfr      1.00000000E-20
            typat      1  2  2  3  3  3  3  3  3  3  3
           useylm           1
              wtk        0.50000    0.50000
           xangst      0.0000000000E+00  0.0000000000E+00  0.0000000000E+00
                       6.9215063823E+00  2.9993492921E+00  5.0587569786E+00
                       3.7024644638E+00  1.6044172403E+00  4.5299420589E+00
                       6.9936897284E+00  1.7739279240E+00  4.3798205425E+00
                       2.4311257446E+00  1.0534983107E+00  4.3892366076E+00
                       6.0767266282E+00  3.8899755504E+00  4.3798205425E+00
                       6.3577559933E+00  2.7550550248E+00  6.3440446160E+00
                       4.5472442179E+00  7.1379098202E-01  5.2088784950E+00
                       3.6302811177E+00  2.8298386084E+00  5.2088784950E+00
                       8.1928451015E+00  3.5502682217E+00  5.1994624299E+00
                       4.2662148528E+00  1.8487115076E+00  3.2446544215E+00
            xcart      0.0000000000E+00  0.0000000000E+00  0.0000000000E+00
                       1.3079751490E+01  5.6679487389E+00  9.5596652623E+00
                       6.9966438534E+00  3.0319091871E+00  8.5603498892E+00
                       1.3216158245E+01  3.3522379559E+00  8.2766613365E+00
                       4.5941618519E+00  1.9908232886E+00  8.2944551208E+00
                       1.1483349112E+01  7.3509884539E+00  8.2766613365E+00
                       1.2014417647E+01  5.2062994779E+00  1.1988506899E+01
                       8.5930462311E+00  1.3488694721E+00  9.8433538150E+00
                       6.8602370978E+00  5.3476199701E+00  9.8433538150E+00
                       1.5482233491E+01  6.7090346374E+00  9.8255600307E+00
                       8.0619776959E+00  3.4935584481E+00  6.1315082524E+00
             xred      0.0000000000E+00  0.0000000000E+00  0.0000000000E+00
                       6.5149900000E-01  6.5149900000E-01  4.0375800000E-01
                       3.4850100000E-01  3.4850100000E-01  5.9624200000E-01
                       8.4495500000E-01  3.8532100000E-01  2.9853700000E-01
                       2.2883400000E-01  2.2883400000E-01  6.8647000000E-01
                       3.8532100000E-01  8.4495500000E-01  2.9853700000E-01
                       5.9843500000E-01  5.9843500000E-01  7.2474400000E-01
                       6.1467900000E-01  1.5504500000E-01  7.0146300000E-01
                       1.5504500000E-01  6.1467900000E-01  7.0146300000E-01
                       7.7116600000E-01  7.7116600000E-01  3.1353000000E-01
                       4.0156500000E-01  4.0156500000E-01  2.7525600000E-01
            znucl       56.00000    5.00000    9.00000

 chkinp: Checking input parameters for consistency.

== DATASET  1 ==================================================================
-   mpi_nproc: 1, omp_nthreads: -1 (-1 if OMP is not activated)

--- !DatasetInfo
iteration_state: {dtset: 1, }
dimensions: {natom: 11, nkpt: 2, mband: 45, nsppol: 1, nspinor: 1, nspden: 1, mpw: 12259, }
cutoff_energies: {ecut:  42.0, pawecutdg:  -1.0, }
electrons: {nelect:   7.20000000E+01, charge:   0.00000000E+00, occopt:   1.00000000E+00, tsmear:   1.00000000E-02, }
meta: {optdriver: 1, rfelfd: 2, }
...

 Real(R)+Recip(G) space primitive vectors, cartesian coordinates (Bohr,Bohr^-1):
 R(1)= 11.9231857  0.0000000  4.5280438  G(1)=  0.0838702 -0.0786003  0.0000000
 R(2)=  8.1532097  8.6998579  4.5280438  G(2)=  0.0000000  0.1149444  0.0000000
 R(3)=  0.0000000  0.0000000  9.0639276  G(3)= -0.0418988 -0.0181563  0.1103274
 Unit cell volume ucvol=  9.4020140E+02 bohr^3
 Angles (23,13,12)=  6.92048277E+01  6.92048277E+01  4.36420660E+01 degrees

 getcut: wavevector=  0.0000  0.0000  0.0000  ngfft=  80  80  54
         ecut(hartree)=     42.000   => boxcut(ratio)=   2.04238

--- Pseudopotential description ------------------------------------------------
- pspini: atom type   1  psp file is /scratch/users/j/a/jabreu/pseudos/PBEsol/Ba.psp8
- pspatm: opening atomic psp file    /scratch/users/j/a/jabreu/pseudos/PBEsol/Ba.psp8
- Ba    ONCVPSP-3.3.0  r_core=   2.15444   1.91218   2.15444
- 56.00000  10.00000    180112                znucl, zion, pspdat
    8 -116133    2    4       600   0.00000   pspcod,pspxc,lmax,lloc,mmax,r2well
    5.99000000000000    5.00000000000000    0.00000000000000   rchrg,fchrg,qchrg
     nproj     2     2     2
     extension_switch     1
  pspatm : epsatm=   26.37418029
         --- l  ekb(1:nproj) -->
             0    6.652372    0.677024
             1    5.027722    0.408462
             2    2.543237    0.416854
 pspatm: atomic psp has been read  and splines computed

- pspini: atom type   2  psp file is /scratch/users/j/a/jabreu/pseudos/PBEsol/B.psp8
- pspatm: opening atomic psp file    /scratch/users/j/a/jabreu/pseudos/PBEsol/B.psp8
- B     ONCVPSP-3.3.0  r_core=   1.20849   1.20849
-  5.00000   3.00000    180112                znucl, zion, pspdat
    8 -116133    1    4       600   0.00000   pspcod,pspxc,lmax,lloc,mmax,r2well
    5.99000000000000    2.90000000000000    0.00000000000000   rchrg,fchrg,qchrg
     nproj     2     2
     extension_switch     1
  pspatm : epsatm=    3.20154566
         --- l  ekb(1:nproj) -->
             0    8.466603    1.247630
             1   -3.609180   -0.822621
 pspatm: atomic psp has been read  and splines computed

- pspini: atom type   3  psp file is /scratch/users/j/a/jabreu/pseudos/PBEsol/F.psp8
- pspatm: opening atomic psp file    /scratch/users/j/a/jabreu/pseudos/PBEsol/F.psp8
- F     ONCVPSP-3.3.0  r_core=   1.30942   1.45782   1.60379
-  9.00000   7.00000    180112                znucl, zion, pspdat
    8 -116133    2    4       600   0.00000   pspcod,pspxc,lmax,lloc,mmax,r2well
    5.99000000000000    2.50000000000000    0.00000000000000   rchrg,fchrg,qchrg
     nproj     2     2     1
     extension_switch     1
  pspatm : epsatm=    4.89824824
         --- l  ekb(1:nproj) -->
             0    6.506434    1.065875
             1   -3.978753   -1.295852
             2   -2.394754
 pspatm: atomic psp has been read  and splines computed

   5.18135454E+03                                ecore*ucvol(ha*bohr**3)

 ==>  initialize data related to q vector <==

 The list of irreducible perturbations for this q vector is:
    1)    idir= 1    ipert=  12
    2)    idir= 2    ipert=  12
    3)    idir= 3    ipert=  12

 Perturbation wavevector (in red.coord.)   0.000000  0.000000  0.000000
 Perturbation : derivative vs k along direction   1

 dfpt_looppert : COMMENT -
  In a d/dk calculation, iscf is set to -3 automatically.
 The set of symmetries contains only one element for this perturbation.
 symkpt : not enough symmetry to change the number of k points.

 Initialisation of the first-order wave-functions :
  ireadwf=   0

--- !BeginCycle
iteration_state: {dtset: 1, }
solver: {iscf: 7, nstep: 2000, nline: 4, wfoptalg: 0, }
tolerances: {tolwfr: 1.00E-20, }
...

     iter   2DEtotal(Ha)        deltaE(Ha) residm    vres2
-ETOT  1  -40.447287928348     -4.045E+01 4.534E-02 0.000E+00
 ETOT  2  -40.506669322595     -5.938E-02 1.749E-03 0.000E+00
 ETOT  3  -40.507062551657     -3.932E-04 4.754E-05 0.000E+00
 ETOT  4  -40.507066511359     -3.960E-06 4.439E-06 0.000E+00
 ETOT  5  -40.507066559528     -4.817E-08 2.503E-07 0.000E+00
 ETOT  6  -40.507066560167     -6.395E-10 2.510E-08 0.000E+00
 ETOT  7  -40.507066560176     -8.988E-12 1.542E-09 0.000E+00
 ETOT  8  -40.507066560176     -1.208E-13 1.665E-10 0.000E+00
 ETOT  9  -40.507066560176      1.421E-14 1.080E-11 0.000E+00
 ETOT 10  -40.507066560176      1.421E-14 1.210E-12 0.000E+00
 ETOT 11  -40.507066560176     -2.842E-14 8.012E-14 0.000E+00
 ETOT 12  -40.507066560176      7.105E-15 9.201E-15 0.000E+00
 ETOT 13  -40.507066560176      0.000E+00 6.120E-16 0.000E+00
 ETOT 14  -40.507066560176      0.000E+00 7.180E-17 0.000E+00
 ETOT 15  -40.507066560176      0.000E+00 4.763E-18 0.000E+00
 ETOT 16  -40.507066560176      0.000E+00 5.700E-19 0.000E+00
 ETOT 17  -40.507066560176      7.105E-15 3.761E-20 0.000E+00
 ETOT 18  -40.507066560176      7.105E-15 9.587E-21 0.000E+00

 At SCF step   18   max residual=  9.59E-21 < tolwfr=  1.00E-20 =>converged.

 ----iterations are completed or convergence reached----

 dfpt_looppert: DFPT cycle converged with prtwf=-1. Will skip output of the 1st-order WFK file.
 dfpt_looppert : ek2=    7.5110025262E+01
          f-sum rule ratio=    1.0245251660E+00
 prteigrs : about to open file /scratch/users/j/a/jabreu/flow_simple_11atoms/flow/w385/t1/tmpdata/tmp_1WF1_EIG
 Expectation of eigenvalue derivatives (hartree) for nkpt=   2  k points:
  (in case of degenerate eigenvalues, averaged derivative)
 kpt#   1, nband= 45, wtk=  0.50000, kpt=  0.5000  0.5000  0.5000 (reduced coord)
   0.00000    0.00000   -0.00000   -0.00000    0.00000   -0.00000   -0.00000   -0.00000
  -0.00000    0.00000    0.00000    0.00000    0.00000   -0.00000   -0.00000    0.00000
  -0.00000    0.00000   -0.00000    0.00000   -0.00000   -0.00000    0.00000    0.00000
   0.00000    0.00000   -0.00000    0.00000   -0.00000   -0.00000   -0.00000   -0.00000
   0.00000   -0.00000    0.00000   -0.00000    0.00000   -0.00000    0.00000    0.00000
   0.00000   -0.00000    0.00000   -0.00000    0.00442
 prteigrs : prtvol=0 or 1, do not print more k-points.

 Eight components of 2nd-order total energy (hartree) are
 1,2,3: 0th-order hamiltonian combined with 1st-order wavefunctions
     kin0=   5.47909988E+01 eigvalue=   3.04619496E+00  local=  -2.38021830E+01
 4,5,6: 1st-order hamiltonian combined with 1st and 0th-order wfs
     kin1=  -7.69521111E+01  Hartree=   0.00000000E+00     xc=   0.00000000E+00
 7,8,9: eventually, occupation + non-local contributions
    edocc=   6.80457128E+00     enl0=  -3.32515491E-01   enl1=  -4.06202202E+00
 1-9 gives the relaxation energy (to be shifted if some occ is /=2.0)
   erelax=  -4.05070666E+01
  No Ewald or frozen-wf contrib.: the relaxation energy is the total one
 2DEtotal=   -0.4050706656E+02 Ha. Also 2DEtotal=   -0.110225333721E+04 eV
    (  non-var. 2DEtotal :   -4.0507066560E+01 Ha)

 Perturbation wavevector (in red.coord.)   0.000000  0.000000  0.000000
 Perturbation : derivative vs k along direction   2
 The set of symmetries contains only one element for this perturbation.
 symkpt : not enough symmetry to change the number of k points.

[...]

 Perturbation wavevector (in red.coord.)   0.000000  0.000000  0.000000
 Perturbation : derivative vs k along direction   3
 The set of symmetries contains only one element for this perturbation.
 symkpt : not enough symmetry to change the number of k points.

 Initialisation of the first-order wave-functions :
  ireadwf=   0

--- !BeginCycle
iteration_state: {dtset: 1, }
solver: {iscf: 7, nstep: 2000, nline: 4, wfoptalg: 0, }
tolerances: {tolwfr: 1.00E-20, }
...

     iter   2DEtotal(Ha)        deltaE(Ha) residm    vres2
-ETOT  1  -42.983422663413     -4.298E+01 4.722E-02 0.000E+00
 ETOT  2  -43.029486608733     -4.606E-02 2.250E-03 0.000E+00
 ETOT  3  -43.029719794040     -2.332E-04 7.142E-05 0.000E+00
 ETOT  4  -43.029721867975     -2.074E-06 4.123E-06 0.000E+00
 ETOT  5  -43.029721891643     -2.367E-08 2.241E-07 0.000E+00
 ETOT  6  -43.029721891952     -3.090E-10 1.453E-08 0.000E+00
 ETOT  7  -43.029721891956     -4.398E-12 8.500E-10 0.000E+00
 ETOT  8  -43.029721891956     -9.948E-14 5.949E-11 0.000E+00
 ETOT  9  -43.029721891956      2.132E-14 3.481E-12 0.000E+00
 ETOT 10  -43.029721891956      0.000E+00 2.571E-13 0.000E+00
 ETOT 11  -43.029721891956     -2.132E-14 1.471E-14 0.000E+00
 ETOT 12  -43.029721891956      0.000E+00 1.245E-15 0.000E+00
 ETOT 13  -43.029721891956      7.105E-15 6.303E-17 0.000E+00
 ETOT 14  -43.029721891956      1.421E-14 6.110E-18 0.000E+00
 ETOT 15  -43.029721891956     -1.421E-14 2.724E-19 0.000E+00
 ETOT 16  -43.029721891956      0.000E+00 3.031E-20 0.000E+00
 ETOT 17  -43.029721891956      0.000E+00 9.916E-21 0.000E+00

 At SCF step   17   max residual=  9.92E-21 < tolwfr=  1.00E-20 =>converged.

 ----iterations are completed or convergence reached----

 dfpt_looppert: DFPT cycle converged with prtwf=-1. Will skip output of the 1st-order WFK file.
 dfpt_looppert : ek2=    8.1051271001E+01
          f-sum rule ratio=    1.0021857740E+00
 prteigrs : about to open file /scratch/users/j/a/jabreu/flow_simple_11atoms/flow/w385/t1/tmpdata/tmp_1WF1_EIG
 Expectation of eigenvalue derivatives (hartree) for nkpt=   2  k points:
  (in case of degenerate eigenvalues, averaged derivative)
 kpt#   1, nband= 45, wtk=  0.50000, kpt=  0.5000  0.5000  0.5000 (reduced coord)
  -0.00000   -0.00000   -0.00000    0.00000   -0.00000    0.00000    0.00000   -0.00000
  -0.00000    0.00000    0.00000   -0.00000    0.00000    0.00000    0.00000    0.00000
   0.00000   -0.00000   -0.00000   -0.00000    0.00000    0.00000    0.00000    0.00000
   0.00000    0.00000   -0.00000    0.00000   -0.00000   -0.00000   -0.00000    0.00000
  -0.00000    0.00000    0.00000    0.00000   -0.00000    0.00000    0.00000   -0.00000
  -0.00000   -0.00000   -0.00000    0.00001   -0.00129
 prteigrs : prtvol=0 or 1, do not print more k-points.

 Eight components of 2nd-order total energy (hartree) are
 1,2,3: 0th-order hamiltonian combined with 1st-order wavefunctions
     kin0=   5.77946108E+01 eigvalue=   3.20426834E+00  local=  -2.45887062E+01
 4,5,6: 1st-order hamiltonian combined with 1st and 0th-order wfs
     kin1=  -8.12284308E+01  Hartree=   0.00000000E+00     xc=   0.00000000E+00
 7,8,9: eventually, occupation + non-local contributions
    edocc=   7.18134690E+00     enl0=  -5.61797869E-01   enl1=  -4.83101302E+00
 1-9 gives the relaxation energy (to be shifted if some occ is /=2.0)
   erelax=  -4.30297219E+01
  No Ewald or frozen-wf contrib.: the relaxation energy is the total one
 2DEtotal=   -0.4302972189E+02 Ha. Also 2DEtotal=   -0.117089827979E+04 eV
    (  non-var. 2DEtotal :   -4.3029721892E+01 Ha)

 CALCULATION OF EFFECTIVE MASSES
 NOTE : Additional infos (eff. mass eigenvalues, eigenvectors and, if degenerate, average mass) are available in stdout.

 K-point ( 0.500, 0.500, 0.500) | band =    36
 Effective mass tensor:
            -26.0710690343             -9.2158531907            -28.3565281147
             -9.2158531907             -8.7935603724            -12.2857548551
            -28.3565281147            -12.2857548551            -52.4364658629
 Effective mass tensor eigenvalues:
            -74.1160927376             -8.3843950209             -4.8006075110
 Angular average effective mass 1/(<1/m>)=  -8.7958869114
 Angular average effective mass for Frohlich model (<m**0.5>)**2= -11.1402642645
 Effective masses along directions: (cart. coord. / red. coord. -> eff. mass)
    1:   1.000000  0.000000  0.000000 /   0.825461  0.564459  0.000000 ->  -9.6181117940
    2:   0.000000  1.000000  0.000000 /   0.000000  1.000000  0.000000 ->  -5.2989022910
    3:   0.000000  0.000000  1.000000 /   0.408013  0.408013  0.816732 -> -20.6698425232
    4:   0.577350  0.577350  0.577350 /   0.578055  0.751279  0.318484 -> -25.0315199420
    5:   0.000000  0.707107  0.707107 /   0.271752  0.793878  0.543975 -> -10.1234570455
    6:   0.707107  0.000000  0.707107 /   0.725907  0.559557  0.399944 -> -32.7414773448
    7:   0.707107  0.707107  0.000000 /   0.577553  0.816353  0.000000 ->  -9.8876842759

 K-point ( 0.000, 0.000, 0.000) | band =    37
 Effective mass tensor:
              0.9877810248              0.0118896193              0.0498152056
              0.0118896193              0.9654947349              0.0215866616
              0.0498152056              0.0215866616              0.5929059896
 Effective mass tensor eigenvalues:
              0.5856685828              0.9603427049              1.0001704616
 Angular average effective mass 1/(<1/m>)=   0.8003041556
 Angular average effective mass for Frohlich model (<m**0.5>)**2=   0.8157326031
 Effective masses along directions: (cart. coord. / red. coord. -> eff. mass)
    1:   1.000000  0.000000  0.000000 /   0.825461  0.564459  0.000000 ->   0.9834903762
    2:   0.000000  1.000000  0.000000 /   0.000000  1.000000  0.000000 ->   0.9646055849
    3:   0.000000  0.000000  1.000000 /   0.408013  0.408013  0.816732 ->   0.5899374726
    4:   0.577350  0.577350  0.577350 /   0.578055  0.751279  0.318484 ->   0.8611913615
    5:   0.000000  0.707107  0.707107 /   0.271752  0.793878  0.543975 ->   0.7524216007
    6:   0.707107  0.000000  0.707107 /   0.725907  0.559557  0.399944 ->   0.7868449874
    7:   0.707107  0.707107  0.000000 /   0.577553  0.816353  0.000000 ->   0.9841356433

 END OF EFFECTIVE MASSES SECTION

 ---- first-order wavefunction calculations are completed ----

 Total localisation tensor (bohr^2) in cartesian coordinates
  WARNING : still subject to testing - especially symmetries.
      direction              matrix element
   alpha     beta       real part   imaginary part
     1        1       1.3378935295    0.0000000000
     1        2       0.4548529722    0.0000000000
     1        3       0.5829432132    0.0000000000
     2        1       0.4548529722    0.0000000000
     2        2       0.4853494987    0.0000000000
     2        3       0.2526114557    0.0000000000
     3        1       0.5829432132    0.0000000000
     3        2       0.2526114557    0.0000000000
     3        3       0.8034219019    0.0000000000

 respfn : d/dk was computed, but no 2DTE, so no DDB output.

== END DATASET(S) ==============================================================

 -outvars: echo values of variables after computation  --------
            acell      1.0000000000E+00  1.0000000000E+00  1.0000000000E+00 Bohr
              amu      1.37327000E+02  1.08110000E+01  1.89984032E+01
             ecut      4.20000000E+01 Hartree
           etotal     -4.3029721892E+01
            fcart      0.0000000000E+00  0.0000000000E+00  0.0000000000E+00
                       0.0000000000E+00  0.0000000000E+00  0.0000000000E+00
                       0.0000000000E+00  0.0000000000E+00  0.0000000000E+00
                       0.0000000000E+00  0.0000000000E+00  0.0000000000E+00
                       0.0000000000E+00  0.0000000000E+00  0.0000000000E+00
                       0.0000000000E+00  0.0000000000E+00  0.0000000000E+00
                       0.0000000000E+00  0.0000000000E+00  0.0000000000E+00
                       0.0000000000E+00  0.0000000000E+00  0.0000000000E+00
                       0.0000000000E+00  0.0000000000E+00  0.0000000000E+00
                       0.0000000000E+00  0.0000000000E+00  0.0000000000E+00
                       0.0000000000E+00  0.0000000000E+00  0.0000000000E+00
-          fftalg         512
           irdden           1
           irdwfk           1
           istwfk        1    1
              ixc     -116133
              kpt      5.00000000E-01  5.00000000E-01  5.00000000E-01
                       0.00000000E+00  0.00000000E+00  0.00000000E+00
           kptopt           0
P           mkmem           2
P          mkqmem           2
P          mk1mem           2
            natom          11
            nband          45
           nbdbuf           4
            ngfft          80      80      54
             nkpt           2
            nstep        2000
             nsym           4
           ntypat           3
              occ      2.000000  2.000000  2.000000  2.000000  2.000000  2.000000
                       2.000000  2.000000  2.000000  2.000000  2.000000  2.000000
                       2.000000  2.000000  2.000000  2.000000  2.000000  2.000000
                       2.000000  2.000000  2.000000  2.000000  2.000000  2.000000
                       2.000000  2.000000  2.000000  2.000000  2.000000  2.000000
                       2.000000  2.000000  2.000000  2.000000  2.000000  2.000000
                       0.000000  0.000000  0.000000  0.000000  0.000000  0.000000
                       0.000000  0.000000  0.000000
        optdriver           1
            prtwf          -1
            rfdir           1       1       1
           rfelfd           2
            rprim      1.1923185655E+01  0.0000000000E+00  4.5280437731E+00
                       8.1532096883E+00  8.6998579260E+00  4.5280437731E+00
                       0.0000000000E+00  0.0000000000E+00  9.0639276053E+00
          spgroup          12
           strten      0.0000000000E+00  0.0000000000E+00  0.0000000000E+00
                       0.0000000000E+00  0.0000000000E+00  0.0000000000E+00
           symrel      1  0  0   0  1  0   0  0  1      -1  0  0   0 -1  0   0  0 -1
                       0 -1  0  -1  0  0   0  0 -1       0  1  0   1  0  0   0  0  1
           tolwfr      1.00000000E-20
            typat      1  2  2  3  3  3  3  3  3  3  3
           useylm           1
              wtk        0.50000    0.50000
           xangst      0.0000000000E+00  0.0000000000E+00  0.0000000000E+00
                       6.9215063823E+00  2.9993492921E+00  5.0587569786E+00
                       3.7024644638E+00  1.6044172403E+00  4.5299420589E+00
                       6.9936897284E+00  1.7739279240E+00  4.3798205425E+00
                       2.4311257446E+00  1.0534983107E+00  4.3892366076E+00
                       6.0767266282E+00  3.8899755504E+00  4.3798205425E+00
                       6.3577559933E+00  2.7550550248E+00  6.3440446160E+00
                       4.5472442179E+00  7.1379098202E-01  5.2088784950E+00
                       3.6302811177E+00  2.8298386084E+00  5.2088784950E+00
                       8.1928451015E+00  3.5502682217E+00  5.1994624299E+00
                       4.2662148528E+00  1.8487115076E+00  3.2446544215E+00
            xcart      0.0000000000E+00  0.0000000000E+00  0.0000000000E+00
                       1.3079751490E+01  5.6679487389E+00  9.5596652623E+00
                       6.9966438534E+00  3.0319091871E+00  8.5603498892E+00
                       1.3216158245E+01  3.3522379559E+00  8.2766613365E+00
                       4.5941618519E+00  1.9908232886E+00  8.2944551208E+00
                       1.1483349112E+01  7.3509884539E+00  8.2766613365E+00
                       1.2014417647E+01  5.2062994779E+00  1.1988506899E+01
                       8.5930462311E+00  1.3488694721E+00  9.8433538150E+00
                       6.8602370978E+00  5.3476199701E+00  9.8433538150E+00
                       1.5482233491E+01  6.7090346374E+00  9.8255600307E+00
                       8.0619776959E+00  3.4935584481E+00  6.1315082524E+00
             xred      0.0000000000E+00  0.0000000000E+00  0.0000000000E+00
                       6.5149900000E-01  6.5149900000E-01  4.0375800000E-01
                       3.4850100000E-01  3.4850100000E-01  5.9624200000E-01
                       8.4495500000E-01  3.8532100000E-01  2.9853700000E-01
                       2.2883400000E-01  2.2883400000E-01  6.8647000000E-01
                       3.8532100000E-01  8.4495500000E-01  2.9853700000E-01
                       5.9843500000E-01  5.9843500000E-01  7.2474400000E-01
                       6.1467900000E-01  1.5504500000E-01  7.0146300000E-01
                       1.5504500000E-01  6.1467900000E-01  7.0146300000E-01
                       7.7116600000E-01  7.7116600000E-01  3.1353000000E-01
                       4.0156500000E-01  4.0156500000E-01  2.7525600000E-01
            znucl       56.00000    5.00000    9.00000

- Timing analysis has been suppressed with timopt=0

 Suggested references for the acknowledgment of ABINIT usage.

 Calculation completed.
.Delivered   2 WARNINGs and   5 COMMENTs to log file.