.Version 9.5.1 of ABINIT

 ABINIT is a project of the Universite Catholique de Louvain,
 Corning Inc. and other collaborators, see ~abinit/doc/developers/contributors.txt .
 acknowledgments of the ABINIT effort.

.Starting date : Wed 19 May 2021.
- ( at 03h12 )

- input  file    -> /scratch/users/j/a/jabreu/flow_simple_8atoms/flow/w449/t1/run.abi
- output file    -> /scratch/users/j/a/jabreu/flow_simple_8atoms/flow/w449/t1/run.abo
- root for input  files -> /scratch/users/j/a/jabreu/flow_simple_8atoms/flow/w449/t1/indata/in
- root for output files -> /scratch/users/j/a/jabreu/flow_simple_8atoms/flow/w449/t1/outdata/out

 Symmetries : space group C2/c (# 15); Bravais mC (1-face-center monocl.)
     intxc =       0      iscf =       7    lmnmax =      32     lnmax =       8
     mgfft =      72  mpssoang =       4    mqgrid =    3162     natom =       8
  nloc_mem =       1    nspden =       1   nspinor =       1    nsppol =       1
      nsym =       4    n1xccc =    2501    ntypat =       3    occopt =       1
   xclevel =       2
-    mband =          45        mffmem =           1         mkmem =           2
-   mkqmem =           2        mk1mem =           2           mpw =       17644
      nfft =      331776          nkpt =           2
  Rough estimation (10% accuracy) of disk space for files :

------------- Echo of variables that govern the present computation ------------
-
- outvars: echo of selected default values
-   iomode0 =  0 , fftalg0 =512 , wfoptalg0 =  0
-
- outvars: echo of global parameters not present in the input file
-  max_nthreads =    0
-
 -outvars: echo values of preprocessed input variables --------
            acell      1.0000000000E+00  1.0000000000E+00  1.0000000000E+00 Bohr
              amu      1.32905430E+02  1.21753000E+02  1.59994000E+01
             ecut      4.40000000E+01 Hartree
-          fftalg         512
           irdden           1
           irdwfk           1
              ixc     -116133
              kpt      3.50000000E-01 -3.50000000E-01  0.00000000E+00
                       3.98566263E-01  3.98566263E-01  6.80959885E-02
           kptopt           0
P           mkmem           2
P          mkqmem           2
P          mk1mem           2
            natom           8
            nband          45
           nbdbuf           4
            ngfft          72      72      64
             nkpt           2
            nstep        2000
             nsym           4
           ntypat           3
              occ      2.000000  2.000000  2.000000  2.000000  2.000000  2.000000
                       2.000000  2.000000  2.000000  2.000000  2.000000  2.000000
                       2.000000  2.000000  2.000000  2.000000  2.000000  2.000000
                       2.000000  2.000000  2.000000  2.000000  2.000000  2.000000
                       2.000000  2.000000  2.000000  2.000000  2.000000  2.000000
                       2.000000  2.000000  2.000000  2.000000  2.000000  2.000000
                       0.000000  0.000000  0.000000  0.000000  0.000000  0.000000
                       0.000000  0.000000  0.000000
        optdriver           1
            prtwf          -1
            rfdir           1       1       1
           rfelfd           2
            rprim      1.1271934318E+01  0.0000000000E+00  4.1104812293E+00
                      -3.8715379673E+00  1.0586203145E+01  4.1104812293E+00
                       0.0000000000E+00  0.0000000000E+00  1.0604608824E+01
          spgroup          15
           symrel      1  0  0   0  1  0   0  0  1      -1  0  0   0 -1  0   0  0 -1
                       0 -1  0  -1  0  0   0  0 -1       0  1  0   1  0  0   0  0  1
            tnons      0.0000000  0.0000000  0.0000000     0.0000000 -0.0000000  0.0000000
                       0.0000000  0.0000000  0.5000000    -0.0000000 -0.0000000  0.5000000
           tolwfr      1.00000000E-20
            typat      1  1  2  2  3  3  3  3
           useylm           1
              wtk        0.50000    0.50000
           xangst      3.1458334273E+00  1.9706636203E+00  6.3839609545E+00
                       7.7028765584E-01  3.6313138096E+00  3.5781023067E+00
                      -1.3948615624E+00  5.1448840815E+00  6.3839609545E+00
                       5.3109826455E+00  4.5709334839E-01  3.5781023067E+00
                       2.8833519825E+00  4.8671996622E+00  7.5438103286E+00
                       3.3535521264E-01  1.2223122613E+00  5.2241115804E+00
                       1.0327691006E+00  7.3477776761E-01  2.4182529326E+00
                       3.5807658705E+00  4.3796651685E+00  4.7379516809E+00
            xcart      5.9447636372E+00  3.7240145423E+00  1.2063937847E+01
                       1.4556327131E+00  6.8621886027E+00  6.7616334352E+00
                      -2.6359063462E+00  9.7224218994E+00  1.2063937847E+01
                       1.0036302697E+01  8.6378124562E-01  6.7616334352E+00
                       5.4487455917E+00  9.1976743957E+00  1.4255735519E+01
                       6.3372950913E-01  2.3098354228E+00  9.8721401745E+00
                       1.9516507586E+00  1.3885287493E+00  4.5698357627E+00
                       6.7666668412E+00  8.2763677222E+00  8.9534311077E+00
             xred      6.4822000000E-01  3.5178000000E-01  7.5000000000E-01
                       3.5178000000E-01  6.4822000000E-01  2.5000000000E-01
                       8.1595000000E-02  9.1840500000E-01  7.5000000000E-01
                       9.1840500000E-01  8.1595000000E-02  2.5000000000E-01
                       7.8180700000E-01  8.6883600000E-01  7.0448600000E-01
                       1.3116400000E-01  2.1819300000E-01  7.9551400000E-01
                       2.1819300000E-01  1.3116400000E-01  2.9551400000E-01
                       8.6883600000E-01  7.8180700000E-01  2.0448600000E-01
            znucl       55.00000   51.00000    8.00000

 chkinp: Checking input parameters for consistency.

== DATASET  1 ==================================================================
-   mpi_nproc: 1, omp_nthreads: -1 (-1 if OMP is not activated)

--- !DatasetInfo
iteration_state: {dtset: 1, }
dimensions: {natom: 8, nkpt: 2, mband: 45, nsppol: 1, nspinor: 1, nspden: 1, mpw: 17644, }
cutoff_energies: {ecut:  44.0, pawecutdg:  -1.0, }
electrons: {nelect:   7.20000000E+01, charge:   0.00000000E+00, occopt:   1.00000000E+00, tsmear:   1.00000000E-02, }
meta: {optdriver: 1, rfelfd: 2, }
...

 Real(R)+Recip(G) space primitive vectors, cartesian coordinates (Bohr,Bohr^-1):
 R(1)= 11.2719343  0.0000000  4.1104812  G(1)=  0.0887159  0.0324448  0.0000000
 R(2)= -3.8715380 10.5862031  4.1104812  G(2)=  0.0000000  0.0944626  0.0000000
 R(3)=  0.0000000  0.0000000 10.6046088  G(3)= -0.0343874 -0.0491909  0.0942986
 Unit cell volume ucvol=  1.2654160E+03 bohr^3
 Angles (23,13,12)=  6.99648514E+01  6.99648514E+01  1.00706676E+02 degrees

 getcut: wavevector=  0.0000  0.0000  0.0000  ngfft=  72  72  64
         ecut(hartree)=     44.000   => boxcut(ratio)=   2.00984

--- Pseudopotential description ------------------------------------------------
- pspini: atom type   1  psp file is /scratch/users/j/a/jabreu/pseudos/PBEsol/Cs.psp8
- pspatm: opening atomic psp file    /scratch/users/j/a/jabreu/pseudos/PBEsol/Cs.psp8
- Cs    ONCVPSP-3.3.0  r_core=   2.27353   1.85623   2.01788   1.90105
- 55.00000   9.00000    180112                znucl, zion, pspdat
    8 -116133    3    4       600   0.00000   pspcod,pspxc,lmax,lloc,mmax,r2well
    5.99000000000000    5.00000000000000    0.00000000000000   rchrg,fchrg,qchrg
     nproj     2     2     2     2
     extension_switch     1
  pspatm : epsatm=   22.12462445
         --- l  ekb(1:nproj) -->
             0    6.214110    0.767882
             1    6.311966    0.793598
             2    3.769790    0.913105
             3   -9.247129   -2.432478
 pspatm: atomic psp has been read  and splines computed

- pspini: atom type   2  psp file is /scratch/users/j/a/jabreu/pseudos/PBEsol/Sb.psp8
- pspatm: opening atomic psp file    /scratch/users/j/a/jabreu/pseudos/PBEsol/Sb.psp8
- Sb    ONCVPSP-3.3.0  r_core=   1.81962   2.12485   1.81962
- 51.00000  15.00000    180112                znucl, zion, pspdat
    8 -116133    2    4       600   0.00000   pspcod,pspxc,lmax,lloc,mmax,r2well
    5.99000000000000    5.00000000000000    0.00000000000000   rchrg,fchrg,qchrg
     nproj     2     2     2
     extension_switch     1
  pspatm : epsatm=   26.35641246
         --- l  ekb(1:nproj) -->
             0    9.727814    1.485032
             1    5.505335    0.704623
             2   -4.710637   -1.436443
 pspatm: atomic psp has been read  and splines computed

- pspini: atom type   3  psp file is /scratch/users/j/a/jabreu/pseudos/PBEsol/O.psp8
- pspatm: opening atomic psp file    /scratch/users/j/a/jabreu/pseudos/PBEsol/O.psp8
- O     ONCVPSP-3.3.0  r_core=   1.35509   1.45563   1.26150
-  8.00000   6.00000    180112                znucl, zion, pspdat
    8 -116133    2    4       600   0.00000   pspcod,pspxc,lmax,lloc,mmax,r2well
    5.99000000000000    4.00000000000000    0.00000000000000   rchrg,fchrg,qchrg
     nproj     2     2     1
     extension_switch     1
  pspatm : epsatm=    6.22910522
         --- l  ekb(1:nproj) -->
             0    6.050032    0.820363
             1   -4.739617   -1.153841
             2   -1.335834
 pspatm: atomic psp has been read  and splines computed

   8.77525162E+03                                ecore*ucvol(ha*bohr**3)

-inwffil : will read wavefunctions from disk file /scratch/users/j/a/jabreu/flow_simple_8atoms/flow/w449/t1/indata/in_WFK

 ==>  initialize data related to q vector <==

 The list of irreducible perturbations for this q vector is:
    1)    idir= 1    ipert=   9
    2)    idir= 2    ipert=   9
    3)    idir= 3    ipert=   9

 Perturbation wavevector (in red.coord.)   0.000000  0.000000  0.000000
 Perturbation : derivative vs k along direction   1

 dfpt_looppert : COMMENT -
  In a d/dk calculation, iscf is set to -3 automatically.
 The set of symmetries contains only one element for this perturbation.
 symkpt : not enough symmetry to change the number of k points.

[...]

 Initialisation of the first-order wave-functions :
  ireadwf=   0

--- !BeginCycle
iteration_state: {dtset: 1, }
solver: {iscf: 7, nstep: 2000, nline: 4, wfoptalg: 0, }
tolerances: {tolwfr: 1.00E-20, }
...

     iter   2DEtotal(Ha)        deltaE(Ha) residm    vres2
-ETOT  1  -39.112958605689     -3.911E+01 6.671E-02 0.000E+00
 ETOT  2  -39.200715132313     -8.776E-02 6.651E-03 0.000E+00
 ETOT  3  -39.202965318799     -2.250E-03 2.554E-04 0.000E+00
 ETOT  4  -39.203157977461     -1.927E-04 6.892E-05 0.000E+00
 ETOT  5  -39.203179203611     -2.123E-05 7.003E-06 0.000E+00
 ETOT  6  -39.203181798639     -2.595E-06 2.225E-06 0.000E+00
 ETOT  7  -39.203182128834     -3.302E-07 3.226E-07 0.000E+00
 ETOT  8  -39.203182172163     -4.333E-08 9.206E-08 0.000E+00
 ETOT  9  -39.203182177983     -5.820E-09 1.559E-08 0.000E+00
 ETOT 10  -39.203182178780     -7.970E-10 4.360E-09 0.000E+00
 ETOT 11  -39.203182178891     -1.110E-10 7.674E-10 0.000E+00
 ETOT 12  -39.203182178907     -1.569E-11 2.166E-10 0.000E+00
 ETOT 13  -39.203182178909     -2.245E-12 3.830E-11 0.000E+00
 ETOT 14  -39.203182178909     -3.411E-13 1.090E-11 0.000E+00
 ETOT 15  -39.203182178909     -8.527E-14 1.930E-12 0.000E+00
 ETOT 16  -39.203182178909      1.421E-14 5.529E-13 0.000E+00
 ETOT 17  -39.203182178909      2.842E-14 9.805E-14 0.000E+00
 ETOT 18  -39.203182178909      0.000E+00 2.823E-14 0.000E+00
 ETOT 19  -39.203182178909     -7.105E-15 5.010E-15 0.000E+00
 ETOT 20  -39.203182178909      7.105E-15 1.448E-15 0.000E+00
 ETOT 21  -39.203182178909      7.105E-15 2.573E-16 0.000E+00
 ETOT 22  -39.203182178909     -7.105E-15 7.460E-17 0.000E+00
 ETOT 23  -39.203182178909      0.000E+00 1.327E-17 0.000E+00
 ETOT 24  -39.203182178909      0.000E+00 3.854E-18 0.000E+00
 ETOT 25  -39.203182178909      0.000E+00 6.864E-19 0.000E+00
 ETOT 26  -39.203182178909     -1.421E-14 1.996E-19 0.000E+00
 ETOT 27  -39.203182178909      1.421E-14 3.560E-20 0.000E+00
 ETOT 28  -39.203182178909     -7.105E-15 1.036E-20 0.000E+00
 ETOT 29  -39.203182178909      7.105E-15 9.989E-21 0.000E+00

 At SCF step   29   max residual=  9.99E-21 < tolwfr=  1.00E-20 =>converged.

 ----iterations are completed or convergence reached----

 dfpt_looppert: DFPT cycle converged with prtwf=-1. Will skip output of the 1st-order WFK file.
 dfpt_looppert : ek2=    5.0727303994E+01
          f-sum rule ratio=    1.0032075975E+00
 prteigrs : about to open file /scratch/users/j/a/jabreu/flow_simple_8atoms/flow/w449/t1/tmpdata/tmp_1WF1_EIG
 Expectation of eigenvalue derivatives (hartree) for nkpt=   2  k points:
  (in case of degenerate eigenvalues, averaged derivative)
 kpt#   1, nband= 45, wtk=  0.50000, kpt=  0.3500 -0.3500  0.0000 (reduced coord)
   0.00001    0.00001   -0.00001    0.00000   -0.00000   -0.00000    0.00002    0.00000
  -0.00001   -0.00000    0.00670   -0.00543   -0.00267   -0.00036   -0.00065    0.00038
  -0.00815    0.01098    0.01948   -0.00182    0.01071    0.00450   -0.00545   -0.01238
   0.00130   -0.00109   -0.00687   -0.00626    0.02081   -0.01138   -0.01182    0.00035
  -0.00656    0.00111    0.01235   -0.00043   -0.04126   -0.01972   -0.06797   -0.02021
   0.02162    0.00970    0.04299   -0.05899    0.04976
 prteigrs : prtvol=0 or 1, do not print more k-points.

 Eight components of 2nd-order total energy (hartree) are
 1,2,3: 0th-order hamiltonian combined with 1st-order wavefunctions
     kin0=   5.08641120E+01 eigvalue=   4.90053760E+00  local=  -2.84371516E+01
 4,5,6: 1st-order hamiltonian combined with 1st and 0th-order wfs
     kin1=  -5.08900168E+01  Hartree=   0.00000000E+00     xc=   0.00000000E+00
 7,8,9: eventually, occupation + non-local contributions
    edocc=   5.94065410E+00     enl0=   5.93503004E+00   enl1=  -2.75163476E+01
 1-9 gives the relaxation energy (to be shifted if some occ is /=2.0)
   erelax=  -3.92031822E+01
  No Ewald or frozen-wf contrib.: the relaxation energy is the total one
 2DEtotal=   -0.3920318218E+02 Ha. Also 2DEtotal=   -0.106677283880E+04 eV
    (  non-var. 2DEtotal :   -3.9203182179E+01 Ha)

 Perturbation wavevector (in red.coord.)   0.000000  0.000000  0.000000
 Perturbation : derivative vs k along direction   2
 The set of symmetries contains only one element for this perturbation.
 symkpt : not enough symmetry to change the number of k points.

[...]

 Perturbation wavevector (in red.coord.)   0.000000  0.000000  0.000000
 Perturbation : derivative vs k along direction   3
 The set of symmetries contains only one element for this perturbation.
 symkpt : not enough symmetry to change the number of k points.

-inwffil : will read wavefunctions from disk file /scratch/users/j/a/jabreu/flow_simple_8atoms/flow/w449/t1/indata/in_WFK

 Initialisation of the first-order wave-functions :
  ireadwf=   0

--- !BeginCycle
iteration_state: {dtset: 1, }
solver: {iscf: 7, nstep: 2000, nline: 4, wfoptalg: 0, }
tolerances: {tolwfr: 1.00E-20, }
...

     iter   2DEtotal(Ha)        deltaE(Ha) residm    vres2
-ETOT  1  -55.366874842936     -5.537E+01 6.622E-02 0.000E+00
 ETOT  2  -55.467812186190     -1.009E-01 5.317E-03 0.000E+00
 ETOT  3  -55.470591585256     -2.779E-03 2.904E-04 0.000E+00
 ETOT  4  -55.470819295225     -2.277E-04 7.356E-05 0.000E+00
 ETOT  5  -55.470843320114     -2.402E-05 1.081E-05 0.000E+00
 ETOT  6  -55.470846180523     -2.860E-06 2.714E-06 0.000E+00
 ETOT  7  -55.470846538208     -3.577E-07 4.887E-07 0.000E+00
 ETOT  8  -55.470846584825     -4.662E-08 1.176E-07 0.000E+00
 ETOT  9  -55.470846591071     -6.246E-09 2.369E-08 0.000E+00
 ETOT 10  -55.470846591932     -8.603E-10 6.413E-09 0.000E+00
 ETOT 11  -55.470846592052     -1.208E-10 1.213E-09 0.000E+00
 ETOT 12  -55.470846592070     -1.714E-11 3.307E-10 0.000E+00
 ETOT 13  -55.470846592072     -2.494E-12 6.575E-11 0.000E+00
 ETOT 14  -55.470846592072     -3.695E-13 1.793E-11 0.000E+00
 ETOT 15  -55.470846592072     -6.395E-14 3.618E-12 0.000E+00
 ETOT 16  -55.470846592073     -3.553E-14 9.868E-13 0.000E+00
 ETOT 17  -55.470846592072      4.974E-14 2.012E-13 0.000E+00
 ETOT 18  -55.470846592072      2.132E-14 5.490E-14 0.000E+00
 ETOT 19  -55.470846592072     -3.553E-14 1.129E-14 0.000E+00
 ETOT 20  -55.470846592072     -7.105E-15 3.083E-15 0.000E+00
 ETOT 21  -55.470846592072     -7.105E-15 6.373E-16 0.000E+00
 ETOT 22  -55.470846592073     -1.421E-14 1.743E-16 0.000E+00
 ETOT 23  -55.470846592073      0.000E+00 3.618E-17 0.000E+00
 ETOT 24  -55.470846592072      2.132E-14 9.919E-18 0.000E+00
 ETOT 25  -55.470846592072     -1.421E-14 2.063E-18 0.000E+00
 ETOT 26  -55.470846592073     -7.105E-15 5.672E-19 0.000E+00
 ETOT 27  -55.470846592072      1.421E-14 1.180E-19 0.000E+00
 ETOT 28  -55.470846592072      0.000E+00 3.256E-20 0.000E+00
 ETOT 29  -55.470846592073     -2.132E-14 9.993E-21 0.000E+00

 At SCF step   29   max residual=  9.99E-21 < tolwfr=  1.00E-20 =>converged.

 ----iterations are completed or convergence reached----

 dfpt_looppert: DFPT cycle converged with prtwf=-1. Will skip output of the 1st-order WFK file.
 dfpt_looppert : ek2=    7.1029712800E+01
          f-sum rule ratio=    1.0236944277E+00
 prteigrs : about to open file /scratch/users/j/a/jabreu/flow_simple_8atoms/flow/w449/t1/tmpdata/tmp_1WF1_EIG
 Expectation of eigenvalue derivatives (hartree) for nkpt=   2  k points:
  (in case of degenerate eigenvalues, averaged derivative)
 kpt#   1, nband= 45, wtk=  0.50000, kpt=  0.3500 -0.3500  0.0000 (reduced coord)
   0.00000   -0.00000   -0.00000   -0.00000   -0.00000   -0.00000   -0.00000    0.00000
   0.00000   -0.00000    0.00000   -0.00000   -0.00000    0.00000    0.00000    0.00000
   0.00000    0.00000    0.00000   -0.00000   -0.00000    0.00000    0.00000   -0.00000
  -0.00000    0.00000   -0.00000    0.00000    0.00000    0.00000    0.00000   -0.00000
  -0.00000    0.00000   -0.00000   -0.00000    0.00000    0.00000    0.00000   -0.00000
  -0.00000   -0.00000    0.00000    0.00054   -0.00016
 prteigrs : prtvol=0 or 1, do not print more k-points.

 Eight components of 2nd-order total energy (hartree) are
 1,2,3: 0th-order hamiltonian combined with 1st-order wavefunctions
     kin0=   7.27766817E+01 eigvalue=   6.70938072E+00  local=  -4.11291610E+01
 4,5,6: 1st-order hamiltonian combined with 1st and 0th-order wfs
     kin1=  -7.27127212E+01  Hartree=   0.00000000E+00     xc=   0.00000000E+00
 7,8,9: eventually, occupation + non-local contributions
    edocc=   8.85864310E+00     enl0=   8.25530209E+00   enl1=  -3.82289720E+01
 1-9 gives the relaxation energy (to be shifted if some occ is /=2.0)
   erelax=  -5.54708466E+01
  No Ewald or frozen-wf contrib.: the relaxation energy is the total one
 2DEtotal=   -0.5547084659E+02 Ha. Also 2DEtotal=   -0.150943849966E+04 eV
    (  non-var. 2DEtotal :   -5.5470846592E+01 Ha)

 CALCULATION OF EFFECTIVE MASSES
 NOTE : Additional infos (eff. mass eigenvalues, eigenvectors and, if degenerate, average mass) are available in stdout.

 K-point ( 0.350,-0.350, 0.000) | band =    36
 Effective mass tensor:
             -6.8821439350              0.4821664320              0.6583722816
              0.4821664320             -6.5284151807              0.9414568752
              0.6583722816              0.9414568752             -1.8908616459
 Effective mass tensor eigenvalues:
             -7.2188607285             -6.4793313153             -1.6032287178
 Angular average effective mass 1/(<1/m>)=  -3.2729501319
 Angular average effective mass for Frohlich model (<m**0.5>)**2=  -3.8373852360
 Effective masses along directions: (cart. coord. / red. coord. -> eff. mass)
    1:   1.000000  0.000000  0.000000 /   0.945769 -0.324840  0.000000 ->  -6.5446426791
    2:   0.000000  1.000000  0.000000 /   0.000000  1.000000  0.000000 ->  -5.9610544044
    3:   0.000000  0.000000  1.000000 /   0.339895  0.339895  0.876894 ->  -1.6777060758
    4:   0.577350  0.577350  0.577350 /   0.712378  0.501325  0.491112 ->  -2.3706685623
    5:   0.000000  0.707107  0.707107 /   0.221190  0.790846  0.570647 ->  -2.1162219953
    6:   0.707107  0.000000  0.707107 /   0.823244  0.012788  0.567543 ->  -2.2841741078
    7:   0.707107  0.707107  0.000000 /   0.859119  0.511775  0.000000 ->  -5.5340400624

 K-point ( 0.399, 0.399, 0.068) | band =    37
 Effective mass tensor:
              1.0299561180              0.0357194860              0.0933440842
              0.0357194860              1.0560685881              0.1335422372
              0.0933440842              0.1335422372              0.7284439138
 Effective mass tensor eigenvalues:
              0.6646847932              1.0049814854              1.1448023414
 Angular average effective mass 1/(<1/m>)=   0.8894083149
 Angular average effective mass for Frohlich model (<m**0.5>)**2=   0.9046574095
 Effective masses along directions: (cart. coord. / red. coord. -> eff. mass)
    1:   1.000000  0.000000  0.000000 /   0.945769 -0.324840  0.000000 ->   1.0176592182
    2:   0.000000  1.000000  0.000000 /   0.000000  1.000000  0.000000 ->   1.0312468046
    3:   0.000000  0.000000  1.000000 /   0.339895  0.339895  0.876894 ->   0.7038874052
    4:   0.577350  0.577350  0.577350 /   0.712378  0.501325  0.491112 ->   1.0943937115
    5:   0.000000  0.707107  0.707107 /   0.221190  0.790846  0.570647 ->   0.9806887521
    6:   0.707107  0.000000  0.707107 /   0.823244  0.012788  0.567543 ->   0.9267877693
    7:   0.707107  0.707107  0.000000 /   0.859119  0.511775  0.000000 ->   1.0433521233

 END OF EFFECTIVE MASSES SECTION

 ---- first-order wavefunction calculations are completed ----

 Total localisation tensor (bohr^2) in cartesian coordinates
  WARNING : still subject to testing - especially symmetries.
      direction              matrix element
   alpha     beta       real part   imaginary part
     1        1       1.0954369869    0.0000000000
     1        2      -0.3160708927    0.0000000000
     1        3       0.2345891786    0.0000000000
     2        1      -0.3160708927    0.0000000000
     2        2       0.8642536135    0.0000000000
     2        3       0.3355781300    0.0000000000
     3        1       0.2345891786    0.0000000000
     3        2       0.3355781300    0.0000000000
     3        3       1.6018445053    0.0000000000

 respfn : d/dk was computed, but no 2DTE, so no DDB output.

== END DATASET(S) ==============================================================

 -outvars: echo values of variables after computation  --------
            acell      1.0000000000E+00  1.0000000000E+00  1.0000000000E+00 Bohr
              amu      1.32905430E+02  1.21753000E+02  1.59994000E+01
             ecut      4.40000000E+01 Hartree
           etotal     -5.5470846592E+01
            fcart      0.0000000000E+00  0.0000000000E+00  0.0000000000E+00
                       0.0000000000E+00  0.0000000000E+00  0.0000000000E+00
                       0.0000000000E+00  0.0000000000E+00  0.0000000000E+00
                       0.0000000000E+00  0.0000000000E+00  0.0000000000E+00
                       0.0000000000E+00  0.0000000000E+00  0.0000000000E+00
                       0.0000000000E+00  0.0000000000E+00  0.0000000000E+00
                       0.0000000000E+00  0.0000000000E+00  0.0000000000E+00
                       0.0000000000E+00  0.0000000000E+00  0.0000000000E+00
-          fftalg         512
           irdden           1
           irdwfk           1
              ixc     -116133
              kpt      3.50000000E-01 -3.50000000E-01  0.00000000E+00
                       3.98566263E-01  3.98566263E-01  6.80959885E-02
           kptopt           0
P           mkmem           2
P          mkqmem           2
P          mk1mem           2
            natom           8
            nband          45
           nbdbuf           4
            ngfft          72      72      64
             nkpt           2
            nstep        2000
             nsym           4
           ntypat           3
              occ      2.000000  2.000000  2.000000  2.000000  2.000000  2.000000
                       2.000000  2.000000  2.000000  2.000000  2.000000  2.000000
                       2.000000  2.000000  2.000000  2.000000  2.000000  2.000000
                       2.000000  2.000000  2.000000  2.000000  2.000000  2.000000
                       2.000000  2.000000  2.000000  2.000000  2.000000  2.000000
                       2.000000  2.000000  2.000000  2.000000  2.000000  2.000000
                       0.000000  0.000000  0.000000  0.000000  0.000000  0.000000
                       0.000000  0.000000  0.000000
        optdriver           1
            prtwf          -1
            rfdir           1       1       1
           rfelfd           2
            rprim      1.1271934318E+01  0.0000000000E+00  4.1104812293E+00
                      -3.8715379673E+00  1.0586203145E+01  4.1104812293E+00
                       0.0000000000E+00  0.0000000000E+00  1.0604608824E+01
          spgroup          15
           strten      0.0000000000E+00  0.0000000000E+00  0.0000000000E+00
                       0.0000000000E+00  0.0000000000E+00  0.0000000000E+00
           symrel      1  0  0   0  1  0   0  0  1      -1  0  0   0 -1  0   0  0 -1
                       0 -1  0  -1  0  0   0  0 -1       0  1  0   1  0  0   0  0  1
            tnons      0.0000000  0.0000000  0.0000000     0.0000000 -0.0000000  0.0000000
                       0.0000000  0.0000000  0.5000000    -0.0000000 -0.0000000  0.5000000
           tolwfr      1.00000000E-20
            typat      1  1  2  2  3  3  3  3
           useylm           1
              wtk        0.50000    0.50000
           xangst      3.1458334273E+00  1.9706636203E+00  6.3839609545E+00
                       7.7028765584E-01  3.6313138096E+00  3.5781023067E+00
                      -1.3948615624E+00  5.1448840815E+00  6.3839609545E+00
                       5.3109826455E+00  4.5709334839E-01  3.5781023067E+00
                       2.8833519825E+00  4.8671996622E+00  7.5438103286E+00
                       3.3535521264E-01  1.2223122613E+00  5.2241115804E+00
                       1.0327691006E+00  7.3477776761E-01  2.4182529326E+00
                       3.5807658705E+00  4.3796651685E+00  4.7379516809E+00
            xcart      5.9447636372E+00  3.7240145423E+00  1.2063937847E+01
                       1.4556327131E+00  6.8621886027E+00  6.7616334352E+00
                      -2.6359063462E+00  9.7224218994E+00  1.2063937847E+01
                       1.0036302697E+01  8.6378124562E-01  6.7616334352E+00
                       5.4487455917E+00  9.1976743957E+00  1.4255735519E+01
                       6.3372950913E-01  2.3098354228E+00  9.8721401745E+00
                       1.9516507586E+00  1.3885287493E+00  4.5698357627E+00
                       6.7666668412E+00  8.2763677222E+00  8.9534311077E+00
             xred      6.4822000000E-01  3.5178000000E-01  7.5000000000E-01
                       3.5178000000E-01  6.4822000000E-01  2.5000000000E-01
                       8.1595000000E-02  9.1840500000E-01  7.5000000000E-01
                       9.1840500000E-01  8.1595000000E-02  2.5000000000E-01
                       7.8180700000E-01  8.6883600000E-01  7.0448600000E-01
                       1.3116400000E-01  2.1819300000E-01  7.9551400000E-01
                       2.1819300000E-01  1.3116400000E-01  2.9551400000E-01
                       8.6883600000E-01  7.8180700000E-01  2.0448600000E-01
            znucl       55.00000   51.00000    8.00000

- Timing analysis has been suppressed with timopt=0

 Suggested references for the acknowledgment of ABINIT usage.

 Calculation completed.
.Delivered  14 WARNINGs and  11 COMMENTs to log file.