.Version 9.5.1 of ABINIT

 ABINIT is a project of the Universite Catholique de Louvain,
 Corning Inc. and other collaborators, see ~abinit/doc/developers/contributors.txt .
 acknowledgments of the ABINIT effort.

.Starting date : Tue  4 May 2021.
- ( at 19h17 )

- input  file    -> /scratch/users/j/a/jabreu/flow_simple_6atoms/flow/w186/t1/run.abi
- output file    -> /scratch/users/j/a/jabreu/flow_simple_6atoms/flow/w186/t1/run.abo
- root for input  files -> /scratch/users/j/a/jabreu/flow_simple_6atoms/flow/w186/t1/indata/in
- root for output files -> /scratch/users/j/a/jabreu/flow_simple_6atoms/flow/w186/t1/outdata/out

 Symmetries : space group I4 m m (#107); Bravais tI (body-center tetrag.)
     intxc =       0      iscf =       7    lmnmax =      18     lnmax =       6
     mgfft =      72  mpssoang =       3    mqgrid =    3001     natom =       6
  nloc_mem =       1    nspden =       1   nspinor =       1    nsppol =       1
      nsym =       8    n1xccc =    2501    ntypat =       4    occopt =       1
   xclevel =       2
-    mband =          38        mffmem =           1         mkmem =           2
-   mkqmem =           2        mk1mem =           2           mpw =       10143
      nfft =      373248          nkpt =           2
  Rough estimation (10% accuracy) of disk space for files :

------------- Echo of variables that govern the present computation ------------
-
- outvars: echo of selected default values
-   iomode0 =  0 , fftalg0 =512 , wfoptalg0 =  0
-
- outvars: echo of global parameters not present in the input file
-  max_nthreads =    0
-
 -outvars: echo values of preprocessed input variables --------
            acell      1.0000000000E+00  1.0000000000E+00  1.0000000000E+00 Bohr
              amu      3.90983000E+01  2.29897680E+01  6.35460000E+01
                       1.59994000E+01
             ecut      4.60000000E+01 Hartree
-          fftalg         512
           irdden           1
           irdwfk           1
           istwfk        0    1
              ixc     -116133
              kpt      5.00000000E-01  5.00000000E-01 -5.00000000E-01
                       0.00000000E+00  0.00000000E+00  0.00000000E+00
           kptopt           0
P           mkmem           2
P          mkqmem           2
P          mk1mem           2
            natom           6
            nband          38
           nbdbuf           4
            ngfft          72      72      72
             nkpt           2
            nstep        1000
             nsym           8
           ntypat           4
              occ      2.000000  2.000000  2.000000  2.000000  2.000000  2.000000
                       2.000000  2.000000  2.000000  2.000000  2.000000  2.000000
                       2.000000  2.000000  2.000000  2.000000  2.000000  2.000000
                       2.000000  2.000000  2.000000  2.000000  2.000000  2.000000
                       2.000000  2.000000  2.000000  2.000000  2.000000  0.000000
                       0.000000  0.000000  0.000000  0.000000  0.000000  0.000000
                       0.000000  0.000000
        optdriver           1
            prtwf          -1
            rfdir           1       1       1
           rfelfd           2
            rprim      7.7235261324E+00  0.0000000000E+00 -8.5351986119E+00
                      -1.1465263114E+00  7.6379534782E+00 -8.5351986119E+00
                       0.0000000000E+00  0.0000000000E+00  1.1510971778E+01
          spgroup         107
           symrel      1  0  0   0  1  0   0  0  1       0  0 -1   1  1  1  -1  0  0
                       0  1  0   1  0  0  -1 -1 -1       1  1  1   0  0 -1   0 -1  0
                       0  1  0   1  0  0   0  0  1       0  0 -1   1  1  1   0 -1  0
                       1  0  0   0  1  0  -1 -1 -1       1  1  1   0  0 -1  -1  0  0
           tolwfr      1.00000000E-20
            typat      1  2  2  3  4  4
           useylm           1
              wtk        0.50000    0.50000
           xangst      1.9705354500E+00  2.2884078613E+00 -5.1144630973E+00
                       6.4459831737E-01  3.1217889330E+00 -1.6730347610E+00
                       2.9915131135E+00  1.1008734825E+00 -1.6730347610E+00
                       3.4732461874E+00  4.0335249384E+00 -9.0147017925E+00
                       5.8479394220E-01  6.7912863713E-01 -1.5178143772E+00
                       2.8819369394E+00  3.3468299939E+00 -7.4799771429E+00
            xcart      3.7237723357E+00  4.3244641382E+00 -9.6649345706E+00
                       1.2181142855E+00  5.8993261280E+00 -3.1615775090E+00
                       5.6531405074E+00  2.0803493889E+00 -3.1615775090E+00
                       6.5634840864E+00  7.6222574838E+00 -1.7035317558E+01
                       1.1051003949E+00  1.2833671332E+00 -2.8682534935E+00
                       5.4460715478E+00  6.3245921017E+00 -1.4135108280E+01
             xred      5.6618100000E-01  5.6618100000E-01  0.0000000000E+00
                       2.7237000000E-01  7.7237000000E-01  5.0000000000E-01
                       7.7237000000E-01  2.7237000000E-01  5.0000000000E-01
                       9.9794500000E-01  9.9794500000E-01  1.1102230246E-16
                       1.6802500000E-01  1.6802500000E-01  4.1633363423E-17
                       8.2804800000E-01  8.2804800000E-01  1.1102230246E-16
            znucl       19.00000   11.00000   29.00000    8.00000

 chkinp: Checking input parameters for consistency.

== DATASET  1 ==================================================================
-   mpi_nproc: 1, omp_nthreads: -1 (-1 if OMP is not activated)

--- !DatasetInfo
iteration_state: {dtset: 1, }
dimensions: {natom: 6, nkpt: 2, mband: 38, nsppol: 1, nspinor: 1, nspden: 1, mpw: 10143, }
cutoff_energies: {ecut:  46.0, pawecutdg:  -1.0, }
electrons: {nelect:   5.80000000E+01, charge:   0.00000000E+00, occopt:   1.00000000E+00, tsmear:   1.00000000E-02, }
meta: {optdriver: 1, rfelfd: 2, }
...

 Real(R)+Recip(G) space primitive vectors, cartesian coordinates (Bohr,Bohr^-1):
 R(1)=  7.7235261  0.0000000 -8.5351986  G(1)=  0.1294745  0.0194353  0.0000000
 R(2)= -1.1465263  7.6379535 -8.5351986  G(2)=  0.0000000  0.1309251  0.0000000
 R(3)=  0.0000000  0.0000000 11.5109718  G(3)=  0.0960033  0.1114898  0.0868736
 Unit cell volume ucvol=  6.7905448E+02 bohr^3
 Angles (23,13,12)=  1.37857963E+02  1.37857963E+02  6.11206048E+01 degrees

 getcut: wavevector=  0.0000  0.0000  0.0000  ngfft=  72  72  72
         ecut(hartree)=     46.000   => boxcut(ratio)=   2.04908

--- Pseudopotential description ------------------------------------------------
- pspini: atom type   1  psp file is /scratch/users/j/a/jabreu/pseudos/PBEsol/K.psp8
- pspatm: opening atomic psp file    /scratch/users/j/a/jabreu/pseudos/PBEsol/K.psp8
- K     ONCVPSP-3.3.0  r_core=   1.36296   1.46408   1.61068
- 19.00000   9.00000    180112                znucl, zion, pspdat
    8 -116133    2    4       400   0.00000   pspcod,pspxc,lmax,lloc,mmax,r2well
    3.99000000000000    5.00000000000000    0.00000000000000   rchrg,fchrg,qchrg
     nproj     2     2     2
     extension_switch     1
  pspatm : epsatm=    8.32487830
         --- l  ekb(1:nproj) -->
             0   10.921326    0.816676
             1    4.431000    0.560368
             2   -3.384038   -1.043186
 pspatm: atomic psp has been read  and splines computed

- pspini: atom type   2  psp file is /scratch/users/j/a/jabreu/pseudos/PBEsol/Na.psp8
- pspatm: opening atomic psp file    /scratch/users/j/a/jabreu/pseudos/PBEsol/Na.psp8
- Na    ONCVPSP-3.3.0  r_core=   1.20708   1.55069
- 11.00000   9.00000    180112                znucl, zion, pspdat
    8 -116133    1    4       400   0.00000   pspcod,pspxc,lmax,lloc,mmax,r2well
    3.99000000000000    0.00000000000000    0.00000000000000   rchrg,fchrg,qchrg
     nproj     2     2
     extension_switch     1
  pspatm : epsatm=    9.32878306
         --- l  ekb(1:nproj) -->
             0    2.657905   -0.678300
             1   -6.761319   -2.404728
 pspatm: atomic psp has been read  and splines computed

[...]

- pspini: atom type   4  psp file is /scratch/users/j/a/jabreu/pseudos/PBEsol/O.psp8
- pspatm: opening atomic psp file    /scratch/users/j/a/jabreu/pseudos/PBEsol/O.psp8
- O     ONCVPSP-3.3.0  r_core=   1.35509   1.45563   1.26150
-  8.00000   6.00000    180112                znucl, zion, pspdat
    8 -116133    2    4       600   0.00000   pspcod,pspxc,lmax,lloc,mmax,r2well
    5.99000000000000    4.00000000000000    0.00000000000000   rchrg,fchrg,qchrg
     nproj     2     2     1
     extension_switch     1
  pspatm : epsatm=    6.22910522
         --- l  ekb(1:nproj) -->
             0    6.050032    0.820363
             1   -4.739617   -1.153841
             2   -1.335834
 pspatm: atomic psp has been read  and splines computed

   3.54238143E+03                                ecore*ucvol(ha*bohr**3)

-inwffil : will read wavefunctions from disk file /scratch/users/j/a/jabreu/flow_simple_6atoms/flow/w186/t1/indata/in_WFK

 ==>  initialize data related to q vector <==

 The list of irreducible perturbations for this q vector is:
    1)    idir= 1    ipert=   7
    2)    idir= 2    ipert=   7
    3)    idir= 3    ipert=   7

 Perturbation wavevector (in red.coord.)   0.000000  0.000000  0.000000
 Perturbation : derivative vs k along direction   1

 dfpt_looppert : COMMENT -
  In a d/dk calculation, iscf is set to -3 automatically.
 The set of symmetries contains only one element for this perturbation.
 symkpt : not enough symmetry to change the number of k points.

[...]

 Initialisation of the first-order wave-functions :
  ireadwf=   0

--- !BeginCycle
iteration_state: {dtset: 1, }
solver: {iscf: 7, nstep: 1000, nline: 4, wfoptalg: 0, }
tolerances: {tolwfr: 1.00E-20, }
...

     iter   2DEtotal(Ha)        deltaE(Ha) residm    vres2
-ETOT  1  -43.487798059973     -4.349E+01 1.252E-01 0.000E+00
 ETOT  2  -43.559305277622     -7.151E-02 3.778E-03 0.000E+00
 ETOT  3  -43.560353618396     -1.048E-03 1.277E-04 0.000E+00
 ETOT  4  -43.560385944431     -3.233E-05 5.116E-06 0.000E+00
 ETOT  5  -43.560387206921     -1.262E-06 2.790E-07 0.000E+00
 ETOT  6  -43.560387260717     -5.380E-08 1.450E-08 0.000E+00
 ETOT  7  -43.560387263121     -2.405E-09 1.082E-09 0.000E+00
 ETOT  8  -43.560387263231     -1.096E-10 6.108E-11 0.000E+00
 ETOT  9  -43.560387263236     -5.073E-12 5.043E-12 0.000E+00
 ETOT 10  -43.560387263236     -2.558E-13 2.827E-13 0.000E+00
 ETOT 11  -43.560387263236     -7.105E-15 2.461E-14 0.000E+00
 ETOT 12  -43.560387263236      2.842E-14 1.354E-15 0.000E+00
 ETOT 13  -43.560387263236     -3.553E-14 1.228E-16 0.000E+00
 ETOT 14  -43.560387263236      2.132E-14 6.648E-18 0.000E+00
 ETOT 15  -43.560387263236     -7.105E-15 6.224E-19 0.000E+00
 ETOT 16  -43.560387263236      1.421E-14 3.337E-20 0.000E+00
 ETOT 17  -43.560387263236      0.000E+00 9.633E-21 0.000E+00

 At SCF step   17   max residual=  9.63E-21 < tolwfr=  1.00E-20 =>converged.

 ----iterations are completed or convergence reached----

 dfpt_looppert: DFPT cycle converged with prtwf=-1. Will skip output of the 1st-order WFK file.
 dfpt_looppert : ek2=    7.8498924812E+01
          f-sum rule ratio=    1.0142317092E+00
 prteigrs : about to open file /scratch/users/j/a/jabreu/flow_simple_6atoms/flow/w186/t1/tmpdata/tmp_1WF1_EIG
 Expectation of eigenvalue derivatives (hartree) for nkpt=   2  k points:
  (in case of degenerate eigenvalues, averaged derivative)
 kpt#   1, nband= 38, wtk=  0.50000, kpt=  0.5000  0.5000 -0.5000 (reduced coord)
  -0.00000   -0.00000    0.00000    0.00000   -0.00000    0.00000    0.00000    0.00000
  -0.00000   -0.00000   -0.00000    0.00000    0.00000   -0.00000    0.00000    0.00000
   0.00000    0.00000   -0.00000   -0.00000   -0.00000    0.00000    0.00000   -0.00000
  -0.00000    0.00000    0.00000    0.00000    0.00000    0.00000    0.00000   -0.00000
   0.00000    0.00000   -0.00000    0.00000   -0.00000   -0.00000
 prteigrs : prtvol=0 or 1, do not print more k-points.

 Eight components of 2nd-order total energy (hartree) are
 1,2,3: 0th-order hamiltonian combined with 1st-order wavefunctions
     kin0=   5.71796313E+01 eigvalue=   3.36495394E+00  local=  -2.17400522E+01
 4,5,6: 1st-order hamiltonian combined with 1st and 0th-order wfs
     kin1=  -7.96160987E+01  Hartree=   0.00000000E+00     xc=   0.00000000E+00
 7,8,9: eventually, occupation + non-local contributions
    edocc=   6.41305134E+00     enl0=  -1.65719716E+00   enl1=  -7.50467584E+00
 1-9 gives the relaxation energy (to be shifted if some occ is /=2.0)
   erelax=  -4.35603873E+01
  No Ewald or frozen-wf contrib.: the relaxation energy is the total one
 2DEtotal=   -0.4356038726E+02 Ha. Also 2DEtotal=   -0.118533841891E+04 eV
    (  non-var. 2DEtotal :   -4.3560387263E+01 Ha)

 Perturbation wavevector (in red.coord.)   0.000000  0.000000  0.000000
 Perturbation : derivative vs k along direction   2
 The set of symmetries contains only one element for this perturbation.
 symkpt : not enough symmetry to change the number of k points.

[...]

 Perturbation wavevector (in red.coord.)   0.000000  0.000000  0.000000
 Perturbation : derivative vs k along direction   3
 The set of symmetries contains only one element for this perturbation.
 symkpt : not enough symmetry to change the number of k points.

-inwffil : will read wavefunctions from disk file /scratch/users/j/a/jabreu/flow_simple_6atoms/flow/w186/t1/indata/in_WFK

 Initialisation of the first-order wave-functions :
  ireadwf=   0

--- !BeginCycle
iteration_state: {dtset: 1, }
solver: {iscf: 7, nstep: 1000, nline: 4, wfoptalg: 0, }
tolerances: {tolwfr: 1.00E-20, }
...

     iter   2DEtotal(Ha)        deltaE(Ha) residm    vres2
-ETOT  1  -74.182599250580     -7.418E+01 1.391E-01 0.000E+00
 ETOT  2  -74.271889728569     -8.929E-02 4.255E-03 0.000E+00
 ETOT  3  -74.272849002790     -9.593E-04 1.344E-04 0.000E+00
 ETOT  4  -74.272875181957     -2.618E-05 4.258E-06 0.000E+00
 ETOT  5  -74.272876151626     -9.697E-07 2.126E-07 0.000E+00
 ETOT  6  -74.272876190239     -3.861E-08 6.583E-09 0.000E+00
 ETOT  7  -74.272876191839     -1.600E-09 3.757E-10 0.000E+00
 ETOT  8  -74.272876191906     -6.737E-11 1.150E-11 0.000E+00
 ETOT  9  -74.272876191909     -2.913E-12 6.927E-13 0.000E+00
 ETOT 10  -74.272876191909     -9.948E-14 2.104E-14 0.000E+00
 ETOT 11  -74.272876191909      0.000E+00 1.301E-15 0.000E+00
 ETOT 12  -74.272876191909      0.000E+00 3.956E-17 0.000E+00
 ETOT 13  -74.272876191909      1.421E-14 2.482E-18 0.000E+00
 ETOT 14  -74.272876191909     -1.421E-14 7.608E-20 0.000E+00
 ETOT 15  -74.272876191909      0.000E+00 9.768E-21 0.000E+00

 At SCF step   15   max residual=  9.77E-21 < tolwfr=  1.00E-20 =>converged.

 ----iterations are completed or convergence reached----

 dfpt_looppert: DFPT cycle converged with prtwf=-1. Will skip output of the 1st-order WFK file.
 dfpt_looppert : ek2=    1.3369215187E+02
          f-sum rule ratio=    1.0156993319E+00
 prteigrs : about to open file /scratch/users/j/a/jabreu/flow_simple_6atoms/flow/w186/t1/tmpdata/tmp_1WF1_EIG
 Expectation of eigenvalue derivatives (hartree) for nkpt=   2  k points:
  (in case of degenerate eigenvalues, averaged derivative)
 kpt#   1, nband= 38, wtk=  0.50000, kpt=  0.5000  0.5000 -0.5000 (reduced coord)
  -0.00000   -0.00000    0.00000    0.00000    0.00000   -0.00000    0.00000    0.00000
  -0.00000    0.00000    0.00000    0.00000    0.00000   -0.00000    0.00000   -0.00000
   0.00000    0.00000   -0.00000   -0.00000   -0.00000    0.00000    0.00000   -0.00000
  -0.00000    0.00000    0.00000    0.00000    0.00000   -0.00000   -0.00000   -0.00000
   0.00000    0.00000   -0.00000    0.00000   -0.00000   -0.00000
 prteigrs : prtvol=0 or 1, do not print more k-points.

 Eight components of 2nd-order total energy (hartree) are
 1,2,3: 0th-order hamiltonian combined with 1st-order wavefunctions
     kin0=   9.75894503E+01 eigvalue=   5.72424615E+00  local=  -3.68993663E+01
 4,5,6: 1st-order hamiltonian combined with 1st and 0th-order wfs
     kin1=  -1.35791029E+02  Hartree=   0.00000000E+00     xc=   0.00000000E+00
 7,8,9: eventually, occupation + non-local contributions
    edocc=   1.06685616E+01     enl0=  -2.81001553E+00   enl1=  -1.27547231E+01
 1-9 gives the relaxation energy (to be shifted if some occ is /=2.0)
   erelax=  -7.42728762E+01
  No Ewald or frozen-wf contrib.: the relaxation energy is the total one
 2DEtotal=   -0.7427287619E+02 Ha. Also 2DEtotal=   -0.202106774444E+04 eV
    (  non-var. 2DEtotal :   -7.4272876192E+01 Ha)

 CALCULATION OF EFFECTIVE MASSES
 NOTE : Additional infos (eff. mass eigenvalues, eigenvectors and, if degenerate, average mass) are available in stdout.

 COMMENTS:
 - At k-point ( 0.500, 0.500,-0.500), bands    28 through    29
   are DEGENERATE (effective mass tensor is therefore not defined).
   See Section IIIB Eqs. (67)-(70) and Appendix E of PRB 93 205147 (2016).
 - Angular average effective mass for Frohlich model is to be averaged over degenerate bands. See later.
 - Associated theta integrals calculated with ntheta=   1000 points.

 K-point ( 0.500, 0.500,-0.500) | band =    28
 Transport equivalent effective mass tensor:
             -2.1720814766              0.0360534417             -0.0805774563
              0.0360534417             -2.1612576515             -0.0935754786
             -0.0805774563             -0.0935754786             -1.9939909910
 Transport equivalent effective mass tensor eigenvalues:
             -2.2031269601             -2.2031269200             -1.9210762390
 Angular average effective mass 1/(<1/m>)=  -2.0322751434
 Angular average effective mass for Frohlich model (<m**0.5>)**2=  -2.0397498604
 Effective masses along directions: (cart. coord. / red. coord. -> eff. mass)
    1:   1.000000  0.000000  0.000000 /   0.989161 -0.146837  0.000000 ->  -2.2798789423
    2:   0.000000  1.000000  0.000000 /   0.000000  1.000000  0.000000 ->  -2.3026052680
    3:   0.000000  0.000000  1.000000 /  -0.511722 -0.511722  0.690132 ->  -1.8682653802
    4:   0.577350  0.577350  0.577350 /  -0.069260 -0.174396  0.982237 ->  -1.9587721128
    5:   0.000000  0.707107  0.707107 /  -0.594449 -0.062490  0.801702 ->  -2.1861800809
    6:   0.707107  0.000000  0.707107 /  -0.053885 -0.642744  0.764183 ->  -2.2482140600
    7:   0.707107  0.707107  0.000000 /   0.765526  0.643405  0.000000 ->  -1.9305329571

 K-point ( 0.500, 0.500,-0.500) | band =    29
 Transport equivalent effective mass tensor:
            -41.1483866150              4.4999630349            -10.0571633310
              4.4999630349            -39.7974157766            -11.6795112173
            -10.0571633310            -11.6795112173            -18.9202264329
 Transport equivalent effective mass tensor eigenvalues:
            -45.0232800809            -45.0232786065             -9.8194701370
 Angular average effective mass 1/(<1/m>)=  -4.4002751674
 Angular average effective mass for Frohlich model (<m**0.5>)**2=  -6.4851473401
 Effective masses along directions: (cart. coord. / red. coord. -> eff. mass)
    1:   1.000000  0.000000  0.000000 /   0.989161 -0.146837  0.000000 ->  -6.3482435007
    2:   0.000000  1.000000  0.000000 /   0.000000  1.000000  0.000000 ->  -5.4637393215
    3:   0.000000  0.000000  1.000000 /  -0.511722 -0.511722  0.690132 ->  -2.4435624466
    4:   0.577350  0.577350  0.577350 /  -0.069260 -0.174396  0.982237 -> -34.8318002743
    5:   0.000000  0.707107  0.707107 /  -0.594449 -0.062490  0.801702 ->  -7.1199966463
    6:   0.707107  0.000000  0.707107 /  -0.053885 -0.642744  0.764183 ->  -5.9555820969
    7:   0.707107  0.707107  0.000000 /   0.765526  0.643405  0.000000 ->  -6.2790591280

 Angular average effective mass for Frohlich model, averaged over degenerate bands.
 Value of     (<<m**0.5>>)**2 =     3.949746E+00
 Absolute Value of <<m**0.5>> =     1.987397E+00

 K-point ( 0.000, 0.000, 0.000) | band =    30
 Effective mass tensor:
              0.9203926919             -0.0577395684              0.1290508965
             -0.0577395684              0.9030447428              0.1498558117
              0.1290508965              0.1498558117              0.6351820387
 Effective mass tensor eigenvalues:
              0.5184067673              0.9700964202              0.9701162858
 Angular average effective mass 1/(<1/m>)=   0.7517634882
 Angular average effective mass for Frohlich model (<m**0.5>)**2=   0.7735248572
 Effective masses along directions: (cart. coord. / red. coord. -> eff. mass)
    1:   1.000000  0.000000  0.000000 /   0.989161 -0.146837  0.000000 ->   0.8852106106
    2:   0.000000  1.000000  0.000000 /   0.000000  1.000000  0.000000 ->   0.8589927315
    3:   0.000000  0.000000  1.000000 /  -0.511722 -0.511722  0.690132 ->   0.5893488434
    4:   0.577350  0.577350  0.577350 /  -0.069260 -0.174396  0.982237 ->   0.9642983021
    5:   0.000000  0.707107  0.707107 /  -0.594449 -0.062490  0.801702 ->   0.8830096198
    6:   0.707107  0.000000  0.707107 /  -0.053885 -0.642744  0.764183 ->   0.8645834150
    7:   0.707107  0.707107  0.000000 /   0.765526  0.643405  0.000000 ->   0.7925646306

 END OF EFFECTIVE MASSES SECTION

 ---- first-order wavefunction calculations are completed ----

 Total localisation tensor (bohr^2) in cartesian coordinates
  WARNING : still subject to testing - especially symmetries.
      direction              matrix element
   alpha     beta       real part   imaginary part
     1        1       0.5121998622    0.0000000000
     1        2      -0.0735703546    0.0000000000
     1        3      -0.4716104521    0.0000000000
     2        1      -0.0735703546    0.0000000000
     2        2       0.4901125601    0.0000000000
     2        3      -0.5476870283    0.0000000000
     3        1      -0.4716104521    0.0000000000
     3        2      -0.5476870283    0.0000000000
     3        3       3.1051909131    0.0000000000

 respfn : d/dk was computed, but no 2DTE, so no DDB output.

== END DATASET(S) ==============================================================

 -outvars: echo values of variables after computation  --------
            acell      1.0000000000E+00  1.0000000000E+00  1.0000000000E+00 Bohr
              amu      3.90983000E+01  2.29897680E+01  6.35460000E+01
                       1.59994000E+01
             ecut      4.60000000E+01 Hartree
           etotal     -7.4272876192E+01
            fcart      0.0000000000E+00  0.0000000000E+00  0.0000000000E+00
                       0.0000000000E+00  0.0000000000E+00  0.0000000000E+00
                       0.0000000000E+00  0.0000000000E+00  0.0000000000E+00
                       0.0000000000E+00  0.0000000000E+00  0.0000000000E+00
                       0.0000000000E+00  0.0000000000E+00  0.0000000000E+00
                       0.0000000000E+00  0.0000000000E+00  0.0000000000E+00
-          fftalg         512
           irdden           1
           irdwfk           1
           istwfk        0    1
              ixc     -116133
              kpt      5.00000000E-01  5.00000000E-01 -5.00000000E-01
                       0.00000000E+00  0.00000000E+00  0.00000000E+00
           kptopt           0
P           mkmem           2
P          mkqmem           2
P          mk1mem           2
            natom           6
            nband          38
           nbdbuf           4
            ngfft          72      72      72
             nkpt           2
            nstep        1000
             nsym           8
           ntypat           4
              occ      2.000000  2.000000  2.000000  2.000000  2.000000  2.000000
                       2.000000  2.000000  2.000000  2.000000  2.000000  2.000000
                       2.000000  2.000000  2.000000  2.000000  2.000000  2.000000
                       2.000000  2.000000  2.000000  2.000000  2.000000  2.000000
                       2.000000  2.000000  2.000000  2.000000  2.000000  0.000000
                       0.000000  0.000000  0.000000  0.000000  0.000000  0.000000
                       0.000000  0.000000
        optdriver           1
            prtwf          -1
            rfdir           1       1       1
           rfelfd           2
            rprim      7.7235261324E+00  0.0000000000E+00 -8.5351986119E+00
                      -1.1465263114E+00  7.6379534782E+00 -8.5351986119E+00
                       0.0000000000E+00  0.0000000000E+00  1.1510971778E+01
          spgroup         107
           strten      0.0000000000E+00  0.0000000000E+00  0.0000000000E+00
                       0.0000000000E+00  0.0000000000E+00  0.0000000000E+00
           symrel      1  0  0   0  1  0   0  0  1       0  0 -1   1  1  1  -1  0  0
                       0  1  0   1  0  0  -1 -1 -1       1  1  1   0  0 -1   0 -1  0
                       0  1  0   1  0  0   0  0  1       0  0 -1   1  1  1   0 -1  0
                       1  0  0   0  1  0  -1 -1 -1       1  1  1   0  0 -1  -1  0  0
           tolwfr      1.00000000E-20
            typat      1  2  2  3  4  4
           useylm           1
              wtk        0.50000    0.50000
           xangst      1.9705354500E+00  2.2884078613E+00 -5.1144630973E+00
                       6.4459831737E-01  3.1217889330E+00 -1.6730347610E+00
                       2.9915131135E+00  1.1008734825E+00 -1.6730347610E+00
                       3.4732461874E+00  4.0335249384E+00 -9.0147017925E+00
                       5.8479394220E-01  6.7912863713E-01 -1.5178143772E+00
                       2.8819369394E+00  3.3468299939E+00 -7.4799771429E+00
            xcart      3.7237723357E+00  4.3244641382E+00 -9.6649345706E+00
                       1.2181142855E+00  5.8993261280E+00 -3.1615775090E+00
                       5.6531405074E+00  2.0803493889E+00 -3.1615775090E+00
                       6.5634840864E+00  7.6222574838E+00 -1.7035317558E+01
                       1.1051003949E+00  1.2833671332E+00 -2.8682534935E+00
                       5.4460715478E+00  6.3245921017E+00 -1.4135108280E+01
             xred      5.6618100000E-01  5.6618100000E-01  0.0000000000E+00
                       2.7237000000E-01  7.7237000000E-01  5.0000000000E-01
                       7.7237000000E-01  2.7237000000E-01  5.0000000000E-01
                       9.9794500000E-01  9.9794500000E-01  1.1102230246E-16
                       1.6802500000E-01  1.6802500000E-01  4.1633363423E-17
                       8.2804800000E-01  8.2804800000E-01  1.1102230246E-16
            znucl       19.00000   11.00000   29.00000    8.00000

- Timing analysis has been suppressed with timopt=0

 Suggested references for the acknowledgment of ABINIT usage.

 Calculation completed.
.Delivered  14 WARNINGs and   9 COMMENTs to log file.