.Version 9.5.1 of ABINIT

 ABINIT is a project of the Universite Catholique de Louvain,
 Corning Inc. and other collaborators, see ~abinit/doc/developers/contributors.txt .
 acknowledgments of the ABINIT effort.

.Starting date : Tue 27 Apr 2021.
- ( at 18h21 )

- input  file    -> /scratch/users/j/a/jabreu/flow_simple_4atoms/flow/w135/t1/run.abi
- output file    -> /scratch/users/j/a/jabreu/flow_simple_4atoms/flow/w135/t1/run.abo
- root for input  files -> /scratch/users/j/a/jabreu/flow_simple_4atoms/flow/w135/t1/indata/in
- root for output files -> /scratch/users/j/a/jabreu/flow_simple_4atoms/flow/w135/t1/outdata/out

 Symmetries : space group C2/m (# 12); Bravais mC (1-face-center monocl.)
     intxc =       0      iscf =       7    lmnmax =       8     lnmax =       4
     mgfft =      64  mpssoang =       2    mqgrid =    3001     natom =       4
  nloc_mem =       1    nspden =       1   nspinor =       1    nsppol =       1
      nsym =       4    n1xccc =    2501    ntypat =       2    occopt =       1
   xclevel =       2
-    mband =          21        mffmem =           1         mkmem =           2
-   mkqmem =           2        mk1mem =           2           mpw =        5460
      nfft =      129600          nkpt =           2
  Rough estimation (10% accuracy) of disk space for files :

------------- Echo of variables that govern the present computation ------------
-
- outvars: echo of selected default values
-   iomode0 =  0 , fftalg0 =512 , wfoptalg0 =  0
-
- outvars: echo of global parameters not present in the input file
-  max_nthreads =    0
-
 -outvars: echo values of preprocessed input variables --------
            acell      1.0000000000E+00  1.0000000000E+00  1.0000000000E+00 Bohr
              amu      2.29897680E+01  1.40067400E+01
             ecut      4.40000000E+01 Hartree
-          fftalg         512
           irdden           1
           irdwfk           1
           istwfk        1    1
              ixc     -116133
              kpt      0.00000000E+00  0.00000000E+00  5.00000000E-01
                       5.00000000E-01  5.00000000E-01  5.00000000E-01
           kptopt           0
P           mkmem           2
P          mkqmem           2
P          mk1mem           2
            natom           4
            nband          21
           nbdbuf           4
            ngfft          45      45      64
             nkpt           2
            nstep         100
             nsym           4
           ntypat           2
              occ      2.000000  2.000000  2.000000  2.000000  2.000000  2.000000
                       2.000000  2.000000  2.000000  2.000000  2.000000  2.000000
                       0.000000  0.000000  0.000000  0.000000  0.000000  0.000000
                       0.000000  0.000000  0.000000
        optdriver           1
            prtwf          -1
            rfdir           1       1       1
           rfelfd           2
            rprim      6.5676502108E+00  0.0000000000E+00  1.9050505223E+00
                       2.9194905899E+00  5.8830777649E+00  1.9050505223E+00
                       0.0000000000E+00  0.0000000000E+00  1.0122535796E+01
          spgroup          12
           symrel      1  0  0   0  1  0   0  0  1      -1  0  0   0 -1  0   0  0 -1
                       0 -1  0  -1  0  0   0  0 -1       0  1  0   1  0  0   0  0  1
           tolwfr      1.00000000E-20
            typat      1  2  2  2
           useylm           1
              wtk        0.50000    0.50000
           xangst      0.0000000000E+00  0.0000000000E+00  0.0000000000E+00
                       2.9818840431E+00  1.8490982773E+00  2.6425938915E+00
                       2.0384946433E+00  1.2640923922E+00  4.7302399804E+00
                       2.5101893432E+00  1.5565953348E+00  3.6864169359E+00
            xcart      0.0000000000E+00  0.0000000000E+00  0.0000000000E+00
                       5.6349442014E+00  3.4942893369E+00  4.9937787353E+00
                       3.8521965993E+00  2.3887884280E+00  8.9388581057E+00
                       4.7435704004E+00  2.9415388825E+00  6.9663184205E+00
             xred      0.0000000000E+00  0.0000000000E+00  0.0000000000E+00
                       5.9395600000E-01  5.9395600000E-01  2.6976900000E-01
                       4.0604400000E-01  4.0604400000E-01  7.3023100000E-01
                       5.0000000000E-01  5.0000000000E-01  5.0000000000E-01
            znucl       11.00000    7.00000

 chkinp: Checking input parameters for consistency.

== DATASET  1 ==================================================================
-   mpi_nproc: 1, omp_nthreads: -1 (-1 if OMP is not activated)

--- !DatasetInfo
iteration_state: {dtset: 1, }
dimensions: {natom: 4, nkpt: 2, mband: 21, nsppol: 1, nspinor: 1, nspden: 1, mpw: 5460, }
cutoff_energies: {ecut:  44.0, pawecutdg:  -1.0, }
electrons: {nelect:   2.40000000E+01, charge:   0.00000000E+00, occopt:   1.00000000E+00, tsmear:   1.00000000E-02, }
meta: {optdriver: 1, rfelfd: 2, }
...

 Real(R)+Recip(G) space primitive vectors, cartesian coordinates (Bohr,Bohr^-1):
 R(1)=  6.5676502  0.0000000  1.9050505  G(1)=  0.1522615 -0.0755601  0.0000000
 R(2)=  2.9194906  5.8830778  1.9050505  G(2)=  0.0000000  0.1699791  0.0000000
 R(3)=  0.0000000  0.0000000 10.1225358  G(3)= -0.0286554 -0.0177695  0.0987895
 Unit cell volume ucvol=  3.9111451E+02 bohr^3
 Angles (23,13,12)=  7.38243650E+01  7.38243650E+01  6.08147243E+01 degrees

 getcut: wavevector=  0.0000  0.0000  0.0000  ngfft=  45  45  64
         ecut(hartree)=     44.000   => boxcut(ratio)=   2.11738

--- Pseudopotential description ------------------------------------------------
- pspini: atom type   1  psp file is /scratch/users/j/a/jabreu/pseudos/PBEsol/Na.psp8
- pspatm: opening atomic psp file    /scratch/users/j/a/jabreu/pseudos/PBEsol/Na.psp8
- Na    ONCVPSP-3.3.0  r_core=   1.20708   1.55069
- 11.00000   9.00000    180112                znucl, zion, pspdat
    8 -116133    1    4       400   0.00000   pspcod,pspxc,lmax,lloc,mmax,r2well
    3.99000000000000    0.00000000000000    0.00000000000000   rchrg,fchrg,qchrg
     nproj     2     2
     extension_switch     1
  pspatm : epsatm=    9.32878306
         --- l  ekb(1:nproj) -->
             0    2.657905   -0.678300
             1   -6.761319   -2.404728
 pspatm: atomic psp has been read  and splines computed

- pspini: atom type   2  psp file is /scratch/users/j/a/jabreu/pseudos/PBEsol/N.psp8
- pspatm: opening atomic psp file    /scratch/users/j/a/jabreu/pseudos/PBEsol/N.psp8
- N     ONCVPSP-3.3.0  r_core=   1.20551   1.35824
-  7.00000   5.00000    180112                znucl, zion, pspdat
    8 -116133    1    4       600   0.00000   pspcod,pspxc,lmax,lloc,mmax,r2well
    5.99000000000000    4.00000000000000    0.00000000000000   rchrg,fchrg,qchrg
     nproj     2     2
     extension_switch     1
  pspatm : epsatm=    5.26508895
         --- l  ekb(1:nproj) -->
             0    7.464189    0.625868
             1   -4.309714   -1.012941
 pspatm: atomic psp has been read  and splines computed

   6.02977198E+02                                ecore*ucvol(ha*bohr**3)

-inwffil : will read wavefunctions from disk file /scratch/users/j/a/jabreu/flow_simple_4atoms/flow/w135/t1/indata/in_WFK

 ==>  initialize data related to q vector <==

 The list of irreducible perturbations for this q vector is:
    1)    idir= 1    ipert=   5
    2)    idir= 2    ipert=   5
    3)    idir= 3    ipert=   5

 Perturbation wavevector (in red.coord.)   0.000000  0.000000  0.000000
 Perturbation : derivative vs k along direction   1

 dfpt_looppert : COMMENT -
  In a d/dk calculation, iscf is set to -3 automatically.
 The set of symmetries contains only one element for this perturbation.
 symkpt : not enough symmetry to change the number of k points.

[...]

 Initialisation of the first-order wave-functions :
  ireadwf=   0

--- !BeginCycle
iteration_state: {dtset: 1, }
solver: {iscf: 7, nstep: 100, nline: 4, wfoptalg: 0, }
tolerances: {tolwfr: 1.00E-20, }
...

     iter   2DEtotal(Ha)        deltaE(Ha) residm    vres2
-ETOT  1  -31.451710454545     -3.145E+01 1.586E-01 0.000E+00
 ETOT  2  -31.460885014955     -9.175E-03 1.032E-03 0.000E+00
 ETOT  3  -31.460891811570     -6.797E-06 1.750E-05 0.000E+00
 ETOT  4  -31.460891827881     -1.631E-08 1.340E-07 0.000E+00
 ETOT  5  -31.460891827931     -5.038E-11 4.091E-09 0.000E+00
 ETOT  6  -31.460891827931     -1.528E-13 4.458E-11 0.000E+00
 ETOT  7  -31.460891827931     -3.553E-15 1.782E-12 0.000E+00
 ETOT  8  -31.460891827931      1.066E-14 2.105E-14 0.000E+00
 ETOT  9  -31.460891827931      3.553E-15 9.659E-16 0.000E+00
 ETOT 10  -31.460891827931      0.000E+00 1.207E-17 0.000E+00
 ETOT 11  -31.460891827931      0.000E+00 5.976E-19 0.000E+00
 ETOT 12  -31.460891827931      3.553E-15 9.734E-21 0.000E+00

 At SCF step   12   max residual=  9.73E-21 < tolwfr=  1.00E-20 =>converged.

 ----iterations are completed or convergence reached----

 dfpt_looppert: DFPT cycle converged with prtwf=-1. Will skip output of the 1st-order WFK file.
 dfpt_looppert : ek2=    5.4750967239E+01
          f-sum rule ratio=    1.0667972006E+00
 prteigrs : about to open file /scratch/users/j/a/jabreu/flow_simple_4atoms/flow/w135/t1/tmpdata/tmp_1WF1_EIG
 Expectation of eigenvalue derivatives (hartree) for nkpt=   2  k points:
  (in case of degenerate eigenvalues, averaged derivative)
 kpt#   1, nband= 21, wtk=  0.50000, kpt=  0.0000  0.0000  0.5000 (reduced coord)
  -0.00000   -0.00000    0.00000   -0.00000   -0.00000   -0.00000   -0.00000   -0.00000
   0.00000   -0.00000   -0.00000   -0.00000   -0.00000   -0.00000   -0.00000    0.00000
  -0.00000    0.00000   -0.00000    0.00000   -0.00007
 prteigrs : prtvol=0 or 1, do not print more k-points.

 Eight components of 2nd-order total energy (hartree) are
 1,2,3: 0th-order hamiltonian combined with 1st-order wavefunctions
     kin0=   3.23008947E+01 eigvalue=   3.69358206E+00  local=  -1.20766395E+01
 4,5,6: 1st-order hamiltonian combined with 1st and 0th-order wfs
     kin1=  -5.84081786E+01  Hartree=   0.00000000E+00     xc=   0.00000000E+00
 7,8,9: eventually, occupation + non-local contributions
    edocc=   8.97385570E+00     enl0=  -1.43080112E+00   enl1=  -4.51360508E+00
 1-9 gives the relaxation energy (to be shifted if some occ is /=2.0)
   erelax=  -3.14608918E+01
  No Ewald or frozen-wf contrib.: the relaxation energy is the total one
 2DEtotal=   -0.3146089183E+02 Ha. Also 2DEtotal=   -0.856094404108E+03 eV
    (  non-var. 2DEtotal :   -3.1460891828E+01 Ha)

 Perturbation wavevector (in red.coord.)   0.000000  0.000000  0.000000
 Perturbation : derivative vs k along direction   2
 The set of symmetries contains only one element for this perturbation.
 symkpt : not enough symmetry to change the number of k points.

[...]

 Perturbation wavevector (in red.coord.)   0.000000  0.000000  0.000000
 Perturbation : derivative vs k along direction   3
 The set of symmetries contains only one element for this perturbation.
 symkpt : not enough symmetry to change the number of k points.

-inwffil : will read wavefunctions from disk file /scratch/users/j/a/jabreu/flow_simple_4atoms/flow/w135/t1/indata/in_WFK

 Initialisation of the first-order wave-functions :
  ireadwf=   0

--- !BeginCycle
iteration_state: {dtset: 1, }
solver: {iscf: 7, nstep: 100, nline: 4, wfoptalg: 0, }
tolerances: {tolwfr: 1.00E-20, }
...

     iter   2DEtotal(Ha)        deltaE(Ha) residm    vres2
-ETOT  1  -11.636487891360     -1.164E+01 3.873E-02 0.000E+00
 ETOT  2  -11.640124172513     -3.636E-03 2.089E-04 0.000E+00
 ETOT  3  -11.640127583161     -3.411E-06 1.774E-06 0.000E+00
 ETOT  4  -11.640127591465     -8.304E-09 2.848E-08 0.000E+00
 ETOT  5  -11.640127591490     -2.459E-11 2.887E-10 0.000E+00
 ETOT  6  -11.640127591490     -7.638E-14 6.354E-12 0.000E+00
 ETOT  7  -11.640127591490     -3.553E-15 6.727E-14 0.000E+00
 ETOT  8  -11.640127591490      1.776E-15 1.551E-15 0.000E+00
 ETOT  9  -11.640127591490     -5.329E-15 1.653E-17 0.000E+00
 ETOT 10  -11.640127591490     -1.776E-15 3.901E-19 0.000E+00
 ETOT 11  -11.640127591490     -1.776E-15 9.865E-21 0.000E+00

 At SCF step   11   max residual=  9.87E-21 < tolwfr=  1.00E-20 =>converged.

 ----iterations are completed or convergence reached----

 dfpt_looppert: DFPT cycle converged with prtwf=-1. Will skip output of the 1st-order WFK file.
 dfpt_looppert : ek2=    2.0648005476E+01
          f-sum rule ratio=    1.0366647731E+00
 prteigrs : about to open file /scratch/users/j/a/jabreu/flow_simple_4atoms/flow/w135/t1/tmpdata/tmp_1WF1_EIG
 Expectation of eigenvalue derivatives (hartree) for nkpt=   2  k points:
  (in case of degenerate eigenvalues, averaged derivative)
 kpt#   1, nband= 21, wtk=  0.50000, kpt=  0.0000  0.0000  0.5000 (reduced coord)
   0.00000    0.00000    0.00000    0.00000    0.00000    0.00000    0.00000    0.00000
  -0.00000    0.00000   -0.00000    0.00000   -0.00000    0.00000    0.00000    0.00000
   0.00000   -0.00000   -0.00000    0.00000    0.00004
 prteigrs : prtvol=0 or 1, do not print more k-points.

 Eight components of 2nd-order total energy (hartree) are
 1,2,3: 0th-order hamiltonian combined with 1st-order wavefunctions
     kin0=   9.71002917E+00 eigvalue=   1.23177773E+00  local=  -3.71974649E+00
 4,5,6: 1st-order hamiltonian combined with 1st and 0th-order wfs
     kin1=  -2.14050599E+01  Hartree=   0.00000000E+00     xc=   0.00000000E+00
 7,8,9: eventually, occupation + non-local contributions
    edocc=   5.04565303E+00     enl0=  -6.27585853E-01   enl1=  -1.87519527E+00
 1-9 gives the relaxation energy (to be shifted if some occ is /=2.0)
   erelax=  -1.16401276E+01
  No Ewald or frozen-wf contrib.: the relaxation energy is the total one
 2DEtotal=   -0.1164012759E+02 Ha. Also 2DEtotal=   -0.316743980071E+03 eV
    (  non-var. 2DEtotal :   -1.1640127591E+01 Ha)

 CALCULATION OF EFFECTIVE MASSES
 NOTE : Additional infos (eff. mass eigenvalues, eigenvectors and, if degenerate, average mass) are available in stdout.

 K-point ( 0.000, 0.000, 0.500) | band =    12
 Effective mass tensor:
             -4.0986028843             -1.7740378667             -2.5167553736
             -1.7740378667             -2.3379496932             -1.5607595706
             -2.5167553736             -1.5607595706             -5.6466610504
 Effective mass tensor eigenvalues:
             -8.3925744010             -2.4528137131             -1.2378255138
 Angular average effective mass 1/(<1/m>)=  -2.2476686592
 Angular average effective mass for Frohlich model (<m**0.5>)**2=  -2.6074093512
 Effective masses along directions: (cart. coord. / red. coord. -> eff. mass)
    1:   1.000000  0.000000  0.000000 /   0.913784  0.406201  0.000000 ->  -2.3668971220
    2:   0.000000  1.000000  0.000000 /   0.000000  1.000000  0.000000 ->  -1.5158908191
    3:   0.000000  0.000000  1.000000 /   0.181868  0.181868  0.966358 ->  -3.9597042338
    4:   0.577350  0.577350  0.577350 /   0.498476  0.629963  0.595541 ->  -6.5131403950
    5:   0.000000  0.707107  0.707107 /   0.147528  0.603115  0.783893 ->  -2.6296004901
    6:   0.707107  0.000000  0.707107 /   0.602847  0.343274  0.720235 ->  -4.6454579999
    7:   0.707107  0.707107  0.000000 /   0.598001  0.801496  0.000000 ->  -3.3100321642

 K-point ( 0.500, 0.500, 0.500) | band =    13
 Effective mass tensor:
              1.6482513475             -0.4222144030              0.2554729043
             -0.4222144030              2.0673011578              0.1584214746
              0.2554729043              0.1584214746              0.7143018560
 Effective mass tensor eigenvalues:
              0.5994749947              1.5012585606              2.3291208061
 Angular average effective mass 1/(<1/m>)=   1.0855482099
 Angular average effective mass for Frohlich model (<m**0.5>)**2=   1.2006402066
 Effective masses along directions: (cart. coord. / red. coord. -> eff. mass)
    1:   1.000000  0.000000  0.000000 /   0.913784  0.406201  0.000000 ->   1.4440349386
    2:   0.000000  1.000000  0.000000 /   0.000000  1.000000  0.000000 ->   1.8848706061
    3:   0.000000  0.000000  1.000000 /   0.181868  0.181868  0.966358 ->   0.6491246328
    4:   0.577350  0.577350  0.577350 /   0.498476  0.629963  0.595541 ->   1.3823896907
    5:   0.000000  0.707107  0.707107 /   0.147528  0.603115  0.783893 ->   1.1634563262
    6:   0.707107  0.000000  0.707107 /   0.602847  0.343274  0.720235 ->   1.2009834930
    7:   0.707107  0.707107  0.000000 /   0.598001  0.801496  0.000000 ->   1.2908073335

 END OF EFFECTIVE MASSES SECTION

 ---- first-order wavefunction calculations are completed ----

 Total localisation tensor (bohr^2) in cartesian coordinates
  WARNING : still subject to testing - especially symmetries.
      direction              matrix element
   alpha     beta       real part   imaginary part
     1        1       0.8252558183    0.0000000000
     1        2       0.2743896511    0.0000000000
     1        3       0.2887337263    0.0000000000
     2        1       0.2743896511    0.0000000000
     2        2       0.5529237397    0.0000000000
     2        3       0.1790470399    0.0000000000
     3        1       0.2887337263    0.0000000000
     3        2       0.1790470399    0.0000000000
     3        3       1.2260648913    0.0000000000

 respfn : d/dk was computed, but no 2DTE, so no DDB output.

== END DATASET(S) ==============================================================

 -outvars: echo values of variables after computation  --------
            acell      1.0000000000E+00  1.0000000000E+00  1.0000000000E+00 Bohr
              amu      2.29897680E+01  1.40067400E+01
             ecut      4.40000000E+01 Hartree
           etotal     -1.1640127591E+01
            fcart      0.0000000000E+00  0.0000000000E+00  0.0000000000E+00
                       0.0000000000E+00  0.0000000000E+00  0.0000000000E+00
                       0.0000000000E+00  0.0000000000E+00  0.0000000000E+00
                       0.0000000000E+00  0.0000000000E+00  0.0000000000E+00
-          fftalg         512
           irdden           1
           irdwfk           1
           istwfk        1    1
              ixc     -116133
              kpt      0.00000000E+00  0.00000000E+00  5.00000000E-01
                       5.00000000E-01  5.00000000E-01  5.00000000E-01
           kptopt           0
P           mkmem           2
P          mkqmem           2
P          mk1mem           2
            natom           4
            nband          21
           nbdbuf           4
            ngfft          45      45      64
             nkpt           2
            nstep         100
             nsym           4
           ntypat           2
              occ      2.000000  2.000000  2.000000  2.000000  2.000000  2.000000
                       2.000000  2.000000  2.000000  2.000000  2.000000  2.000000
                       0.000000  0.000000  0.000000  0.000000  0.000000  0.000000
                       0.000000  0.000000  0.000000
        optdriver           1
            prtwf          -1
            rfdir           1       1       1
           rfelfd           2
            rprim      6.5676502108E+00  0.0000000000E+00  1.9050505223E+00
                       2.9194905899E+00  5.8830777649E+00  1.9050505223E+00
                       0.0000000000E+00  0.0000000000E+00  1.0122535796E+01
          spgroup          12
           strten      0.0000000000E+00  0.0000000000E+00  0.0000000000E+00
                       0.0000000000E+00  0.0000000000E+00  0.0000000000E+00
           symrel      1  0  0   0  1  0   0  0  1      -1  0  0   0 -1  0   0  0 -1
                       0 -1  0  -1  0  0   0  0 -1       0  1  0   1  0  0   0  0  1
           tolwfr      1.00000000E-20
            typat      1  2  2  2
           useylm           1
              wtk        0.50000    0.50000
           xangst      0.0000000000E+00  0.0000000000E+00  0.0000000000E+00
                       2.9818840431E+00  1.8490982773E+00  2.6425938915E+00
                       2.0384946433E+00  1.2640923922E+00  4.7302399804E+00
                       2.5101893432E+00  1.5565953348E+00  3.6864169359E+00
            xcart      0.0000000000E+00  0.0000000000E+00  0.0000000000E+00
                       5.6349442014E+00  3.4942893369E+00  4.9937787353E+00
                       3.8521965993E+00  2.3887884280E+00  8.9388581057E+00
                       4.7435704004E+00  2.9415388825E+00  6.9663184205E+00
             xred      0.0000000000E+00  0.0000000000E+00  0.0000000000E+00
                       5.9395600000E-01  5.9395600000E-01  2.6976900000E-01
                       4.0604400000E-01  4.0604400000E-01  7.3023100000E-01
                       5.0000000000E-01  5.0000000000E-01  5.0000000000E-01
            znucl       11.00000    7.00000

- Timing analysis has been suppressed with timopt=0

 Suggested references for the acknowledgment of ABINIT usage.

 Calculation completed.
.Delivered  14 WARNINGs and   9 COMMENTs to log file.