.Version 9.5.2 of ABINIT

 ABINIT is a project of the Universite Catholique de Louvain,
 Corning Inc. and other collaborators, see ~abinit/doc/developers/contributors.txt .
 acknowledgments of the ABINIT effort.

.Starting date : Mon 31 May 2021.
- ( at 22h06 )

- input  file    -> /scratch/users/j/a/jabreu/flow_simple_11atoms/flow/w344/t1/run.abi
- output file    -> /scratch/users/j/a/jabreu/flow_simple_11atoms/flow/w344/t1/run.abo
- root for input  files -> /scratch/users/j/a/jabreu/flow_simple_11atoms/flow/w344/t1/indata/in
- root for output files -> /scratch/users/j/a/jabreu/flow_simple_11atoms/flow/w344/t1/outdata/out

 Symmetries : space group C2/m (# 12); Bravais mC (1-face-center monocl.)
     intxc =       0      iscf =       7    lmnmax =      32     lnmax =       8
     mgfft =      60  mpssoang =       4    mqgrid =    3001     natom =      12
  nloc_mem =       1    nspden =       1   nspinor =       1    nsppol =       1
      nsym =       4    n1xccc =    2501    ntypat =       3    occopt =       1
   xclevel =       2
-    mband =          42        mffmem =           1         mkmem =           2
-   mkqmem =           2        mk1mem =           2           mpw =        9580
      nfft =      216000          nkpt =           2
  Rough estimation (10% accuracy) of disk space for files :

------------- Echo of variables that govern the present computation ------------
-
- outvars: echo of selected default values
-   iomode0 =  0 , fftalg0 =512 , wfoptalg0 =  0
-
- outvars: echo of global parameters not present in the input file
-  max_nthreads =    0
-
 -outvars: echo values of preprocessed input variables --------
            acell      1.0000000000E+00  1.0000000000E+00  1.0000000000E+00 Bohr
              amu      6.94100000E+00  1.86207000E+02  1.59994000E+01
             ecut      4.40000000E+01 Hartree
-          fftalg         512
           irdden           1
           irdwfk           1
           istwfk        0    1
              ixc     -116133
              kpt      5.00000000E-01 -5.00000000E-01  0.00000000E+00
                       5.00000000E-01  0.00000000E+00  5.00000000E-01
           kptopt           0
P           mkmem           2
P          mkqmem           2
P          mk1mem           2
            natom          12
            nband          42
           nbdbuf           4
            ngfft          60      60      60
             nkpt           2
            nstep        2000
             nsym           4
           ntypat           3
              occ      2.000000  2.000000  2.000000  2.000000  2.000000  2.000000
                       2.000000  2.000000  2.000000  2.000000  2.000000  2.000000
                       2.000000  2.000000  2.000000  2.000000  2.000000  2.000000
                       2.000000  2.000000  2.000000  2.000000  2.000000  2.000000
                       2.000000  2.000000  2.000000  2.000000  2.000000  2.000000
                       2.000000  2.000000  2.000000  0.000000  0.000000  0.000000
                       0.000000  0.000000  0.000000  0.000000  0.000000  0.000000
        optdriver           1
            prtwf          -1
            rfdir           1       1       1
           rfelfd           2
            rprim      9.3196561400E+00  0.0000000000E+00  1.6221620383E+00
                      -5.0559402284E+00  7.8290139209E+00  1.6221620383E+00
                       0.0000000000E+00  0.0000000000E+00  9.4266485730E+00
          spgroup          12
           symrel      1  0  0   0  1  0   0  0  1      -1  0  0   0 -1  0   0  0 -1
                       0 -1  0  -1  0  0   0  0 -1       0  1  0   1  0  0   0  0  1
           tolwfr      1.00000000E-20
            typat      1  1  1  1  1  2  3  3  3  3  3  3
           useylm           1
              wtk        0.50000    0.50000
           xangst      2.3933360304E+00  1.3824313670E+00  8.5841117931E-01
                      -1.3707474607E-01  2.7605043657E+00  8.5841117931E-01
                       1.1281306422E+00  2.0714678663E+00  3.3525949684E+00
                       3.5889504058E+00  7.3129444379E-01  3.3525949684E+00
                      -1.3326891215E+00  3.4116412889E+00  3.3525949684E+00
                       0.0000000000E+00  0.0000000000E+00  0.0000000000E+00
                      -6.4672913701E-01  1.5922752048E+00  4.2168261075E+00
                       1.6884494845E+00  3.2052650883E-01  4.2168261075E+00
                       5.6781179982E-01  3.8224092238E+00  2.4883638294E+00
                       2.9029904213E+00  2.5506605279E+00  2.4883638294E+00
                       5.1593024284E-01  9.4734854225E-01  1.5275472580E+00
                       1.7403310415E+00  3.1955871904E+00  5.1776426789E+00
            xcart      4.5227496414E+00  2.6124166812E+00  1.6221620383E+00
                      -2.5903372981E-01  5.2165972397E+00  1.6221620383E+00
                       2.1318579558E+00  3.9145069604E+00  6.3354863248E+00
                       6.7821333714E+00  1.3819462213E+00  6.3354863248E+00
                      -2.5184174598E+00  6.4470676996E+00  6.3354863248E+00
                       0.0000000000E+00  0.0000000000E+00  0.0000000000E+00
                      -1.2221409511E+00  3.0089640653E+00  7.9686464931E+00
                       3.1907071149E+00  6.0570732002E-01  7.9686464931E+00
                       1.0730087967E+00  7.2233066009E+00  4.7023261565E+00
                       5.4858568627E+00  4.8200498556E+00  4.7023261565E+00
                       9.7496686264E-01  1.7902292972E+00  2.8866459726E+00
                       3.2887490490E+00  6.0387846237E+00  9.7843266770E+00
             xred      6.6631600000E-01  3.3368400000E-01  1.3877787808E-17
                       3.3368400000E-01  6.6631600000E-01  3.4694469520E-18
                       5.0000000000E-01  5.0000000000E-01  5.0000000000E-01
                       8.2348400000E-01  1.7651600000E-01  5.0000000000E-01
                       1.7651600000E-01  8.2348400000E-01  5.0000000000E-01
                       0.0000000000E+00  0.0000000000E+00  0.0000000000E+00
                       7.7367000000E-02  3.8433500000E-01  7.6588100000E-01
                       3.8433500000E-01  7.7367000000E-02  7.6588100000E-01
                       6.1566500000E-01  9.2263300000E-01  2.3411900000E-01
                       9.2263300000E-01  6.1566500000E-01  2.3411900000E-01
                       2.2866600000E-01  2.2866600000E-01  2.2752300000E-01
                       7.7133400000E-01  7.7133400000E-01  7.7247700000E-01
            znucl        3.00000   75.00000    8.00000

 chkinp: Checking input parameters for consistency.

== DATASET  1 ==================================================================
-   mpi_nproc: 1, omp_nthreads: -1 (-1 if OMP is not activated)

--- !DatasetInfo
iteration_state: {dtset: 1, }
dimensions: {natom: 12, nkpt: 2, mband: 42, nsppol: 1, nspinor: 1, nspden: 1, mpw: 9580, }
cutoff_energies: {ecut:  44.0, pawecutdg:  -1.0, }
electrons: {nelect:   6.60000000E+01, charge:   0.00000000E+00, occopt:   1.00000000E+00, tsmear:   1.00000000E-02, }
meta: {optdriver: 1, rfelfd: 2, }
...

 Real(R)+Recip(G) space primitive vectors, cartesian coordinates (Bohr,Bohr^-1):
 R(1)=  9.3196561  0.0000000  1.6221620  G(1)=  0.1073001  0.0692939  0.0000000
 R(2)= -5.0559402  7.8290139  1.6221620  G(2)=  0.0000000  0.1277300  0.0000000
 R(3)=  0.0000000  0.0000000  9.4266486  G(3)= -0.0184645 -0.0339044  0.1060822
 Unit cell volume ucvol=  6.8780332E+02 bohr^3
 Angles (23,13,12)=  8.01261237E+01  8.01261237E+01  1.19811295E+02 degrees

 getcut: wavevector=  0.0000  0.0000  0.0000  ngfft=  60  60  60
         ecut(hartree)=     44.000   => boxcut(ratio)=   2.12414

--- Pseudopotential description ------------------------------------------------
- pspini: atom type   1  psp file is /scratch/users/j/a/jabreu/pseudos/PBEsol/Li.psp8
- pspatm: opening atomic psp file    /scratch/users/j/a/jabreu/pseudos/PBEsol/Li.psp8
- Li    ONCVPSP-3.3.0  r_core=   1.40824   1.10935
-  3.00000   3.00000    180112                znucl, zion, pspdat
    8 -116133    1    4       400   0.00000   pspcod,pspxc,lmax,lloc,mmax,r2well
    3.99000000000000    0.00000000000000    0.00000000000000   rchrg,fchrg,qchrg
     nproj     2     2
     extension_switch     1
  pspatm : epsatm=    2.60859637
         --- l  ekb(1:nproj) -->
             0   -4.855856   -1.482423
             1   -2.171544   -0.427615
 pspatm: atomic psp has been read  and splines computed

- pspini: atom type   2  psp file is /scratch/users/j/a/jabreu/pseudos/PBEsol/Re.psp8
- pspatm: opening atomic psp file    /scratch/users/j/a/jabreu/pseudos/PBEsol/Re.psp8
- Re    ONCVPSP-3.3.0  r_core=   1.60865   1.60865   1.60865   2.01786
- 75.00000  15.00000    180112                znucl, zion, pspdat
    8 -116133    3    4       600   0.00000   pspcod,pspxc,lmax,lloc,mmax,r2well
    5.99000000000000    4.00000000000000    0.00000000000000   rchrg,fchrg,qchrg
     nproj     2     2     2     2
     extension_switch     1
  pspatm : epsatm=   27.15024164
         --- l  ekb(1:nproj) -->
             0    6.422680   -0.851409
             1    2.864550   -2.626735
             2    1.691960    0.158400
             3   28.670581    0.305316
 pspatm: atomic psp has been read  and splines computed

- pspini: atom type   3  psp file is /scratch/users/j/a/jabreu/pseudos/PBEsol/O.psp8
- pspatm: opening atomic psp file    /scratch/users/j/a/jabreu/pseudos/PBEsol/O.psp8
- O     ONCVPSP-3.3.0  r_core=   1.35509   1.45563   1.26150
-  8.00000   6.00000    180112                znucl, zion, pspdat
    8 -116133    2    4       600   0.00000   pspcod,pspxc,lmax,lloc,mmax,r2well
    5.99000000000000    4.00000000000000    0.00000000000000   rchrg,fchrg,qchrg
     nproj     2     2     1
     extension_switch     1
  pspatm : epsatm=    6.22910522
         --- l  ekb(1:nproj) -->
             0    6.050032    0.820363
             1   -4.739617   -1.153841
             2   -1.335834
 pspatm: atomic psp has been read  and splines computed

   5.11947842E+03                                ecore*ucvol(ha*bohr**3)

 ==>  initialize data related to q vector <==

 The list of irreducible perturbations for this q vector is:
    1)    idir= 1    ipert=  13
    2)    idir= 2    ipert=  13
    3)    idir= 3    ipert=  13

 Perturbation wavevector (in red.coord.)   0.000000  0.000000  0.000000
 Perturbation : derivative vs k along direction   1

 dfpt_looppert : COMMENT -
  In a d/dk calculation, iscf is set to -3 automatically.
 The set of symmetries contains only one element for this perturbation.
 symkpt : not enough symmetry to change the number of k points.

 Initialisation of the first-order wave-functions :
  ireadwf=   0

--- !BeginCycle
iteration_state: {dtset: 1, }
solver: {iscf: 7, nstep: 2000, nline: 4, wfoptalg: 0, }
tolerances: {tolwfr: 1.00E-20, }
...

     iter   2DEtotal(Ha)        deltaE(Ha) residm    vres2
-ETOT  1  -45.172895865630     -4.517E+01 5.128E-02 0.000E+00
 ETOT  2  -45.192113683288     -1.922E-02 1.147E-02 0.000E+00
 ETOT  3  -45.192131176532     -1.749E-05 1.713E-04 0.000E+00
[...]
 ETOT  7  -45.192131221966     -7.105E-15 1.043E-08 0.000E+00
 ETOT  8  -45.192131221966      2.132E-14 3.156E-09 0.000E+00
 ETOT  9  -45.192131221966      0.000E+00 1.156E-10 0.000E+00
 ETOT 10  -45.192131221966      0.000E+00 3.603E-11 0.000E+00
 ETOT 11  -45.192131221966      1.421E-14 1.376E-12 0.000E+00
 ETOT 12  -45.192131221966     -1.421E-14 4.295E-13 0.000E+00
 ETOT 13  -45.192131221966      0.000E+00 1.663E-14 0.000E+00
 ETOT 14  -45.192131221966      0.000E+00 5.188E-15 0.000E+00
 ETOT 15  -45.192131221966      0.000E+00 2.018E-16 0.000E+00
 ETOT 16  -45.192131221966      1.421E-14 6.302E-17 0.000E+00
 ETOT 17  -45.192131221966      0.000E+00 2.456E-18 0.000E+00
 ETOT 18  -45.192131221966      0.000E+00 7.685E-19 0.000E+00
 ETOT 19  -45.192131221966     -2.132E-14 2.993E-20 0.000E+00
 ETOT 20  -45.192131221966      0.000E+00 9.510E-21 0.000E+00

 At SCF step   20   max residual=  9.51E-21 < tolwfr=  1.00E-20 =>converged.

 ----iterations are completed or convergence reached----

 dfpt_looppert: DFPT cycle converged with prtwf=-1. Will skip output of the 1st-order WFK file.
 dfpt_looppert : ek2=    8.5019693960E+01
          f-sum rule ratio=    1.0218674160E+00
 prteigrs : about to open file /scratch/users/j/a/jabreu/flow_simple_11atoms/flow/w344/t1/tmpdata/tmp_1WF1_EIG
 Expectation of eigenvalue derivatives (hartree) for nkpt=   2  k points:
  (in case of degenerate eigenvalues, averaged derivative)
 kpt#   1, nband= 42, wtk=  0.50000, kpt=  0.5000 -0.5000  0.0000 (reduced coord)
   0.00000    0.00000    0.00000    0.00000   -0.00000   -0.00000    0.00000   -0.00000
   0.00000    0.00000   -0.00000   -0.00000    0.00000   -0.00000    0.00000   -0.00000
  -0.00000   -0.00000    0.00000    0.00000   -0.00000    0.00000   -0.00000   -0.00000
   0.00000   -0.00000    0.00000    0.00000    0.00000    0.00000   -0.00000   -0.00000
   0.00000    0.00000   -0.00000    0.00000    0.00000    0.00000   -0.00000    0.00000
   0.00000   -0.08598
 prteigrs : prtvol=0 or 1, do not print more k-points.

 Eight components of 2nd-order total energy (hartree) are
 1,2,3: 0th-order hamiltonian combined with 1st-order wavefunctions
     kin0=   5.64779258E+01 eigvalue=   2.67845151E+00  local=  -2.17252674E+01
 4,5,6: 1st-order hamiltonian combined with 1st and 0th-order wfs
     kin1=  -8.68788550E+01  Hartree=   0.00000000E+00     xc=   0.00000000E+00
 7,8,9: eventually, occupation + non-local contributions
    edocc=   1.09639701E+01     enl0=  -3.20294880E+00   enl1=  -3.50540747E+00
 1-9 gives the relaxation energy (to be shifted if some occ is /=2.0)
   erelax=  -4.51921312E+01
  No Ewald or frozen-wf contrib.: the relaxation energy is the total one
 2DEtotal=   -0.4519213122E+02 Ha. Also 2DEtotal=   -0.122974043013E+04 eV
    (  non-var. 2DEtotal :   -4.5192131222E+01 Ha)

 Perturbation wavevector (in red.coord.)   0.000000  0.000000  0.000000
 Perturbation : derivative vs k along direction   2
 The set of symmetries contains only one element for this perturbation.
 symkpt : not enough symmetry to change the number of k points.

[...]

 Perturbation wavevector (in red.coord.)   0.000000  0.000000  0.000000
 Perturbation : derivative vs k along direction   3
 The set of symmetries contains only one element for this perturbation.
 symkpt : not enough symmetry to change the number of k points.

 Initialisation of the first-order wave-functions :
  ireadwf=   0

--- !BeginCycle
iteration_state: {dtset: 1, }
solver: {iscf: 7, nstep: 2000, nline: 4, wfoptalg: 0, }
tolerances: {tolwfr: 1.00E-20, }
...

     iter   2DEtotal(Ha)        deltaE(Ha) residm    vres2
-ETOT  1  -35.177727669023     -3.518E+01 5.752E-02 0.000E+00
 ETOT  2  -35.191481893053     -1.375E-02 1.200E-02 0.000E+00
 ETOT  3  -35.191494149811     -1.226E-05 1.898E-04 0.000E+00
 ETOT  4  -35.191494181810     -3.200E-08 5.059E-05 0.000E+00
 ETOT  5  -35.191494181941     -1.317E-10 1.215E-06 0.000E+00
 ETOT  6  -35.191494181942     -6.821E-13 3.545E-07 0.000E+00
 ETOT  7  -35.191494181942      0.000E+00 9.977E-09 0.000E+00
 ETOT  8  -35.191494181942     -2.132E-14 2.943E-09 0.000E+00
 ETOT  9  -35.191494181942      7.105E-15 9.429E-11 0.000E+00
 ETOT 10  -35.191494181942     -7.105E-15 2.812E-11 0.000E+00
 ETOT 11  -35.191494181942      0.000E+00 9.847E-13 0.000E+00
 ETOT 12  -35.191494181942      0.000E+00 2.946E-13 0.000E+00
 ETOT 13  -35.191494181942      0.000E+00 1.079E-14 0.000E+00
 ETOT 14  -35.191494181942      7.105E-15 3.220E-15 0.000E+00
 ETOT 15  -35.191494181942      0.000E+00 1.203E-16 0.000E+00
 ETOT 16  -35.191494181942     -7.105E-15 3.584E-17 0.000E+00
 ETOT 17  -35.191494181942      0.000E+00 1.351E-18 0.000E+00
 ETOT 18  -35.191494181942      0.000E+00 4.025E-19 0.000E+00
 ETOT 19  -35.191494181942      0.000E+00 1.524E-20 0.000E+00
 ETOT 20  -35.191494181942      0.000E+00 9.555E-21 0.000E+00

 At SCF step   20   max residual=  9.56E-21 < tolwfr=  1.00E-20 =>converged.

 ----iterations are completed or convergence reached----

 dfpt_looppert: DFPT cycle converged with prtwf=-1. Will skip output of the 1st-order WFK file.
 dfpt_looppert : ek2=    6.6410314739E+01
          f-sum rule ratio=    1.0196526578E+00
 prteigrs : about to open file /scratch/users/j/a/jabreu/flow_simple_11atoms/flow/w344/t1/tmpdata/tmp_1WF1_EIG
 Expectation of eigenvalue derivatives (hartree) for nkpt=   2  k points:
  (in case of degenerate eigenvalues, averaged derivative)
 kpt#   1, nband= 42, wtk=  0.50000, kpt=  0.5000 -0.5000  0.0000 (reduced coord)
   0.00000   -0.00000    0.00000   -0.00000   -0.00000    0.00000   -0.00000    0.00000
  -0.00000   -0.00000   -0.00000    0.00000   -0.00000    0.00000    0.00000   -0.00000
   0.00000   -0.00000    0.00000   -0.00000   -0.00000   -0.00000   -0.00000    0.00000
   0.00000   -0.00000   -0.00000    0.00000   -0.00000   -0.00000   -0.00000    0.00000
  -0.00000   -0.00000   -0.00000    0.00000    0.00000   -0.00000    0.00000   -0.00000
  -0.00000    0.00000
 prteigrs : prtvol=0 or 1, do not print more k-points.

 Eight components of 2nd-order total energy (hartree) are
 1,2,3: 0th-order hamiltonian combined with 1st-order wavefunctions
     kin0=   4.34435759E+01 eigvalue=   2.10402122E+00  local=  -1.65446586E+01
 4,5,6: 1st-order hamiltonian combined with 1st and 0th-order wfs
     kin1=  -6.77154539E+01  Hartree=   0.00000000E+00     xc=   0.00000000E+00
 7,8,9: eventually, occupation + non-local contributions
    edocc=   8.60740593E+00     enl0=  -2.41885027E+00   enl1=  -2.66753443E+00
 1-9 gives the relaxation energy (to be shifted if some occ is /=2.0)
   erelax=  -3.51914942E+01
  No Ewald or frozen-wf contrib.: the relaxation energy is the total one
 2DEtotal=   -0.3519149418E+02 Ha. Also 2DEtotal=   -0.957609256792E+03 eV
    (  non-var. 2DEtotal :   -3.5191494182E+01 Ha)

 CALCULATION OF EFFECTIVE MASSES
 NOTE : Additional infos (eff. mass eigenvalues, eigenvectors and, if degenerate, average mass) are available in stdout.

 K-point ( 0.500,-0.500, 0.000) | band =    33
 Effective mass tensor:
             -6.7679783839            -10.5554995039            -12.6099931925
            -10.5554995039            -20.4012534267            -23.1543071376
            -12.6099931925            -23.1543071376            -29.9978063500
 Effective mass tensor eigenvalues:
            -54.5093264331             -1.6383302759             -1.0193814517
 Angular average effective mass 1/(<1/m>)=  -1.8636896527
 Angular average effective mass for Frohlich model (<m**0.5>)**2=  -2.6350264926
 Effective masses along directions: (cart. coord. / red. coord. -> eff. mass)
    1:   1.000000  0.000000  0.000000 /   0.878984 -0.476851  0.000000 ->  -1.1998686415
    2:   0.000000  1.000000  0.000000 /   0.000000  1.000000  0.000000 ->  -2.0683889327
    3:   0.000000  0.000000  1.000000 /   0.167203  0.167203  0.971641 ->  -3.4150971645
    4:   0.577350  0.577350  0.577350 /   0.724794  0.291143  0.624428 -> -11.2421961848
    5:   0.000000  0.707107  0.707107 /   0.120635  0.702854  0.701030 ->  -7.7598541549
    6:   0.707107  0.000000  0.707107 /   0.737068 -0.231308  0.635002 ->  -2.3701260955
    7:   0.707107  0.707107  0.000000 /   0.958470  0.285194  0.000000 ->  -2.5806848520

 K-point ( 0.500, 0.000, 0.500) | band =    34
 Effective mass tensor:
              1.4110252693             -0.0219573913              0.0907123531
             -0.0219573913              1.5450163015             -0.2517079368
              0.0907123531             -0.2517079368              1.8342679477
 Effective mass tensor eigenvalues:
              1.3721486886              1.4244417666              1.9937190633
 Angular average effective mass 1/(<1/m>)=   1.5524827870
 Angular average effective mass for Frohlich model (<m**0.5>)**2=   1.5648315876
 Effective masses along directions: (cart. coord. / red. coord. -> eff. mass)
    1:   1.000000  0.000000  0.000000 /   0.878984 -0.476851  0.000000 ->   1.4064792903
    2:   0.000000  1.000000  0.000000 /   0.000000  1.000000  0.000000 ->   1.5104113177
    3:   0.000000  0.000000  1.000000 /   0.167203  0.167203  0.971641 ->   1.7878786347
    4:   0.577350  0.577350  0.577350 /   0.724794  0.291143  0.624428 ->   1.4609139817
    5:   0.000000  0.707107  0.707107 /   0.120635  0.702854  0.701030 ->   1.4258658403
    6:   0.707107  0.000000  0.707107 /   0.737068 -0.231308  0.635002 ->   1.6649707929
    7:   0.707107  0.707107  0.000000 /   0.958470  0.285194  0.000000 ->   1.4471583296

 END OF EFFECTIVE MASSES SECTION

 ---- first-order wavefunction calculations are completed ----

 Total localisation tensor (bohr^2) in cartesian coordinates
  WARNING : still subject to testing - especially symmetries.
      direction              matrix element
   alpha     beta       real part   imaginary part
     1        1       1.3291510176    0.0000000000
     1        2      -0.4650176543    0.0000000000
     1        3       0.0827277320    0.0000000000
     2        1      -0.4650176543    0.0000000000
     2        2       0.7200697644    0.0000000000
     2        3       0.1491975680    0.0000000000
     3        1       0.0827277320    0.0000000000
     3        2       0.1491975680    0.0000000000
     3        3       0.8790134590    0.0000000000

 respfn : d/dk was computed, but no 2DTE, so no DDB output.

== END DATASET(S) ==============================================================

 -outvars: echo values of variables after computation  --------
            acell      1.0000000000E+00  1.0000000000E+00  1.0000000000E+00 Bohr
              amu      6.94100000E+00  1.86207000E+02  1.59994000E+01
             ecut      4.40000000E+01 Hartree
           etotal     -3.5191494182E+01
            fcart      0.0000000000E+00  0.0000000000E+00  0.0000000000E+00
                       0.0000000000E+00  0.0000000000E+00  0.0000000000E+00
                       0.0000000000E+00  0.0000000000E+00  0.0000000000E+00
                       0.0000000000E+00  0.0000000000E+00  0.0000000000E+00
                       0.0000000000E+00  0.0000000000E+00  0.0000000000E+00
                       0.0000000000E+00  0.0000000000E+00  0.0000000000E+00
                       0.0000000000E+00  0.0000000000E+00  0.0000000000E+00
                       0.0000000000E+00  0.0000000000E+00  0.0000000000E+00
                       0.0000000000E+00  0.0000000000E+00  0.0000000000E+00
                       0.0000000000E+00  0.0000000000E+00  0.0000000000E+00
                       0.0000000000E+00  0.0000000000E+00  0.0000000000E+00
                       0.0000000000E+00  0.0000000000E+00  0.0000000000E+00
-          fftalg         512
           irdden           1
           irdwfk           1
           istwfk        0    1
              ixc     -116133
              kpt      5.00000000E-01 -5.00000000E-01  0.00000000E+00
                       5.00000000E-01  0.00000000E+00  5.00000000E-01
           kptopt           0
P           mkmem           2
P          mkqmem           2
P          mk1mem           2
            natom          12
            nband          42
           nbdbuf           4
            ngfft          60      60      60
             nkpt           2
            nstep        2000
             nsym           4
           ntypat           3
              occ      2.000000  2.000000  2.000000  2.000000  2.000000  2.000000
                       2.000000  2.000000  2.000000  2.000000  2.000000  2.000000
                       2.000000  2.000000  2.000000  2.000000  2.000000  2.000000
                       2.000000  2.000000  2.000000  2.000000  2.000000  2.000000
                       2.000000  2.000000  2.000000  2.000000  2.000000  2.000000
                       2.000000  2.000000  2.000000  0.000000  0.000000  0.000000
                       0.000000  0.000000  0.000000  0.000000  0.000000  0.000000
        optdriver           1
            prtwf          -1
            rfdir           1       1       1
           rfelfd           2
            rprim      9.3196561400E+00  0.0000000000E+00  1.6221620383E+00
                      -5.0559402284E+00  7.8290139209E+00  1.6221620383E+00
                       0.0000000000E+00  0.0000000000E+00  9.4266485730E+00
          spgroup          12
           strten      0.0000000000E+00  0.0000000000E+00  0.0000000000E+00
                       0.0000000000E+00  0.0000000000E+00  0.0000000000E+00
           symrel      1  0  0   0  1  0   0  0  1      -1  0  0   0 -1  0   0  0 -1
                       0 -1  0  -1  0  0   0  0 -1       0  1  0   1  0  0   0  0  1
           tolwfr      1.00000000E-20
            typat      1  1  1  1  1  2  3  3  3  3  3  3
           useylm           1
              wtk        0.50000    0.50000
           xangst      2.3933360304E+00  1.3824313670E+00  8.5841117931E-01
                      -1.3707474607E-01  2.7605043657E+00  8.5841117931E-01
                       1.1281306422E+00  2.0714678663E+00  3.3525949684E+00
                       3.5889504058E+00  7.3129444379E-01  3.3525949684E+00
                      -1.3326891215E+00  3.4116412889E+00  3.3525949684E+00
                       0.0000000000E+00  0.0000000000E+00  0.0000000000E+00
                      -6.4672913701E-01  1.5922752048E+00  4.2168261075E+00
                       1.6884494845E+00  3.2052650883E-01  4.2168261075E+00
                       5.6781179982E-01  3.8224092238E+00  2.4883638294E+00
                       2.9029904213E+00  2.5506605279E+00  2.4883638294E+00
                       5.1593024284E-01  9.4734854225E-01  1.5275472580E+00
                       1.7403310415E+00  3.1955871904E+00  5.1776426789E+00
            xcart      4.5227496414E+00  2.6124166812E+00  1.6221620383E+00
                      -2.5903372981E-01  5.2165972397E+00  1.6221620383E+00
                       2.1318579558E+00  3.9145069604E+00  6.3354863248E+00
                       6.7821333714E+00  1.3819462213E+00  6.3354863248E+00
                      -2.5184174598E+00  6.4470676996E+00  6.3354863248E+00
                       0.0000000000E+00  0.0000000000E+00  0.0000000000E+00
                      -1.2221409511E+00  3.0089640653E+00  7.9686464931E+00
                       3.1907071149E+00  6.0570732002E-01  7.9686464931E+00
                       1.0730087967E+00  7.2233066009E+00  4.7023261565E+00
                       5.4858568627E+00  4.8200498556E+00  4.7023261565E+00
                       9.7496686264E-01  1.7902292972E+00  2.8866459726E+00
                       3.2887490490E+00  6.0387846237E+00  9.7843266770E+00
             xred      6.6631600000E-01  3.3368400000E-01  1.3877787808E-17
                       3.3368400000E-01  6.6631600000E-01  3.4694469520E-18
                       5.0000000000E-01  5.0000000000E-01  5.0000000000E-01
                       8.2348400000E-01  1.7651600000E-01  5.0000000000E-01
                       1.7651600000E-01  8.2348400000E-01  5.0000000000E-01
                       0.0000000000E+00  0.0000000000E+00  0.0000000000E+00
                       7.7367000000E-02  3.8433500000E-01  7.6588100000E-01
                       3.8433500000E-01  7.7367000000E-02  7.6588100000E-01
                       6.1566500000E-01  9.2263300000E-01  2.3411900000E-01
                       9.2263300000E-01  6.1566500000E-01  2.3411900000E-01
                       2.2866600000E-01  2.2866600000E-01  2.2752300000E-01
                       7.7133400000E-01  7.7133400000E-01  7.7247700000E-01
            znucl        3.00000   75.00000    8.00000

- Timing analysis has been suppressed with timopt=0

 Suggested references for the acknowledgment of ABINIT usage.

 Calculation completed.
.Delivered   2 WARNINGs and   5 COMMENTs to log file.