.Version 9.5.1 of ABINIT

 ABINIT is a project of the Universite Catholique de Louvain,
 Corning Inc. and other collaborators, see ~abinit/doc/developers/contributors.txt .
 acknowledgments of the ABINIT effort.

.Starting date : Sat  1 May 2021.
- ( at 04h37 )

- input  file    -> /scratch/users/j/a/jabreu/flow_simple_6atoms/flow/w139/t1/run.abi
- output file    -> /scratch/users/j/a/jabreu/flow_simple_6atoms/flow/w139/t1/run.abo
- root for input  files -> /scratch/users/j/a/jabreu/flow_simple_6atoms/flow/w139/t1/indata/in
- root for output files -> /scratch/users/j/a/jabreu/flow_simple_6atoms/flow/w139/t1/outdata/out

 Symmetries : space group I-4 (# 82); Bravais tI (body-center tetrag.)
     intxc =       0      iscf =       7    lmnmax =      18     lnmax =       6
     mgfft =      54  mpssoang =       3    mqgrid =    3001     natom =       6
  nloc_mem =       1    nspden =       1   nspinor =       1    nsppol =       1
      nsym =       4    n1xccc =    2501    ntypat =       3    occopt =       1
   xclevel =       2
-    mband =          26        mffmem =           1         mkmem =           2
-   mkqmem =           2        mk1mem =           2           mpw =        6727
      nfft =      157464          nkpt =           2
  Rough estimation (10% accuracy) of disk space for files :

------------- Echo of variables that govern the present computation ------------
-
- outvars: echo of selected default values
-   iomode0 =  0 , fftalg0 =512 , wfoptalg0 =  0
-
- outvars: echo of global parameters not present in the input file
-  max_nthreads =    0
-
 -outvars: echo values of preprocessed input variables --------
            acell      1.0000000000E+00  1.0000000000E+00  1.0000000000E+00 Bohr
              amu      9.01218200E+00  3.20660000E+01  1.59994000E+01
             ecut      4.40000000E+01 Hartree
-          fftalg         512
           irdden           1
           irdwfk           1
           istwfk        1    1
              ixc     -116133
              kpt      0.00000000E+00  5.00000000E-01 -5.55111512E-17
                       0.00000000E+00  0.00000000E+00  0.00000000E+00
           kptopt           0
P           mkmem           2
P          mkqmem           2
P          mk1mem           2
            natom           6
            nband          26
           nbdbuf           4
            ngfft          54      54      54
             nkpt           2
            nstep        1000
             nsym           4
           ntypat           3
              occ      2.000000  2.000000  2.000000  2.000000  2.000000  2.000000
                       2.000000  2.000000  2.000000  2.000000  2.000000  2.000000
                       2.000000  2.000000  2.000000  2.000000  2.000000  0.000000
                       0.000000  0.000000  0.000000  0.000000  0.000000  0.000000
                       0.000000  0.000000
        optdriver           1
            prtwf          -1
            rfdir           1       1       1
           rfelfd           2
            rprim      7.5193347292E+00  0.0000000000E+00 -4.7949544906E+00
                      -2.2608498093E+00  7.1713982534E+00 -4.7949544906E+00
                       0.0000000000E+00  0.0000000000E+00  8.9180706062E+00
          spgroup          82
           symrel      1  0  0   0  1  0   0  0  1       0  1  0   1  0  0  -1 -1 -1
                       0  0  1  -1 -1 -1   0  1  0      -1 -1 -1   0  0  1   1  0  0
           tolwfr      1.00000000E-20
            typat      1  2  3  3  3  3
           useylm           1
              wtk        0.50000    0.50000
           xangst      2.6851978741E+00  9.4873512736E-01 -1.7776077795E-01
                       1.3913351857E+00  1.8974702547E+00 -2.5373806327E+00
                       9.1972793881E-01  3.2415328735E+00 -2.9242577869E+00
                       2.8378448214E-01  9.4040997661E-01  1.9922312437E+00
                       1.8305969901E+00  1.9431338251E+00 -1.1289930593E+00
                       2.5312313316E+00  1.4648043436E+00  1.3499764908E+00
            xcart      5.0742885946E+00  1.7928495633E+00 -3.3591918750E-01
                       2.6292424599E+00  3.5856991267E+00 -4.7949544906E+00
                       1.7380339211E+00  6.1256093818E+00 -5.5260463592E+00
                       5.3627495200E-01  1.7771173084E+00  3.7647714439E+00
                       3.4593269711E+00  3.6719907690E+00 -2.1334876881E+00
                       4.7833339956E+00  2.7680790476E+00  2.5510858534E+00
             xred      7.5000000000E-01  2.5000000000E-01  5.0000000000E-01
                       5.0000000000E-01  5.0000000000E-01 -1.3877787808E-17
                       4.8796725000E-01  8.5417225000E-01  1.0197850000E-01
                       1.4582775000E-01  2.4780625000E-01  6.3379500000E-01
                       6.1401125000E-01  5.1203275000E-01  3.6620500000E-01
                       7.5219375000E-01  3.8598875000E-01  8.9802150000E-01
            znucl        4.00000   16.00000    8.00000

 chkinp: Checking input parameters for consistency.

== DATASET  1 ==================================================================
-   mpi_nproc: 1, omp_nthreads: -1 (-1 if OMP is not activated)

--- !DatasetInfo
iteration_state: {dtset: 1, }
dimensions: {natom: 6, nkpt: 2, mband: 26, nsppol: 1, nspinor: 1, nspden: 1, mpw: 6727, }
cutoff_energies: {ecut:  44.0, pawecutdg:  -1.0, }
electrons: {nelect:   3.40000000E+01, charge:   0.00000000E+00, occopt:   1.00000000E+00, tsmear:   1.00000000E-02, }
meta: {optdriver: 1, rfelfd: 2, }
...

 Real(R)+Recip(G) space primitive vectors, cartesian coordinates (Bohr,Bohr^-1):
 R(1)=  7.5193347  0.0000000 -4.7949545  G(1)=  0.1329905  0.0419265  0.0000000
 R(2)= -2.2608498  7.1713983 -4.7949545  G(2)=  0.0000000  0.1394428  0.0000000
 R(3)=  0.0000000  0.0000000  8.9180706  G(3)=  0.0715046  0.0975163  0.1121319
 Unit cell volume ucvol=  4.8089932E+02 bohr^3
 Angles (23,13,12)=  1.22524979E+02  1.22524979E+02  8.56795580E+01 degrees

 getcut: wavevector=  0.0000  0.0000  0.0000  ngfft=  54  54  54
         ecut(hartree)=     44.000   => boxcut(ratio)=   2.02858

--- Pseudopotential description ------------------------------------------------
- pspini: atom type   1  psp file is /scratch/users/j/a/jabreu/pseudos/PBEsol/Be.psp8
- pspatm: opening atomic psp file    /scratch/users/j/a/jabreu/pseudos/PBEsol/Be.psp8
- Be    ONCVPSP-3.3.0  r_core=   1.35684   1.10780
-  4.00000   4.00000    180112                znucl, zion, pspdat
    8 -116133    1    4       400   0.00000   pspcod,pspxc,lmax,lloc,mmax,r2well
    3.99000000000000    0.00000000000000    0.00000000000000   rchrg,fchrg,qchrg
     nproj     2     2
     extension_switch     1
  pspatm : epsatm=    3.86293307
         --- l  ekb(1:nproj) -->
             0   -7.966826   -2.672546
             1   -3.431835   -0.651830
 pspatm: atomic psp has been read  and splines computed

- pspini: atom type   2  psp file is /scratch/users/j/a/jabreu/pseudos/PBEsol/S.psp8
- pspatm: opening atomic psp file    /scratch/users/j/a/jabreu/pseudos/PBEsol/S.psp8
- S     ONCVPSP-3.3.0  r_core=   1.45376   1.45376   1.61851
- 16.00000   6.00000    180112                znucl, zion, pspdat
    8 -116133    2    4       600   0.00000   pspcod,pspxc,lmax,lloc,mmax,r2well
    5.99000000000000    6.00000000000000    0.00000000000000   rchrg,fchrg,qchrg
     nproj     2     2     2
     extension_switch     1
  pspatm : epsatm=    8.71840985
         --- l  ekb(1:nproj) -->
             0    6.834532    0.579453
             1    3.282851    0.896984
             2   -3.496974   -0.974265
 pspatm: atomic psp has been read  and splines computed

- pspini: atom type   3  psp file is /scratch/users/j/a/jabreu/pseudos/PBEsol/O.psp8
- pspatm: opening atomic psp file    /scratch/users/j/a/jabreu/pseudos/PBEsol/O.psp8
- O     ONCVPSP-3.3.0  r_core=   1.35509   1.45563   1.26150
-  8.00000   6.00000    180112                znucl, zion, pspdat
    8 -116133    2    4       600   0.00000   pspcod,pspxc,lmax,lloc,mmax,r2well
    5.99000000000000    4.00000000000000    0.00000000000000   rchrg,fchrg,qchrg
     nproj     2     2     1
     extension_switch     1
  pspatm : epsatm=    6.22910522
         --- l  ekb(1:nproj) -->
             0    6.050032    0.820363
             1   -4.739617   -1.153841
             2   -1.335834
 pspatm: atomic psp has been read  and splines computed

   1.27492397E+03                                ecore*ucvol(ha*bohr**3)

-inwffil : will read wavefunctions from disk file /scratch/users/j/a/jabreu/flow_simple_6atoms/flow/w139/t1/indata/in_WFK

 ==>  initialize data related to q vector <==

 The list of irreducible perturbations for this q vector is:
    1)    idir= 1    ipert=   7
    2)    idir= 2    ipert=   7
    3)    idir= 3    ipert=   7

 Perturbation wavevector (in red.coord.)   0.000000  0.000000  0.000000
 Perturbation : derivative vs k along direction   1

 dfpt_looppert : COMMENT -
  In a d/dk calculation, iscf is set to -3 automatically.
 The set of symmetries contains only one element for this perturbation.
 symkpt : not enough symmetry to change the number of k points.

[...]

 Initialisation of the first-order wave-functions :
  ireadwf=   0

--- !BeginCycle
iteration_state: {dtset: 1, }
solver: {iscf: 7, nstep: 1000, nline: 4, wfoptalg: 0, }
tolerances: {tolwfr: 1.00E-20, }
...

     iter   2DEtotal(Ha)        deltaE(Ha) residm    vres2
-ETOT  1  -27.138526973415     -2.714E+01 7.375E-02 0.000E+00
 ETOT  2  -27.158010841783     -1.948E-02 2.463E-03 0.000E+00
 ETOT  3  -27.158049978548     -3.914E-05 2.904E-05 0.000E+00
 ETOT  4  -27.158050106670     -1.281E-07 2.187E-06 0.000E+00
 ETOT  5  -27.158050107224     -5.540E-10 5.878E-08 0.000E+00
 ETOT  6  -27.158050107227     -2.874E-12 4.179E-09 0.000E+00
 ETOT  7  -27.158050107227      1.066E-14 1.933E-10 0.000E+00
 ETOT  8  -27.158050107227     -5.329E-14 1.392E-11 0.000E+00
 ETOT  9  -27.158050107227      3.553E-15 7.474E-13 0.000E+00
 ETOT 10  -27.158050107227     -3.553E-15 5.615E-14 0.000E+00
 ETOT 11  -27.158050107227      0.000E+00 3.044E-15 0.000E+00
 ETOT 12  -27.158050107227      3.553E-15 2.340E-16 0.000E+00
 ETOT 13  -27.158050107227     -7.105E-15 1.256E-17 0.000E+00
 ETOT 14  -27.158050107227     -1.066E-14 9.920E-19 0.000E+00
 ETOT 15  -27.158050107227      1.066E-14 5.223E-20 0.000E+00
 ETOT 16  -27.158050107227      0.000E+00 9.995E-21 0.000E+00

 At SCF step   16   max residual=  9.99E-21 < tolwfr=  1.00E-20 =>converged.

 ----iterations are completed or convergence reached----

 dfpt_looppert: DFPT cycle converged with prtwf=-1. Will skip output of the 1st-order WFK file.
 dfpt_looppert : ek2=    5.2198853860E+01
          f-sum rule ratio=    1.0278841601E+00
 prteigrs : about to open file /scratch/users/j/a/jabreu/flow_simple_6atoms/flow/w139/t1/tmpdata/tmp_1WF1_EIG
 Expectation of eigenvalue derivatives (hartree) for nkpt=   2  k points:
  (in case of degenerate eigenvalues, averaged derivative)
 kpt#   1, nband= 26, wtk=  0.50000, kpt=  0.0000  0.5000  0.0000 (reduced coord)
  -0.00000   -0.00000    0.00000    0.00000    0.00000   -0.00000    0.00000   -0.00000
  -0.00000   -0.00000   -0.00000    0.00000    0.00000   -0.00000   -0.00000   -0.00000
   0.00000   -0.00000    0.00000   -0.00000    0.00000    0.00000    0.00000    0.00000
   0.00000   -0.00000
 prteigrs : prtvol=0 or 1, do not print more k-points.

 Eight components of 2nd-order total energy (hartree) are
 1,2,3: 0th-order hamiltonian combined with 1st-order wavefunctions
     kin0=   3.14957820E+01 eigvalue=   2.58248889E+00  local=  -1.27651142E+01
 4,5,6: 1st-order hamiltonian combined with 1st and 0th-order wfs
     kin1=  -5.36543751E+01  Hartree=   0.00000000E+00     xc=   0.00000000E+00
 7,8,9: eventually, occupation + non-local contributions
    edocc=   8.39619976E+00     enl0=  -2.55130636E+00   enl1=  -6.61725158E-01
 1-9 gives the relaxation energy (to be shifted if some occ is /=2.0)
   erelax=  -2.71580501E+01
  No Ewald or frozen-wf contrib.: the relaxation energy is the total one
 2DEtotal=   -0.2715805011E+02 Ha. Also 2DEtotal=   -0.739008126357E+03 eV
    (  non-var. 2DEtotal :   -2.7158050107E+01 Ha)

 Perturbation wavevector (in red.coord.)   0.000000  0.000000  0.000000
 Perturbation : derivative vs k along direction   2
 The set of symmetries contains only one element for this perturbation.
 symkpt : not enough symmetry to change the number of k points.

[...]

 Perturbation wavevector (in red.coord.)   0.000000  0.000000  0.000000
 Perturbation : derivative vs k along direction   3
 The set of symmetries contains only one element for this perturbation.
 symkpt : not enough symmetry to change the number of k points.

-inwffil : will read wavefunctions from disk file /scratch/users/j/a/jabreu/flow_simple_6atoms/flow/w139/t1/indata/in_WFK

 Initialisation of the first-order wave-functions :
  ireadwf=   0

--- !BeginCycle
iteration_state: {dtset: 1, }
solver: {iscf: 7, nstep: 1000, nline: 4, wfoptalg: 0, }
tolerances: {tolwfr: 1.00E-20, }
...

     iter   2DEtotal(Ha)        deltaE(Ha) residm    vres2
-ETOT  1  -37.807468812275     -3.781E+01 1.358E-01 0.000E+00
 ETOT  2  -37.834909701207     -2.744E-02 2.848E-03 0.000E+00
 ETOT  3  -37.834961319321     -5.162E-05 5.681E-05 0.000E+00
 ETOT  4  -37.834961505575     -1.863E-07 2.918E-06 0.000E+00
 ETOT  5  -37.834961506439     -8.643E-10 8.902E-08 0.000E+00
 ETOT  6  -37.834961506444     -4.611E-12 5.401E-09 0.000E+00
 ETOT  7  -37.834961506444     -7.105E-15 1.878E-10 0.000E+00
 ETOT  8  -37.834961506444      7.105E-15 1.119E-11 0.000E+00
 ETOT  9  -37.834961506444     -7.105E-15 4.504E-13 0.000E+00
 ETOT 10  -37.834961506444      1.421E-14 2.462E-14 0.000E+00
 ETOT 11  -37.834961506444      0.000E+00 1.138E-15 0.000E+00
 ETOT 12  -37.834961506444      0.000E+00 5.619E-17 0.000E+00
 ETOT 13  -37.834961506444      7.105E-15 2.940E-18 0.000E+00
 ETOT 14  -37.834961506444     -7.105E-15 1.423E-19 0.000E+00
 ETOT 15  -37.834961506444     -7.105E-15 9.817E-21 0.000E+00

 At SCF step   15   max residual=  9.82E-21 < tolwfr=  1.00E-20 =>converged.

 ----iterations are completed or convergence reached----

 dfpt_looppert: DFPT cycle converged with prtwf=-1. Will skip output of the 1st-order WFK file.
 dfpt_looppert : ek2=    7.3008290132E+01
          f-sum rule ratio=    1.0223441382E+00
 prteigrs : about to open file /scratch/users/j/a/jabreu/flow_simple_6atoms/flow/w139/t1/tmpdata/tmp_1WF1_EIG
 Expectation of eigenvalue derivatives (hartree) for nkpt=   2  k points:
  (in case of degenerate eigenvalues, averaged derivative)
 kpt#   1, nband= 26, wtk=  0.50000, kpt=  0.0000  0.5000  0.0000 (reduced coord)
  -0.00000   -0.00000    0.00000    0.00000    0.00000   -0.00000   -0.00000   -0.00000
   0.00000   -0.00000   -0.00000    0.00000    0.00000   -0.00000    0.00000   -0.00000
   0.00000   -0.00000    0.00000    0.00000   -0.00000   -0.00000    0.00000   -0.00000
  -0.00000   -0.00000
 prteigrs : prtvol=0 or 1, do not print more k-points.

 Eight components of 2nd-order total energy (hartree) are
 1,2,3: 0th-order hamiltonian combined with 1st-order wavefunctions
     kin0=   4.39331395E+01 eigvalue=   3.61257055E+00  local=  -1.78655070E+01
 4,5,6: 1st-order hamiltonian combined with 1st and 0th-order wfs
     kin1=  -7.46395975E+01  Hartree=   0.00000000E+00     xc=   0.00000000E+00
 7,8,9: eventually, occupation + non-local contributions
    edocc=   1.17267289E+01     enl0=  -3.57197053E+00   enl1=  -1.03032555E+00
 1-9 gives the relaxation energy (to be shifted if some occ is /=2.0)
   erelax=  -3.78349615E+01
  No Ewald or frozen-wf contrib.: the relaxation energy is the total one
 2DEtotal=   -0.3783496151E+02 Ha. Also 2DEtotal=   -0.102954166088E+04 eV
    (  non-var. 2DEtotal :   -3.7834961506E+01 Ha)

 CALCULATION OF EFFECTIVE MASSES
 NOTE : Additional infos (eff. mass eigenvalues, eigenvectors and, if degenerate, average mass) are available in stdout.

 K-point ( 0.000, 0.500,-0.000) | band =    17
 Effective mass tensor:
             -6.9221380916              5.5161000772             -2.9279266841
              5.5161000772            -15.4004546990              2.9144920942
             -2.9279266841              2.9144920942             -4.8901874537
 Effective mass tensor eigenvalues:
            -19.1950200136             -5.3130386440             -2.7047215866
 Angular average effective mass 1/(<1/m>)=  -4.9177354853
 Angular average effective mass for Frohlich model (<m**0.5>)**2=  -5.7326521235
 Effective masses along directions: (cart. coord. / red. coord. -> eff. mass)
    1:   1.000000  0.000000  0.000000 /   0.957649 -0.287938  0.000000 ->  -4.1282704270
    2:   0.000000  1.000000  0.000000 /   0.000000  1.000000  0.000000 -> -10.9122641200
    3:   0.000000  0.000000  1.000000 /  -0.427993 -0.427993  0.796018 ->  -3.6210279428
    4:   0.577350  0.577350  0.577350 /   0.292139  0.012395  0.956296 ->  -5.3328802612
    5:   0.000000  0.707107  0.707107 /  -0.461030  0.228493  0.857463 ->  -5.0380418170
    6:   0.707107  0.000000  0.707107 /   0.232982 -0.603394  0.762650 ->  -6.4930549108
    7:   0.707107  0.707107  0.000000 /   0.837272  0.546786  0.000000 ->  -4.2773098828

 K-point ( 0.000, 0.000, 0.000) | band =    18
 Effective mass tensor:
              0.6178499309              0.0036099294             -0.0048274729
              0.0036099294              0.6201258888             -0.0065834389
             -0.0048274729             -0.0065834389              0.6240067614
 Effective mass tensor eigenvalues:
              0.6152028613              0.6152028749              0.6315768449
 Angular average effective mass 1/(<1/m>)=   0.6205657037
 Angular average effective mass for Frohlich model (<m**0.5>)**2=   0.6205941180
 Effective masses along directions: (cart. coord. / red. coord. -> eff. mass)
    1:   1.000000  0.000000  0.000000 /   0.957649 -0.287938  0.000000 ->   0.6177921564
    2:   0.000000  1.000000  0.000000 /   0.000000  1.000000  0.000000 ->   0.6200359296
    3:   0.000000  0.000000  1.000000 /  -0.427993 -0.427993  0.796018 ->   0.6238997462
    4:   0.577350  0.577350  0.577350 /   0.292139  0.012395  0.956296 ->   0.6154536361
    5:   0.000000  0.707107  0.707107 /  -0.461030  0.228493  0.857463 ->   0.6154757477
    6:   0.707107  0.000000  0.707107 /   0.232982 -0.603394  0.762650 ->   0.6160788374
    7:   0.707107  0.707107  0.000000 /   0.837272  0.546786  0.000000 ->   0.6224914609

 END OF EFFECTIVE MASSES SECTION

 ---- first-order wavefunction calculations are completed ----

 Total localisation tensor (bohr^2) in cartesian coordinates
  WARNING : still subject to testing - especially symmetries.
      direction              matrix element
   alpha     beta       real part   imaginary part
     1        1       0.6995623560    0.0000000000
     1        2      -0.1787104997    0.0000000000
     1        3      -0.2906823221    0.0000000000
     2        1      -0.1787104997    0.0000000000
     2        2       0.5668683343    0.0000000000
     2        3      -0.3790206273    0.0000000000
     3        1      -0.2906823221    0.0000000000
     3        2      -0.3790206273    0.0000000000
     3        3       1.7678324656    0.0000000000

 respfn : d/dk was computed, but no 2DTE, so no DDB output.

== END DATASET(S) ==============================================================

 -outvars: echo values of variables after computation  --------
            acell      1.0000000000E+00  1.0000000000E+00  1.0000000000E+00 Bohr
              amu      9.01218200E+00  3.20660000E+01  1.59994000E+01
             ecut      4.40000000E+01 Hartree
           etotal     -3.7834961506E+01
            fcart      0.0000000000E+00  0.0000000000E+00  0.0000000000E+00
                       0.0000000000E+00  0.0000000000E+00  0.0000000000E+00
                       0.0000000000E+00  0.0000000000E+00  0.0000000000E+00
                       0.0000000000E+00  0.0000000000E+00  0.0000000000E+00
                       0.0000000000E+00  0.0000000000E+00  0.0000000000E+00
                       0.0000000000E+00  0.0000000000E+00  0.0000000000E+00
-          fftalg         512
           irdden           1
           irdwfk           1
           istwfk        1    1
              ixc     -116133
              kpt      0.00000000E+00  5.00000000E-01 -5.55111512E-17
                       0.00000000E+00  0.00000000E+00  0.00000000E+00
           kptopt           0
P           mkmem           2
P          mkqmem           2
P          mk1mem           2
            natom           6
            nband          26
           nbdbuf           4
            ngfft          54      54      54
             nkpt           2
            nstep        1000
             nsym           4
           ntypat           3
              occ      2.000000  2.000000  2.000000  2.000000  2.000000  2.000000
                       2.000000  2.000000  2.000000  2.000000  2.000000  2.000000
                       2.000000  2.000000  2.000000  2.000000  2.000000  0.000000
                       0.000000  0.000000  0.000000  0.000000  0.000000  0.000000
                       0.000000  0.000000
        optdriver           1
            prtwf          -1
            rfdir           1       1       1
           rfelfd           2
            rprim      7.5193347292E+00  0.0000000000E+00 -4.7949544906E+00
                      -2.2608498093E+00  7.1713982534E+00 -4.7949544906E+00
                       0.0000000000E+00  0.0000000000E+00  8.9180706062E+00
          spgroup          82
           strten      0.0000000000E+00  0.0000000000E+00  0.0000000000E+00
                       0.0000000000E+00  0.0000000000E+00  0.0000000000E+00
           symrel      1  0  0   0  1  0   0  0  1       0  1  0   1  0  0  -1 -1 -1
                       0  0  1  -1 -1 -1   0  1  0      -1 -1 -1   0  0  1   1  0  0
           tolwfr      1.00000000E-20
            typat      1  2  3  3  3  3
           useylm           1
              wtk        0.50000    0.50000
           xangst      2.6851978741E+00  9.4873512736E-01 -1.7776077795E-01
                       1.3913351857E+00  1.8974702547E+00 -2.5373806327E+00
                       9.1972793881E-01  3.2415328735E+00 -2.9242577869E+00
                       2.8378448214E-01  9.4040997661E-01  1.9922312437E+00
                       1.8305969901E+00  1.9431338251E+00 -1.1289930593E+00
                       2.5312313316E+00  1.4648043436E+00  1.3499764908E+00
            xcart      5.0742885946E+00  1.7928495633E+00 -3.3591918750E-01
                       2.6292424599E+00  3.5856991267E+00 -4.7949544906E+00
                       1.7380339211E+00  6.1256093818E+00 -5.5260463592E+00
                       5.3627495200E-01  1.7771173084E+00  3.7647714439E+00
                       3.4593269711E+00  3.6719907690E+00 -2.1334876881E+00
                       4.7833339956E+00  2.7680790476E+00  2.5510858534E+00
             xred      7.5000000000E-01  2.5000000000E-01  5.0000000000E-01
                       5.0000000000E-01  5.0000000000E-01 -1.3877787808E-17
                       4.8796725000E-01  8.5417225000E-01  1.0197850000E-01
                       1.4582775000E-01  2.4780625000E-01  6.3379500000E-01
                       6.1401125000E-01  5.1203275000E-01  3.6620500000E-01
                       7.5219375000E-01  3.8598875000E-01  8.9802150000E-01
            znucl        4.00000   16.00000    8.00000

- Timing analysis has been suppressed with timopt=0

 Suggested references for the acknowledgment of ABINIT usage.

 Calculation completed.
.Delivered  14 WARNINGs and   9 COMMENTs to log file.