.Version 9.5.1 of ABINIT

 ABINIT is a project of the Universite Catholique de Louvain,
 Corning Inc. and other collaborators, see ~abinit/doc/developers/contributors.txt .
 acknowledgments of the ABINIT effort.

.Starting date : Wed 19 May 2021.
- ( at 15h33 )

- input  file    -> /scratch/users/j/a/jabreu/flow_simple_9atoms/flow/w182/t1/run.abi
- output file    -> /scratch/users/j/a/jabreu/flow_simple_9atoms/flow/w182/t1/run.abo
- root for input  files -> /scratch/users/j/a/jabreu/flow_simple_9atoms/flow/w182/t1/indata/in
- root for output files -> /scratch/users/j/a/jabreu/flow_simple_9atoms/flow/w182/t1/outdata/out

 Symmetries : space group I4/m m m (#139); Bravais tI (body-center tetrag.)
     intxc =       0      iscf =       7    lmnmax =      32     lnmax =       8
     mgfft =      90  mpssoang =       4    mqgrid =    3305     natom =       9
  nloc_mem =       1    nspden =       1   nspinor =       1    nsppol =       1
      nsym =      16    n1xccc =    2501    ntypat =       4    occopt =       1
   xclevel =       2
-    mband =          48        mffmem =           1         mkmem =           2
-   mkqmem =           2        mk1mem =           2           mpw =       26052
      nfft =      729000          nkpt =           2
  Rough estimation (10% accuracy) of disk space for files :

------------- Echo of variables that govern the present computation ------------
-
- outvars: echo of selected default values
-   iomode0 =  0 , fftalg0 =512 , wfoptalg0 =  0
-
- outvars: echo of global parameters not present in the input file
-  max_nthreads =    0
-
 -outvars: echo values of preprocessed input variables --------
            acell      1.0000000000E+00  1.0000000000E+00  1.0000000000E+00 Bohr
              amu      1.32905430E+02  1.06420000E+02  1.26904470E+02
                       7.99040000E+01
             ecut      4.10000000E+01 Hartree
-          fftalg         512
           irdden           1
           irdwfk           1
           istwfk        1    0
              ixc     -116133
              kpt      0.00000000E+00  0.00000000E+00  0.00000000E+00
                       5.00000000E-01  5.00000000E-01 -5.00000000E-01
           kptopt           0
P           mkmem           2
P          mkqmem           2
P          mk1mem           2
            natom           9
            nband          48
           nbdbuf           4
            ngfft          90      90      90
             nkpt           2
            nstep        2000
             nsym          16
           ntypat           4
              occ      2.000000  2.000000  2.000000  2.000000  2.000000  2.000000
                       2.000000  2.000000  2.000000  2.000000  2.000000  2.000000
                       2.000000  2.000000  2.000000  2.000000  2.000000  2.000000
                       2.000000  2.000000  2.000000  2.000000  2.000000  2.000000
                       2.000000  2.000000  2.000000  2.000000  2.000000  2.000000
                       2.000000  2.000000  2.000000  2.000000  2.000000  2.000000
                       2.000000  2.000000  2.000000  0.000000  0.000000  0.000000
                       0.000000  0.000000  0.000000  0.000000  0.000000  0.000000
        optdriver           1
            prtwf          -1
            rfdir           1       1       1
           rfelfd           2
            rprim      1.3006796914E+01  0.0000000000E+00 -4.9927868260E+00
                      -6.1438753286E+00  1.1464273283E+01 -4.9927868260E+00
                       0.0000000000E+00  0.0000000000E+00  1.3932145788E+01
          spgroup         139
           symrel      1  0  0   0  1  0   0  0  1      -1  0  0   0 -1  0   0  0 -1
                      -1 -1 -1   0  0  1   0  1  0       1  1  1   0  0 -1   0 -1  0
                       0  1  0   1  0  0  -1 -1 -1       0 -1  0  -1  0  0   1  1  1
                       0  0  1  -1 -1 -1   1  0  0       0  0 -1   1  1  1  -1  0  0
                       0  1  0   1  0  0   0  0  1       0 -1  0  -1  0  0   0  0 -1
                      -1 -1 -1   0  0  1   1  0  0       1  1  1   0  0 -1  -1  0  0
                       1  0  0   0  1  0  -1 -1 -1      -1  0  0   0 -1  0   1  1  1
                       0  0  1  -1 -1 -1   0  1  0       0  0 -1   1  1  1   0 -1  0
           tolwfr      1.00000000E-20
            typat      1  1  2  3  3  4  4  4  4
           useylm           1
              wtk        0.50000    0.50000
           xangst     -7.1767397628E-01  4.5499741010E+00  1.0442180132E+00
                       4.3493756638E+00  1.5166580337E+00  1.0442180132E+00
                       0.0000000000E+00  0.0000000000E+00  0.0000000000E+00
                       2.4126193284E+00  4.0301971929E+00 -3.5103691187E+00
                       1.2190823591E+00  2.0364349417E+00 -1.7737688727E+00
                      -1.1522469551E+00  4.8101249368E+00 -2.6420689957E+00
                       7.5218988218E-01  1.2565071978E+00  1.9595431131E+00
                       2.8795118053E+00  4.8101249368E+00  1.2889291335E-01
                       4.7839486426E+00  1.2565071978E+00 -2.6420689957E+00
            xcart     -1.3562072679E+00  8.5982049625E+00  1.9732860680E+00
                       8.2191288536E+00  2.8660683209E+00  1.9732860680E+00
                       0.0000000000E+00  0.0000000000E+00  0.0000000000E+00
                       4.5591897937E+00  7.6159689562E+00 -6.6336362596E+00
                       2.3037317920E+00  3.8483043272E+00 -3.3519373924E+00
                      -2.1774311827E+00  9.0898187956E+00 -4.9927868260E+00
                       1.4214328773E+00  2.3744544878E+00  3.7029998293E+00
                       5.4414887084E+00  9.0898187956E+00  2.4357230670E-01
                       9.0403527684E+00  2.3744544878E+00 -4.9927868260E+00
             xred      2.5000000000E-01  7.5000000000E-01  5.0000000000E-01
                       7.5000000000E-01  2.5000000000E-01  5.0000000000E-01
                       0.0000000000E+00  0.0000000000E+00  0.0000000000E+00
                       6.6432200000E-01  6.6432200000E-01  0.0000000000E+00
                       3.3567800000E-01  3.3567800000E-01  0.0000000000E+00
                       2.0711775000E-01  7.9288225000E-01  0.0000000000E+00
                       2.0711775000E-01  2.0711775000E-01  4.1423550000E-01
                       7.9288225000E-01  7.9288225000E-01  5.8576450000E-01
                       7.9288225000E-01  2.0711775000E-01  0.0000000000E+00
            znucl       55.00000   46.00000   53.00000   35.00000

 chkinp: Checking input parameters for consistency.

== DATASET  1 ==================================================================
-   mpi_nproc: 1, omp_nthreads: -1 (-1 if OMP is not activated)

--- !DatasetInfo
iteration_state: {dtset: 1, }
dimensions: {natom: 9, nkpt: 2, mband: 48, nsppol: 1, nspinor: 1, nspden: 1, mpw: 26052, }
cutoff_energies: {ecut:  41.0, pawecutdg:  -1.0, }
electrons: {nelect:   7.80000000E+01, charge:   0.00000000E+00, occopt:   1.00000000E+00, tsmear:   1.00000000E-02, }
meta: {optdriver: 1, rfelfd: 2, }
...

 Real(R)+Recip(G) space primitive vectors, cartesian coordinates (Bohr,Bohr^-1):
 R(1)= 13.0067969  0.0000000 -4.9927868  G(1)=  0.0768829  0.0412027  0.0000000
 R(2)= -6.1438753 11.4642733 -4.9927868  G(2)=  0.0000000  0.0872275  0.0000000
 R(3)=  0.0000000  0.0000000 13.9321458  G(3)=  0.0275521  0.0460248  0.0717765
 Unit cell volume ucvol=  2.0774707E+03 bohr^3
 Angles (23,13,12)=  1.10999790E+02  1.10999790E+02  1.06455522E+02 degrees

 getcut: wavevector=  0.0000  0.0000  0.0000  ngfft=  90  90  90
         ecut(hartree)=     41.000   => boxcut(ratio)=   2.24117

 getcut : COMMENT -
  Note that boxcut > 2.2 ; recall that boxcut=Gcut(box)/Gcut(sphere) = 2
  is sufficient for exact treatment of convolution.
  Such a large boxcut is a waste : you could raise ecut
  e.g. ecut=   51.484163 Hartrees makes boxcut=2

--- Pseudopotential description ------------------------------------------------
- pspini: atom type   1  psp file is /scratch/users/j/a/jabreu/pseudos/PBEsol/Cs.psp8
- pspatm: opening atomic psp file    /scratch/users/j/a/jabreu/pseudos/PBEsol/Cs.psp8
- Cs    ONCVPSP-3.3.0  r_core=   2.27353   1.85623   2.01788   1.90105
- 55.00000   9.00000    180112                znucl, zion, pspdat
    8 -116133    3    4       600   0.00000   pspcod,pspxc,lmax,lloc,mmax,r2well
    5.99000000000000    5.00000000000000    0.00000000000000   rchrg,fchrg,qchrg
     nproj     2     2     2     2
     extension_switch     1
  pspatm : epsatm=   22.12462445
         --- l  ekb(1:nproj) -->
             0    6.214110    0.767882
             1    6.311966    0.793598
             2    3.769790    0.913105
             3   -9.247129   -2.432478
 pspatm: atomic psp has been read  and splines computed

- pspini: atom type   2  psp file is /scratch/users/j/a/jabreu/pseudos/PBEsol/Pd.psp8
- pspatm: opening atomic psp file    /scratch/users/j/a/jabreu/pseudos/PBEsol/Pd.psp8
- Pd    ONCVPSP-3.3.0  r_core=   1.41052   1.46191   1.55175
- 46.00000  18.00000    180112                znucl, zion, pspdat
    8 -116133    2    4       600   0.00000   pspcod,pspxc,lmax,lloc,mmax,r2well
    5.99000000000000    7.00000000000000    0.00000000000000   rchrg,fchrg,qchrg
     nproj     2     2     2
     extension_switch     1
  pspatm : epsatm=   26.17262427
         --- l  ekb(1:nproj) -->
             0    7.952303   -2.096627
             1    3.304793   -0.572651
             2   -1.185452   -0.410427
 pspatm: atomic psp has been read  and splines computed

[...]

- pspini: atom type   4  psp file is /scratch/users/j/a/jabreu/pseudos/PBEsol/Br.psp8
- pspatm: opening atomic psp file    /scratch/users/j/a/jabreu/pseudos/PBEsol/Br.psp8
- Br    ONCVPSP-3.3.0  r_core=   1.81012   1.51356   1.92136
- 35.00000   7.00000    180112                znucl, zion, pspdat
    8 -116133    2    4       600   0.00000   pspcod,pspxc,lmax,lloc,mmax,r2well
    5.99000000000000    8.00000000000000    0.00000000000000   rchrg,fchrg,qchrg
     nproj     2     2     2
     extension_switch     1
  pspatm : epsatm=   10.94933070
         --- l  ekb(1:nproj) -->
             0    8.508690    0.897946
             1    5.393311    0.892021
             2    2.527513    0.394763
 pspatm: atomic psp has been read  and splines computed

   1.17392954E+04                                ecore*ucvol(ha*bohr**3)

-inwffil : will read wavefunctions from disk file /scratch/users/j/a/jabreu/flow_simple_9atoms/flow/w182/t1/indata/in_WFK

 ==>  initialize data related to q vector <==

 The list of irreducible perturbations for this q vector is:
    1)    idir= 1    ipert=  10
    2)    idir= 2    ipert=  10
    3)    idir= 3    ipert=  10

 Perturbation wavevector (in red.coord.)   0.000000  0.000000  0.000000
 Perturbation : derivative vs k along direction   1

 dfpt_looppert : COMMENT -
  In a d/dk calculation, iscf is set to -3 automatically.
 The set of symmetries contains only one element for this perturbation.
 symkpt : not enough symmetry to change the number of k points.

[...]

 Initialisation of the first-order wave-functions :
  ireadwf=   0

--- !BeginCycle
[...]
 1,2,3: 0th-order hamiltonian combined with 1st-order wavefunctions
     kin0=   3.40749823E+01 eigvalue=   2.66185987E-01  local=  -2.04261783E+01
 4,5,6: 1st-order hamiltonian combined with 1st and 0th-order wfs
     kin1=  -5.64341355E+01  Hartree=   0.00000000E+00     xc=   0.00000000E+00
 7,8,9: eventually, occupation + non-local contributions
    edocc=   1.12616356E+01     enl0=   5.30099092E+00   enl1=  -4.52109752E+00
 1-9 gives the relaxation energy (to be shifted if some occ is /=2.0)
   erelax=  -3.04776165E+01
  No Ewald or frozen-wf contrib.: the relaxation energy is the total one
 2DEtotal=   -0.3047761652E+02 Ha. Also 2DEtotal=   -0.829338122142E+03 eV
    (  non-var. 2DEtotal :   -3.0477616516E+01 Ha)

 Perturbation wavevector (in red.coord.)   0.000000  0.000000  0.000000
 Perturbation : derivative vs k along direction   2
 The set of symmetries contains only one element for this perturbation.
 symkpt : not enough symmetry to change the number of k points.

[...]

 Perturbation wavevector (in red.coord.)   0.000000  0.000000  0.000000
 Perturbation : derivative vs k along direction   3
 The set of symmetries contains only one element for this perturbation.
 symkpt : not enough symmetry to change the number of k points.

-inwffil : will read wavefunctions from disk file /scratch/users/j/a/jabreu/flow_simple_9atoms/flow/w182/t1/indata/in_WFK

 Initialisation of the first-order wave-functions :
  ireadwf=   0

--- !BeginCycle
iteration_state: {dtset: 1, }
solver: {iscf: 7, nstep: 2000, nline: 4, wfoptalg: 0, }
tolerances: {tolwfr: 1.00E-20, }
...

     iter   2DEtotal(Ha)        deltaE(Ha) residm    vres2
-ETOT  1  -28.779625806653     -2.878E+01 3.263E-02 0.000E+00
 ETOT  2  -28.805617234764     -2.599E-02 9.219E-04 0.000E+00
 ETOT  3  -28.806140218328     -5.230E-04 1.210E-04 0.000E+00
 ETOT  4  -28.806174691166     -3.447E-05 1.308E-05 0.000E+00
 ETOT  5  -28.806177472173     -2.781E-06 2.870E-06 0.000E+00
 ETOT  6  -28.806177712420     -2.402E-07 2.869E-07 0.000E+00
 ETOT  7  -28.806177733923     -2.150E-08 6.881E-08 0.000E+00
 ETOT  8  -28.806177735909     -1.986E-09 6.720E-09 0.000E+00
 ETOT  9  -28.806177736102     -1.921E-10 1.698E-09 0.000E+00
 ETOT 10  -28.806177736120     -1.896E-11 1.643E-10 0.000E+00
 ETOT 11  -28.806177736122     -1.972E-12 4.381E-11 0.000E+00
 ETOT 12  -28.806177736123     -1.599E-13 6.439E-12 0.000E+00
 ETOT 13  -28.806177736123     -7.105E-15 1.406E-12 0.000E+00
 ETOT 14  -28.806177736123     -3.908E-14 2.353E-13 0.000E+00
 ETOT 15  -28.806177736123      1.421E-14 4.685E-14 0.000E+00
 ETOT 16  -28.806177736123      3.553E-15 8.722E-15 0.000E+00
 ETOT 17  -28.806177736123      3.197E-14 1.703E-15 0.000E+00
 ETOT 18  -28.806177736123     -3.553E-14 3.266E-16 0.000E+00
 ETOT 19  -28.806177736123      1.776E-14 6.450E-17 0.000E+00
 ETOT 20  -28.806177736123     -3.553E-15 1.223E-17 0.000E+00
 ETOT 21  -28.806177736123     -3.553E-15 2.489E-18 0.000E+00
 ETOT 22  -28.806177736123      0.000E+00 4.573E-19 0.000E+00
 ETOT 23  -28.806177736123      7.105E-15 9.726E-20 0.000E+00
 ETOT 24  -28.806177736123     -1.421E-14 1.720E-20 0.000E+00
 ETOT 25  -28.806177736123      7.105E-15 9.979E-21 0.000E+00

 At SCF step   25   max residual=  9.98E-21 < tolwfr=  1.00E-20 =>converged.

 ----iterations are completed or convergence reached----

 dfpt_looppert: DFPT cycle converged with prtwf=-1. Will skip output of the 1st-order WFK file.
 dfpt_looppert : ek2=    4.9449277205E+01
          f-sum rule ratio=    1.0785468370E+00
 prteigrs : about to open file /scratch/users/j/a/jabreu/flow_simple_9atoms/flow/w182/t1/tmpdata/tmp_1WF1_EIG
 Expectation of eigenvalue derivatives (hartree) for nkpt=   2  k points:
  (in case of degenerate eigenvalues, averaged derivative)
 kpt#   1, nband= 48, wtk=  0.50000, kpt=  0.0000  0.0000  0.0000 (reduced coord)
   0.00000    0.00000    0.00000   -0.00000    0.00000    0.00000   -0.00000   -0.00000
  -0.00000   -0.00000   -0.00000   -0.00000    0.00000   -0.00000   -0.00000    0.00000
   0.00000    0.00000    0.00000   -0.00000   -0.00000    0.00000   -0.00000   -0.00000
  -0.00000   -0.00000   -0.00000   -0.00000   -0.00000    0.00000    0.00000    0.00000
   0.00000    0.00000    0.00000    0.00000   -0.00000   -0.00000   -0.00000    0.00000
   0.00000   -0.00000    0.00000   -0.00000    0.00000   -0.00000   -0.00000    0.00000
 prteigrs : prtvol=0 or 1, do not print more k-points.

 Eight components of 2nd-order total energy (hartree) are
 1,2,3: 0th-order hamiltonian combined with 1st-order wavefunctions
     kin0=   3.63828018E+01 eigvalue=   2.47611558E-01  local=  -2.21104364E+01
 4,5,6: 1st-order hamiltonian combined with 1st and 0th-order wfs
     kin1=  -5.33333615E+01  Hartree=   0.00000000E+00     xc=   0.00000000E+00
 7,8,9: eventually, occupation + non-local contributions
    edocc=   8.38232243E+00     enl0=   5.90387835E+00   enl1=  -4.27899395E+00
 1-9 gives the relaxation energy (to be shifted if some occ is /=2.0)
   erelax=  -2.88061777E+01
  No Ewald or frozen-wf contrib.: the relaxation energy is the total one
 2DEtotal=   -0.2880617774E+02 Ha. Also 2DEtotal=   -0.783855959917E+03 eV
    (  non-var. 2DEtotal :   -2.8806177736E+01 Ha)

 CALCULATION OF EFFECTIVE MASSES
 NOTE : Additional infos (eff. mass eigenvalues, eigenvectors and, if degenerate, average mass) are available in stdout.

 COMMENTS:
 - At k-point ( 0.000, 0.000, 0.000), bands    38 through    39
   are DEGENERATE (effective mass tensor is therefore not defined).
   See Section IIIB Eqs. (67)-(70) and Appendix E of PRB 93 205147 (2016).
 - Angular average effective mass for Frohlich model is to be averaged over degenerate bands. See later.
 - Associated theta integrals calculated with ntheta=   1000 points.

 K-point ( 0.000, 0.000, 0.000) | band =    38
 Transport equivalent effective mass tensor:
             -0.8616613901             -0.1203490580              0.1048260355
             -0.1203490580             -0.9906551054              0.1751082680
              0.1048260355              0.1751082680             -0.9421383851
 Transport equivalent effective mass tensor eigenvalues:
             -1.2152225508             -0.7896161650             -0.7896161647
 Angular average effective mass 1/(<1/m>)=  -0.7026107310
 Angular average effective mass for Frohlich model (<m**0.5>)**2=  -0.7165222099
 Effective masses along directions: (cart. coord. / red. coord. -> eff. mass)
    1:   1.000000  0.000000  0.000000 /   0.904201 -0.427107  0.000000 ->  -0.6300623164
    2:   0.000000  1.000000  0.000000 /   0.000000  1.000000  0.000000 ->  -0.9095534826
    3:   0.000000  0.000000  1.000000 /  -0.319656 -0.319656  0.891986 ->  -0.6162117895
    4:   0.577350  0.577350  0.577350 /   0.498509  0.020379  0.866645 ->  -0.5715536390
    5:   0.000000  0.707107  0.707107 /  -0.309097  0.400642  0.862522 ->  -0.6102476105
    6:   0.707107  0.000000  0.707107 /   0.409842 -0.569537  0.712500 ->  -0.8296276225
    7:   0.707107  0.707107  0.000000 /   0.925561  0.378598  0.000000 ->  -0.7477980168

 K-point ( 0.000, 0.000, 0.000) | band =    39
 Transport equivalent effective mass tensor:
            -36.3754457529              2.9080968916             -2.5330009683
              2.9080968916            -33.2584606459             -4.2312905450
             -2.5330009683             -4.2312905450            -34.4308112144
 Transport equivalent effective mass tensor eigenvalues:
            -38.1163359597            -38.1163359537            -27.8320456998
 Angular average effective mass 1/(<1/m>)=  -1.5870765334
 Angular average effective mass for Frohlich model (<m**0.5>)**2=  -2.2310892374
 Effective masses along directions: (cart. coord. / red. coord. -> eff. mass)
    1:   1.000000  0.000000  0.000000 /   0.904201 -0.427107  0.000000 ->  -2.4918861426
    2:   0.000000  1.000000  0.000000 /   0.000000  1.000000  0.000000 ->  -0.9911643469
    3:   0.000000  0.000000  1.000000 /  -0.319656 -0.319656  0.891986 ->  -2.2704727042
    4:   0.577350  0.577350  0.577350 /   0.498509  0.020379  0.866645 ->  -4.8818835189
    5:   0.000000  0.707107  0.707107 /  -0.309097  0.400642  0.862522 ->  -3.5167704168
    6:   0.707107  0.000000  0.707107 /   0.409842 -0.569537  0.712500 ->  -1.3830326784
    7:   0.707107  0.707107  0.000000 /   0.925561  0.378598  0.000000 ->  -1.2150465993

 Angular average effective mass for Frohlich model, averaged over degenerate bands.
 Value of     (<<m**0.5>>)**2 =     1.369087E+00
 Absolute Value of <<m**0.5>> =     1.170080E+00

 K-point ( 0.500, 0.500,-0.500) | band =    40
 Effective mass tensor:
              0.6906391559             -0.2174693136              0.1894194072
             -0.2174693136              0.4575490476              0.3164185722
              0.1894194072              0.3164185722              0.5452181539
 Effective mass tensor eigenvalues:
              0.0517583194              0.8208240189              0.8208240191
 Angular average effective mass 1/(<1/m>)=   0.1378857613
 Angular average effective mass for Frohlich model (<m**0.5>)**2=   0.2341637982
 Effective masses along directions: (cart. coord. / red. coord. -> eff. mass)
    1:   1.000000  0.000000  0.000000 /   0.904201 -0.427107  0.000000 ->   0.2335040598
    2:   0.000000  1.000000  0.000000 /   0.000000  1.000000  0.000000 ->   0.1023640096
    3:   0.000000  0.000000  1.000000 /  -0.319656 -0.319656  0.891986 ->   0.1297773970
    4:   0.577350  0.577350  0.577350 /   0.498509  0.020379  0.866645 ->   0.3666633933
    5:   0.000000  0.707107  0.707107 /  -0.309097  0.400642  0.862522 ->   0.7755447855
    6:   0.707107  0.000000  0.707107 /   0.409842 -0.569537  0.712500 ->   0.6512599531
    7:   0.707107  0.707107  0.000000 /   0.925561  0.378598  0.000000 ->   0.0823410215

 END OF EFFECTIVE MASSES SECTION

 ---- first-order wavefunction calculations are completed ----

 Total localisation tensor (bohr^2) in cartesian coordinates
  WARNING : still subject to testing - especially symmetries.
      direction              matrix element
   alpha     beta       real part   imaginary part
     1        1       7.0055910179    0.0000000000
     1        2      -2.3846404268    0.0000000000
     1        3      -1.1600749211    0.0000000000
     2        1      -2.3846404268    0.0000000000
     2        2       4.4496621552    0.0000000000
     2        3      -1.9378650560    0.0000000000
     3        1      -1.1600749211    0.0000000000
     3        2      -1.9378650560    0.0000000000
     3        3       4.5654462715    0.0000000000

 respfn : d/dk was computed, but no 2DTE, so no DDB output.

== END DATASET(S) ==============================================================

 -outvars: echo values of variables after computation  --------
            acell      1.0000000000E+00  1.0000000000E+00  1.0000000000E+00 Bohr
              amu      1.32905430E+02  1.06420000E+02  1.26904470E+02
                       7.99040000E+01
             ecut      4.10000000E+01 Hartree
           etotal     -2.8806177736E+01
            fcart      0.0000000000E+00  0.0000000000E+00  0.0000000000E+00
                       0.0000000000E+00  0.0000000000E+00  0.0000000000E+00
                       0.0000000000E+00  0.0000000000E+00  0.0000000000E+00
                       0.0000000000E+00  0.0000000000E+00  0.0000000000E+00
                       0.0000000000E+00  0.0000000000E+00  0.0000000000E+00
                       0.0000000000E+00  0.0000000000E+00  0.0000000000E+00
                       0.0000000000E+00  0.0000000000E+00  0.0000000000E+00
                       0.0000000000E+00  0.0000000000E+00  0.0000000000E+00
                       0.0000000000E+00  0.0000000000E+00  0.0000000000E+00
-          fftalg         512
           irdden           1
           irdwfk           1
           istwfk        1    0
              ixc     -116133
              kpt      0.00000000E+00  0.00000000E+00  0.00000000E+00
                       5.00000000E-01  5.00000000E-01 -5.00000000E-01
           kptopt           0
P           mkmem           2
P          mkqmem           2
P          mk1mem           2
            natom           9
            nband          48
           nbdbuf           4
            ngfft          90      90      90
             nkpt           2
            nstep        2000
             nsym          16
           ntypat           4
              occ      2.000000  2.000000  2.000000  2.000000  2.000000  2.000000
                       2.000000  2.000000  2.000000  2.000000  2.000000  2.000000
                       2.000000  2.000000  2.000000  2.000000  2.000000  2.000000
                       2.000000  2.000000  2.000000  2.000000  2.000000  2.000000
                       2.000000  2.000000  2.000000  2.000000  2.000000  2.000000
                       2.000000  2.000000  2.000000  2.000000  2.000000  2.000000
                       2.000000  2.000000  2.000000  0.000000  0.000000  0.000000
                       0.000000  0.000000  0.000000  0.000000  0.000000  0.000000
        optdriver           1
            prtwf          -1
            rfdir           1       1       1
           rfelfd           2
            rprim      1.3006796914E+01  0.0000000000E+00 -4.9927868260E+00
                      -6.1438753286E+00  1.1464273283E+01 -4.9927868260E+00
                       0.0000000000E+00  0.0000000000E+00  1.3932145788E+01
          spgroup         139
           strten      0.0000000000E+00  0.0000000000E+00  0.0000000000E+00
                       0.0000000000E+00  0.0000000000E+00  0.0000000000E+00
           symrel      1  0  0   0  1  0   0  0  1      -1  0  0   0 -1  0   0  0 -1
                      -1 -1 -1   0  0  1   0  1  0       1  1  1   0  0 -1   0 -1  0
                       0  1  0   1  0  0  -1 -1 -1       0 -1  0  -1  0  0   1  1  1
                       0  0  1  -1 -1 -1   1  0  0       0  0 -1   1  1  1  -1  0  0
                       0  1  0   1  0  0   0  0  1       0 -1  0  -1  0  0   0  0 -1
                      -1 -1 -1   0  0  1   1  0  0       1  1  1   0  0 -1  -1  0  0
                       1  0  0   0  1  0  -1 -1 -1      -1  0  0   0 -1  0   1  1  1
                       0  0  1  -1 -1 -1   0  1  0       0  0 -1   1  1  1   0 -1  0
           tolwfr      1.00000000E-20
            typat      1  1  2  3  3  4  4  4  4
           useylm           1
              wtk        0.50000    0.50000
           xangst     -7.1767397628E-01  4.5499741010E+00  1.0442180132E+00
                       4.3493756638E+00  1.5166580337E+00  1.0442180132E+00
                       0.0000000000E+00  0.0000000000E+00  0.0000000000E+00
                       2.4126193284E+00  4.0301971929E+00 -3.5103691187E+00
                       1.2190823591E+00  2.0364349417E+00 -1.7737688727E+00
                      -1.1522469551E+00  4.8101249368E+00 -2.6420689957E+00
                       7.5218988218E-01  1.2565071978E+00  1.9595431131E+00
                       2.8795118053E+00  4.8101249368E+00  1.2889291335E-01
                       4.7839486426E+00  1.2565071978E+00 -2.6420689957E+00
            xcart     -1.3562072679E+00  8.5982049625E+00  1.9732860680E+00
                       8.2191288536E+00  2.8660683209E+00  1.9732860680E+00
                       0.0000000000E+00  0.0000000000E+00  0.0000000000E+00
                       4.5591897937E+00  7.6159689562E+00 -6.6336362596E+00
                       2.3037317920E+00  3.8483043272E+00 -3.3519373924E+00
                      -2.1774311827E+00  9.0898187956E+00 -4.9927868260E+00
                       1.4214328773E+00  2.3744544878E+00  3.7029998293E+00
                       5.4414887084E+00  9.0898187956E+00  2.4357230670E-01
                       9.0403527684E+00  2.3744544878E+00 -4.9927868260E+00
             xred      2.5000000000E-01  7.5000000000E-01  5.0000000000E-01
                       7.5000000000E-01  2.5000000000E-01  5.0000000000E-01
                       0.0000000000E+00  0.0000000000E+00  0.0000000000E+00
                       6.6432200000E-01  6.6432200000E-01  0.0000000000E+00
                       3.3567800000E-01  3.3567800000E-01  0.0000000000E+00
                       2.0711775000E-01  7.9288225000E-01  0.0000000000E+00
                       2.0711775000E-01  2.0711775000E-01  4.1423550000E-01
                       7.9288225000E-01  7.9288225000E-01  5.8576450000E-01
                       7.9288225000E-01  2.0711775000E-01  0.0000000000E+00
            znucl       55.00000   46.00000   53.00000   35.00000

- Timing analysis has been suppressed with timopt=0

 Suggested references for the acknowledgment of ABINIT usage.

 Calculation completed.
.Delivered  14 WARNINGs and  17 COMMENTs to log file.