.Version 9.5.1 of ABINIT

 ABINIT is a project of the Universite Catholique de Louvain,
 Corning Inc. and other collaborators, see ~abinit/doc/developers/contributors.txt .
 acknowledgments of the ABINIT effort.

.Starting date : Wed 19 May 2021.
- ( at 07h44 )

- input  file    -> /scratch/users/j/a/jabreu/flow_simple_9atoms/flow/w109/t1/run.abi
- output file    -> /scratch/users/j/a/jabreu/flow_simple_9atoms/flow/w109/t1/run.abo
- root for input  files -> /scratch/users/j/a/jabreu/flow_simple_9atoms/flow/w109/t1/indata/in
- root for output files -> /scratch/users/j/a/jabreu/flow_simple_9atoms/flow/w109/t1/outdata/out

 Symmetries : space group P-6 2 m (#189); Bravais hP (primitive hexag.)
     intxc =       0      iscf =       7    lmnmax =      18     lnmax =       6
     mgfft =      75  mpssoang =       3    mqgrid =    3119     natom =       9
  nloc_mem =       1    nspden =       1   nspinor =       1    nsppol =       1
      nsym =      12    n1xccc =    2501    ntypat =       2    occopt =       1
   xclevel =       2
-    mband =          45        mffmem =           1         mkmem =           1
-   mkqmem =           1        mk1mem =           1           mpw =       12105
      nfft =      253125          nkpt =           1
  Rough estimation (10% accuracy) of disk space for files :

------------- Echo of variables that govern the present computation ------------
-
- outvars: echo of selected default values
-   iomode0 =  0 , fftalg0 =512 , wfoptalg0 =  0
-
- outvars: echo of global parameters not present in the input file
-  max_nthreads =    0
-
 -outvars: echo values of preprocessed input variables --------
            acell      1.0000000000E+00  1.0000000000E+00  1.0000000000E+00 Bohr
              amu      1.37327000E+02  3.54527000E+01
             ecut      2.80000000E+01 Hartree
-          fftalg         512
           irdden           1
           irdwfk           1
           istwfk        1
              ixc     -116133
           kptopt           0
P           mkmem           1
P          mkqmem           1
P          mk1mem           1
            natom           9
            nband          45
           nbdbuf           4
            ngfft          75      75      45
             nkpt           1
            nstep        2000
             nsym          12
           ntypat           2
              occ      2.000000  2.000000  2.000000  2.000000  2.000000  2.000000
                       2.000000  2.000000  2.000000  2.000000  2.000000  2.000000
                       2.000000  2.000000  2.000000  2.000000  2.000000  2.000000
                       2.000000  2.000000  2.000000  2.000000  2.000000  2.000000
                       2.000000  2.000000  2.000000  2.000000  2.000000  2.000000
                       2.000000  2.000000  2.000000  2.000000  2.000000  2.000000
                       0.000000  0.000000  0.000000  0.000000  0.000000  0.000000
                       0.000000  0.000000  0.000000
        optdriver           1
            prtwf          -1
            rfdir           1       1       1
           rfelfd           2
            rprim      1.5114889862E+01  0.0000000000E+00  0.0000000000E+00
                      -7.5574449307E+00  1.3089878595E+01  0.0000000000E+00
                       0.0000000000E+00  0.0000000000E+00  8.6785528087E+00
          spgroup         189
           symrel      1  0  0   0  1  0   0  0  1       0  1  0   1  0  0   0  0  1
                      -1 -1  0   1  0  0   0  0 -1       1  0  0  -1 -1  0   0  0 -1
                       0  1  0  -1 -1  0   0  0  1      -1 -1  0   0  1  0   0  0  1
                       1  0  0   0  1  0   0  0 -1       0  1  0   1  0  0   0  0 -1
                      -1 -1  0   1  0  0   0  0  1       1  0  0  -1 -1  0   0  0  1
                       0  1  0  -1 -1  0   0  0 -1      -1 -1  0   0  1  0   0  0 -1
           tolwfr      1.00000000E-20
            typat      1  1  1  2  2  2  2  2  2
           useylm           1
           xangst      0.0000000000E+00  0.0000000000E+00  2.2962461750E+00
                       1.7638301738E-11  4.6179102773E+00  0.0000000000E+00
                       3.9992276125E+00  2.3089551386E+00  0.0000000000E+00
                       1.0246061136E+00  1.7746698464E+00  0.0000000000E+00
                      -1.6425307712E+00  2.8449467487E+00  2.2962461750E+00
                       3.2850615424E+00  0.0000000000E+00  2.2962461750E+00
                      -2.9746214990E+00  5.1521955695E+00  0.0000000000E+00
                       2.3566968413E+00  4.0819186672E+00  2.2962461750E+00
                       5.9492429979E+00  0.0000000000E+00  0.0000000000E+00
            xcart      0.0000000000E+00  0.0000000000E+00  4.3392764043E+00
                       3.3331559735E-11  8.7265857303E+00  0.0000000000E+00
                       7.5574449308E+00  4.3632928651E+00  0.0000000000E+00
                       1.9362249487E+00  3.3536399860E+00  0.0000000000E+00
                      -3.1039333224E+00  5.3761702177E+00  4.3392764043E+00
                       6.2078666448E+00  0.0000000000E+00  4.3392764043E+00
                      -5.6212199820E+00  9.7362386094E+00  0.0000000000E+00
                       4.4535116084E+00  7.7137083777E+00  4.3392764043E+00
                       1.1242439964E+01  0.0000000000E+00  0.0000000000E+00
             xred      0.0000000000E+00  0.0000000000E+00  5.0000000000E-01
                       3.3333333333E-01  6.6666666667E-01  0.0000000000E+00
                       6.6666666667E-01  3.3333333333E-01  0.0000000000E+00
                       2.5620100000E-01  2.5620100000E-01  0.0000000000E+00
                       0.0000000000E+00  4.1071200000E-01  5.0000000000E-01
                       4.1071200000E-01  0.0000000000E+00  5.0000000000E-01
                       0.0000000000E+00  7.4379900000E-01  0.0000000000E+00
                       5.8928800000E-01  5.8928800000E-01  5.0000000000E-01
                       7.4379900000E-01  0.0000000000E+00  0.0000000000E+00
            znucl       56.00000   17.00000

 chkinp: Checking input parameters for consistency.

== DATASET  1 ==================================================================
-   mpi_nproc: 1, omp_nthreads: -1 (-1 if OMP is not activated)

--- !DatasetInfo
iteration_state: {dtset: 1, }
dimensions: {natom: 9, nkpt: 1, mband: 45, nsppol: 1, nspinor: 1, nspden: 1, mpw: 12105, }
cutoff_energies: {ecut:  28.0, pawecutdg:  -1.0, }
electrons: {nelect:   7.20000000E+01, charge:   0.00000000E+00, occopt:   1.00000000E+00, tsmear:   1.00000000E-02, }
meta: {optdriver: 1, rfelfd: 2, }
...

 Real(R)+Recip(G) space primitive vectors, cartesian coordinates (Bohr,Bohr^-1):
 R(1)= 15.1148899  0.0000000  0.0000000  G(1)=  0.0661599  0.0381975  0.0000000
 R(2)= -7.5574449 13.0898786  0.0000000  G(2)=  0.0000000  0.0763949  0.0000000
 R(3)=  0.0000000  0.0000000  8.6785528  G(3)=  0.0000000  0.0000000  0.1152266
 Unit cell volume ucvol=  1.7170697E+03 bohr^3
 Angles (23,13,12)=  9.00000000E+01  9.00000000E+01  1.20000000E+02 degrees

 getcut: wavevector=  0.0000  0.0000  0.0000  ngfft=  75  75  45
         ecut(hartree)=     28.000   => boxcut(ratio)=   2.05559

--- Pseudopotential description ------------------------------------------------
- pspini: atom type   1  psp file is /scratch/users/j/a/jabreu/pseudos/PBEsol/Ba.psp8
- pspatm: opening atomic psp file    /scratch/users/j/a/jabreu/pseudos/PBEsol/Ba.psp8
- Ba    ONCVPSP-3.3.0  r_core=   2.15444   1.91218   2.15444
- 56.00000  10.00000    180112                znucl, zion, pspdat
    8 -116133    2    4       600   0.00000   pspcod,pspxc,lmax,lloc,mmax,r2well
    5.99000000000000    5.00000000000000    0.00000000000000   rchrg,fchrg,qchrg
     nproj     2     2     2
     extension_switch     1
  pspatm : epsatm=   26.37418029
         --- l  ekb(1:nproj) -->
             0    6.652372    0.677024
             1    5.027722    0.408462
             2    2.543237    0.416854
 pspatm: atomic psp has been read  and splines computed

- pspini: atom type   2  psp file is /scratch/users/j/a/jabreu/pseudos/PBEsol/Cl.psp8
- pspatm: opening atomic psp file    /scratch/users/j/a/jabreu/pseudos/PBEsol/Cl.psp8
- Cl    ONCVPSP-3.3.0  r_core=   1.56009   1.35202   1.75774
- 17.00000   7.00000    180112                znucl, zion, pspdat
    8 -116133    2    4       600   0.00000   pspcod,pspxc,lmax,lloc,mmax,r2well
    5.99000000000000    8.00000000000000    0.00000000000000   rchrg,fchrg,qchrg
     nproj     2     2     2
     extension_switch     1
  pspatm : epsatm=    8.95520722
         --- l  ekb(1:nproj) -->
             0    8.193503    0.707970
             1    3.869736    1.114731
             2   -2.915303   -0.810552
 pspatm: atomic psp has been read  and splines computed

   9.56547246E+03                                ecore*ucvol(ha*bohr**3)

-inwffil : will read wavefunctions from disk file /scratch/users/j/a/jabreu/flow_simple_9atoms/flow/w109/t1/indata/in_WFK

 ==>  initialize data related to q vector <==

 The list of irreducible perturbations for this q vector is:
    1)    idir= 1    ipert=  10
    2)    idir= 2    ipert=  10
    3)    idir= 3    ipert=  10

 Perturbation wavevector (in red.coord.)   0.000000  0.000000  0.000000
 Perturbation : derivative vs k along direction   1

 dfpt_looppert : COMMENT -
  In a d/dk calculation, iscf is set to -3 automatically.
 The set of symmetries contains only one element for this perturbation.
 symkpt : not enough symmetry to change the number of k points.

[...]

 Initialisation of the first-order wave-functions :
  ireadwf=   0

--- !BeginCycle
iteration_state: {dtset: 1, }
solver: {iscf: 7, nstep: 2000, nline: 4, wfoptalg: 0, }
tolerances: {tolwfr: 1.00E-20, }
...

     iter   2DEtotal(Ha)        deltaE(Ha) residm    vres2
-ETOT  1  -16.941629683418     -1.694E+01 1.572E-02 0.000E+00
 ETOT  2  -16.955500305625     -1.387E-02 3.571E-04 0.000E+00
 ETOT  3  -16.955534316917     -3.401E-05 6.611E-06 0.000E+00
 ETOT  4  -16.955534423193     -1.063E-07 1.025E-06 0.000E+00
 ETOT  5  -16.955534423567     -3.738E-10 3.085E-07 0.000E+00
 ETOT  6  -16.955534423568     -1.386E-12 9.176E-08 0.000E+00
 ETOT  7  -16.955534423568     -3.553E-15 7.624E-08 0.000E+00
 ETOT  8  -16.955534423568     -1.066E-14 2.415E-08 0.000E+00
 ETOT  9  -16.955534423568      1.066E-14 2.027E-08 0.000E+00
 ETOT 10  -16.955534423568      0.000E+00 6.626E-09 0.000E+00
 ETOT 11  -16.955534423568      3.553E-15 5.480E-09 0.000E+00
 ETOT 12  -16.955534423568      0.000E+00 1.836E-09 0.000E+00
 ETOT 13  -16.955534423568      0.000E+00 1.512E-09 0.000E+00
 ETOT 14  -16.955534423568     -3.553E-15 5.153E-10 0.000E+00
 ETOT 15  -16.955534423568      3.553E-15 4.269E-10 0.000E+00
 ETOT 16  -16.955534423568      0.000E+00 1.472E-10 0.000E+00
 ETOT 17  -16.955534423568      3.553E-15 1.228E-10 0.000E+00
 ETOT 18  -16.955534423568     -3.553E-15 4.267E-11 0.000E+00
 ETOT 19  -16.955534423568      3.553E-15 3.572E-11 0.000E+00
 ETOT 20  -16.955534423568     -7.105E-15 1.249E-11 0.000E+00
 ETOT 21  -16.955534423568      3.553E-15 1.045E-11 0.000E+00
[...]
 4,5,6: 1st-order hamiltonian combined with 1st and 0th-order wfs
     kin1=  -3.39781340E+01  Hartree=   0.00000000E+00     xc=   0.00000000E+00
 7,8,9: eventually, occupation + non-local contributions
    edocc=   5.36548931E+00     enl0=   2.63858269E+00   enl1=   6.70651094E-02
 1-9 gives the relaxation energy (to be shifted if some occ is /=2.0)
   erelax=  -1.69555344E+01
  No Ewald or frozen-wf contrib.: the relaxation energy is the total one
 2DEtotal=   -0.1695553442E+02 Ha. Also 2DEtotal=   -0.461383555751E+03 eV
    (  non-var. 2DEtotal :   -1.6955534423E+01 Ha)

 Perturbation wavevector (in red.coord.)   0.000000  0.000000  0.000000
 Perturbation : derivative vs k along direction   2
 The set of symmetries contains only one element for this perturbation.
 symkpt : not enough symmetry to change the number of k points.

[...]

 Perturbation wavevector (in red.coord.)   0.000000  0.000000  0.000000
 Perturbation : derivative vs k along direction   3
 The set of symmetries contains only one element for this perturbation.
 symkpt : not enough symmetry to change the number of k points.

-inwffil : will read wavefunctions from disk file /scratch/users/j/a/jabreu/flow_simple_9atoms/flow/w109/t1/indata/in_WFK

 Initialisation of the first-order wave-functions :
  ireadwf=   0

--- !BeginCycle
iteration_state: {dtset: 1, }
solver: {iscf: 7, nstep: 2000, nline: 4, wfoptalg: 0, }
tolerances: {tolwfr: 1.00E-20, }
...

     iter   2DEtotal(Ha)        deltaE(Ha) residm    vres2
-ETOT  1  -39.687872109340     -3.969E+01 1.007E-01 0.000E+00
 ETOT  2  -39.713642496331     -2.577E-02 2.076E-03 0.000E+00
 ETOT  3  -39.713689327395     -4.683E-05 2.065E-04 0.000E+00
 ETOT  4  -39.713689456180     -1.288E-07 2.576E-05 0.000E+00
 ETOT  5  -39.713689456590     -4.099E-10 3.777E-06 0.000E+00
 ETOT  6  -39.713689456592     -1.471E-12 2.728E-07 0.000E+00
 ETOT  7  -39.713689456592      1.421E-14 5.433E-08 0.000E+00
 ETOT  8  -39.713689456592      7.105E-15 3.634E-09 0.000E+00
 ETOT  9  -39.713689456592     -2.842E-14 9.205E-10 0.000E+00
 ETOT 10  -39.713689456592      1.421E-14 6.021E-11 0.000E+00
 ETOT 11  -39.713689456592     -7.105E-15 1.705E-11 0.000E+00
 ETOT 12  -39.713689456592      0.000E+00 1.098E-12 0.000E+00
 ETOT 13  -39.713689456592      0.000E+00 3.312E-13 0.000E+00
 ETOT 14  -39.713689456592      1.421E-14 2.232E-14 0.000E+00
 ETOT 15  -39.713689456592      7.105E-15 9.022E-15 0.000E+00
 ETOT 16  -39.713689456592      0.000E+00 1.283E-15 0.000E+00
 ETOT 17  -39.713689456592      7.105E-15 1.291E-15 0.000E+00
 ETOT 18  -39.713689456592      0.000E+00 3.284E-16 0.000E+00
 ETOT 19  -39.713689456592      0.000E+00 3.661E-16 0.000E+00
 ETOT 20  -39.713689456592      0.000E+00 9.648E-17 0.000E+00
 ETOT 21  -39.713689456592     -1.421E-14 1.080E-16 0.000E+00
 ETOT 22  -39.713689456592      7.105E-15 2.833E-17 0.000E+00
 ETOT 23  -39.713689456592     -7.105E-15 3.191E-17 0.000E+00
 ETOT 24  -39.713689456592      1.421E-14 8.326E-18 0.000E+00
 ETOT 25  -39.713689456592      7.105E-15 9.441E-18 0.000E+00
 ETOT 26  -39.713689456592      0.000E+00 2.452E-18 0.000E+00
 ETOT 27  -39.713689456592     -7.105E-15 2.798E-18 0.000E+00
 ETOT 28  -39.713689456592     -7.105E-15 7.237E-19 0.000E+00
 ETOT 29  -39.713689456592     -7.105E-15 8.300E-19 0.000E+00
 ETOT 30  -39.713689456592      0.000E+00 2.140E-19 0.000E+00
 ETOT 31  -39.713689456592      0.000E+00 2.465E-19 0.000E+00
 ETOT 32  -39.713689456592      1.421E-14 6.343E-20 0.000E+00
 ETOT 33  -39.713689456592     -7.105E-15 7.325E-20 0.000E+00
 ETOT 34  -39.713689456592      0.000E+00 1.882E-20 0.000E+00
 ETOT 35  -39.713689456592     -7.105E-15 2.178E-20 0.000E+00
 ETOT 36  -39.713689456592      1.421E-14 9.998E-21 0.000E+00

 At SCF step   36   max residual=  1.00E-20 < tolwfr=  1.00E-20 =>converged.

 ----iterations are completed or convergence reached----

 dfpt_looppert: DFPT cycle converged with prtwf=-1. Will skip output of the 1st-order WFK file.
 dfpt_looppert : ek2=    7.5479255512E+01
          f-sum rule ratio=    1.0580763755E+00
 prteigrs : about to open file /scratch/users/j/a/jabreu/flow_simple_9atoms/flow/w109/t1/tmpdata/tmp_1WF1_EIG
 Expectation of eigenvalue derivatives (hartree) for nkpt=   1  k points:
  (in case of degenerate eigenvalues, averaged derivative)
 kpt#   1, nband= 45, wtk=  1.00000, kpt=  0.0000  0.0000  0.0000 (reduced coord)
  -0.00000   -0.00000    0.00000    0.00000    0.00000    0.00000    0.00000    0.00000
   0.00000   -0.00000    0.00000    0.00000    0.00000   -0.00000   -0.00000   -0.00000
   0.00000    0.00000    0.00000    0.00000    0.00000    0.00000   -0.00000   -0.00000
  -0.00000    0.00000    0.00000   -0.00000   -0.00000    0.00000    0.00000   -0.00000
   0.00000   -0.00000   -0.00000   -0.00000   -0.00000   -0.00000   -0.00000   -0.00000
   0.00000    0.00000    0.00000    0.00000   -0.00000

 Eight components of 2nd-order total energy (hartree) are
 1,2,3: 0th-order hamiltonian combined with 1st-order wavefunctions
     kin0=   4.97616344E+01 eigvalue=   1.52213987E+00  local=  -3.04520352E+01
 4,5,6: 1st-order hamiltonian combined with 1st and 0th-order wfs
     kin1=  -7.98628171E+01  Hartree=   0.00000000E+00     xc=   0.00000000E+00
 7,8,9: eventually, occupation + non-local contributions
    edocc=   1.25187679E+01     enl0=   6.36318257E+00   enl1=   4.35438186E-01
 1-9 gives the relaxation energy (to be shifted if some occ is /=2.0)
   erelax=  -3.97136895E+01
  No Ewald or frozen-wf contrib.: the relaxation energy is the total one
 2DEtotal=   -0.3971368946E+02 Ha. Also 2DEtotal=   -0.108066444830E+04 eV
    (  non-var. 2DEtotal :   -3.9713689456E+01 Ha)

 CALCULATION OF EFFECTIVE MASSES
 NOTE : Additional infos (eff. mass eigenvalues, eigenvectors and, if degenerate, average mass) are available in stdout.

 COMMENTS:
 - At k-point ( 0.000, 0.000, 0.000), bands    35 through    36
   are DEGENERATE (effective mass tensor is therefore not defined).
   See Section IIIB Eqs. (67)-(70) and Appendix E of PRB 93 205147 (2016).
 - Angular average effective mass for Frohlich model is to be averaged over degenerate bands. See later.
 - Associated theta integrals calculated with ntheta=   1000 points.

 K-point ( 0.000, 0.000, 0.000) | band =    35
 Transport equivalent effective mass tensor:
             -0.5477472039              0.0000001580             -0.0000000641
              0.0000001580             -0.5477465043              0.0000000829
             -0.0000000641              0.0000000829             -1.6420837815
 Transport equivalent effective mass tensor eigenvalues:
             -1.6420837815             -0.5477472379             -0.5477464703
 Angular average effective mass 1/(<1/m>)=  -0.7041750892
 Angular average effective mass for Frohlich model (<m**0.5>)**2=  -0.7497083570
 Effective masses along directions: (cart. coord. / red. coord. -> eff. mass)
    1:   1.000000  0.000000  0.000000 /   0.894427 -0.447214  0.000000 ->  -0.5477472040
    2:   0.000000  1.000000  0.000000 /   0.000000  1.000000  0.000000 ->  -0.5477465042
    3:   0.000000  0.000000  1.000000 /   0.000000  0.000000  1.000000 ->  -1.6420837759
    4:   0.577350  0.577350  0.577350 /   0.826574  0.302547  0.474596 ->  -0.7041749085
    5:   0.000000  0.707107  0.707107 /   0.000000  0.833459  0.552581 ->  -0.8214751540
    6:   0.707107  0.000000  0.707107 /   0.795639 -0.397820  0.456834 ->  -0.8214760453
    7:   0.707107  0.707107  0.000000 /   0.939071  0.343724  0.000000 ->  -0.5477466957

 K-point ( 0.000, 0.000, 0.000) | band =    36
 Transport equivalent effective mass tensor:
             -6.6719555405             -0.0000000433              0.0000002032
             -0.0000000433             -6.6719555351             -0.0000001742
              0.0000002032             -0.0000001742             -1.6420837815
 Transport equivalent effective mass tensor eigenvalues:
             -6.6719555811             -6.6719554944             -1.6420837815
 Angular average effective mass 1/(<1/m>)=  -3.3012578898
 Angular average effective mass for Frohlich model (<m**0.5>)**2=  -3.8297251826
 Effective masses along directions: (cart. coord. / red. coord. -> eff. mass)
    1:   1.000000  0.000000  0.000000 /   0.894427 -0.447214  0.000000 ->  -6.6719555392
    2:   0.000000  1.000000  0.000000 /   0.000000  1.000000  0.000000 ->  -6.6719555369
    3:   0.000000  0.000000  1.000000 /   0.000000  0.000000  1.000000 ->  -1.6420837871
    4:   0.577350  0.577350  0.577350 /   0.826574  0.302547  0.474596 ->  -3.3012578621
    5:   0.000000  0.707107  0.707107 /   0.000000  0.833459  0.552581 ->  -2.6355204514
    6:   0.707107  0.000000  0.707107 /   0.795639 -0.397820  0.456834 ->  -2.6355202736
    7:   0.707107  0.707107  0.000000 /   0.939071  0.343724  0.000000 ->  -6.6719555855

 Angular average effective mass for Frohlich model, averaged over degenerate bands.
 Value of     (<<m**0.5>>)**2 =     1.992086E+00
 Absolute Value of <<m**0.5>> =     1.411413E+00

 K-point ( 0.000, 0.000, 0.000) | band =    37
 Effective mass tensor:
              0.6436290118             -0.0000000001              0.0000000000
             -0.0000000001              0.6436290117             -0.0000000000
              0.0000000000             -0.0000000000              0.4879666090
 Effective mass tensor eigenvalues:
              0.4879666090              0.6436290117              0.6436290119
 Angular average effective mass 1/(<1/m>)=   0.5817673329
 Angular average effective mass for Frohlich model (<m**0.5>)**2=   0.5848824323
 Effective masses along directions: (cart. coord. / red. coord. -> eff. mass)
    1:   1.000000  0.000000  0.000000 /   0.894427 -0.447214  0.000000 ->   0.6436290118
    2:   0.000000  1.000000  0.000000 /   0.000000  1.000000  0.000000 ->   0.6436290117
    3:   0.000000  0.000000  1.000000 /   0.000000  0.000000  1.000000 ->   0.4879666090
    4:   0.577350  0.577350  0.577350 /   0.826574  0.302547  0.474596 ->   0.5817673329
    5:   0.000000  0.707107  0.707107 /   0.000000  0.833459  0.552581 ->   0.5550913428
    6:   0.707107  0.000000  0.707107 /   0.795639 -0.397820  0.456834 ->   0.5550913428
    7:   0.707107  0.707107  0.000000 /   0.939071  0.343724  0.000000 ->   0.6436290117

 END OF EFFECTIVE MASSES SECTION

 ---- first-order wavefunction calculations are completed ----

 Total localisation tensor (bohr^2) in cartesian coordinates
  WARNING : still subject to testing - especially symmetries.
      direction              matrix element
   alpha     beta       real part   imaginary part
     1        1       1.8210200488    0.0000000000
     1        2      -0.6308197792    0.0000000000
     1        3       0.0000000000    0.0000000000
     2        1      -0.6308197792    0.0000000000
     2        2       1.0926119080    0.0000000000
     2        3       0.0000000000    0.0000000000
     3        1       0.0000000000    0.0000000000
     3        2       0.0000000000    0.0000000000
     3        3       1.1433773304    0.0000000000

 respfn : d/dk was computed, but no 2DTE, so no DDB output.

== END DATASET(S) ==============================================================

 -outvars: echo values of variables after computation  --------
            acell      1.0000000000E+00  1.0000000000E+00  1.0000000000E+00 Bohr
              amu      1.37327000E+02  3.54527000E+01
             ecut      2.80000000E+01 Hartree
           etotal     -3.9713689457E+01
            fcart      0.0000000000E+00  0.0000000000E+00  0.0000000000E+00
                       0.0000000000E+00  0.0000000000E+00  0.0000000000E+00
                       0.0000000000E+00  0.0000000000E+00  0.0000000000E+00
                       0.0000000000E+00  0.0000000000E+00  0.0000000000E+00
                       0.0000000000E+00  0.0000000000E+00  0.0000000000E+00
                       0.0000000000E+00  0.0000000000E+00  0.0000000000E+00
                       0.0000000000E+00  0.0000000000E+00  0.0000000000E+00
                       0.0000000000E+00  0.0000000000E+00  0.0000000000E+00
                       0.0000000000E+00  0.0000000000E+00  0.0000000000E+00
-          fftalg         512
           irdden           1
           irdwfk           1
           istwfk        1
              ixc     -116133
           kptopt           0
P           mkmem           1
P          mkqmem           1
P          mk1mem           1
            natom           9
            nband          45
           nbdbuf           4
            ngfft          75      75      45
             nkpt           1
            nstep        2000
             nsym          12
           ntypat           2
              occ      2.000000  2.000000  2.000000  2.000000  2.000000  2.000000
                       2.000000  2.000000  2.000000  2.000000  2.000000  2.000000
                       2.000000  2.000000  2.000000  2.000000  2.000000  2.000000
                       2.000000  2.000000  2.000000  2.000000  2.000000  2.000000
                       2.000000  2.000000  2.000000  2.000000  2.000000  2.000000
                       2.000000  2.000000  2.000000  2.000000  2.000000  2.000000
                       0.000000  0.000000  0.000000  0.000000  0.000000  0.000000
                       0.000000  0.000000  0.000000
        optdriver           1
            prtwf          -1
            rfdir           1       1       1
           rfelfd           2
            rprim      1.5114889862E+01  0.0000000000E+00  0.0000000000E+00
                      -7.5574449307E+00  1.3089878595E+01  0.0000000000E+00
                       0.0000000000E+00  0.0000000000E+00  8.6785528087E+00
          spgroup         189
           strten      0.0000000000E+00  0.0000000000E+00  0.0000000000E+00
                       0.0000000000E+00  0.0000000000E+00  0.0000000000E+00
           symrel      1  0  0   0  1  0   0  0  1       0  1  0   1  0  0   0  0  1
                      -1 -1  0   1  0  0   0  0 -1       1  0  0  -1 -1  0   0  0 -1
                       0  1  0  -1 -1  0   0  0  1      -1 -1  0   0  1  0   0  0  1
                       1  0  0   0  1  0   0  0 -1       0  1  0   1  0  0   0  0 -1
                      -1 -1  0   1  0  0   0  0  1       1  0  0  -1 -1  0   0  0  1
                       0  1  0  -1 -1  0   0  0 -1      -1 -1  0   0  1  0   0  0 -1
           tolwfr      1.00000000E-20
            typat      1  1  1  2  2  2  2  2  2
           useylm           1
           xangst      0.0000000000E+00  0.0000000000E+00  2.2962461750E+00
                       1.7638301738E-11  4.6179102773E+00  0.0000000000E+00
                       3.9992276125E+00  2.3089551386E+00  0.0000000000E+00
                       1.0246061136E+00  1.7746698464E+00  0.0000000000E+00
                      -1.6425307712E+00  2.8449467487E+00  2.2962461750E+00
                       3.2850615424E+00  0.0000000000E+00  2.2962461750E+00
                      -2.9746214990E+00  5.1521955695E+00  0.0000000000E+00
                       2.3566968413E+00  4.0819186672E+00  2.2962461750E+00
                       5.9492429979E+00  0.0000000000E+00  0.0000000000E+00
            xcart      0.0000000000E+00  0.0000000000E+00  4.3392764043E+00
                       3.3331559735E-11  8.7265857303E+00  0.0000000000E+00
                       7.5574449308E+00  4.3632928651E+00  0.0000000000E+00
                       1.9362249487E+00  3.3536399860E+00  0.0000000000E+00
                      -3.1039333224E+00  5.3761702177E+00  4.3392764043E+00
                       6.2078666448E+00  0.0000000000E+00  4.3392764043E+00
                      -5.6212199820E+00  9.7362386094E+00  0.0000000000E+00
                       4.4535116084E+00  7.7137083777E+00  4.3392764043E+00
                       1.1242439964E+01  0.0000000000E+00  0.0000000000E+00
             xred      0.0000000000E+00  0.0000000000E+00  5.0000000000E-01
                       3.3333333333E-01  6.6666666667E-01  0.0000000000E+00
                       6.6666666667E-01  3.3333333333E-01  0.0000000000E+00
                       2.5620100000E-01  2.5620100000E-01  0.0000000000E+00
                       0.0000000000E+00  4.1071200000E-01  5.0000000000E-01
                       4.1071200000E-01  0.0000000000E+00  5.0000000000E-01
                       0.0000000000E+00  7.4379900000E-01  0.0000000000E+00
                       5.8928800000E-01  5.8928800000E-01  5.0000000000E-01
                       7.4379900000E-01  0.0000000000E+00  0.0000000000E+00
            znucl       56.00000   17.00000

- Timing analysis has been suppressed with timopt=0

 Suggested references for the acknowledgment of ABINIT usage.

 Calculation completed.
.Delivered   6 WARNINGs and   5 COMMENTs to log file.