.Version 9.5.2 of ABINIT

 ABINIT is a project of the Universite Catholique de Louvain,
 Corning Inc. and other collaborators, see ~abinit/doc/developers/contributors.txt .
 acknowledgments of the ABINIT effort.

.Starting date : Mon 24 May 2021.
- ( at 10h57 )

- input  file    -> /scratch/users/j/a/jabreu/flow_simple_10atoms/flow/w276/t1/run.abi
- output file    -> /scratch/users/j/a/jabreu/flow_simple_10atoms/flow/w276/t1/run.abo
- root for input  files -> /scratch/users/j/a/jabreu/flow_simple_10atoms/flow/w276/t1/indata/in
- root for output files -> /scratch/users/j/a/jabreu/flow_simple_10atoms/flow/w276/t1/outdata/out

 Symmetries : space group Cm c m (# 63); Bravais oC (1-face-center ortho.)
     intxc =       0      iscf =       7    lmnmax =      18     lnmax =       6
     mgfft =      80  mpssoang =       3    mqgrid =    3196     natom =      10
  nloc_mem =       1    nspden =       1   nspinor =       1    nsppol =       1
      nsym =       8    n1xccc =    2501    ntypat =       4    occopt =       1
   xclevel =       2
-    mband =          53        mffmem =           1         mkmem =           2
-   mkqmem =           2        mk1mem =           2           mpw =       19412
      nfft =      409600          nkpt =           2
  Rough estimation (10% accuracy) of disk space for files :

------------- Echo of variables that govern the present computation ------------
-
- outvars: echo of selected default values
-   iomode0 =  0 , fftalg0 =512 , wfoptalg0 =  0
-
- outvars: echo of global parameters not present in the input file
-  max_nthreads =    0
-
 -outvars: echo values of preprocessed input variables --------
            acell      1.0000000000E+00  1.0000000000E+00  1.0000000000E+00 Bohr
              amu      8.76200000E+01  2.08980370E+02  7.99040000E+01
                       1.59994000E+01
             ecut      4.40000000E+01 Hartree
-          fftalg         512
           irdden           1
           irdwfk           1
              ixc     -116133
              kpt      2.56256887E-01  2.56256887E-01  0.00000000E+00
                      -5.00000000E-01  5.00000000E-01  0.00000000E+00
           kptopt           0
P           mkmem           2
P          mkqmem           2
P          mk1mem           2
            natom          10
            nband          53
           nbdbuf           4
            ngfft          80      80      64
             nkpt           2
            nstep        2000
             nsym           8
           ntypat           4
              occ      2.000000  2.000000  2.000000  2.000000  2.000000  2.000000
                       2.000000  2.000000  2.000000  2.000000  2.000000  2.000000
                       2.000000  2.000000  2.000000  2.000000  2.000000  2.000000
                       2.000000  2.000000  2.000000  2.000000  2.000000  2.000000
                       2.000000  2.000000  2.000000  2.000000  2.000000  2.000000
                       2.000000  2.000000  2.000000  2.000000  2.000000  2.000000
                       2.000000  2.000000  2.000000  2.000000  2.000000  2.000000
                       2.000000  2.000000  0.000000  0.000000  0.000000  0.000000
                       0.000000  0.000000  0.000000  0.000000  0.000000
        optdriver           1
            prtwf          -1
            rfdir           1       1       1
           rfelfd           2
            rprim      1.3164862954E+01  0.0000000000E+00  0.0000000000E+00
                      -8.6689571248E+00  9.9077141142E+00  0.0000000000E+00
                       0.0000000000E+00  0.0000000000E+00  1.0700884398E+01
          spgroup          63
           symrel      1  0  0   0  1  0   0  0  1      -1  0  0   0 -1  0   0  0 -1
                       0  1  0   1  0  0   0  0 -1       0 -1  0  -1  0  0   0  0  1
                      -1  0  0   0 -1  0   0  0  1       1  0  0   0  1  0   0  0 -1
                       0 -1  0  -1  0  0   0  0 -1       0  1  0   1  0  0   0  0  1
            tnons      0.0000000  0.0000000  0.0000000     0.0000000  0.0000000  0.0000000
                       0.0000000 -0.0000000  0.0000000     0.0000000  0.0000000  0.0000000
                       0.0000000  0.0000000  0.5000000     0.0000000  0.0000000  0.5000000
                       0.0000000  0.0000000  0.5000000     0.0000000 -0.0000000  0.5000000
           tolwfr      1.00000000E-20
            typat      1  1  2  2  3  3  4  4  4  4
           useylm           1
              wtk        0.50000    0.50000
           xangst      5.7763604599E+00  5.4008013164E-01  4.2469981014E+00
                      -3.3972295630E+00  4.7028563668E+00  1.4156660338E+00
                       2.5733418889E-01  3.0444945806E+00  1.4156660338E+00
                       2.1217967080E+00  2.1984419179E+00  4.2469981014E+00
                      -1.7581616948E+00  3.9590829093E+00  4.2469981014E+00
                       4.1372925917E+00  1.2838535892E+00  1.4156660338E+00
                       6.2967743709E-01  1.3876322742E+00  0.0000000000E+00
                       1.7494534598E+00  3.8553042242E+00  2.8313320676E+00
                       1.7494534598E+00  3.8553042242E+00  0.0000000000E+00
                       6.2967743709E-01  1.3876322742E+00  2.8313320676E+00
            xcart      1.0915739314E+01  1.0206035386E+00  8.0256632986E+00
                      -6.4198334846E+00  8.8871105756E+00  2.6752210995E+00
                       4.8629114163E-01  5.7532609704E+00  2.6752210995E+00
                       4.0096146878E+00  4.1544531438E+00  8.0256632986E+00
                      -3.3224441006E+00  7.4815824359E+00  8.0256632986E+00
                       7.8183499300E+00  2.4261316783E+00  2.6752210995E+00
                       1.1899179081E+00  2.6222449715E+00  0.0000000000E+00
                       3.3059879213E+00  7.2854691427E+00  5.3504421991E+00
                       3.3059879213E+00  7.2854691427E+00  0.0000000000E+00
                       1.1899179081E+00  2.6222449715E+00  5.3504421991E+00
             xred      8.9698900000E-01  1.0301100000E-01  7.5000000000E-01
                       1.0301100000E-01  8.9698900000E-01  2.5000000000E-01
                       4.1931500000E-01  5.8068500000E-01  2.5000000000E-01
                       5.8068500000E-01  4.1931500000E-01  7.5000000000E-01
                       2.4487300000E-01  7.5512700000E-01  7.5000000000E-01
                       7.5512700000E-01  2.4487300000E-01  2.5000000000E-01
                       2.6466700000E-01  2.6466700000E-01  0.0000000000E+00
                       7.3533300000E-01  7.3533300000E-01  5.0000000000E-01
                       7.3533300000E-01  7.3533300000E-01  0.0000000000E+00
                       2.6466700000E-01  2.6466700000E-01  5.0000000000E-01
            znucl       38.00000   83.00000   35.00000    8.00000

 chkinp: Checking input parameters for consistency.

== DATASET  1 ==================================================================
-   mpi_nproc: 1, omp_nthreads: -1 (-1 if OMP is not activated)

--- !DatasetInfo
iteration_state: {dtset: 1, }
dimensions: {natom: 10, nkpt: 2, mband: 53, nsppol: 1, nspinor: 1, nspden: 1, mpw: 19412, }
cutoff_energies: {ecut:  44.0, pawecutdg:  -1.0, }
electrons: {nelect:   8.80000000E+01, charge:   0.00000000E+00, occopt:   1.00000000E+00, tsmear:   1.00000000E-02, }
meta: {optdriver: 1, rfelfd: 2, }
...

 Real(R)+Recip(G) space primitive vectors, cartesian coordinates (Bohr,Bohr^-1):
 R(1)= 13.1648630  0.0000000  0.0000000  G(1)=  0.0759598  0.0664626  0.0000000
 R(2)= -8.6689571  9.9077141  0.0000000  G(2)=  0.0000000  0.1009315  0.0000000
 R(3)=  0.0000000  0.0000000 10.7008844  G(3)=  0.0000000  0.0000000  0.0934502
 Unit cell volume ucvol=  1.3957559E+03 bohr^3
 Angles (23,13,12)=  9.00000000E+01  9.00000000E+01  1.31184966E+02 degrees

 getcut: wavevector=  0.0000  0.0000  0.0000  ngfft=  80  80  64
         ecut(hartree)=     44.000   => boxcut(ratio)=   2.00294

--- Pseudopotential description ------------------------------------------------
- pspini: atom type   1  psp file is /scratch/users/j/a/jabreu/pseudos/PBEsol/Sr.psp8
- pspatm: opening atomic psp file    /scratch/users/j/a/jabreu/pseudos/PBEsol/Sr.psp8
- Sr    ONCVPSP-3.3.0  r_core=   1.66721   1.31335   1.51547
- 38.00000  10.00000    180112                znucl, zion, pspdat
    8 -116133    2    4       600   0.00000   pspcod,pspxc,lmax,lloc,mmax,r2well
    5.99000000000000    6.00000000000000    0.00000000000000   rchrg,fchrg,qchrg
     nproj     2     2     2
     extension_switch     1
  pspatm : epsatm=   12.46450977
         --- l  ekb(1:nproj) -->
             0   10.029206    1.044171
             1    7.472414    1.670829
             2    4.142950    0.968140
 pspatm: atomic psp has been read  and splines computed

- pspini: atom type   2  psp file is /scratch/users/j/a/jabreu/pseudos/PBEsol/Bi.psp8
- pspatm: opening atomic psp file    /scratch/users/j/a/jabreu/pseudos/PBEsol/Bi.psp8
- Bi    ONCVPSP-3.3.0  r_core=   2.42776   2.51622   2.10397
- 83.00000  15.00000    180112                znucl, zion, pspdat
    8 -116133    2    4       600   0.00000   pspcod,pspxc,lmax,lloc,mmax,r2well
    5.99000000000000    6.00000000000000    0.00000000000000   rchrg,fchrg,qchrg
     nproj     2     2     2
     extension_switch     1
  pspatm : epsatm=   42.90078186
         --- l  ekb(1:nproj) -->
             0    6.017688    0.961606
             1    4.379371    0.528498
             2   -3.458170   -0.753782
 pspatm: atomic psp has been read  and splines computed

[...]

- pspini: atom type   4  psp file is /scratch/users/j/a/jabreu/pseudos/PBEsol/O.psp8
- pspatm: opening atomic psp file    /scratch/users/j/a/jabreu/pseudos/PBEsol/O.psp8
- O     ONCVPSP-3.3.0  r_core=   1.35509   1.45563   1.26150
-  8.00000   6.00000    180112                znucl, zion, pspdat
    8 -116133    2    4       600   0.00000   pspcod,pspxc,lmax,lloc,mmax,r2well
    5.99000000000000    4.00000000000000    0.00000000000000   rchrg,fchrg,qchrg
     nproj     2     2     1
     extension_switch     1
  pspatm : epsatm=    6.22910522
         --- l  ekb(1:nproj) -->
             0    6.050032    0.820363
             1   -4.739617   -1.153841
             2   -1.335834
 pspatm: atomic psp has been read  and splines computed

   1.38640186E+04                                ecore*ucvol(ha*bohr**3)

 ==>  initialize data related to q vector <==

 The list of irreducible perturbations for this q vector is:
    1)    idir= 1    ipert=  11
    2)    idir= 2    ipert=  11
    3)    idir= 3    ipert=  11

 Perturbation wavevector (in red.coord.)   0.000000  0.000000  0.000000
 Perturbation : derivative vs k along direction   1

 dfpt_looppert : COMMENT -
  In a d/dk calculation, iscf is set to -3 automatically.
 The set of symmetries contains only one element for this perturbation.
 symkpt : not enough symmetry to change the number of k points.

 Initialisation of the first-order wave-functions :
  ireadwf=   0

--- !BeginCycle
iteration_state: {dtset: 1, }
solver: {iscf: 7, nstep: 2000, nline: 4, wfoptalg: 0, }
tolerances: {tolwfr: 1.00E-20, }
...

[...]
 ETOT 18  -51.387864967972      0.000E+00 8.785E-19 0.000E+00
 ETOT 19  -51.387864967972      0.000E+00 9.162E-20 0.000E+00
 ETOT 20  -51.387864967972      0.000E+00 1.602E-20 0.000E+00
 ETOT 21  -51.387864967972     -7.105E-15 9.976E-21 0.000E+00

 At SCF step   21   max residual=  9.98E-21 < tolwfr=  1.00E-20 =>converged.

 ----iterations are completed or convergence reached----

 dfpt_looppert: DFPT cycle converged with prtwf=-1. Will skip output of the 1st-order WFK file.
 dfpt_looppert : ek2=    7.0782430526E+01
          f-sum rule ratio=    1.0023804763E+00
 prteigrs : about to open file /scratch/users/j/a/jabreu/flow_simple_10atoms/flow/w276/t1/tmpdata/tmp_1WF1_EIG
 Expectation of eigenvalue derivatives (hartree) for nkpt=   2  k points:
  (in case of degenerate eigenvalues, averaged derivative)
 kpt#   1, nband= 53, wtk=  0.50000, kpt=  0.2563  0.2563  0.0000 (reduced coord)
   0.00002   -0.00003   -0.00012    0.00015   -0.00001   -0.00000    0.00001    0.00002
   0.00001   -0.00001   -0.00001    0.00002    0.00011   -0.00069   -0.02647    0.02854
  -0.00502   -0.00124   -0.00042   -0.02334    0.04059   -0.00200   -0.01047   -0.00125
   0.00927   -0.01149   -0.00111    0.00020   -0.02127    0.01250   -0.00732    0.06681
  -0.03408    0.04537   -0.03031   -0.00381    0.03039   -0.02626    0.01075   -0.01365
  -0.03626    0.00703   -0.00246    0.00481    0.06618   -0.02117   -0.04714   -0.04522
   0.03365    0.05495   -0.11861   -0.03462   -0.02248
 prteigrs : prtvol=0 or 1, do not print more k-points.

 Eight components of 2nd-order total energy (hartree) are
 1,2,3: 0th-order hamiltonian combined with 1st-order wavefunctions
     kin0=   6.66446431E+01 eigvalue=   4.97909118E+00  local=  -3.57759693E+01
 4,5,6: 1st-order hamiltonian combined with 1st and 0th-order wfs
     kin1=  -7.09509264E+01  Hartree=   0.00000000E+00     xc=   0.00000000E+00
 7,8,9: eventually, occupation + non-local contributions
    edocc=   9.03618153E+00     enl0=   6.50391845E+00   enl1=  -3.18248035E+01
 1-9 gives the relaxation energy (to be shifted if some occ is /=2.0)
   erelax=  -5.13878650E+01
  No Ewald or frozen-wf contrib.: the relaxation energy is the total one
 2DEtotal=   -0.5138786497E+02 Ha. Also 2DEtotal=   -0.139833491939E+04 eV
    (  non-var. 2DEtotal :   -5.1387864968E+01 Ha)

 Perturbation wavevector (in red.coord.)   0.000000  0.000000  0.000000
 Perturbation : derivative vs k along direction   2
 The set of symmetries contains only one element for this perturbation.
 symkpt : not enough symmetry to change the number of k points.

[...]

 Perturbation wavevector (in red.coord.)   0.000000  0.000000  0.000000
 Perturbation : derivative vs k along direction   3
 The set of symmetries contains only one element for this perturbation.
 symkpt : not enough symmetry to change the number of k points.

 Initialisation of the first-order wave-functions :
  ireadwf=   0

--- !BeginCycle
iteration_state: {dtset: 1, }
solver: {iscf: 7, nstep: 2000, nline: 4, wfoptalg: 0, }
tolerances: {tolwfr: 1.00E-20, }
...

     iter   2DEtotal(Ha)        deltaE(Ha) residm    vres2
-ETOT  1  -45.520194739249     -4.552E+01 8.295E-02 0.000E+00
 ETOT  2  -45.575832802555     -5.564E-02 1.419E-02 0.000E+00
 ETOT  3  -45.576172988737     -3.402E-04 1.167E-03 0.000E+00
 ETOT  4  -45.576177792429     -4.804E-06 3.022E-04 0.000E+00
 ETOT  5  -45.576177877842     -8.541E-08 3.079E-05 0.000E+00
 ETOT  6  -45.576177879553     -1.711E-09 7.695E-06 0.000E+00
 ETOT  7  -45.576177879590     -3.702E-11 7.941E-07 0.000E+00
 ETOT  8  -45.576177879591     -8.313E-13 2.042E-07 0.000E+00
 ETOT  9  -45.576177879591     -9.948E-14 2.095E-08 0.000E+00
 ETOT 10  -45.576177879591     -1.421E-14 5.372E-09 0.000E+00
 ETOT 11  -45.576177879591      3.553E-14 5.513E-10 0.000E+00
 ETOT 12  -45.576177879591     -2.842E-14 1.421E-10 0.000E+00
 ETOT 13  -45.576177879591     -7.105E-15 1.474E-11 0.000E+00
 ETOT 14  -45.576177879591     -7.105E-15 3.784E-12 0.000E+00
 ETOT 15  -45.576177879591      7.105E-15 3.945E-13 0.000E+00
 ETOT 16  -45.576177879591     -7.105E-15 1.014E-13 0.000E+00
 ETOT 17  -45.576177879591      2.132E-14 1.064E-14 0.000E+00
 ETOT 18  -45.576177879591      7.105E-15 2.727E-15 0.000E+00
 ETOT 19  -45.576177879591      0.000E+00 2.873E-16 0.000E+00
 ETOT 20  -45.576177879591      0.000E+00 7.358E-17 0.000E+00
 ETOT 21  -45.576177879591      7.105E-15 7.787E-18 0.000E+00
 ETOT 22  -45.576177879591     -7.105E-15 1.991E-18 0.000E+00
 ETOT 23  -45.576177879591     -1.421E-14 2.113E-19 0.000E+00
 ETOT 24  -45.576177879591      1.421E-14 5.396E-20 0.000E+00
 ETOT 25  -45.576177879591      0.000E+00 9.779E-21 0.000E+00

 At SCF step   25   max residual=  9.78E-21 < tolwfr=  1.00E-20 =>converged.

 ----iterations are completed or convergence reached----

 dfpt_looppert: DFPT cycle converged with prtwf=-1. Will skip output of the 1st-order WFK file.
 dfpt_looppert : ek2=    6.0678251787E+01
          f-sum rule ratio=    1.0594339775E+00
 prteigrs : about to open file /scratch/users/j/a/jabreu/flow_simple_10atoms/flow/w276/t1/tmpdata/tmp_1WF1_EIG
 Expectation of eigenvalue derivatives (hartree) for nkpt=   2  k points:
  (in case of degenerate eigenvalues, averaged derivative)
 kpt#   1, nband= 53, wtk=  0.50000, kpt=  0.2563  0.2563  0.0000 (reduced coord)
  -0.00000   -0.00000   -0.00000    0.00000   -0.00000    0.00000    0.00000   -0.00000
   0.00000   -0.00000    0.00000   -0.00000    0.00000   -0.00000   -0.00000    0.00000
  -0.00000   -0.00000   -0.00000    0.00000    0.00000   -0.00000    0.00000    0.00000
   0.00000    0.00000   -0.00000    0.00000   -0.00000    0.00000   -0.00000    0.00000
   0.00000    0.00000   -0.00000   -0.00000   -0.00000   -0.00000   -0.00000   -0.00000
   0.00000    0.00000    0.00000   -0.00000   -0.00000   -0.00000    0.00000    0.00000
   0.00000    0.00000   -0.00000    0.00000    0.00000
 prteigrs : prtvol=0 or 1, do not print more k-points.

 Eight components of 2nd-order total energy (hartree) are
 1,2,3: 0th-order hamiltonian combined with 1st-order wavefunctions
     kin0=   5.83556948E+01 eigvalue=   4.42209603E+00  local=  -3.19908606E+01
 4,5,6: 1st-order hamiltonian combined with 1st and 0th-order wfs
     kin1=  -6.42846016E+01  Hartree=   0.00000000E+00     xc=   0.00000000E+00
 7,8,9: eventually, occupation + non-local contributions
    edocc=   8.55198269E+00     enl0=   6.23726497E+00   enl1=  -2.68677541E+01
 1-9 gives the relaxation energy (to be shifted if some occ is /=2.0)
   erelax=  -4.55761779E+01
  No Ewald or frozen-wf contrib.: the relaxation energy is the total one
 2DEtotal=   -0.4557617788E+02 Ha. Also 2DEtotal=   -0.124019087115E+04 eV
    (  non-var. 2DEtotal :   -4.5576177879E+01 Ha)

 CALCULATION OF EFFECTIVE MASSES
 NOTE : Additional infos (eff. mass eigenvalues, eigenvectors and, if degenerate, average mass) are available in stdout.

--- !WARNING
src_file: m_efmas.F90
src_line: 0
message: |

    Band(s)    44,
    are not band extrema, but saddle points;
    the transport equivalent formalism breaks down in these conditions.
    The associated tensor(s) will therefore not be printed.
...

 K-point ( 0.256, 0.256, 0.000) | band =    44
 Effective mass tensor:
     *** SADDLE POINT: TRANSPORT EQV. EFF. MASS NOT DEFINED (see WARNING above) ***
 Angular average effective mass 1/(<1/m>)=  -2.4099577774
 Angular average effective mass for Frohlich model (<m**0.5>)**2=  -8.5143726404
 Effective masses along directions: (cart. coord. / red. coord. -> eff. mass)
    1:   1.000000  0.000000  0.000000 /   0.835188 -0.549965  0.000000 ->  -3.9545519179
    2:   0.000000  1.000000  0.000000 /   0.000000  1.000000  0.000000 ->  -1.0005391442
    3:   0.000000  0.000000  1.000000 /   0.000000  0.000000  1.000000 -> 133.3473956365
    4:   0.577350  0.577350  0.577350 /   0.773926  0.072823  0.629075 ->  -1.4298601204
    5:   0.000000  0.707107  0.707107 /   0.000000  0.679389  0.733778 ->  -2.0162063908
    6:   0.707107  0.000000  0.707107 /   0.691001 -0.455019  0.561671 ->  -8.1508248870
    7:   0.707107  0.707107  0.000000 /   0.995602  0.093682  0.000000 ->  -0.9498450736

 K-point (-0.500, 0.500, 0.000) | band =    45
 Effective mass tensor:
             21.9467698148             -9.7545858331             -0.0000000007
             -9.7545858331              4.8768210064              0.0000000003
             -0.0000000007              0.0000000003              0.3580626898
 Effective mass tensor eigenvalues:
              0.3580626898              0.4504014711             26.3731893501
 Angular average effective mass 1/(<1/m>)=   0.5939458213
 Angular average effective mass for Frohlich model (<m**0.5>)**2=   0.8524607570
 Effective masses along directions: (cart. coord. / red. coord. -> eff. mass)
    1:   1.000000  0.000000  0.000000 /   0.835188 -0.549965  0.000000 ->   2.4357103253
    2:   0.000000  1.000000  0.000000 /   0.000000  1.000000  0.000000 ->   0.5412424416
    3:   0.000000  0.000000  1.000000 /   0.000000  0.000000  1.000000 ->   0.3580626898
    4:   0.577350  0.577350  0.577350 /   0.773926  0.072823  0.629075 ->   0.4482056488
    5:   0.000000  0.707107  0.707107 /   0.000000  0.679389  0.733778 ->   0.4309965944
    6:   0.707107  0.000000  0.707107 /   0.691001 -0.455019  0.561671 ->   0.6243434853
    7:   0.707107  0.707107  0.000000 /   0.995602  0.093682  0.000000 ->   0.5127483294

 END OF EFFECTIVE MASSES SECTION

 ---- first-order wavefunction calculations are completed ----

 Total localisation tensor (bohr^2) in cartesian coordinates
  WARNING : still subject to testing - especially symmetries.
      direction              matrix element
   alpha     beta       real part   imaginary part
     1        1       2.3952918095    0.0000000000
     1        2      -0.8280079749    0.0000000000
     1        3       0.0000000000    0.0000000000
     2        1      -0.8280079749    0.0000000000
     2        2       0.9463267821    0.0000000000
     2        3       0.0000000000    0.0000000000
     3        1       0.0000000000    0.0000000000
     3        2       0.0000000000    0.0000000000
     3        3       1.1050341144    0.0000000000

 respfn : d/dk was computed, but no 2DTE, so no DDB output.

== END DATASET(S) ==============================================================

 -outvars: echo values of variables after computation  --------
            acell      1.0000000000E+00  1.0000000000E+00  1.0000000000E+00 Bohr
              amu      8.76200000E+01  2.08980370E+02  7.99040000E+01
                       1.59994000E+01
             ecut      4.40000000E+01 Hartree
           etotal     -4.5576177880E+01
            fcart      0.0000000000E+00  0.0000000000E+00  0.0000000000E+00
                       0.0000000000E+00  0.0000000000E+00  0.0000000000E+00
                       0.0000000000E+00  0.0000000000E+00  0.0000000000E+00
                       0.0000000000E+00  0.0000000000E+00  0.0000000000E+00
                       0.0000000000E+00  0.0000000000E+00  0.0000000000E+00
                       0.0000000000E+00  0.0000000000E+00  0.0000000000E+00
                       0.0000000000E+00  0.0000000000E+00  0.0000000000E+00
                       0.0000000000E+00  0.0000000000E+00  0.0000000000E+00
                       0.0000000000E+00  0.0000000000E+00  0.0000000000E+00
                       0.0000000000E+00  0.0000000000E+00  0.0000000000E+00
-          fftalg         512
           irdden           1
           irdwfk           1
              ixc     -116133
              kpt      2.56256887E-01  2.56256887E-01  0.00000000E+00
                      -5.00000000E-01  5.00000000E-01  0.00000000E+00
           kptopt           0
P           mkmem           2
P          mkqmem           2
P          mk1mem           2
            natom          10
            nband          53
           nbdbuf           4
            ngfft          80      80      64
             nkpt           2
            nstep        2000
             nsym           8
           ntypat           4
              occ      2.000000  2.000000  2.000000  2.000000  2.000000  2.000000
                       2.000000  2.000000  2.000000  2.000000  2.000000  2.000000
                       2.000000  2.000000  2.000000  2.000000  2.000000  2.000000
                       2.000000  2.000000  2.000000  2.000000  2.000000  2.000000
                       2.000000  2.000000  2.000000  2.000000  2.000000  2.000000
                       2.000000  2.000000  2.000000  2.000000  2.000000  2.000000
                       2.000000  2.000000  2.000000  2.000000  2.000000  2.000000
                       2.000000  2.000000  0.000000  0.000000  0.000000  0.000000
                       0.000000  0.000000  0.000000  0.000000  0.000000
        optdriver           1
            prtwf          -1
            rfdir           1       1       1
           rfelfd           2
            rprim      1.3164862954E+01  0.0000000000E+00  0.0000000000E+00
                      -8.6689571248E+00  9.9077141142E+00  0.0000000000E+00
                       0.0000000000E+00  0.0000000000E+00  1.0700884398E+01
          spgroup          63
           strten      0.0000000000E+00  0.0000000000E+00  0.0000000000E+00
                       0.0000000000E+00  0.0000000000E+00  0.0000000000E+00
           symrel      1  0  0   0  1  0   0  0  1      -1  0  0   0 -1  0   0  0 -1
                       0  1  0   1  0  0   0  0 -1       0 -1  0  -1  0  0   0  0  1
                      -1  0  0   0 -1  0   0  0  1       1  0  0   0  1  0   0  0 -1
                       0 -1  0  -1  0  0   0  0 -1       0  1  0   1  0  0   0  0  1
            tnons      0.0000000  0.0000000  0.0000000     0.0000000  0.0000000  0.0000000
                       0.0000000 -0.0000000  0.0000000     0.0000000  0.0000000  0.0000000
                       0.0000000  0.0000000  0.5000000     0.0000000  0.0000000  0.5000000
                       0.0000000  0.0000000  0.5000000     0.0000000 -0.0000000  0.5000000
           tolwfr      1.00000000E-20
            typat      1  1  2  2  3  3  4  4  4  4
           useylm           1
              wtk        0.50000    0.50000
           xangst      5.7763604599E+00  5.4008013164E-01  4.2469981014E+00
                      -3.3972295630E+00  4.7028563668E+00  1.4156660338E+00
                       2.5733418889E-01  3.0444945806E+00  1.4156660338E+00
                       2.1217967080E+00  2.1984419179E+00  4.2469981014E+00
                      -1.7581616948E+00  3.9590829093E+00  4.2469981014E+00
                       4.1372925917E+00  1.2838535892E+00  1.4156660338E+00
                       6.2967743709E-01  1.3876322742E+00  0.0000000000E+00
                       1.7494534598E+00  3.8553042242E+00  2.8313320676E+00
                       1.7494534598E+00  3.8553042242E+00  0.0000000000E+00
                       6.2967743709E-01  1.3876322742E+00  2.8313320676E+00
            xcart      1.0915739314E+01  1.0206035386E+00  8.0256632986E+00
                      -6.4198334846E+00  8.8871105756E+00  2.6752210995E+00
                       4.8629114163E-01  5.7532609704E+00  2.6752210995E+00
                       4.0096146878E+00  4.1544531438E+00  8.0256632986E+00
                      -3.3224441006E+00  7.4815824359E+00  8.0256632986E+00
                       7.8183499300E+00  2.4261316783E+00  2.6752210995E+00
                       1.1899179081E+00  2.6222449715E+00  0.0000000000E+00
                       3.3059879213E+00  7.2854691427E+00  5.3504421991E+00
                       3.3059879213E+00  7.2854691427E+00  0.0000000000E+00
                       1.1899179081E+00  2.6222449715E+00  5.3504421991E+00
             xred      8.9698900000E-01  1.0301100000E-01  7.5000000000E-01
                       1.0301100000E-01  8.9698900000E-01  2.5000000000E-01
                       4.1931500000E-01  5.8068500000E-01  2.5000000000E-01
                       5.8068500000E-01  4.1931500000E-01  7.5000000000E-01
                       2.4487300000E-01  7.5512700000E-01  7.5000000000E-01
                       7.5512700000E-01  2.4487300000E-01  2.5000000000E-01
                       2.6466700000E-01  2.6466700000E-01  0.0000000000E+00
                       7.3533300000E-01  7.3533300000E-01  5.0000000000E-01
                       7.3533300000E-01  7.3533300000E-01  0.0000000000E+00
                       2.6466700000E-01  2.6466700000E-01  5.0000000000E-01
            znucl       38.00000   83.00000   35.00000    8.00000

- Timing analysis has been suppressed with timopt=0

 Suggested references for the acknowledgment of ABINIT usage.

 Calculation completed.
.Delivered   3 WARNINGs and   5 COMMENTs to log file.