.Version 9.5.1 of ABINIT

 ABINIT is a project of the Universite Catholique de Louvain,
 Corning Inc. and other collaborators, see ~abinit/doc/developers/contributors.txt .
 acknowledgments of the ABINIT effort.

.Starting date : Tue 27 Apr 2021.
- ( at 18h37 )

- input  file    -> /scratch/users/j/a/jabreu/flow_simple_4atoms/flow/w212/t1/run.abi
- output file    -> /scratch/users/j/a/jabreu/flow_simple_4atoms/flow/w212/t1/run.abo
- root for input  files -> /scratch/users/j/a/jabreu/flow_simple_4atoms/flow/w212/t1/indata/in
- root for output files -> /scratch/users/j/a/jabreu/flow_simple_4atoms/flow/w212/t1/outdata/out

 Symmetries : space group P6_3 m c (#186); Bravais hP (primitive hexag.)
     intxc =       0      iscf =       7    lmnmax =      18     lnmax =       6
     mgfft =      80  mpssoang =       3    mqgrid =    3987     natom =       4
  nloc_mem =       1    nspden =       1   nspinor =       1    nsppol =       1
      nsym =      12    n1xccc =    2501    ntypat =       2    occopt =       1
   xclevel =       2
-    mband =          35        mffmem =           1         mkmem =           1
-   mkqmem =           1        mk1mem =           1           mpw =       10539
      nfft =      200000          nkpt =           1
  Rough estimation (10% accuracy) of disk space for files :

------------- Echo of variables that govern the present computation ------------
-
- outvars: echo of selected default values
-   iomode0 =  0 , fftalg0 =512 , wfoptalg0 =  0
-
- outvars: echo of global parameters not present in the input file
-  max_nthreads =    0
-
 -outvars: echo values of preprocessed input variables --------
            acell      1.0000000000E+00  1.0000000000E+00  1.0000000000E+00 Bohr
              amu      6.35460000E+01  1.26904470E+02
             ecut      4.60000000E+01 Hartree
-          fftalg         512
           irdden           1
           irdwfk           1
           istwfk        1
              ixc     -116133
           kptopt           0
P           mkmem           1
P          mkqmem           1
P          mk1mem           1
            natom           4
            nband          35
           nbdbuf           4
            ngfft          50      50      80
             nkpt           1
            nstep         100
             nsym          12
           ntypat           2
              occ      2.000000  2.000000  2.000000  2.000000  2.000000  2.000000
                       2.000000  2.000000  2.000000  2.000000  2.000000  2.000000
                       2.000000  2.000000  2.000000  2.000000  2.000000  2.000000
                       2.000000  2.000000  2.000000  2.000000  2.000000  2.000000
                       2.000000  2.000000  0.000000  0.000000  0.000000  0.000000
                       0.000000  0.000000  0.000000  0.000000  0.000000
        optdriver           1
            prtwf          -1
            rfdir           1       1       1
           rfelfd           2
            rprim      7.9254144426E+00  0.0000000000E+00  0.0000000000E+00
                      -3.9627072213E+00  6.8636102428E+00  0.0000000000E+00
                       0.0000000000E+00  0.0000000000E+00  1.3056856451E+01
          spgroup         186
           symrel      1  0  0   0  1  0   0  0  1       0  1  0   1  0  0   0  0  1
                       1  1  0  -1  0  0   0  0  1      -1  0  0   1  1  0   0  0  1
                       0  1  0  -1 -1  0   0  0  1      -1 -1  0   0  1  0   0  0  1
                      -1  0  0   0 -1  0   0  0  1       0 -1  0  -1  0  0   0  0  1
                      -1 -1  0   1  0  0   0  0  1       1  0  0  -1 -1  0   0  0  1
                       0 -1  0   1  1  0   0  0  1       1  1  0   0 -1  0   0  0  1
            tnons      0.0000000  0.0000000  0.0000000    -0.0000000  0.0000000  0.5000000
                       0.0000000  0.0000000  0.5000000    -0.0000000  0.0000000  0.0000000
                       0.0000000  0.0000000  0.0000000    -0.0000000 -0.0000000  0.5000000
                      -0.0000000  0.0000000  0.5000000     0.0000000  0.0000000  0.0000000
                      -0.0000000  0.0000000  0.0000000     0.0000000  0.0000000  0.5000000
                      -0.0000000 -0.0000000  0.5000000     0.0000000  0.0000000  0.0000000
           tolwfr      1.00000000E-20
            typat      1  1  2  2
           useylm           1
           xangst     -7.0500566530E-16  2.4213774061E+00  4.3271234793E+00
                       2.0969743458E+00  1.2106887030E+00  8.7242805443E-01
                      -7.0500566530E-16  2.4213774061E+00  6.9006366516E+00
                       2.0969743458E+00  1.2106887030E+00  3.4459412267E+00
            xcart     -1.3322676296E-15  4.5757401619E+00  8.1770783191E+00
                       3.9627072213E+00  2.2878700809E+00  1.6486500935E+00
                      -1.3322676296E-15  4.5757401619E+00  1.3040313414E+01
                       3.9627072213E+00  2.2878700809E+00  6.5118851885E+00
             xred      3.3333333333E-01  6.6666666667E-01  6.2626700000E-01
                       6.6666666667E-01  3.3333333333E-01  1.2626700000E-01
                       3.3333333333E-01  6.6666666667E-01  9.9873300000E-01
                       6.6666666667E-01  3.3333333333E-01  4.9873300000E-01
            znucl       29.00000   53.00000

 chkinp: Checking input parameters for consistency.

== DATASET  1 ==================================================================
-   mpi_nproc: 1, omp_nthreads: -1 (-1 if OMP is not activated)

--- !DatasetInfo
iteration_state: {dtset: 1, }
dimensions: {natom: 4, nkpt: 1, mband: 35, nsppol: 1, nspinor: 1, nspden: 1, mpw: 10539, }
cutoff_energies: {ecut:  46.0, pawecutdg:  -1.0, }
electrons: {nelect:   5.20000000E+01, charge:   0.00000000E+00, occopt:   1.00000000E+00, tsmear:   1.00000000E-02, }
meta: {optdriver: 1, rfelfd: 2, }
...

 Real(R)+Recip(G) space primitive vectors, cartesian coordinates (Bohr,Bohr^-1):
 R(1)=  7.9254144  0.0000000  0.0000000  G(1)=  0.1261764  0.0728480  0.0000000
 R(2)= -3.9627072  6.8636102  0.0000000  G(2)=  0.0000000  0.1456959  0.0000000
 R(3)=  0.0000000  0.0000000 13.0568565  G(3)=  0.0000000  0.0000000  0.0765881
 Unit cell volume ucvol=  7.1025324E+02 bohr^3
 Angles (23,13,12)=  9.00000000E+01  9.00000000E+01  1.20000000E+02 degrees

 getcut: wavevector=  0.0000  0.0000  0.0000  ngfft=  50  50  80
         ecut(hartree)=     46.000   => boxcut(ratio)=   2.00681

--- Pseudopotential description ------------------------------------------------
- pspini: atom type   1  psp file is /scratch/users/j/a/jabreu/pseudos/PBEsol/Cu.psp8
- pspatm: opening atomic psp file    /scratch/users/j/a/jabreu/pseudos/PBEsol/Cu.psp8
- Cu    ONCVPSP-3.3.0  r_core=   1.26204   1.45626   1.76249
- 29.00000  19.00000    180112                znucl, zion, pspdat
    8 -116133    2    4       600   0.00000   pspcod,pspxc,lmax,lloc,mmax,r2well
    5.99000000000000    3.50000000000000    0.00000000000000   rchrg,fchrg,qchrg
     nproj     2     2     2
     extension_switch     1
  pspatm : epsatm=   21.63488701
         --- l  ekb(1:nproj) -->
             0    5.008230   -0.401634
             1   -3.496700   -0.765945
             2   -6.895851   -2.521180
 pspatm: atomic psp has been read  and splines computed

- pspini: atom type   2  psp file is /scratch/users/j/a/jabreu/pseudos/PBEsol/I.psp8
- pspatm: opening atomic psp file    /scratch/users/j/a/jabreu/pseudos/PBEsol/I.psp8
- I     ONCVPSP-3.3.0  r_core=   2.02042   2.17032   2.27639
- 53.00000   7.00000    180112                znucl, zion, pspdat
    8 -116133    2    4       600   0.00000   pspcod,pspxc,lmax,lloc,mmax,r2well
    5.99000000000000    4.00000000000000    0.00000000000000   rchrg,fchrg,qchrg
     nproj     2     2     2
     extension_switch     1
  pspatm : epsatm=   18.14229533
         --- l  ekb(1:nproj) -->
             0    6.015861    0.935228
             1    4.063749    0.754139
             2    4.149534    0.722940
 pspatm: atomic psp has been read  and splines computed

   4.13682696E+03                                ecore*ucvol(ha*bohr**3)

-inwffil : will read wavefunctions from disk file /scratch/users/j/a/jabreu/flow_simple_4atoms/flow/w212/t1/indata/in_WFK

 ==>  initialize data related to q vector <==

 The list of irreducible perturbations for this q vector is:
    1)    idir= 1    ipert=   5
    2)    idir= 2    ipert=   5
    3)    idir= 3    ipert=   5

 Perturbation wavevector (in red.coord.)   0.000000  0.000000  0.000000
 Perturbation : derivative vs k along direction   1

 dfpt_looppert : COMMENT -
  In a d/dk calculation, iscf is set to -3 automatically.
 The set of symmetries contains only one element for this perturbation.
 symkpt : not enough symmetry to change the number of k points.

[...]

 Initialisation of the first-order wave-functions :
  ireadwf=   0

--- !BeginCycle
iteration_state: {dtset: 1, }
solver: {iscf: 7, nstep: 100, nline: 4, wfoptalg: 0, }
tolerances: {tolwfr: 1.00E-20, }
...

     iter   2DEtotal(Ha)        deltaE(Ha) residm    vres2
-ETOT  1  -72.781228846851     -7.278E+01 6.011E-02 0.000E+00
 ETOT  2  -72.927918378931     -1.467E-01 1.073E-03 0.000E+00
 ETOT  3  -72.930975557662     -3.057E-03 2.217E-05 0.000E+00
 ETOT  4  -72.931069665751     -9.411E-05 9.157E-07 0.000E+00
 ETOT  5  -72.931073164699     -3.499E-06 3.227E-08 0.000E+00
 ETOT  6  -72.931073305141     -1.404E-07 1.388E-09 0.000E+00
 ETOT  7  -72.931073311170     -6.029E-09 5.607E-11 0.000E+00
 ETOT  8  -72.931073311438     -2.682E-10 3.187E-12 0.000E+00
 ETOT  9  -72.931073311450     -1.205E-11 1.347E-13 0.000E+00
 ETOT 10  -72.931073311451     -8.242E-13 8.302E-15 0.000E+00
 ETOT 11  -72.931073311451     -2.842E-14 3.549E-16 0.000E+00
 ETOT 12  -72.931073311451      5.684E-14 2.213E-17 0.000E+00
 ETOT 13  -72.931073311451      8.527E-14 9.499E-19 0.000E+00
 ETOT 14  -72.931073311451     -9.948E-14 5.965E-20 0.000E+00
 ETOT 15  -72.931073311451      8.527E-14 9.864E-21 0.000E+00

 At SCF step   15   max residual=  9.86E-21 < tolwfr=  1.00E-20 =>converged.

 ----iterations are completed or convergence reached----

 dfpt_looppert: DFPT cycle converged with prtwf=-1. Will skip output of the 1st-order WFK file.
 dfpt_looppert : ek2=    8.7154105251E+01
          f-sum rule ratio=    1.4808664208E+00
 prteigrs : about to open file /scratch/users/j/a/jabreu/flow_simple_4atoms/flow/w212/t1/tmpdata/tmp_1WF1_EIG
 Expectation of eigenvalue derivatives (hartree) for nkpt=   1  k points:
  (in case of degenerate eigenvalues, averaged derivative)
 kpt#   1, nband= 35, wtk=  1.00000, kpt=  0.0000  0.0000  0.0000 (reduced coord)
  -0.00000   -0.00000    0.00000    0.00000    0.00000    0.00000   -0.00000   -0.00000
  -0.00000   -0.00000    0.00000   -0.00000   -0.00000   -0.00000   -0.00000   -0.00000
   0.00000    0.00000    0.00000    0.00000    0.00000    0.00000    0.00000    0.00000
  -0.00000   -0.00000    0.00000   -0.00000   -0.00000   -0.00000   -0.00000   -0.00000
  -0.00000   -0.00010   -0.00732

 Eight components of 2nd-order total energy (hartree) are
 1,2,3: 0th-order hamiltonian combined with 1st-order wavefunctions
     kin0=   6.37210344E+01 eigvalue=  -4.37046211E-01  local=  -2.46134036E+01
 4,5,6: 1st-order hamiltonian combined with 1st and 0th-order wfs
     kin1=  -1.29063588E+02  Hartree=   0.00000000E+00     xc=   0.00000000E+00
 7,8,9: eventually, occupation + non-local contributions
    edocc=   3.44528248E+01     enl0=  -1.92336070E-01   enl1=  -1.67985587E+01
 1-9 gives the relaxation energy (to be shifted if some occ is /=2.0)
   erelax=  -7.29310733E+01
  No Ewald or frozen-wf contrib.: the relaxation energy is the total one
 2DEtotal=   -0.7293107331E+02 Ha. Also 2DEtotal=   -0.198455543120E+04 eV
    (  non-var. 2DEtotal :   -7.2931073311E+01 Ha)

 Perturbation wavevector (in red.coord.)   0.000000  0.000000  0.000000
 Perturbation : derivative vs k along direction   2
 The set of symmetries contains only one element for this perturbation.
 symkpt : not enough symmetry to change the number of k points.

[...]

 Perturbation wavevector (in red.coord.)   0.000000  0.000000  0.000000
 Perturbation : derivative vs k along direction   3
 The set of symmetries contains only one element for this perturbation.
 symkpt : not enough symmetry to change the number of k points.

-inwffil : will read wavefunctions from disk file /scratch/users/j/a/jabreu/flow_simple_4atoms/flow/w212/t1/indata/in_WFK

 Initialisation of the first-order wave-functions :
  ireadwf=   0

--- !BeginCycle
iteration_state: {dtset: 1, }
solver: {iscf: 7, nstep: 100, nline: 4, wfoptalg: 0, }
tolerances: {tolwfr: 1.00E-20, }
...

     iter   2DEtotal(Ha)        deltaE(Ha) residm    vres2
-ETOT  1  -17.041588218906     -1.704E+01 2.701E-02 0.000E+00
 ETOT  2  -17.078994149838     -3.741E-02 3.450E-04 0.000E+00
 ETOT  3  -17.079767765762     -7.736E-04 1.604E-05 0.000E+00
 ETOT  4  -17.079791795328     -2.403E-05 3.923E-07 0.000E+00
 ETOT  5  -17.079792651840     -8.565E-07 1.803E-08 0.000E+00
 ETOT  6  -17.079792683563     -3.172E-08 5.561E-10 0.000E+00
 ETOT  7  -17.079792684815     -1.252E-09 3.307E-11 0.000E+00
 ETOT  8  -17.079792684865     -5.060E-11 9.098E-13 0.000E+00
 ETOT  9  -17.079792684867     -2.121E-12 5.682E-14 0.000E+00
 ETOT 10  -17.079792684868     -1.172E-13 1.715E-15 0.000E+00
 ETOT 11  -17.079792684867      7.105E-15 9.133E-17 0.000E+00
 ETOT 12  -17.079792684868     -2.842E-14 3.809E-18 0.000E+00
 ETOT 13  -17.079792684868      1.421E-14 1.690E-19 0.000E+00
 ETOT 14  -17.079792684868      7.105E-15 9.989E-21 0.000E+00

 At SCF step   14   max residual=  9.99E-21 < tolwfr=  1.00E-20 =>converged.

 ----iterations are completed or convergence reached----

 dfpt_looppert: DFPT cycle converged with prtwf=-1. Will skip output of the 1st-order WFK file.
 dfpt_looppert : ek2=    2.4083290102E+01
          f-sum rule ratio=    1.2270959294E+00
 prteigrs : about to open file /scratch/users/j/a/jabreu/flow_simple_4atoms/flow/w212/t1/tmpdata/tmp_1WF1_EIG
 Expectation of eigenvalue derivatives (hartree) for nkpt=   1  k points:
  (in case of degenerate eigenvalues, averaged derivative)
 kpt#   1, nband= 35, wtk=  1.00000, kpt=  0.0000  0.0000  0.0000 (reduced coord)
  -0.00000    0.00000    0.00000   -0.00000    0.00000    0.00000    0.00000    0.00000
  -0.00000    0.00000    0.00000   -0.00000    0.00000    0.00000    0.00000    0.00000
  -0.00000   -0.00000    0.00000    0.00000    0.00000   -0.00000   -0.00000    0.00000
  -0.00000   -0.00000   -0.00000    0.00000    0.00000    0.00000   -0.00000   -0.00000
  -0.00000   -0.00018    0.00003

 Eight components of 2nd-order total energy (hartree) are
 1,2,3: 0th-order hamiltonian combined with 1st-order wavefunctions
     kin0=   1.94827086E+01 eigvalue=  -2.53414669E-01  local=  -7.83829592E+00
 4,5,6: 1st-order hamiltonian combined with 1st and 0th-order wfs
     kin1=  -2.95525073E+01  Hartree=   0.00000000E+00     xc=   0.00000000E+00
 7,8,9: eventually, occupation + non-local contributions
    edocc=   5.80791783E+00     enl0=  -1.19123204E-01   enl1=  -4.60707812E+00
 1-9 gives the relaxation energy (to be shifted if some occ is /=2.0)
   erelax=  -1.70797927E+01
  No Ewald or frozen-wf contrib.: the relaxation energy is the total one
 2DEtotal=   -0.1707979268E+02 Ha. Also 2DEtotal=   -0.464764794997E+03 eV
    (  non-var. 2DEtotal :   -1.7079792685E+01 Ha)

 CALCULATION OF EFFECTIVE MASSES
 NOTE : Additional infos (eff. mass eigenvalues, eigenvectors and, if degenerate, average mass) are available in stdout.

 COMMENTS:
 - At k-point ( 0.000, 0.000, 0.000), bands    25 through    26
   are DEGENERATE (effective mass tensor is therefore not defined).
   See Section IIIB Eqs. (67)-(70) and Appendix E of PRB 93 205147 (2016).
 - Angular average effective mass for Frohlich model is to be averaged over degenerate bands. See later.
 - Associated theta integrals calculated with ntheta=   1000 points.

 K-point ( 0.000, 0.000, 0.000) | band =    25
 Transport equivalent effective mass tensor:
             -0.1816046494             -0.0000163354              0.0001154198
             -0.0000163354             -0.1815846827              0.0000706778
              0.0001154198              0.0000706778             -1.3539993765
 Transport equivalent effective mass tensor eigenvalues:
             -1.3539993921             -0.1816137950             -0.1815755215
 Angular average effective mass 1/(<1/m>)=  -0.2552732928
 Angular average effective mass for Frohlich model (<m**0.5>)**2=  -0.2999154109
 Effective masses along directions: (cart. coord. / red. coord. -> eff. mass)
    1:   1.000000  0.000000  0.000000 /   0.894427 -0.447214  0.000000 ->  -0.1815934143
    2:   0.000000  1.000000  0.000000 /   0.000000  1.000000  0.000000 ->  -0.1815952133
    3:   0.000000  0.000000  1.000000 /   0.000000  0.000000  1.000000 ->  -1.3531827570
    4:   0.577350  0.577350  0.577350 /   0.509772  0.186589  0.839832 ->  -0.2552378547
    5:   0.000000  0.707107  0.707107 /   0.000000  0.465299  0.885153 ->  -0.3202200903
    6:   0.707107  0.000000  0.707107 /   0.502256 -0.251128  0.827450 ->  -0.3201972775
    7:   0.707107  0.707107  0.000000 /   0.939071  0.343724  0.000000 ->  -0.1815928868

 K-point ( 0.000, 0.000, 0.000) | band =    26
 Transport equivalent effective mass tensor:
             -1.4865559660              0.0001456769              0.0003212723
              0.0001456769             -1.4867346128              0.0001933153
              0.0003212723              0.0001933153             -1.3540096295
 Transport equivalent effective mass tensor eigenvalues:
             -1.4868161718             -1.4864754683             -1.3540085682
 Angular average effective mass 1/(<1/m>)=  -1.4396356493
 Angular average effective mass for Frohlich model (<m**0.5>)**2=  -1.4404875268
 Effective masses along directions: (cart. coord. / red. coord. -> eff. mass)
    1:   1.000000  0.000000  0.000000 /   0.894427 -0.447214  0.000000 ->  -1.4866439029
    2:   0.000000  1.000000  0.000000 /   0.000000  1.000000  0.000000 ->  -1.4866439158
    3:   0.000000  0.000000  1.000000 /   0.000000  0.000000  1.000000 ->  -1.3548298826
    4:   0.577350  0.577350  0.577350 /   0.509772  0.186589  0.839832 ->  -1.4393039949
    5:   0.000000  0.707107  0.707107 /   0.000000  0.465299  0.885153 ->  -1.4168613964
    6:   0.707107  0.000000  0.707107 /   0.502256 -0.251128  0.827450 ->  -1.4167602199
    7:   0.707107  0.707107  0.000000 /   0.939071  0.343724  0.000000 ->  -1.4866445694

 Angular average effective mass for Frohlich model, averaged over degenerate bands.
 Value of     (<<m**0.5>>)**2 =     7.637436E-01
 Absolute Value of <<m**0.5>> =     8.739242E-01

 K-point ( 0.000, 0.000, 0.000) | band =    27
 Effective mass tensor:
              0.1492890008             -0.0000002154              0.0000002047
             -0.0000002154              0.1492892180              0.0000001237
              0.0000002047              0.0000001237              0.1311425249
 Effective mass tensor eigenvalues:
              0.1311425249              0.1492888682              0.1492893507
 Angular average effective mass 1/(<1/m>)=   0.1427068511
 Angular average effective mass for Frohlich model (<m**0.5>)**2=   0.1428702418
 Effective masses along directions: (cart. coord. / red. coord. -> eff. mass)
    1:   1.000000  0.000000  0.000000 /   0.894427 -0.447214  0.000000 ->   0.1492890008
    2:   0.000000  1.000000  0.000000 /   0.000000  1.000000  0.000000 ->   0.1492892180
    3:   0.000000  0.000000  1.000000 /   0.000000  0.000000  1.000000 ->   0.1311425249
    4:   0.577350  0.577350  0.577350 /   0.509772  0.186589  0.839832 ->   0.1427069476
    5:   0.000000  0.707107  0.707107 /   0.000000  0.465299  0.885153 ->   0.1396288598
    6:   0.707107  0.000000  0.707107 /   0.502256 -0.251128  0.827450 ->   0.1396288455
    7:   0.707107  0.707107  0.000000 /   0.939071  0.343724  0.000000 ->   0.1492888940

 END OF EFFECTIVE MASSES SECTION

 ---- first-order wavefunction calculations are completed ----

 Total localisation tensor (bohr^2) in cartesian coordinates
  WARNING : still subject to testing - especially symmetries.
      direction              matrix element
   alpha     beta       real part   imaginary part
     1        1       6.0098512235    0.0000000000
     1        2      -2.0819086990    0.0000000000
     1        3       0.0000000000    0.0000000000
     2        1      -2.0819086990    0.0000000000
     2        2       3.6059716434    0.0000000000
     2        3       0.0000000000    0.0000000000
     3        1       0.0000000000    0.0000000000
     3        2       0.0000000000    0.0000000000
     3        3       2.9417474891    0.0000000000

 respfn : d/dk was computed, but no 2DTE, so no DDB output.

== END DATASET(S) ==============================================================

 -outvars: echo values of variables after computation  --------
            acell      1.0000000000E+00  1.0000000000E+00  1.0000000000E+00 Bohr
              amu      6.35460000E+01  1.26904470E+02
             ecut      4.60000000E+01 Hartree
           etotal     -1.7079792685E+01
            fcart      0.0000000000E+00  0.0000000000E+00  0.0000000000E+00
                       0.0000000000E+00  0.0000000000E+00  0.0000000000E+00
                       0.0000000000E+00  0.0000000000E+00  0.0000000000E+00
                       0.0000000000E+00  0.0000000000E+00  0.0000000000E+00
-          fftalg         512
           irdden           1
           irdwfk           1
           istwfk        1
              ixc     -116133
           kptopt           0
P           mkmem           1
P          mkqmem           1
P          mk1mem           1
            natom           4
            nband          35
           nbdbuf           4
            ngfft          50      50      80
             nkpt           1
            nstep         100
             nsym          12
           ntypat           2
              occ      2.000000  2.000000  2.000000  2.000000  2.000000  2.000000
                       2.000000  2.000000  2.000000  2.000000  2.000000  2.000000
                       2.000000  2.000000  2.000000  2.000000  2.000000  2.000000
                       2.000000  2.000000  2.000000  2.000000  2.000000  2.000000
                       2.000000  2.000000  0.000000  0.000000  0.000000  0.000000
                       0.000000  0.000000  0.000000  0.000000  0.000000
        optdriver           1
            prtwf          -1
            rfdir           1       1       1
           rfelfd           2
            rprim      7.9254144426E+00  0.0000000000E+00  0.0000000000E+00
                      -3.9627072213E+00  6.8636102428E+00  0.0000000000E+00
                       0.0000000000E+00  0.0000000000E+00  1.3056856451E+01
          spgroup         186
           strten      0.0000000000E+00  0.0000000000E+00  0.0000000000E+00
                       0.0000000000E+00  0.0000000000E+00  0.0000000000E+00
           symrel      1  0  0   0  1  0   0  0  1       0  1  0   1  0  0   0  0  1
                       1  1  0  -1  0  0   0  0  1      -1  0  0   1  1  0   0  0  1
                       0  1  0  -1 -1  0   0  0  1      -1 -1  0   0  1  0   0  0  1
                      -1  0  0   0 -1  0   0  0  1       0 -1  0  -1  0  0   0  0  1
                      -1 -1  0   1  0  0   0  0  1       1  0  0  -1 -1  0   0  0  1
                       0 -1  0   1  1  0   0  0  1       1  1  0   0 -1  0   0  0  1
            tnons      0.0000000  0.0000000  0.0000000    -0.0000000  0.0000000  0.5000000
                       0.0000000  0.0000000  0.5000000    -0.0000000  0.0000000  0.0000000
                       0.0000000  0.0000000  0.0000000    -0.0000000 -0.0000000  0.5000000
                      -0.0000000  0.0000000  0.5000000     0.0000000  0.0000000  0.0000000
                      -0.0000000  0.0000000  0.0000000     0.0000000  0.0000000  0.5000000
                      -0.0000000 -0.0000000  0.5000000     0.0000000  0.0000000  0.0000000
           tolwfr      1.00000000E-20
            typat      1  1  2  2
           useylm           1
           xangst     -7.0500566530E-16  2.4213774061E+00  4.3271234793E+00
                       2.0969743458E+00  1.2106887030E+00  8.7242805443E-01
                      -7.0500566530E-16  2.4213774061E+00  6.9006366516E+00
                       2.0969743458E+00  1.2106887030E+00  3.4459412267E+00
            xcart     -1.3322676296E-15  4.5757401619E+00  8.1770783191E+00
                       3.9627072213E+00  2.2878700809E+00  1.6486500935E+00
                      -1.3322676296E-15  4.5757401619E+00  1.3040313414E+01
                       3.9627072213E+00  2.2878700809E+00  6.5118851885E+00
             xred      3.3333333333E-01  6.6666666667E-01  6.2626700000E-01
                       6.6666666667E-01  3.3333333333E-01  1.2626700000E-01
                       3.3333333333E-01  6.6666666667E-01  9.9873300000E-01
                       6.6666666667E-01  3.3333333333E-01  4.9873300000E-01
            znucl       29.00000   53.00000

- Timing analysis has been suppressed with timopt=0

 Suggested references for the acknowledgment of ABINIT usage.

 Calculation completed.
.Delivered   6 WARNINGs and   5 COMMENTs to log file.