.Version 9.5.2 of ABINIT

 ABINIT is a project of the Universite Catholique de Louvain,
 Corning Inc. and other collaborators, see ~abinit/doc/developers/contributors.txt .
 acknowledgments of the ABINIT effort.

.Starting date : Wed 26 May 2021.
- ( at 02h40 )

- input  file    -> /scratch/users/j/a/jabreu/flow_simple_11atoms/flow/w253/t1/run.abi
- output file    -> /scratch/users/j/a/jabreu/flow_simple_11atoms/flow/w253/t1/run.abo
- root for input  files -> /scratch/users/j/a/jabreu/flow_simple_11atoms/flow/w253/t1/indata/in
- root for output files -> /scratch/users/j/a/jabreu/flow_simple_11atoms/flow/w253/t1/outdata/out

 Symmetries : space group Cm c 2_1 (# 36); Bravais oC (1-face-center ortho.)
     intxc =       0      iscf =       7    lmnmax =      18     lnmax =       6
     mgfft =      60  mpssoang =       3    mqgrid =    3001     natom =      12
  nloc_mem =       1    nspden =       1   nspinor =       1    nsppol =       1
      nsym =       4    n1xccc =    2501    ntypat =       3    occopt =       1
   xclevel =       2
-    mband =          35        mffmem =           1         mkmem =           2
-   mkqmem =           2        mk1mem =           2           mpw =       10237
      nfft =      194400          nkpt =           2
  Rough estimation (10% accuracy) of disk space for files :

------------- Echo of variables that govern the present computation ------------
-
- outvars: echo of selected default values
-   iomode0 =  0 , fftalg0 =512 , wfoptalg0 =  0
-
- outvars: echo of global parameters not present in the input file
-  max_nthreads =    0
-
 -outvars: echo values of preprocessed input variables --------
            acell      1.0000000000E+00  1.0000000000E+00  1.0000000000E+00 Bohr
              amu      6.94100000E+00  2.80855000E+01  1.40067400E+01
             ecut      4.20000000E+01 Hartree
-          fftalg         512
           irdden           1
           irdwfk           1
           istwfk        0    1
              ixc     -116133
              kpt      0.00000000E+00  0.00000000E+00  4.25000000E-01
                       0.00000000E+00  0.00000000E+00  0.00000000E+00
           kptopt           0
P           mkmem           2
P          mkqmem           2
P          mk1mem           2
            natom          12
            nband          35
           nbdbuf           4
            ngfft          60      60      54
             nkpt           2
            nstep        2000
             nsym           4
           ntypat           3
              occ      2.000000  2.000000  2.000000  2.000000  2.000000  2.000000
                       2.000000  2.000000  2.000000  2.000000  2.000000  2.000000
                       2.000000  2.000000  2.000000  2.000000  2.000000  2.000000
                       2.000000  2.000000  2.000000  2.000000  2.000000  2.000000
                       2.000000  2.000000  0.000000  0.000000  0.000000  0.000000
                       0.000000  0.000000  0.000000  0.000000  0.000000
        optdriver           1
            prtwf          -1
            rfdir           1       1       1
           rfelfd           2
            rprim      1.0046465438E+01  0.0000000000E+00  0.0000000000E+00
                      -5.0751681406E+00  8.6703019639E+00  0.0000000000E+00
                       0.0000000000E+00  0.0000000000E+00  9.0309642243E+00
          spgroup          36
           symrel      1  0  0   0  1  0   0  0  1       0 -1  0  -1  0  0   0  0  1
                      -1  0  0   0 -1  0   0  0  1       0  1  0   1  0  0   0  0  1
            tnons      0.0000000  0.0000000  0.0000000     0.0000000 -0.0000000  0.5000000
                       0.0000000 -0.0000000  0.5000000     0.0000000 -0.0000000  0.0000000
           tolwfr      1.00000000E-20
            typat      1  1  2  2  2  2  3  3  3  3  3  3
           useylm           1
              wtk        0.50000    0.50000
           xangst      8.9586026438E-01  1.5624450812E+00  4.7733842530E+00
                       1.7348369626E+00  3.0256811097E+00  2.3838940335E+00
                      -1.7911879344E+00  3.0774810544E+00  4.7166912080E+00
                       4.4218851614E+00  1.5106451365E+00  2.3272009885E+00
                      -9.3008444179E-01  4.5793078124E+00  2.3272009885E+00
                       3.5607816688E+00  8.8183785389E-03  4.7166912080E+00
                      -1.4748069915E+00  3.0394821933E+00  2.9845879797E+00
                       4.1055042185E+00  1.5486439976E+00  5.9509776020E-01
                       1.9040276241E+00  3.3207618576E+00  3.2454534060E-01
                       7.2666960293E-01  1.2673643333E+00  2.7140355601E+00
                       3.3681618769E+00  2.6266563630E-01  2.9845879797E+00
                      -7.3746464988E-01  4.3254605546E+00  5.9509776020E-01
            xcart      1.6929305530E+00  2.9525933011E+00  9.0203889652E+00
                       3.2783667446E+00  5.7177086628E+00  4.5049068530E+00
                      -3.3848546486E+00  5.8155963720E+00  8.9132546366E+00
                       8.3561519462E+00  2.8547055919E+00  4.3977725245E+00
                      -1.7576048754E+00  8.6536376435E+00  4.3977725245E+00
                       6.7289021730E+00  1.6664320375E-02  8.9132546366E+00
                      -2.7869813127E+00  5.7437889311E+00  5.6400539012E+00
                       7.7582786103E+00  2.9265130328E+00  1.1245717891E+00
                       3.5980907590E+00  6.2753304633E+00  6.1330181144E-01
                       1.3732065386E+00  2.3949715006E+00  5.1287839236E+00
                       6.3649035186E+00  4.9636611713E-01  5.6400539012E+00
                      -1.3936062210E+00  8.1739358468E+00  1.1245717891E+00
             xred      3.4054100000E-01  3.4054100000E-01  9.9882900000E-01
                       6.5945900000E-01  6.5945900000E-01  4.9882900000E-01
                       1.9220000000E-03  6.7074900000E-01  9.8696600000E-01
                       9.9807800000E-01  3.2925100000E-01  4.8696600000E-01
                       3.2925100000E-01  9.9807800000E-01  4.8696600000E-01
                       6.7074900000E-01  1.9220000000E-03  9.8696600000E-01
                       5.7249000000E-02  6.6246700000E-01  6.2452400000E-01
                       9.4275100000E-01  3.3753300000E-01  1.2452400000E-01
                       7.2377300000E-01  7.2377300000E-01  6.7911000000E-02
                       2.7622700000E-01  2.7622700000E-01  5.6791100000E-01
                       6.6246700000E-01  5.7249000000E-02  6.2452400000E-01
                       3.3753300000E-01  9.4275100000E-01  1.2452400000E-01
            znucl        3.00000   14.00000    7.00000

 chkinp: Checking input parameters for consistency.

== DATASET  1 ==================================================================
-   mpi_nproc: 1, omp_nthreads: -1 (-1 if OMP is not activated)

--- !DatasetInfo
iteration_state: {dtset: 1, }
dimensions: {natom: 12, nkpt: 2, mband: 35, nsppol: 1, nspinor: 1, nspden: 1, mpw: 10237, }
cutoff_energies: {ecut:  42.0, pawecutdg:  -1.0, }
electrons: {nelect:   5.20000000E+01, charge:   0.00000000E+00, occopt:   1.00000000E+00, tsmear:   1.00000000E-02, }
meta: {optdriver: 1, rfelfd: 2, }
...

 Real(R)+Recip(G) space primitive vectors, cartesian coordinates (Bohr,Bohr^-1):
 R(1)= 10.0464654  0.0000000  0.0000000  G(1)=  0.0995375  0.0582644  0.0000000
 R(2)= -5.0751681  8.6703020  0.0000000  G(2)=  0.0000000  0.1153362  0.0000000
 R(3)=  0.0000000  0.0000000  9.0309642  G(3)=  0.0000000  0.0000000  0.1107301
 Unit cell volume ucvol=  7.8665017E+02 bohr^3
 Angles (23,13,12)=  9.00000000E+01  9.00000000E+01  1.20342606E+02 degrees

 getcut: wavevector=  0.0000  0.0000  0.0000  ngfft=  60  60  54
         ecut(hartree)=     42.000   => boxcut(ratio)=   2.04718

--- Pseudopotential description ------------------------------------------------
- pspini: atom type   1  psp file is /scratch/users/j/a/jabreu/pseudos/PBEsol/Li.psp8
- pspatm: opening atomic psp file    /scratch/users/j/a/jabreu/pseudos/PBEsol/Li.psp8
- Li    ONCVPSP-3.3.0  r_core=   1.40824   1.10935
-  3.00000   3.00000    180112                znucl, zion, pspdat
    8 -116133    1    4       400   0.00000   pspcod,pspxc,lmax,lloc,mmax,r2well
    3.99000000000000    0.00000000000000    0.00000000000000   rchrg,fchrg,qchrg
     nproj     2     2
     extension_switch     1
  pspatm : epsatm=    2.60859637
         --- l  ekb(1:nproj) -->
             0   -4.855856   -1.482423
             1   -2.171544   -0.427615
 pspatm: atomic psp has been read  and splines computed

- pspini: atom type   2  psp file is /scratch/users/j/a/jabreu/pseudos/PBEsol/Si.psp8
- pspatm: opening atomic psp file    /scratch/users/j/a/jabreu/pseudos/PBEsol/Si.psp8
- Si    ONCVPSP-3.3.0  r_core=   1.60303   1.72197   1.91712
- 14.00000   4.00000    180112                znucl, zion, pspdat
    8 -116133    2    4       600   0.00000   pspcod,pspxc,lmax,lloc,mmax,r2well
    5.99000000000000    4.00000000000000    0.00000000000000   rchrg,fchrg,qchrg
     nproj     2     2     2
     extension_switch     1
  pspatm : epsatm=    7.86468782
         --- l  ekb(1:nproj) -->
             0    5.384426    0.843824
             1    2.663259    0.615854
             2   -2.267219   -0.458043
 pspatm: atomic psp has been read  and splines computed

- pspini: atom type   3  psp file is /scratch/users/j/a/jabreu/pseudos/PBEsol/N.psp8
- pspatm: opening atomic psp file    /scratch/users/j/a/jabreu/pseudos/PBEsol/N.psp8
- N     ONCVPSP-3.3.0  r_core=   1.20551   1.35824
-  7.00000   5.00000    180112                znucl, zion, pspdat
    8 -116133    1    4       600   0.00000   pspcod,pspxc,lmax,lloc,mmax,r2well
    5.99000000000000    4.00000000000000    0.00000000000000   rchrg,fchrg,qchrg
     nproj     2     2
     extension_switch     1
  pspatm : epsatm=    5.26508895
         --- l  ekb(1:nproj) -->
             0    7.464189    0.625868
             1   -4.309714   -1.012941
 pspatm: atomic psp has been read  and splines computed

   3.54985684E+03                                ecore*ucvol(ha*bohr**3)

 ==>  initialize data related to q vector <==

 The list of irreducible perturbations for this q vector is:
    1)    idir= 1    ipert=  13
    2)    idir= 2    ipert=  13
    3)    idir= 3    ipert=  13

 Perturbation wavevector (in red.coord.)   0.000000  0.000000  0.000000
 Perturbation : derivative vs k along direction   1

 dfpt_looppert : COMMENT -
  In a d/dk calculation, iscf is set to -3 automatically.
 The set of symmetries contains only one element for this perturbation.
 symkpt : not enough symmetry to change the number of k points.

 Initialisation of the first-order wave-functions :
  ireadwf=   0

--- !BeginCycle
iteration_state: {dtset: 1, }
solver: {iscf: 7, nstep: 2000, nline: 4, wfoptalg: 0, }
tolerances: {tolwfr: 1.00E-20, }
...

     iter   2DEtotal(Ha)        deltaE(Ha) residm    vres2
-ETOT  1  -28.956624362732     -2.896E+01 1.802E-01 0.000E+00
 ETOT  2  -28.984156617842     -2.753E-02 2.505E-02 0.000E+00
 ETOT  3  -28.984286404649     -1.298E-04 2.674E-03 0.000E+00
[...]
 ETOT 17  -28.984287490843     -3.553E-15 2.463E-14 0.000E+00
 ETOT 18  -28.984287490843      3.553E-15 5.407E-15 0.000E+00
 ETOT 19  -28.984287490843      0.000E+00 6.816E-16 0.000E+00
 ETOT 20  -28.984287490843      0.000E+00 1.511E-16 0.000E+00
 ETOT 21  -28.984287490843      7.105E-15 1.895E-17 0.000E+00
 ETOT 22  -28.984287490843      0.000E+00 4.245E-18 0.000E+00
 ETOT 23  -28.984287490843      0.000E+00 5.295E-19 0.000E+00
 ETOT 24  -28.984287490843      0.000E+00 1.199E-19 0.000E+00
 ETOT 25  -28.984287490843      0.000E+00 1.486E-20 0.000E+00
 ETOT 26  -28.984287490843     -3.553E-15 9.819E-21 0.000E+00

 At SCF step   26   max residual=  9.82E-21 < tolwfr=  1.00E-20 =>converged.

 ----iterations are completed or convergence reached----

 dfpt_looppert: DFPT cycle converged with prtwf=-1. Will skip output of the 1st-order WFK file.
 dfpt_looppert : ek2=    5.4616596098E+01
          f-sum rule ratio=    1.0621445748E+00
 prteigrs : about to open file /scratch/users/j/a/jabreu/flow_simple_11atoms/flow/w253/t1/tmpdata/tmp_1WF1_EIG
 Expectation of eigenvalue derivatives (hartree) for nkpt=   2  k points:
  (in case of degenerate eigenvalues, averaged derivative)
 kpt#   1, nband= 35, wtk=  0.50000, kpt=  0.0000  0.0000  0.4250 (reduced coord)
  -0.00000   -0.00000   -0.00000    0.00000   -0.00000   -0.00000    0.00000    0.00000
   0.00000   -0.00000    0.00000   -0.00000    0.00000   -0.00000   -0.00000   -0.00000
   0.00000    0.00000   -0.00000   -0.00000    0.00000    0.00000   -0.00000    0.00000
   0.00000   -0.00000    0.00000    0.00000   -0.00000    0.00000   -0.00000    0.00000
  -0.00000   -0.00000   -0.00712
 prteigrs : prtvol=0 or 1, do not print more k-points.

 Eight components of 2nd-order total energy (hartree) are
 1,2,3: 0th-order hamiltonian combined with 1st-order wavefunctions
     kin0=   3.76956495E+01 eigvalue=  -8.97510725E-01  local=  -1.60388901E+01
 4,5,6: 1st-order hamiltonian combined with 1st and 0th-order wfs
     kin1=  -5.80107212E+01  Hartree=   0.00000000E+00     xc=   0.00000000E+00
 7,8,9: eventually, occupation + non-local contributions
    edocc=   9.13457856E+00     enl0=  -9.09539772E-01   enl1=   4.21462581E-02
 1-9 gives the relaxation energy (to be shifted if some occ is /=2.0)
   erelax=  -2.89842875E+01
  No Ewald or frozen-wf contrib.: the relaxation energy is the total one
 2DEtotal=   -0.2898428749E+02 Ha. Also 2DEtotal=   -0.788702572822E+03 eV
    (  non-var. 2DEtotal :   -2.8984287491E+01 Ha)

 Perturbation wavevector (in red.coord.)   0.000000  0.000000  0.000000
 Perturbation : derivative vs k along direction   2
 The set of symmetries contains only one element for this perturbation.
 symkpt : not enough symmetry to change the number of k points.

[...]

 Perturbation wavevector (in red.coord.)   0.000000  0.000000  0.000000
 Perturbation : derivative vs k along direction   3
 The set of symmetries contains only one element for this perturbation.
 symkpt : not enough symmetry to change the number of k points.

 Initialisation of the first-order wave-functions :
  ireadwf=   0

--- !BeginCycle
iteration_state: {dtset: 1, }
solver: {iscf: 7, nstep: 2000, nline: 4, wfoptalg: 0, }
tolerances: {tolwfr: 1.00E-20, }
...

     iter   2DEtotal(Ha)        deltaE(Ha) residm    vres2
-ETOT  1  -26.250123809744     -2.625E+01 1.498E-01 0.000E+00
 ETOT  2  -26.280168175358     -3.004E-02 1.236E-02 0.000E+00
 ETOT  3  -26.280316598569     -1.484E-04 1.421E-03 0.000E+00
 ETOT  4  -26.280317829022     -1.230E-06 2.414E-04 0.000E+00
 ETOT  5  -26.280317842006     -1.298E-08 4.133E-05 0.000E+00
 ETOT  6  -26.280317842167     -1.611E-10 6.816E-06 0.000E+00
 ETOT  7  -26.280317842169     -2.135E-12 1.260E-06 0.000E+00
 ETOT  8  -26.280317842169     -3.553E-15 2.023E-07 0.000E+00
 ETOT  9  -26.280317842169     -2.132E-14 3.806E-08 0.000E+00
 ETOT 10  -26.280317842169      3.197E-14 6.175E-09 0.000E+00
 ETOT 11  -26.280317842169     -7.105E-15 1.168E-09 0.000E+00
 ETOT 12  -26.280317842169      0.000E+00 1.946E-10 0.000E+00
 ETOT 13  -26.280317842169     -3.553E-15 3.647E-11 0.000E+00
 ETOT 14  -26.280317842169      0.000E+00 6.499E-12 0.000E+00
 ETOT 15  -26.280317842169     -7.105E-15 1.156E-12 0.000E+00
 ETOT 16  -26.280317842169      0.000E+00 2.144E-13 0.000E+00
 ETOT 17  -26.280317842169      7.105E-15 3.718E-14 0.000E+00
 ETOT 18  -26.280317842169      7.105E-15 6.963E-15 0.000E+00
 ETOT 19  -26.280317842169     -7.105E-15 1.210E-15 0.000E+00
 ETOT 20  -26.280317842169     -7.105E-15 2.277E-16 0.000E+00
 ETOT 21  -26.280317842169      0.000E+00 3.960E-17 0.000E+00
 ETOT 22  -26.280317842169      7.105E-15 7.487E-18 0.000E+00
 ETOT 23  -26.280317842169     -1.421E-14 1.302E-18 0.000E+00
 ETOT 24  -26.280317842169      2.132E-14 2.470E-19 0.000E+00
 ETOT 25  -26.280317842169      0.000E+00 4.296E-20 0.000E+00
 ETOT 26  -26.280317842169     -1.421E-14 9.778E-21 0.000E+00

 At SCF step   26   max residual=  9.78E-21 < tolwfr=  1.00E-20 =>converged.

 ----iterations are completed or convergence reached----

 dfpt_looppert: DFPT cycle converged with prtwf=-1. Will skip output of the 1st-order WFK file.
 dfpt_looppert : ek2=    5.0341347046E+01
          f-sum rule ratio=    1.0343489996E+00
 prteigrs : about to open file /scratch/users/j/a/jabreu/flow_simple_11atoms/flow/w253/t1/tmpdata/tmp_1WF1_EIG
 Expectation of eigenvalue derivatives (hartree) for nkpt=   2  k points:
  (in case of degenerate eigenvalues, averaged derivative)
 kpt#   1, nband= 35, wtk=  0.50000, kpt=  0.0000  0.0000  0.4250 (reduced coord)
   0.00073   -0.00072    0.12925   -0.15845    0.01369   -0.00005    0.01029   -0.00517
  -0.04116   -0.04165    0.27242    0.11720    0.03302   -0.13062   -0.07871   -0.21017
   0.12260    0.03092    0.00168   -0.09271    0.00378    0.00763    0.04267   -0.03828
   0.07700    0.00540   -0.11941   -0.11720    0.06866    0.06555    0.08932    0.25116
  -0.07748   -0.08687   -0.05198
 prteigrs : prtvol=0 or 1, do not print more k-points.

 Eight components of 2nd-order total energy (hartree) are
 1,2,3: 0th-order hamiltonian combined with 1st-order wavefunctions
     kin0=   3.43557029E+01 eigvalue=  -8.89907304E-01  local=  -1.46656304E+01
 4,5,6: 1st-order hamiltonian combined with 1st and 0th-order wfs
     kin1=  -5.20705220E+01  Hartree=   0.00000000E+00     xc=   0.00000000E+00
 7,8,9: eventually, occupation + non-local contributions
    edocc=   8.35612606E+00     enl0=  -8.75973406E-01   enl1=  -4.90113728E-01
 1-9 gives the relaxation energy (to be shifted if some occ is /=2.0)
   erelax=  -2.62803178E+01
  No Ewald or frozen-wf contrib.: the relaxation energy is the total one
 2DEtotal=   -0.2628031784E+02 Ha. Also 2DEtotal=   -0.715123816766E+03 eV
    (  non-var. 2DEtotal :   -2.6280317842E+01 Ha)

 CALCULATION OF EFFECTIVE MASSES
 NOTE : Additional infos (eff. mass eigenvalues, eigenvectors and, if degenerate, average mass) are available in stdout.

--- !WARNING
src_file: m_efmas.F90
src_line: 0
message: |

    Band(s)    26,
    are not band extrema, but saddle points;
    the transport equivalent formalism breaks down in these conditions.
    The associated tensor(s) will therefore not be printed.
...

 K-point ( 0.000, 0.000, 0.425) | band =    26
 Effective mass tensor:
     *** SADDLE POINT: TRANSPORT EQV. EFF. MASS NOT DEFINED (see WARNING above) ***
 Angular average effective mass 1/(<1/m>)=  -2.7790401444
 Angular average effective mass for Frohlich model (<m**0.5>)**2= -11.0234140622
 Effective masses along directions: (cart. coord. / red. coord. -> eff. mass)
    1:   1.000000  0.000000  0.000000 /   0.892574 -0.450901  0.000000 ->  10.7131640454
    2:   0.000000  1.000000  0.000000 /   0.000000  1.000000  0.000000 ->  47.3877788444
    3:   0.000000  0.000000  1.000000 /   0.000000  0.000000  1.000000 ->  -0.8375524989
    4:   0.577350  0.577350  0.577350 /   0.718678  0.257180  0.646034 ->  -2.4940398525
    5:   0.000000  0.707107  0.707107 /   0.000000  0.692556  0.721364 ->  -1.7052600953
    6:   0.707107  0.000000  0.707107 /   0.696184 -0.351691  0.625813 ->  -1.8172095156
    7:   0.707107  0.707107  0.000000 /   0.941531  0.336927  0.000000 -> **************

 K-point ( 0.000, 0.000, 0.000) | band =    27
 Effective mass tensor:
              2.8708777594             -1.0269968104              0.0004048095
             -1.0269968104              1.6661077783             -0.0002078861
              0.0004048095             -0.0002078861              0.3967812356
 Effective mass tensor eigenvalues:
              0.3967811675              1.0778668309              3.4591187749
 Angular average effective mass 1/(<1/m>)=   0.8027549977
 Angular average effective mass for Frohlich model (<m**0.5>)**2=   0.9792799001
 Effective masses along directions: (cart. coord. / red. coord. -> eff. mass)
    1:   1.000000  0.000000  0.000000 /   0.892574 -0.450901  0.000000 ->   2.2378318162
    2:   0.000000  1.000000  0.000000 /   0.000000  1.000000  0.000000 ->   1.2987210186
    3:   0.000000  0.000000  1.000000 /   0.000000  0.000000  1.000000 ->   0.3967811755
    4:   0.577350  0.577350  0.577350 /   0.718678  0.257180  0.646034 ->   0.6996845526
    5:   0.000000  0.707107  0.707107 /   0.000000  0.692556  0.721364 ->   0.6078077839
    6:   0.707107  0.000000  0.707107 /   0.696184 -0.351691  0.625813 ->   0.6741909101
    7:   0.707107  0.707107  0.000000 /   0.941531  0.336927  0.000000 ->   1.1313855490

 END OF EFFECTIVE MASSES SECTION

 ---- first-order wavefunction calculations are completed ----

 Total localisation tensor (bohr^2) in cartesian coordinates
  WARNING : still subject to testing - especially symmetries.
      direction              matrix element
   alpha     beta       real part   imaginary part
     1        1       1.5734588548    0.0000000000
     1        2      -0.5465185449    0.0000000000
     1        3       0.0000000000    0.0000000000
     2        1      -0.5465185449    0.0000000000
     2        2       0.9336598675    0.0000000000
     2        3       0.0000000000    0.0000000000
     3        1       0.0000000000    0.0000000000
     3        2       0.0000000000    0.0000000000
     3        3       0.9279229942    0.0000000000

 respfn : d/dk was computed, but no 2DTE, so no DDB output.

== END DATASET(S) ==============================================================

 -outvars: echo values of variables after computation  --------
            acell      1.0000000000E+00  1.0000000000E+00  1.0000000000E+00 Bohr
              amu      6.94100000E+00  2.80855000E+01  1.40067400E+01
             ecut      4.20000000E+01 Hartree
           etotal     -2.6280317842E+01
            fcart      0.0000000000E+00  0.0000000000E+00  0.0000000000E+00
                       0.0000000000E+00  0.0000000000E+00  0.0000000000E+00
                       0.0000000000E+00  0.0000000000E+00  0.0000000000E+00
                       0.0000000000E+00  0.0000000000E+00  0.0000000000E+00
                       0.0000000000E+00  0.0000000000E+00  0.0000000000E+00
                       0.0000000000E+00  0.0000000000E+00  0.0000000000E+00
                       0.0000000000E+00  0.0000000000E+00  0.0000000000E+00
                       0.0000000000E+00  0.0000000000E+00  0.0000000000E+00
                       0.0000000000E+00  0.0000000000E+00  0.0000000000E+00
                       0.0000000000E+00  0.0000000000E+00  0.0000000000E+00
                       0.0000000000E+00  0.0000000000E+00  0.0000000000E+00
                       0.0000000000E+00  0.0000000000E+00  0.0000000000E+00
-          fftalg         512
           irdden           1
           irdwfk           1
           istwfk        0    1
              ixc     -116133
              kpt      0.00000000E+00  0.00000000E+00  4.25000000E-01
                       0.00000000E+00  0.00000000E+00  0.00000000E+00
           kptopt           0
P           mkmem           2
P          mkqmem           2
P          mk1mem           2
            natom          12
            nband          35
           nbdbuf           4
            ngfft          60      60      54
             nkpt           2
            nstep        2000
             nsym           4
           ntypat           3
              occ      2.000000  2.000000  2.000000  2.000000  2.000000  2.000000
                       2.000000  2.000000  2.000000  2.000000  2.000000  2.000000
                       2.000000  2.000000  2.000000  2.000000  2.000000  2.000000
                       2.000000  2.000000  2.000000  2.000000  2.000000  2.000000
                       2.000000  2.000000  0.000000  0.000000  0.000000  0.000000
                       0.000000  0.000000  0.000000  0.000000  0.000000
        optdriver           1
            prtwf          -1
            rfdir           1       1       1
           rfelfd           2
            rprim      1.0046465438E+01  0.0000000000E+00  0.0000000000E+00
                      -5.0751681406E+00  8.6703019639E+00  0.0000000000E+00
                       0.0000000000E+00  0.0000000000E+00  9.0309642243E+00
          spgroup          36
           strten      0.0000000000E+00  0.0000000000E+00  0.0000000000E+00
                       0.0000000000E+00  0.0000000000E+00  0.0000000000E+00
           symrel      1  0  0   0  1  0   0  0  1       0 -1  0  -1  0  0   0  0  1
                      -1  0  0   0 -1  0   0  0  1       0  1  0   1  0  0   0  0  1
            tnons      0.0000000  0.0000000  0.0000000     0.0000000 -0.0000000  0.5000000
                       0.0000000 -0.0000000  0.5000000     0.0000000 -0.0000000  0.0000000
           tolwfr      1.00000000E-20
            typat      1  1  2  2  2  2  3  3  3  3  3  3
           useylm           1
              wtk        0.50000    0.50000
           xangst      8.9586026438E-01  1.5624450812E+00  4.7733842530E+00
                       1.7348369626E+00  3.0256811097E+00  2.3838940335E+00
                      -1.7911879344E+00  3.0774810544E+00  4.7166912080E+00
                       4.4218851614E+00  1.5106451365E+00  2.3272009885E+00
                      -9.3008444179E-01  4.5793078124E+00  2.3272009885E+00
                       3.5607816688E+00  8.8183785389E-03  4.7166912080E+00
                      -1.4748069915E+00  3.0394821933E+00  2.9845879797E+00
                       4.1055042185E+00  1.5486439976E+00  5.9509776020E-01
                       1.9040276241E+00  3.3207618576E+00  3.2454534060E-01
                       7.2666960293E-01  1.2673643333E+00  2.7140355601E+00
                       3.3681618769E+00  2.6266563630E-01  2.9845879797E+00
                      -7.3746464988E-01  4.3254605546E+00  5.9509776020E-01
            xcart      1.6929305530E+00  2.9525933011E+00  9.0203889652E+00
                       3.2783667446E+00  5.7177086628E+00  4.5049068530E+00
                      -3.3848546486E+00  5.8155963720E+00  8.9132546366E+00
                       8.3561519462E+00  2.8547055919E+00  4.3977725245E+00
                      -1.7576048754E+00  8.6536376435E+00  4.3977725245E+00
                       6.7289021730E+00  1.6664320375E-02  8.9132546366E+00
                      -2.7869813127E+00  5.7437889311E+00  5.6400539012E+00
                       7.7582786103E+00  2.9265130328E+00  1.1245717891E+00
                       3.5980907590E+00  6.2753304633E+00  6.1330181144E-01
                       1.3732065386E+00  2.3949715006E+00  5.1287839236E+00
                       6.3649035186E+00  4.9636611713E-01  5.6400539012E+00
                      -1.3936062210E+00  8.1739358468E+00  1.1245717891E+00
             xred      3.4054100000E-01  3.4054100000E-01  9.9882900000E-01
                       6.5945900000E-01  6.5945900000E-01  4.9882900000E-01
                       1.9220000000E-03  6.7074900000E-01  9.8696600000E-01
                       9.9807800000E-01  3.2925100000E-01  4.8696600000E-01
                       3.2925100000E-01  9.9807800000E-01  4.8696600000E-01
                       6.7074900000E-01  1.9220000000E-03  9.8696600000E-01
                       5.7249000000E-02  6.6246700000E-01  6.2452400000E-01
                       9.4275100000E-01  3.3753300000E-01  1.2452400000E-01
                       7.2377300000E-01  7.2377300000E-01  6.7911000000E-02
                       2.7622700000E-01  2.7622700000E-01  5.6791100000E-01
                       6.6246700000E-01  5.7249000000E-02  6.2452400000E-01
                       3.3753300000E-01  9.4275100000E-01  1.2452400000E-01
            znucl        3.00000   14.00000    7.00000

- Timing analysis has been suppressed with timopt=0

 Suggested references for the acknowledgment of ABINIT usage.

 Calculation completed.
.Delivered   3 WARNINGs and   5 COMMENTs to log file.