.Version 9.5.1 of ABINIT

 ABINIT is a project of the Universite Catholique de Louvain,
 Corning Inc. and other collaborators, see ~abinit/doc/developers/contributors.txt .
 acknowledgments of the ABINIT effort.

.Starting date : Tue  4 May 2021.
- ( at 19h14 )

- input  file    -> /scratch/users/j/a/jabreu/flow_simple_6atoms/flow/w166/t1/run.abi
- output file    -> /scratch/users/j/a/jabreu/flow_simple_6atoms/flow/w166/t1/run.abo
- root for input  files -> /scratch/users/j/a/jabreu/flow_simple_6atoms/flow/w166/t1/indata/in
- root for output files -> /scratch/users/j/a/jabreu/flow_simple_6atoms/flow/w166/t1/outdata/out

 Symmetries : space group Pm m a (# 51); Bravais oP (primitive ortho.)
     intxc =       0      iscf =       7    lmnmax =      32     lnmax =       8
     mgfft =      80  mpssoang =       4    mqgrid =    3918     natom =       6
  nloc_mem =       1    nspden =       1   nspinor =       1    nsppol =       1
      nsym =       8    n1xccc =    2501    ntypat =       3    occopt =       1
   xclevel =       2
-    mband =          53        mffmem =           1         mkmem =           2
-   mkqmem =           2        mk1mem =           2           mpw =       18824
      nfft =      307200          nkpt =           2
  Rough estimation (10% accuracy) of disk space for files :

------------- Echo of variables that govern the present computation ------------
-
- outvars: echo of selected default values
-   iomode0 =  0 , fftalg0 =512 , wfoptalg0 =  0
-
- outvars: echo of global parameters not present in the input file
-  max_nthreads =    0
-
 -outvars: echo values of preprocessed input variables --------
            acell      1.0000000000E+00  1.0000000000E+00  1.0000000000E+00 Bohr
              amu      1.32905430E+02  1.27600000E+02  1.96966540E+02
             ecut      4.00000000E+01 Hartree
-          fftalg         512
           irdden           1
           irdwfk           1
           istwfk        1    1
              ixc     -116133
              kpt      0.00000000E+00  2.45914890E-17  5.00000000E-01
                       0.00000000E+00  0.00000000E+00  0.00000000E+00
           kptopt           0
P           mkmem           2
P          mkqmem           2
P          mk1mem           2
            natom           6
            nband          53
           nbdbuf           4
            ngfft          60      64      80
             nkpt           2
            nstep        1000
             nsym           8
           ntypat           3
              occ      2.000000  2.000000  2.000000  2.000000  2.000000  2.000000
                       2.000000  2.000000  2.000000  2.000000  2.000000  2.000000
                       2.000000  2.000000  2.000000  2.000000  2.000000  2.000000
                       2.000000  2.000000  2.000000  2.000000  2.000000  2.000000
                       2.000000  2.000000  2.000000  2.000000  2.000000  2.000000
                       2.000000  2.000000  2.000000  2.000000  2.000000  2.000000
                       2.000000  2.000000  2.000000  2.000000  2.000000  2.000000
                       2.000000  2.000000  0.000000  0.000000  0.000000  0.000000
                       0.000000  0.000000  0.000000  0.000000  0.000000
        optdriver           1
            prtwf          -1
            rfdir           1       1       1
           rfelfd           2
            rprim      1.0203188136E+01  0.0000000000E+00  0.0000000000E+00
                       0.0000000000E+00  1.1053405286E+01  0.0000000000E+00
                       0.0000000000E+00  0.0000000000E+00  1.3761384485E+01
          spgroup          51
           symrel      1  0  0   0  1  0   0  0  1      -1  0  0   0 -1  0   0  0 -1
                      -1  0  0   0  1  0   0  0 -1       1  0  0   0 -1  0   0  0  1
                      -1  0  0   0 -1  0   0  0  1       1  0  0   0  1  0   0  0 -1
                       1  0  0   0 -1  0   0  0 -1      -1  0  0   0  1  0   0  0  1
            tnons      0.0000000  0.0000000  0.0000000     0.0000000 -0.0000000  0.0000000
                       0.0000000  0.5000000  0.0000000     0.0000000  0.5000000  0.0000000
                       0.0000000  0.5000000  0.0000000     0.0000000  0.5000000  0.0000000
                       0.0000000 -0.0000000  0.0000000     0.0000000  0.0000000  0.0000000
           tolwfr      1.00000000E-20
            typat      1  1  2  2  3  3
           useylm           1
              wtk        0.50000    0.50000
           xangst      2.6996473082E+00  1.4623025386E+00  5.1928136044E+00
                       2.6996473082E+00  4.3869076158E+00  2.0893974238E+00
                       0.0000000000E+00  4.3869076158E+00  5.1075898887E+00
                       0.0000000000E+00  1.4623025386E+00  2.1746211394E+00
                       0.0000000000E+00  0.0000000000E+00  0.0000000000E+00
                       0.0000000000E+00  2.9246050772E+00  0.0000000000E+00
            xcart      5.1015940679E+00  2.7633513214E+00  9.8129955714E+00
                       5.1015940679E+00  8.2900539642E+00  3.9483889137E+00
                       0.0000000000E+00  8.2900539642E+00  9.6519460888E+00
                       0.0000000000E+00  2.7633513214E+00  4.1094383963E+00
                       0.0000000000E+00  0.0000000000E+00  0.0000000000E+00
                       0.0000000000E+00  5.5267026428E+00  0.0000000000E+00
             xred      5.0000000000E-01  2.5000000000E-01  7.1308200000E-01
                       5.0000000000E-01  7.5000000000E-01  2.8691800000E-01
                       0.0000000000E+00  7.5000000000E-01  7.0137900000E-01
                       0.0000000000E+00  2.5000000000E-01  2.9862100000E-01
                       0.0000000000E+00  0.0000000000E+00  0.0000000000E+00
                       0.0000000000E+00  5.0000000000E-01  0.0000000000E+00
            znucl       55.00000   52.00000   79.00000

 chkinp: Checking input parameters for consistency.

== DATASET  1 ==================================================================
-   mpi_nproc: 1, omp_nthreads: -1 (-1 if OMP is not activated)

--- !DatasetInfo
iteration_state: {dtset: 1, }
dimensions: {natom: 6, nkpt: 2, mband: 53, nsppol: 1, nspinor: 1, nspden: 1, mpw: 18824, }
cutoff_energies: {ecut:  40.0, pawecutdg:  -1.0, }
electrons: {nelect:   8.80000000E+01, charge:   0.00000000E+00, occopt:   1.00000000E+00, tsmear:   1.00000000E-02, }
meta: {optdriver: 1, rfelfd: 2, }
...

 Real(R)+Recip(G) space primitive vectors, cartesian coordinates (Bohr,Bohr^-1):
 R(1)= 10.2031881  0.0000000  0.0000000  G(1)=  0.0980086  0.0000000  0.0000000
 R(2)=  0.0000000 11.0534053  0.0000000  G(2)=  0.0000000  0.0904699  0.0000000
 R(3)=  0.0000000  0.0000000 13.7613845  G(3)=  0.0000000  0.0000000  0.0726671
 Unit cell volume ucvol=  1.5520086E+03 bohr^3
 Angles (23,13,12)=  9.00000000E+01  9.00000000E+01  9.00000000E+01 degrees

 getcut: wavevector=  0.0000  0.0000  0.0000  ngfft=  60  64  80
         ecut(hartree)=     40.000   => boxcut(ratio)=   2.03371

--- Pseudopotential description ------------------------------------------------
- pspini: atom type   1  psp file is /scratch/users/j/a/jabreu/pseudos/PBEsol/Cs.psp8
- pspatm: opening atomic psp file    /scratch/users/j/a/jabreu/pseudos/PBEsol/Cs.psp8
- Cs    ONCVPSP-3.3.0  r_core=   2.27353   1.85623   2.01788   1.90105
- 55.00000   9.00000    180112                znucl, zion, pspdat
    8 -116133    3    4       600   0.00000   pspcod,pspxc,lmax,lloc,mmax,r2well
    5.99000000000000    5.00000000000000    0.00000000000000   rchrg,fchrg,qchrg
     nproj     2     2     2     2
     extension_switch     1
  pspatm : epsatm=   22.12462445
         --- l  ekb(1:nproj) -->
             0    6.214110    0.767882
             1    6.311966    0.793598
             2    3.769790    0.913105
             3   -9.247129   -2.432478
 pspatm: atomic psp has been read  and splines computed

- pspini: atom type   2  psp file is /scratch/users/j/a/jabreu/pseudos/PBEsol/Te.psp8
- pspatm: opening atomic psp file    /scratch/users/j/a/jabreu/pseudos/PBEsol/Te.psp8
- Te    ONCVPSP-3.3.0  r_core=   2.26547   1.91704   1.80604
- 52.00000  16.00000    180112                znucl, zion, pspdat
    8 -116133    2    4       600   0.00000   pspcod,pspxc,lmax,lloc,mmax,r2well
    5.99000000000000    5.00000000000000    0.00000000000000   rchrg,fchrg,qchrg
     nproj     2     2     2
     extension_switch     1
  pspatm : epsatm=   36.82679836
         --- l  ekb(1:nproj) -->
             0    6.345999    0.785432
             1    5.709019    1.070069
             2   -6.035173   -1.870937
 pspatm: atomic psp has been read  and splines computed

- pspini: atom type   3  psp file is /scratch/users/j/a/jabreu/pseudos/PBEsol/Au.psp8
- pspatm: opening atomic psp file    /scratch/users/j/a/jabreu/pseudos/PBEsol/Au.psp8
- Au    ONCVPSP-3.3.0  r_core=   1.45604   1.56407   1.56407   1.60183
- 79.00000  19.00000    180112                znucl, zion, pspdat
    8 -116133    3    4       500   0.00000   pspcod,pspxc,lmax,lloc,mmax,r2well
    4.99000000000000    5.00000000000000    0.00000000000000   rchrg,fchrg,qchrg
     nproj     2     2     2     1
     extension_switch     1
  pspatm : epsatm=   32.21965837
         --- l  ekb(1:nproj) -->
             0    9.413866   -0.196587
             1    2.474292   -1.517497
             2    1.503483    0.298081
             3    1.177996
 pspatm: atomic psp has been read  and splines computed

   1.60461103E+04                                ecore*ucvol(ha*bohr**3)

-inwffil : will read wavefunctions from disk file /scratch/users/j/a/jabreu/flow_simple_6atoms/flow/w166/t1/indata/in_WFK

 ==>  initialize data related to q vector <==

 The list of irreducible perturbations for this q vector is:
    1)    idir= 1    ipert=   7
    2)    idir= 2    ipert=   7
    3)    idir= 3    ipert=   7

 Perturbation wavevector (in red.coord.)   0.000000  0.000000  0.000000
 Perturbation : derivative vs k along direction   1

 dfpt_looppert : COMMENT -
  In a d/dk calculation, iscf is set to -3 automatically.
 The set of symmetries contains only one element for this perturbation.
 symkpt : not enough symmetry to change the number of k points.

[...]

 Initialisation of the first-order wave-functions :
  ireadwf=   0

--- !BeginCycle
iteration_state: {dtset: 1, }
solver: {iscf: 7, nstep: 1000, nline: 4, wfoptalg: 0, }
tolerances: {tolwfr: 1.00E-20, }
...

     iter   2DEtotal(Ha)        deltaE(Ha) residm    vres2
-ETOT  1  -54.766481621480     -5.477E+01 2.036E-01 0.000E+00
 ETOT  2  -54.802004031516     -3.552E-02 1.268E-02 0.000E+00
 ETOT  3  -54.802559596786     -5.556E-04 1.713E-03 0.000E+00
 ETOT  4  -54.802602009726     -4.241E-05 4.482E-04 0.000E+00
 ETOT  5  -54.802606073883     -4.064E-06 7.647E-05 0.000E+00
 ETOT  6  -54.802606505966     -4.321E-07 2.068E-05 0.000E+00
 ETOT  7  -54.802606554816     -4.885E-08 3.719E-06 0.000E+00
 ETOT  8  -54.802606560576     -5.759E-09 9.563E-07 0.000E+00
 ETOT  9  -54.802606561272     -6.961E-10 1.766E-07 0.000E+00
 ETOT 10  -54.802606561357     -8.537E-11 4.418E-08 0.000E+00
 ETOT 11  -54.802606561368     -1.070E-11 8.279E-09 0.000E+00
 ETOT 12  -54.802606561369     -1.251E-12 2.038E-09 0.000E+00
 ETOT 13  -54.802606561369     -2.416E-13 3.855E-10 0.000E+00
 ETOT 14  -54.802606561369     -3.553E-14 9.393E-11 0.000E+00
 ETOT 15  -54.802606561369      1.421E-14 1.791E-11 0.000E+00
 ETOT 16  -54.802606561369      0.000E+00 4.330E-12 0.000E+00
 ETOT 17  -54.802606561369      3.553E-14 8.307E-13 0.000E+00
 ETOT 18  -54.802606561369      0.000E+00 1.996E-13 0.000E+00
 ETOT 19  -54.802606561369     -7.105E-15 3.854E-14 0.000E+00
 ETOT 20  -54.802606561369      0.000E+00 9.209E-15 0.000E+00
 ETOT 21  -54.802606561369      0.000E+00 1.788E-15 0.000E+00
 ETOT 22  -54.802606561369      0.000E+00 4.249E-16 0.000E+00
 ETOT 23  -54.802606561369      0.000E+00 8.300E-17 0.000E+00
 ETOT 24  -54.802606561369      0.000E+00 1.962E-17 0.000E+00
 ETOT 25  -54.802606561369      0.000E+00 3.855E-18 0.000E+00
 ETOT 26  -54.802606561369      7.105E-15 9.062E-19 0.000E+00
 ETOT 27  -54.802606561369     -7.105E-15 1.792E-19 0.000E+00
 ETOT 28  -54.802606561369      0.000E+00 4.187E-20 0.000E+00
 ETOT 29  -54.802606561369      0.000E+00 9.991E-21 0.000E+00

 At SCF step   29   max residual=  9.99E-21 < tolwfr=  1.00E-20 =>converged.

 ----iterations are completed or convergence reached----

 dfpt_looppert: DFPT cycle converged with prtwf=-1. Will skip output of the 1st-order WFK file.
 dfpt_looppert : ek2=    6.6742214935E+01
          f-sum rule ratio=    1.0961809118E+00
 prteigrs : about to open file /scratch/users/j/a/jabreu/flow_simple_6atoms/flow/w166/t1/tmpdata/tmp_1WF1_EIG
 Expectation of eigenvalue derivatives (hartree) for nkpt=   2  k points:
  (in case of degenerate eigenvalues, averaged derivative)
 kpt#   1, nband= 53, wtk=  0.50000, kpt=  0.0000  0.0000  0.5000 (reduced coord)
   0.00000   -0.00000   -0.00000    0.00000    0.00000    0.00000   -0.00000   -0.00000
  -0.00000   -0.00000   -0.00000    0.00000   -0.00000   -0.00000   -0.00000    0.00000
  -0.00000    0.00000   -0.00000   -0.00000   -0.00000   -0.00000    0.00000    0.00000
   0.00000    0.00000   -0.00000   -0.00000   -0.00000   -0.00000   -0.00000    0.00000
   0.00000   -0.00000    0.00000   -0.00000    0.00000   -0.00000    0.00000   -0.00000
  -0.00000    0.00000   -0.00000   -0.00000   -0.00000    0.00000    0.00000    0.00000
   0.00000    0.00000   -0.00000   -0.00000   -0.00000
 prteigrs : prtvol=0 or 1, do not print more k-points.

 Eight components of 2nd-order total energy (hartree) are
 1,2,3: 0th-order hamiltonian combined with 1st-order wavefunctions
     kin0=   6.49017762E+01 eigvalue=   7.09281860E+00  local=  -3.63606026E+01
 4,5,6: 1st-order hamiltonian combined with 1st and 0th-order wfs
     kin1=  -7.31615420E+01  Hartree=   0.00000000E+00     xc=   0.00000000E+00
 7,8,9: eventually, occupation + non-local contributions
    edocc=   1.11607956E+01     enl0=   8.00781867E+00   enl1=  -3.64436711E+01
 1-9 gives the relaxation energy (to be shifted if some occ is /=2.0)
   erelax=  -5.48026066E+01
  No Ewald or frozen-wf contrib.: the relaxation energy is the total one
 2DEtotal=   -0.5480260656E+02 Ha. Also 2DEtotal=   -0.149125476367E+04 eV
    (  non-var. 2DEtotal :   -5.4802606561E+01 Ha)

 Perturbation wavevector (in red.coord.)   0.000000  0.000000  0.000000
 Perturbation : derivative vs k along direction   2
 The set of symmetries contains only one element for this perturbation.
 symkpt : not enough symmetry to change the number of k points.

[...]

 Perturbation wavevector (in red.coord.)   0.000000  0.000000  0.000000
 Perturbation : derivative vs k along direction   3
 The set of symmetries contains only one element for this perturbation.
 symkpt : not enough symmetry to change the number of k points.

-inwffil : will read wavefunctions from disk file /scratch/users/j/a/jabreu/flow_simple_6atoms/flow/w166/t1/indata/in_WFK

 Initialisation of the first-order wave-functions :
  ireadwf=   0

--- !BeginCycle
iteration_state: {dtset: 1, }
solver: {iscf: 7, nstep: 1000, nline: 4, wfoptalg: 0, }
tolerances: {tolwfr: 1.00E-20, }
...

     iter   2DEtotal(Ha)        deltaE(Ha) residm    vres2
-ETOT  1  -28.504246180875     -2.850E+01 2.703E-02 0.000E+00
 ETOT  2  -28.522801213585     -1.856E-02 2.660E-03 0.000E+00
 ETOT  3  -28.522971368018     -1.702E-04 2.441E-04 0.000E+00
 ETOT  4  -28.522979159254     -7.791E-06 3.502E-05 0.000E+00
 ETOT  5  -28.522979669578     -5.103E-07 5.318E-06 0.000E+00
 ETOT  6  -28.522979709041     -3.946E-08 8.780E-07 0.000E+00
 ETOT  7  -28.522979712362     -3.321E-09 1.516E-07 0.000E+00
 ETOT  8  -28.522979712660     -2.983E-10 2.432E-08 0.000E+00
 ETOT  9  -28.522979712689     -2.868E-11 4.382E-09 0.000E+00
 ETOT 10  -28.522979712692     -2.881E-12 6.876E-10 0.000E+00
 ETOT 11  -28.522979712692     -3.411E-13 1.267E-10 0.000E+00
 ETOT 12  -28.522979712692      2.132E-14 1.956E-11 0.000E+00
 ETOT 13  -28.522979712692     -4.263E-14 3.661E-12 0.000E+00
 ETOT 14  -28.522979712692      1.776E-14 5.578E-13 0.000E+00
 ETOT 15  -28.522979712692     -7.105E-15 1.058E-13 0.000E+00
 ETOT 16  -28.522979712692     -7.105E-15 1.595E-14 0.000E+00
 ETOT 17  -28.522979712692      0.000E+00 3.060E-15 0.000E+00
 ETOT 18  -28.522979712692      3.553E-15 4.570E-16 0.000E+00
 ETOT 19  -28.522979712692     -3.553E-15 8.860E-17 0.000E+00
 ETOT 20  -28.522979712692      0.000E+00 1.312E-17 0.000E+00
 ETOT 21  -28.522979712692      3.553E-15 2.568E-18 0.000E+00
 ETOT 22  -28.522979712692      3.553E-15 3.777E-19 0.000E+00
 ETOT 23  -28.522979712692     -1.421E-14 7.451E-20 0.000E+00
 ETOT 24  -28.522979712692      3.553E-15 1.089E-20 0.000E+00
 ETOT 25  -28.522979712692      3.553E-15 9.958E-21 0.000E+00

 At SCF step   25   max residual=  9.96E-21 < tolwfr=  1.00E-20 =>converged.

 ----iterations are completed or convergence reached----

 dfpt_looppert: DFPT cycle converged with prtwf=-1. Will skip output of the 1st-order WFK file.
 dfpt_looppert : ek2=    3.6690036738E+01
          f-sum rule ratio=    1.0123695065E+00
 prteigrs : about to open file /scratch/users/j/a/jabreu/flow_simple_6atoms/flow/w166/t1/tmpdata/tmp_1WF1_EIG
 Expectation of eigenvalue derivatives (hartree) for nkpt=   2  k points:
  (in case of degenerate eigenvalues, averaged derivative)
 kpt#   1, nband= 53, wtk=  0.50000, kpt=  0.0000  0.0000  0.5000 (reduced coord)
   0.00000   -0.00000   -0.00000    0.00000   -0.00000   -0.00000    0.00000    0.00000
  -0.00000   -0.00000   -0.00000   -0.00000   -0.00000   -0.00000   -0.00000    0.00000
  -0.00000    0.00000   -0.00000   -0.00000   -0.00000   -0.00000    0.00000    0.00000
   0.00000   -0.00000   -0.00000    0.00000    0.00000    0.00000    0.00000    0.00000
   0.00000   -0.00000    0.00000   -0.00000   -0.00000    0.00000    0.00000    0.00000
  -0.00000   -0.00000    0.00000   -0.00000   -0.00000   -0.00000    0.00000   -0.00000
   0.00000    0.00000   -0.00000    0.00000    0.00009
 prteigrs : prtvol=0 or 1, do not print more k-points.

 Eight components of 2nd-order total energy (hartree) are
 1,2,3: 0th-order hamiltonian combined with 1st-order wavefunctions
     kin0=   3.66245875E+01 eigvalue=   3.79759951E+00  local=  -2.07899300E+01
 4,5,6: 1st-order hamiltonian combined with 1st and 0th-order wfs
     kin1=  -3.71438744E+01  Hartree=   0.00000000E+00     xc=   0.00000000E+00
 7,8,9: eventually, occupation + non-local contributions
    edocc=   4.33796373E+00     enl0=   4.55275896E+00   enl1=  -1.99020850E+01
 1-9 gives the relaxation energy (to be shifted if some occ is /=2.0)
   erelax=  -2.85229797E+01
  No Ewald or frozen-wf contrib.: the relaxation energy is the total one
 2DEtotal=   -0.2852297971E+02 Ha. Also 2DEtotal=   -0.776149749793E+03 eV
    (  non-var. 2DEtotal :   -2.8522979713E+01 Ha)

 CALCULATION OF EFFECTIVE MASSES
 NOTE : Additional infos (eff. mass eigenvalues, eigenvectors and, if degenerate, average mass) are available in stdout.

 K-point ( 0.000, 0.000, 0.500) | band =    44
 Effective mass tensor:
             -3.3175288591             -0.0000000214              0.0000000118
             -0.0000000214             -0.1324390173              0.0000000011
              0.0000000118              0.0000000011             -1.2503519942
 Effective mass tensor eigenvalues:
             -3.3175288591             -1.2503519942             -0.1324390173
 Angular average effective mass 1/(<1/m>)=  -0.3467466922
 Angular average effective mass for Frohlich model (<m**0.5>)**2=  -0.5769387168
 Effective masses along directions: (cart. coord. / red. coord. -> eff. mass)
    1:   1.000000  0.000000  0.000000 /   1.000000  0.000000  0.000000 ->  -3.3175288591
    2:   0.000000  1.000000  0.000000 /   0.000000  1.000000  0.000000 ->  -0.1324390173
    3:   0.000000  0.000000  1.000000 /   0.000000  0.000000  1.000000 ->  -1.2503519942
    4:   0.577350  0.577350  0.577350 /   0.500458  0.542160  0.674984 ->  -0.3467466953
    5:   0.000000  0.707107  0.707107 /   0.000000  0.626224  0.779643 ->  -0.2395089175
    6:   0.707107  0.000000  0.707107 /   0.595588  0.000000  0.803290 ->  -1.8161939580
    7:   0.707107  0.707107  0.000000 /   0.678282  0.734802  0.000000 ->  -0.2547097731

 K-point ( 0.000, 0.000, 0.000) | band =    45
 Effective mass tensor:
              0.5986253351              0.0000005026             -0.0000945760
              0.0000005026              0.1721713329             -0.0000064081
             -0.0000945760             -0.0000064081              1.7793849895
 Effective mass tensor eigenvalues:
              0.1721713329              0.5986253275              1.7793849971
 Angular average effective mass 1/(<1/m>)=   0.3731039908
 Angular average effective mass for Frohlich model (<m**0.5>)**2=   0.4761332285
 Effective masses along directions: (cart. coord. / red. coord. -> eff. mass)
    1:   1.000000  0.000000  0.000000 /   1.000000  0.000000  0.000000 ->   0.5986253301
    2:   0.000000  1.000000  0.000000 /   0.000000  1.000000  0.000000 ->   0.1721713329
    3:   0.000000  0.000000  1.000000 /   0.000000  0.000000  1.000000 ->   1.7793849743
    4:   0.577350  0.577350  0.577350 /   0.500458  0.542160  0.674984 ->   0.3730942621
    5:   0.000000  0.707107  0.707107 /   0.000000  0.626224  0.779643 ->   0.3139618055
    6:   0.707107  0.000000  0.707107 /   0.595588  0.000000  0.803290 ->   0.8957910698
    7:   0.707107  0.707107  0.000000 /   0.678282  0.734802  0.000000 ->   0.2674278710

 END OF EFFECTIVE MASSES SECTION

 ---- first-order wavefunction calculations are completed ----

 Total localisation tensor (bohr^2) in cartesian coordinates
  WARNING : still subject to testing - especially symmetries.
      direction              matrix element
   alpha     beta       real part   imaginary part
     1        1       1.2911663688    0.0000000000
     1        2       0.0000000000    0.0000000000
     1        3       0.0000000000    0.0000000000
     2        1       0.0000000000    0.0000000000
     2        2       2.8707386635    0.0000000000
     2        3       0.0000000000    0.0000000000
     3        1       0.0000000000    0.0000000000
     3        2       0.0000000000    0.0000000000
     3        3       1.1603520528    0.0000000000

 respfn : d/dk was computed, but no 2DTE, so no DDB output.

== END DATASET(S) ==============================================================

 -outvars: echo values of variables after computation  --------
            acell      1.0000000000E+00  1.0000000000E+00  1.0000000000E+00 Bohr
              amu      1.32905430E+02  1.27600000E+02  1.96966540E+02
             ecut      4.00000000E+01 Hartree
           etotal     -2.8522979713E+01
            fcart      0.0000000000E+00  0.0000000000E+00  0.0000000000E+00
                       0.0000000000E+00  0.0000000000E+00  0.0000000000E+00
                       0.0000000000E+00  0.0000000000E+00  0.0000000000E+00
                       0.0000000000E+00  0.0000000000E+00  0.0000000000E+00
                       0.0000000000E+00  0.0000000000E+00  0.0000000000E+00
                       0.0000000000E+00  0.0000000000E+00  0.0000000000E+00
-          fftalg         512
           irdden           1
           irdwfk           1
           istwfk        1    1
              ixc     -116133
              kpt      0.00000000E+00  2.45914890E-17  5.00000000E-01
                       0.00000000E+00  0.00000000E+00  0.00000000E+00
           kptopt           0
P           mkmem           2
P          mkqmem           2
P          mk1mem           2
            natom           6
            nband          53
           nbdbuf           4
            ngfft          60      64      80
             nkpt           2
            nstep        1000
             nsym           8
           ntypat           3
              occ      2.000000  2.000000  2.000000  2.000000  2.000000  2.000000
                       2.000000  2.000000  2.000000  2.000000  2.000000  2.000000
                       2.000000  2.000000  2.000000  2.000000  2.000000  2.000000
                       2.000000  2.000000  2.000000  2.000000  2.000000  2.000000
                       2.000000  2.000000  2.000000  2.000000  2.000000  2.000000
                       2.000000  2.000000  2.000000  2.000000  2.000000  2.000000
                       2.000000  2.000000  2.000000  2.000000  2.000000  2.000000
                       2.000000  2.000000  0.000000  0.000000  0.000000  0.000000
                       0.000000  0.000000  0.000000  0.000000  0.000000
        optdriver           1
            prtwf          -1
            rfdir           1       1       1
           rfelfd           2
            rprim      1.0203188136E+01  0.0000000000E+00  0.0000000000E+00
                       0.0000000000E+00  1.1053405286E+01  0.0000000000E+00
                       0.0000000000E+00  0.0000000000E+00  1.3761384485E+01
          spgroup          51
           strten      0.0000000000E+00  0.0000000000E+00  0.0000000000E+00
                       0.0000000000E+00  0.0000000000E+00  0.0000000000E+00
           symrel      1  0  0   0  1  0   0  0  1      -1  0  0   0 -1  0   0  0 -1
                      -1  0  0   0  1  0   0  0 -1       1  0  0   0 -1  0   0  0  1
                      -1  0  0   0 -1  0   0  0  1       1  0  0   0  1  0   0  0 -1
                       1  0  0   0 -1  0   0  0 -1      -1  0  0   0  1  0   0  0  1
            tnons      0.0000000  0.0000000  0.0000000     0.0000000 -0.0000000  0.0000000
                       0.0000000  0.5000000  0.0000000     0.0000000  0.5000000  0.0000000
                       0.0000000  0.5000000  0.0000000     0.0000000  0.5000000  0.0000000
                       0.0000000 -0.0000000  0.0000000     0.0000000  0.0000000  0.0000000
           tolwfr      1.00000000E-20
            typat      1  1  2  2  3  3
           useylm           1
              wtk        0.50000    0.50000
           xangst      2.6996473082E+00  1.4623025386E+00  5.1928136044E+00
                       2.6996473082E+00  4.3869076158E+00  2.0893974238E+00
                       0.0000000000E+00  4.3869076158E+00  5.1075898887E+00
                       0.0000000000E+00  1.4623025386E+00  2.1746211394E+00
                       0.0000000000E+00  0.0000000000E+00  0.0000000000E+00
                       0.0000000000E+00  2.9246050772E+00  0.0000000000E+00
            xcart      5.1015940679E+00  2.7633513214E+00  9.8129955714E+00
                       5.1015940679E+00  8.2900539642E+00  3.9483889137E+00
                       0.0000000000E+00  8.2900539642E+00  9.6519460888E+00
                       0.0000000000E+00  2.7633513214E+00  4.1094383963E+00
                       0.0000000000E+00  0.0000000000E+00  0.0000000000E+00
                       0.0000000000E+00  5.5267026428E+00  0.0000000000E+00
             xred      5.0000000000E-01  2.5000000000E-01  7.1308200000E-01
                       5.0000000000E-01  7.5000000000E-01  2.8691800000E-01
                       0.0000000000E+00  7.5000000000E-01  7.0137900000E-01
                       0.0000000000E+00  2.5000000000E-01  2.9862100000E-01
                       0.0000000000E+00  0.0000000000E+00  0.0000000000E+00
                       0.0000000000E+00  5.0000000000E-01  0.0000000000E+00
            znucl       55.00000   52.00000   79.00000

- Timing analysis has been suppressed with timopt=0

 Suggested references for the acknowledgment of ABINIT usage.

 Calculation completed.
.Delivered  14 WARNINGs and   9 COMMENTs to log file.