.Version 9.5.1 of ABINIT

 ABINIT is a project of the Universite Catholique de Louvain,
 Corning Inc. and other collaborators, see ~abinit/doc/developers/contributors.txt .
 acknowledgments of the ABINIT effort.

.Starting date : Sun 25 Apr 2021.
- ( at 17h23 )

- input  file    -> /scratch/users/j/a/jabreu/flow_simple2/flow/w217/t1/run.abi
- output file    -> /scratch/users/j/a/jabreu/flow_simple2/flow/w217/t1/run.abo
- root for input  files -> /scratch/users/j/a/jabreu/flow_simple2/flow/w217/t1/indata/in
- root for output files -> /scratch/users/j/a/jabreu/flow_simple2/flow/w217/t1/outdata/out

 Symmetries : space group Fm -3 m (#225); Bravais cF (face-center cubic)
     intxc =       0      iscf =       7    lmnmax =      32     lnmax =       8
     mgfft =      45  mpssoang =       4    mqgrid =    3001     natom =       2
  nloc_mem =       1    nspden =       1   nspinor =       1    nsppol =       1
      nsym =      48    n1xccc =    2501    ntypat =       2    occopt =       1
   xclevel =       2
-    mband =          17        mffmem =           1         mkmem =           2
-   mkqmem =           2        mk1mem =           2           mpw =        3892
      nfft =       91125          nkpt =           2
  Rough estimation (10% accuracy) of disk space for files :

------------- Echo of variables that govern the present computation ------------
-
- outvars: echo of selected default values
-   iomode0 =  0 , fftalg0 =512 , wfoptalg0 =  0
-
- outvars: echo of global parameters not present in the input file
-  max_nthreads =    0
-
 -outvars: echo values of preprocessed input variables --------
            acell      1.0000000000E+00  1.0000000000E+00  1.0000000000E+00 Bohr
              amu      1.32905430E+02  3.54527000E+01
             ecut      2.80000000E+01 Hartree
-          fftalg         512
           irdden           1
           irdwfk           1
           istwfk        1    1
              ixc     -116133
              kpt      5.00000000E-01  6.16297582E-33  5.00000000E-01
                       0.00000000E+00  0.00000000E+00  0.00000000E+00
           kptopt           0
P           mkmem           2
P          mkqmem           2
P          mk1mem           2
            natom           2
            nband          17
           nbdbuf           4
            ngfft          45      45      45
             nkpt           2
            nstep         100
             nsym          48
           ntypat           2
              occ      2.000000  2.000000  2.000000  2.000000  2.000000  2.000000
                       2.000000  2.000000  0.000000  0.000000  0.000000  0.000000
                       0.000000  0.000000  0.000000  0.000000  0.000000
        optdriver           1
            prtwf          -1
            rfdir           1       1       1
           rfelfd           2
            rprim      7.9779071487E+00  0.0000000000E+00  4.6060468398E+00
                       2.6593023829E+00  7.5216429927E+00  4.6060468398E+00
                       0.0000000000E+00  0.0000000000E+00  9.2120936797E+00
          spgroup         225
           symrel      1  0  0   0  1  0   0  0  1      -1  0  0   0 -1  0   0  0 -1
                       0 -1  1   0 -1  0   1 -1  0       0  1 -1   0  1  0  -1  1  0
                      -1  0  0  -1  0  1  -1  1  0       1  0  0   1  0 -1   1 -1  0
                       0  1 -1   1  0 -1   0  0 -1       0 -1  1  -1  0  1   0  0  1
                      -1  0  0  -1  1  0  -1  0  1       1  0  0   1 -1  0   1  0 -1
                       0 -1  1   1 -1  0   0 -1  0       0  1 -1  -1  1  0   0  1  0
                       1  0  0   0  0  1   0  1  0      -1  0  0   0  0 -1   0 -1  0
                       0  1 -1   0  0 -1   1  0 -1       0 -1  1   0  0  1  -1  0  1
                      -1  0  1  -1  1  0  -1  0  0       1  0 -1   1 -1  0   1  0  0
                       0 -1  0   1 -1  0   0 -1  1       0  1  0  -1  1  0   0  1 -1
                       1  0 -1   0  0 -1   0  1 -1      -1  0  1   0  0  1   0 -1  1
                       0  1  0   0  0  1   1  0  0       0 -1  0   0  0 -1  -1  0  0
                       1  0 -1   0  1 -1   0  0 -1      -1  0  1   0 -1  1   0  0  1
                       0 -1  0   0 -1  1   1 -1  0       0  1  0   0  1 -1  -1  1  0
                      -1  0  1  -1  0  0  -1  1  0       1  0 -1   1  0  0   1 -1  0
                       0  1  0   1  0  0   0  0  1       0 -1  0  -1  0  0   0  0 -1
                       0  0 -1   0  1 -1   1  0 -1       0  0  1   0 -1  1  -1  0  1
                       1 -1  0   0 -1  1   0 -1  0      -1  1  0   0  1 -1   0  1  0
                       0  0  1   1  0  0   0  1  0       0  0 -1  -1  0  0   0 -1  0
                      -1  1  0  -1  0  0  -1  0  1       1 -1  0   1  0  0   1  0 -1
                       0  0  1   0  1  0   1  0  0       0  0 -1   0 -1  0  -1  0  0
                       1 -1  0   0 -1  0   0 -1  1      -1  1  0   0  1  0   0  1 -1
                       0  0 -1   1  0 -1   0  1 -1       0  0  1  -1  0  1   0 -1  1
                      -1  1  0  -1  0  1  -1  0  0       1 -1  0   1  0 -1   1  0  0
           tolwfr      1.00000000E-20
            typat      1  2
           useylm           1
              wtk        0.50000    0.50000
           xangst      0.0000000000E+00  0.0000000000E+00  0.0000000000E+00
                       2.8144844236E+00  1.9901410214E+00  4.8748300187E+00
            xcart      0.0000000000E+00  0.0000000000E+00  0.0000000000E+00
                       5.3186047658E+00  3.7608214964E+00  9.2120936797E+00
             xred      0.0000000000E+00  0.0000000000E+00  0.0000000000E+00
                       5.0000000000E-01  5.0000000000E-01  5.0000000000E-01
            znucl       55.00000   17.00000

 chkinp: Checking input parameters for consistency.

== DATASET  1 ==================================================================
-   mpi_nproc: 1, omp_nthreads: -1 (-1 if OMP is not activated)

--- !DatasetInfo
iteration_state: {dtset: 1, }
dimensions: {natom: 2, nkpt: 2, mband: 17, nsppol: 1, nspinor: 1, nspden: 1, mpw: 3892, }
cutoff_energies: {ecut:  28.0, pawecutdg:  -1.0, }
electrons: {nelect:   1.60000000E+01, charge:   0.00000000E+00, occopt:   1.00000000E+00, tsmear:   1.00000000E-02, }
meta: {optdriver: 1, rfelfd: 2, }
...

 Real(R)+Recip(G) space primitive vectors, cartesian coordinates (Bohr,Bohr^-1):
 R(1)=  7.9779071  0.0000000  4.6060468  G(1)=  0.1253462 -0.0443166  0.0000000
 R(2)=  2.6593024  7.5216430  4.6060468  G(2)=  0.0000000  0.1329497  0.0000000
 R(3)=  0.0000000  0.0000000  9.2120937  G(3)= -0.0626731 -0.0443166  0.1085530
 Unit cell volume ucvol=  5.5278982E+02 bohr^3
 Angles (23,13,12)=  6.00000000E+01  6.00000000E+01  6.00000000E+01 degrees

 getcut: wavevector=  0.0000  0.0000  0.0000  ngfft=  45  45  45
         ecut(hartree)=     28.000   => boxcut(ratio)=   2.00517

--- Pseudopotential description ------------------------------------------------
- pspini: atom type   1  psp file is /scratch/users/j/a/jabreu/pseudos/PBEsol/Cs.psp8
- pspatm: opening atomic psp file    /scratch/users/j/a/jabreu/pseudos/PBEsol/Cs.psp8
- Cs    ONCVPSP-3.3.0  r_core=   2.27353   1.85623   2.01788   1.90105
- 55.00000   9.00000    180112                znucl, zion, pspdat
    8 -116133    3    4       600   0.00000   pspcod,pspxc,lmax,lloc,mmax,r2well
    5.99000000000000    5.00000000000000    0.00000000000000   rchrg,fchrg,qchrg
     nproj     2     2     2     2
     extension_switch     1
  pspatm : epsatm=   22.12462445
         --- l  ekb(1:nproj) -->
             0    6.214110    0.767882
             1    6.311966    0.793598
             2    3.769790    0.913105
             3   -9.247129   -2.432478
 pspatm: atomic psp has been read  and splines computed

- pspini: atom type   2  psp file is /scratch/users/j/a/jabreu/pseudos/PBEsol/Cl.psp8
- pspatm: opening atomic psp file    /scratch/users/j/a/jabreu/pseudos/PBEsol/Cl.psp8
- Cl    ONCVPSP-3.3.0  r_core=   1.56009   1.35202   1.75774
- 17.00000   7.00000    180112                znucl, zion, pspdat
    8 -116133    2    4       600   0.00000   pspcod,pspxc,lmax,lloc,mmax,r2well
    5.99000000000000    8.00000000000000    0.00000000000000   rchrg,fchrg,qchrg
     nproj     2     2     2
     extension_switch     1
  pspatm : epsatm=    8.95520722
         --- l  ekb(1:nproj) -->
             0    8.193503    0.707970
             1    3.869736    1.114731
             2   -2.915303   -0.810552
 pspatm: atomic psp has been read  and splines computed

   4.97277307E+02                                ecore*ucvol(ha*bohr**3)

-inwffil : will read wavefunctions from disk file /scratch/users/j/a/jabreu/flow_simple2/flow/w217/t1/indata/in_WFK

 ==>  initialize data related to q vector <==

 The list of irreducible perturbations for this q vector is:
    1)    idir= 1    ipert=   3
    2)    idir= 2    ipert=   3
    3)    idir= 3    ipert=   3

 Perturbation wavevector (in red.coord.)   0.000000  0.000000  0.000000
 Perturbation : derivative vs k along direction   1

 dfpt_looppert : COMMENT -
  In a d/dk calculation, iscf is set to -3 automatically.
 The set of symmetries contains only one element for this perturbation.
 symkpt : not enough symmetry to change the number of k points.

[...]

 Initialisation of the first-order wave-functions :
  ireadwf=   0

--- !BeginCycle
iteration_state: {dtset: 1, }
solver: {iscf: 7, nstep: 100, nline: 4, wfoptalg: 0, }
tolerances: {tolwfr: 1.00E-20, }
...

     iter   2DEtotal(Ha)        deltaE(Ha) residm    vres2
-ETOT  1  -13.825371385098     -1.383E+01 4.812E-02 0.000E+00
 ETOT  2  -13.831451516280     -6.080E-03 1.495E-03 0.000E+00
 ETOT  3  -13.831468119329     -1.660E-05 1.737E-05 0.000E+00
 ETOT  4  -13.831468253406     -1.341E-07 1.491E-06 0.000E+00
 ETOT  5  -13.831468257250     -3.844E-09 9.144E-08 0.000E+00
 ETOT  6  -13.831468257406     -1.566E-10 1.731E-08 0.000E+00
 ETOT  7  -13.831468257413     -7.109E-12 2.028E-09 0.000E+00
 ETOT  8  -13.831468257414     -3.784E-13 2.345E-10 0.000E+00
 ETOT  9  -13.831468257414     -1.066E-14 3.985E-11 0.000E+00
 ETOT 10  -13.831468257414     -1.776E-15 3.905E-12 0.000E+00
 ETOT 11  -13.831468257414     -3.553E-15 8.140E-13 0.000E+00
 ETOT 12  -13.831468257414      0.000E+00 8.658E-14 0.000E+00
 ETOT 13  -13.831468257414     -3.553E-15 1.719E-14 0.000E+00
 ETOT 14  -13.831468257414      0.000E+00 1.928E-15 0.000E+00
 ETOT 15  -13.831468257414      3.553E-15 3.731E-16 0.000E+00
 ETOT 16  -13.831468257414      0.000E+00 4.287E-17 0.000E+00
 ETOT 17  -13.831468257414      1.776E-15 8.256E-18 0.000E+00
 ETOT 18  -13.831468257414      0.000E+00 9.619E-19 0.000E+00
 ETOT 19  -13.831468257414     -1.776E-15 1.851E-19 0.000E+00
 ETOT 20  -13.831468257414     -1.776E-15 2.166E-20 0.000E+00
 ETOT 21  -13.831468257414     -1.776E-15 9.854E-21 0.000E+00

 At SCF step   21   max residual=  9.85E-21 < tolwfr=  1.00E-20 =>converged.

 ----iterations are completed or convergence reached----

 dfpt_looppert: DFPT cycle converged with prtwf=-1. Will skip output of the 1st-order WFK file.
 dfpt_looppert : ek2=    2.2329771686E+01
          f-sum rule ratio=    1.1937888061E+00
 prteigrs : about to open file /scratch/users/j/a/jabreu/flow_simple2/flow/w217/t1/tmpdata/tmp_1WF1_EIG
 Expectation of eigenvalue derivatives (hartree) for nkpt=   2  k points:
  (in case of degenerate eigenvalues, averaged derivative)
 kpt#   1, nband= 17, wtk=  0.50000, kpt=  0.5000  0.0000  0.5000 (reduced coord)
   0.00000    0.00000   -0.00000   -0.00000   -0.00000    0.00000    0.00000   -0.00000
   0.00000   -0.00000    0.00000   -0.00000    0.00000    0.00000    0.00000   -0.00000
  -0.00000
 prteigrs : prtvol=0 or 1, do not print more k-points.

 Eight components of 2nd-order total energy (hartree) are
 1,2,3: 0th-order hamiltonian combined with 1st-order wavefunctions
     kin0=   7.13262796E+00 eigvalue=   3.73545552E-01  local=  -4.01041667E+00
 4,5,6: 1st-order hamiltonian combined with 1st and 0th-order wfs
     kin1=  -2.66570315E+01  Hartree=   0.00000000E+00     xc=   0.00000000E+00
 7,8,9: eventually, occupation + non-local contributions
    edocc=   9.25663084E+00     enl0=   1.07908057E+00   enl1=  -1.00590503E+00
 1-9 gives the relaxation energy (to be shifted if some occ is /=2.0)
   erelax=  -1.38314683E+01
  No Ewald or frozen-wf contrib.: the relaxation energy is the total one
 2DEtotal=   -0.1383146826E+02 Ha. Also 2DEtotal=   -0.376373392100E+03 eV
    (  non-var. 2DEtotal :   -1.3831468257E+01 Ha)

 Perturbation wavevector (in red.coord.)   0.000000  0.000000  0.000000
 Perturbation : derivative vs k along direction   2
 The set of symmetries contains only one element for this perturbation.
 symkpt : not enough symmetry to change the number of k points.

[...]

 Perturbation wavevector (in red.coord.)   0.000000  0.000000  0.000000
 Perturbation : derivative vs k along direction   3
 The set of symmetries contains only one element for this perturbation.
 symkpt : not enough symmetry to change the number of k points.

-inwffil : will read wavefunctions from disk file /scratch/users/j/a/jabreu/flow_simple2/flow/w217/t1/indata/in_WFK

 Initialisation of the first-order wave-functions :
  ireadwf=   0

--- !BeginCycle
iteration_state: {dtset: 1, }
solver: {iscf: 7, nstep: 100, nline: 4, wfoptalg: 0, }
tolerances: {tolwfr: 1.00E-20, }
...

     iter   2DEtotal(Ha)        deltaE(Ha) residm    vres2
-ETOT  1  -13.825361357396     -1.383E+01 4.812E-02 0.000E+00
 ETOT  2  -13.831450991980     -6.090E-03 1.495E-03 0.000E+00
 ETOT  3  -13.831468077033     -1.709E-05 1.737E-05 0.000E+00
 ETOT  4  -13.831468206411     -1.294E-07 1.491E-06 0.000E+00
 ETOT  5  -13.831468209706     -3.295E-09 9.145E-08 0.000E+00
 ETOT  6  -13.831468209835     -1.288E-10 1.731E-08 0.000E+00
 ETOT  7  -13.831468209841     -5.858E-12 2.025E-09 0.000E+00
 ETOT  8  -13.831468209841     -3.109E-13 2.335E-10 0.000E+00
 ETOT  9  -13.831468209841     -2.132E-14 3.978E-11 0.000E+00
 ETOT 10  -13.831468209841      3.553E-15 3.910E-12 0.000E+00
 ETOT 11  -13.831468209841      0.000E+00 8.123E-13 0.000E+00
 ETOT 12  -13.831468209841      0.000E+00 8.630E-14 0.000E+00
 ETOT 13  -13.831468209841      0.000E+00 1.715E-14 0.000E+00
 ETOT 14  -13.831468209841      0.000E+00 1.929E-15 0.000E+00
 ETOT 15  -13.831468209841      0.000E+00 3.726E-16 0.000E+00
 ETOT 16  -13.831468209841      0.000E+00 4.292E-17 0.000E+00
 ETOT 17  -13.831468209841     -5.329E-15 8.229E-18 0.000E+00
 ETOT 18  -13.831468209841      0.000E+00 9.632E-19 0.000E+00
 ETOT 19  -13.831468209841     -3.553E-15 1.844E-19 0.000E+00
 ETOT 20  -13.831468209841      1.243E-14 2.170E-20 0.000E+00
 ETOT 21  -13.831468209841     -7.105E-15 9.927E-21 0.000E+00

 At SCF step   21   max residual=  9.93E-21 < tolwfr=  1.00E-20 =>converged.

 ----iterations are completed or convergence reached----

 dfpt_looppert: DFPT cycle converged with prtwf=-1. Will skip output of the 1st-order WFK file.
 dfpt_looppert : ek2=    2.2329771686E+01
          f-sum rule ratio=    1.1937888032E+00
 prteigrs : about to open file /scratch/users/j/a/jabreu/flow_simple2/flow/w217/t1/tmpdata/tmp_1WF1_EIG
 Expectation of eigenvalue derivatives (hartree) for nkpt=   2  k points:
  (in case of degenerate eigenvalues, averaged derivative)
 kpt#   1, nband= 17, wtk=  0.50000, kpt=  0.5000  0.0000  0.5000 (reduced coord)
   0.00000    0.00000   -0.00000    0.00000    0.00000   -0.00000   -0.00000   -0.00000
  -0.00000   -0.00000    0.00000   -0.00000   -0.00000   -0.00000   -0.00000    0.00000
   0.00000
 prteigrs : prtvol=0 or 1, do not print more k-points.

 Eight components of 2nd-order total energy (hartree) are
 1,2,3: 0th-order hamiltonian combined with 1st-order wavefunctions
     kin0=   7.13376807E+00 eigvalue=   3.74053522E-01  local=  -4.01440063E+00
 4,5,6: 1st-order hamiltonian combined with 1st and 0th-order wfs
     kin1=  -2.66570314E+01  Hartree=   0.00000000E+00     xc=   0.00000000E+00
 7,8,9: eventually, occupation + non-local contributions
    edocc=   9.25547864E+00     enl0=   1.08256860E+00   enl1=  -1.00590500E+00
 1-9 gives the relaxation energy (to be shifted if some occ is /=2.0)
   erelax=  -1.38314682E+01
  No Ewald or frozen-wf contrib.: the relaxation energy is the total one
 2DEtotal=   -0.1383146821E+02 Ha. Also 2DEtotal=   -0.376373390805E+03 eV
    (  non-var. 2DEtotal :   -1.3831468210E+01 Ha)

 CALCULATION OF EFFECTIVE MASSES
 NOTE : Additional infos (eff. mass eigenvalues, eigenvectors and, if degenerate, average mass) are available in stdout.

 K-point ( 0.500, 0.000, 0.500) | band =     8
 Effective mass tensor:
            -10.6546821538             -2.8197265315              3.4534456127
             -2.8197265315             -8.6608343938             -4.8839096285
              3.4534456127             -4.8839096285             -6.6669866291
 Effective mass tensor eigenvalues:
            -12.6485299045            -12.6485299025             -0.6854433697
 Angular average effective mass 1/(<1/m>)=  -1.8552521505
 Angular average effective mass for Frohlich model (<m**0.5>)**2=  -3.3093996292
 Effective masses along directions: (cart. coord. / red. coord. -> eff. mass)
    1:   1.000000  0.000000  0.000000 /   0.948683  0.316228  0.000000 ->  -3.2358749285
    2:   0.000000  1.000000  0.000000 /   0.000000  1.000000  0.000000 ->  -1.8552521512
    3:   0.000000  0.000000  1.000000 /   0.408248  0.408248  0.816497 ->  -1.3004152282
    4:   0.577350  0.577350  0.577350 /   0.585539  0.688047  0.428644 ->  -4.7126989231
    5:   0.000000  0.707107  0.707107 /   0.289489  0.762222  0.578977 -> -11.0281961469
    6:   0.707107  0.000000  0.707107 /   0.731423  0.422287  0.535439 ->  -1.0668505280
    7:   0.707107  0.707107  0.000000 /   0.616798  0.787122  0.000000 -> -10.1225542359

 K-point ( 0.000, 0.000, 0.000) | band =     9
 Effective mass tensor:
              0.3994699889             -0.0000000021              0.0000000154
             -0.0000000021              0.3994699640              0.0000000401
              0.0000000154              0.0000000401              0.3994700544
 Effective mass tensor eigenvalues:
              0.3994699474              0.3994699880              0.3994700719
 Angular average effective mass 1/(<1/m>)=   0.3994700025
 Angular average effective mass for Frohlich model (<m**0.5>)**2=   0.3994700025
 Effective masses along directions: (cart. coord. / red. coord. -> eff. mass)
    1:   1.000000  0.000000  0.000000 /   0.948683  0.316228  0.000000 ->   0.3994699889
    2:   0.000000  1.000000  0.000000 /   0.000000  1.000000  0.000000 ->   0.3994699640
    3:   0.000000  0.000000  1.000000 /   0.408248  0.408248  0.816497 ->   0.3994700544
    4:   0.577350  0.577350  0.577350 /   0.585539  0.688047  0.428644 ->   0.3994700381
    5:   0.000000  0.707107  0.707107 /   0.289489  0.762222  0.578977 ->   0.3994700493
    6:   0.707107  0.000000  0.707107 /   0.731423  0.422287  0.535439 ->   0.3994700370
    7:   0.707107  0.707107  0.000000 /   0.616798  0.787122  0.000000 ->   0.3994699744

 END OF EFFECTIVE MASSES SECTION

 ---- first-order wavefunction calculations are completed ----

 Total localisation tensor (bohr^2) in cartesian coordinates
  WARNING : still subject to testing - especially symmetries.
      direction              matrix element
   alpha     beta       real part   imaginary part
     1        1       1.8061958053    0.0000000000
     1        2       0.5108693137    0.0000000000
     1        3       1.2513691583    0.0000000000
     2        1       0.5108693137    0.0000000000
     2        2       1.4449566239    0.0000000000
     2        3       0.8848516073    0.0000000000
     3        1       1.2513691583    0.0000000000
     3        2       0.8848516073    0.0000000000
     3        3       3.2511524417    0.0000000000

 respfn : d/dk was computed, but no 2DTE, so no DDB output.

== END DATASET(S) ==============================================================

 -outvars: echo values of variables after computation  --------
            acell      1.0000000000E+00  1.0000000000E+00  1.0000000000E+00 Bohr
              amu      1.32905430E+02  3.54527000E+01
             ecut      2.80000000E+01 Hartree
           etotal     -1.3831468210E+01
            fcart      0.0000000000E+00  0.0000000000E+00  0.0000000000E+00
                       0.0000000000E+00  0.0000000000E+00  0.0000000000E+00
-          fftalg         512
           irdden           1
           irdwfk           1
           istwfk        1    1
              ixc     -116133
              kpt      5.00000000E-01  6.16297582E-33  5.00000000E-01
                       0.00000000E+00  0.00000000E+00  0.00000000E+00
           kptopt           0
P           mkmem           2
P          mkqmem           2
P          mk1mem           2
            natom           2
            nband          17
           nbdbuf           4
            ngfft          45      45      45
             nkpt           2
            nstep         100
             nsym          48
           ntypat           2
              occ      2.000000  2.000000  2.000000  2.000000  2.000000  2.000000
                       2.000000  2.000000  0.000000  0.000000  0.000000  0.000000
                       0.000000  0.000000  0.000000  0.000000  0.000000
        optdriver           1
            prtwf          -1
            rfdir           1       1       1
           rfelfd           2
            rprim      7.9779071487E+00  0.0000000000E+00  4.6060468398E+00
                       2.6593023829E+00  7.5216429927E+00  4.6060468398E+00
                       0.0000000000E+00  0.0000000000E+00  9.2120936797E+00
          spgroup         225
           strten      0.0000000000E+00  0.0000000000E+00  0.0000000000E+00
                       0.0000000000E+00  0.0000000000E+00  0.0000000000E+00
           symrel      1  0  0   0  1  0   0  0  1      -1  0  0   0 -1  0   0  0 -1
                       0 -1  1   0 -1  0   1 -1  0       0  1 -1   0  1  0  -1  1  0
                      -1  0  0  -1  0  1  -1  1  0       1  0  0   1  0 -1   1 -1  0
                       0  1 -1   1  0 -1   0  0 -1       0 -1  1  -1  0  1   0  0  1
                      -1  0  0  -1  1  0  -1  0  1       1  0  0   1 -1  0   1  0 -1
                       0 -1  1   1 -1  0   0 -1  0       0  1 -1  -1  1  0   0  1  0
                       1  0  0   0  0  1   0  1  0      -1  0  0   0  0 -1   0 -1  0
                       0  1 -1   0  0 -1   1  0 -1       0 -1  1   0  0  1  -1  0  1
                      -1  0  1  -1  1  0  -1  0  0       1  0 -1   1 -1  0   1  0  0
                       0 -1  0   1 -1  0   0 -1  1       0  1  0  -1  1  0   0  1 -1
                       1  0 -1   0  0 -1   0  1 -1      -1  0  1   0  0  1   0 -1  1
                       0  1  0   0  0  1   1  0  0       0 -1  0   0  0 -1  -1  0  0
                       1  0 -1   0  1 -1   0  0 -1      -1  0  1   0 -1  1   0  0  1
                       0 -1  0   0 -1  1   1 -1  0       0  1  0   0  1 -1  -1  1  0
                      -1  0  1  -1  0  0  -1  1  0       1  0 -1   1  0  0   1 -1  0
                       0  1  0   1  0  0   0  0  1       0 -1  0  -1  0  0   0  0 -1
                       0  0 -1   0  1 -1   1  0 -1       0  0  1   0 -1  1  -1  0  1
                       1 -1  0   0 -1  1   0 -1  0      -1  1  0   0  1 -1   0  1  0
                       0  0  1   1  0  0   0  1  0       0  0 -1  -1  0  0   0 -1  0
                      -1  1  0  -1  0  0  -1  0  1       1 -1  0   1  0  0   1  0 -1
                       0  0  1   0  1  0   1  0  0       0  0 -1   0 -1  0  -1  0  0
                       1 -1  0   0 -1  0   0 -1  1      -1  1  0   0  1  0   0  1 -1
                       0  0 -1   1  0 -1   0  1 -1       0  0  1  -1  0  1   0 -1  1
                      -1  1  0  -1  0  1  -1  0  0       1 -1  0   1  0 -1   1  0  0
           tolwfr      1.00000000E-20
            typat      1  2
           useylm           1
              wtk        0.50000    0.50000
           xangst      0.0000000000E+00  0.0000000000E+00  0.0000000000E+00
                       2.8144844236E+00  1.9901410214E+00  4.8748300187E+00
            xcart      0.0000000000E+00  0.0000000000E+00  0.0000000000E+00
                       5.3186047658E+00  3.7608214964E+00  9.2120936797E+00
             xred      0.0000000000E+00  0.0000000000E+00  0.0000000000E+00
                       5.0000000000E-01  5.0000000000E-01  5.0000000000E-01
            znucl       55.00000   17.00000

- Timing analysis has been suppressed with timopt=0

 Suggested references for the acknowledgment of ABINIT usage.

 Calculation completed.
.Delivered  14 WARNINGs and   9 COMMENTs to log file.