.Version 9.7.2 of ABINIT

 ABINIT is a project of the Universite Catholique de Louvain,
 Corning Inc. and other collaborators, see ~abinit/doc/developers/contributors.txt .
 acknowledgments of the ABINIT effort.

.Starting date : Wed  1 Dec 2021.
- ( at 21h13 )

- input  file    -> /scratch/users/j/a/jabreu/flow_simple_remain_atoms/flow/w153/t1/run.abi
- output file    -> /scratch/users/j/a/jabreu/flow_simple_remain_atoms/flow/w153/t1/run.abo
- root for input  files -> /scratch/users/j/a/jabreu/flow_simple_remain_atoms/flow/w153/t1/indata/in
- root for output files -> /scratch/users/j/a/jabreu/flow_simple_remain_atoms/flow/w153/t1/outdata/out

 Symmetries : space group R3 m (#160); Bravais hR (rhombohedral)
     intxc =       0      iscf =       7    lmnmax =      18     lnmax =       6
     mgfft =      48  mpssoang =       3    mqgrid =    3001     natom =       5
  nloc_mem =       1    nspden =       1   nspinor =       1    nsppol =       1
      nsym =       6    n1xccc =    2501    ntypat =       3    occopt =       1
   xclevel =       2
-    mband =          29        mffmem =           1         mkmem =           2
-   mkqmem =           2        mk1mem =           2           mpw =        6031
      nfft =      110592          nkpt =           2
  Rough estimation (10% accuracy) of disk space for files :

------------- Echo of variables that govern the present computation ------------
-
- outvars: echo of selected default values
-   iomode0 =  0 , fftalg0 =512 , wfoptalg0 =  0
-
- outvars: echo of global parameters not present in the input file
-  max_nthreads =    0
-
 -outvars: echo values of preprocessed input variables --------
            acell      1.0000000000E+00  1.0000000000E+00  1.0000000000E+00 Bohr
              amu      1.37327000E+02  4.78800000E+01  1.59994000E+01
             ecut      4.40000000E+01 Hartree
-          fftalg         512
           irdden           1
           irdwfk           1
           istwfk        1    1
              ixc     -116133
              kpt      5.00000000E-01  5.00000000E-01  5.00000000E-01
                       0.00000000E+00  0.00000000E+00  0.00000000E+00
           kptopt           0
P           mkmem           2
P          mkqmem           2
P          mk1mem           2
            natom           5
            nband          29
           nbdbuf           4
            ngfft          48      48      48
             nkpt           2
            nstep        2000
             nsym           6
           ntypat           3
              occ      2.000000  2.000000  2.000000  2.000000  2.000000  2.000000
                       2.000000  2.000000  2.000000  2.000000  2.000000  2.000000
                       2.000000  2.000000  2.000000  2.000000  2.000000  2.000000
                       2.000000  2.000000  0.000000  0.000000  0.000000  0.000000
                       0.000000  0.000000  0.000000  0.000000  0.000000
        optdriver           1
            prtwf          -1
            rfdir           1       1       1
           rfelfd           2
            rprim      7.5458759303E+00  0.0000000000E+00  1.8569808200E-02
                       1.8524165600E-02  7.5458531930E+00  1.8569808200E-02
                       0.0000000000E+00  0.0000000000E+00  7.5458987797E+00
          spgroup         160
           symrel      1  0  0   0  1  0   0  0  1       0  1  0   1  0  0   0  0  1
                       0  0  1   1  0  0   0  1  0       1  0  0   0  0  1   0  1  0
                       0  1  0   0  0  1   1  0  0       0  0  1   0  1  0   1  0  0
           tolwfr      1.00000000E-20
            typat      1  2  3  3  3
           useylm           1
              wtk        0.50000    0.50000
           xangst      4.0014710834E+00  3.9916600085E+00  4.0113305063E+00
                       1.9536353232E+00  1.9488452693E+00  1.9584489821E+00
                       2.0423221497E+00  7.3357121223E-02  2.0473543285E+00
                       7.8370541285E-02  2.0421359134E+00  2.0473543285E+00
                       2.0471552658E+00  2.0421359134E+00  8.3408666970E-02
            xcart      7.5616844763E+00  7.5431442317E+00  7.5803160853E+00
                       3.6918357244E+00  3.6827838343E+00  3.7009322214E+00
                       3.8594295381E+00  1.3862486901E-01  3.8689389778E+00
                       1.4809885991E-01  3.8590776024E+00  3.8689389778E+00
                       3.8685628038E+00  3.8590776024E+00  1.5761953768E-01
             xred      9.9964100000E-01  9.9964100000E-01  9.9964100000E-01
                       4.8805400000E-01  4.8805400000E-01  4.8805400000E-01
                       5.1141700000E-01  1.8371000000E-02  5.1141700000E-01
                       1.8371000000E-02  5.1141700000E-01  5.1141700000E-01
                       5.1141700000E-01  5.1141700000E-01  1.8371000000E-02
            znucl       56.00000   22.00000    8.00000

 chkinp: Checking input parameters for consistency.

== DATASET  1 ==================================================================
-   mpi_nproc: 1, omp_nthreads: -1 (-1 if OMP is not activated)

--- !DatasetInfo
iteration_state: {dtset: 1, }
dimensions: {natom: 5, nkpt: 2, mband: 29, nsppol: 1, nspinor: 1, nspden: 1, mpw: 6031, }
cutoff_energies: {ecut:  44.0, pawecutdg:  -1.0, }
electrons: {nelect:   4.00000000E+01, charge:   0.00000000E+00, occopt:   1.00000000E+00, tsmear:   1.00000000E-02, }
meta: {optdriver: 1, rfelfd: 2, }
...

 Real(R)+Recip(G) space primitive vectors, cartesian coordinates (Bohr,Bohr^-1):
 R(1)=  7.5458759  0.0000000  0.0185698  G(1)=  0.1325227 -0.0003253  0.0000000
 R(2)=  0.0185242  7.5458532  0.0185698  G(2)=  0.0000000  0.1325231  0.0000000
 R(3)=  0.0000000  0.0000000  7.5458988  G(3)= -0.0003261 -0.0003253  0.1325223
 Unit cell volume ucvol=  4.2966402E+02 bohr^3
 Angles (23,13,12)=  8.98589999E+01  8.98589999E+01  8.98589999E+01 degrees

 getcut: wavevector=  0.0000  0.0000  0.0000  ngfft=  48  48  48
         ecut(hartree)=     44.000   => boxcut(ratio)=   2.13030

--- Pseudopotential description ------------------------------------------------
- pspini: atom type   1  psp file is /scratch/users/j/a/jabreu/pseudos/PBEsol/Ba.psp8
- pspatm: opening atomic psp file    /scratch/users/j/a/jabreu/pseudos/PBEsol/Ba.psp8
- Ba    ONCVPSP-3.3.0  r_core=   2.15444   1.91218   2.15444
- 56.00000  10.00000    180112                znucl, zion, pspdat
    8 -116133    2    4       600   0.00000   pspcod,pspxc,lmax,lloc,mmax,r2well
    5.99000000000000    5.00000000000000    0.00000000000000   rchrg,fchrg,qchrg
     nproj     2     2     2
     extension_switch     1
  pspatm : epsatm=   26.37418029
         --- l  ekb(1:nproj) -->
             0    6.652372    0.677024
             1    5.027722    0.408462
             2    2.543237    0.416854
 pspatm: atomic psp has been read  and splines computed

- pspini: atom type   2  psp file is /scratch/users/j/a/jabreu/pseudos/PBEsol/Ti.psp8
- pspatm: opening atomic psp file    /scratch/users/j/a/jabreu/pseudos/PBEsol/Ti.psp8
- Ti    ONCVPSP-3.3.0  r_core=   1.35825   1.31050   1.66360
- 22.00000  12.00000    180112                znucl, zion, pspdat
    8 -116133    2    4       600   0.00000   pspcod,pspxc,lmax,lloc,mmax,r2well
    5.99000000000000    2.50000000000000    0.00000000000000   rchrg,fchrg,qchrg
     nproj     2     2     2
     extension_switch     1
  pspatm : epsatm=   14.76919902
         --- l  ekb(1:nproj) -->
             0   11.321950    1.254474
             1    1.946894   -0.084268
             2   -5.237105   -1.488377
 pspatm: atomic psp has been read  and splines computed

- pspini: atom type   3  psp file is /scratch/users/j/a/jabreu/pseudos/PBEsol/O.psp8
- pspatm: opening atomic psp file    /scratch/users/j/a/jabreu/pseudos/PBEsol/O.psp8
- O     ONCVPSP-3.3.0  r_core=   1.35509   1.45563   1.26150
-  8.00000   6.00000    180112                znucl, zion, pspdat
    8 -116133    2    4       600   0.00000   pspcod,pspxc,lmax,lloc,mmax,r2well
    5.99000000000000    4.00000000000000    0.00000000000000   rchrg,fchrg,qchrg
     nproj     2     2     1
     extension_switch     1
  pspatm : epsatm=    6.22910522
         --- l  ekb(1:nproj) -->
             0    6.050032    0.820363
             1   -4.739617   -1.153841
             2   -1.335834
 pspatm: atomic psp has been read  and splines computed

   2.39322780E+03                                ecore*ucvol(ha*bohr**3)

 ==>  initialize data related to q vector <==

 The list of irreducible perturbations for this q vector is:
    1)    idir= 1    ipert=   6
    2)    idir= 2    ipert=   6
    3)    idir= 3    ipert=   6

 Perturbation wavevector (in red.coord.)   0.000000  0.000000  0.000000
 Perturbation : derivative vs k along direction   1

 dfpt_looppert : COMMENT -
  In a d/dk calculation, iscf is set to -3 automatically.
 The set of symmetries contains only one element for this perturbation.
 symkpt : not enough symmetry to change the number of k points.

 Initialisation of the first-order wave-functions :
  ireadwf=   0

--- !BeginCycle
iteration_state: {dtset: 1, }
solver: {iscf: 7, nstep: 2000, nline: 4, wfoptalg: 0, }
tolerances: {tolwfr: 1.00E-20, }
...

     iter   2DEtotal(Ha)        deltaE(Ha) residm    vres2
-ETOT  1  -34.351994145404     -3.435E+01 3.025E-02 0.000E+00
 ETOT  2  -34.372553938763     -2.056E-02 7.972E-04 0.000E+00
 ETOT  3  -34.372647045908     -9.311E-05 7.136E-05 0.000E+00
 ETOT  4  -34.372647675415     -6.295E-07 2.962E-06 0.000E+00
 ETOT  5  -34.372647681289     -5.875E-09 7.663E-07 0.000E+00
 ETOT  6  -34.372647681356     -6.687E-11 3.576E-08 0.000E+00
 ETOT  7  -34.372647681357     -9.095E-13 1.010E-08 0.000E+00
 ETOT  8  -34.372647681357     -1.421E-14 5.245E-10 0.000E+00
 ETOT  9  -34.372647681357     -2.132E-14 1.542E-10 0.000E+00
 ETOT 10  -34.372647681357      1.421E-14 8.628E-12 0.000E+00
 ETOT 11  -34.372647681357     -7.105E-15 2.559E-12 0.000E+00
 ETOT 12  -34.372647681357      0.000E+00 1.479E-13 0.000E+00
 ETOT 13  -34.372647681357      0.000E+00 4.465E-14 0.000E+00
 ETOT 14  -34.372647681357      0.000E+00 2.593E-15 0.000E+00
 ETOT 15  -34.372647681357     -7.105E-15 8.107E-16 0.000E+00
 ETOT 16  -34.372647681357      0.000E+00 4.648E-17 0.000E+00
 ETOT 17  -34.372647681357      0.000E+00 1.526E-17 0.000E+00
 ETOT 18  -34.372647681357      0.000E+00 8.663E-19 0.000E+00
 ETOT 19  -34.372647681357      2.842E-14 2.969E-19 0.000E+00
 ETOT 20  -34.372647681357     -2.842E-14 1.681E-20 0.000E+00
 ETOT 21  -34.372647681357      7.105E-15 9.490E-21 0.000E+00

 At SCF step   21   max residual=  9.49E-21 < tolwfr=  1.00E-20 =>converged.

 ----iterations are completed or convergence reached----

 dfpt_looppert: DFPT cycle converged with prtwf=-1. Will skip output of the 1st-order WFK file.
 dfpt_looppert : ek2=    5.5466788413E+01
          f-sum rule ratio=    1.2489576644E+00
 prteigrs : about to open file /scratch/users/j/a/jabreu/flow_simple_remain_atoms/flow/w153/t1/tmpdata/tmp_1WF1_EIG
 Expectation of eigenvalue derivatives (hartree) for nkpt=   2  k points:
  (in case of degenerate eigenvalues, averaged derivative)
 kpt#   1, nband= 29, wtk=  0.50000, kpt=  0.5000  0.5000  0.5000 (reduced coord)
   0.00000    0.00000    0.00000    0.00000   -0.00000    0.00000   -0.00000   -0.00000
  -0.00000   -0.00000   -0.00000   -0.00000    0.00000    0.00000   -0.00000   -0.00000
   0.00000    0.00000    0.00000    0.00000    0.00000    0.00000    0.00000   -0.00000
  -0.00000   -0.00000    0.00000    0.00000    0.00000
 prteigrs : prtvol=0 or 1, do not print more k-points.

 Eight components of 2nd-order total energy (hartree) are
 1,2,3: 0th-order hamiltonian combined with 1st-order wavefunctions
     kin0=   3.46397682E+01 eigvalue=  -1.98233011E+00  local=  -1.44261997E+01
 4,5,6: 1st-order hamiltonian combined with 1st and 0th-order wfs
     kin1=  -6.92756705E+01  Hartree=   0.00000000E+00     xc=   0.00000000E+00
 7,8,9: eventually, occupation + non-local contributions
    edocc=   1.58016403E+01     enl0=   3.39768974E-01   enl1=   5.30375146E-01
 1-9 gives the relaxation energy (to be shifted if some occ is /=2.0)
   erelax=  -3.43726477E+01
  No Ewald or frozen-wf contrib.: the relaxation energy is the total one
 2DEtotal=   -0.3437264768E+02 Ha. Also 2DEtotal=   -0.935327310342E+03 eV
    (  non-var. 2DEtotal :   -3.4372647681E+01 Ha)

 Perturbation wavevector (in red.coord.)   0.000000  0.000000  0.000000
 Perturbation : derivative vs k along direction   2
 The set of symmetries contains only one element for this perturbation.
 symkpt : not enough symmetry to change the number of k points.

[...]

 Perturbation wavevector (in red.coord.)   0.000000  0.000000  0.000000
 Perturbation : derivative vs k along direction   3
 The set of symmetries contains only one element for this perturbation.
 symkpt : not enough symmetry to change the number of k points.

 Initialisation of the first-order wave-functions :
  ireadwf=   0

--- !BeginCycle
iteration_state: {dtset: 1, }
solver: {iscf: 7, nstep: 2000, nline: 4, wfoptalg: 0, }
tolerances: {tolwfr: 1.00E-20, }
...

     iter   2DEtotal(Ha)        deltaE(Ha) residm    vres2
-ETOT  1  -34.348284962903     -3.435E+01 3.550E-02 0.000E+00
 ETOT  2  -34.372297700786     -2.401E-02 2.142E-03 0.000E+00
 ETOT  3  -34.372414706846     -1.170E-04 8.048E-05 0.000E+00
 ETOT  4  -34.372415481268     -7.744E-07 4.319E-06 0.000E+00
 ETOT  5  -34.372415487859     -6.590E-09 1.029E-06 0.000E+00
 ETOT  6  -34.372415487923     -6.460E-11 6.205E-08 0.000E+00
 ETOT  7  -34.372415487924     -7.461E-13 1.596E-08 0.000E+00
 ETOT  8  -34.372415487924     -2.842E-14 1.040E-09 0.000E+00
 ETOT  9  -34.372415487924      7.105E-15 2.757E-10 0.000E+00
 ETOT 10  -34.372415487924      0.000E+00 1.913E-11 0.000E+00
 ETOT 11  -34.372415487924      0.000E+00 5.065E-12 0.000E+00
 ETOT 12  -34.372415487924      7.105E-15 3.661E-13 0.000E+00
 ETOT 13  -34.372415487924      7.105E-15 9.739E-14 0.000E+00
 ETOT 14  -34.372415487924     -7.105E-15 7.227E-15 0.000E+00
 ETOT 15  -34.372415487924      7.105E-15 1.940E-15 0.000E+00
 ETOT 16  -34.372415487924     -7.105E-15 1.454E-16 0.000E+00
 ETOT 17  -34.372415487924      0.000E+00 3.957E-17 0.000E+00
 ETOT 18  -34.372415487924      0.000E+00 2.969E-18 0.000E+00
 ETOT 19  -34.372415487924      0.000E+00 8.261E-19 0.000E+00
 ETOT 20  -34.372415487924      0.000E+00 6.197E-20 0.000E+00
 ETOT 21  -34.372415487924      0.000E+00 1.766E-20 0.000E+00
 ETOT 22  -34.372415487924      0.000E+00 9.672E-21 0.000E+00

 At SCF step   22   max residual=  9.67E-21 < tolwfr=  1.00E-20 =>converged.

 ----iterations are completed or convergence reached----

 dfpt_looppert: DFPT cycle converged with prtwf=-1. Will skip output of the 1st-order WFK file.
 dfpt_looppert : ek2=    5.5466788413E+01
          f-sum rule ratio=    1.2489496394E+00
 prteigrs : about to open file /scratch/users/j/a/jabreu/flow_simple_remain_atoms/flow/w153/t1/tmpdata/tmp_1WF1_EIG
 Expectation of eigenvalue derivatives (hartree) for nkpt=   2  k points:
  (in case of degenerate eigenvalues, averaged derivative)
 kpt#   1, nband= 29, wtk=  0.50000, kpt=  0.5000  0.5000  0.5000 (reduced coord)
  -0.00000   -0.00000   -0.00000   -0.00000    0.00000   -0.00000   -0.00000   -0.00000
   0.00000    0.00000    0.00000    0.00000    0.00000    0.00000    0.00000    0.00000
   0.00000   -0.00000   -0.00000   -0.00000    0.00000    0.00000    0.00000   -0.00000
  -0.00000   -0.00000    0.00000    0.00000    0.00000
 prteigrs : prtvol=0 or 1, do not print more k-points.

 Eight components of 2nd-order total energy (hartree) are
 1,2,3: 0th-order hamiltonian combined with 1st-order wavefunctions
     kin0=   3.73707496E+01 eigvalue=  -2.12933327E+00  local=  -1.61294457E+01
 4,5,6: 1st-order hamiltonian combined with 1st and 0th-order wfs
     kin1=  -6.92752254E+01  Hartree=   0.00000000E+00     xc=   0.00000000E+00
 7,8,9: eventually, occupation + non-local contributions
    edocc=   1.47106805E+01     enl0=   5.49764343E-01   enl1=   5.30394411E-01
 1-9 gives the relaxation energy (to be shifted if some occ is /=2.0)
   erelax=  -3.43724155E+01
  No Ewald or frozen-wf contrib.: the relaxation energy is the total one
 2DEtotal=   -0.3437241549E+02 Ha. Also 2DEtotal=   -0.935320992037E+03 eV
    (  non-var. 2DEtotal :   -3.4372415488E+01 Ha)

 CALCULATION OF EFFECTIVE MASSES
 NOTE : Additional infos (eff. mass eigenvalues, eigenvectors and, if degenerate, average mass) are available in stdout.

--- !WARNING
src_file: m_efmas.F90
src_line: 0
message: |
    Effective masses calculations require given k-point(s) to be band extrema for given bands, but max abs gradient of band(s) was found to be greater than 1e-5. Abinit will continue anyway.
...

[...]

--- !WARNING
src_file: m_efmas.F90
src_line: 0
message: |
    Effective masses calculations require given k-point(s) to be band extrema for given bands, but max abs gradient of band(s) was found to be greater than 1e-5. Abinit will continue anyway.
...

 K-point ( 0.500, 0.500, 0.500) | band =    20
 Effective mass tensor:
             -1.5493591885             -0.3727245567             -0.3745586580
             -0.3727245567             -1.5475349926             -0.3736367774
             -0.3745586580             -0.3736367774             -1.5512114863
 Effective mass tensor eigenvalues:
             -2.2966530657             -1.1757324299             -1.1757201718
 Angular average effective mass 1/(<1/m>)=  -1.4041706880
 Angular average effective mass for Frohlich model (<m**0.5>)**2=  -1.4411449431
 Effective masses along directions: (cart. coord. / red. coord. -> eff. mass)
    1:   1.000000  0.000000  0.000000 /   0.999997  0.002455  0.000000 ->  -1.4041612308
    2:   0.000000  1.000000  0.000000 /   0.000000  1.000000  0.000000 ->  -1.4028334627
    3:   0.000000  0.000000  1.000000 /   0.002461  0.002461  0.999994 ->  -1.4055199405
    4:   0.577350  0.577350  0.577350 /   0.577350  0.578762  0.575935 ->  -2.2966442459
    5:   0.000000  0.707107  0.707107 /   0.001738  0.707972  0.706238 ->  -1.7427944339
    6:   0.707107  0.000000  0.707107 /   0.707970  0.003472  0.706234 ->  -1.7448621027
    7:   0.707107  0.707107  0.000000 /   0.706240  0.707972  0.000000 ->  -1.7407327871

 COMMENTS:
 - At k-point ( 0.000, 0.000, 0.000), bands    21 through    22
   are DEGENERATE (effective mass tensor is therefore not defined).
   See Section IIIB Eqs. (67)-(70) and Appendix E of PRB 93 205147 (2016).
 - Angular average effective mass for Frohlich model is to be averaged over degenerate bands. See later.
 - Associated theta integrals calculated with ntheta=   1000 points.

 K-point ( 0.000, 0.000, 0.000) | band =    21
 Transport equivalent effective mass tensor:
             50.9076382941            -12.2631142116            -12.3210214028
            -12.2631142116             50.9700119803            -12.2917147916
            -12.3210214028            -12.2917147916             50.8424435478
 Transport equivalent effective mass tensor eigenvalues:
             63.2021754966             63.1952761469             26.3226421787
 Angular average effective mass 1/(<1/m>)=   2.1763127785
 Angular average effective mass for Frohlich model (<m**0.5>)**2=   3.4198943206
 Effective masses along directions: (cart. coord. / red. coord. -> eff. mass)
    1:   1.000000  0.000000  0.000000 /   0.999997  0.002455  0.000000 ->   7.0603950931
    2:   0.000000  1.000000  0.000000 /   0.000000  1.000000  0.000000 ->   7.1235158426
    3:   0.000000  0.000000  1.000000 /   0.002461  0.002461  0.999994 ->   6.9980795686
    4:   0.577350  0.577350  0.577350 /   0.577350  0.578762  0.575935 ->   0.7939593140
    5:   0.000000  0.707107  0.707107 /   0.001738  0.707972  0.706238 ->   1.0353407368
    6:   0.707107  0.000000  0.707107 /   0.707970  0.003472  0.706234 ->   1.0354013337
    7:   0.707107  0.707107  0.000000 /   0.706240  0.707972  0.000000 ->   1.0352907057

 K-point ( 0.000, 0.000, 0.000) | band =    22
 Transport equivalent effective mass tensor:
              0.7665694240              0.0314482545              0.0316102058
              0.0314482545              0.7664160881              0.0315284247
              0.0316102058              0.0315284247              0.7667289362
 Transport equivalent effective mass tensor eigenvalues:
              0.8296298034              0.7350457964              0.7350388485
 Angular average effective mass 1/(<1/m>)=   0.6355048244
 Angular average effective mass for Frohlich model (<m**0.5>)**2=   0.6423842823
 Effective masses along directions: (cart. coord. / red. coord. -> eff. mass)
    1:   1.000000  0.000000  0.000000 /   0.999997  0.002455  0.000000 ->   0.5287079575
    2:   0.000000  1.000000  0.000000 /   0.000000  1.000000  0.000000 ->   0.5286918310
    3:   0.000000  0.000000  1.000000 /   0.002461  0.002461  0.999994 ->   0.5287203888
    4:   0.577350  0.577350  0.577350 /   0.577350  0.578762  0.575935 ->   0.7917781490
    5:   0.000000  0.707107  0.707107 /   0.001738  0.707972  0.706238 ->   0.7622484772
    6:   0.707107  0.000000  0.707107 /   0.707970  0.003472  0.706234 ->   0.7615244761
    7:   0.707107  0.707107  0.000000 /   0.706240  0.707972  0.000000 ->   0.7629787267

 Angular average effective mass for Frohlich model, averaged over degenerate bands.
 Value of     (<<m**0.5>>)**2 =     1.756665E+00
 Absolute Value of <<m**0.5>> =     1.325392E+00

 END OF EFFECTIVE MASSES SECTION

 ---- first-order wavefunction calculations are completed ----

 Total localisation tensor (bohr^2) in cartesian coordinates
  WARNING : still subject to testing - especially symmetries.
      direction              matrix element
   alpha     beta       real part   imaginary part
     1        1       1.2646547389    0.0000000000
     1        2       0.0031045412    0.0000000000
     1        3       0.0031198373    0.0000000000
     2        1       0.0031045412    0.0000000000
     2        2       1.2646406257    0.0000000000
     2        3       0.0031121907    0.0000000000
     3        1       0.0031198373    0.0000000000
     3        2       0.0031121907    0.0000000000
     3        3       1.2646505547    0.0000000000

 respfn : d/dk was computed, but no 2DTE, so no DDB output.

== END DATASET(S) ==============================================================

 -outvars: echo values of variables after computation  --------
            acell      1.0000000000E+00  1.0000000000E+00  1.0000000000E+00 Bohr
              amu      1.37327000E+02  4.78800000E+01  1.59994000E+01
             ecut      4.40000000E+01 Hartree
           etotal     -3.4372415488E+01
            fcart      0.0000000000E+00  0.0000000000E+00  0.0000000000E+00
                       0.0000000000E+00  0.0000000000E+00  0.0000000000E+00
                       0.0000000000E+00  0.0000000000E+00  0.0000000000E+00
                       0.0000000000E+00  0.0000000000E+00  0.0000000000E+00
                       0.0000000000E+00  0.0000000000E+00  0.0000000000E+00
-          fftalg         512
           irdden           1
           irdwfk           1
           istwfk        1    1
              ixc     -116133
              kpt      5.00000000E-01  5.00000000E-01  5.00000000E-01
                       0.00000000E+00  0.00000000E+00  0.00000000E+00
           kptopt           0
P           mkmem           2
P          mkqmem           2
P          mk1mem           2
            natom           5
            nband          29
           nbdbuf           4
            ngfft          48      48      48
             nkpt           2
            nstep        2000
             nsym           6
           ntypat           3
              occ      2.000000  2.000000  2.000000  2.000000  2.000000  2.000000
                       2.000000  2.000000  2.000000  2.000000  2.000000  2.000000
                       2.000000  2.000000  2.000000  2.000000  2.000000  2.000000
                       2.000000  2.000000  0.000000  0.000000  0.000000  0.000000
                       0.000000  0.000000  0.000000  0.000000  0.000000
        optdriver           1
            prtwf          -1
            rfdir           1       1       1
           rfelfd           2
            rprim      7.5458759303E+00  0.0000000000E+00  1.8569808200E-02
                       1.8524165600E-02  7.5458531930E+00  1.8569808200E-02
                       0.0000000000E+00  0.0000000000E+00  7.5458987797E+00
          spgroup         160
           strten      0.0000000000E+00  0.0000000000E+00  0.0000000000E+00
                       0.0000000000E+00  0.0000000000E+00  0.0000000000E+00
           symrel      1  0  0   0  1  0   0  0  1       0  1  0   1  0  0   0  0  1
                       0  0  1   1  0  0   0  1  0       1  0  0   0  0  1   0  1  0
                       0  1  0   0  0  1   1  0  0       0  0  1   0  1  0   1  0  0
           tolwfr      1.00000000E-20
            typat      1  2  3  3  3
           useylm           1
              wtk        0.50000    0.50000
           xangst      4.0014710834E+00  3.9916600085E+00  4.0113305063E+00
                       1.9536353232E+00  1.9488452693E+00  1.9584489821E+00
                       2.0423221497E+00  7.3357121223E-02  2.0473543285E+00
                       7.8370541285E-02  2.0421359134E+00  2.0473543285E+00
                       2.0471552658E+00  2.0421359134E+00  8.3408666970E-02
            xcart      7.5616844763E+00  7.5431442317E+00  7.5803160853E+00
                       3.6918357244E+00  3.6827838343E+00  3.7009322214E+00
                       3.8594295381E+00  1.3862486901E-01  3.8689389778E+00
                       1.4809885991E-01  3.8590776024E+00  3.8689389778E+00
                       3.8685628038E+00  3.8590776024E+00  1.5761953768E-01
             xred      9.9964100000E-01  9.9964100000E-01  9.9964100000E-01
                       4.8805400000E-01  4.8805400000E-01  4.8805400000E-01
                       5.1141700000E-01  1.8371000000E-02  5.1141700000E-01
                       1.8371000000E-02  5.1141700000E-01  5.1141700000E-01
                       5.1141700000E-01  5.1141700000E-01  1.8371000000E-02
            znucl       56.00000   22.00000    8.00000

- Timing analysis has been suppressed with timopt=0

 Suggested references for the acknowledgment of ABINIT usage.

 Calculation completed.
.Delivered   8 WARNINGs and   5 COMMENTs to log file.