.Version 9.5.2 of ABINIT

 ABINIT is a project of the Universite Catholique de Louvain,
 Corning Inc. and other collaborators, see ~abinit/doc/developers/contributors.txt .
 acknowledgments of the ABINIT effort.

.Starting date : Mon 24 May 2021.
- ( at 23h31 )

- input  file    -> /scratch/users/j/a/jabreu/flow_simple_10atoms/flow/w492/t1/run.abi
- output file    -> /scratch/users/j/a/jabreu/flow_simple_10atoms/flow/w492/t1/run.abo
- root for input  files -> /scratch/users/j/a/jabreu/flow_simple_10atoms/flow/w492/t1/indata/in
- root for output files -> /scratch/users/j/a/jabreu/flow_simple_10atoms/flow/w492/t1/outdata/out

 Symmetries : space group Cm c m (# 63); Bravais oC (1-face-center ortho.)
     intxc =       0      iscf =       7    lmnmax =      32     lnmax =       8
     mgfft =      96  mpssoang =       4    mqgrid =    4763     natom =      10
  nloc_mem =       1    nspden =       1   nspinor =       1    nsppol =       1
      nsym =       8    n1xccc =    2501    ntypat =       4    occopt =       1
   xclevel =       2
-    mband =          41        mffmem =           1         mkmem =           1
-   mkqmem =           1        mk1mem =           1           mpw =       15618
      nfft =      345600          nkpt =           1
  Rough estimation (10% accuracy) of disk space for files :

------------- Echo of variables that govern the present computation ------------
-
- outvars: echo of selected default values
-   iomode0 =  0 , fftalg0 =512 , wfoptalg0 =  0
-
- outvars: echo of global parameters not present in the input file
-  max_nthreads =    0
-
 -outvars: echo values of preprocessed input variables --------
            acell      1.0000000000E+00  1.0000000000E+00  1.0000000000E+00 Bohr
              amu      1.38905500E+02  1.20110000E+01  1.40067400E+01
                       1.89984032E+01
             ecut      5.20000000E+01 Hartree
-          fftalg         512
           irdden           1
           irdwfk           1
              ixc     -116133
              kpt     -5.00000000E-01  5.00000000E-01  0.00000000E+00
           kptopt           0
P           mkmem           1
P          mkqmem           1
P          mk1mem           1
            natom          10
            nband          41
           nbdbuf           4
            ngfft          60      60      96
             nkpt           1
            nstep        2000
             nsym           8
           ntypat           4
              occ      2.000000  2.000000  2.000000  2.000000  2.000000  2.000000
                       2.000000  2.000000  2.000000  2.000000  2.000000  2.000000
                       2.000000  2.000000  2.000000  2.000000  2.000000  2.000000
                       2.000000  2.000000  2.000000  2.000000  2.000000  2.000000
                       2.000000  2.000000  2.000000  2.000000  2.000000  2.000000
                       2.000000  2.000000  0.000000  0.000000  0.000000  0.000000
                       0.000000  0.000000  0.000000  0.000000  0.000000
        optdriver           1
            prtwf          -1
            rfdir           1       1       1
           rfelfd           2
            rprim      8.9814351829E+00  0.0000000000E+00  0.0000000000E+00
                      -6.0710490358E+00  6.6188021235E+00  0.0000000000E+00
                       0.0000000000E+00  0.0000000000E+00  1.4670701459E+01
          spgroup          63
           symrel      1  0  0   0  1  0   0  0  1      -1  0  0   0 -1  0   0  0 -1
                       0  1  0   1  0  0   0  0 -1       0 -1  0  -1  0  0   0  0  1
                      -1  0  0   0 -1  0   0  0  1       1  0  0   0  1  0   0  0 -1
                       0 -1  0  -1  0  0   0  0 -1       0  1  0   1  0  0   0  0  1
            tnons      0.0000000  0.0000000  0.0000000     0.0000000  0.0000000 -0.0000000
                      -0.0000000 -0.0000000 -0.0000000     0.0000000  0.0000000  0.0000000
                       0.0000000  0.0000000  0.5000000     0.0000000  0.0000000  0.5000000
                       0.0000000  0.0000000  0.5000000    -0.0000000 -0.0000000  0.5000000
           tolwfr      1.00000000E-20
            typat      1  1  2  2  3  3  3  3  4  4
           useylm           1
           xangst     -1.4247718710E+00  2.7163577752E+00  5.8225506346E+00
                       2.9648818882E+00  7.8616145672E-01  1.9408502115E+00
                       7.7005500862E-01  1.7512596160E+00  3.8817004230E+00
                       7.7005500862E-01  1.7512596160E+00  0.0000000000E+00
                       1.8299671965E+00  1.2852003969E+00  7.3514747972E+00
                      -2.8985717930E-01  2.2173188350E+00  3.4697743741E+00
                       1.8299671965E+00  1.2852003969E+00  4.2936264719E+00
                      -2.8985717930E-01  2.2173188350E+00  4.1192604889E-01
                      -2.5603158318E+00  3.2156734144E+00  1.9408502115E+00
                       4.1004258490E+00  2.8684581754E-01  5.8225506346E+00
            xcart     -2.6924286380E+00  5.1331722741E+00  1.1003026094E+01
                       5.6028147851E+00  1.4856298494E+00  3.6676753647E+00
                       1.4551930736E+00  3.3094010618E+00  7.3353507294E+00
                       1.4551930736E+00  3.3094010618E+00  0.0000000000E+00
                       3.4581368336E+00  2.4286767760E+00  1.3892274039E+01
                      -5.4775068653E-01  4.1901253475E+00  6.5569233100E+00
                       3.4581368336E+00  2.4286767760E+00  8.1137781489E+00
                      -5.4775068653E-01  4.1901253475E+00  7.7842741941E-01
                      -4.8382957357E+00  6.0767420860E+00  3.6676753647E+00
                       7.7486818828E+00  5.4206003751E-01  1.1003026094E+01
             xred      2.2445600000E-01  7.7554400000E-01  7.5000000000E-01
                       7.7554400000E-01  2.2445600000E-01  2.5000000000E-01
                       5.0000000000E-01  5.0000000000E-01  5.0000000000E-01
                       5.0000000000E-01  5.0000000000E-01  0.0000000000E+00
                       6.3306400000E-01  3.6693600000E-01  9.4694000000E-01
                       3.6693600000E-01  6.3306400000E-01  4.4694000000E-01
                       6.3306400000E-01  3.6693600000E-01  5.5306000000E-01
                       3.6693600000E-01  6.3306400000E-01  5.3060000000E-02
                       8.1897000000E-02  9.1810300000E-01  2.5000000000E-01
                       9.1810300000E-01  8.1897000000E-02  7.5000000000E-01
            znucl       57.00000    6.00000    7.00000    9.00000

 chkinp: Checking input parameters for consistency.

== DATASET  1 ==================================================================
-   mpi_nproc: 1, omp_nthreads: -1 (-1 if OMP is not activated)

--- !DatasetInfo
iteration_state: {dtset: 1, }
dimensions: {natom: 10, nkpt: 1, mband: 41, nsppol: 1, nspinor: 1, nspden: 1, mpw: 15618, }
cutoff_energies: {ecut:  52.0, pawecutdg:  -1.0, }
electrons: {nelect:   6.40000000E+01, charge:   0.00000000E+00, occopt:   1.00000000E+00, tsmear:   1.00000000E-02, }
meta: {optdriver: 1, rfelfd: 2, }
...

 Real(R)+Recip(G) space primitive vectors, cartesian coordinates (Bohr,Bohr^-1):
 R(1)=  8.9814352  0.0000000  0.0000000  G(1)=  0.1113408  0.1021265  0.0000000
 R(2)= -6.0710490  6.6188021  0.0000000  G(2)=  0.0000000  0.1510847  0.0000000
 R(3)=  0.0000000  0.0000000 14.6707015  G(3)=  0.0000000  0.0000000  0.0681631
 Unit cell volume ucvol=  8.7211954E+02 bohr^3
 Angles (23,13,12)=  9.00000000E+01  9.00000000E+01  1.32528382E+02 degrees

 getcut: wavevector=  0.0000  0.0000  0.0000  ngfft=  60  60  96
         ecut(hartree)=     52.000   => boxcut(ratio)=   2.01583

--- Pseudopotential description ------------------------------------------------
- pspini: atom type   1  psp file is /scratch/users/j/a/jabreu/pseudos/PBEsol/La.psp8
- pspatm: opening atomic psp file    /scratch/users/j/a/jabreu/pseudos/PBEsol/La.psp8
- La    ONCVPSP-3.3.0  r_core=   2.11664   1.60878   1.85636   1.66739
- 57.00000  11.00000    180112                znucl, zion, pspdat
    8 -116133    3    4       600   0.00000   pspcod,pspxc,lmax,lloc,mmax,r2well
    5.99000000000000    5.00000000000000    0.00000000000000   rchrg,fchrg,qchrg
     nproj     2     2     2     2
     extension_switch     1
  pspatm : epsatm=   29.08531775
         --- l  ekb(1:nproj) -->
             0    6.695600    0.639047
             1    6.383649    1.151322
             2    3.612966    0.847811
             3  -13.718437   -4.858923
 pspatm: atomic psp has been read  and splines computed

- pspini: atom type   2  psp file is /scratch/users/j/a/jabreu/pseudos/PBEsol/C.psp8
- pspatm: opening atomic psp file    /scratch/users/j/a/jabreu/pseudos/PBEsol/C.psp8
- C     ONCVPSP-3.3.0  r_core=   1.20440   1.26326
-  6.00000   4.00000    180112                znucl, zion, pspdat
    8 -116133    1    4       600   0.00000   pspcod,pspxc,lmax,lloc,mmax,r2well
    5.99000000000000    4.00000000000000    0.00000000000000   rchrg,fchrg,qchrg
     nproj     2     2
     extension_switch     1
  pspatm : epsatm=    4.34909529
         --- l  ekb(1:nproj) -->
             0    6.468939    0.390031
             1   -4.179695   -0.878453
 pspatm: atomic psp has been read  and splines computed

[...]

- pspini: atom type   4  psp file is /scratch/users/j/a/jabreu/pseudos/PBEsol/F.psp8
- pspatm: opening atomic psp file    /scratch/users/j/a/jabreu/pseudos/PBEsol/F.psp8
- F     ONCVPSP-3.3.0  r_core=   1.30942   1.45782   1.60379
-  9.00000   7.00000    180112                znucl, zion, pspdat
    8 -116133    2    4       600   0.00000   pspcod,pspxc,lmax,lloc,mmax,r2well
    5.99000000000000    2.50000000000000    0.00000000000000   rchrg,fchrg,qchrg
     nproj     2     2     1
     extension_switch     1
  pspatm : epsatm=    4.89824824
         --- l  ekb(1:nproj) -->
             0    6.506434    1.065875
             1   -3.978753   -1.295852
             2   -2.394754
 pspatm: atomic psp has been read  and splines computed

   6.25444342E+03                                ecore*ucvol(ha*bohr**3)

 ==>  initialize data related to q vector <==

 The list of irreducible perturbations for this q vector is:
    1)    idir= 1    ipert=  11
    2)    idir= 2    ipert=  11
    3)    idir= 3    ipert=  11

 Perturbation wavevector (in red.coord.)   0.000000  0.000000  0.000000
 Perturbation : derivative vs k along direction   1

 dfpt_looppert : COMMENT -
  In a d/dk calculation, iscf is set to -3 automatically.
 The set of symmetries contains only one element for this perturbation.
 symkpt : not enough symmetry to change the number of k points.

 Initialisation of the first-order wave-functions :
  ireadwf=   0

--- !BeginCycle
iteration_state: {dtset: 1, }
solver: {iscf: 7, nstep: 2000, nline: 4, wfoptalg: 0, }
tolerances: {tolwfr: 1.00E-20, }
...

     iter   2DEtotal(Ha)        deltaE(Ha) residm    vres2
-ETOT  1  -64.623827882193     -6.462E+01 9.143E-02 0.000E+00
 ETOT  2  -64.939561903020     -3.157E-01 4.245E-02 0.000E+00
 ETOT  3  -64.975976971558     -3.642E-02 2.222E-02 0.000E+00
 ETOT  4  -64.983482187799     -7.505E-03 1.253E-02 0.000E+00
[...]
 The set of symmetries contains only one element for this perturbation.
 symkpt : not enough symmetry to change the number of k points.

 Initialisation of the first-order wave-functions :
  ireadwf=   0

--- !BeginCycle
iteration_state: {dtset: 1, }
solver: {iscf: 7, nstep: 2000, nline: 4, wfoptalg: 0, }
tolerances: {tolwfr: 1.00E-20, }
...

     iter   2DEtotal(Ha)        deltaE(Ha) residm    vres2
-ETOT  1  -12.593000710331     -1.259E+01 2.368E-02 0.000E+00
 ETOT  2  -12.631239305537     -3.824E-02 1.075E-02 0.000E+00
 ETOT  3  -12.633690078174     -2.451E-03 5.313E-03 0.000E+00
 ETOT  4  -12.634111683093     -4.216E-04 2.865E-03 0.000E+00
 ETOT  5  -12.634209541948     -9.786E-05 2.443E-03 0.000E+00
 ETOT  6  -12.634238226812     -2.868E-05 1.711E-03 0.000E+00
 ETOT  7  -12.634247614957     -9.388E-06 1.582E-03 0.000E+00
 ETOT  8  -12.634250959044     -3.344E-06 1.169E-03 0.000E+00
 ETOT  9  -12.634252209707     -1.251E-06 1.346E-03 0.000E+00
 ETOT 10  -12.634252695433     -4.857E-07 1.033E-03 0.000E+00
 ETOT 11  -12.634252889255     -1.938E-07 1.188E-03 0.000E+00
 ETOT 12  -12.634252968246     -7.899E-08 9.268E-04 0.000E+00
 ETOT 13  -12.634253000948     -3.270E-08 1.062E-03 0.000E+00
 ETOT 14  -12.634253014653     -1.370E-08 8.351E-04 0.000E+00
 ETOT 15  -12.634253020448     -5.796E-09 9.580E-04 0.000E+00
 ETOT 16  -12.634253022916     -2.468E-09 7.539E-04 0.000E+00
 ETOT 17  -12.634253023973     -1.057E-09 8.663E-04 0.000E+00
 ETOT 18  -12.634253024428     -4.544E-10 6.814E-04 0.000E+00
 ETOT 19  -12.634253024624     -1.960E-10 7.838E-04 0.000E+00
 ETOT 20  -12.634253024708     -8.475E-11 6.165E-04 0.000E+00
 ETOT 21  -12.634253024745     -3.676E-11 7.094E-04 0.000E+00
 ETOT 22  -12.634253024761     -1.591E-11 5.585E-04 0.000E+00
 ETOT 23  -12.634253024768     -6.919E-12 6.421E-04 0.000E+00
 ETOT 24  -12.634253024771     -3.046E-12 5.067E-04 0.000E+00
 ETOT 25  -12.634253024772     -1.309E-12 5.812E-04 0.000E+00
 ETOT 26  -12.634253024773     -5.809E-13 4.602E-04 0.000E+00
 ETOT 27  -12.634253024773     -2.505E-13 5.260E-04 0.000E+00
 ETOT 28  -12.634253024773     -9.059E-14 4.186E-04 0.000E+00
 ETOT 29  -12.634253024773     -6.217E-14 4.759E-04 0.000E+00
 ETOT 30  -12.634253024773     -1.066E-14 3.812E-04 0.000E+00
 ETOT 31  -12.634253024773     -1.776E-14 4.304E-04 0.000E+00
 ETOT 32  -12.634253024773     -7.105E-15 3.476E-04 0.000E+00
 ETOT 33  -12.634253024773      5.329E-15 3.890E-04 0.000E+00
 ETOT 34  -12.634253024773     -1.066E-14 3.172E-04 0.000E+00
 ETOT 35  -12.634253024773      8.882E-15 3.515E-04 0.000E+00
 ETOT 36  -12.634253024773      1.776E-15 2.897E-04 0.000E+00
 ETOT 37  -12.634253024773      0.000E+00 3.173E-04 0.000E+00
 ETOT 38  -12.634253024773     -1.776E-15 2.648E-04 0.000E+00
 ETOT 39  -12.634253024773     -5.329E-15 2.864E-04 0.000E+00
 ETOT 40  -12.634253024773      1.243E-14 2.421E-04 0.000E+00
 ETOT 41  -12.634253024773     -5.329E-15 2.583E-04 0.000E+00
 ETOT 42  -12.634253024773      7.105E-15 2.215E-04 0.000E+00
 ETOT 43  -12.634253024773     -1.066E-14 2.328E-04 0.000E+00
 ETOT 44  -12.634253024773      3.553E-15 2.026E-04 0.000E+00
 ETOT 45  -12.634253024773      1.776E-15 2.097E-04 0.000E+00
 ETOT 46  -12.634253024773      5.329E-15 1.853E-04 0.000E+00
 ETOT 47  -12.634253024773     -1.776E-15 1.889E-04 0.000E+00
 ETOT 48  -12.634253024773     -1.776E-15 1.695E-04 0.000E+00
 ETOT 49  -12.634253024773     -3.553E-15 1.701E-04 0.000E+00
 ETOT 50  -12.634253024773      1.776E-15 1.550E-04 0.000E+00
 ETOT 51  -12.634253024773     -7.105E-15 1.531E-04 0.000E+00
 ETOT 52  -12.634253024773      1.776E-15 1.418E-04 0.000E+00
 ETOT 53  -12.634253024773     -1.776E-15 1.378E-04 0.000E+00
 ETOT 54  -12.634253024773      5.329E-15 1.296E-04 0.000E+00
 ETOT 55  -12.634253024773      0.000E+00 1.241E-04 0.000E+00
 ETOT 56  -12.634253024773      0.000E+00 1.184E-04 0.000E+00
 ETOT 57  -12.634253024773     -1.776E-15 1.117E-04 0.000E+00
 ETOT 58  -12.634253024773      0.000E+00 1.082E-04 0.000E+00
 ETOT 59  -12.634253024773      1.776E-15 1.005E-04 0.000E+00
 ETOT 60  -12.634253024773      0.000E+00 9.889E-05 0.000E+00
 ETOT 61  -12.634253024773     -3.553E-15 9.052E-05 0.000E+00
[...]
 ETOT  880  -12.634253024773      3.553E-15 3.234E-20 0.000E+00
 ETOT  881  -12.634253024773     -1.776E-15 1.699E-20 0.000E+00
 ETOT  882  -12.634253024773      0.000E+00 2.968E-20 0.000E+00
 ETOT  883  -12.634253024773     -1.776E-15 1.558E-20 0.000E+00
 ETOT  884  -12.634253024773      1.776E-15 2.723E-20 0.000E+00
 ETOT  885  -12.634253024773      1.776E-15 1.430E-20 0.000E+00
 ETOT  886  -12.634253024773      1.776E-15 2.498E-20 0.000E+00
 ETOT  887  -12.634253024773      0.000E+00 1.312E-20 0.000E+00
 ETOT  888  -12.634253024773      0.000E+00 2.293E-20 0.000E+00
 ETOT  889  -12.634253024773      1.776E-15 1.204E-20 0.000E+00
 ETOT  890  -12.634253024773      1.776E-15 2.105E-20 0.000E+00
 ETOT  891  -12.634253024773     -1.776E-15 1.105E-20 0.000E+00
 ETOT  892  -12.634253024773      1.776E-15 1.932E-20 0.000E+00
 ETOT  893  -12.634253024773      0.000E+00 1.014E-20 0.000E+00
 ETOT  894  -12.634253024773     -5.329E-15 9.959E-21 0.000E+00

 At SCF step  894   max residual=  9.96E-21 < tolwfr=  1.00E-20 =>converged.

 ----iterations are completed or convergence reached----

 dfpt_looppert: DFPT cycle converged with prtwf=-1. Will skip output of the 1st-order WFK file.
 dfpt_looppert : ek2=    2.3478370263E+01
          f-sum rule ratio=    1.0112838990E+00
 prteigrs : about to open file /scratch/users/j/a/jabreu/flow_simple_10atoms/flow/w492/t1/tmpdata/tmp_1WF1_EIG
 Expectation of eigenvalue derivatives (hartree) for nkpt=   1  k points:
  (in case of degenerate eigenvalues, averaged derivative)
 kpt#   1, nband= 41, wtk=  1.00000, kpt= -0.5000  0.5000  0.0000 (reduced coord)
   0.00000    0.00000    0.00000   -0.00000    0.00000   -0.00000   -0.00000    0.00000
   0.00000   -0.00000    0.00000    0.00000   -0.00000    0.00000    0.00000   -0.00000
   0.00000    0.00000    0.00000   -0.00000    0.00000    0.00000    0.00000   -0.00000
  -0.00000    0.00000   -0.00000    0.00000   -0.00000    0.00000    0.00000    0.00000
  -0.00000    0.00000   -0.00000   -0.00000    0.00000    0.00000   -0.00000   -0.00033
  -0.00000

 Eight components of 2nd-order total energy (hartree) are
 1,2,3: 0th-order hamiltonian combined with 1st-order wavefunctions
     kin0=   2.44315104E+01 eigvalue=   7.50896845E-02  local=  -1.24184283E+01
 4,5,6: 1st-order hamiltonian combined with 1st and 0th-order wfs
     kin1=  -2.37432978E+01  Hartree=   0.00000000E+00     xc=   0.00000000E+00
 7,8,9: eventually, occupation + non-local contributions
    edocc=   1.20541879E+00     enl0=  -6.59337486E-01   enl1=  -1.52520823E+00
 1-9 gives the relaxation energy (to be shifted if some occ is /=2.0)
   erelax=  -1.26342530E+01
  No Ewald or frozen-wf contrib.: the relaxation energy is the total one
 2DEtotal=   -0.1263425302E+02 Ha. Also 2DEtotal=   -0.343795508841E+03 eV
    (  non-var. 2DEtotal :   -1.2634253025E+01 Ha)

 CALCULATION OF EFFECTIVE MASSES
 NOTE : Additional infos (eff. mass eigenvalues, eigenvectors and, if degenerate, average mass) are available in stdout.

 K-point (-0.500, 0.500, 0.000) | band =    32
 Effective mass tensor:
             -0.7798580836             -0.6187519449             -0.0000001388
             -0.6187519449             -1.9149473057             -0.0000004032
             -0.0000001388             -0.0000004032             -0.7905540927
 Effective mass tensor eigenvalues:
             -2.1870221649             -0.7905540927             -0.5077832244
 Angular average effective mass 1/(<1/m>)=  -0.8126727936
 Angular average effective mass for Frohlich model (<m**0.5>)**2=  -0.8903533941
 Effective masses along directions: (cart. coord. / red. coord. -> eff. mass)
    1:   1.000000  0.000000  0.000000 /   0.828481 -0.560016  0.000000 ->  -0.5799288384
    2:   0.000000  1.000000  0.000000 /   0.000000  1.000000  0.000000 ->  -1.4240195621
    3:   0.000000  0.000000  1.000000 /   0.000000  0.000000  1.000000 ->  -0.7905540927
    4:   0.577350  0.577350  0.577350 /   0.521863  0.031827  0.852435 ->  -1.1640590072
    5:   0.000000  0.707107  0.707107 /   0.000000  0.411242  0.911526 ->  -1.0166876034
    6:   0.707107  0.000000  0.707107 /   0.492362 -0.332815  0.804247 ->  -0.6690563041
    7:   0.707107  0.707107  0.000000 /   0.998145  0.060874  0.000000 ->  -1.5240952776

 K-point (-0.500, 0.500, 0.000) | band =    33
 Effective mass tensor:
              0.7856021457              0.0943341265              0.0000001188
              0.0943341265              0.9586567541              0.0000002836
              0.0000001188              0.0000002836              0.8041574230
 Effective mass tensor eigenvalues:
              0.7441220212              0.8041574230              1.0001368786
 Angular average effective mass 1/(<1/m>)=   0.8362913963
 Angular average effective mass for Frohlich model (<m**0.5>)**2=   0.8400895104
 Effective masses along directions: (cart. coord. / red. coord. -> eff. mass)
    1:   1.000000  0.000000  0.000000 /   0.828481 -0.560016  0.000000 ->   0.7763194411
    2:   0.000000  1.000000  0.000000 /   0.000000  1.000000  0.000000 ->   0.9473292298
    3:   0.000000  0.000000  1.000000 /   0.000000  0.000000  1.000000 ->   0.8041574230
    4:   0.577350  0.577350  0.577350 /   0.521863  0.031827  0.852435 ->   0.8998860857
    5:   0.000000  0.707107  0.707107 /   0.000000  0.411242  0.911526 ->   0.8698919461
    6:   0.707107  0.000000  0.707107 /   0.492362 -0.332815  0.804247 ->   0.7899933586
    7:   0.707107  0.707107  0.000000 /   0.998145  0.060874  0.000000 ->   0.9568376837

 END OF EFFECTIVE MASSES SECTION

 ---- first-order wavefunction calculations are completed ----

 Total localisation tensor (bohr^2) in cartesian coordinates
  WARNING : still subject to testing - especially symmetries.
      direction              matrix element
   alpha     beta       real part   imaginary part
     1        1       2.4065148073    0.0000000000
     1        2      -0.8228211647    0.0000000000
     1        3       0.0000000000    0.0000000000
     2        1      -0.8228211647    0.0000000000
     2        2       0.8970592134    0.0000000000
     2        3       0.0000000000    0.0000000000
     3        1       0.0000000000    0.0000000000
     3        2       0.0000000000    0.0000000000
     3        3       0.7911631973    0.0000000000

 respfn : d/dk was computed, but no 2DTE, so no DDB output.

== END DATASET(S) ==============================================================

 -outvars: echo values of variables after computation  --------
            acell      1.0000000000E+00  1.0000000000E+00  1.0000000000E+00 Bohr
              amu      1.38905500E+02  1.20110000E+01  1.40067400E+01
                       1.89984032E+01
             ecut      5.20000000E+01 Hartree
           etotal     -1.2634253025E+01
            fcart      0.0000000000E+00  0.0000000000E+00  0.0000000000E+00
                       0.0000000000E+00  0.0000000000E+00  0.0000000000E+00
                       0.0000000000E+00  0.0000000000E+00  0.0000000000E+00
                       0.0000000000E+00  0.0000000000E+00  0.0000000000E+00
                       0.0000000000E+00  0.0000000000E+00  0.0000000000E+00
                       0.0000000000E+00  0.0000000000E+00  0.0000000000E+00
                       0.0000000000E+00  0.0000000000E+00  0.0000000000E+00
                       0.0000000000E+00  0.0000000000E+00  0.0000000000E+00
                       0.0000000000E+00  0.0000000000E+00  0.0000000000E+00
                       0.0000000000E+00  0.0000000000E+00  0.0000000000E+00
-          fftalg         512
           irdden           1
           irdwfk           1
              ixc     -116133
              kpt     -5.00000000E-01  5.00000000E-01  0.00000000E+00
           kptopt           0
P           mkmem           1
P          mkqmem           1
P          mk1mem           1
            natom          10
            nband          41
           nbdbuf           4
            ngfft          60      60      96
             nkpt           1
            nstep        2000
             nsym           8
           ntypat           4
              occ      2.000000  2.000000  2.000000  2.000000  2.000000  2.000000
                       2.000000  2.000000  2.000000  2.000000  2.000000  2.000000
                       2.000000  2.000000  2.000000  2.000000  2.000000  2.000000
                       2.000000  2.000000  2.000000  2.000000  2.000000  2.000000
                       2.000000  2.000000  2.000000  2.000000  2.000000  2.000000
                       2.000000  2.000000  0.000000  0.000000  0.000000  0.000000
                       0.000000  0.000000  0.000000  0.000000  0.000000
        optdriver           1
            prtwf          -1
            rfdir           1       1       1
           rfelfd           2
            rprim      8.9814351829E+00  0.0000000000E+00  0.0000000000E+00
                      -6.0710490358E+00  6.6188021235E+00  0.0000000000E+00
                       0.0000000000E+00  0.0000000000E+00  1.4670701459E+01
          spgroup          63
           strten      0.0000000000E+00  0.0000000000E+00  0.0000000000E+00
                       0.0000000000E+00  0.0000000000E+00  0.0000000000E+00
           symrel      1  0  0   0  1  0   0  0  1      -1  0  0   0 -1  0   0  0 -1
                       0  1  0   1  0  0   0  0 -1       0 -1  0  -1  0  0   0  0  1
                      -1  0  0   0 -1  0   0  0  1       1  0  0   0  1  0   0  0 -1
                       0 -1  0  -1  0  0   0  0 -1       0  1  0   1  0  0   0  0  1
            tnons      0.0000000  0.0000000  0.0000000     0.0000000  0.0000000 -0.0000000
                      -0.0000000 -0.0000000 -0.0000000     0.0000000  0.0000000  0.0000000
                       0.0000000  0.0000000  0.5000000     0.0000000  0.0000000  0.5000000
                       0.0000000  0.0000000  0.5000000    -0.0000000 -0.0000000  0.5000000
           tolwfr      1.00000000E-20
            typat      1  1  2  2  3  3  3  3  4  4
           useylm           1
           xangst     -1.4247718710E+00  2.7163577752E+00  5.8225506346E+00
                       2.9648818882E+00  7.8616145672E-01  1.9408502115E+00
                       7.7005500862E-01  1.7512596160E+00  3.8817004230E+00
                       7.7005500862E-01  1.7512596160E+00  0.0000000000E+00
                       1.8299671965E+00  1.2852003969E+00  7.3514747972E+00
                      -2.8985717930E-01  2.2173188350E+00  3.4697743741E+00
                       1.8299671965E+00  1.2852003969E+00  4.2936264719E+00
                      -2.8985717930E-01  2.2173188350E+00  4.1192604889E-01
                      -2.5603158318E+00  3.2156734144E+00  1.9408502115E+00
                       4.1004258490E+00  2.8684581754E-01  5.8225506346E+00
            xcart     -2.6924286380E+00  5.1331722741E+00  1.1003026094E+01
                       5.6028147851E+00  1.4856298494E+00  3.6676753647E+00
                       1.4551930736E+00  3.3094010618E+00  7.3353507294E+00
                       1.4551930736E+00  3.3094010618E+00  0.0000000000E+00
                       3.4581368336E+00  2.4286767760E+00  1.3892274039E+01
                      -5.4775068653E-01  4.1901253475E+00  6.5569233100E+00
                       3.4581368336E+00  2.4286767760E+00  8.1137781489E+00
                      -5.4775068653E-01  4.1901253475E+00  7.7842741941E-01
                      -4.8382957357E+00  6.0767420860E+00  3.6676753647E+00
                       7.7486818828E+00  5.4206003751E-01  1.1003026094E+01
             xred      2.2445600000E-01  7.7554400000E-01  7.5000000000E-01
                       7.7554400000E-01  2.2445600000E-01  2.5000000000E-01
                       5.0000000000E-01  5.0000000000E-01  5.0000000000E-01
                       5.0000000000E-01  5.0000000000E-01  0.0000000000E+00
                       6.3306400000E-01  3.6693600000E-01  9.4694000000E-01
                       3.6693600000E-01  6.3306400000E-01  4.4694000000E-01
                       6.3306400000E-01  3.6693600000E-01  5.5306000000E-01
                       3.6693600000E-01  6.3306400000E-01  5.3060000000E-02
                       8.1897000000E-02  9.1810300000E-01  2.5000000000E-01
                       9.1810300000E-01  8.1897000000E-02  7.5000000000E-01
            znucl       57.00000    6.00000    7.00000    9.00000

- Timing analysis has been suppressed with timopt=0

 Suggested references for the acknowledgment of ABINIT usage.

 Calculation completed.
.Delivered   2 WARNINGs and   5 COMMENTs to log file.