.Version 9.5.1 of ABINIT

 ABINIT is a project of the Universite Catholique de Louvain,
 Corning Inc. and other collaborators, see ~abinit/doc/developers/contributors.txt .
 acknowledgments of the ABINIT effort.

.Starting date : Wed 19 May 2021.
- ( at 07h48 )

- input  file    -> /scratch/users/j/a/jabreu/flow_simple_9atoms/flow/w117/t1/run.abi
- output file    -> /scratch/users/j/a/jabreu/flow_simple_9atoms/flow/w117/t1/run.abo
- root for input  files -> /scratch/users/j/a/jabreu/flow_simple_9atoms/flow/w117/t1/indata/in
- root for output files -> /scratch/users/j/a/jabreu/flow_simple_9atoms/flow/w117/t1/outdata/out

 Symmetries : space group R3 2 (#155); Bravais hR (rhombohedral)
     intxc =       0      iscf =       7    lmnmax =      32     lnmax =       8
     mgfft =      90  mpssoang =       4    mqgrid =    3001     natom =       9
  nloc_mem =       1    nspden =       1   nspinor =       1    nsppol =       1
      nsym =       6    n1xccc =    2501    ntypat =       5    occopt =       1
   xclevel =       2
-    mband =          35        mffmem =           1         mkmem =           2
-   mkqmem =           2        mk1mem =           2           mpw =       11487
      nfft =      729000          nkpt =           2
  Rough estimation (10% accuracy) of disk space for files :

------------- Echo of variables that govern the present computation ------------
-
- outvars: echo of selected default values
-   iomode0 =  0 , fftalg0 =512 , wfoptalg0 =  0
-
- outvars: echo of global parameters not present in the input file
-  max_nthreads =    0
-
 -outvars: echo values of preprocessed input variables --------
            acell      1.0000000000E+00  1.0000000000E+00  1.0000000000E+00 Bohr
              amu      1.32905430E+02  9.01218200E+00  1.08110000E+01
                       1.59994000E+01  1.89984032E+01
             ecut      4.40000000E+01 Hartree
-          fftalg         512
           irdden           1
           irdwfk           1
           istwfk        0    1
              ixc     -116133
              kpt      3.57142857E-01  3.57142857E-01  3.57142857E-01
                       0.00000000E+00  0.00000000E+00  0.00000000E+00
           kptopt           0
P           mkmem           2
P          mkqmem           2
P          mk1mem           2
            natom           9
            nband          35
           nbdbuf           4
            ngfft          90      90      90
             nkpt           2
            nstep        2000
             nsym           6
           ntypat           5
              occ      2.000000  2.000000  2.000000  2.000000  2.000000  2.000000
                       2.000000  2.000000  2.000000  2.000000  2.000000  2.000000
                       2.000000  2.000000  2.000000  2.000000  2.000000  2.000000
                       2.000000  2.000000  2.000000  2.000000  2.000000  2.000000
                       2.000000  2.000000  0.000000  0.000000  0.000000  0.000000
                       0.000000  0.000000  0.000000  0.000000  0.000000
        optdriver           1
            prtwf          -1
            rfdir           1       1       1
           rfelfd           2
            rprim      8.0479187181E+00  0.0000000000E+00  1.1705451317E+01
                       3.6357505274E+00  7.1798547196E+00  1.1705451317E+01
                       0.0000000000E+00  0.0000000000E+00  1.4205160550E+01
          spgroup         155
           symrel      1  0  0   0  1  0   0  0  1       0 -1  0  -1  0  0   0  0 -1
                       0  0  1   1  0  0   0  1  0      -1  0  0   0  0 -1   0 -1  0
                       0  1  0   0  0  1   1  0  0       0  0 -1   0 -1  0  -1  0  0
           tolwfr      1.00000000E-20
            typat      1  2  2  3  4  4  4  5  5
           useylm           1
              wtk        0.50000    0.50000
           xangst      0.0000000000E+00  0.0000000000E+00  0.0000000000E+00
                       4.9902556919E+00  3.0666146164E+00  1.6066337507E+01
                       1.1924757855E+00  7.3280086219E-01  3.8392258075E+00
                       3.0913657387E+00  1.8997077393E+00  9.9527816570E+00
                       3.6849216536E+00  3.0718578098E+00  9.5446906208E+00
                       1.7774995310E+00  1.8997077393E+00  1.0360872693E+01
                       3.8116760316E+00  7.2755766883E-01  9.9527816570E+00
                       1.6408351068E+00  1.0083268739E+00  5.2827374479E+00
                       4.5418963706E+00  2.7910886047E+00  1.4622825866E+01
            xcart      0.0000000000E+00  0.0000000000E+00  0.0000000000E+00
                       9.4302165908E+00  5.7950617801E+00  3.0360977846E+01
                       2.2534526547E+00  1.3847929395E+00  7.2550853385E+00
                       5.8418346227E+00  3.5899273598E+00  1.8808031592E+01
                       6.9634927465E+00  5.8049699796E+00  1.8036851296E+01
                       3.3589873149E+00  3.5899273598E+00  1.9579211888E+01
                       7.2030238069E+00  1.3748847400E+00  1.8808031592E+01
                       3.1007289811E+00  1.9054616440E+00  9.9829270085E+00
                       8.5829402644E+00  5.2743930756E+00  2.7633136176E+01
             xred      0.0000000000E+00  0.0000000000E+00  0.0000000000E+00
                       8.0712800000E-01  8.0712800000E-01  8.0712800000E-01
                       1.9287200000E-01  1.9287200000E-01  1.9287200000E-01
                       5.0000000000E-01  5.0000000000E-01  5.0000000000E-01
                       5.0000000000E-01  8.0850800000E-01  1.9149200000E-01
                       1.9149200000E-01  5.0000000000E-01  8.0850800000E-01
                       8.0850800000E-01  1.9149200000E-01  5.0000000000E-01
                       2.6539000000E-01  2.6539000000E-01  2.6539000000E-01
                       7.3461000000E-01  7.3461000000E-01  7.3461000000E-01
            znucl       55.00000    4.00000    5.00000    8.00000    9.00000

 chkinp: Checking input parameters for consistency.

== DATASET  1 ==================================================================
-   mpi_nproc: 1, omp_nthreads: -1 (-1 if OMP is not activated)

--- !DatasetInfo
iteration_state: {dtset: 1, }
dimensions: {natom: 9, nkpt: 2, mband: 35, nsppol: 1, nspinor: 1, nspden: 1, mpw: 11487, }
cutoff_energies: {ecut:  44.0, pawecutdg:  -1.0, }
electrons: {nelect:   5.20000000E+01, charge:   0.00000000E+00, occopt:   1.00000000E+00, tsmear:   1.00000000E-02, }
meta: {optdriver: 1, rfelfd: 2, }
...

 Real(R)+Recip(G) space primitive vectors, cartesian coordinates (Bohr,Bohr^-1):
 R(1)=  8.0479187  0.0000000 11.7054513  G(1)=  0.1242557 -0.0629209  0.0000000
 R(2)=  3.6357505  7.1798547 11.7054513  G(2)=  0.0000000  0.1392786  0.0000000
 R(3)=  0.0000000  0.0000000 14.2051605  G(3)= -0.1023902 -0.0629209  0.0703970
 Unit cell volume ucvol=  8.2081519E+02 bohr^3
 Angles (23,13,12)=  3.45099221E+01  3.45099221E+01  3.45099221E+01 degrees

 getcut: wavevector=  0.0000  0.0000  0.0000  ngfft=  90  90  90
         ecut(hartree)=     44.000   => boxcut(ratio)=   2.12182

--- Pseudopotential description ------------------------------------------------
- pspini: atom type   1  psp file is /scratch/users/j/a/jabreu/pseudos/PBEsol/Cs.psp8
- pspatm: opening atomic psp file    /scratch/users/j/a/jabreu/pseudos/PBEsol/Cs.psp8
- Cs    ONCVPSP-3.3.0  r_core=   2.27353   1.85623   2.01788   1.90105
- 55.00000   9.00000    180112                znucl, zion, pspdat
    8 -116133    3    4       600   0.00000   pspcod,pspxc,lmax,lloc,mmax,r2well
    5.99000000000000    5.00000000000000    0.00000000000000   rchrg,fchrg,qchrg
     nproj     2     2     2     2
     extension_switch     1
  pspatm : epsatm=   22.12462445
         --- l  ekb(1:nproj) -->
             0    6.214110    0.767882
             1    6.311966    0.793598
             2    3.769790    0.913105
             3   -9.247129   -2.432478
 pspatm: atomic psp has been read  and splines computed

- pspini: atom type   2  psp file is /scratch/users/j/a/jabreu/pseudos/PBEsol/Be.psp8
- pspatm: opening atomic psp file    /scratch/users/j/a/jabreu/pseudos/PBEsol/Be.psp8
- Be    ONCVPSP-3.3.0  r_core=   1.35684   1.10780
-  4.00000   4.00000    180112                znucl, zion, pspdat
    8 -116133    1    4       400   0.00000   pspcod,pspxc,lmax,lloc,mmax,r2well
    3.99000000000000    0.00000000000000    0.00000000000000   rchrg,fchrg,qchrg
     nproj     2     2
     extension_switch     1
  pspatm : epsatm=    3.86293307
         --- l  ekb(1:nproj) -->
             0   -7.966826   -2.672546
             1   -3.431835   -0.651830
 pspatm: atomic psp has been read  and splines computed

[...]

- pspini: atom type   5  psp file is /scratch/users/j/a/jabreu/pseudos/PBEsol/F.psp8
- pspatm: opening atomic psp file    /scratch/users/j/a/jabreu/pseudos/PBEsol/F.psp8
- F     ONCVPSP-3.3.0  r_core=   1.30942   1.45782   1.60379
-  9.00000   7.00000    180112                znucl, zion, pspdat
    8 -116133    2    4       600   0.00000   pspcod,pspxc,lmax,lloc,mmax,r2well
    5.99000000000000    2.50000000000000    0.00000000000000   rchrg,fchrg,qchrg
     nproj     2     2     1
     extension_switch     1
  pspatm : epsatm=    4.89824824
         --- l  ekb(1:nproj) -->
             0    6.506434    1.065875
             1   -3.978753   -1.295852
             2   -2.394754
 pspatm: atomic psp has been read  and splines computed

   3.19986412E+03                                ecore*ucvol(ha*bohr**3)

-inwffil : will read wavefunctions from disk file /scratch/users/j/a/jabreu/flow_simple_9atoms/flow/w117/t1/indata/in_WFK

 ==>  initialize data related to q vector <==

 The list of irreducible perturbations for this q vector is:
    1)    idir= 1    ipert=  10
    2)    idir= 2    ipert=  10
    3)    idir= 3    ipert=  10

 Perturbation wavevector (in red.coord.)   0.000000  0.000000  0.000000
 Perturbation : derivative vs k along direction   1

 dfpt_looppert : COMMENT -
  In a d/dk calculation, iscf is set to -3 automatically.
 The set of symmetries contains only one element for this perturbation.
 symkpt : not enough symmetry to change the number of k points.

[...]

 Initialisation of the first-order wave-functions :
  ireadwf=   0

--- !BeginCycle
iteration_state: {dtset: 1, }
solver: {iscf: 7, nstep: 2000, nline: 4, wfoptalg: 0, }
tolerances: {tolwfr: 1.00E-20, }
...

     iter   2DEtotal(Ha)        deltaE(Ha) residm    vres2
-ETOT  1  -44.022301266086     -4.402E+01 4.902E-02 0.000E+00
 ETOT  2  -44.071940360285     -4.964E-02 9.038E-03 0.000E+00
 ETOT  3  -44.072956282670     -1.016E-03 2.938E-04 0.000E+00
 ETOT  4  -44.073008556171     -5.227E-05 6.766E-05 0.000E+00
 ETOT  5  -44.073011593487     -3.037E-06 6.710E-06 0.000E+00
 ETOT  6  -44.073011782866     -1.894E-07 1.719E-06 0.000E+00
 ETOT  7  -44.073011795159     -1.229E-08 2.740E-07 0.000E+00
 ETOT  8  -44.073011795988     -8.291E-10 7.582E-08 0.000E+00
 ETOT  9  -44.073011796046     -5.754E-11 1.211E-08 0.000E+00
 ETOT 10  -44.073011796050     -4.107E-12 3.374E-09 0.000E+00
 ETOT 11  -44.073011796050     -2.558E-13 5.557E-10 0.000E+00
 ETOT 12  -44.073011796050     -7.105E-14 1.507E-10 0.000E+00
 ETOT 13  -44.073011796050      0.000E+00 2.592E-11 0.000E+00
 ETOT 14  -44.073011796050      0.000E+00 6.742E-12 0.000E+00
 ETOT 15  -44.073011796050     -2.132E-14 1.217E-12 0.000E+00
 ETOT 16  -44.073011796050      2.132E-14 3.019E-13 0.000E+00
 ETOT 17  -44.073011796050     -2.132E-14 5.726E-14 0.000E+00
 ETOT 18  -44.073011796050      1.421E-14 1.353E-14 0.000E+00
 ETOT 19  -44.073011796050     -7.105E-15 2.696E-15 0.000E+00
 ETOT 20  -44.073011796050      0.000E+00 6.067E-16 0.000E+00
 ETOT 21  -44.073011796050      0.000E+00 1.269E-16 0.000E+00
 ETOT 22  -44.073011796050     -7.105E-15 2.722E-17 0.000E+00
 ETOT 23  -44.073011796050      7.105E-15 5.978E-18 0.000E+00
 ETOT 24  -44.073011796050     -7.105E-15 1.221E-18 0.000E+00
 ETOT 25  -44.073011796050      0.000E+00 2.815E-19 0.000E+00
 ETOT 26  -44.073011796050      0.000E+00 5.481E-20 0.000E+00
 ETOT 27  -44.073011796050      7.105E-15 1.326E-20 0.000E+00
 ETOT 28  -44.073011796050      0.000E+00 9.967E-21 0.000E+00

 At SCF step   28   max residual=  9.97E-21 < tolwfr=  1.00E-20 =>converged.

 ----iterations are completed or convergence reached----

 dfpt_looppert: DFPT cycle converged with prtwf=-1. Will skip output of the 1st-order WFK file.
 dfpt_looppert : ek2=    7.9645595314E+01
          f-sum rule ratio=    1.0430572730E+00
 prteigrs : about to open file /scratch/users/j/a/jabreu/flow_simple_9atoms/flow/w117/t1/tmpdata/tmp_1WF1_EIG
 Expectation of eigenvalue derivatives (hartree) for nkpt=   2  k points:
  (in case of degenerate eigenvalues, averaged derivative)
 kpt#   1, nband= 35, wtk=  0.50000, kpt=  0.3571  0.3571  0.3571 (reduced coord)
  -0.00000    0.00000    0.00170   -0.00180    0.00011   -0.00002    0.00000   -0.00000
   0.00001   -0.00028   -0.00038    0.00303    0.00127    0.00089   -0.00236    0.00729
  -0.00278   -0.00226   -0.00777   -0.00828    0.01169   -0.00048    0.00094   -0.00441
   0.00100    0.00001    0.04098   -0.00406   -0.01369   -0.03152    0.00185   -0.00392
   0.00385   -0.00310   -0.02000
 prteigrs : prtvol=0 or 1, do not print more k-points.

 Eight components of 2nd-order total energy (hartree) are
 1,2,3: 0th-order hamiltonian combined with 1st-order wavefunctions
     kin0=   5.59506263E+01 eigvalue=   4.19420697E+00  local=  -2.39144718E+01
 4,5,6: 1st-order hamiltonian combined with 1st and 0th-order wfs
     kin1=  -8.30749175E+01  Hartree=   0.00000000E+00     xc=   0.00000000E+00
 7,8,9: eventually, occupation + non-local contributions
    edocc=   1.07740375E+01     enl0=  -2.93138720E+00   enl1=  -5.07110614E+00
 1-9 gives the relaxation energy (to be shifted if some occ is /=2.0)
   erelax=  -4.40730118E+01
  No Ewald or frozen-wf contrib.: the relaxation energy is the total one
 2DEtotal=   -0.4407301180E+02 Ha. Also 2DEtotal=   -0.119928764185E+04 eV
    (  non-var. 2DEtotal :   -4.4073011796E+01 Ha)

 Perturbation wavevector (in red.coord.)   0.000000  0.000000  0.000000
 Perturbation : derivative vs k along direction   2
 The set of symmetries contains only one element for this perturbation.
 symkpt : not enough symmetry to change the number of k points.

[...]

 Perturbation wavevector (in red.coord.)   0.000000  0.000000  0.000000
 Perturbation : derivative vs k along direction   3
 The set of symmetries contains only one element for this perturbation.
 symkpt : not enough symmetry to change the number of k points.

-inwffil : will read wavefunctions from disk file /scratch/users/j/a/jabreu/flow_simple_9atoms/flow/w117/t1/indata/in_WFK

 Initialisation of the first-order wave-functions :
  ireadwf=   0

--- !BeginCycle
iteration_state: {dtset: 1, }
solver: {iscf: 7, nstep: 2000, nline: 4, wfoptalg: 0, }
tolerances: {tolwfr: 1.00E-20, }
...

     iter   2DEtotal(Ha)        deltaE(Ha) residm    vres2
-ETOT  1  -44.021800975056     -4.402E+01 5.810E-02 0.000E+00
 ETOT  2  -44.071970141254     -5.017E-02 6.865E-03 0.000E+00
 ETOT  3  -44.072995046083     -1.025E-03 5.263E-04 0.000E+00
 ETOT  4  -44.073047549388     -5.250E-05 1.024E-04 0.000E+00
 ETOT  5  -44.073050566753     -3.017E-06 1.298E-05 0.000E+00
 ETOT  6  -44.073050752284     -1.855E-07 2.827E-06 0.000E+00
 ETOT  7  -44.073050764113     -1.183E-08 4.547E-07 0.000E+00
 ETOT  8  -44.073050764894     -7.811E-10 1.127E-07 0.000E+00
 ETOT  9  -44.073050764947     -5.294E-11 1.928E-08 0.000E+00
 ETOT 10  -44.073050764951     -3.681E-12 4.685E-09 0.000E+00
 ETOT 11  -44.073050764951     -2.984E-13 8.370E-10 0.000E+00
 ETOT 12  -44.073050764951      4.263E-14 1.982E-10 0.000E+00
 ETOT 13  -44.073050764951     -2.132E-14 3.670E-11 0.000E+00
 ETOT 14  -44.073050764951      2.842E-14 8.461E-12 0.000E+00
 ETOT 15  -44.073050764951     -1.421E-14 1.618E-12 0.000E+00
 ETOT 16  -44.073050764951      2.842E-14 3.638E-13 0.000E+00
 ETOT 17  -44.073050764951      0.000E+00 7.151E-14 0.000E+00
 ETOT 18  -44.073050764951     -7.105E-15 1.572E-14 0.000E+00
 ETOT 19  -44.073050764951      0.000E+00 3.167E-15 0.000E+00
 ETOT 20  -44.073050764951      0.000E+00 6.826E-16 0.000E+00
 ETOT 21  -44.073050764951      0.000E+00 1.405E-16 0.000E+00
 ETOT 22  -44.073050764951      0.000E+00 2.975E-17 0.000E+00
 ETOT 23  -44.073050764951      1.421E-14 6.236E-18 0.000E+00
 ETOT 24  -44.073050764951     -1.421E-14 1.300E-18 0.000E+00
 ETOT 25  -44.073050764951      0.000E+00 2.827E-19 0.000E+00
 ETOT 26  -44.073050764951      0.000E+00 5.699E-20 0.000E+00
 ETOT 27  -44.073050764951      7.105E-15 1.332E-20 0.000E+00
 ETOT 28  -44.073050764951     -7.105E-15 9.927E-21 0.000E+00

 At SCF step   28   max residual=  9.93E-21 < tolwfr=  1.00E-20 =>converged.

 ----iterations are completed or convergence reached----

 dfpt_looppert: DFPT cycle converged with prtwf=-1. Will skip output of the 1st-order WFK file.
 dfpt_looppert : ek2=    7.9645595314E+01
          f-sum rule ratio=    1.0430584201E+00
 prteigrs : about to open file /scratch/users/j/a/jabreu/flow_simple_9atoms/flow/w117/t1/tmpdata/tmp_1WF1_EIG
 Expectation of eigenvalue derivatives (hartree) for nkpt=   2  k points:
  (in case of degenerate eigenvalues, averaged derivative)
 kpt#   1, nband= 35, wtk=  0.50000, kpt=  0.3571  0.3571  0.3571 (reduced coord)
  -0.00000    0.00000    0.00170   -0.00180    0.00011   -0.00002    0.00000   -0.00000
   0.00001   -0.00028   -0.00038    0.00303    0.00127    0.00089   -0.00236    0.00729
  -0.00278   -0.00226   -0.00777   -0.00828    0.01169   -0.00048    0.00094   -0.00441
   0.00100    0.00001    0.04098   -0.00406   -0.01369   -0.03152    0.00185   -0.00392
   0.00385   -0.00310   -0.02024
 prteigrs : prtvol=0 or 1, do not print more k-points.

 Eight components of 2nd-order total energy (hartree) are
 1,2,3: 0th-order hamiltonian combined with 1st-order wavefunctions
     kin0=   5.59487570E+01 eigvalue=   4.19413902E+00  local=  -2.39131058E+01
 4,5,6: 1st-order hamiltonian combined with 1st and 0th-order wfs
     kin1=  -8.30750088E+01  Hartree=   0.00000000E+00     xc=   0.00000000E+00
 7,8,9: eventually, occupation + non-local contributions
    edocc=   1.07746139E+01     enl0=  -2.93135326E+00   enl1=  -5.07109272E+00
 1-9 gives the relaxation energy (to be shifted if some occ is /=2.0)
   erelax=  -4.40730508E+01
  No Ewald or frozen-wf contrib.: the relaxation energy is the total one
 2DEtotal=   -0.4407305076E+02 Ha. Also 2DEtotal=   -0.119928870225E+04 eV
    (  non-var. 2DEtotal :   -4.4073050765E+01 Ha)

 CALCULATION OF EFFECTIVE MASSES
 NOTE : Additional infos (eff. mass eigenvalues, eigenvectors and, if degenerate, average mass) are available in stdout.

 K-point ( 0.357, 0.357, 0.357) | band =    26
 Effective mass tensor:
             -2.5435746261             -0.4894599730             -2.5640321718
             -0.4894599730             -2.0480280648             -1.5759359803
             -2.5640321718             -1.5759359803            -10.0025857034
 Effective mass tensor eigenvalues:
            -11.0997887163             -1.7472156919             -1.7471839862
 Angular average effective mass 1/(<1/m>)=  -2.4295815053
 Angular average effective mass for Frohlich model (<m**0.5>)**2=  -2.8038498258
 Effective masses along directions: (cart. coord. / red. coord. -> eff. mass)
    1:   1.000000  0.000000  0.000000 /   0.911319  0.411700  0.000000 ->  -1.8822576367
    2:   0.000000  1.000000  0.000000 /   0.000000  1.000000  0.000000 ->  -1.7958604020
    3:   0.000000  0.000000  1.000000 /   0.536619  0.536619  0.651214 ->  -6.8181429858
    4:   0.577350  0.577350  0.577350 /   0.595809  0.679289  0.428461 ->  -3.9611067608
    5:   0.000000  0.707107  0.707107 /   0.443867  0.716124  0.538655 ->  -3.6969987375
    6:   0.707107  0.000000  0.707107 /   0.686753  0.533358  0.493862 ->  -4.8364704996
    7:   0.707107  0.707107  0.000000 /   0.596968  0.802265  0.000000 ->  -1.9274496645

 K-point ( 0.000, 0.000, 0.000) | band =    27
 Effective mass tensor:
              0.5284555383             -0.0045054743             -0.0236046851
             -0.0045054743              0.5330185218             -0.0145055638
             -0.0236046851             -0.0145055638              0.4597909550
 Effective mass tensor eigenvalues:
              0.4496905579              0.5357872283              0.5357872288
 Angular average effective mass 1/(<1/m>)=   0.5036450086
 Angular average effective mass for Frohlich model (<m**0.5>)**2=   0.5047066391
 Effective masses along directions: (cart. coord. / red. coord. -> eff. mass)
    1:   1.000000  0.000000  0.000000 /   0.911319  0.411700  0.000000 ->   0.5271919664
    2:   0.000000  1.000000  0.000000 /   0.000000  1.000000  0.000000 ->   0.5325086180
    3:   0.000000  0.000000  1.000000 /   0.536619  0.536619  0.651214 ->   0.4583307842
    4:   0.577350  0.577350  0.577350 /   0.595809  0.679289  0.428461 ->   0.4754113869
    5:   0.000000  0.707107  0.707107 /   0.443867  0.716124  0.538655 ->   0.4784525237
    6:   0.707107  0.000000  0.707107 /   0.686753  0.533358  0.493862 ->   0.4678787097
    7:   0.707107  0.707107  0.000000 /   0.596968  0.802265  0.000000 ->   0.5246389444

 END OF EFFECTIVE MASSES SECTION

 ---- first-order wavefunction calculations are completed ----

 Total localisation tensor (bohr^2) in cartesian coordinates
  WARNING : still subject to testing - especially symmetries.
      direction              matrix element
   alpha     beta       real part   imaginary part
     1        1       0.9719791450    0.0000000000
     1        2       0.3253419828    0.0000000000
     1        3       1.7045049894    0.0000000000
     2        1       0.3253419828    0.0000000000
     2        2       0.6424830729    0.0000000000
     2        3       1.0474521596    0.0000000000
     3        1       1.7045049894    0.0000000000
     3        2       1.0474521596    0.0000000000
     3        3       5.9302866867    0.0000000000

 respfn : d/dk was computed, but no 2DTE, so no DDB output.

== END DATASET(S) ==============================================================

 -outvars: echo values of variables after computation  --------
            acell      1.0000000000E+00  1.0000000000E+00  1.0000000000E+00 Bohr
              amu      1.32905430E+02  9.01218200E+00  1.08110000E+01
                       1.59994000E+01  1.89984032E+01
             ecut      4.40000000E+01 Hartree
           etotal     -4.4073050765E+01
            fcart      0.0000000000E+00  0.0000000000E+00  0.0000000000E+00
                       0.0000000000E+00  0.0000000000E+00  0.0000000000E+00
                       0.0000000000E+00  0.0000000000E+00  0.0000000000E+00
                       0.0000000000E+00  0.0000000000E+00  0.0000000000E+00
                       0.0000000000E+00  0.0000000000E+00  0.0000000000E+00
                       0.0000000000E+00  0.0000000000E+00  0.0000000000E+00
                       0.0000000000E+00  0.0000000000E+00  0.0000000000E+00
                       0.0000000000E+00  0.0000000000E+00  0.0000000000E+00
                       0.0000000000E+00  0.0000000000E+00  0.0000000000E+00
-          fftalg         512
           irdden           1
           irdwfk           1
           istwfk        0    1
              ixc     -116133
              kpt      3.57142857E-01  3.57142857E-01  3.57142857E-01
                       0.00000000E+00  0.00000000E+00  0.00000000E+00
           kptopt           0
P           mkmem           2
P          mkqmem           2
P          mk1mem           2
            natom           9
            nband          35
           nbdbuf           4
            ngfft          90      90      90
             nkpt           2
            nstep        2000
             nsym           6
           ntypat           5
              occ      2.000000  2.000000  2.000000  2.000000  2.000000  2.000000
                       2.000000  2.000000  2.000000  2.000000  2.000000  2.000000
                       2.000000  2.000000  2.000000  2.000000  2.000000  2.000000
                       2.000000  2.000000  2.000000  2.000000  2.000000  2.000000
                       2.000000  2.000000  0.000000  0.000000  0.000000  0.000000
                       0.000000  0.000000  0.000000  0.000000  0.000000
        optdriver           1
            prtwf          -1
            rfdir           1       1       1
           rfelfd           2
            rprim      8.0479187181E+00  0.0000000000E+00  1.1705451317E+01
                       3.6357505274E+00  7.1798547196E+00  1.1705451317E+01
                       0.0000000000E+00  0.0000000000E+00  1.4205160550E+01
          spgroup         155
           strten      0.0000000000E+00  0.0000000000E+00  0.0000000000E+00
                       0.0000000000E+00  0.0000000000E+00  0.0000000000E+00
           symrel      1  0  0   0  1  0   0  0  1       0 -1  0  -1  0  0   0  0 -1
                       0  0  1   1  0  0   0  1  0      -1  0  0   0  0 -1   0 -1  0
                       0  1  0   0  0  1   1  0  0       0  0 -1   0 -1  0  -1  0  0
           tolwfr      1.00000000E-20
            typat      1  2  2  3  4  4  4  5  5
           useylm           1
              wtk        0.50000    0.50000
           xangst      0.0000000000E+00  0.0000000000E+00  0.0000000000E+00
                       4.9902556919E+00  3.0666146164E+00  1.6066337507E+01
                       1.1924757855E+00  7.3280086219E-01  3.8392258075E+00
                       3.0913657387E+00  1.8997077393E+00  9.9527816570E+00
                       3.6849216536E+00  3.0718578098E+00  9.5446906208E+00
                       1.7774995310E+00  1.8997077393E+00  1.0360872693E+01
                       3.8116760316E+00  7.2755766883E-01  9.9527816570E+00
                       1.6408351068E+00  1.0083268739E+00  5.2827374479E+00
                       4.5418963706E+00  2.7910886047E+00  1.4622825866E+01
            xcart      0.0000000000E+00  0.0000000000E+00  0.0000000000E+00
                       9.4302165908E+00  5.7950617801E+00  3.0360977846E+01
                       2.2534526547E+00  1.3847929395E+00  7.2550853385E+00
                       5.8418346227E+00  3.5899273598E+00  1.8808031592E+01
                       6.9634927465E+00  5.8049699796E+00  1.8036851296E+01
                       3.3589873149E+00  3.5899273598E+00  1.9579211888E+01
                       7.2030238069E+00  1.3748847400E+00  1.8808031592E+01
                       3.1007289811E+00  1.9054616440E+00  9.9829270085E+00
                       8.5829402644E+00  5.2743930756E+00  2.7633136176E+01
             xred      0.0000000000E+00  0.0000000000E+00  0.0000000000E+00
                       8.0712800000E-01  8.0712800000E-01  8.0712800000E-01
                       1.9287200000E-01  1.9287200000E-01  1.9287200000E-01
                       5.0000000000E-01  5.0000000000E-01  5.0000000000E-01
                       5.0000000000E-01  8.0850800000E-01  1.9149200000E-01
                       1.9149200000E-01  5.0000000000E-01  8.0850800000E-01
                       8.0850800000E-01  1.9149200000E-01  5.0000000000E-01
                       2.6539000000E-01  2.6539000000E-01  2.6539000000E-01
                       7.3461000000E-01  7.3461000000E-01  7.3461000000E-01
            znucl       55.00000    4.00000    5.00000    8.00000    9.00000

- Timing analysis has been suppressed with timopt=0

 Suggested references for the acknowledgment of ABINIT usage.

 Calculation completed.
.Delivered  14 WARNINGs and   9 COMMENTs to log file.