.Version 9.5.2 of ABINIT

 ABINIT is a project of the Universite Catholique de Louvain,
 Corning Inc. and other collaborators, see ~abinit/doc/developers/contributors.txt .
 acknowledgments of the ABINIT effort.

.Starting date : Mon 31 May 2021.
- ( at 21h55 )

- input  file    -> /scratch/users/j/a/jabreu/flow_simple_11atoms/flow/w324/t1/run.abi
- output file    -> /scratch/users/j/a/jabreu/flow_simple_11atoms/flow/w324/t1/run.abo
- root for input  files -> /scratch/users/j/a/jabreu/flow_simple_11atoms/flow/w324/t1/indata/in
- root for output files -> /scratch/users/j/a/jabreu/flow_simple_11atoms/flow/w324/t1/outdata/out

 Symmetries : space group C2/m (# 12); Bravais mC (1-face-center monocl.)
     intxc =       0      iscf =       7    lmnmax =      18     lnmax =       6
     mgfft =      60  mpssoang =       3    mqgrid =    3001     natom =      11
  nloc_mem =       1    nspden =       1   nspinor =       1    nsppol =       1
      nsym =       4    n1xccc =    2501    ntypat =       3    occopt =       1
   xclevel =       2
-    mband =          45        mffmem =           1         mkmem =           2
-   mkqmem =           2        mk1mem =           2           mpw =       11084
      nfft =      194400          nkpt =           2
  Rough estimation (10% accuracy) of disk space for files :

------------- Echo of variables that govern the present computation ------------
-
- outvars: echo of selected default values
-   iomode0 =  0 , fftalg0 =512 , wfoptalg0 =  0
-
- outvars: echo of global parameters not present in the input file
-  max_nthreads =    0
-
 -outvars: echo values of preprocessed input variables --------
            acell      1.0000000000E+00  1.0000000000E+00  1.0000000000E+00 Bohr
              amu      2.43050000E+01  3.09737620E+01  1.59994000E+01
             ecut      4.40000000E+01 Hartree
-          fftalg         512
           irdden           1
           irdwfk           1
           istwfk        1    1
              ixc     -116133
              kpt      0.00000000E+00  0.00000000E+00  5.00000000E-01
                       0.00000000E+00  0.00000000E+00  0.00000000E+00
           kptopt           0
P           mkmem           2
P          mkqmem           2
P          mk1mem           2
            natom          11
            nband          45
           nbdbuf           4
            ngfft          60      60      54
             nkpt           2
            nstep        2000
             nsym           4
           ntypat           3
              occ      2.000000  2.000000  2.000000  2.000000  2.000000  2.000000
                       2.000000  2.000000  2.000000  2.000000  2.000000  2.000000
                       2.000000  2.000000  2.000000  2.000000  2.000000  2.000000
                       2.000000  2.000000  2.000000  2.000000  2.000000  2.000000
                       2.000000  2.000000  2.000000  2.000000  2.000000  2.000000
                       2.000000  2.000000  2.000000  2.000000  2.000000  2.000000
                       0.000000  0.000000  0.000000  0.000000  0.000000  0.000000
                       0.000000  0.000000  0.000000
        optdriver           1
            prtwf          -1
            rfdir           1       1       1
           rfelfd           2
            rprim      9.8384391304E+00  0.0000000000E+00  1.4176159206E+00
                      -2.6861260115E+00  9.4646506313E+00  1.4176159206E+00
                       0.0000000000E+00  0.0000000000E+00  8.5173096973E+00
          spgroup          12
           symrel      1  0  0   0  1  0   0  0  1      -1  0  0   0 -1  0   0  0 -1
                       0 -1  0  -1  0  0   0  0 -1       0  1  0   1  0  0   0  0  1
           tolwfr      1.00000000E-20
            typat      1  1  2  2  3  3  3  3  3  3  3
           useylm           1
              wtk        0.50000    0.50000
           xangst      6.4523050137E-01  3.4467239611E+00  3.0037531209E+00
                       3.1396105898E+00  1.5617534402E+00  3.0037531209E+00
                       2.9484101343E+00  3.9016289380E+00  5.2533872520E+00
                       8.3643095695E-01  1.1068484633E+00  7.5411898972E-01
                       1.9120125211E+00  4.6345444786E+00  4.4044718377E+00
                      -1.5160017192E-01  1.9037673366E+00  1.6030344040E+00
                       1.8728285701E+00  3.7393292278E-01  1.6030344040E+00
                       3.9364412631E+00  3.1047100648E+00  4.4044718377E+00
                       0.0000000000E+00  0.0000000000E+00  0.0000000000E+00
                       2.3388652614E+00  3.0950186610E+00  1.8898297715E+00
                       1.4459758299E+00  1.9134587403E+00  4.1176764702E+00
            xcart      1.2193089402E+00  6.5133643421E+00  5.6762707692E+00
                       5.9330041787E+00  2.9512862892E+00  5.6762707692E+00
                       5.5716876812E+00  7.3730101650E+00  9.9274631763E+00
                       1.5806254377E+00  2.0916404663E+00  1.4250783622E+00
                       3.6131800275E+00  8.7580198152E+00  8.3232455333E+00
                      -2.8648280663E-01  3.5975988868E+00  3.0292960052E+00
                       3.5391330914E+00  7.0663081613E-01  3.0292960052E+00
                       7.4387959255E+00  5.8670517445E+00  8.3232455333E+00
                       0.0000000000E+00  0.0000000000E+00  0.0000000000E+00
                       4.4198148057E+00  5.8487376455E+00  3.5712607059E+00
                       2.7324983132E+00  3.6159129858E+00  7.7812808326E+00
             xred      3.1182200000E-01  6.8817800000E-01  5.0000000000E-01
                       6.8817800000E-01  3.1182200000E-01  5.0000000000E-01
                       7.7900500000E-01  7.7900500000E-01  9.0624900000E-01
                       2.2099500000E-01  2.2099500000E-01  9.3751000000E-02
                       6.1989100000E-01  9.2534000000E-01  7.2002800000E-01
                       7.4660000000E-02  3.8010900000E-01  2.7997200000E-01
                       3.8010900000E-01  7.4660000000E-02  2.7997200000E-01
                       9.2534000000E-01  6.1989100000E-01  7.2002800000E-01
                       0.0000000000E+00  0.0000000000E+00  0.0000000000E+00
                       6.1795600000E-01  6.1795600000E-01  2.1359000000E-01
                       3.8204400000E-01  3.8204400000E-01  7.8641000000E-01
            znucl       12.00000   15.00000    8.00000

 chkinp: Checking input parameters for consistency.

== DATASET  1 ==================================================================
-   mpi_nproc: 1, omp_nthreads: -1 (-1 if OMP is not activated)

--- !DatasetInfo
iteration_state: {dtset: 1, }
dimensions: {natom: 11, nkpt: 2, mband: 45, nsppol: 1, nspinor: 1, nspden: 1, mpw: 11084, }
cutoff_energies: {ecut:  44.0, pawecutdg:  -1.0, }
electrons: {nelect:   7.20000000E+01, charge:   0.00000000E+00, occopt:   1.00000000E+00, tsmear:   1.00000000E-02, }
meta: {optdriver: 1, rfelfd: 2, }
...

 Real(R)+Recip(G) space primitive vectors, cartesian coordinates (Bohr,Bohr^-1):
 R(1)=  9.8384391  0.0000000  1.4176159  G(1)=  0.1016421  0.0288467  0.0000000
 R(2)= -2.6861260  9.4646506  1.4176159  G(2)=  0.0000000  0.1056563  0.0000000
 R(3)=  0.0000000  0.0000000  8.5173097  G(3)= -0.0169173 -0.0223866  0.1174080
 Unit cell volume ucvol=  7.9310964E+02 bohr^3
 Angles (23,13,12)=  8.18007121E+01  8.18007121E+01  1.04307800E+02 degrees

 getcut: wavevector=  0.0000  0.0000  0.0000  ngfft=  60  60  54
         ecut(hartree)=     44.000   => boxcut(ratio)=   2.02181

--- Pseudopotential description ------------------------------------------------
- pspini: atom type   1  psp file is /scratch/users/j/a/jabreu/pseudos/PBEsol/Mg.psp8
- pspatm: opening atomic psp file    /scratch/users/j/a/jabreu/pseudos/PBEsol/Mg.psp8
- Mg    ONCVPSP-3.3.0  r_core=   1.16056   1.56380
- 12.00000  10.00000    180112                znucl, zion, pspdat
    8 -116133    1    4       400   0.00000   pspcod,pspxc,lmax,lloc,mmax,r2well
    3.99000000000000    0.00000000000000    0.00000000000000   rchrg,fchrg,qchrg
     nproj     2     2
     extension_switch     1
  pspatm : epsatm=    9.18164846
         --- l  ekb(1:nproj) -->
             0    2.230603   -0.826587
             1   -6.503151   -2.501445
 pspatm: atomic psp has been read  and splines computed

- pspini: atom type   2  psp file is /scratch/users/j/a/jabreu/pseudos/PBEsol/P.psp8
- pspatm: opening atomic psp file    /scratch/users/j/a/jabreu/pseudos/PBEsol/P.psp8
- P     ONCVPSP-3.3.0  r_core=   1.46089   1.55067   1.70594
- 15.00000   5.00000    180112                znucl, zion, pspdat
    8 -116133    2    4       600   0.00000   pspcod,pspxc,lmax,lloc,mmax,r2well
    5.99000000000000    5.00000000000000    0.00000000000000   rchrg,fchrg,qchrg
     nproj     2     2     2
     extension_switch     1
  pspatm : epsatm=    7.31221086
         --- l  ekb(1:nproj) -->
             0    6.742364    1.063650
             1    3.449117    0.910422
             2   -3.077645   -0.799176
 pspatm: atomic psp has been read  and splines computed

- pspini: atom type   3  psp file is /scratch/users/j/a/jabreu/pseudos/PBEsol/O.psp8
- pspatm: opening atomic psp file    /scratch/users/j/a/jabreu/pseudos/PBEsol/O.psp8
- O     ONCVPSP-3.3.0  r_core=   1.35509   1.45563   1.26150
-  8.00000   6.00000    180112                znucl, zion, pspdat
    8 -116133    2    4       600   0.00000   pspcod,pspxc,lmax,lloc,mmax,r2well
    5.99000000000000    4.00000000000000    0.00000000000000   rchrg,fchrg,qchrg
     nproj     2     2     1
     extension_switch     1
  pspatm : epsatm=    6.22910522
         --- l  ekb(1:nproj) -->
             0    6.050032    0.820363
             1   -4.739617   -1.153841
             2   -1.335834
 pspatm: atomic psp has been read  and splines computed

   5.51458477E+03                                ecore*ucvol(ha*bohr**3)

 ==>  initialize data related to q vector <==

 The list of irreducible perturbations for this q vector is:
    1)    idir= 1    ipert=  12
    2)    idir= 2    ipert=  12
    3)    idir= 3    ipert=  12

 Perturbation wavevector (in red.coord.)   0.000000  0.000000  0.000000
 Perturbation : derivative vs k along direction   1

 dfpt_looppert : COMMENT -
  In a d/dk calculation, iscf is set to -3 automatically.
 The set of symmetries contains only one element for this perturbation.
 symkpt : not enough symmetry to change the number of k points.

 Initialisation of the first-order wave-functions :
  ireadwf=   0

--- !BeginCycle
iteration_state: {dtset: 1, }
solver: {iscf: 7, nstep: 2000, nline: 4, wfoptalg: 0, }
tolerances: {tolwfr: 1.00E-20, }
...

     iter   2DEtotal(Ha)        deltaE(Ha) residm    vres2
-ETOT  1  -34.091092884110     -3.409E+01 1.060E-01 0.000E+00
 ETOT  2  -34.120536967524     -2.944E-02 2.306E-02 0.000E+00
 ETOT  3  -34.120632120075     -9.515E-05 1.583E-03 0.000E+00
 ETOT  4  -34.120632735023     -6.149E-07 8.473E-04 0.000E+00
 ETOT  5  -34.120632740163     -5.140E-09 7.614E-05 0.000E+00
 ETOT  6  -34.120632740212     -4.912E-11 4.925E-05 0.000E+00
 ETOT  7  -34.120632740213     -5.045E-13 4.924E-06 0.000E+00
[...]
 ETOT 21  -34.120632740213      0.000E+00 3.507E-14 0.000E+00
 ETOT 22  -34.120632740213      0.000E+00 2.317E-14 0.000E+00
 ETOT 23  -34.120632740213      0.000E+00 2.433E-15 0.000E+00
 ETOT 24  -34.120632740213      0.000E+00 1.600E-15 0.000E+00
 ETOT 25  -34.120632740213      0.000E+00 1.690E-16 0.000E+00
 ETOT 26  -34.120632740213      0.000E+00 1.106E-16 0.000E+00
 ETOT 27  -34.120632740213      0.000E+00 1.175E-17 0.000E+00
 ETOT 28  -34.120632740213      0.000E+00 7.651E-18 0.000E+00
 ETOT 29  -34.120632740213      0.000E+00 8.170E-19 0.000E+00
 ETOT 30  -34.120632740213      0.000E+00 5.300E-19 0.000E+00
 ETOT 31  -34.120632740213      1.421E-14 5.686E-20 0.000E+00
 ETOT 32  -34.120632740213     -1.421E-14 3.674E-20 0.000E+00
 ETOT 33  -34.120632740213      1.421E-14 9.753E-21 0.000E+00

 At SCF step   33   max residual=  9.75E-21 < tolwfr=  1.00E-20 =>converged.

 ----iterations are completed or convergence reached----

 dfpt_looppert: DFPT cycle converged with prtwf=-1. Will skip output of the 1st-order WFK file.
 dfpt_looppert : ek2=    6.3461897581E+01
          f-sum rule ratio=    1.0094212181E+00
 prteigrs : about to open file /scratch/users/j/a/jabreu/flow_simple_11atoms/flow/w324/t1/tmpdata/tmp_1WF1_EIG
 Expectation of eigenvalue derivatives (hartree) for nkpt=   2  k points:
  (in case of degenerate eigenvalues, averaged derivative)
 kpt#   1, nband= 45, wtk=  0.50000, kpt=  0.0000  0.0000  0.5000 (reduced coord)
   0.00000   -0.00000    0.00000    0.00000    0.00000   -0.00000   -0.00000   -0.00000
  -0.00000   -0.00000    0.00000   -0.00000    0.00000   -0.00000   -0.00000    0.00000
  -0.00000    0.00000   -0.00000   -0.00000   -0.00000   -0.00000    0.00000   -0.00000
  -0.00000    0.00000   -0.00000    0.00000   -0.00000   -0.00000    0.00000    0.00000
  -0.00000    0.00000    0.00000    0.00000   -0.00000   -0.00000   -0.00000    0.00000
   0.00000    0.00000   -0.00000   -0.00000   -0.00006
 prteigrs : prtvol=0 or 1, do not print more k-points.

 Eight components of 2nd-order total energy (hartree) are
 1,2,3: 0th-order hamiltonian combined with 1st-order wavefunctions
     kin0=   4.63540735E+01 eigvalue=   2.75761928E+00  local=  -1.81739188E+01
 4,5,6: 1st-order hamiltonian combined with 1st and 0th-order wfs
     kin1=  -6.40597860E+01  Hartree=   0.00000000E+00     xc=   0.00000000E+00
 7,8,9: eventually, occupation + non-local contributions
    edocc=   5.64109955E+00     enl0=  -2.45824076E+00   enl1=  -4.18147952E+00
 1-9 gives the relaxation energy (to be shifted if some occ is /=2.0)
   erelax=  -3.41206327E+01
  No Ewald or frozen-wf contrib.: the relaxation energy is the total one
 2DEtotal=   -0.3412063274E+02 Ha. Also 2DEtotal=   -0.928469635040E+03 eV
    (  non-var. 2DEtotal :   -3.4120632740E+01 Ha)

 Perturbation wavevector (in red.coord.)   0.000000  0.000000  0.000000
 Perturbation : derivative vs k along direction   2
 The set of symmetries contains only one element for this perturbation.
 symkpt : not enough symmetry to change the number of k points.

[...]

 Perturbation wavevector (in red.coord.)   0.000000  0.000000  0.000000
 Perturbation : derivative vs k along direction   3
 The set of symmetries contains only one element for this perturbation.
 symkpt : not enough symmetry to change the number of k points.

 Initialisation of the first-order wave-functions :
  ireadwf=   0

--- !BeginCycle
iteration_state: {dtset: 1, }
solver: {iscf: 7, nstep: 2000, nline: 4, wfoptalg: 0, }
tolerances: {tolwfr: 1.00E-20, }
...

     iter   2DEtotal(Ha)        deltaE(Ha) residm    vres2
-ETOT  1  -44.536112650380     -4.454E+01 1.471E-01 0.000E+00
 ETOT  2  -44.568330140286     -3.222E-02 9.473E-03 0.000E+00
 ETOT  3  -44.568414158359     -8.402E-05 5.594E-04 0.000E+00
 ETOT  4  -44.568414631569     -4.732E-07 1.362E-04 0.000E+00
 ETOT  5  -44.568414635033     -3.463E-09 7.749E-06 0.000E+00
 ETOT  6  -44.568414635061     -2.872E-11 2.884E-06 0.000E+00
 ETOT  7  -44.568414635062     -2.629E-13 2.188E-07 0.000E+00
 ETOT  8  -44.568414635062      0.000E+00 5.988E-08 0.000E+00
 ETOT  9  -44.568414635062      1.421E-14 6.270E-09 0.000E+00
 ETOT 10  -44.568414635062     -1.421E-14 1.363E-09 0.000E+00
 ETOT 11  -44.568414635062      7.105E-15 1.812E-10 0.000E+00
 ETOT 12  -44.568414635062      7.105E-15 3.948E-11 0.000E+00
 ETOT 13  -44.568414635062     -7.105E-15 5.260E-12 0.000E+00
 ETOT 14  -44.568414635062      0.000E+00 1.147E-12 0.000E+00
 ETOT 15  -44.568414635062      0.000E+00 1.532E-13 0.000E+00
 ETOT 16  -44.568414635062      0.000E+00 3.345E-14 0.000E+00
 ETOT 17  -44.568414635062      0.000E+00 4.479E-15 0.000E+00
 ETOT 18  -44.568414635062      0.000E+00 9.776E-16 0.000E+00
 ETOT 19  -44.568414635062      0.000E+00 1.312E-16 0.000E+00
 ETOT 20  -44.568414635062     -1.421E-14 2.865E-17 0.000E+00
 ETOT 21  -44.568414635062      1.421E-14 3.856E-18 0.000E+00
 ETOT 22  -44.568414635062     -1.421E-14 8.418E-19 0.000E+00
 ETOT 23  -44.568414635062      0.000E+00 1.135E-19 0.000E+00
 ETOT 24  -44.568414635062      0.000E+00 2.479E-20 0.000E+00
 ETOT 25  -44.568414635062      0.000E+00 9.631E-21 0.000E+00

 At SCF step   25   max residual=  9.63E-21 < tolwfr=  1.00E-20 =>converged.

 ----iterations are completed or convergence reached----

 dfpt_looppert: DFPT cycle converged with prtwf=-1. Will skip output of the 1st-order WFK file.
 dfpt_looppert : ek2=    8.2840153880E+01
          f-sum rule ratio=    1.0070963316E+00
 prteigrs : about to open file /scratch/users/j/a/jabreu/flow_simple_11atoms/flow/w324/t1/tmpdata/tmp_1WF1_EIG
 Expectation of eigenvalue derivatives (hartree) for nkpt=   2  k points:
  (in case of degenerate eigenvalues, averaged derivative)
 kpt#   1, nband= 45, wtk=  0.50000, kpt=  0.0000  0.0000  0.5000 (reduced coord)
  -0.00000    0.00000    0.00000   -0.00000    0.00000    0.00000    0.00000    0.00000
  -0.00000    0.00000   -0.00000    0.00000   -0.00000    0.00000    0.00000    0.00000
  -0.00000   -0.00000   -0.00000   -0.00000   -0.00000    0.00000   -0.00000    0.00000
   0.00000   -0.00000    0.00000    0.00000    0.00000    0.00000    0.00000    0.00000
   0.00000    0.00000    0.00000    0.00000    0.00000   -0.00000    0.00000    0.00000
   0.00000    0.00000   -0.00000    0.00000    0.00001
 prteigrs : prtvol=0 or 1, do not print more k-points.

 Eight components of 2nd-order total energy (hartree) are
 1,2,3: 0th-order hamiltonian combined with 1st-order wavefunctions
     kin0=   6.02550647E+01 eigvalue=   3.66587485E+00  local=  -2.39505032E+01
 4,5,6: 1st-order hamiltonian combined with 1st and 0th-order wfs
     kin1=  -8.34280151E+01  Hartree=   0.00000000E+00     xc=   0.00000000E+00
 7,8,9: eventually, occupation + non-local contributions
    edocc=   7.74508427E+00     enl0=  -3.14710605E+00   enl1=  -5.70881419E+00
 1-9 gives the relaxation energy (to be shifted if some occ is /=2.0)
   erelax=  -4.45684146E+01
  No Ewald or frozen-wf contrib.: the relaxation energy is the total one
 2DEtotal=   -0.4456841464E+02 Ha. Also 2DEtotal=   -0.121276823867E+04 eV
    (  non-var. 2DEtotal :   -4.4568414635E+01 Ha)

 CALCULATION OF EFFECTIVE MASSES
 NOTE : Additional infos (eff. mass eigenvalues, eigenvectors and, if degenerate, average mass) are available in stdout.

 K-point ( 0.000, 0.000, 0.500) | band =    36
 Effective mass tensor:
             -3.9164068491             -2.8022468589             -0.7763364492
             -2.8022468589             -5.5069966813             -1.0273255570
             -0.7763364492             -1.0273255570             -1.7237067598
 Effective mass tensor eigenvalues:
             -7.8933680191             -1.7987854495             -1.4549568215
 Angular average effective mass 1/(<1/m>)=  -2.1899010313
 Angular average effective mass for Frohlich model (<m**0.5>)**2=  -2.4627049217
 Effective masses along directions: (cart. coord. / red. coord. -> eff. mass)
    1:   1.000000  0.000000  0.000000 /   0.964691 -0.263383  0.000000 ->  -2.4485062680
    2:   0.000000  1.000000  0.000000 /   0.000000  1.000000  0.000000 ->  -3.3601234356
    3:   0.000000  0.000000  1.000000 /   0.162012  0.162012  0.973398 ->  -1.5062406434
    4:   0.577350  0.577350  0.577350 /   0.689609  0.502141  0.521818 ->  -4.5085696119
    5:   0.000000  0.707107  0.707107 /   0.102048  0.783367  0.613124 ->  -2.5555632656
    6:   0.707107  0.000000  0.707107 /   0.794232 -0.089507  0.600985 ->  -2.1341990992
    7:   0.707107  0.707107  0.000000 /   0.823471  0.567358  0.000000 ->  -6.3371676520

 K-point ( 0.000, 0.000, 0.000) | band =    37
 Effective mass tensor:
              0.4597390762             -0.0076641898             -0.0079095502
             -0.0076641898              0.4553887989             -0.0104667121
             -0.0079095502             -0.0104667121              0.4879956103
 Effective mass tensor eigenvalues:
              0.4455428422              0.4655308086              0.4920498347
 Angular average effective mass 1/(<1/m>)=   0.4669367470
 Angular average effective mass for Frohlich model (<m**0.5>)**2=   0.4671672230
 Effective masses along directions: (cart. coord. / red. coord. -> eff. mass)
    1:   1.000000  0.000000  0.000000 /   0.964691 -0.263383  0.000000 ->   0.4594760481
    2:   0.000000  1.000000  0.000000 /   0.000000  1.000000  0.000000 ->   0.4550307811
    3:   0.000000  0.000000  1.000000 /   0.162012  0.162012  0.973398 ->   0.4876127941
    4:   0.577350  0.577350  0.577350 /   0.689609  0.502141  0.521818 ->   0.4499496199
    5:   0.000000  0.707107  0.707107 /   0.102048  0.783367  0.613124 ->   0.4604107193
    6:   0.707107  0.000000  0.707107 /   0.794232 -0.089507  0.600985 ->   0.4651858023
    7:   0.707107  0.707107  0.000000 /   0.823471  0.567358  0.000000 ->   0.4495431288

 END OF EFFECTIVE MASSES SECTION

 ---- first-order wavefunction calculations are completed ----

 Total localisation tensor (bohr^2) in cartesian coordinates
  WARNING : still subject to testing - especially symmetries.
      direction              matrix element
   alpha     beta       real part   imaginary part
     1        1       0.6040778229    0.0000000000
     1        2      -0.1476548983    0.0000000000
     1        3       0.0588873971    0.0000000000
     2        1      -0.1476548983    0.0000000000
     2        2       0.5202667410    0.0000000000
     2        3       0.0779255826    0.0000000000
     3        1       0.0588873971    0.0000000000
     3        2       0.0779255826    0.0000000000
     3        3       0.5689758162    0.0000000000

 respfn : d/dk was computed, but no 2DTE, so no DDB output.

== END DATASET(S) ==============================================================

 -outvars: echo values of variables after computation  --------
            acell      1.0000000000E+00  1.0000000000E+00  1.0000000000E+00 Bohr
              amu      2.43050000E+01  3.09737620E+01  1.59994000E+01
             ecut      4.40000000E+01 Hartree
           etotal     -4.4568414635E+01
            fcart      0.0000000000E+00  0.0000000000E+00  0.0000000000E+00
                       0.0000000000E+00  0.0000000000E+00  0.0000000000E+00
                       0.0000000000E+00  0.0000000000E+00  0.0000000000E+00
                       0.0000000000E+00  0.0000000000E+00  0.0000000000E+00
                       0.0000000000E+00  0.0000000000E+00  0.0000000000E+00
                       0.0000000000E+00  0.0000000000E+00  0.0000000000E+00
                       0.0000000000E+00  0.0000000000E+00  0.0000000000E+00
                       0.0000000000E+00  0.0000000000E+00  0.0000000000E+00
                       0.0000000000E+00  0.0000000000E+00  0.0000000000E+00
                       0.0000000000E+00  0.0000000000E+00  0.0000000000E+00
                       0.0000000000E+00  0.0000000000E+00  0.0000000000E+00
-          fftalg         512
           irdden           1
           irdwfk           1
           istwfk        1    1
              ixc     -116133
              kpt      0.00000000E+00  0.00000000E+00  5.00000000E-01
                       0.00000000E+00  0.00000000E+00  0.00000000E+00
           kptopt           0
P           mkmem           2
P          mkqmem           2
P          mk1mem           2
            natom          11
            nband          45
           nbdbuf           4
            ngfft          60      60      54
             nkpt           2
            nstep        2000
             nsym           4
           ntypat           3
              occ      2.000000  2.000000  2.000000  2.000000  2.000000  2.000000
                       2.000000  2.000000  2.000000  2.000000  2.000000  2.000000
                       2.000000  2.000000  2.000000  2.000000  2.000000  2.000000
                       2.000000  2.000000  2.000000  2.000000  2.000000  2.000000
                       2.000000  2.000000  2.000000  2.000000  2.000000  2.000000
                       2.000000  2.000000  2.000000  2.000000  2.000000  2.000000
                       0.000000  0.000000  0.000000  0.000000  0.000000  0.000000
                       0.000000  0.000000  0.000000
        optdriver           1
            prtwf          -1
            rfdir           1       1       1
           rfelfd           2
            rprim      9.8384391304E+00  0.0000000000E+00  1.4176159206E+00
                      -2.6861260115E+00  9.4646506313E+00  1.4176159206E+00
                       0.0000000000E+00  0.0000000000E+00  8.5173096973E+00
          spgroup          12
           strten      0.0000000000E+00  0.0000000000E+00  0.0000000000E+00
                       0.0000000000E+00  0.0000000000E+00  0.0000000000E+00
           symrel      1  0  0   0  1  0   0  0  1      -1  0  0   0 -1  0   0  0 -1
                       0 -1  0  -1  0  0   0  0 -1       0  1  0   1  0  0   0  0  1
           tolwfr      1.00000000E-20
            typat      1  1  2  2  3  3  3  3  3  3  3
           useylm           1
              wtk        0.50000    0.50000
           xangst      6.4523050137E-01  3.4467239611E+00  3.0037531209E+00
                       3.1396105898E+00  1.5617534402E+00  3.0037531209E+00
                       2.9484101343E+00  3.9016289380E+00  5.2533872520E+00
                       8.3643095695E-01  1.1068484633E+00  7.5411898972E-01
                       1.9120125211E+00  4.6345444786E+00  4.4044718377E+00
                      -1.5160017192E-01  1.9037673366E+00  1.6030344040E+00
                       1.8728285701E+00  3.7393292278E-01  1.6030344040E+00
                       3.9364412631E+00  3.1047100648E+00  4.4044718377E+00
                       0.0000000000E+00  0.0000000000E+00  0.0000000000E+00
                       2.3388652614E+00  3.0950186610E+00  1.8898297715E+00
                       1.4459758299E+00  1.9134587403E+00  4.1176764702E+00
            xcart      1.2193089402E+00  6.5133643421E+00  5.6762707692E+00
                       5.9330041787E+00  2.9512862892E+00  5.6762707692E+00
                       5.5716876812E+00  7.3730101650E+00  9.9274631763E+00
                       1.5806254377E+00  2.0916404663E+00  1.4250783622E+00
                       3.6131800275E+00  8.7580198152E+00  8.3232455333E+00
                      -2.8648280663E-01  3.5975988868E+00  3.0292960052E+00
                       3.5391330914E+00  7.0663081613E-01  3.0292960052E+00
                       7.4387959255E+00  5.8670517445E+00  8.3232455333E+00
                       0.0000000000E+00  0.0000000000E+00  0.0000000000E+00
                       4.4198148057E+00  5.8487376455E+00  3.5712607059E+00
                       2.7324983132E+00  3.6159129858E+00  7.7812808326E+00
             xred      3.1182200000E-01  6.8817800000E-01  5.0000000000E-01
                       6.8817800000E-01  3.1182200000E-01  5.0000000000E-01
                       7.7900500000E-01  7.7900500000E-01  9.0624900000E-01
                       2.2099500000E-01  2.2099500000E-01  9.3751000000E-02
                       6.1989100000E-01  9.2534000000E-01  7.2002800000E-01
                       7.4660000000E-02  3.8010900000E-01  2.7997200000E-01
                       3.8010900000E-01  7.4660000000E-02  2.7997200000E-01
                       9.2534000000E-01  6.1989100000E-01  7.2002800000E-01
                       0.0000000000E+00  0.0000000000E+00  0.0000000000E+00
                       6.1795600000E-01  6.1795600000E-01  2.1359000000E-01
                       3.8204400000E-01  3.8204400000E-01  7.8641000000E-01
            znucl       12.00000   15.00000    8.00000

- Timing analysis has been suppressed with timopt=0

 Suggested references for the acknowledgment of ABINIT usage.

 Calculation completed.
.Delivered   2 WARNINGs and   5 COMMENTs to log file.