.Version 9.5.2 of ABINIT

 ABINIT is a project of the Universite Catholique de Louvain,
 Corning Inc. and other collaborators, see ~abinit/doc/developers/contributors.txt .
 acknowledgments of the ABINIT effort.

.Starting date : Wed 26 May 2021.
- ( at 02h47 )

- input  file    -> /scratch/users/j/a/jabreu/flow_simple_11atoms/flow/w262/t1/run.abi
- output file    -> /scratch/users/j/a/jabreu/flow_simple_11atoms/flow/w262/t1/run.abo
- root for input  files -> /scratch/users/j/a/jabreu/flow_simple_11atoms/flow/w262/t1/indata/in
- root for output files -> /scratch/users/j/a/jabreu/flow_simple_11atoms/flow/w262/t1/outdata/out

 Symmetries : space group C2 (#  5); Bravais mC (1-face-center monocl.)
     intxc =       0      iscf =       7    lmnmax =      18     lnmax =       6
     mgfft =      64  mpssoang =       3    mqgrid =    3001     natom =      11
  nloc_mem =       1    nspden =       1   nspinor =       1    nsppol =       1
      nsym =       2    n1xccc =    2501    ntypat =       4    occopt =       1
   xclevel =       2
-    mband =          52        mffmem =           1         mkmem =           2
-   mkqmem =           2        mk1mem =           2           mpw =       12828
      nfft =      245760          nkpt =           2
  Rough estimation (10% accuracy) of disk space for files :

------------- Echo of variables that govern the present computation ------------
-
- outvars: echo of selected default values
-   iomode0 =  0 , fftalg0 =512 , wfoptalg0 =  0
-
- outvars: echo of global parameters not present in the input file
-  max_nthreads =    0
-
 -outvars: echo values of preprocessed input variables --------
            acell      1.0000000000E+00  1.0000000000E+00  1.0000000000E+00 Bohr
              amu      6.94100000E+00  4.49559100E+01  7.49215900E+01
                       1.59994000E+01
             ecut      4.40000000E+01 Hartree
-          fftalg         512
           irdden           1
           irdwfk           1
           istwfk        1    1
              ixc     -116133
              kpt      0.00000000E+00  0.00000000E+00  5.00000000E-01
                       0.00000000E+00  0.00000000E+00  0.00000000E+00
           kptopt           0
P           mkmem           2
P          mkqmem           2
P          mk1mem           2
            natom          11
            nband          52
           nbdbuf           4
            ngfft          64      64      60
             nkpt           2
            nstep        2000
             nsym           2
           ntypat           4
              occ      2.000000  2.000000  2.000000  2.000000  2.000000  2.000000
                       2.000000  2.000000  2.000000  2.000000  2.000000  2.000000
                       2.000000  2.000000  2.000000  2.000000  2.000000  2.000000
                       2.000000  2.000000  2.000000  2.000000  2.000000  2.000000
                       2.000000  2.000000  2.000000  2.000000  2.000000  2.000000
                       2.000000  2.000000  2.000000  2.000000  2.000000  2.000000
                       2.000000  2.000000  2.000000  2.000000  2.000000  2.000000
                       2.000000  0.000000  0.000000  0.000000  0.000000  0.000000
                       0.000000  0.000000  0.000000  0.000000
        optdriver           1
            prtwf          -1
            rfdir           1       1       1
           rfelfd           2
            rprim      1.0187027732E+01  0.0000000000E+00  1.5401047363E+00
                      -2.6409586453E+00  9.8387433871E+00  1.5401047363E+00
                       0.0000000000E+00  0.0000000000E+00  9.1800370460E+00
          spgroup           5
           symrel      1  0  0   0  1  0   0  0  1       0 -1  0  -1  0  0   0  0 -1
           tolwfr      1.00000000E-20
            typat      1  2  3  3  4  4  4  4  4  4  4
           useylm           1
              wtk        0.50000    0.50000
           xangst      3.6999321854E+00  1.2968093539E+00  8.1498832529E-01
                       1.1166461956E+00  3.2781248310E+00  8.1498832529E-01
                       1.1233154035E+00  9.4400544406E-01  3.2302846915E+00
                       3.3726933363E+00  3.8767976049E+00  3.2575583378E+00
                       1.9400164637E+00  1.7543980502E+00  1.9999269240E+00
                       7.4308544749E-01  5.0375627139E+00  4.7547684411E+00
                       5.1475256855E+00  1.8654149439E-01  3.2439215147E+00
                       2.2741225339E+00  4.4781881398E+00  2.1286897580E+00
                       2.5768438343E-01  1.8491083777E+00  4.3591532713E+00
                       2.8017347287E+00  2.8779267092E+00  4.4879161053E+00
                      -6.7948284269E-01  3.1827845244E+00  1.7330745883E+00
            xcart      6.9918585407E+00  2.4506145254E+00  1.5401047363E+00
                       2.1101554971E+00  6.1947581601E+00  1.5401047363E+00
                       2.1227584734E+00  1.7839117572E+00  6.1043533982E+00
                       6.3734667357E+00  7.3260857459E+00  6.1558931204E+00
                       3.6660998097E+00  3.3153318429E+00  3.7793141721E+00
                       1.4042279891E+00  9.5196139066E+00  8.9852101789E+00
                       9.7274138076E+00  3.5251233682E-01  6.1301232593E+00
                       4.2974687816E+00  8.4625491558E+00  4.0226406645E+00
                       4.8695291340E-01  3.4943084239E+00  8.2376058541E+00
                       5.2945113342E+00  5.4384933109E+00  8.4809323465E+00
                      -1.2840364847E+00  6.0145910912E+00  3.2750363397E+00
             xred      7.5092200000E-01  2.4907800000E-01  5.5511151231E-17
                       3.7037100000E-01  6.2962900000E-01  2.0816681712E-17
                       2.5538400000E-01  1.8131500000E-01  5.9169600000E-01
                       8.1868500000E-01  7.4461600000E-01  4.0830400000E-01
                       4.4723700000E-01  3.3696700000E-01  2.8012500000E-01
                       3.8868300000E-01  9.6756400000E-01  7.5124400000E-01
                       9.6417100000E-01  3.5829000000E-02  5.0000000000E-01
                       6.4484200000E-01  8.6012500000E-01  1.8571100000E-01
                       1.3987500000E-01  3.5515800000E-01  8.1428900000E-01
                       6.6303300000E-01  5.5276300000E-01  7.1987500000E-01
                       3.2436000000E-02  6.1131700000E-01  2.4875600000E-01
            znucl        3.00000   21.00000   33.00000    8.00000

 chkinp: Checking input parameters for consistency.

== DATASET  1 ==================================================================
-   mpi_nproc: 1, omp_nthreads: -1 (-1 if OMP is not activated)

--- !DatasetInfo
iteration_state: {dtset: 1, }
dimensions: {natom: 11, nkpt: 2, mband: 52, nsppol: 1, nspinor: 1, nspden: 1, mpw: 12828, }
cutoff_energies: {ecut:  44.0, pawecutdg:  -1.0, }
electrons: {nelect:   8.60000000E+01, charge:   0.00000000E+00, occopt:   1.00000000E+00, tsmear:   1.00000000E-02, }
meta: {optdriver: 1, rfelfd: 2, }
...

 Real(R)+Recip(G) space primitive vectors, cartesian coordinates (Bohr,Bohr^-1):
 R(1)= 10.1870277  0.0000000  1.5401047  G(1)=  0.0981641  0.0263496  0.0000000
 R(2)= -2.6409586  9.8387434  1.5401047  G(2)=  0.0000000  0.1016390  0.0000000
 R(3)=  0.0000000  0.0000000  9.1800370  G(3)= -0.0164687 -0.0214722  0.1089320
 Unit cell volume ucvol=  9.2009264E+02 bohr^3
 Angles (23,13,12)=  8.14029603E+01  8.14029602E+01  1.03362352E+02 degrees

 getcut: wavevector=  0.0000  0.0000  0.0000  ngfft=  64  64  60
         ecut(hartree)=     44.000   => boxcut(ratio)=   2.08065

--- Pseudopotential description ------------------------------------------------
- pspini: atom type   1  psp file is /scratch/users/j/a/jabreu/pseudos/PBEsol/Li.psp8
- pspatm: opening atomic psp file    /scratch/users/j/a/jabreu/pseudos/PBEsol/Li.psp8
- Li    ONCVPSP-3.3.0  r_core=   1.40824   1.10935
-  3.00000   3.00000    180112                znucl, zion, pspdat
    8 -116133    1    4       400   0.00000   pspcod,pspxc,lmax,lloc,mmax,r2well
    3.99000000000000    0.00000000000000    0.00000000000000   rchrg,fchrg,qchrg
     nproj     2     2
     extension_switch     1
  pspatm : epsatm=    2.60859637
         --- l  ekb(1:nproj) -->
             0   -4.855856   -1.482423
             1   -2.171544   -0.427615
 pspatm: atomic psp has been read  and splines computed

- pspini: atom type   2  psp file is /scratch/users/j/a/jabreu/pseudos/PBEsol/Sc.psp8
- pspatm: opening atomic psp file    /scratch/users/j/a/jabreu/pseudos/PBEsol/Sc.psp8
- Sc    ONCVPSP-3.3.0  r_core=   1.35663   1.35663   1.66161
- 21.00000  11.00000    180112                znucl, zion, pspdat
    8 -116133    2    4       600   0.00000   pspcod,pspxc,lmax,lloc,mmax,r2well
    5.99000000000000    5.00000000000000    0.00000000000000   rchrg,fchrg,qchrg
     nproj     2     2     2
     extension_switch     1
  pspatm : epsatm=   13.58981094
         --- l  ekb(1:nproj) -->
             0   10.810997    0.948773
             1    2.871172    0.364831
             2   -4.789751   -1.321945
 pspatm: atomic psp has been read  and splines computed

[...]

- pspini: atom type   4  psp file is /scratch/users/j/a/jabreu/pseudos/PBEsol/O.psp8
- pspatm: opening atomic psp file    /scratch/users/j/a/jabreu/pseudos/PBEsol/O.psp8
- O     ONCVPSP-3.3.0  r_core=   1.35509   1.45563   1.26150
-  8.00000   6.00000    180112                znucl, zion, pspdat
    8 -116133    2    4       600   0.00000   pspcod,pspxc,lmax,lloc,mmax,r2well
    5.99000000000000    4.00000000000000    0.00000000000000   rchrg,fchrg,qchrg
     nproj     2     2     1
     extension_switch     1
  pspatm : epsatm=    6.22910522
         --- l  ekb(1:nproj) -->
             0    6.050032    0.820363
             1   -4.739617   -1.153841
             2   -1.335834
 pspatm: atomic psp has been read  and splines computed

   1.00951316E+04                                ecore*ucvol(ha*bohr**3)

 ==>  initialize data related to q vector <==

 The list of irreducible perturbations for this q vector is:
    1)    idir= 1    ipert=  12
    2)    idir= 2    ipert=  12
    3)    idir= 3    ipert=  12

 Perturbation wavevector (in red.coord.)   0.000000  0.000000  0.000000
 Perturbation : derivative vs k along direction   1

 dfpt_looppert : COMMENT -
  In a d/dk calculation, iscf is set to -3 automatically.
 The set of symmetries contains only one element for this perturbation.
 symkpt : not enough symmetry to change the number of k points.

 Initialisation of the first-order wave-functions :
  ireadwf=   0

--- !BeginCycle
iteration_state: {dtset: 1, }
solver: {iscf: 7, nstep: 2000, nline: 4, wfoptalg: 0, }
tolerances: {tolwfr: 1.00E-20, }
...

     iter   2DEtotal(Ha)        deltaE(Ha) residm    vres2
-ETOT  1  -54.596298059632     -5.460E+01 9.606E-02 0.000E+00
 ETOT  2  -54.716840276665     -1.205E-01 2.974E-02 0.000E+00
 ETOT  3  -54.719024344525     -2.184E-03 6.512E-03 0.000E+00
 ETOT  4  -54.719130447500     -1.061E-04 4.981E-03 0.000E+00
 ETOT  5  -54.719137474580     -7.027E-06 1.397E-03 0.000E+00
 ETOT  6  -54.719138003629     -5.290E-07 1.156E-03 0.000E+00
[...]
    (  non-var. 2DEtotal :   -5.4719138050E+01 Ha)

 Perturbation wavevector (in red.coord.)   0.000000  0.000000  0.000000
 Perturbation : derivative vs k along direction   2
 The set of symmetries contains only one element for this perturbation.
 symkpt : not enough symmetry to change the number of k points.

[...]

 Perturbation wavevector (in red.coord.)   0.000000  0.000000  0.000000
 Perturbation : derivative vs k along direction   3
 The set of symmetries contains only one element for this perturbation.
 symkpt : not enough symmetry to change the number of k points.

 Initialisation of the first-order wave-functions :
  ireadwf=   0

--- !BeginCycle
iteration_state: {dtset: 1, }
solver: {iscf: 7, nstep: 2000, nline: 4, wfoptalg: 0, }
tolerances: {tolwfr: 1.00E-20, }
...

     iter   2DEtotal(Ha)        deltaE(Ha) residm    vres2
-ETOT  1  -66.486698875506     -6.649E+01 9.781E-02 0.000E+00
 ETOT  2  -66.628792098689     -1.421E-01 2.822E-02 0.000E+00
 ETOT  3  -66.631532059541     -2.740E-03 5.763E-03 0.000E+00
 ETOT  4  -66.631664690818     -1.326E-04 3.567E-03 0.000E+00
 ETOT  5  -66.631673050968     -8.360E-06 1.215E-03 0.000E+00
 ETOT  6  -66.631673640836     -5.899E-07 1.006E-03 0.000E+00
 ETOT  7  -66.631673685834     -4.500E-08 3.411E-04 0.000E+00
 ETOT  8  -66.631673689532     -3.698E-09 3.359E-04 0.000E+00
 ETOT  9  -66.631673689850     -3.181E-10 8.824E-05 0.000E+00
 ETOT 10  -66.631673689878     -2.841E-11 8.681E-05 0.000E+00
 ETOT 11  -66.631673689881     -2.629E-12 2.314E-05 0.000E+00
 ETOT 12  -66.631673689881     -2.132E-13 2.282E-05 0.000E+00
 ETOT 13  -66.631673689881     -8.527E-14 6.132E-06 0.000E+00
 ETOT 14  -66.631673689881      0.000E+00 6.070E-06 0.000E+00
 ETOT 15  -66.631673689881      0.000E+00 1.639E-06 0.000E+00
 ETOT 16  -66.631673689881      5.684E-14 1.627E-06 0.000E+00
 ETOT 17  -66.631673689881      0.000E+00 4.405E-07 0.000E+00
 ETOT 18  -66.631673689881     -2.842E-14 4.381E-07 0.000E+00
 ETOT 19  -66.631673689881      2.842E-14 1.189E-07 0.000E+00
 ETOT 20  -66.631673689881      0.000E+00 1.184E-07 0.000E+00
 ETOT 21  -66.631673689881      0.000E+00 3.220E-08 0.000E+00
 ETOT 22  -66.631673689881      0.000E+00 3.209E-08 0.000E+00
 ETOT 23  -66.631673689881     -2.842E-14 8.738E-09 0.000E+00
 ETOT 24  -66.631673689881      0.000E+00 8.710E-09 0.000E+00
 ETOT 25  -66.631673689881      0.000E+00 2.375E-09 0.000E+00
 ETOT 26  -66.631673689881      2.842E-14 2.368E-09 0.000E+00
 ETOT 27  -66.631673689881      0.000E+00 6.466E-10 0.000E+00
 ETOT 28  -66.631673689881     -2.842E-14 6.444E-10 0.000E+00
 ETOT 29  -66.631673689881      0.000E+00 1.762E-10 0.000E+00
 ETOT 30  -66.631673689881      0.000E+00 1.755E-10 0.000E+00
 ETOT 31  -66.631673689881      1.421E-14 4.806E-11 0.000E+00
 ETOT 32  -66.631673689881     -1.421E-14 4.785E-11 0.000E+00
 ETOT 33  -66.631673689881      0.000E+00 1.312E-11 0.000E+00
 ETOT 34  -66.631673689881      0.000E+00 1.305E-11 0.000E+00
 ETOT 35  -66.631673689881      0.000E+00 3.583E-12 0.000E+00
 ETOT 36  -66.631673689881     -1.421E-14 3.564E-12 0.000E+00
 ETOT 37  -66.631673689881      0.000E+00 9.790E-13 0.000E+00
 ETOT 38  -66.631673689881      1.421E-14 9.732E-13 0.000E+00
 ETOT 39  -66.631673689881      0.000E+00 2.676E-13 0.000E+00
 ETOT 40  -66.631673689881      0.000E+00 2.659E-13 0.000E+00
 ETOT 41  -66.631673689881      0.000E+00 7.319E-14 0.000E+00
 ETOT 42  -66.631673689881      0.000E+00 7.269E-14 0.000E+00
 ETOT 43  -66.631673689881      0.000E+00 2.002E-14 0.000E+00
 ETOT 44  -66.631673689881      0.000E+00 1.988E-14 0.000E+00
 ETOT 45  -66.631673689881      0.000E+00 5.480E-15 0.000E+00
 ETOT 46  -66.631673689881      0.000E+00 5.437E-15 0.000E+00
 ETOT 47  -66.631673689881      0.000E+00 1.500E-15 0.000E+00
 ETOT 48  -66.631673689881      0.000E+00 1.488E-15 0.000E+00
 ETOT 49  -66.631673689881      0.000E+00 4.108E-16 0.000E+00
 ETOT 50  -66.631673689881     -1.421E-14 4.071E-16 0.000E+00
 ETOT 51  -66.631673689881      2.842E-14 1.125E-16 0.000E+00
 ETOT 52  -66.631673689881      0.000E+00 1.115E-16 0.000E+00
 ETOT 53  -66.631673689881     -2.842E-14 3.081E-17 0.000E+00
 ETOT 54  -66.631673689881      1.421E-14 3.052E-17 0.000E+00
 ETOT 55  -66.631673689881     -1.421E-14 8.442E-18 0.000E+00
 ETOT 56  -66.631673689881      1.421E-14 8.358E-18 0.000E+00
 ETOT 57  -66.631673689881      0.000E+00 2.313E-18 0.000E+00
 ETOT 58  -66.631673689881      0.000E+00 2.290E-18 0.000E+00
 ETOT 59  -66.631673689881      0.000E+00 6.340E-19 0.000E+00
 ETOT 60  -66.631673689881      0.000E+00 6.273E-19 0.000E+00
 ETOT 61  -66.631673689881     -2.842E-14 1.738E-19 0.000E+00
 ETOT 62  -66.631673689881      2.842E-14 1.719E-19 0.000E+00
 ETOT 63  -66.631673689881      0.000E+00 4.763E-20 0.000E+00
 ETOT 64  -66.631673689881      0.000E+00 4.710E-20 0.000E+00
 ETOT 65  -66.631673689881     -1.421E-14 1.306E-20 0.000E+00
 ETOT 66  -66.631673689881     -1.421E-14 1.291E-20 0.000E+00
 ETOT 67  -66.631673689881      1.421E-14 9.966E-21 0.000E+00

 At SCF step   67   max residual=  9.97E-21 < tolwfr=  1.00E-20 =>converged.

 ----iterations are completed or convergence reached----

 dfpt_looppert: DFPT cycle converged with prtwf=-1. Will skip output of the 1st-order WFK file.
 dfpt_looppert : ek2=    8.5547163306E+01
          f-sum rule ratio=    1.0085769211E+00
 prteigrs : about to open file /scratch/users/j/a/jabreu/flow_simple_11atoms/flow/w262/t1/tmpdata/tmp_1WF1_EIG
 Expectation of eigenvalue derivatives (hartree) for nkpt=   2  k points:
  (in case of degenerate eigenvalues, averaged derivative)
 kpt#   1, nband= 52, wtk=  0.50000, kpt=  0.0000  0.0000  0.5000 (reduced coord)
  -0.00000    0.00000    0.00000    0.00000    0.00000    0.00000   -0.00000   -0.00000
   0.00000    0.00000   -0.00000   -0.00000   -0.00000    0.00000    0.00000    0.00000
  -0.00000   -0.00000    0.00000    0.00000    0.00000    0.00000    0.00000    0.00000
  -0.00000    0.00000    0.00000   -0.00000    0.00000   -0.00000    0.00000   -0.00000
   0.00000   -0.00000   -0.00000   -0.00000   -0.00000    0.00000    0.00000    0.00000
   0.00000    0.00000   -0.00000   -0.00000    0.00000    0.00000    0.00000    0.00000
  -0.00018    0.00000   -0.00015    0.00203
 prteigrs : prtvol=0 or 1, do not print more k-points.

 Eight components of 2nd-order total energy (hartree) are
 1,2,3: 0th-order hamiltonian combined with 1st-order wavefunctions
     kin0=   8.65807720E+01 eigvalue=   8.15644470E+00  local=  -3.58193686E+01
 4,5,6: 1st-order hamiltonian combined with 1st and 0th-order wfs
     kin1=  -8.62808946E+01  Hartree=   0.00000000E+00     xc=   0.00000000E+00
 7,8,9: eventually, occupation + non-local contributions
    edocc=   7.48149449E+00     enl0=   2.32331114E-01   enl1=  -4.69824528E+01
 1-9 gives the relaxation energy (to be shifted if some occ is /=2.0)
   erelax=  -6.66316737E+01
  No Ewald or frozen-wf contrib.: the relaxation energy is the total one
 2DEtotal=   -0.6663167369E+02 Ha. Also 2DEtotal=   -0.181314005001E+04 eV
    (  non-var. 2DEtotal :   -6.6631673690E+01 Ha)

 CALCULATION OF EFFECTIVE MASSES
 NOTE : Additional infos (eff. mass eigenvalues, eigenvectors and, if degenerate, average mass) are available in stdout.

 K-point ( 0.000, 0.000, 0.500) | band =    43
 Effective mass tensor:
            -11.9306026841            -13.1674533187            -17.4196503039
            -13.1674533187            -18.9987384630            -22.7113945759
            -17.4196503039            -22.7113945759            -36.2687563200
 Effective mass tensor eigenvalues:
            -61.5296969793             -3.8371983934             -1.8312020945
 Angular average effective mass 1/(<1/m>)=  -3.6454286587
 Angular average effective mass for Frohlich model (<m**0.5>)**2=  -5.0428207473
 Effective masses along directions: (cart. coord. / red. coord. -> eff. mass)
    1:   1.000000  0.000000  0.000000 /   0.968000 -0.250951  0.000000 ->  -2.4954801043
    2:   0.000000  1.000000  0.000000 /   0.000000  1.000000  0.000000 ->  -3.3447066661
    3:   0.000000  0.000000  1.000000 /   0.163235  0.163235  0.972989 ->  -8.1139778002
    4:   0.577350  0.577350  0.577350 /   0.679164  0.506045  0.531652 -> -28.8619653001
    5:   0.000000  0.707107  0.707107 /   0.104761  0.774012  0.624444 ->  -8.7016351241
    6:   0.707107  0.000000  0.707107 /   0.785288 -0.073717  0.614726 ->  -5.3134649585
    7:   0.707107  0.707107  0.000000 /   0.816706  0.577055  0.000000 ->  -6.2373803311

 K-point ( 0.000, 0.000, 0.000) | band =    44
 Effective mass tensor:
              0.7097835915             -0.1112962567             -0.0582020938
             -0.1112962567              0.6500630959             -0.0758853787
             -0.0582020938             -0.0758853787              0.4898383704
 Effective mass tensor eigenvalues:
              0.4245670566              0.6299623217              0.7951556794
 Angular average effective mass 1/(<1/m>)=   0.5768839788
 Angular average effective mass for Frohlich model (<m**0.5>)**2=   0.5889413999
 Effective masses along directions: (cart. coord. / red. coord. -> eff. mass)
    1:   1.000000  0.000000  0.000000 /   0.968000 -0.250951  0.000000 ->   0.6801906061
    2:   0.000000  1.000000  0.000000 /   0.000000  1.000000  0.000000 ->   0.6177125314
    3:   0.000000  0.000000  1.000000 /   0.163235  0.163235  0.972989 ->   0.4736417703
    4:   0.577350  0.577350  0.577350 /   0.679164  0.506045  0.531652 ->   0.4439680647
    5:   0.000000  0.707107  0.707107 /   0.104761  0.774012  0.624444 ->   0.4653740622
    6:   0.707107  0.000000  0.707107 /   0.785288 -0.073717  0.614726 ->   0.4979205179
    7:   0.707107  0.707107  0.000000 /   0.816706  0.577055  0.000000 ->   0.5489571274

 END OF EFFECTIVE MASSES SECTION

 ---- first-order wavefunction calculations are completed ----

 Total localisation tensor (bohr^2) in cartesian coordinates
  WARNING : still subject to testing - especially symmetries.
      direction              matrix element
   alpha     beta       real part   imaginary part
     1        1       0.6842690407    0.0000000000
     1        2      -0.1605452149    0.0000000000
     1        3       0.0718037887    0.0000000000
     2        1      -0.1605452149    0.0000000000
     2        2       0.5981021985    0.0000000000
     2        3       0.0936237477    0.0000000000
     3        1       0.0718037887    0.0000000000
     3        2       0.0936237477    0.0000000000
     3        3       0.6613646682    0.0000000000

 respfn : d/dk was computed, but no 2DTE, so no DDB output.

== END DATASET(S) ==============================================================

 -outvars: echo values of variables after computation  --------
            acell      1.0000000000E+00  1.0000000000E+00  1.0000000000E+00 Bohr
              amu      6.94100000E+00  4.49559100E+01  7.49215900E+01
                       1.59994000E+01
             ecut      4.40000000E+01 Hartree
           etotal     -6.6631673690E+01
            fcart      0.0000000000E+00  0.0000000000E+00  0.0000000000E+00
                       0.0000000000E+00  0.0000000000E+00  0.0000000000E+00
                       0.0000000000E+00  0.0000000000E+00  0.0000000000E+00
                       0.0000000000E+00  0.0000000000E+00  0.0000000000E+00
                       0.0000000000E+00  0.0000000000E+00  0.0000000000E+00
                       0.0000000000E+00  0.0000000000E+00  0.0000000000E+00
                       0.0000000000E+00  0.0000000000E+00  0.0000000000E+00
                       0.0000000000E+00  0.0000000000E+00  0.0000000000E+00
                       0.0000000000E+00  0.0000000000E+00  0.0000000000E+00
                       0.0000000000E+00  0.0000000000E+00  0.0000000000E+00
                       0.0000000000E+00  0.0000000000E+00  0.0000000000E+00
-          fftalg         512
           irdden           1
           irdwfk           1
           istwfk        1    1
              ixc     -116133
              kpt      0.00000000E+00  0.00000000E+00  5.00000000E-01
                       0.00000000E+00  0.00000000E+00  0.00000000E+00
           kptopt           0
P           mkmem           2
P          mkqmem           2
P          mk1mem           2
            natom          11
            nband          52
           nbdbuf           4
            ngfft          64      64      60
             nkpt           2
            nstep        2000
             nsym           2
           ntypat           4
              occ      2.000000  2.000000  2.000000  2.000000  2.000000  2.000000
                       2.000000  2.000000  2.000000  2.000000  2.000000  2.000000
                       2.000000  2.000000  2.000000  2.000000  2.000000  2.000000
                       2.000000  2.000000  2.000000  2.000000  2.000000  2.000000
                       2.000000  2.000000  2.000000  2.000000  2.000000  2.000000
                       2.000000  2.000000  2.000000  2.000000  2.000000  2.000000
                       2.000000  2.000000  2.000000  2.000000  2.000000  2.000000
                       2.000000  0.000000  0.000000  0.000000  0.000000  0.000000
                       0.000000  0.000000  0.000000  0.000000
        optdriver           1
            prtwf          -1
            rfdir           1       1       1
           rfelfd           2
            rprim      1.0187027732E+01  0.0000000000E+00  1.5401047363E+00
                      -2.6409586453E+00  9.8387433871E+00  1.5401047363E+00
                       0.0000000000E+00  0.0000000000E+00  9.1800370460E+00
          spgroup           5
           strten      0.0000000000E+00  0.0000000000E+00  0.0000000000E+00
                       0.0000000000E+00  0.0000000000E+00  0.0000000000E+00
           symrel      1  0  0   0  1  0   0  0  1       0 -1  0  -1  0  0   0  0 -1
           tolwfr      1.00000000E-20
            typat      1  2  3  3  4  4  4  4  4  4  4
           useylm           1
              wtk        0.50000    0.50000
           xangst      3.6999321854E+00  1.2968093539E+00  8.1498832529E-01
                       1.1166461956E+00  3.2781248310E+00  8.1498832529E-01
                       1.1233154035E+00  9.4400544406E-01  3.2302846915E+00
                       3.3726933363E+00  3.8767976049E+00  3.2575583378E+00
                       1.9400164637E+00  1.7543980502E+00  1.9999269240E+00
                       7.4308544749E-01  5.0375627139E+00  4.7547684411E+00
                       5.1475256855E+00  1.8654149439E-01  3.2439215147E+00
                       2.2741225339E+00  4.4781881398E+00  2.1286897580E+00
                       2.5768438343E-01  1.8491083777E+00  4.3591532713E+00
                       2.8017347287E+00  2.8779267092E+00  4.4879161053E+00
                      -6.7948284269E-01  3.1827845244E+00  1.7330745883E+00
            xcart      6.9918585407E+00  2.4506145254E+00  1.5401047363E+00
                       2.1101554971E+00  6.1947581601E+00  1.5401047363E+00
                       2.1227584734E+00  1.7839117572E+00  6.1043533982E+00
                       6.3734667357E+00  7.3260857459E+00  6.1558931204E+00
                       3.6660998097E+00  3.3153318429E+00  3.7793141721E+00
                       1.4042279891E+00  9.5196139066E+00  8.9852101789E+00
                       9.7274138076E+00  3.5251233682E-01  6.1301232593E+00
                       4.2974687816E+00  8.4625491558E+00  4.0226406645E+00
                       4.8695291340E-01  3.4943084239E+00  8.2376058541E+00
                       5.2945113342E+00  5.4384933109E+00  8.4809323465E+00
                      -1.2840364847E+00  6.0145910912E+00  3.2750363397E+00
             xred      7.5092200000E-01  2.4907800000E-01  5.5511151231E-17
                       3.7037100000E-01  6.2962900000E-01  2.0816681712E-17
                       2.5538400000E-01  1.8131500000E-01  5.9169600000E-01
                       8.1868500000E-01  7.4461600000E-01  4.0830400000E-01
                       4.4723700000E-01  3.3696700000E-01  2.8012500000E-01
                       3.8868300000E-01  9.6756400000E-01  7.5124400000E-01
                       9.6417100000E-01  3.5829000000E-02  5.0000000000E-01
                       6.4484200000E-01  8.6012500000E-01  1.8571100000E-01
                       1.3987500000E-01  3.5515800000E-01  8.1428900000E-01
                       6.6303300000E-01  5.5276300000E-01  7.1987500000E-01
                       3.2436000000E-02  6.1131700000E-01  2.4875600000E-01
            znucl        3.00000   21.00000   33.00000    8.00000

- Timing analysis has been suppressed with timopt=0

 Suggested references for the acknowledgment of ABINIT usage.

 Calculation completed.
.Delivered   2 WARNINGs and   5 COMMENTs to log file.