.Version 9.5.2 of ABINIT

 ABINIT is a project of the Universite Catholique de Louvain,
 Corning Inc. and other collaborators, see ~abinit/doc/developers/contributors.txt .
 acknowledgments of the ABINIT effort.

.Starting date : Wed 26 May 2021.
- ( at 03h16 )

- input  file    -> /scratch/users/j/a/jabreu/flow_simple_11atoms/flow/w291/t1/run.abi
- output file    -> /scratch/users/j/a/jabreu/flow_simple_11atoms/flow/w291/t1/run.abo
- root for input  files -> /scratch/users/j/a/jabreu/flow_simple_11atoms/flow/w291/t1/indata/in
- root for output files -> /scratch/users/j/a/jabreu/flow_simple_11atoms/flow/w291/t1/outdata/out

 Symmetries : space group I4_1/a m d (#141); Bravais tI (body-center tetrag.)
     intxc =       0      iscf =       7    lmnmax =      18     lnmax =       6
     mgfft =      72  mpssoang =       3    mqgrid =    3001     natom =      12
  nloc_mem =       1    nspden =       1   nspinor =       1    nsppol =       1
      nsym =      16    n1xccc =    2501    ntypat =       3    occopt =       1
   xclevel =       2
-    mband =          49        mffmem =           1         mkmem =           2
-   mkqmem =           2        mk1mem =           2           mpw =       13361
      nfft =      373248          nkpt =           2
  Rough estimation (10% accuracy) of disk space for files :

------------- Echo of variables that govern the present computation ------------
-
- outvars: echo of selected default values
-   iomode0 =  0 , fftalg0 =512 , wfoptalg0 =  0
-
- outvars: echo of global parameters not present in the input file
-  max_nthreads =    0
-
 -outvars: echo values of preprocessed input variables --------
            acell      1.0000000000E+00  1.0000000000E+00  1.0000000000E+00 Bohr
              amu      8.89058500E+01  3.09737620E+01  1.59994000E+01
             ecut      4.40000000E+01 Hartree
-          fftalg         512
           irdden           1
           irdwfk           1
           istwfk        1    0
              ixc     -116133
              kpt      0.00000000E+00  0.00000000E+00  0.00000000E+00
                       0.00000000E+00  0.00000000E+00  3.50000000E-01
           kptopt           0
P           mkmem           2
P          mkqmem           2
P          mk1mem           2
            natom          12
            nband          49
           nbdbuf           4
            ngfft          72      72      72
             nkpt           2
            nstep        2000
             nsym          16
           ntypat           3
              occ      2.000000  2.000000  2.000000  2.000000  2.000000  2.000000
                       2.000000  2.000000  2.000000  2.000000  2.000000  2.000000
                       2.000000  2.000000  2.000000  2.000000  2.000000  2.000000
                       2.000000  2.000000  2.000000  2.000000  2.000000  2.000000
                       2.000000  2.000000  2.000000  2.000000  2.000000  2.000000
                       2.000000  2.000000  2.000000  2.000000  2.000000  2.000000
                       2.000000  2.000000  2.000000  2.000000  0.000000  0.000000
                       0.000000  0.000000  0.000000  0.000000  0.000000  0.000000
                       0.000000
        optdriver           1
            prtwf          -1
            rfdir           1       1       1
           rfelfd           2
            rprim      1.0385552069E+01  0.0000000000E+00 -2.9714614913E+00
                      -5.9045233266E+00  8.5437869860E+00 -2.9714614913E+00
                       0.0000000000E+00  0.0000000000E+00  1.0802281017E+01
          spgroup         141
           symrel      1  0  0   0  1  0   0  0  1      -1  0  0   0 -1  0   0  0 -1
                      -1 -1 -1   0  0  1   0  1  0       1  1  1   0  0 -1   0 -1  0
                       0  1  0   1  0  0  -1 -1 -1       0 -1  0  -1  0  0   1  1  1
                       0  0  1  -1 -1 -1   1  0  0       0  0 -1   1  1  1  -1  0  0
                       0  1  0   1  0  0   0  0  1       0 -1  0  -1  0  0   0  0 -1
                      -1 -1 -1   0  0  1   1  0  0       1  1  1   0  0 -1  -1  0  0
                       1  0  0   0  1  0  -1 -1 -1      -1  0  0   0 -1  0   1  1  1
                       0  0  1  -1 -1 -1   0  1  0       0  0 -1   1  1  1   0 -1  0
            tnons      0.0000000  0.0000000  0.0000000     0.2500000 -0.2500000  0.5000000
                       0.2500000 -0.2500000  0.5000000     0.0000000  0.0000000  0.0000000
                       0.0000000  0.0000000  0.0000000     0.2500000 -0.2500000  0.5000000
                       0.2500000 -0.2500000  0.5000000     0.0000000  0.0000000  0.0000000
                       0.2500000 -0.2500000  0.5000000     0.0000000  0.0000000  0.0000000
                       0.0000000  0.0000000  0.0000000     0.2500000 -0.2500000  0.5000000
                       0.2500000 -0.2500000  0.5000000     0.0000000  0.0000000  0.0000000
                       0.0000000  0.0000000  0.0000000     0.2500000 -0.2500000  0.5000000
           tolwfr      1.00000000E-20
            typat      1  1  2  2  3  3  3  3  3  3  3  3
           useylm           1
              wtk        0.50000    0.50000
           xangst      3.3407132971E+00  1.1302943370E+00  1.2857307601E+00
                       1.1856291408E+00  2.2605886740E+00 -1.5724296974E+00
                       0.0000000000E+00  0.0000000000E+00  0.0000000000E+00
                      -9.6945501563E-01  3.3908830110E+00  1.2857307601E+00
                       1.9890616408E+00  3.9001484275E-01  3.0783462853E+00
                       4.9141028462E+00  7.2776487536E-01  2.9112619357E+00
                       1.3450880135E+00  7.2776487536E-01  2.2018582782E-01
                      -4.0039093876E-02  3.3261035820E+00  5.3101478170E-02
                      -3.8776040828E-01  2.6631181357E+00  2.5183600421E+00
                       2.5372807972E+00  3.0008681683E+00  2.3512756924E+00
                       4.5663815318E+00  6.4779429043E-02 -3.3980041545E-01
                       3.1812544244E+00  2.6631181357E+00 -5.0688476511E-01
            xcart      6.3130332201E+00  2.1359467465E+00  2.4296790172E+00
                       2.2405143712E+00  4.2718934930E+00 -2.9714614913E+00
                       0.0000000000E+00  0.0000000000E+00  0.0000000000E+00
                      -1.8320044777E+00  6.4078402395E+00  2.4296790173E+00
                       3.7587817624E+00  7.3702124056E-01  5.8172314215E+00
                       9.2863085681E+00  1.3752763036E+00  5.5014877595E+00
                       2.5418479701E+00  1.3752763036E+00  4.1609091293E-01
                      -7.5662922034E-02  6.2854248596E+00  1.0034725099E-01
                      -7.3276097682E-01  5.0325639359E+00  4.7590107835E+00
                       4.7947658289E+00  5.6708189989E+00  4.4432671216E+00
                       8.6292105133E+00  1.2241537994E-01 -6.4212972504E-01
                       6.0116996212E+00  5.0325639359E+00 -9.5787338698E-01
             xred      7.5000000000E-01  2.5000000000E-01  5.0000000000E-01
                       5.0000000000E-01  5.0000000000E-01  1.3877787808E-17
                       0.0000000000E+00  0.0000000000E+00  0.0000000000E+00
                       2.5000000000E-01  7.5000000000E-01  5.0000000000E-01
                       4.1096800000E-01  8.6264000000E-02  6.7529600000E-01
                       9.8567200000E-01  1.6096800000E-01  8.2470400000E-01
                       3.3626400000E-01  1.6096800000E-01  1.7529600000E-01
                       4.1096800000E-01  7.3567200000E-01  3.2470400000E-01
                       2.6432800000E-01  5.8903200000E-01  6.7529600000E-01
                       8.3903200000E-01  6.6373600000E-01  8.2470400000E-01
                       8.3903200000E-01  1.4328000000E-02  1.7529600000E-01
                       9.1373600000E-01  5.8903200000E-01  3.2470400000E-01
            znucl       39.00000   15.00000    8.00000

 chkinp: Checking input parameters for consistency.

== DATASET  1 ==================================================================
-   mpi_nproc: 1, omp_nthreads: -1 (-1 if OMP is not activated)

--- !DatasetInfo
iteration_state: {dtset: 1, }
dimensions: {natom: 12, nkpt: 2, mband: 49, nsppol: 1, nspinor: 1, nspden: 1, mpw: 13361, }
cutoff_energies: {ecut:  44.0, pawecutdg:  -1.0, }
electrons: {nelect:   8.00000000E+01, charge:   0.00000000E+00, occopt:   1.00000000E+00, tsmear:   1.00000000E-02, }
meta: {optdriver: 1, rfelfd: 2, }
...

 Real(R)+Recip(G) space primitive vectors, cartesian coordinates (Bohr,Bohr^-1):
 R(1)= 10.3855521  0.0000000 -2.9714615  G(1)=  0.0962876  0.0665434  0.0000000
 R(2)= -5.9045233  8.5437870 -2.9714615  G(2)=  0.0000000  0.1170441  0.0000000
 R(3)=  0.0000000  0.0000000 10.8022810  G(3)=  0.0264865  0.0505007  0.0925730
 Unit cell volume ucvol=  9.5850740E+02 bohr^3
 Angles (23,13,12)=  1.05966616E+02  1.05966616E+02  1.16733775E+02 degrees

 getcut: wavevector=  0.0000  0.0000  0.0000  ngfft=  72  72  72
         ecut(hartree)=     44.000   => boxcut(ratio)=   2.23220

 getcut : COMMENT -
  Note that boxcut > 2.2 ; recall that boxcut=Gcut(box)/Gcut(sphere) = 2
  is sufficient for exact treatment of convolution.
  Such a large boxcut is a waste : you could raise ecut
  e.g. ecut=   54.809986 Hartrees makes boxcut=2

--- Pseudopotential description ------------------------------------------------
- pspini: atom type   1  psp file is /scratch/users/j/a/jabreu/pseudos/PBEsol/Y.psp8
- pspatm: opening atomic psp file    /scratch/users/j/a/jabreu/pseudos/PBEsol/Y.psp8
- Y     ONCVPSP-3.3.0  r_core=   1.60520   1.51226   1.56736
- 39.00000  11.00000    180112                znucl, zion, pspdat
    8 -116133    2    4       600   0.00000   pspcod,pspxc,lmax,lloc,mmax,r2well
    5.99000000000000    4.00000000000000    0.00000000000000   rchrg,fchrg,qchrg
     nproj     2     2     2
     extension_switch     1
  pspatm : epsatm=   18.54790046
         --- l  ekb(1:nproj) -->
             0   10.130768    0.866504
             1    5.598307    0.427135
             2    1.217602    0.315447
 pspatm: atomic psp has been read  and splines computed

- pspini: atom type   2  psp file is /scratch/users/j/a/jabreu/pseudos/PBEsol/P.psp8
- pspatm: opening atomic psp file    /scratch/users/j/a/jabreu/pseudos/PBEsol/P.psp8
- P     ONCVPSP-3.3.0  r_core=   1.46089   1.55067   1.70594
- 15.00000   5.00000    180112                znucl, zion, pspdat
    8 -116133    2    4       600   0.00000   pspcod,pspxc,lmax,lloc,mmax,r2well
    5.99000000000000    5.00000000000000    0.00000000000000   rchrg,fchrg,qchrg
     nproj     2     2     2
     extension_switch     1
  pspatm : epsatm=    7.31221086
         --- l  ekb(1:nproj) -->
             0    6.742364    1.063650
             1    3.449117    0.910422
             2   -3.077645   -0.799176
 pspatm: atomic psp has been read  and splines computed

- pspini: atom type   3  psp file is /scratch/users/j/a/jabreu/pseudos/PBEsol/O.psp8
- pspatm: opening atomic psp file    /scratch/users/j/a/jabreu/pseudos/PBEsol/O.psp8
- O     ONCVPSP-3.3.0  r_core=   1.35509   1.45563   1.26150
[...]
 ETOT 20  -38.117558225612     -2.842E-14 8.067E-08 0.000E+00
 ETOT 21  -38.117558225612      2.842E-14 3.599E-08 0.000E+00
 ETOT 22  -38.117558225612      0.000E+00 2.669E-08 0.000E+00
 ETOT 23  -38.117558225612      0.000E+00 1.192E-08 0.000E+00
 ETOT 24  -38.117558225612      0.000E+00 8.847E-09 0.000E+00
 ETOT 25  -38.117558225612      1.421E-14 3.954E-09 0.000E+00
 ETOT 26  -38.117558225612     -1.421E-14 2.937E-09 0.000E+00
 ETOT 27  -38.117558225612      1.421E-14 1.314E-09 0.000E+00
 ETOT 28  -38.117558225612      0.000E+00 9.765E-10 0.000E+00
 ETOT 29  -38.117558225612      0.000E+00 4.370E-10 0.000E+00
 ETOT 30  -38.117558225612      0.000E+00 3.249E-10 0.000E+00
 ETOT 31  -38.117558225612      0.000E+00 1.455E-10 0.000E+00
 ETOT 32  -38.117558225612      0.000E+00 1.082E-10 0.000E+00
 ETOT 33  -38.117558225612      0.000E+00 4.848E-11 0.000E+00
 ETOT 34  -38.117558225612      0.000E+00 3.606E-11 0.000E+00
 ETOT 35  -38.117558225612      0.000E+00 1.616E-11 0.000E+00
 ETOT 36  -38.117558225612     -1.421E-14 1.202E-11 0.000E+00
 ETOT 37  -38.117558225612      0.000E+00 5.392E-12 0.000E+00
 ETOT 38  -38.117558225612      0.000E+00 4.011E-12 0.000E+00
 ETOT 39  -38.117558225612      0.000E+00 1.799E-12 0.000E+00
 ETOT 40  -38.117558225612      0.000E+00 1.338E-12 0.000E+00
 ETOT 41  -38.117558225612      0.000E+00 6.005E-13 0.000E+00
 ETOT 42  -38.117558225612      0.000E+00 4.467E-13 0.000E+00
 ETOT 43  -38.117558225612      0.000E+00 2.005E-13 0.000E+00
 ETOT 44  -38.117558225612     -1.421E-14 1.491E-13 0.000E+00
 ETOT 45  -38.117558225612      0.000E+00 6.697E-14 0.000E+00
 ETOT 46  -38.117558225612      0.000E+00 4.980E-14 0.000E+00
 ETOT 47  -38.117558225612      0.000E+00 2.237E-14 0.000E+00
 ETOT 48  -38.117558225612      0.000E+00 1.663E-14 0.000E+00
 ETOT 49  -38.117558225612      0.000E+00 7.474E-15 0.000E+00
 ETOT 50  -38.117558225612      1.421E-14 5.557E-15 0.000E+00
 ETOT 51  -38.117558225612      0.000E+00 2.497E-15 0.000E+00
 ETOT 52  -38.117558225612      0.000E+00 1.856E-15 0.000E+00
 ETOT 53  -38.117558225612      1.421E-14 8.346E-16 0.000E+00
 ETOT 54  -38.117558225612     -2.132E-14 6.203E-16 0.000E+00
 ETOT 55  -38.117558225612      7.105E-15 2.789E-16 0.000E+00
 ETOT 56  -38.117558225612      0.000E+00 2.073E-16 0.000E+00
 ETOT 57  -38.117558225612     -1.421E-14 9.324E-17 0.000E+00
 ETOT 58  -38.117558225612      1.421E-14 6.927E-17 0.000E+00
 ETOT 59  -38.117558225612      0.000E+00 3.117E-17 0.000E+00
 ETOT 60  -38.117558225612     -1.421E-14 2.315E-17 0.000E+00
 ETOT 61  -38.117558225612      0.000E+00 1.042E-17 0.000E+00
 ETOT 62  -38.117558225612      0.000E+00 7.739E-18 0.000E+00
 ETOT 63  -38.117558225612      1.421E-14 3.484E-18 0.000E+00
 ETOT 64  -38.117558225612      0.000E+00 2.587E-18 0.000E+00
 ETOT 65  -38.117558225612      0.000E+00 1.165E-18 0.000E+00
 ETOT 66  -38.117558225612     -1.421E-14 8.648E-19 0.000E+00
 ETOT 67  -38.117558225612      1.421E-14 3.896E-19 0.000E+00
 ETOT 68  -38.117558225612     -1.421E-14 2.891E-19 0.000E+00
 ETOT 69  -38.117558225612      0.000E+00 1.303E-19 0.000E+00
 ETOT 70  -38.117558225612      1.421E-14 9.667E-20 0.000E+00
 ETOT 71  -38.117558225612      0.000E+00 4.357E-20 0.000E+00
 ETOT 72  -38.117558225612     -1.421E-14 3.232E-20 0.000E+00
 ETOT 73  -38.117558225612      1.421E-14 1.457E-20 0.000E+00
 ETOT 74  -38.117558225612     -1.421E-14 1.081E-20 0.000E+00
 ETOT 75  -38.117558225612      0.000E+00 9.884E-21 0.000E+00

 At SCF step   75   max residual=  9.88E-21 < tolwfr=  1.00E-20 =>converged.

 ----iterations are completed or convergence reached----

 dfpt_looppert: DFPT cycle converged with prtwf=-1. Will skip output of the 1st-order WFK file.
 dfpt_looppert : ek2=    7.4671870996E+01
          f-sum rule ratio=    1.0139232995E+00
 prteigrs : about to open file /scratch/users/j/a/jabreu/flow_simple_11atoms/flow/w291/t1/tmpdata/tmp_1WF1_EIG
 Expectation of eigenvalue derivatives (hartree) for nkpt=   2  k points:
  (in case of degenerate eigenvalues, averaged derivative)
 kpt#   1, nband= 49, wtk=  0.50000, kpt=  0.0000  0.0000  0.0000 (reduced coord)
  -0.00000   -0.00000   -0.00000   -0.00000   -0.00000   -0.00000    0.00000    0.00000
  -0.00000   -0.00000    0.00000    0.00000    0.00000    0.00000    0.00000    0.00000
  -0.00000   -0.00000    0.00000   -0.00000   -0.00000    0.00000   -0.00000   -0.00000
   0.00000   -0.00000    0.00000    0.00000   -0.00000   -0.00000   -0.00000   -0.00000
   0.00000   -0.00000    0.00000    0.00000   -0.00000   -0.00000   -0.00000   -0.00000
  -0.00000    0.00000    0.00000   -0.00000   -0.00000   -0.00000   -0.00000   -0.00000
  -0.00001
 prteigrs : prtvol=0 or 1, do not print more k-points.

 Eight components of 2nd-order total energy (hartree) are
 1,2,3: 0th-order hamiltonian combined with 1st-order wavefunctions
     kin0=   5.97865926E+01 eigvalue=   3.71894606E-02  local=  -2.83693780E+01
 4,5,6: 1st-order hamiltonian combined with 1st and 0th-order wfs
     kin1=  -7.57115498E+01  Hartree=   0.00000000E+00     xc=   0.00000000E+00
 7,8,9: eventually, occupation + non-local contributions
    edocc=   7.46754545E+00     enl0=  -8.04391250E-01   enl1=  -5.23566630E-01
 1-9 gives the relaxation energy (to be shifted if some occ is /=2.0)
   erelax=  -3.81175582E+01
  No Ewald or frozen-wf contrib.: the relaxation energy is the total one
 2DEtotal=   -0.3811755823E+02 Ha. Also 2DEtotal=   -0.103723150868E+04 eV
    (  non-var. 2DEtotal :   -3.8117558225E+01 Ha)

 CALCULATION OF EFFECTIVE MASSES
 NOTE : Additional infos (eff. mass eigenvalues, eigenvectors and, if degenerate, average mass) are available in stdout.

 K-point ( 0.000, 0.000, 0.000) | band =    40
 Effective mass tensor:
            -67.7272052153           -125.5658663450             87.3416289867
           -125.5658663450           -241.2817630392            166.5305704624
             87.3416289867            166.5305704624           -117.7066931164
 Effective mass tensor eigenvalues:
           -422.9743325812             -1.8706643956             -1.8706643941
 Angular average effective mass 1/(<1/m>)=  -2.7998053228
 Angular average effective mass for Frohlich model (<m**0.5>)**2=  -4.2516508533
 Effective masses along directions: (cart. coord. / red. coord. -> eff. mass)
    1:   1.000000  0.000000  0.000000 /   0.869326 -0.494240  0.000000 ->  -2.2156359661
    2:   0.000000  1.000000  0.000000 /   0.000000  1.000000  0.000000 ->  -4.3104657021
    3:   0.000000  0.000000  1.000000 /  -0.256362 -0.256362  0.931964 ->  -2.5761782697
    4:   0.577350  0.577350  0.577350 /   0.565700 -0.025347  0.824221 ->  -2.1492759005
    5:   0.000000  0.707107  0.707107 /  -0.237474  0.445331  0.863300 ->  -1.9210460601
    6:   0.707107  0.000000  0.707107 /   0.468495 -0.560872  0.682594 ->  -1.8862937360
    7:   0.707107  0.707107  0.000000 /   0.969194  0.246300  0.000000 ->  -5.4653424685

 K-point ( 0.000, 0.000, 0.350) | band =    41
 Effective mass tensor:
              1.3670830474              0.1633893723             -0.1044868351
              0.1633893723              1.5929164116             -0.1992207013
             -0.1044868351             -0.1992207013              1.4519925833
 Effective mass tensor eigenvalues:
              1.2813888938              1.3134180418              1.8171851069
 Angular average effective mass 1/(<1/m>)=   1.4339815760
 Angular average effective mass for Frohlich model (<m**0.5>)**2=   1.4442438582
 Effective masses along directions: (cart. coord. / red. coord. -> eff. mass)
    1:   1.000000  0.000000  0.000000 /   0.869326 -0.494240  0.000000 ->   1.3453732666
    2:   0.000000  1.000000  0.000000 /   0.000000  1.000000  0.000000 ->   1.5492411540
    3:   0.000000  0.000000  1.000000 /  -0.256362 -0.256362  0.931964 ->   1.4218448007
    4:   0.577350  0.577350  0.577350 /   0.565700 -0.025347  0.824221 ->   1.3605175999
    5:   0.000000  0.707107  0.707107 /  -0.237474  0.445331  0.863300 ->   1.3194964930
    6:   0.707107  0.000000  0.707107 /   0.468495 -0.560872  0.682594 ->   1.3036479821
    7:   0.707107  0.707107  0.000000 /   0.969194  0.246300  0.000000 ->   1.6035482479

 END OF EFFECTIVE MASSES SECTION

 ---- first-order wavefunction calculations are completed ----

 Total localisation tensor (bohr^2) in cartesian coordinates
  WARNING : still subject to testing - especially symmetries.
      direction              matrix element
   alpha     beta       real part   imaginary part
     1        1       1.3595001074    0.0000000000
     1        2      -0.4805078905    0.0000000000
     1        3      -0.1268450887    0.0000000000
     2        1      -0.4805078905    0.0000000000
     2        2       0.6952901757    0.0000000000
     2        3      -0.2418164200    0.0000000000
     3        1      -0.1268450887    0.0000000000
     3        2      -0.2418164200    0.0000000000
     3        3       1.0279916437    0.0000000000

 respfn : d/dk was computed, but no 2DTE, so no DDB output.

== END DATASET(S) ==============================================================

 -outvars: echo values of variables after computation  --------
            acell      1.0000000000E+00  1.0000000000E+00  1.0000000000E+00 Bohr
              amu      8.89058500E+01  3.09737620E+01  1.59994000E+01
             ecut      4.40000000E+01 Hartree
           etotal     -3.8117558226E+01
            fcart      0.0000000000E+00  0.0000000000E+00  0.0000000000E+00
                       0.0000000000E+00  0.0000000000E+00  0.0000000000E+00
                       0.0000000000E+00  0.0000000000E+00  0.0000000000E+00
                       0.0000000000E+00  0.0000000000E+00  0.0000000000E+00
                       0.0000000000E+00  0.0000000000E+00  0.0000000000E+00
                       0.0000000000E+00  0.0000000000E+00  0.0000000000E+00
                       0.0000000000E+00  0.0000000000E+00  0.0000000000E+00
                       0.0000000000E+00  0.0000000000E+00  0.0000000000E+00
                       0.0000000000E+00  0.0000000000E+00  0.0000000000E+00
                       0.0000000000E+00  0.0000000000E+00  0.0000000000E+00
                       0.0000000000E+00  0.0000000000E+00  0.0000000000E+00
                       0.0000000000E+00  0.0000000000E+00  0.0000000000E+00
-          fftalg         512
           irdden           1
           irdwfk           1
           istwfk        1    0
              ixc     -116133
              kpt      0.00000000E+00  0.00000000E+00  0.00000000E+00
                       0.00000000E+00  0.00000000E+00  3.50000000E-01
           kptopt           0
P           mkmem           2
P          mkqmem           2
P          mk1mem           2
            natom          12
            nband          49
           nbdbuf           4
            ngfft          72      72      72
             nkpt           2
            nstep        2000
             nsym          16
           ntypat           3
              occ      2.000000  2.000000  2.000000  2.000000  2.000000  2.000000
                       2.000000  2.000000  2.000000  2.000000  2.000000  2.000000
                       2.000000  2.000000  2.000000  2.000000  2.000000  2.000000
                       2.000000  2.000000  2.000000  2.000000  2.000000  2.000000
                       2.000000  2.000000  2.000000  2.000000  2.000000  2.000000
                       2.000000  2.000000  2.000000  2.000000  2.000000  2.000000
                       2.000000  2.000000  2.000000  2.000000  0.000000  0.000000
                       0.000000  0.000000  0.000000  0.000000  0.000000  0.000000
                       0.000000
        optdriver           1
            prtwf          -1
            rfdir           1       1       1
           rfelfd           2
            rprim      1.0385552069E+01  0.0000000000E+00 -2.9714614913E+00
                      -5.9045233266E+00  8.5437869860E+00 -2.9714614913E+00
                       0.0000000000E+00  0.0000000000E+00  1.0802281017E+01
          spgroup         141
           strten      0.0000000000E+00  0.0000000000E+00  0.0000000000E+00
                       0.0000000000E+00  0.0000000000E+00  0.0000000000E+00
           symrel      1  0  0   0  1  0   0  0  1      -1  0  0   0 -1  0   0  0 -1
                      -1 -1 -1   0  0  1   0  1  0       1  1  1   0  0 -1   0 -1  0
                       0  1  0   1  0  0  -1 -1 -1       0 -1  0  -1  0  0   1  1  1
                       0  0  1  -1 -1 -1   1  0  0       0  0 -1   1  1  1  -1  0  0
                       0  1  0   1  0  0   0  0  1       0 -1  0  -1  0  0   0  0 -1
                      -1 -1 -1   0  0  1   1  0  0       1  1  1   0  0 -1  -1  0  0
                       1  0  0   0  1  0  -1 -1 -1      -1  0  0   0 -1  0   1  1  1
                       0  0  1  -1 -1 -1   0  1  0       0  0 -1   1  1  1   0 -1  0
            tnons      0.0000000  0.0000000  0.0000000     0.2500000 -0.2500000  0.5000000
                       0.2500000 -0.2500000  0.5000000     0.0000000  0.0000000  0.0000000
                       0.0000000  0.0000000  0.0000000     0.2500000 -0.2500000  0.5000000
                       0.2500000 -0.2500000  0.5000000     0.0000000  0.0000000  0.0000000
                       0.2500000 -0.2500000  0.5000000     0.0000000  0.0000000  0.0000000
                       0.0000000  0.0000000  0.0000000     0.2500000 -0.2500000  0.5000000
                       0.2500000 -0.2500000  0.5000000     0.0000000  0.0000000  0.0000000
                       0.0000000  0.0000000  0.0000000     0.2500000 -0.2500000  0.5000000
           tolwfr      1.00000000E-20
            typat      1  1  2  2  3  3  3  3  3  3  3  3
           useylm           1
              wtk        0.50000    0.50000
           xangst      3.3407132971E+00  1.1302943370E+00  1.2857307601E+00
                       1.1856291408E+00  2.2605886740E+00 -1.5724296974E+00
                       0.0000000000E+00  0.0000000000E+00  0.0000000000E+00
                      -9.6945501563E-01  3.3908830110E+00  1.2857307601E+00
                       1.9890616408E+00  3.9001484275E-01  3.0783462853E+00
                       4.9141028462E+00  7.2776487536E-01  2.9112619357E+00
                       1.3450880135E+00  7.2776487536E-01  2.2018582782E-01
                      -4.0039093876E-02  3.3261035820E+00  5.3101478170E-02
                      -3.8776040828E-01  2.6631181357E+00  2.5183600421E+00
                       2.5372807972E+00  3.0008681683E+00  2.3512756924E+00
                       4.5663815318E+00  6.4779429043E-02 -3.3980041545E-01
                       3.1812544244E+00  2.6631181357E+00 -5.0688476511E-01
            xcart      6.3130332201E+00  2.1359467465E+00  2.4296790172E+00
                       2.2405143712E+00  4.2718934930E+00 -2.9714614913E+00
                       0.0000000000E+00  0.0000000000E+00  0.0000000000E+00
                      -1.8320044777E+00  6.4078402395E+00  2.4296790173E+00
                       3.7587817624E+00  7.3702124056E-01  5.8172314215E+00
                       9.2863085681E+00  1.3752763036E+00  5.5014877595E+00
                       2.5418479701E+00  1.3752763036E+00  4.1609091293E-01
                      -7.5662922034E-02  6.2854248596E+00  1.0034725099E-01
                      -7.3276097682E-01  5.0325639359E+00  4.7590107835E+00
                       4.7947658289E+00  5.6708189989E+00  4.4432671216E+00
                       8.6292105133E+00  1.2241537994E-01 -6.4212972504E-01
                       6.0116996212E+00  5.0325639359E+00 -9.5787338698E-01
             xred      7.5000000000E-01  2.5000000000E-01  5.0000000000E-01
                       5.0000000000E-01  5.0000000000E-01  1.3877787808E-17
                       0.0000000000E+00  0.0000000000E+00  0.0000000000E+00
                       2.5000000000E-01  7.5000000000E-01  5.0000000000E-01
                       4.1096800000E-01  8.6264000000E-02  6.7529600000E-01
                       9.8567200000E-01  1.6096800000E-01  8.2470400000E-01
                       3.3626400000E-01  1.6096800000E-01  1.7529600000E-01
                       4.1096800000E-01  7.3567200000E-01  3.2470400000E-01
                       2.6432800000E-01  5.8903200000E-01  6.7529600000E-01
                       8.3903200000E-01  6.6373600000E-01  8.2470400000E-01
                       8.3903200000E-01  1.4328000000E-02  1.7529600000E-01
                       9.1373600000E-01  5.8903200000E-01  3.2470400000E-01
            znucl       39.00000   15.00000    8.00000

- Timing analysis has been suppressed with timopt=0

 Suggested references for the acknowledgment of ABINIT usage.

 Calculation completed.
.Delivered   2 WARNINGs and  11 COMMENTs to log file.