.Version 9.5.1 of ABINIT

 ABINIT is a project of the Universite Catholique de Louvain,
 Corning Inc. and other collaborators, see ~abinit/doc/developers/contributors.txt .
 acknowledgments of the ABINIT effort.

.Starting date : Fri 30 Apr 2021.
- ( at 11h27 )

- input  file    -> /scratch/users/j/a/jabreu/flow_simple_5atoms/flow/w183/t1/run.abi
- output file    -> /scratch/users/j/a/jabreu/flow_simple_5atoms/flow/w183/t1/run.abo
- root for input  files -> /scratch/users/j/a/jabreu/flow_simple_5atoms/flow/w183/t1/indata/in
- root for output files -> /scratch/users/j/a/jabreu/flow_simple_5atoms/flow/w183/t1/outdata/out

 Symmetries : space group Im m m (# 71); Bravais oI (body-center ortho.)
     intxc =       0      iscf =       7    lmnmax =      18     lnmax =       6
     mgfft =      64  mpssoang =       3    mqgrid =    3001     natom =       5
  nloc_mem =       1    nspden =       1   nspinor =       1    nsppol =       1
      nsym =       8    n1xccc =    2501    ntypat =       3    occopt =       1
   xclevel =       2
-    mband =          33        mffmem =           1         mkmem =           2
-   mkqmem =           2        mk1mem =           2           mpw =        7484
      nfft =      262144          nkpt =           2
  Rough estimation (10% accuracy) of disk space for files :

------------- Echo of variables that govern the present computation ------------
-
- outvars: echo of selected default values
-   iomode0 =  0 , fftalg0 =512 , wfoptalg0 =  0
-
- outvars: echo of global parameters not present in the input file
-  max_nthreads =    0
-
 -outvars: echo values of preprocessed input variables --------
            acell      1.0000000000E+00  1.0000000000E+00  1.0000000000E+00 Bohr
              amu      3.90983000E+01  1.06420000E+02  1.59994000E+01
             ecut      4.40000000E+01 Hartree
-          fftalg         512
           irdden           1
           irdwfk           1
           istwfk        1    0
              ixc     -116133
              kpt      0.00000000E+00  5.00000000E-01  0.00000000E+00
                       3.14516129E-01  1.85483871E-01  1.85483871E-01
           kptopt           0
P           mkmem           2
P          mkqmem           2
P          mk1mem           2
            natom           5
            nband          33
           nbdbuf           4
            ngfft          64      64      64
             nkpt           2
            nstep         100
             nsym           8
           ntypat           3
              occ      2.000000  2.000000  2.000000  2.000000  2.000000  2.000000
                       2.000000  2.000000  2.000000  2.000000  2.000000  2.000000
                       2.000000  2.000000  2.000000  2.000000  2.000000  2.000000
                       2.000000  2.000000  2.000000  2.000000  2.000000  2.000000
                       0.000000  0.000000  0.000000  0.000000  0.000000  0.000000
                       0.000000  0.000000  0.000000
        optdriver           1
            prtwf          -1
            rfdir           1       1       1
           rfelfd           2
            rprim      9.4308567738E+00  0.0000000000E+00 -4.0123891157E+00
                      -1.1231127822E+00  5.5377809333E+00 -8.5505512054E+00
                       0.0000000000E+00  0.0000000000E+00  1.0248918280E+01
          spgroup          71
           symrel      1  0  0   0  1  0   0  0  1      -1  0  0   0 -1  0   0  0 -1
                       0  0  1  -1 -1 -1   1  0  0       0  0 -1   1  1  1  -1  0  0
                      -1 -1 -1   0  0  1   0  1  0       1  1  1   0  0 -1   0 -1  0
                       0  1  0   1  0  0  -1 -1 -1       0 -1  0  -1  0  0   1  1  1
           tolwfr      1.00000000E-20
            typat      1  1  2  3  3
           useylm           1
              wtk        0.50000    0.50000
           xangst      1.1298088494E+00  2.4164253682E+00 -1.7084928428E+00
                       3.2664599257E+00  5.1404208787E-01  4.8396511830E-01
                       0.0000000000E+00  0.0000000000E+00  0.0000000000E+00
                       8.0395692803E-01  1.4652337280E+00  1.1775278209E+00
                       3.5923118471E+00  1.4652337280E+00 -2.4020555454E+00
            xcart      2.1350293079E+00  4.5663821664E+00 -3.2285835729E+00
                       6.1727146837E+00  9.7139876685E-01  9.1456153145E-01
                       0.0000000000E+00  0.0000000000E+00  0.0000000000E+00
                       1.5192584166E+00  2.7688904666E+00  2.2252050954E+00
                       6.7884855750E+00  2.7688904666E+00 -4.5392271368E+00
             xred      3.2458700000E-01  8.2458700000E-01  5.0000000000E-01
                       6.7541300000E-01  1.7541300000E-01  5.0000000000E-01
                       0.0000000000E+00  0.0000000000E+00  0.0000000000E+00
                       2.2063900000E-01  5.0000000000E-01  7.2063900000E-01
                       7.7936100000E-01  5.0000000000E-01  2.7936100000E-01
            znucl       19.00000   46.00000    8.00000

 chkinp: Checking input parameters for consistency.

== DATASET  1 ==================================================================
-   mpi_nproc: 1, omp_nthreads: -1 (-1 if OMP is not activated)

--- !DatasetInfo
iteration_state: {dtset: 1, }
dimensions: {natom: 5, nkpt: 2, mband: 33, nsppol: 1, nspinor: 1, nspden: 1, mpw: 7484, }
cutoff_energies: {ecut:  44.0, pawecutdg:  -1.0, }
electrons: {nelect:   4.80000000E+01, charge:   0.00000000E+00, occopt:   1.00000000E+00, tsmear:   1.00000000E-02, }
meta: {optdriver: 1, rfelfd: 2, }
...

 Real(R)+Recip(G) space primitive vectors, cartesian coordinates (Bohr,Bohr^-1):
 R(1)=  9.4308568  0.0000000 -4.0123891  G(1)=  0.1060349  0.0215049  0.0000000
 R(2)= -1.1231128  5.5377809 -8.5505512  G(2)=  0.0000000  0.1805777  0.0000000
 R(3)=  0.0000000  0.0000000 10.2489183  G(3)=  0.0415120  0.1590729  0.0975713
 Unit cell volume ucvol=  5.3526020E+02 bohr^3
 Angles (23,13,12)=  1.46541789E+02  1.13047487E+02  7.69511287E+01 degrees

 getcut: wavevector=  0.0000  0.0000  0.0000  ngfft=  64  64  64
         ecut(hartree)=     44.000   => boxcut(ratio)=   2.09181

--- Pseudopotential description ------------------------------------------------
- pspini: atom type   1  psp file is /scratch/users/j/a/jabreu/pseudos/PBEsol/K.psp8
- pspatm: opening atomic psp file    /scratch/users/j/a/jabreu/pseudos/PBEsol/K.psp8
- K     ONCVPSP-3.3.0  r_core=   1.36296   1.46408   1.61068
- 19.00000   9.00000    180112                znucl, zion, pspdat
    8 -116133    2    4       400   0.00000   pspcod,pspxc,lmax,lloc,mmax,r2well
    3.99000000000000    5.00000000000000    0.00000000000000   rchrg,fchrg,qchrg
     nproj     2     2     2
     extension_switch     1
  pspatm : epsatm=    8.32487830
         --- l  ekb(1:nproj) -->
             0   10.921326    0.816676
             1    4.431000    0.560368
             2   -3.384038   -1.043186
 pspatm: atomic psp has been read  and splines computed

- pspini: atom type   2  psp file is /scratch/users/j/a/jabreu/pseudos/PBEsol/Pd.psp8
- pspatm: opening atomic psp file    /scratch/users/j/a/jabreu/pseudos/PBEsol/Pd.psp8
- Pd    ONCVPSP-3.3.0  r_core=   1.41052   1.46191   1.55175
- 46.00000  18.00000    180112                znucl, zion, pspdat
    8 -116133    2    4       600   0.00000   pspcod,pspxc,lmax,lloc,mmax,r2well
    5.99000000000000    7.00000000000000    0.00000000000000   rchrg,fchrg,qchrg
     nproj     2     2     2
     extension_switch     1
  pspatm : epsatm=   26.17262427
         --- l  ekb(1:nproj) -->
             0    7.952303   -2.096627
             1    3.304793   -0.572651
             2   -1.185452   -0.410427
 pspatm: atomic psp has been read  and splines computed

- pspini: atom type   3  psp file is /scratch/users/j/a/jabreu/pseudos/PBEsol/O.psp8
- pspatm: opening atomic psp file    /scratch/users/j/a/jabreu/pseudos/PBEsol/O.psp8
- O     ONCVPSP-3.3.0  r_core=   1.35509   1.45563   1.26150
-  8.00000   6.00000    180112                znucl, zion, pspdat
    8 -116133    2    4       600   0.00000   pspcod,pspxc,lmax,lloc,mmax,r2well
    5.99000000000000    4.00000000000000    0.00000000000000   rchrg,fchrg,qchrg
     nproj     2     2     1
     extension_switch     1
  pspatm : epsatm=    6.22910522
         --- l  ekb(1:nproj) -->
             0    6.050032    0.820363
             1   -4.739617   -1.153841
             2   -1.335834
 pspatm: atomic psp has been read  and splines computed

   2.65346838E+03                                ecore*ucvol(ha*bohr**3)

-inwffil : will read wavefunctions from disk file /scratch/users/j/a/jabreu/flow_simple_5atoms/flow/w183/t1/indata/in_WFK

 ==>  initialize data related to q vector <==

 The list of irreducible perturbations for this q vector is:
    1)    idir= 1    ipert=   6
    2)    idir= 2    ipert=   6
    3)    idir= 3    ipert=   6

 Perturbation wavevector (in red.coord.)   0.000000  0.000000  0.000000
 Perturbation : derivative vs k along direction   1

 dfpt_looppert : COMMENT -
  In a d/dk calculation, iscf is set to -3 automatically.
 The set of symmetries contains only one element for this perturbation.
 symkpt : not enough symmetry to change the number of k points.

[...]

 Initialisation of the first-order wave-functions :
  ireadwf=   0

--- !BeginCycle
iteration_state: {dtset: 1, }
solver: {iscf: 7, nstep: 100, nline: 4, wfoptalg: 0, }
tolerances: {tolwfr: 1.00E-20, }
...

     iter   2DEtotal(Ha)        deltaE(Ha) residm    vres2
-ETOT  1  -21.553482408128     -2.155E+01 1.371E-01 0.000E+00
 ETOT  2  -21.583877635842     -3.040E-02 1.090E-02 0.000E+00
 ETOT  3  -21.584073021058     -1.954E-04 1.341E-03 0.000E+00
 ETOT  4  -21.584074974388     -1.953E-06 1.273E-04 0.000E+00
 ETOT  5  -21.584074999693     -2.531E-08 1.692E-05 0.000E+00
 ETOT  6  -21.584075000063     -3.700E-10 1.593E-06 0.000E+00
 ETOT  7  -21.584075000069     -5.929E-12 2.322E-07 0.000E+00
 ETOT  8  -21.584075000069     -1.137E-13 2.250E-08 0.000E+00
 ETOT  9  -21.584075000069      1.421E-14 3.382E-09 0.000E+00
 ETOT 10  -21.584075000069      3.553E-14 3.407E-10 0.000E+00
 ETOT 11  -21.584075000069     -1.776E-14 5.069E-11 0.000E+00
 ETOT 12  -21.584075000069      1.066E-14 5.307E-12 0.000E+00
 ETOT 13  -21.584075000069     -7.105E-15 7.723E-13 0.000E+00
 ETOT 14  -21.584075000069      3.553E-15 8.400E-14 0.000E+00
 ETOT 15  -21.584075000069      0.000E+00 1.191E-14 0.000E+00
 ETOT 16  -21.584075000069      0.000E+00 1.346E-15 0.000E+00
 ETOT 17  -21.584075000069     -3.553E-15 1.854E-16 0.000E+00
 ETOT 18  -21.584075000069      3.553E-15 2.175E-17 0.000E+00
 ETOT 19  -21.584075000069     -3.553E-15 2.913E-18 0.000E+00
 ETOT 20  -21.584075000069      3.553E-15 3.542E-19 0.000E+00
 ETOT 21  -21.584075000069      0.000E+00 4.614E-20 0.000E+00
 ETOT 22  -21.584075000069      0.000E+00 9.864E-21 0.000E+00

 At SCF step   22   max residual=  9.86E-21 < tolwfr=  1.00E-20 =>converged.

 ----iterations are completed or convergence reached----

 dfpt_looppert: DFPT cycle converged with prtwf=-1. Will skip output of the 1st-order WFK file.
 dfpt_looppert : ek2=    4.4364366389E+01
          f-sum rule ratio=    9.9941445090E-01
 prteigrs : about to open file /scratch/users/j/a/jabreu/flow_simple_5atoms/flow/w183/t1/tmpdata/tmp_1WF1_EIG
 Expectation of eigenvalue derivatives (hartree) for nkpt=   2  k points:
  (in case of degenerate eigenvalues, averaged derivative)
 kpt#   1, nband= 33, wtk=  0.50000, kpt=  0.0000  0.5000  0.0000 (reduced coord)
  -0.00000    0.00000    0.00000    0.00000    0.00000    0.00000   -0.00000   -0.00000
   0.00000    0.00000   -0.00000    0.00000   -0.00000   -0.00000   -0.00000   -0.00000
  -0.00000   -0.00000   -0.00000    0.00000   -0.00000   -0.00000    0.00000    0.00000
   0.00000    0.00000    0.00000   -0.00000    0.00000    0.00000    0.00000    0.00006
  -0.00069
 prteigrs : prtvol=0 or 1, do not print more k-points.

 Eight components of 2nd-order total energy (hartree) are
 1,2,3: 0th-order hamiltonian combined with 1st-order wavefunctions
     kin0=   2.97228524E+01 eigvalue=  -2.75489437E-01  local=  -1.40337098E+01
 4,5,6: 1st-order hamiltonian combined with 1st and 0th-order wfs
     kin1=  -4.43383889E+01  Hartree=   0.00000000E+00     xc=   0.00000000E+00
 7,8,9: eventually, occupation + non-local contributions
    edocc=   5.76709324E+00     enl0=   4.03328586E-01   enl1=   1.17023887E+00
 1-9 gives the relaxation energy (to be shifted if some occ is /=2.0)
   erelax=  -2.15840750E+01
  No Ewald or frozen-wf contrib.: the relaxation energy is the total one
 2DEtotal=   -0.2158407500E+02 Ha. Also 2DEtotal=   -0.587332550090E+03 eV
    (  non-var. 2DEtotal :   -2.1584075000E+01 Ha)

 Perturbation wavevector (in red.coord.)   0.000000  0.000000  0.000000
 Perturbation : derivative vs k along direction   2
 The set of symmetries contains only one element for this perturbation.
 symkpt : not enough symmetry to change the number of k points.

[...]

 Perturbation wavevector (in red.coord.)   0.000000  0.000000  0.000000
 Perturbation : derivative vs k along direction   3
 The set of symmetries contains only one element for this perturbation.
 symkpt : not enough symmetry to change the number of k points.

-inwffil : will read wavefunctions from disk file /scratch/users/j/a/jabreu/flow_simple_5atoms/flow/w183/t1/indata/in_WFK

 Initialisation of the first-order wave-functions :
  ireadwf=   0

--- !BeginCycle
iteration_state: {dtset: 1, }
solver: {iscf: 7, nstep: 100, nline: 4, wfoptalg: 0, }
tolerances: {tolwfr: 1.00E-20, }
...

     iter   2DEtotal(Ha)        deltaE(Ha) residm    vres2
-ETOT  1  -64.891116203951     -6.489E+01 2.654E-01 0.000E+00
 ETOT  2  -65.011040590801     -1.199E-01 1.776E-02 0.000E+00
 ETOT  3  -65.011957152052     -9.166E-04 1.800E-03 0.000E+00
 ETOT  4  -65.011969510771     -1.236E-05 1.356E-04 0.000E+00
 ETOT  5  -65.011969727410     -2.166E-07 1.961E-05 0.000E+00
 ETOT  6  -65.011969731594     -4.184E-09 1.525E-06 0.000E+00
 ETOT  7  -65.011969731679     -8.538E-11 2.456E-07 0.000E+00
 ETOT  8  -65.011969731681     -1.933E-12 1.945E-08 0.000E+00
 ETOT  9  -65.011969731681      1.421E-14 3.223E-09 0.000E+00
 ETOT 10  -65.011969731681      4.263E-14 2.811E-10 0.000E+00
 ETOT 11  -65.011969731681      2.842E-14 4.351E-11 0.000E+00
 ETOT 12  -65.011969731681     -1.137E-13 4.609E-12 0.000E+00
 ETOT 13  -65.011969731681      5.684E-14 5.997E-13 0.000E+00
 ETOT 14  -65.011969731681     -1.421E-14 8.857E-14 0.000E+00
 ETOT 15  -65.011969731681      1.421E-14 8.414E-15 0.000E+00
 ETOT 16  -65.011969731681      0.000E+00 2.015E-15 0.000E+00
 ETOT 17  -65.011969731681      2.842E-14 1.853E-16 0.000E+00
 ETOT 18  -65.011969731681     -2.842E-14 5.158E-17 0.000E+00
 ETOT 19  -65.011969731681      0.000E+00 4.643E-18 0.000E+00
 ETOT 20  -65.011969731681      0.000E+00 1.394E-18 0.000E+00
 ETOT 21  -65.011969731681      0.000E+00 1.231E-19 0.000E+00
 ETOT 22  -65.011969731681      0.000E+00 3.840E-20 0.000E+00
 ETOT 23  -65.011969731681      0.000E+00 9.928E-21 0.000E+00

 At SCF step   23   max residual=  9.93E-21 < tolwfr=  1.00E-20 =>converged.

 ----iterations are completed or convergence reached----

 dfpt_looppert: DFPT cycle converged with prtwf=-1. Will skip output of the 1st-order WFK file.
 dfpt_looppert : ek2=    1.3851272602E+02
          f-sum rule ratio=    9.6054859959E-01
 prteigrs : about to open file /scratch/users/j/a/jabreu/flow_simple_5atoms/flow/w183/t1/tmpdata/tmp_1WF1_EIG
 Expectation of eigenvalue derivatives (hartree) for nkpt=   2  k points:
  (in case of degenerate eigenvalues, averaged derivative)
 kpt#   1, nband= 33, wtk=  0.50000, kpt=  0.0000  0.5000  0.0000 (reduced coord)
  -0.00000    0.00000   -0.00000   -0.00000    0.00000    0.00000    0.00000   -0.00000
   0.00000   -0.00000   -0.00000    0.00000   -0.00000   -0.00000    0.00000    0.00000
  -0.00000    0.00000   -0.00000    0.00000   -0.00000    0.00000   -0.00000    0.00000
  -0.00000   -0.00000   -0.00000   -0.00000    0.00000    0.00000   -0.00000    0.00006
  -0.00058
 prteigrs : prtvol=0 or 1, do not print more k-points.

 Eight components of 2nd-order total energy (hartree) are
 1,2,3: 0th-order hamiltonian combined with 1st-order wavefunctions
     kin0=   9.37657186E+01 eigvalue=  -1.01653664E+00  local=  -4.53459403E+01
 4,5,6: 1st-order hamiltonian combined with 1st and 0th-order wfs
     kin1=  -1.33048205E+02  Hartree=   0.00000000E+00     xc=   0.00000000E+00
 7,8,9: eventually, occupation + non-local contributions
    edocc=   1.64137456E+01     enl0=   1.19498257E+00   enl1=   3.02426554E+00
 1-9 gives the relaxation energy (to be shifted if some occ is /=2.0)
   erelax=  -6.50119697E+01
  No Ewald or frozen-wf contrib.: the relaxation energy is the total one
 2DEtotal=   -0.6501196973E+02 Ha. Also 2DEtotal=   -0.176906566386E+04 eV
    (  non-var. 2DEtotal :   -6.5011969732E+01 Ha)

 CALCULATION OF EFFECTIVE MASSES
 NOTE : Additional infos (eff. mass eigenvalues, eigenvectors and, if degenerate, average mass) are available in stdout.

 K-point ( 0.000, 0.500, 0.000) | band =    24
 Effective mass tensor:
           -138.7213958589           -100.0004225007            205.5877867370
           -100.0004225007            -74.0816439276            151.2068291827
            205.5877867370            151.2068291827           -313.6172272666
 Effective mass tensor eigenvalues:
           -522.8183479778             -2.7560710979             -0.8458479775
 Angular average effective mass 1/(<1/m>)=  -1.9392452639
 Angular average effective mass for Frohlich model (<m**0.5>)**2=  -3.3693024734
 Effective masses along directions: (cart. coord. / red. coord. -> eff. mass)
    1:   1.000000  0.000000  0.000000 /   0.992983 -0.118254  0.000000 ->  -3.2960706615
    2:   0.000000  1.000000  0.000000 /   0.000000  1.000000  0.000000 ->  -0.9836343530
    3:   0.000000  0.000000  1.000000 /  -0.287886 -0.613496  0.735353 ->  -4.4059831056
    4:   0.577350  0.577350  0.577350 /   0.440212 -0.336011  0.832652 ->  -1.5318605622
    5:   0.000000  0.707107  0.707107 /  -0.351617 -0.264018  0.898142 ->  -1.0376237415
    6:   0.707107  0.000000  0.707107 /   0.358863 -0.640682  0.678781 ->  -2.8165182077
    7:   0.707107  0.707107  0.000000 /   0.905682  0.423958  0.000000 ->  -2.3046284878

--- !WARNING
src_file: m_efmas.F90
src_line: 0
message: |

    Band(s)    25,
    are not band extrema, but saddle points;
    the transport equivalent formalism breaks down in these conditions.
    The associated tensor(s) will therefore not be printed.
...

 K-point ( 0.315, 0.185, 0.185) | band =    25
 Effective mass tensor:
     *** SADDLE POINT: TRANSPORT EQV. EFF. MASS NOT DEFINED (see WARNING above) ***
 Angular average effective mass 1/(<1/m>)=   3.9023384846
 Angular average effective mass for Frohlich model (<m**0.5>)**2=  10.3624769855
 Effective masses along directions: (cart. coord. / red. coord. -> eff. mass)
    1:   1.000000  0.000000  0.000000 /   0.992983 -0.118254  0.000000 ->   2.0362653681
    2:   0.000000  1.000000  0.000000 /   0.000000  1.000000  0.000000 ->   9.9601188939
    3:   0.000000  0.000000  1.000000 /  -0.287886 -0.613496  0.735353 ->   5.6409765215
    4:   0.577350  0.577350  0.577350 /   0.440212 -0.336011  0.832652 ->   2.0957651910
    5:   0.000000  0.707107  0.707107 /  -0.351617 -0.264018  0.898142 ->   5.4803981760
    6:   0.707107  0.000000  0.707107 /   0.358863 -0.640682  0.678781 ->   1.5628758381
    7:   0.707107  0.707107  0.000000 /   0.905682  0.423958  0.000000 ->   3.5997204239

 END OF EFFECTIVE MASSES SECTION

 ---- first-order wavefunction calculations are completed ----

 Total localisation tensor (bohr^2) in cartesian coordinates
  WARNING : still subject to testing - especially symmetries.
      direction              matrix element
   alpha     beta       real part   imaginary part
     1        1       0.6602582749    0.0000000000
     1        2      -0.1302194050    0.0000000000
     1        3      -0.0686090962    0.0000000000
     2        1      -0.1302194050    0.0000000000
     2        2       0.6420784714    0.0000000000
     2        3      -0.9913943714    0.0000000000
     3        1      -0.0686090962    0.0000000000
     3        2      -0.9913943714    0.0000000000
     3        3       4.1050765910    0.0000000000

 respfn : d/dk was computed, but no 2DTE, so no DDB output.

== END DATASET(S) ==============================================================

 -outvars: echo values of variables after computation  --------
            acell      1.0000000000E+00  1.0000000000E+00  1.0000000000E+00 Bohr
              amu      3.90983000E+01  1.06420000E+02  1.59994000E+01
             ecut      4.40000000E+01 Hartree
           etotal     -6.5011969732E+01
            fcart      0.0000000000E+00  0.0000000000E+00  0.0000000000E+00
                       0.0000000000E+00  0.0000000000E+00  0.0000000000E+00
                       0.0000000000E+00  0.0000000000E+00  0.0000000000E+00
                       0.0000000000E+00  0.0000000000E+00  0.0000000000E+00
                       0.0000000000E+00  0.0000000000E+00  0.0000000000E+00
-          fftalg         512
           irdden           1
           irdwfk           1
           istwfk        1    0
              ixc     -116133
              kpt      0.00000000E+00  5.00000000E-01  0.00000000E+00
                       3.14516129E-01  1.85483871E-01  1.85483871E-01
           kptopt           0
P           mkmem           2
P          mkqmem           2
P          mk1mem           2
            natom           5
            nband          33
           nbdbuf           4
            ngfft          64      64      64
             nkpt           2
            nstep         100
             nsym           8
           ntypat           3
              occ      2.000000  2.000000  2.000000  2.000000  2.000000  2.000000
                       2.000000  2.000000  2.000000  2.000000  2.000000  2.000000
                       2.000000  2.000000  2.000000  2.000000  2.000000  2.000000
                       2.000000  2.000000  2.000000  2.000000  2.000000  2.000000
                       0.000000  0.000000  0.000000  0.000000  0.000000  0.000000
                       0.000000  0.000000  0.000000
        optdriver           1
            prtwf          -1
            rfdir           1       1       1
           rfelfd           2
            rprim      9.4308567738E+00  0.0000000000E+00 -4.0123891157E+00
                      -1.1231127822E+00  5.5377809333E+00 -8.5505512054E+00
                       0.0000000000E+00  0.0000000000E+00  1.0248918280E+01
          spgroup          71
           strten      0.0000000000E+00  0.0000000000E+00  0.0000000000E+00
                       0.0000000000E+00  0.0000000000E+00  0.0000000000E+00
           symrel      1  0  0   0  1  0   0  0  1      -1  0  0   0 -1  0   0  0 -1
                       0  0  1  -1 -1 -1   1  0  0       0  0 -1   1  1  1  -1  0  0
                      -1 -1 -1   0  0  1   0  1  0       1  1  1   0  0 -1   0 -1  0
                       0  1  0   1  0  0  -1 -1 -1       0 -1  0  -1  0  0   1  1  1
           tolwfr      1.00000000E-20
            typat      1  1  2  3  3
           useylm           1
              wtk        0.50000    0.50000
           xangst      1.1298088494E+00  2.4164253682E+00 -1.7084928428E+00
                       3.2664599257E+00  5.1404208787E-01  4.8396511830E-01
                       0.0000000000E+00  0.0000000000E+00  0.0000000000E+00
                       8.0395692803E-01  1.4652337280E+00  1.1775278209E+00
                       3.5923118471E+00  1.4652337280E+00 -2.4020555454E+00
            xcart      2.1350293079E+00  4.5663821664E+00 -3.2285835729E+00
                       6.1727146837E+00  9.7139876685E-01  9.1456153145E-01
                       0.0000000000E+00  0.0000000000E+00  0.0000000000E+00
                       1.5192584166E+00  2.7688904666E+00  2.2252050954E+00
                       6.7884855750E+00  2.7688904666E+00 -4.5392271368E+00
             xred      3.2458700000E-01  8.2458700000E-01  5.0000000000E-01
                       6.7541300000E-01  1.7541300000E-01  5.0000000000E-01
                       0.0000000000E+00  0.0000000000E+00  0.0000000000E+00
                       2.2063900000E-01  5.0000000000E-01  7.2063900000E-01
                       7.7936100000E-01  5.0000000000E-01  2.7936100000E-01
            znucl       19.00000   46.00000    8.00000

- Timing analysis has been suppressed with timopt=0

 Suggested references for the acknowledgment of ABINIT usage.

 Calculation completed.
.Delivered  15 WARNINGs and   9 COMMENTs to log file.