.Version 9.5.1 of ABINIT

 ABINIT is a project of the Universite Catholique de Louvain,
 Corning Inc. and other collaborators, see ~abinit/doc/developers/contributors.txt .
 acknowledgments of the ABINIT effort.

.Starting date : Wed 19 May 2021.
- ( at 12h08 )

- input  file    -> /scratch/users/j/a/jabreu/flow_simple_9atoms/flow/w152/t1/run.abi
- output file    -> /scratch/users/j/a/jabreu/flow_simple_9atoms/flow/w152/t1/run.abo
- root for input  files -> /scratch/users/j/a/jabreu/flow_simple_9atoms/flow/w152/t1/indata/in
- root for output files -> /scratch/users/j/a/jabreu/flow_simple_9atoms/flow/w152/t1/outdata/out

 Symmetries : space group P3 1 2 (#149); Bravais hP (primitive hexag.)
     intxc =       0      iscf =       7    lmnmax =      18     lnmax =       6
     mgfft =      75  mpssoang =       3    mqgrid =    3608     natom =       9
  nloc_mem =       1    nspden =       1   nspinor =       1    nsppol =       1
      nsym =       6    n1xccc =    2501    ntypat =       4    occopt =       1
   xclevel =       2
-    mband =          42        mffmem =           1         mkmem =           2
-   mkqmem =           2        mk1mem =           2           mpw =       13408
      nfft =      270000          nkpt =           2
  Rough estimation (10% accuracy) of disk space for files :

------------- Echo of variables that govern the present computation ------------
-
- outvars: echo of selected default values
-   iomode0 =  0 , fftalg0 =512 , wfoptalg0 =  0
-
- outvars: echo of global parameters not present in the input file
-  max_nthreads =    0
-
 -outvars: echo values of preprocessed input variables --------
            acell      1.0000000000E+00  1.0000000000E+00  1.0000000000E+00 Bohr
              amu      8.54678000E+01  7.26100000E+01  1.26904470E+02
                       1.59994000E+01
             ecut      4.40000000E+01 Hartree
-          fftalg         512
           irdden           1
           irdwfk           1
           istwfk        0    1
              ixc     -116133
              kpt      1.86666667E-01  1.86666667E-01  0.00000000E+00
                       0.00000000E+00  0.00000000E+00  0.00000000E+00
           kptopt           0
P           mkmem           2
P          mkqmem           2
P          mk1mem           2
            natom           9
            nband          42
           nbdbuf           4
            ngfft          60      60      75
             nkpt           2
            nstep        2000
             nsym           6
           ntypat           4
              occ      2.000000  2.000000  2.000000  2.000000  2.000000  2.000000
                       2.000000  2.000000  2.000000  2.000000  2.000000  2.000000
                       2.000000  2.000000  2.000000  2.000000  2.000000  2.000000
                       2.000000  2.000000  2.000000  2.000000  2.000000  2.000000
                       2.000000  2.000000  2.000000  2.000000  2.000000  2.000000
                       2.000000  2.000000  2.000000  0.000000  0.000000  0.000000
                       0.000000  0.000000  0.000000  0.000000  0.000000  0.000000
        optdriver           1
            prtwf          -1
            rfdir           1       1       1
           rfelfd           2
            rprim      9.5901935031E+00  0.0000000000E+00  0.0000000000E+00
                      -4.7950967516E+00  8.3053512009E+00  0.0000000000E+00
                       0.0000000000E+00  0.0000000000E+00  1.2080260371E+01
          spgroup         149
           symrel      1  0  0   0  1  0   0  0  1       0 -1  0  -1  0  0   0  0 -1
                       0  1  0  -1 -1  0   0  0  1       1  1  0   0 -1  0   0  0 -1
                      -1 -1  0   1  0  0   0  0  1      -1  0  0   1  1  0   0  0 -1
           tolwfr      1.00000000E-20
            typat      1  2  3  4  4  4  4  4  4
           useylm           1
              wtk        0.50000    0.50000
           xangst      0.0000000000E+00  0.0000000000E+00  0.0000000000E+00
                      -1.7639241746E-11  2.9300017099E+00  3.1962992310E+00
                       2.5374559139E+00  1.4650008550E+00  3.1962992310E+00
                       5.9374692164E-01  4.3903541171E+00  2.1079337725E+00
                      -9.6782882232E-01  1.6856255887E+00  4.2846646896E+00
                       1.5615757440E+00  2.7140254239E+00  4.2846646896E+00
                      -5.9374692169E-01  4.3903541171E+00  4.2846646896E+00
                       9.6782882230E-01  1.6856255887E+00  2.1079337725E+00
                      -1.5615757440E+00  2.7140254239E+00  2.1079337725E+00
            xcart      0.0000000000E+00  0.0000000000E+00  0.0000000000E+00
                      -3.3333336091E-11  5.5369008006E+00  6.0401301854E+00
                       4.7950967515E+00  2.7684504003E+00  6.0401301854E+00
                       1.1220190741E+00  8.2965669078E+00  3.9834175362E+00
                      -1.8289314177E+00  3.1853707252E+00  8.0968428346E+00
                       2.9509504918E+00  5.1287647688E+00  8.0968428346E+00
                      -1.1220190742E+00  8.2965669078E+00  8.0968428346E+00
                       1.8289314177E+00  3.1853707252E+00  3.9834175362E+00
                      -2.9509504919E+00  5.1287647688E+00  3.9834175362E+00
             xred      0.0000000000E+00  0.0000000000E+00  0.0000000000E+00
                       3.3333333333E-01  6.6666666667E-01  5.0000000000E-01
                       6.6666666667E-01  3.3333333333E-01  5.0000000000E-01
                       6.1646766667E-01  9.9894233333E-01  3.2974600000E-01
                       1.0576666667E-03  3.8353233333E-01  6.7025400000E-01
                       6.1646766667E-01  6.1752533333E-01  6.7025400000E-01
                       3.8247466667E-01  9.9894233333E-01  6.7025400000E-01
                       3.8247466667E-01  3.8353233333E-01  3.2974600000E-01
                       1.0576666667E-03  6.1752533333E-01  3.2974600000E-01
            znucl       37.00000   32.00000   53.00000    8.00000

 chkinp: Checking input parameters for consistency.

== DATASET  1 ==================================================================
-   mpi_nproc: 1, omp_nthreads: -1 (-1 if OMP is not activated)

--- !DatasetInfo
iteration_state: {dtset: 1, }
dimensions: {natom: 9, nkpt: 2, mband: 42, nsppol: 1, nspinor: 1, nspden: 1, mpw: 13408, }
cutoff_energies: {ecut:  44.0, pawecutdg:  -1.0, }
electrons: {nelect:   6.60000000E+01, charge:   0.00000000E+00, occopt:   1.00000000E+00, tsmear:   1.00000000E-02, }
meta: {optdriver: 1, rfelfd: 2, }
...

 Real(R)+Recip(G) space primitive vectors, cartesian coordinates (Bohr,Bohr^-1):
 R(1)=  9.5901935  0.0000000  0.0000000  G(1)=  0.1042732  0.0602022  0.0000000
 R(2)= -4.7950968  8.3053512  0.0000000  G(2)=  0.0000000  0.1204043  0.0000000
 R(3)=  0.0000000  0.0000000 12.0802604  G(3)=  0.0000000  0.0000000  0.0827797
 Unit cell volume ucvol=  9.6219183E+02 bohr^3
 Angles (23,13,12)=  9.00000000E+01  9.00000000E+01  1.20000000E+02 degrees

 getcut: wavevector=  0.0000  0.0000  0.0000  ngfft=  60  60  75
         ecut(hartree)=     44.000   => boxcut(ratio)=   2.05146

--- Pseudopotential description ------------------------------------------------
- pspini: atom type   1  psp file is /scratch/users/j/a/jabreu/pseudos/PBEsol/Rb.psp8
- pspatm: opening atomic psp file    /scratch/users/j/a/jabreu/pseudos/PBEsol/Rb.psp8
- Rb    ONCVPSP-3.3.0  r_core=   1.71227   1.75361   1.90633
- 37.00000   9.00000    180112                znucl, zion, pspdat
    8 -116133    2    4       600   0.00000   pspcod,pspxc,lmax,lloc,mmax,r2well
    5.99000000000000    7.00000000000000    0.00000000000000   rchrg,fchrg,qchrg
     nproj     2     2     2
     extension_switch     1
  pspatm : epsatm=   34.48400912
         --- l  ekb(1:nproj) -->
             0    8.196957   -0.477221
             1    3.231347   -0.378736
             2   -1.047201    0.996637
 pspatm: atomic psp has been read  and splines computed

- pspini: atom type   2  psp file is /scratch/users/j/a/jabreu/pseudos/PBEsol/Ge.psp8
- pspatm: opening atomic psp file    /scratch/users/j/a/jabreu/pseudos/PBEsol/Ge.psp8
- Ge    ONCVPSP-3.3.0  r_core=   1.91022   1.82122   1.91022
- 32.00000  14.00000    180112                znucl, zion, pspdat
    8 -116133    2    4       600   0.00000   pspcod,pspxc,lmax,lloc,mmax,r2well
    5.99000000000000    5.00000000000000    0.00000000000000   rchrg,fchrg,qchrg
     nproj     2     2     2
     extension_switch     1
  pspatm : epsatm=   30.86751540
         --- l  ekb(1:nproj) -->
             0    6.339734    0.583066
             1    3.813259    0.738801
             2   -9.332373   -3.602819
 pspatm: atomic psp has been read  and splines computed

[...]

- pspini: atom type   4  psp file is /scratch/users/j/a/jabreu/pseudos/PBEsol/O.psp8
- pspatm: opening atomic psp file    /scratch/users/j/a/jabreu/pseudos/PBEsol/O.psp8
- O     ONCVPSP-3.3.0  r_core=   1.35509   1.45563   1.26150
-  8.00000   6.00000    180112                znucl, zion, pspdat
    8 -116133    2    4       600   0.00000   pspcod,pspxc,lmax,lloc,mmax,r2well
    5.99000000000000    4.00000000000000    0.00000000000000   rchrg,fchrg,qchrg
     nproj     2     2     1
     extension_switch     1
  pspatm : epsatm=    6.22910522
         --- l  ekb(1:nproj) -->
             0    6.050032    0.820363
             1   -4.739617   -1.153841
             2   -1.335834
 pspatm: atomic psp has been read  and splines computed

   7.97731778E+03                                ecore*ucvol(ha*bohr**3)

-inwffil : will read wavefunctions from disk file /scratch/users/j/a/jabreu/flow_simple_9atoms/flow/w152/t1/indata/in_WFK

 ==>  initialize data related to q vector <==

 The list of irreducible perturbations for this q vector is:
    1)    idir= 1    ipert=  10
    2)    idir= 2    ipert=  10
    3)    idir= 3    ipert=  10

 Perturbation wavevector (in red.coord.)   0.000000  0.000000  0.000000
 Perturbation : derivative vs k along direction   1

 dfpt_looppert : COMMENT -
  In a d/dk calculation, iscf is set to -3 automatically.
 The set of symmetries contains only one element for this perturbation.
 symkpt : not enough symmetry to change the number of k points.

[...]

 Initialisation of the first-order wave-functions :
  ireadwf=   0

--- !BeginCycle
iteration_state: {dtset: 1, }
solver: {iscf: 7, nstep: 2000, nline: 4, wfoptalg: 0, }
tolerances: {tolwfr: 1.00E-20, }
...

     iter   2DEtotal(Ha)        deltaE(Ha) residm    vres2
-ETOT  1  -52.509354571866     -5.251E+01 8.436E-02 0.000E+00
 ETOT  2  -52.580742848603     -7.139E-02 8.408E-03 0.000E+00
 ETOT  3  -52.581390373299     -6.475E-04 3.970E-04 0.000E+00
 ETOT  4  -52.581403111521     -1.274E-05 7.916E-05 0.000E+00
 ETOT  5  -52.581403412161     -3.006E-07 5.495E-06 0.000E+00
 ETOT  6  -52.581403419765     -7.604E-09 1.262E-06 0.000E+00
 ETOT  7  -52.581403419964     -1.994E-10 1.078E-07 0.000E+00
 ETOT  8  -52.581403419970     -5.400E-12 2.267E-08 0.000E+00
 ETOT  9  -52.581403419970     -1.279E-13 2.803E-09 0.000E+00
 ETOT 10  -52.581403419970      2.842E-14 5.829E-10 0.000E+00
 ETOT 11  -52.581403419970     -6.395E-14 7.734E-11 0.000E+00
 ETOT 12  -52.581403419970      2.132E-14 1.644E-11 0.000E+00
 ETOT 13  -52.581403419970      7.105E-15 2.192E-12 0.000E+00
 ETOT 14  -52.581403419970      7.105E-15 4.720E-13 0.000E+00
 ETOT 15  -52.581403419970     -7.105E-15 6.295E-14 0.000E+00
 ETOT 16  -52.581403419970      2.132E-14 1.368E-14 0.000E+00
 ETOT 17  -52.581403419970     -1.421E-14 1.823E-15 0.000E+00
 ETOT 18  -52.581403419970      1.421E-14 3.986E-16 0.000E+00
 ETOT 19  -52.581403419970      1.421E-14 5.303E-17 0.000E+00
 ETOT 20  -52.581403419970     -2.842E-14 1.166E-17 0.000E+00
 ETOT 21  -52.581403419970      0.000E+00 1.549E-18 0.000E+00
 ETOT 22  -52.581403419970      7.105E-15 3.420E-19 0.000E+00
 ETOT 23  -52.581403419970      7.105E-15 4.536E-20 0.000E+00
 ETOT 24  -52.581403419970     -1.421E-14 1.005E-20 0.000E+00
 ETOT 25  -52.581403419970     -7.105E-15 9.866E-21 0.000E+00

 At SCF step   25   max residual=  9.87E-21 < tolwfr=  1.00E-20 =>converged.

 ----iterations are completed or convergence reached----

 dfpt_looppert: DFPT cycle converged with prtwf=-1. Will skip output of the 1st-order WFK file.
 dfpt_looppert : ek2=    7.5547076768E+01
          f-sum rule ratio=    1.0318859554E+00
 prteigrs : about to open file /scratch/users/j/a/jabreu/flow_simple_9atoms/flow/w152/t1/tmpdata/tmp_1WF1_EIG
 Expectation of eigenvalue derivatives (hartree) for nkpt=   2  k points:
  (in case of degenerate eigenvalues, averaged derivative)
 kpt#   1, nband= 42, wtk=  0.50000, kpt=  0.1867  0.1867  0.0000 (reduced coord)
  -0.00168    0.00063   -0.00057    0.00004    0.00060    0.00067    0.04671   -0.09282
  -0.01805    0.04084   -0.04459    0.01153    0.12960   -0.01065   -0.00296   -0.00741
  -0.08945    0.05510    0.01437    0.03275    0.04788    0.07176   -0.11262   -0.14148
   0.00310   -0.03565   -0.01173    0.02566    0.01474   -0.00717    0.02172   -0.00765
   0.00147    0.06206    0.06097   -0.01452    0.01479   -0.00326    0.06947   -0.02746
   0.04494    0.09652
 prteigrs : prtvol=0 or 1, do not print more k-points.

 Eight components of 2nd-order total energy (hartree) are
 1,2,3: 0th-order hamiltonian combined with 1st-order wavefunctions
     kin0=   6.61419799E+01 eigvalue=   5.05691720E+00  local=  -2.71753831E+01
 4,5,6: 1st-order hamiltonian combined with 1st and 0th-order wfs
     kin1=  -7.79559675E+01  Hartree=   0.00000000E+00     xc=   0.00000000E+00
 7,8,9: eventually, occupation + non-local contributions
    edocc=   9.03922824E+00     enl0=  -4.81338843E-01   enl1=  -2.72068394E+01
 1-9 gives the relaxation energy (to be shifted if some occ is /=2.0)
   erelax=  -5.25814034E+01
  No Ewald or frozen-wf contrib.: the relaxation energy is the total one
 2DEtotal=   -0.5258140342E+02 Ha. Also 2DEtotal=   -0.143081275236E+04 eV
    (  non-var. 2DEtotal :   -5.2581403420E+01 Ha)

 Perturbation wavevector (in red.coord.)   0.000000  0.000000  0.000000
 Perturbation : derivative vs k along direction   2
 The set of symmetries contains only one element for this perturbation.
 symkpt : not enough symmetry to change the number of k points.

[...]

 Perturbation wavevector (in red.coord.)   0.000000  0.000000  0.000000
 Perturbation : derivative vs k along direction   3
 The set of symmetries contains only one element for this perturbation.
 symkpt : not enough symmetry to change the number of k points.

-inwffil : will read wavefunctions from disk file /scratch/users/j/a/jabreu/flow_simple_9atoms/flow/w152/t1/indata/in_WFK

 Initialisation of the first-order wave-functions :
  ireadwf=   0

--- !BeginCycle
iteration_state: {dtset: 1, }
solver: {iscf: 7, nstep: 2000, nline: 4, wfoptalg: 0, }
tolerances: {tolwfr: 1.00E-20, }
...

     iter   2DEtotal(Ha)        deltaE(Ha) residm    vres2
-ETOT  1  -24.734121717297     -2.473E+01 4.731E-02 0.000E+00
 ETOT  2  -24.763119166039     -2.900E-02 4.854E-03 0.000E+00
 ETOT  3  -24.763361224005     -2.421E-04 1.561E-04 0.000E+00
 ETOT  4  -24.763366171301     -4.947E-06 3.508E-05 0.000E+00
 ETOT  5  -24.763366293603     -1.223E-07 1.932E-06 0.000E+00
 ETOT  6  -24.763366296844     -3.241E-09 5.807E-07 0.000E+00
 ETOT  7  -24.763366296933     -8.894E-11 3.087E-08 0.000E+00
 ETOT  8  -24.763366296935     -2.505E-12 9.730E-09 0.000E+00
 ETOT  9  -24.763366296935     -8.527E-14 5.147E-10 0.000E+00
 ETOT 10  -24.763366296935      0.000E+00 1.684E-10 0.000E+00
 ETOT 11  -24.763366296935     -2.487E-14 9.051E-12 0.000E+00
 ETOT 12  -24.763366296935      2.132E-14 3.064E-12 0.000E+00
 ETOT 13  -24.763366296935      1.066E-14 1.690E-13 0.000E+00
 ETOT 14  -24.763366296935     -7.105E-15 5.916E-14 0.000E+00
 ETOT 15  -24.763366296935     -3.553E-15 3.368E-15 0.000E+00
 ETOT 16  -24.763366296935      0.000E+00 1.215E-15 0.000E+00
 ETOT 17  -24.763366296935     -3.553E-15 7.118E-17 0.000E+00
 ETOT 18  -24.763366296935      3.553E-15 2.634E-17 0.000E+00
 ETOT 19  -24.763366296935     -3.553E-15 1.574E-18 0.000E+00
 ETOT 20  -24.763366296935      3.553E-15 5.933E-19 0.000E+00
 ETOT 21  -24.763366296935      0.000E+00 3.586E-20 0.000E+00
 ETOT 22  -24.763366296935      7.105E-15 1.369E-20 0.000E+00
 ETOT 23  -24.763366296935     -3.553E-15 9.993E-21 0.000E+00

 At SCF step   23   max residual=  9.99E-21 < tolwfr=  1.00E-20 =>converged.

 ----iterations are completed or convergence reached----

 dfpt_looppert: DFPT cycle converged with prtwf=-1. Will skip output of the 1st-order WFK file.
 dfpt_looppert : ek2=    3.5709278719E+01
          f-sum rule ratio=    1.0222429161E+00
 prteigrs : about to open file /scratch/users/j/a/jabreu/flow_simple_9atoms/flow/w152/t1/tmpdata/tmp_1WF1_EIG
 Expectation of eigenvalue derivatives (hartree) for nkpt=   2  k points:
  (in case of degenerate eigenvalues, averaged derivative)
 kpt#   1, nband= 42, wtk=  0.50000, kpt=  0.1867  0.1867  0.0000 (reduced coord)
   0.00000    0.00005   -0.00000    0.00001   -0.00000   -0.00008    0.00002    0.00013
   0.00025    0.00044   -0.00035   -0.00115    0.00107   -0.00607    0.00652    0.01537
  -0.01161    0.00269   -0.00012   -0.01150   -0.01011   -0.00216    0.00356   -0.00677
   0.00063   -0.00063    0.01378    0.00024   -0.00580    0.01727    0.00353    0.00300
  -0.00019   -0.00292   -0.00419   -0.01486    0.00240   -0.00476    0.00241    0.01175
   0.00371   -0.02582
 prteigrs : prtvol=0 or 1, do not print more k-points.

 Eight components of 2nd-order total energy (hartree) are
 1,2,3: 0th-order hamiltonian combined with 1st-order wavefunctions
     kin0=   3.28743269E+01 eigvalue=   2.49693197E+00  local=  -1.37497211E+01
 4,5,6: 1st-order hamiltonian combined with 1st and 0th-order wfs
     kin1=  -3.65035572E+01  Hartree=   0.00000000E+00     xc=   0.00000000E+00
 7,8,9: eventually, occupation + non-local contributions
    edocc=   3.42533297E+00     enl0=  -2.83504401E-01   enl1=  -1.30231754E+01
 1-9 gives the relaxation energy (to be shifted if some occ is /=2.0)
   erelax=  -2.47633663E+01
  No Ewald or frozen-wf contrib.: the relaxation energy is the total one
 2DEtotal=   -0.2476336630E+02 Ha. Also 2DEtotal=   -0.673845465972E+03 eV
    (  non-var. 2DEtotal :   -2.4763366297E+01 Ha)

 CALCULATION OF EFFECTIVE MASSES
 NOTE : Additional infos (eff. mass eigenvalues, eigenvectors and, if degenerate, average mass) are available in stdout.

 K-point ( 0.187, 0.187, 0.000) | band =    33
 Effective mass tensor:
            -10.4085688415              3.8423909496              0.5040952294
              3.8423909496             -5.9723240849              0.8794841255
              0.5040952294              0.8794841255            -36.8413817053
 Effective mass tensor eigenvalues:
            -36.8724098008            -12.6271154090             -3.7227494218
 Angular average effective mass 1/(<1/m>)=  -8.0014110078
 Angular average effective mass for Frohlich model (<m**0.5>)**2= -10.1295669641
 Effective masses along directions: (cart. coord. / red. coord. -> eff. mass)
    1:   1.000000  0.000000  0.000000 /   0.894427 -0.447214  0.000000 ->  -7.9053229425
    2:   0.000000  1.000000  0.000000 /   0.000000  1.000000  0.000000 ->  -4.5230400980
    3:   0.000000  0.000000  1.000000 /   0.000000  0.000000  1.000000 -> -36.5676315445
    4:   0.577350  0.577350  0.577350 /   0.606263  0.221908  0.763677 ->  -5.3671247635
    5:   0.000000  0.707107  0.707107 /   0.000000  0.566537  0.824036 ->  -7.6559530543
    6:   0.707107  0.000000  0.707107 /   0.593735 -0.296867  0.747896 -> -12.4056504302
    7:   0.707107  0.707107  0.000000 /   0.939071  0.343724  0.000000 ->  -3.9105203468

 K-point ( 0.000, 0.000, 0.000) | band =    34
 Effective mass tensor:
              0.5250300693             -0.0000000009             -0.0000000097
             -0.0000000009              0.5250300594              0.0000000106
             -0.0000000097              0.0000000106              1.1192992711
 Effective mass tensor eigenvalues:
              0.5250300593              0.5250300694              1.1192992711
 Angular average effective mass 1/(<1/m>)=   0.6379284470
 Angular average effective mass for Frohlich model (<m**0.5>)**2=   0.6590182075
 Effective masses along directions: (cart. coord. / red. coord. -> eff. mass)
    1:   1.000000  0.000000  0.000000 /   0.894427 -0.447214  0.000000 ->   0.5250300693
    2:   0.000000  1.000000  0.000000 /   0.000000  1.000000  0.000000 ->   0.5250300594
    3:   0.000000  0.000000  1.000000 /   0.000000  0.000000  1.000000 ->   1.1192992711
    4:   0.577350  0.577350  0.577350 /   0.606263  0.221908  0.763677 ->   0.6379284466
    5:   0.000000  0.707107  0.707107 /   0.000000  0.566537  0.824036 ->   0.7147786754
    6:   0.707107  0.000000  0.707107 /   0.593735 -0.296867  0.747896 ->   0.7147786669
    7:   0.707107  0.707107  0.000000 /   0.939071  0.343724  0.000000 ->   0.5250300635

 END OF EFFECTIVE MASSES SECTION

 ---- first-order wavefunction calculations are completed ----

 Total localisation tensor (bohr^2) in cartesian coordinates
  WARNING : still subject to testing - especially symmetries.
      direction              matrix element
   alpha     beta       real part   imaginary part
     1        1       1.3303693397    0.0000000000
     1        2      -0.4608537401    0.0000000000
     1        3       0.0000000000    0.0000000000
     2        1      -0.4608537401    0.0000000000
     2        2       0.7982220927    0.0000000000
     2        3       0.0000000000    0.0000000000
     3        1       0.0000000000    0.0000000000
     3        2       0.0000000000    0.0000000000
     3        3       0.7151544187    0.0000000000

 respfn : d/dk was computed, but no 2DTE, so no DDB output.

== END DATASET(S) ==============================================================

 -outvars: echo values of variables after computation  --------
            acell      1.0000000000E+00  1.0000000000E+00  1.0000000000E+00 Bohr
              amu      8.54678000E+01  7.26100000E+01  1.26904470E+02
                       1.59994000E+01
             ecut      4.40000000E+01 Hartree
           etotal     -2.4763366297E+01
            fcart      0.0000000000E+00  0.0000000000E+00  0.0000000000E+00
                       0.0000000000E+00  0.0000000000E+00  0.0000000000E+00
                       0.0000000000E+00  0.0000000000E+00  0.0000000000E+00
                       0.0000000000E+00  0.0000000000E+00  0.0000000000E+00
                       0.0000000000E+00  0.0000000000E+00  0.0000000000E+00
                       0.0000000000E+00  0.0000000000E+00  0.0000000000E+00
                       0.0000000000E+00  0.0000000000E+00  0.0000000000E+00
                       0.0000000000E+00  0.0000000000E+00  0.0000000000E+00
                       0.0000000000E+00  0.0000000000E+00  0.0000000000E+00
-          fftalg         512
           irdden           1
           irdwfk           1
           istwfk        0    1
              ixc     -116133
              kpt      1.86666667E-01  1.86666667E-01  0.00000000E+00
                       0.00000000E+00  0.00000000E+00  0.00000000E+00
           kptopt           0
P           mkmem           2
P          mkqmem           2
P          mk1mem           2
            natom           9
            nband          42
           nbdbuf           4
            ngfft          60      60      75
             nkpt           2
            nstep        2000
             nsym           6
           ntypat           4
              occ      2.000000  2.000000  2.000000  2.000000  2.000000  2.000000
                       2.000000  2.000000  2.000000  2.000000  2.000000  2.000000
                       2.000000  2.000000  2.000000  2.000000  2.000000  2.000000
                       2.000000  2.000000  2.000000  2.000000  2.000000  2.000000
                       2.000000  2.000000  2.000000  2.000000  2.000000  2.000000
                       2.000000  2.000000  2.000000  0.000000  0.000000  0.000000
                       0.000000  0.000000  0.000000  0.000000  0.000000  0.000000
        optdriver           1
            prtwf          -1
            rfdir           1       1       1
           rfelfd           2
            rprim      9.5901935031E+00  0.0000000000E+00  0.0000000000E+00
                      -4.7950967516E+00  8.3053512009E+00  0.0000000000E+00
                       0.0000000000E+00  0.0000000000E+00  1.2080260371E+01
          spgroup         149
           strten      0.0000000000E+00  0.0000000000E+00  0.0000000000E+00
                       0.0000000000E+00  0.0000000000E+00  0.0000000000E+00
           symrel      1  0  0   0  1  0   0  0  1       0 -1  0  -1  0  0   0  0 -1
                       0  1  0  -1 -1  0   0  0  1       1  1  0   0 -1  0   0  0 -1
                      -1 -1  0   1  0  0   0  0  1      -1  0  0   1  1  0   0  0 -1
           tolwfr      1.00000000E-20
            typat      1  2  3  4  4  4  4  4  4
           useylm           1
              wtk        0.50000    0.50000
           xangst      0.0000000000E+00  0.0000000000E+00  0.0000000000E+00
                      -1.7639241746E-11  2.9300017099E+00  3.1962992310E+00
                       2.5374559139E+00  1.4650008550E+00  3.1962992310E+00
                       5.9374692164E-01  4.3903541171E+00  2.1079337725E+00
                      -9.6782882232E-01  1.6856255887E+00  4.2846646896E+00
                       1.5615757440E+00  2.7140254239E+00  4.2846646896E+00
                      -5.9374692169E-01  4.3903541171E+00  4.2846646896E+00
                       9.6782882230E-01  1.6856255887E+00  2.1079337725E+00
                      -1.5615757440E+00  2.7140254239E+00  2.1079337725E+00
            xcart      0.0000000000E+00  0.0000000000E+00  0.0000000000E+00
                      -3.3333336091E-11  5.5369008006E+00  6.0401301854E+00
                       4.7950967515E+00  2.7684504003E+00  6.0401301854E+00
                       1.1220190741E+00  8.2965669078E+00  3.9834175362E+00
                      -1.8289314177E+00  3.1853707252E+00  8.0968428346E+00
                       2.9509504918E+00  5.1287647688E+00  8.0968428346E+00
                      -1.1220190742E+00  8.2965669078E+00  8.0968428346E+00
                       1.8289314177E+00  3.1853707252E+00  3.9834175362E+00
                      -2.9509504919E+00  5.1287647688E+00  3.9834175362E+00
             xred      0.0000000000E+00  0.0000000000E+00  0.0000000000E+00
                       3.3333333333E-01  6.6666666667E-01  5.0000000000E-01
                       6.6666666667E-01  3.3333333333E-01  5.0000000000E-01
                       6.1646766667E-01  9.9894233333E-01  3.2974600000E-01
                       1.0576666667E-03  3.8353233333E-01  6.7025400000E-01
                       6.1646766667E-01  6.1752533333E-01  6.7025400000E-01
                       3.8247466667E-01  9.9894233333E-01  6.7025400000E-01
                       3.8247466667E-01  3.8353233333E-01  3.2974600000E-01
                       1.0576666667E-03  6.1752533333E-01  3.2974600000E-01
            znucl       37.00000   32.00000   53.00000    8.00000

- Timing analysis has been suppressed with timopt=0

 Suggested references for the acknowledgment of ABINIT usage.

 Calculation completed.
.Delivered  14 WARNINGs and   9 COMMENTs to log file.