.Version 9.5.1 of ABINIT

 ABINIT is a project of the Universite Catholique de Louvain,
 Corning Inc. and other collaborators, see ~abinit/doc/developers/contributors.txt .
 acknowledgments of the ABINIT effort.

.Starting date : Wed 19 May 2021.
- ( at 01h50 )

- input  file    -> /scratch/users/j/a/jabreu/flow_simple_8atoms/flow/w486/t1/run.abi
- output file    -> /scratch/users/j/a/jabreu/flow_simple_8atoms/flow/w486/t1/run.abo
- root for input  files -> /scratch/users/j/a/jabreu/flow_simple_8atoms/flow/w486/t1/indata/in
- root for output files -> /scratch/users/j/a/jabreu/flow_simple_8atoms/flow/w486/t1/outdata/out

 Symmetries : space group I-4 2 d (#122); Bravais tI (body-center tetrag.)
     intxc =       0      iscf =       7    lmnmax =      18     lnmax =       6
     mgfft =      80  mpssoang =       3    mqgrid =    3001     natom =       8
  nloc_mem =       1    nspden =       1   nspinor =       1    nsppol =       1
      nsym =       8    n1xccc =    2501    ntypat =       3    occopt =       1
   xclevel =       2
-    mband =          53        mffmem =           1         mkmem =           1
-   mkqmem =           1        mk1mem =           1           mpw =       14755
      nfft =      512000          nkpt =           1
  Rough estimation (10% accuracy) of disk space for files :

------------- Echo of variables that govern the present computation ------------
-
- outvars: echo of selected default values
-   iomode0 =  0 , fftalg0 =512 , wfoptalg0 =  0
-
- outvars: echo of global parameters not present in the input file
-  max_nthreads =    0
-
 -outvars: echo values of preprocessed input variables --------
            acell      1.0000000000E+00  1.0000000000E+00  1.0000000000E+00 Bohr
              amu      6.97230000E+01  6.35460000E+01  3.20660000E+01
             ecut      4.60000000E+01 Hartree
-          fftalg         512
           irdden           1
           irdwfk           1
           istwfk        1
              ixc     -116133
           kptopt           0
P           mkmem           1
P          mkqmem           1
P          mk1mem           1
            natom           8
            nband          53
           nbdbuf           4
            ngfft          80      80      80
             nkpt           1
            nstep        2000
             nsym           8
           ntypat           3
              occ      2.000000  2.000000  2.000000  2.000000  2.000000  2.000000
                       2.000000  2.000000  2.000000  2.000000  2.000000  2.000000
                       2.000000  2.000000  2.000000  2.000000  2.000000  2.000000
                       2.000000  2.000000  2.000000  2.000000  2.000000  2.000000
                       2.000000  2.000000  2.000000  2.000000  2.000000  2.000000
                       2.000000  2.000000  2.000000  2.000000  2.000000  2.000000
                       2.000000  2.000000  2.000000  2.000000  2.000000  2.000000
                       2.000000  2.000000  0.000000  0.000000  0.000000  0.000000
                       0.000000  0.000000  0.000000  0.000000  0.000000
        optdriver           1
            prtwf          -1
            rfdir           1       1       1
           rfelfd           2
            rprim      9.0970740144E+00  0.0000000000E+00 -8.0720971551E+00
                      -1.8388033748E+00  8.9092961435E+00 -8.0720971551E+00
                       0.0000000000E+00  0.0000000000E+00  1.2162051969E+01
          spgroup         122
           symrel      1  0  0   0  1  0   0  0  1      -1 -1 -1   0  0  1   0  1  0
                       0  1  0   1  0  0  -1 -1 -1       0  0  1  -1 -1 -1   1  0  0
                       0  1  0   1  0  0   0  0  1      -1 -1 -1   0  0  1   1  0  0
                       1  0  0   0  1  0  -1 -1 -1       0  0  1  -1 -1 -1   0  1  0
            tnons      0.0000000  0.0000000  0.0000000    -0.2500000  0.2500000  0.5000000
                      -0.0000000  0.0000000 -0.0000000    -0.2500000  0.2500000  0.5000000
                      -0.2500000  0.2500000  0.5000000     0.0000000  0.0000000 -0.0000000
                      -0.2500000  0.2500000  0.5000000     0.0000000  0.0000000  0.0000000
           tolwfr      1.00000000E-20
            typat      1  1  2  2  3  3  3  3
           useylm           1
           xangst      4.7370143055E-01  3.5359473478E+00 -1.0536294841E+00
                       1.9204556981E+00  2.3572982319E+00 -4.2715698400E+00
                       0.0000000000E+00  0.0000000000E+00  0.0000000000E+00
                       3.3672099657E+00  1.1786491159E+00 -1.0536294841E+00
                       3.3558417136E+00  4.1492833455E+00 -4.2462840288E+00
                       2.9116135610E+00  5.8932455796E-01 -3.1926545447E+00
                       1.4452975317E+00  1.7439622341E+00  3.2401406739E-03
                      -3.0930013820E-02  2.9466227898E+00  3.2211804966E+00
            xcart      8.9516597250E-01  6.6819721076E+00 -1.9910711704E+00
                       3.6291353198E+00  4.4546480717E+00 -8.0720971551E+00
                       0.0000000000E+00  0.0000000000E+00  0.0000000000E+00
                       6.3631046671E+00  2.2273240359E+00 -1.9910711704E+00
                       6.3416217841E+00  7.8410091708E+00 -8.0243138969E+00
                       5.5021522351E+00  1.1136620179E+00 -6.0332427265E+00
                       2.7312165154E+00  3.2956110086E+00  6.1229785058E-03
                      -5.8449255405E-02  5.5683100897E+00  6.0871489632E+00
             xred      2.5000000000E-01  7.5000000000E-01  5.0000000000E-01
                       5.0000000000E-01  5.0000000000E-01 -5.5511151231E-17
                       0.0000000000E+00  0.0000000000E+00  0.0000000000E+00
                       7.5000000000E-01  2.5000000000E-01  5.0000000000E-01
                       8.7500000000E-01  8.8009300000E-01  5.0509300000E-01
                       6.3009300000E-01  1.2500000000E-01  5.0930000000E-03
                       3.7500000000E-01  3.6990700000E-01  4.9490700000E-01
                       1.1990700000E-01  6.2500000000E-01  9.9490700000E-01
            znucl       31.00000   29.00000   16.00000

 chkinp: Checking input parameters for consistency.

== DATASET  1 ==================================================================
-   mpi_nproc: 1, omp_nthreads: -1 (-1 if OMP is not activated)

--- !DatasetInfo
iteration_state: {dtset: 1, }
dimensions: {natom: 8, nkpt: 1, mband: 53, nsppol: 1, nspinor: 1, nspden: 1, mpw: 14755, }
cutoff_energies: {ecut:  46.0, pawecutdg:  -1.0, }
electrons: {nelect:   8.80000000E+01, charge:   0.00000000E+00, occopt:   1.00000000E+00, tsmear:   1.00000000E-02, }
meta: {optdriver: 1, rfelfd: 2, }
...

 Real(R)+Recip(G) space primitive vectors, cartesian coordinates (Bohr,Bohr^-1):
 R(1)=  9.0970740  0.0000000 -8.0720972  G(1)=  0.1099255  0.0226877  0.0000000
 R(2)= -1.8388034  8.9092961 -8.0720972  G(2)=  0.0000000  0.1122423  0.0000000
 R(3)=  0.0000000  0.0000000 12.1620520  G(3)=  0.0729588  0.0895546  0.0822230
 Unit cell volume ucvol=  9.8571639E+02 bohr^3
 Angles (23,13,12)=  1.31583572E+02  1.31583572E+02  7.08875296E+01 degrees

 getcut: wavevector=  0.0000  0.0000  0.0000  ngfft=  80  80  80
         ecut(hartree)=     46.000   => boxcut(ratio)=   2.15497

--- Pseudopotential description ------------------------------------------------
- pspini: atom type   1  psp file is /scratch/users/j/a/jabreu/pseudos/PBEsol/Ga.psp8
- pspatm: opening atomic psp file    /scratch/users/j/a/jabreu/pseudos/PBEsol/Ga.psp8
- Ga    ONCVPSP-3.3.0  r_core=   1.66857   1.75011   1.90252
- 31.00000  13.00000    180112                znucl, zion, pspdat
    8 -116133    2    4       600   0.00000   pspcod,pspxc,lmax,lloc,mmax,r2well
    5.99000000000000    5.00000000000000    0.00000000000000   rchrg,fchrg,qchrg
     nproj     2     2     2
     extension_switch     1
  pspatm : epsatm=   24.50969055
         --- l  ekb(1:nproj) -->
             0    7.053021    1.156713
             1    6.846070    1.293139
             2   -8.368667   -2.819170
 pspatm: atomic psp has been read  and splines computed

- pspini: atom type   2  psp file is /scratch/users/j/a/jabreu/pseudos/PBEsol/Cu.psp8
- pspatm: opening atomic psp file    /scratch/users/j/a/jabreu/pseudos/PBEsol/Cu.psp8
- Cu    ONCVPSP-3.3.0  r_core=   1.26204   1.45626   1.76249
- 29.00000  19.00000    180112                znucl, zion, pspdat
    8 -116133    2    4       600   0.00000   pspcod,pspxc,lmax,lloc,mmax,r2well
    5.99000000000000    3.50000000000000    0.00000000000000   rchrg,fchrg,qchrg
     nproj     2     2     2
     extension_switch     1
  pspatm : epsatm=   21.63488701
         --- l  ekb(1:nproj) -->
             0    5.008230   -0.401634
             1   -3.496700   -0.765945
             2   -6.895851   -2.521180
 pspatm: atomic psp has been read  and splines computed

- pspini: atom type   3  psp file is /scratch/users/j/a/jabreu/pseudos/PBEsol/S.psp8
- pspatm: opening atomic psp file    /scratch/users/j/a/jabreu/pseudos/PBEsol/S.psp8
- S     ONCVPSP-3.3.0  r_core=   1.45376   1.45376   1.61851
- 16.00000   6.00000    180112                znucl, zion, pspdat
    8 -116133    2    4       600   0.00000   pspcod,pspxc,lmax,lloc,mmax,r2well
    5.99000000000000    6.00000000000000    0.00000000000000   rchrg,fchrg,qchrg
     nproj     2     2     2
     extension_switch     1
  pspatm : epsatm=    8.71840985
         --- l  ekb(1:nproj) -->
             0    6.834532    0.579453
             1    3.282851    0.896984
             2   -3.496974   -0.974265
 pspatm: atomic psp has been read  and splines computed

   1.11903259E+04                                ecore*ucvol(ha*bohr**3)

-inwffil : will read wavefunctions from disk file /scratch/users/j/a/jabreu/flow_simple_8atoms/flow/w486/t1/indata/in_WFK

 ==>  initialize data related to q vector <==

 The list of irreducible perturbations for this q vector is:
    1)    idir= 1    ipert=   9
    2)    idir= 2    ipert=   9
    3)    idir= 3    ipert=   9

 Perturbation wavevector (in red.coord.)   0.000000  0.000000  0.000000
 Perturbation : derivative vs k along direction   1

 dfpt_looppert : COMMENT -
  In a d/dk calculation, iscf is set to -3 automatically.
 The set of symmetries contains only one element for this perturbation.
 symkpt : not enough symmetry to change the number of k points.

[...]

 Initialisation of the first-order wave-functions :
  ireadwf=   0

--- !BeginCycle
iteration_state: {dtset: 1, }
solver: {iscf: 7, nstep: 2000, nline: 4, wfoptalg: 0, }
tolerances: {tolwfr: 1.00E-20, }
...

     iter   2DEtotal(Ha)        deltaE(Ha) residm    vres2
-ETOT  1  -73.528988741646     -7.353E+01 1.532E-01 0.000E+00
 ETOT  2  -73.740278727950     -2.113E-01 2.459E-02 0.000E+00
 ETOT  3  -73.747853720734     -7.575E-03 3.646E-03 0.000E+00
 ETOT  4  -73.748325928191     -4.722E-04 1.288E-03 0.000E+00
 ETOT  5  -73.748361619819     -3.569E-05 2.582E-04 0.000E+00
 ETOT  6  -73.748364578679     -2.959E-06 1.086E-04 0.000E+00
 ETOT  7  -73.748364842064     -2.634E-07 2.268E-05 0.000E+00
 ETOT  8  -73.748364866674     -2.461E-08 9.618E-06 0.000E+00
[...]
 ETOT 36  -73.748364869334     -2.842E-14 4.431E-20 0.000E+00
 ETOT 37  -73.748364869334      4.263E-14 1.161E-20 0.000E+00
 ETOT 38  -73.748364869334     -2.842E-14 8.839E-21 0.000E+00

 At SCF step   38   max residual=  8.84E-21 < tolwfr=  1.00E-20 =>converged.

 ----iterations are completed or convergence reached----

 dfpt_looppert: DFPT cycle converged with prtwf=-1. Will skip output of the 1st-order WFK file.
 dfpt_looppert : ek2=    8.7535781711E+01
          f-sum rule ratio=    1.1973816878E+00
 prteigrs : about to open file /scratch/users/j/a/jabreu/flow_simple_8atoms/flow/w486/t1/tmpdata/tmp_1WF1_EIG
 Expectation of eigenvalue derivatives (hartree) for nkpt=   1  k points:
  (in case of degenerate eigenvalues, averaged derivative)
 kpt#   1, nband= 53, wtk=  1.00000, kpt=  0.0000  0.0000  0.0000 (reduced coord)
   0.00000   -0.00000   -0.00000   -0.00000    0.00000    0.00000    0.00000    0.00000
  -0.00000   -0.00000    0.00000    0.00000   -0.00000   -0.00000    0.00000   -0.00000
   0.00000   -0.00000   -0.00000   -0.00000   -0.00000   -0.00000    0.00000    0.00000
  -0.00000   -0.00000    0.00000    0.00000    0.00000    0.00000    0.00000   -0.00000
  -0.00000   -0.00000   -0.00000   -0.00000    0.00000   -0.00000   -0.00000    0.00000
   0.00000   -0.00000   -0.00000    0.00000   -0.00000    0.00000   -0.00000    0.00000
   0.00000    0.00000   -0.00000   -0.00000   -0.00002

 Eight components of 2nd-order total energy (hartree) are
 1,2,3: 0th-order hamiltonian combined with 1st-order wavefunctions
     kin0=   8.32169684E+01 eigvalue=   1.11167538E+00  local=  -3.28057794E+01
 4,5,6: 1st-order hamiltonian combined with 1st and 0th-order wfs
     kin1=  -1.04813742E+02  Hartree=   0.00000000E+00     xc=   0.00000000E+00
 7,8,9: eventually, occupation + non-local contributions
    edocc=   1.85422831E+01     enl0=   3.68321744E+00   enl1=  -4.26829877E+01
 1-9 gives the relaxation energy (to be shifted if some occ is /=2.0)
   erelax=  -7.37483649E+01
  No Ewald or frozen-wf contrib.: the relaxation energy is the total one
 2DEtotal=   -0.7374836487E+02 Ha. Also 2DEtotal=   -0.200679506551E+04 eV
    (  non-var. 2DEtotal :   -7.3748364869E+01 Ha)

 Perturbation wavevector (in red.coord.)   0.000000  0.000000  0.000000
 Perturbation : derivative vs k along direction   2
 The set of symmetries contains only one element for this perturbation.
 symkpt : not enough symmetry to change the number of k points.

[...]

 Perturbation wavevector (in red.coord.)   0.000000  0.000000  0.000000
 Perturbation : derivative vs k along direction   3
 The set of symmetries contains only one element for this perturbation.
 symkpt : not enough symmetry to change the number of k points.

-inwffil : will read wavefunctions from disk file /scratch/users/j/a/jabreu/flow_simple_8atoms/flow/w486/t1/indata/in_WFK

 Initialisation of the first-order wave-functions :
  ireadwf=   0

--- !BeginCycle
iteration_state: {dtset: 1, }
solver: {iscf: 7, nstep: 2000, nline: 4, wfoptalg: 0, }
tolerances: {tolwfr: 1.00E-20, }
...

     iter   2DEtotal(Ha)        deltaE(Ha) residm    vres2
-ETOT  1  -117.98777585609     -1.180E+02 2.470E-01 0.000E+00
 ETOT  2  -118.28536657622     -2.976E-01 3.722E-02 0.000E+00
 ETOT  3  -118.29559409734     -1.023E-02 9.958E-03 0.000E+00
 ETOT  4  -118.29619418777     -6.001E-04 1.545E-03 0.000E+00
 ETOT  5  -118.29623617794     -4.199E-05 7.103E-04 0.000E+00
 ETOT  6  -118.29623943189     -3.254E-06 1.292E-04 0.000E+00
 ETOT  7  -118.29623970534     -2.735E-07 6.215E-05 0.000E+00
 ETOT  8  -118.29623973003     -2.469E-08 1.251E-05 0.000E+00
 ETOT  9  -118.29623973239     -2.356E-09 5.852E-06 0.000E+00
 ETOT 10  -118.29623973262     -2.346E-10 1.210E-06 0.000E+00
 ETOT 11  -118.29623973265     -2.393E-11 5.679E-07 0.000E+00
 ETOT 12  -118.29623973265     -2.530E-12 1.170E-07 0.000E+00
 ETOT 13  -118.29623973265     -1.990E-13 5.558E-08 0.000E+00
 ETOT 14  -118.29623973265      1.421E-14 1.155E-08 0.000E+00
 ETOT 15  -118.29623973265     -1.705E-13 5.464E-09 0.000E+00
 ETOT 16  -118.29623973265      4.263E-14 1.149E-09 0.000E+00
 ETOT 17  -118.29623973265     -1.279E-13 5.384E-10 0.000E+00
 ETOT 18  -118.29623973265      9.948E-14 1.145E-10 0.000E+00
 ETOT 19  -118.29623973265     -1.421E-14 5.309E-11 0.000E+00
 ETOT 20  -118.29623973265      0.000E+00 1.140E-11 0.000E+00
 ETOT 21  -118.29623973265      5.684E-14 5.235E-12 0.000E+00
 ETOT 22  -118.29623973265     -2.842E-14 1.132E-12 0.000E+00
 ETOT 23  -118.29623973265      1.421E-14 5.160E-13 0.000E+00
 ETOT 24  -118.29623973265     -1.421E-14 1.123E-13 0.000E+00
 ETOT 25  -118.29623973265      2.842E-14 5.083E-14 0.000E+00
 ETOT 26  -118.29623973265      0.000E+00 1.112E-14 0.000E+00
 ETOT 27  -118.29623973265     -2.842E-14 5.003E-15 0.000E+00
 ETOT 28  -118.29623973265      2.842E-14 1.099E-15 0.000E+00
 ETOT 29  -118.29623973265      0.000E+00 4.921E-16 0.000E+00
 ETOT 30  -118.29623973265     -2.842E-14 1.084E-16 0.000E+00
 ETOT 31  -118.29623973265      0.000E+00 4.836E-17 0.000E+00
 ETOT 32  -118.29623973265      0.000E+00 1.068E-17 0.000E+00
 ETOT 33  -118.29623973265      2.842E-14 4.750E-18 0.000E+00
 ETOT 34  -118.29623973265     -1.421E-14 1.051E-18 0.000E+00
 ETOT 35  -118.29623973265      0.000E+00 4.662E-19 0.000E+00
 ETOT 36  -118.29623973265     -4.263E-14 1.034E-19 0.000E+00
 ETOT 37  -118.29623973265      1.421E-14 4.574E-20 0.000E+00
 ETOT 38  -118.29623973265     -1.421E-14 1.015E-20 0.000E+00
 ETOT 39  -118.29623973265      7.105E-14 9.671E-21 0.000E+00

 At SCF step   39   max residual=  9.67E-21 < tolwfr=  1.00E-20 =>converged.

 ----iterations are completed or convergence reached----

 dfpt_looppert: DFPT cycle converged with prtwf=-1. Will skip output of the 1st-order WFK file.
 dfpt_looppert : ek2=    1.3968412118E+02
          f-sum rule ratio=    1.2075992088E+00
 prteigrs : about to open file /scratch/users/j/a/jabreu/flow_simple_8atoms/flow/w486/t1/tmpdata/tmp_1WF1_EIG
 Expectation of eigenvalue derivatives (hartree) for nkpt=   1  k points:
  (in case of degenerate eigenvalues, averaged derivative)
 kpt#   1, nband= 53, wtk=  1.00000, kpt=  0.0000  0.0000  0.0000 (reduced coord)
   0.00000   -0.00000   -0.00000    0.00000    0.00000    0.00000   -0.00000   -0.00000
   0.00000    0.00000   -0.00000    0.00000    0.00000    0.00000   -0.00000    0.00000
  -0.00000    0.00000   -0.00000   -0.00000   -0.00000   -0.00000    0.00000   -0.00000
  -0.00000   -0.00000    0.00000    0.00000    0.00000    0.00000    0.00000    0.00000
   0.00000   -0.00000   -0.00000    0.00000   -0.00000   -0.00000   -0.00000    0.00000
  -0.00000   -0.00000   -0.00000   -0.00000   -0.00000    0.00000    0.00000   -0.00000
  -0.00000    0.00000   -0.00000   -0.00000   -0.00002

 Eight components of 2nd-order total energy (hartree) are
 1,2,3: 0th-order hamiltonian combined with 1st-order wavefunctions
     kin0=   1.32234053E+02 eigvalue=   1.75299091E+00  local=  -5.20025334E+01
 4,5,6: 1st-order hamiltonian combined with 1st and 0th-order wfs
     kin1=  -1.68682434E+02  Hartree=   0.00000000E+00     xc=   0.00000000E+00
 7,8,9: eventually, occupation + non-local contributions
    edocc=   3.05399534E+01     enl0=   5.77177590E+00   enl1=  -6.79100452E+01
 1-9 gives the relaxation energy (to be shifted if some occ is /=2.0)
   erelax=  -1.18296240E+02
  No Ewald or frozen-wf contrib.: the relaxation energy is the total one
 2DEtotal=   -0.1182962397E+03 Ha. Also 2DEtotal=   -0.321900438856E+04 eV
    (  non-var. 2DEtotal :   -1.1829623973E+02 Ha)

 CALCULATION OF EFFECTIVE MASSES
 NOTE : Additional infos (eff. mass eigenvalues, eigenvectors and, if degenerate, average mass) are available in stdout.

 K-point ( 0.000, 0.000, 0.000) | band =    44
 Effective mass tensor:
             -0.6767502006              0.1014068839             -0.1837556095
              0.1014068839             -0.6348913590             -0.2255534917
             -0.1837556095             -0.2255534917             -0.3506483129
 Effective mass tensor eigenvalues:
             -0.7593651604             -0.7593648260             -0.1435598862
 Angular average effective mass 1/(<1/m>)=  -0.3125158309
 Angular average effective mass for Frohlich model (<m**0.5>)**2=  -0.3851430272
 Effective masses along directions: (cart. coord. / red. coord. -> eff. mass)
    1:   1.000000  0.000000  0.000000 /   0.980177 -0.198124  0.000000 ->  -0.4819916461
    2:   0.000000  1.000000  0.000000 /   0.000000  1.000000  0.000000 ->  -0.4067192598
    3:   0.000000  0.000000  1.000000 /  -0.483929 -0.483929  0.729126 ->  -0.1973908667
    4:   0.577350  0.577350  0.577350 /   0.083698 -0.081789  0.993129 ->  -0.7593635414
    5:   0.000000  0.707107  0.707107 /  -0.552087  0.057260  0.831818 ->  -0.5905389298
    6:   0.707107  0.000000  0.707107 /   0.065192 -0.630371  0.773552 ->  -0.5305605725
    7:   0.707107  0.707107  0.000000 /   0.789563  0.613670  0.000000 ->  -0.3128002976

 K-point ( 0.000, 0.000, 0.000) | band =    45
 Effective mass tensor:
              0.1250288963             -0.0017252998              0.0031263546
             -0.0017252998              0.1243167187              0.0038375007
              0.0031263546              0.0038375007              0.1194806853
 Effective mass tensor eigenvalues:
              0.1159573541              0.1264344707              0.1264344754
 Angular average effective mass 1/(<1/m>)=   0.1227378858
 Angular average effective mass for Frohlich model (<m**0.5>)**2=   0.1228000332
 Effective masses along directions: (cart. coord. / red. coord. -> eff. mass)
    1:   1.000000  0.000000  0.000000 /   0.980177 -0.198124  0.000000 ->   0.1249202525
    2:   0.000000  1.000000  0.000000 /   0.000000  1.000000  0.000000 ->   0.1241667881
    3:   0.000000  0.000000  1.000000 /  -0.483929 -0.483929  0.729126 ->   0.1192813502
    4:   0.577350  0.577350  0.577350 /   0.083698 -0.081789  0.993129 ->   0.1264344699
    5:   0.000000  0.707107  0.707107 /  -0.552087  0.057260  0.831818 ->   0.1256776690
    6:   0.707107  0.000000  0.707107 /   0.065192 -0.630371  0.773552 ->   0.1252963125
    7:   0.707107  0.707107  0.000000 /   0.789563  0.613670  0.000000 ->   0.1227434424

 END OF EFFECTIVE MASSES SECTION

 ---- first-order wavefunction calculations are completed ----

 Total localisation tensor (bohr^2) in cartesian coordinates
  WARNING : still subject to testing - especially symmetries.
      direction              matrix element
   alpha     beta       real part   imaginary part
     1        1       3.3830792982    0.0000000000
     1        2      -0.6434217658    0.0000000000
     1        3      -2.3011097854    0.0000000000
     2        1      -0.6434217658    0.0000000000
     2        2       3.1174812571    0.0000000000
     2        3      -2.8245341923    0.0000000000
     3        1      -2.3011097854    0.0000000000
     3        2      -2.8245341923    0.0000000000
     3        3      14.1977707344    0.0000000000

 respfn : d/dk was computed, but no 2DTE, so no DDB output.

== END DATASET(S) ==============================================================

 -outvars: echo values of variables after computation  --------
            acell      1.0000000000E+00  1.0000000000E+00  1.0000000000E+00 Bohr
              amu      6.97230000E+01  6.35460000E+01  3.20660000E+01
             ecut      4.60000000E+01 Hartree
           etotal     -1.1829623973E+02
            fcart      0.0000000000E+00  0.0000000000E+00  0.0000000000E+00
                       0.0000000000E+00  0.0000000000E+00  0.0000000000E+00
                       0.0000000000E+00  0.0000000000E+00  0.0000000000E+00
                       0.0000000000E+00  0.0000000000E+00  0.0000000000E+00
                       0.0000000000E+00  0.0000000000E+00  0.0000000000E+00
                       0.0000000000E+00  0.0000000000E+00  0.0000000000E+00
                       0.0000000000E+00  0.0000000000E+00  0.0000000000E+00
                       0.0000000000E+00  0.0000000000E+00  0.0000000000E+00
-          fftalg         512
           irdden           1
           irdwfk           1
           istwfk        1
              ixc     -116133
           kptopt           0
P           mkmem           1
P          mkqmem           1
P          mk1mem           1
            natom           8
            nband          53
           nbdbuf           4
            ngfft          80      80      80
             nkpt           1
            nstep        2000
             nsym           8
           ntypat           3
              occ      2.000000  2.000000  2.000000  2.000000  2.000000  2.000000
                       2.000000  2.000000  2.000000  2.000000  2.000000  2.000000
                       2.000000  2.000000  2.000000  2.000000  2.000000  2.000000
                       2.000000  2.000000  2.000000  2.000000  2.000000  2.000000
                       2.000000  2.000000  2.000000  2.000000  2.000000  2.000000
                       2.000000  2.000000  2.000000  2.000000  2.000000  2.000000
                       2.000000  2.000000  2.000000  2.000000  2.000000  2.000000
                       2.000000  2.000000  0.000000  0.000000  0.000000  0.000000
                       0.000000  0.000000  0.000000  0.000000  0.000000
        optdriver           1
            prtwf          -1
            rfdir           1       1       1
           rfelfd           2
            rprim      9.0970740144E+00  0.0000000000E+00 -8.0720971551E+00
                      -1.8388033748E+00  8.9092961435E+00 -8.0720971551E+00
                       0.0000000000E+00  0.0000000000E+00  1.2162051969E+01
          spgroup         122
           strten      0.0000000000E+00  0.0000000000E+00  0.0000000000E+00
                       0.0000000000E+00  0.0000000000E+00  0.0000000000E+00
           symrel      1  0  0   0  1  0   0  0  1      -1 -1 -1   0  0  1   0  1  0
                       0  1  0   1  0  0  -1 -1 -1       0  0  1  -1 -1 -1   1  0  0
                       0  1  0   1  0  0   0  0  1      -1 -1 -1   0  0  1   1  0  0
                       1  0  0   0  1  0  -1 -1 -1       0  0  1  -1 -1 -1   0  1  0
            tnons      0.0000000  0.0000000  0.0000000    -0.2500000  0.2500000  0.5000000
                      -0.0000000  0.0000000 -0.0000000    -0.2500000  0.2500000  0.5000000
                      -0.2500000  0.2500000  0.5000000     0.0000000  0.0000000 -0.0000000
                      -0.2500000  0.2500000  0.5000000     0.0000000  0.0000000  0.0000000
           tolwfr      1.00000000E-20
            typat      1  1  2  2  3  3  3  3
           useylm           1
           xangst      4.7370143055E-01  3.5359473478E+00 -1.0536294841E+00
                       1.9204556981E+00  2.3572982319E+00 -4.2715698400E+00
                       0.0000000000E+00  0.0000000000E+00  0.0000000000E+00
                       3.3672099657E+00  1.1786491159E+00 -1.0536294841E+00
                       3.3558417136E+00  4.1492833455E+00 -4.2462840288E+00
                       2.9116135610E+00  5.8932455796E-01 -3.1926545447E+00
                       1.4452975317E+00  1.7439622341E+00  3.2401406739E-03
                      -3.0930013820E-02  2.9466227898E+00  3.2211804966E+00
            xcart      8.9516597250E-01  6.6819721076E+00 -1.9910711704E+00
                       3.6291353198E+00  4.4546480717E+00 -8.0720971551E+00
                       0.0000000000E+00  0.0000000000E+00  0.0000000000E+00
                       6.3631046671E+00  2.2273240359E+00 -1.9910711704E+00
                       6.3416217841E+00  7.8410091708E+00 -8.0243138969E+00
                       5.5021522351E+00  1.1136620179E+00 -6.0332427265E+00
                       2.7312165154E+00  3.2956110086E+00  6.1229785058E-03
                      -5.8449255405E-02  5.5683100897E+00  6.0871489632E+00
             xred      2.5000000000E-01  7.5000000000E-01  5.0000000000E-01
                       5.0000000000E-01  5.0000000000E-01 -5.5511151231E-17
                       0.0000000000E+00  0.0000000000E+00  0.0000000000E+00
                       7.5000000000E-01  2.5000000000E-01  5.0000000000E-01
                       8.7500000000E-01  8.8009300000E-01  5.0509300000E-01
                       6.3009300000E-01  1.2500000000E-01  5.0930000000E-03
                       3.7500000000E-01  3.6990700000E-01  4.9490700000E-01
                       1.1990700000E-01  6.2500000000E-01  9.9490700000E-01
            znucl       31.00000   29.00000   16.00000

- Timing analysis has been suppressed with timopt=0

 Suggested references for the acknowledgment of ABINIT usage.

 Calculation completed.
.Delivered   6 WARNINGs and   5 COMMENTs to log file.