.Version 9.5.2 of ABINIT

 ABINIT is a project of the Universite Catholique de Louvain,
 Corning Inc. and other collaborators, see ~abinit/doc/developers/contributors.txt .
 acknowledgments of the ABINIT effort.

.Starting date : Wed 26 May 2021.
- ( at 02h57 )

- input  file    -> /scratch/users/j/a/jabreu/flow_simple_11atoms/flow/w273/t1/run.abi
- output file    -> /scratch/users/j/a/jabreu/flow_simple_11atoms/flow/w273/t1/run.abo
- root for input  files -> /scratch/users/j/a/jabreu/flow_simple_11atoms/flow/w273/t1/indata/in
- root for output files -> /scratch/users/j/a/jabreu/flow_simple_11atoms/flow/w273/t1/outdata/out

 Symmetries : space group C2/m (# 12); Bravais mC (1-face-center monocl.)
     intxc =       0      iscf =       7    lmnmax =      18     lnmax =       6
     mgfft =      64  mpssoang =       3    mqgrid =    3001     natom =      11
  nloc_mem =       1    nspden =       1   nspinor =       1    nsppol =       1
      nsym =       4    n1xccc =    2501    ntypat =       3    occopt =       1
   xclevel =       2
-    mband =          55        mffmem =           1         mkmem =           1
-   mkqmem =           1        mk1mem =           1           mpw =       12243
      nfft =      221184          nkpt =           1
  Rough estimation (10% accuracy) of disk space for files :

------------- Echo of variables that govern the present computation ------------
-
- outvars: echo of selected default values
-   iomode0 =  0 , fftalg0 =512 , wfoptalg0 =  0
-
- outvars: echo of global parameters not present in the input file
-  max_nthreads =    0
-
 -outvars: echo values of preprocessed input variables --------
            acell      1.0000000000E+00  1.0000000000E+00  1.0000000000E+00 Bohr
              amu      2.43050000E+01  7.49215900E+01  1.59994000E+01
             ecut      4.40000000E+01 Hartree
-          fftalg         512
           irdden           1
           irdwfk           1
           istwfk        1
              ixc     -116133
           kptopt           0
P           mkmem           1
P          mkqmem           1
P          mk1mem           1
            natom          11
            nband          55
           nbdbuf           4
            ngfft          64      64      54
             nkpt           1
            nstep        2000
             nsym           4
           ntypat           3
              occ      2.000000  2.000000  2.000000  2.000000  2.000000  2.000000
                       2.000000  2.000000  2.000000  2.000000  2.000000  2.000000
                       2.000000  2.000000  2.000000  2.000000  2.000000  2.000000
                       2.000000  2.000000  2.000000  2.000000  2.000000  2.000000
                       2.000000  2.000000  2.000000  2.000000  2.000000  2.000000
                       2.000000  2.000000  2.000000  2.000000  2.000000  2.000000
                       2.000000  2.000000  2.000000  2.000000  2.000000  2.000000
                       2.000000  2.000000  2.000000  2.000000  0.000000  0.000000
                       0.000000  0.000000  0.000000  0.000000  0.000000  0.000000
                       0.000000
        optdriver           1
            prtwf          -1
            rfdir           1       1       1
           rfelfd           2
            rprim      1.0084102705E+01  0.0000000000E+00  1.3638505802E+00
                      -2.9458001330E+00  9.6442412324E+00  1.3638505802E+00
                       0.0000000000E+00  0.0000000000E+00  9.0336844662E+00
          spgroup          12
           symrel      1  0  0   0  1  0   0  0  1      -1  0  0   0 -1  0   0  0 -1
                       0 -1  0  -1  0  0   0  0 -1       0  1  0   1  0  0   0  0  1
           tolwfr      1.00000000E-20
            typat      1  1  2  2  3  3  3  3  3  3  3
           useylm           1
           xangst      5.7883922705E-01  3.5212757296E+00  3.1119286075E+00
                       3.1985878023E+00  1.5822369247E+00  3.1119286075E+00
                       2.8781765282E+00  3.8885755354E+00  5.4001029418E+00
                       8.9925050118E-01  1.2149371190E+00  8.2375427327E-01
                       1.7524254928E+00  4.7432607996E+00  4.4898382689E+00
                      -2.4701196296E-01  2.0419103095E+00  1.7340189462E+00
                       2.0250015365E+00  3.6025185476E-01  1.7340189462E+00
                       4.0244389923E+00  3.0616023448E+00  4.4898382689E+00
                       0.0000000000E+00  0.0000000000E+00  0.0000000000E+00
                       2.2439276428E+00  3.0316702431E+00  1.9355531357E+00
                       1.5334993865E+00  2.0718424112E+00  4.2883040794E+00
            xcart      1.0938476141E+00  6.6542467674E+00  5.8806928133E+00
                       6.0444549583E+00  2.9899944650E+00  5.8806928133E+00
                       5.4389654003E+00  7.3483428089E+00  1.0204715649E+01
                       1.6993371721E+00  2.2958984235E+00  1.5566699773E+00
                       3.3116042497E+00  8.9634638880E+00  8.4845647091E+00
                      -4.6678496154E-01  3.8586512728E+00  3.2768209175E+00
                       3.8266983227E+00  6.8077734435E-01  3.2768209175E+00
                       7.6050875339E+00  5.7855899596E+00  8.4845647091E+00
                       0.0000000000E+00  0.0000000000E+00  0.0000000000E+00
                       4.2404087069E+00  5.7290264847E+00  3.6576653421E+00
                       2.8978938655E+00  3.9152147477E+00  8.1037202845E+00
             xred      3.1002900000E-01  6.8997100000E-01  5.0000000000E-01
                       6.8997100000E-01  3.1002900000E-01  5.0000000000E-01
                       7.6194100000E-01  7.6194100000E-01  8.9956300000E-01
                       2.3805900000E-01  2.3805900000E-01  1.0043700000E-01
                       5.9990100000E-01  9.2941100000E-01  7.0832800000E-01
                       7.0589000000E-02  4.0009900000E-01  2.9167200000E-01
                       4.0009900000E-01  7.0589000000E-02  2.9167200000E-01
                       9.2941100000E-01  5.9990100000E-01  7.0832800000E-01
                       0.0000000000E+00  0.0000000000E+00  0.0000000000E+00
                       5.9403600000E-01  5.9403600000E-01  2.2552400000E-01
                       4.0596400000E-01  4.0596400000E-01  7.7447600000E-01
            znucl       12.00000   33.00000    8.00000

 chkinp: Checking input parameters for consistency.

== DATASET  1 ==================================================================
-   mpi_nproc: 1, omp_nthreads: -1 (-1 if OMP is not activated)

--- !DatasetInfo
iteration_state: {dtset: 1, }
dimensions: {natom: 11, nkpt: 1, mband: 55, nsppol: 1, nspinor: 1, nspden: 1, mpw: 12243, }
cutoff_energies: {ecut:  44.0, pawecutdg:  -1.0, }
electrons: {nelect:   9.20000000E+01, charge:   0.00000000E+00, occopt:   1.00000000E+00, tsmear:   1.00000000E-02, }
meta: {optdriver: 1, rfelfd: 2, }
...

 Real(R)+Recip(G) space primitive vectors, cartesian coordinates (Bohr,Bohr^-1):
 R(1)= 10.0841027  0.0000000  1.3638506  G(1)=  0.0991660  0.0302899  0.0000000
 R(2)= -2.9458001  9.6442412  1.3638506  G(2)=  0.0000000  0.1036888  0.0000000
 R(3)=  0.0000000  0.0000000  9.0336845  G(3)= -0.0149715 -0.0202273  0.1106968
 Unit cell volume ucvol=  8.7855760E+02 bohr^3
 Angles (23,13,12)=  8.22976208E+01  8.22976208E+01  1.05599555E+02 degrees

 getcut: wavevector=  0.0000  0.0000  0.0000  ngfft=  64  64  54
         ecut(hartree)=     44.000   => boxcut(ratio)=   2.00190

--- Pseudopotential description ------------------------------------------------
- pspini: atom type   1  psp file is /scratch/users/j/a/jabreu/pseudos/PBEsol/Mg.psp8
- pspatm: opening atomic psp file    /scratch/users/j/a/jabreu/pseudos/PBEsol/Mg.psp8
- Mg    ONCVPSP-3.3.0  r_core=   1.16056   1.56380
- 12.00000  10.00000    180112                znucl, zion, pspdat
    8 -116133    1    4       400   0.00000   pspcod,pspxc,lmax,lloc,mmax,r2well
    3.99000000000000    0.00000000000000    0.00000000000000   rchrg,fchrg,qchrg
     nproj     2     2
     extension_switch     1
  pspatm : epsatm=    9.18164846
         --- l  ekb(1:nproj) -->
             0    2.230603   -0.826587
             1   -6.503151   -2.501445
 pspatm: atomic psp has been read  and splines computed

- pspini: atom type   2  psp file is /scratch/users/j/a/jabreu/pseudos/PBEsol/As.psp8
- pspatm: opening atomic psp file    /scratch/users/j/a/jabreu/pseudos/PBEsol/As.psp8
- As    ONCVPSP-3.3.0  r_core=   1.76603   1.70395   1.80867
- 33.00000  15.00000    180112                znucl, zion, pspdat
    8 -116133    2    4       600   0.00000   pspcod,pspxc,lmax,lloc,mmax,r2well
    5.99000000000000    5.00000000000000    0.00000000000000   rchrg,fchrg,qchrg
     nproj     2     2     2
     extension_switch     1
  pspatm : epsatm=   28.79155382
         --- l  ekb(1:nproj) -->
             0    8.270760    0.868950
             1    4.919053    0.756587
             2  -10.048665   -4.076802
 pspatm: atomic psp has been read  and splines computed

- pspini: atom type   3  psp file is /scratch/users/j/a/jabreu/pseudos/PBEsol/O.psp8
- pspatm: opening atomic psp file    /scratch/users/j/a/jabreu/pseudos/PBEsol/O.psp8
- O     ONCVPSP-3.3.0  r_core=   1.35509   1.45563   1.26150
-  8.00000   6.00000    180112                znucl, zion, pspdat
    8 -116133    2    4       600   0.00000   pspcod,pspxc,lmax,lloc,mmax,r2well
    5.99000000000000    4.00000000000000    0.00000000000000   rchrg,fchrg,qchrg
     nproj     2     2     1
     extension_switch     1
  pspatm : epsatm=    6.22910522
         --- l  ekb(1:nproj) -->
             0    6.050032    0.820363
             1   -4.739617   -1.153841
             2   -1.335834
 pspatm: atomic psp has been read  and splines computed

   1.09986130E+04                                ecore*ucvol(ha*bohr**3)

 ==>  initialize data related to q vector <==

 The list of irreducible perturbations for this q vector is:
    1)    idir= 1    ipert=  12
    2)    idir= 2    ipert=  12
    3)    idir= 3    ipert=  12

 Perturbation wavevector (in red.coord.)   0.000000  0.000000  0.000000
 Perturbation : derivative vs k along direction   1

 dfpt_looppert : COMMENT -
  In a d/dk calculation, iscf is set to -3 automatically.
 The set of symmetries contains only one element for this perturbation.
 symkpt : not enough symmetry to change the number of k points.

 Initialisation of the first-order wave-functions :
  ireadwf=   0

--- !BeginCycle
iteration_state: {dtset: 1, }
solver: {iscf: 7, nstep: 2000, nline: 4, wfoptalg: 0, }
tolerances: {tolwfr: 1.00E-20, }
...

     iter   2DEtotal(Ha)        deltaE(Ha) residm    vres2
-ETOT  1  -62.318266160165     -6.232E+01 6.943E-02 0.000E+00
 ETOT  2  -62.382003135280     -6.374E-02 1.314E-02 0.000E+00
 ETOT  3  -62.382224272018     -2.211E-04 8.120E-04 0.000E+00
 ETOT  4  -62.382226513053     -2.241E-06 2.181E-04 0.000E+00
 ETOT  5  -62.382226542303     -2.925E-08 1.669E-05 0.000E+00
 ETOT  6  -62.382226542730     -4.270E-10 4.744E-06 0.000E+00
 ETOT  7  -62.382226542737     -6.537E-12 3.471E-07 0.000E+00
 ETOT  8  -62.382226542737     -1.279E-13 1.093E-07 0.000E+00
[...]
 ETOT 14  -62.382226542737      1.421E-14 1.730E-12 0.000E+00
 ETOT 15  -62.382226542737      1.421E-14 1.309E-13 0.000E+00
 ETOT 16  -62.382226542737      7.105E-15 4.484E-14 0.000E+00
 ETOT 17  -62.382226542737     -2.842E-14 3.386E-15 0.000E+00
 ETOT 18  -62.382226542737      0.000E+00 1.169E-15 0.000E+00
 ETOT 19  -62.382226542737      0.000E+00 8.804E-17 0.000E+00
 ETOT 20  -62.382226542737     -1.421E-14 3.063E-17 0.000E+00
 ETOT 21  -62.382226542737      7.105E-15 2.299E-18 0.000E+00
 ETOT 22  -62.382226542737      2.132E-14 8.052E-19 0.000E+00
 ETOT 23  -62.382226542737     -2.842E-14 6.021E-20 0.000E+00
 ETOT 24  -62.382226542737      1.421E-14 2.123E-20 0.000E+00
 ETOT 25  -62.382226542737      0.000E+00 9.935E-21 0.000E+00

 At SCF step   25   max residual=  9.93E-21 < tolwfr=  1.00E-20 =>converged.

 ----iterations are completed or convergence reached----

 dfpt_looppert: DFPT cycle converged with prtwf=-1. Will skip output of the 1st-order WFK file.
 dfpt_looppert : ek2=    7.8098272924E+01
          f-sum rule ratio=    1.0330321146E+00
 prteigrs : about to open file /scratch/users/j/a/jabreu/flow_simple_11atoms/flow/w273/t1/tmpdata/tmp_1WF1_EIG
 Expectation of eigenvalue derivatives (hartree) for nkpt=   1  k points:
  (in case of degenerate eigenvalues, averaged derivative)
 kpt#   1, nband= 55, wtk=  1.00000, kpt=  0.0000  0.0000  0.0000 (reduced coord)
   0.00000   -0.00000    0.00000    0.00000    0.00000   -0.00000    0.00000   -0.00000
  -0.00000    0.00000   -0.00000    0.00000    0.00000   -0.00000   -0.00000   -0.00000
  -0.00000    0.00000    0.00000    0.00000    0.00000   -0.00000   -0.00000    0.00000
  -0.00000    0.00000    0.00000   -0.00000   -0.00000    0.00000    0.00000   -0.00000
  -0.00000   -0.00000   -0.00000    0.00000    0.00000   -0.00000    0.00000    0.00000
  -0.00000    0.00000   -0.00000    0.00000   -0.00000    0.00000   -0.00000    0.00000
   0.00000    0.00000    0.00000    0.00000   -0.00000   -0.00000   -0.00004

 Eight components of 2nd-order total energy (hartree) are
 1,2,3: 0th-order hamiltonian combined with 1st-order wavefunctions
     kin0=   7.60201401E+01 eigvalue=   7.99747403E+00  local=  -2.86795436E+01
 4,5,6: 1st-order hamiltonian combined with 1st and 0th-order wfs
     kin1=  -8.06780240E+01  Hartree=   0.00000000E+00     xc=   0.00000000E+00
 7,8,9: eventually, occupation + non-local contributions
    edocc=   6.88492154E+00     enl0=   1.59234409E-01   enl1=  -4.40864291E+01
 1-9 gives the relaxation energy (to be shifted if some occ is /=2.0)
   erelax=  -6.23822265E+01
  No Ewald or frozen-wf contrib.: the relaxation energy is the total one
 2DEtotal=   -0.6238222654E+02 Ha. Also 2DEtotal=   -0.169750671250E+04 eV
    (  non-var. 2DEtotal :   -6.2382226542E+01 Ha)

 Perturbation wavevector (in red.coord.)   0.000000  0.000000  0.000000
 Perturbation : derivative vs k along direction   2
 The set of symmetries contains only one element for this perturbation.
 symkpt : not enough symmetry to change the number of k points.

[...]

 Perturbation wavevector (in red.coord.)   0.000000  0.000000  0.000000
 Perturbation : derivative vs k along direction   3
 The set of symmetries contains only one element for this perturbation.
 symkpt : not enough symmetry to change the number of k points.

 Initialisation of the first-order wave-functions :
  ireadwf=   0

--- !BeginCycle
iteration_state: {dtset: 1, }
solver: {iscf: 7, nstep: 2000, nline: 4, wfoptalg: 0, }
tolerances: {tolwfr: 1.00E-20, }
...

     iter   2DEtotal(Ha)        deltaE(Ha) residm    vres2
-ETOT  1  -74.490895488945     -7.449E+01 1.046E-01 0.000E+00
 ETOT  2  -74.558032136515     -6.714E-02 3.925E-03 0.000E+00
 ETOT  3  -74.558146383455     -1.142E-04 1.217E-04 0.000E+00
 ETOT  4  -74.558146995381     -6.119E-07 3.049E-05 0.000E+00
 ETOT  5  -74.558147000264     -4.883E-09 3.583E-06 0.000E+00
 ETOT  6  -74.558147000318     -5.475E-11 6.564E-07 0.000E+00
 ETOT  7  -74.558147000319     -7.390E-13 7.892E-08 0.000E+00
 ETOT  8  -74.558147000319     -5.684E-14 1.399E-08 0.000E+00
 ETOT  9  -74.558147000319     -1.421E-14 1.838E-09 0.000E+00
 ETOT 10  -74.558147000319      0.000E+00 3.130E-10 0.000E+00
 ETOT 11  -74.558147000319      2.842E-14 4.529E-11 0.000E+00
 ETOT 12  -74.558147000319     -1.421E-14 7.825E-12 0.000E+00
 ETOT 13  -74.558147000319      0.000E+00 1.179E-12 0.000E+00
 ETOT 14  -74.558147000319      0.000E+00 2.065E-13 0.000E+00
 ETOT 15  -74.558147000319      2.842E-14 3.124E-14 0.000E+00
 ETOT 16  -74.558147000319     -2.842E-14 5.514E-15 0.000E+00
 ETOT 17  -74.558147000319      0.000E+00 8.317E-16 0.000E+00
 ETOT 18  -74.558147000319      0.000E+00 1.481E-16 0.000E+00
 ETOT 19  -74.558147000319      1.421E-14 2.224E-17 0.000E+00
 ETOT 20  -74.558147000319      0.000E+00 3.996E-18 0.000E+00
 ETOT 21  -74.558147000319      0.000E+00 5.975E-19 0.000E+00
 ETOT 22  -74.558147000319     -1.421E-14 1.085E-19 0.000E+00
 ETOT 23  -74.558147000319      1.421E-14 1.614E-20 0.000E+00
 ETOT 24  -74.558147000319     -1.421E-14 9.821E-21 0.000E+00

 At SCF step   24   max residual=  9.82E-21 < tolwfr=  1.00E-20 =>converged.

 ----iterations are completed or convergence reached----

 dfpt_looppert: DFPT cycle converged with prtwf=-1. Will skip output of the 1st-order WFK file.
 dfpt_looppert : ek2=    9.3612054291E+01
          f-sum rule ratio=    1.0280156672E+00
 prteigrs : about to open file /scratch/users/j/a/jabreu/flow_simple_11atoms/flow/w273/t1/tmpdata/tmp_1WF1_EIG
 Expectation of eigenvalue derivatives (hartree) for nkpt=   1  k points:
  (in case of degenerate eigenvalues, averaged derivative)
 kpt#   1, nband= 55, wtk=  1.00000, kpt=  0.0000  0.0000  0.0000 (reduced coord)
  -0.00000   -0.00000   -0.00000    0.00000   -0.00000   -0.00000    0.00000   -0.00000
   0.00000   -0.00000    0.00000   -0.00000   -0.00000    0.00000    0.00000    0.00000
   0.00000   -0.00000    0.00000   -0.00000   -0.00000    0.00000   -0.00000   -0.00000
   0.00000   -0.00000   -0.00000    0.00000   -0.00000    0.00000   -0.00000   -0.00000
   0.00000   -0.00000    0.00000    0.00000   -0.00000    0.00000    0.00000   -0.00000
   0.00000    0.00000   -0.00000   -0.00000   -0.00000   -0.00000    0.00000   -0.00000
   0.00000   -0.00000   -0.00000   -0.00000   -0.00000   -0.00000    0.00025

 Eight components of 2nd-order total energy (hartree) are
 1,2,3: 0th-order hamiltonian combined with 1st-order wavefunctions
     kin0=   8.88325734E+01 eigvalue=   9.72513005E+00  local=  -3.33712151E+01
 4,5,6: 1st-order hamiltonian combined with 1st and 0th-order wfs
     kin1=  -9.62346585E+01  Hartree=   0.00000000E+00     xc=   0.00000000E+00
 7,8,9: eventually, occupation + non-local contributions
    edocc=   8.87238267E+00     enl0=   4.99275884E-01   enl1=  -5.28816355E+01
 1-9 gives the relaxation energy (to be shifted if some occ is /=2.0)
   erelax=  -7.45581470E+01
  No Ewald or frozen-wf contrib.: the relaxation energy is the total one
 2DEtotal=   -0.7455814700E+02 Ha. Also 2DEtotal=   -0.202883035792E+04 eV
    (  non-var. 2DEtotal :   -7.4558147000E+01 Ha)

 CALCULATION OF EFFECTIVE MASSES
 NOTE : Additional infos (eff. mass eigenvalues, eigenvectors and, if degenerate, average mass) are available in stdout.

 K-point ( 0.000, 0.000, 0.000) | band =    46
 Effective mass tensor:
             -3.9973700424              1.2302460996              0.8787195771
              1.2302460996             -3.2458193244              1.1871963065
              0.8787195771              1.1871963065             -1.7955013017
 Effective mass tensor eigenvalues:
             -4.9079510050             -3.5668398410             -0.5638998225
 Angular average effective mass 1/(<1/m>)=  -1.3289178623
 Angular average effective mass for Frohlich model (<m**0.5>)**2=  -1.7900987665
 Effective masses along directions: (cart. coord. / red. coord. -> eff. mass)
    1:   1.000000  0.000000  0.000000 /   0.959882 -0.280404  0.000000 ->  -2.2341742629
    2:   0.000000  1.000000  0.000000 /   0.000000  1.000000  0.000000 ->  -1.5411946630
    3:   0.000000  0.000000  1.000000 /   0.147646  0.147646  0.977958 ->  -0.8612998082
    4:   0.577350  0.577350  0.577350 /   0.687018  0.483837  0.542132 ->  -0.6035451703
    5:   0.000000  0.707107  0.707107 /   0.095338  0.769504  0.631486 ->  -0.6688098777
    6:   0.707107  0.000000  0.707107 /   0.780443 -0.107847  0.615855 ->  -0.8056742278
    7:   0.707107  0.707107  0.000000 /   0.832975  0.553310  0.000000 ->  -1.1393888858

 K-point ( 0.000, 0.000, 0.000) | band =    47
 Effective mass tensor:
              0.4360040095             -0.0163312036             -0.0187188851
             -0.0163312036              0.4260129903             -0.0252957933
             -0.0187188851             -0.0252957933              0.3597634571
 Effective mass tensor eigenvalues:
              0.3453283903              0.4283654130              0.4480866536
 Angular average effective mass 1/(<1/m>)=   0.4020390859
 Angular average effective mass for Frohlich model (<m**0.5>)**2=   0.4036551205
 Effective masses along directions: (cart. coord. / red. coord. -> eff. mass)
    1:   1.000000  0.000000  0.000000 /   0.959882 -0.280404  0.000000 ->   0.4342959473
    2:   0.000000  1.000000  0.000000 /   0.000000  1.000000  0.000000 ->   0.4235185042
    3:   0.000000  0.000000  1.000000 /   0.147646  0.147646  0.977958 ->   0.3573710888
    4:   0.577350  0.577350  0.577350 /   0.687018  0.483837  0.542132 ->   0.3636974694
    5:   0.000000  0.707107  0.707107 /   0.095338  0.769504  0.631486 ->   0.3635444904
    6:   0.707107  0.000000  0.707107 /   0.780443 -0.107847  0.615855 ->   0.3735615690
    7:   0.707107  0.707107  0.000000 /   0.832975  0.553310  0.000000 ->   0.4119197023

 END OF EFFECTIVE MASSES SECTION

 ---- first-order wavefunction calculations are completed ----

 Total localisation tensor (bohr^2) in cartesian coordinates
  WARNING : still subject to testing - especially symmetries.
      direction              matrix element
   alpha     beta       real part   imaginary part
     1        1       0.7024453694    0.0000000000
     1        2      -0.1808145118    0.0000000000
     1        3       0.0619643555    0.0000000000
     2        1      -0.1808145118    0.0000000000
     2        2       0.5919677818    0.0000000000
     2        3       0.0837137503    0.0000000000
     3        1       0.0619643555    0.0000000000
     3        2       0.0837137503    0.0000000000
     3        3       0.6514621416    0.0000000000

 respfn : d/dk was computed, but no 2DTE, so no DDB output.

== END DATASET(S) ==============================================================

 -outvars: echo values of variables after computation  --------
            acell      1.0000000000E+00  1.0000000000E+00  1.0000000000E+00 Bohr
              amu      2.43050000E+01  7.49215900E+01  1.59994000E+01
             ecut      4.40000000E+01 Hartree
           etotal     -7.4558147000E+01
            fcart      0.0000000000E+00  0.0000000000E+00  0.0000000000E+00
                       0.0000000000E+00  0.0000000000E+00  0.0000000000E+00
                       0.0000000000E+00  0.0000000000E+00  0.0000000000E+00
                       0.0000000000E+00  0.0000000000E+00  0.0000000000E+00
                       0.0000000000E+00  0.0000000000E+00  0.0000000000E+00
                       0.0000000000E+00  0.0000000000E+00  0.0000000000E+00
                       0.0000000000E+00  0.0000000000E+00  0.0000000000E+00
                       0.0000000000E+00  0.0000000000E+00  0.0000000000E+00
                       0.0000000000E+00  0.0000000000E+00  0.0000000000E+00
                       0.0000000000E+00  0.0000000000E+00  0.0000000000E+00
                       0.0000000000E+00  0.0000000000E+00  0.0000000000E+00
-          fftalg         512
           irdden           1
           irdwfk           1
           istwfk        1
              ixc     -116133
           kptopt           0
P           mkmem           1
P          mkqmem           1
P          mk1mem           1
            natom          11
            nband          55
           nbdbuf           4
            ngfft          64      64      54
             nkpt           1
            nstep        2000
             nsym           4
           ntypat           3
              occ      2.000000  2.000000  2.000000  2.000000  2.000000  2.000000
                       2.000000  2.000000  2.000000  2.000000  2.000000  2.000000
                       2.000000  2.000000  2.000000  2.000000  2.000000  2.000000
                       2.000000  2.000000  2.000000  2.000000  2.000000  2.000000
                       2.000000  2.000000  2.000000  2.000000  2.000000  2.000000
                       2.000000  2.000000  2.000000  2.000000  2.000000  2.000000
                       2.000000  2.000000  2.000000  2.000000  2.000000  2.000000
                       2.000000  2.000000  2.000000  2.000000  0.000000  0.000000
                       0.000000  0.000000  0.000000  0.000000  0.000000  0.000000
                       0.000000
        optdriver           1
            prtwf          -1
            rfdir           1       1       1
           rfelfd           2
            rprim      1.0084102705E+01  0.0000000000E+00  1.3638505802E+00
                      -2.9458001330E+00  9.6442412324E+00  1.3638505802E+00
                       0.0000000000E+00  0.0000000000E+00  9.0336844662E+00
          spgroup          12
           strten      0.0000000000E+00  0.0000000000E+00  0.0000000000E+00
                       0.0000000000E+00  0.0000000000E+00  0.0000000000E+00
           symrel      1  0  0   0  1  0   0  0  1      -1  0  0   0 -1  0   0  0 -1
                       0 -1  0  -1  0  0   0  0 -1       0  1  0   1  0  0   0  0  1
           tolwfr      1.00000000E-20
            typat      1  1  2  2  3  3  3  3  3  3  3
           useylm           1
           xangst      5.7883922705E-01  3.5212757296E+00  3.1119286075E+00
                       3.1985878023E+00  1.5822369247E+00  3.1119286075E+00
                       2.8781765282E+00  3.8885755354E+00  5.4001029418E+00
                       8.9925050118E-01  1.2149371190E+00  8.2375427327E-01
                       1.7524254928E+00  4.7432607996E+00  4.4898382689E+00
                      -2.4701196296E-01  2.0419103095E+00  1.7340189462E+00
                       2.0250015365E+00  3.6025185476E-01  1.7340189462E+00
                       4.0244389923E+00  3.0616023448E+00  4.4898382689E+00
                       0.0000000000E+00  0.0000000000E+00  0.0000000000E+00
                       2.2439276428E+00  3.0316702431E+00  1.9355531357E+00
                       1.5334993865E+00  2.0718424112E+00  4.2883040794E+00
            xcart      1.0938476141E+00  6.6542467674E+00  5.8806928133E+00
                       6.0444549583E+00  2.9899944650E+00  5.8806928133E+00
                       5.4389654003E+00  7.3483428089E+00  1.0204715649E+01
                       1.6993371721E+00  2.2958984235E+00  1.5566699773E+00
                       3.3116042497E+00  8.9634638880E+00  8.4845647091E+00
                      -4.6678496154E-01  3.8586512728E+00  3.2768209175E+00
                       3.8266983227E+00  6.8077734435E-01  3.2768209175E+00
                       7.6050875339E+00  5.7855899596E+00  8.4845647091E+00
                       0.0000000000E+00  0.0000000000E+00  0.0000000000E+00
                       4.2404087069E+00  5.7290264847E+00  3.6576653421E+00
                       2.8978938655E+00  3.9152147477E+00  8.1037202845E+00
             xred      3.1002900000E-01  6.8997100000E-01  5.0000000000E-01
                       6.8997100000E-01  3.1002900000E-01  5.0000000000E-01
                       7.6194100000E-01  7.6194100000E-01  8.9956300000E-01
                       2.3805900000E-01  2.3805900000E-01  1.0043700000E-01
                       5.9990100000E-01  9.2941100000E-01  7.0832800000E-01
                       7.0589000000E-02  4.0009900000E-01  2.9167200000E-01
                       4.0009900000E-01  7.0589000000E-02  2.9167200000E-01
                       9.2941100000E-01  5.9990100000E-01  7.0832800000E-01
                       0.0000000000E+00  0.0000000000E+00  0.0000000000E+00
                       5.9403600000E-01  5.9403600000E-01  2.2552400000E-01
                       4.0596400000E-01  4.0596400000E-01  7.7447600000E-01
            znucl       12.00000   33.00000    8.00000

- Timing analysis has been suppressed with timopt=0

 Suggested references for the acknowledgment of ABINIT usage.

 Calculation completed.
.Delivered   2 WARNINGs and   5 COMMENTs to log file.