.Version 9.5.1 of ABINIT

 ABINIT is a project of the Universite Catholique de Louvain,
 Corning Inc. and other collaborators, see ~abinit/doc/developers/contributors.txt .
 acknowledgments of the ABINIT effort.

.Starting date : Mon 10 May 2021.
- ( at 09h20 )

- input  file    -> /scratch/users/j/a/jabreu/flow_simple_7atoms/flow/w201/t1/run.abi
- output file    -> /scratch/users/j/a/jabreu/flow_simple_7atoms/flow/w201/t1/run.abo
- root for input  files -> /scratch/users/j/a/jabreu/flow_simple_7atoms/flow/w201/t1/indata/in
- root for output files -> /scratch/users/j/a/jabreu/flow_simple_7atoms/flow/w201/t1/outdata/out

 Symmetries : space group P-4 2 m (#111); Bravais tP (primitive tetrag.)
     intxc =       0      iscf =       7    lmnmax =      18     lnmax =       6
     mgfft =      72  mpssoang =       3    mqgrid =    3592     natom =       7
  nloc_mem =       1    nspden =       1   nspinor =       1    nsppol =       1
      nsym =       8    n1xccc =    2501    ntypat =       3    occopt =       1
   xclevel =       2
-    mband =          64        mffmem =           1         mkmem =           2
-   mkqmem =           2        mk1mem =           2           mpw =       23231
      nfft =      373248          nkpt =           2
  Rough estimation (10% accuracy) of disk space for files :

------------- Echo of variables that govern the present computation ------------
-
- outvars: echo of selected default values
-   iomode0 =  0 , fftalg0 =512 , wfoptalg0 =  0
-
- outvars: echo of global parameters not present in the input file
-  max_nthreads =    0
-
 -outvars: echo values of preprocessed input variables --------
            acell      1.0000000000E+00  1.0000000000E+00  1.0000000000E+00 Bohr
              amu      1.12411000E+02  1.14820000E+02  7.89600000E+01
        autoparal           1
             ecut      5.10000000E+01 Hartree
-          fftalg         512
           irdden           1
           irdwfk           1
           istwfk        0    1
              ixc     -116133
              kpt      1.66666667E-01  1.66666667E-01  0.00000000E+00
                       0.00000000E+00  0.00000000E+00  0.00000000E+00
           kptopt           0
P           mkmem           2
P          mkqmem           2
P          mk1mem           2
            natom           7
            nband          64
           nbdbuf           4
            ngfft          72      72      72
             nkpt           2
            nstep        2000
             nsym           8
           ntypat           3
              occ      2.000000  2.000000  2.000000  2.000000  2.000000  2.000000
                       2.000000  2.000000  2.000000  2.000000  2.000000  2.000000
                       2.000000  2.000000  2.000000  2.000000  2.000000  2.000000
                       2.000000  2.000000  2.000000  2.000000  2.000000  2.000000
                       2.000000  2.000000  2.000000  2.000000  2.000000  2.000000
                       2.000000  2.000000  2.000000  2.000000  2.000000  2.000000
                       2.000000  2.000000  2.000000  2.000000  2.000000  2.000000
                       2.000000  2.000000  2.000000  2.000000  2.000000  2.000000
                       2.000000  2.000000  2.000000  2.000000  2.000000  2.000000
                       2.000000  0.000000  0.000000  0.000000  0.000000  0.000000
                       0.000000  0.000000  0.000000  0.000000
        optdriver           1
            prtwf          -1
            rfdir           1       1       1
           rfelfd           2
            rprim      1.0931620298E+01  0.0000000000E+00  0.0000000000E+00
                       0.0000000000E+00  1.0931620298E+01  0.0000000000E+00
                       0.0000000000E+00  0.0000000000E+00  1.1172977177E+01
          spgroup         111
           symrel      1  0  0   0  1  0   0  0  1      -1  0  0   0  1  0   0  0 -1
                      -1  0  0   0 -1  0   0  0  1       1  0  0   0 -1  0   0  0 -1
                       0  1  0   1  0  0   0  0  1       0 -1  0   1  0  0   0  0 -1
                       0 -1  0  -1  0  0   0  0  1       0  1  0  -1  0  0   0  0 -1
           tolwfr      1.00000000E-20
            typat      1  2  2  3  3  3  3
           useylm           1
              wtk        0.50000    0.50000
           xangst      0.0000000000E+00  0.0000000000E+00  0.0000000000E+00
                       2.8923821574E+00  0.0000000000E+00  2.9562424371E+00
                       0.0000000000E+00  2.8923821574E+00  2.9562424371E+00
                       1.6003029848E+00  4.1844613299E+00  4.5613106184E+00
                       4.1844613299E+00  4.1844613299E+00  1.3511742558E+00
                       4.1844613299E+00  1.6003029848E+00  4.5613106184E+00
                       1.6003029848E+00  1.6003029848E+00  1.3511742558E+00
            xcart      0.0000000000E+00  0.0000000000E+00  0.0000000000E+00
                       5.4658101491E+00  0.0000000000E+00  5.5864885885E+00
                       0.0000000000E+00  5.4658101491E+00  5.5864885885E+00
                       3.0241343709E+00  7.9074859272E+00  8.6196278757E+00
                       7.9074859272E+00  7.9074859272E+00  2.5533493013E+00
                       7.9074859272E+00  3.0241343709E+00  8.6196278757E+00
                       3.0241343709E+00  3.0241343709E+00  2.5533493013E+00
             xred      0.0000000000E+00  0.0000000000E+00  0.0000000000E+00
                       5.0000000000E-01  0.0000000000E+00  5.0000000000E-01
                       0.0000000000E+00  5.0000000000E-01  5.0000000000E-01
                       2.7664100000E-01  7.2335900000E-01  7.7147100000E-01
                       7.2335900000E-01  7.2335900000E-01  2.2852900000E-01
                       7.2335900000E-01  2.7664100000E-01  7.7147100000E-01
                       2.7664100000E-01  2.7664100000E-01  2.2852900000E-01
            znucl       48.00000   49.00000   34.00000

 chkinp: Checking input parameters for consistency.

== DATASET  1 ==================================================================
-   mpi_nproc: 1, omp_nthreads: -1 (-1 if OMP is not activated)

--- !DatasetInfo
iteration_state: {dtset: 1, }
dimensions: {natom: 7, nkpt: 2, mband: 64, nsppol: 1, nspinor: 1, nspden: 1, mpw: 23231, }
cutoff_energies: {ecut:  51.0, pawecutdg:  -1.0, }
electrons: {nelect:   1.10000000E+02, charge:   0.00000000E+00, occopt:   1.00000000E+00, tsmear:   1.00000000E-02, }
meta: {optdriver: 1, rfelfd: 2, }
...

 Real(R)+Recip(G) space primitive vectors, cartesian coordinates (Bohr,Bohr^-1):
 R(1)= 10.9316203  0.0000000  0.0000000  G(1)=  0.0914777  0.0000000  0.0000000
 R(2)=  0.0000000 10.9316203  0.0000000  G(2)=  0.0000000  0.0914777  0.0000000
 R(3)=  0.0000000  0.0000000 11.1729772  G(3)=  0.0000000  0.0000000  0.0895017
 Unit cell volume ucvol=  1.3351744E+03 bohr^3
 Angles (23,13,12)=  9.00000000E+01  9.00000000E+01  9.00000000E+01 degrees

 getcut: wavevector=  0.0000  0.0000  0.0000  ngfft=  72  72  72
         ecut(hartree)=     51.000   => boxcut(ratio)=   2.00453

--- Pseudopotential description ------------------------------------------------
- pspini: atom type   1  psp file is /scratch/users/j/a/jabreu/pseudos/PBEsol/Cd.psp8
- pspatm: opening atomic psp file    /scratch/users/j/a/jabreu/pseudos/PBEsol/Cd.psp8
- Cd    ONCVPSP-3.3.0  r_core=   1.25838   1.30423   1.35174
- 48.00000  20.00000    180112                znucl, zion, pspdat
    8 -116133    2    4       600   0.00000   pspcod,pspxc,lmax,lloc,mmax,r2well
    5.99000000000000    6.00000000000000    0.00000000000000   rchrg,fchrg,qchrg
     nproj     2     2     2
     extension_switch     1
  pspatm : epsatm=   23.26728021
         --- l  ekb(1:nproj) -->
             0   63.701523    3.700425
             1    8.703569    1.290373
             2    0.983656   -0.721725
 pspatm: atomic psp has been read  and splines computed

- pspini: atom type   2  psp file is /scratch/users/j/a/jabreu/pseudos/PBEsol/In.psp8
- pspatm: opening atomic psp file    /scratch/users/j/a/jabreu/pseudos/PBEsol/In.psp8
- In    ONCVPSP-3.3.0  r_core=   2.10853   2.37566   1.87143
- 49.00000  13.00000    180112                znucl, zion, pspdat
    8 -116133    2    4       600   0.00000   pspcod,pspxc,lmax,lloc,mmax,r2well
    5.99000000000000    5.00000000000000    0.00000000000000   rchrg,fchrg,qchrg
     nproj     2     2     2
     extension_switch     1
  pspatm : epsatm=   25.17984752
         --- l  ekb(1:nproj) -->
             0   12.999887    1.931740
             1    5.981707    1.012544
             2   -4.048011   -1.239028
 pspatm: atomic psp has been read  and splines computed

- pspini: atom type   3  psp file is /scratch/users/j/a/jabreu/pseudos/PBEsol/Se.psp8
- pspatm: opening atomic psp file    /scratch/users/j/a/jabreu/pseudos/PBEsol/Se.psp8
- Se    ONCVPSP-3.3.0  r_core=   1.81943   1.50330   1.90835
- 34.00000  16.00000    180112                znucl, zion, pspdat
    8 -116133    2    4       600   0.00000   pspcod,pspxc,lmax,lloc,mmax,r2well
    5.99000000000000    5.00000000000000    0.00000000000000   rchrg,fchrg,qchrg
     nproj     2     2     2
     extension_switch     1
  pspatm : epsatm=   29.17862020
         --- l  ekb(1:nproj) -->
             0    8.973804    1.019550
             1    6.849857    1.297308
             2   -9.203962   -3.731027
 pspatm: atomic psp has been read  and splines computed

   2.09375602E+04                                ecore*ucvol(ha*bohr**3)

-inwffil : will read wavefunctions from disk file /scratch/users/j/a/jabreu/flow_simple_7atoms/flow/w201/t1/indata/in_WFK

 ==>  initialize data related to q vector <==

 The list of irreducible perturbations for this q vector is:
    1)    idir= 1    ipert=   8
    2)    idir= 2    ipert=   8
    3)    idir= 3    ipert=   8

 Perturbation wavevector (in red.coord.)   0.000000  0.000000  0.000000
 Perturbation : derivative vs k along direction   1

 dfpt_looppert : COMMENT -
  In a d/dk calculation, iscf is set to -3 automatically.
 The set of symmetries contains only one element for this perturbation.
 symkpt : not enough symmetry to change the number of k points.

[...]

 Initialisation of the first-order wave-functions :
  ireadwf=   0

--- !BeginCycle
iteration_state: {dtset: 1, }
solver: {iscf: 7, nstep: 2000, nline: 4, wfoptalg: 0, }
tolerances: {tolwfr: 1.00E-20, }
...

     iter   2DEtotal(Ha)        deltaE(Ha) residm    vres2
-ETOT  1  -85.207443817865     -8.521E+01 1.250E-01 0.000E+00
 ETOT  2  -85.328181002805     -1.207E-01 8.478E-03 0.000E+00
 ETOT  3  -85.329884513349     -1.704E-03 7.522E-04 0.000E+00
 ETOT  4  -85.329945218870     -6.071E-05 6.217E-05 0.000E+00
 ETOT  5  -85.329948121585     -2.903E-06 1.168E-05 0.000E+00
 ETOT  6  -85.329948303800     -1.822E-07 1.053E-06 0.000E+00
 ETOT  7  -85.329948319443     -1.564E-08 2.336E-07 0.000E+00
 ETOT  8  -85.329948321209     -1.766E-09 2.045E-08 0.000E+00
 ETOT  9  -85.329948321437     -2.272E-10 5.819E-09 0.000E+00
 ETOT 10  -85.329948321468     -3.122E-11 5.182E-10 0.000E+00
 ETOT 11  -85.329948321472     -4.562E-12 1.895E-10 0.000E+00
 ETOT 12  -85.329948321473     -5.684E-13 1.763E-11 0.000E+00
 ETOT 13  -85.329948321473     -7.105E-14 7.320E-12 0.000E+00
 ETOT 14  -85.329948321473      1.421E-14 6.991E-13 0.000E+00
 ETOT 15  -85.329948321473     -2.842E-14 3.003E-13 0.000E+00
 ETOT 16  -85.329948321473      2.842E-14 2.907E-14 0.000E+00
 ETOT 17  -85.329948321473     -8.527E-14 1.252E-14 0.000E+00
 ETOT 18  -85.329948321473      1.421E-14 1.223E-15 0.000E+00
 ETOT 19  -85.329948321473      2.842E-14 5.240E-16 0.000E+00
 ETOT 20  -85.329948321473      0.000E+00 5.164E-17 0.000E+00
 ETOT 21  -85.329948321473     -4.263E-14 2.197E-17 0.000E+00
 ETOT 22  -85.329948321473      0.000E+00 2.183E-18 0.000E+00
 ETOT 23  -85.329948321473      5.684E-14 9.220E-19 0.000E+00
 ETOT 24  -85.329948321473      0.000E+00 9.233E-20 0.000E+00
 ETOT 25  -85.329948321473      1.421E-14 3.871E-20 0.000E+00
 ETOT 26  -85.329948321473     -1.421E-14 9.920E-21 0.000E+00

 At SCF step   26   max residual=  9.92E-21 < tolwfr=  1.00E-20 =>converged.

 ----iterations are completed or convergence reached----

 dfpt_looppert: DFPT cycle converged with prtwf=-1. Will skip output of the 1st-order WFK file.
 dfpt_looppert : ek2=    7.2679735943E+01
          f-sum rule ratio=    1.1262980755E+00
 prteigrs : about to open file /scratch/users/j/a/jabreu/flow_simple_7atoms/flow/w201/t1/tmpdata/tmp_1WF1_EIG
 Expectation of eigenvalue derivatives (hartree) for nkpt=   2  k points:
  (in case of degenerate eigenvalues, averaged derivative)
 kpt#   1, nband= 64, wtk=  0.50000, kpt=  0.1667  0.1667  0.0000 (reduced coord)
  -0.00000   -0.00000   -0.00000   -0.00000    0.00000    0.00001   -0.00001   -0.00000
   0.00001   -0.00000   -0.00000   -0.00000    0.00000    0.00000   -0.00000   -0.00000
   0.00001   -0.00001    0.00000   -0.00000    0.00000   -0.00000   -0.00000   -0.00000
  -0.00298    0.00637    0.00204   -0.00802   -0.00013    0.00106   -0.00393    0.00217
  -0.00059   -0.00111    0.03291   -0.02772   -0.00281   -0.00397    0.00079   -0.00161
  -0.00168    0.00103   -0.00081    0.03971    0.01262    0.00264   -0.08280    0.01633
  -0.00629   -0.02711    0.02469    0.00043   -0.12184   -0.07135   -0.00040    0.12165
   0.08494    0.07567    0.09358    0.08668    0.16557   -0.03611    0.02209    0.11716
 prteigrs : prtvol=0 or 1, do not print more k-points.

 Eight components of 2nd-order total energy (hartree) are
 1,2,3: 0th-order hamiltonian combined with 1st-order wavefunctions
     kin0=   9.29132824E+01 eigvalue=   1.26407349E+01  local=  -4.36156407E+01
 4,5,6: 1st-order hamiltonian combined with 1st and 0th-order wfs
     kin1=  -8.18590467E+01  Hartree=   0.00000000E+00     xc=   0.00000000E+00
 7,8,9: eventually, occupation + non-local contributions
    edocc=   1.22585585E+01     enl0=   1.11330132E+01   enl1=  -8.88008499E+01
 1-9 gives the relaxation energy (to be shifted if some occ is /=2.0)
   erelax=  -8.53299483E+01
  No Ewald or frozen-wf contrib.: the relaxation energy is the total one
 2DEtotal=   -0.8532994832E+02 Ha. Also 2DEtotal=   -0.232194597853E+04 eV
    (  non-var. 2DEtotal :   -8.5329948321E+01 Ha)

 Perturbation wavevector (in red.coord.)   0.000000  0.000000  0.000000
 Perturbation : derivative vs k along direction   2
 The set of symmetries contains only one element for this perturbation.
 symkpt : not enough symmetry to change the number of k points.

[...]

 Perturbation wavevector (in red.coord.)   0.000000  0.000000  0.000000
 Perturbation : derivative vs k along direction   3
 The set of symmetries contains only one element for this perturbation.
 symkpt : not enough symmetry to change the number of k points.

-inwffil : will read wavefunctions from disk file /scratch/users/j/a/jabreu/flow_simple_7atoms/flow/w201/t1/indata/in_WFK

 Initialisation of the first-order wave-functions :
  ireadwf=   0

--- !BeginCycle
iteration_state: {dtset: 1, }
solver: {iscf: 7, nstep: 2000, nline: 4, wfoptalg: 0, }
tolerances: {tolwfr: 1.00E-20, }
...

     iter   2DEtotal(Ha)        deltaE(Ha) residm    vres2
-ETOT  1  -81.611254172010     -8.161E+01 9.712E-02 0.000E+00
 ETOT  2  -81.710576760491     -9.932E-02 3.409E-03 0.000E+00
 ETOT  3  -81.711706459295     -1.130E-03 4.061E-04 0.000E+00
 ETOT  4  -81.711744776969     -3.832E-05 2.466E-05 0.000E+00
 ETOT  5  -81.711746631927     -1.855E-06 6.643E-06 0.000E+00
 ETOT  6  -81.711746742595     -1.107E-07 4.434E-07 0.000E+00
 ETOT  7  -81.711746750600     -8.004E-09 1.656E-07 0.000E+00
 ETOT  8  -81.711746751302     -7.024E-10 1.149E-08 0.000E+00
 ETOT  9  -81.711746751375     -7.277E-11 5.613E-09 0.000E+00
 ETOT 10  -81.711746751383     -8.384E-12 4.120E-10 0.000E+00
 ETOT 11  -81.711746751384     -1.123E-12 2.238E-10 0.000E+00
 ETOT 12  -81.711746751384     -7.105E-14 1.689E-11 0.000E+00
 ETOT 13  -81.711746751384     -2.842E-14 9.352E-12 0.000E+00
 ETOT 14  -81.711746751385     -4.263E-14 7.160E-13 0.000E+00
 ETOT 15  -81.711746751385      2.842E-14 3.948E-13 0.000E+00
 ETOT 16  -81.711746751385     -1.421E-14 3.056E-14 0.000E+00
 ETOT 17  -81.711746751384      8.527E-14 1.671E-14 0.000E+00
 ETOT 18  -81.711746751385     -7.105E-14 1.307E-15 0.000E+00
 ETOT 19  -81.711746751385     -1.421E-14 7.082E-16 0.000E+00
 ETOT 20  -81.711746751385      1.421E-14 5.594E-17 0.000E+00
 ETOT 21  -81.711746751385      0.000E+00 3.003E-17 0.000E+00
 ETOT 22  -81.711746751385      0.000E+00 2.395E-18 0.000E+00
 ETOT 23  -81.711746751385     -2.842E-14 1.274E-18 0.000E+00
 ETOT 24  -81.711746751385      1.421E-14 1.026E-19 0.000E+00
 ETOT 25  -81.711746751385      1.421E-14 5.411E-20 0.000E+00
 ETOT 26  -81.711746751385      0.000E+00 9.951E-21 0.000E+00

 At SCF step   26   max residual=  9.95E-21 < tolwfr=  1.00E-20 =>converged.

 ----iterations are completed or convergence reached----

 dfpt_looppert: DFPT cycle converged with prtwf=-1. Will skip output of the 1st-order WFK file.
 dfpt_looppert : ek2=    6.9573618951E+01
          f-sum rule ratio=    1.1268554689E+00
 prteigrs : about to open file /scratch/users/j/a/jabreu/flow_simple_7atoms/flow/w201/t1/tmpdata/tmp_1WF1_EIG
 Expectation of eigenvalue derivatives (hartree) for nkpt=   2  k points:
  (in case of degenerate eigenvalues, averaged derivative)
 kpt#   1, nband= 64, wtk=  0.50000, kpt=  0.1667  0.1667  0.0000 (reduced coord)
  -0.00000    0.00000   -0.00000   -0.00000   -0.00000   -0.00000    0.00000    0.00000
  -0.00000   -0.00000    0.00000   -0.00000   -0.00000   -0.00000    0.00000   -0.00000
   0.00000    0.00000   -0.00000   -0.00000   -0.00000   -0.00000   -0.00000    0.00000
  -0.00000    0.00000   -0.00000   -0.00000    0.00000   -0.00000    0.00000    0.00000
  -0.00000   -0.00000    0.00000   -0.00000   -0.00000   -0.00000    0.00000    0.00000
  -0.00000    0.00000    0.00000    0.00000   -0.00000   -0.00000    0.00000   -0.00000
  -0.00000    0.00000    0.00000   -0.00000   -0.00000    0.00000    0.00000   -0.00000
  -0.00000    0.00000    0.00000    0.00000   -0.00000    0.00000    0.00000    0.00004
 prteigrs : prtvol=0 or 1, do not print more k-points.

 Eight components of 2nd-order total energy (hartree) are
 1,2,3: 0th-order hamiltonian combined with 1st-order wavefunctions
     kin0=   8.59879754E+01 eigvalue=   1.26018454E+01  local=  -4.00548516E+01
 4,5,6: 1st-order hamiltonian combined with 1st and 0th-order wfs
     kin1=  -7.83994130E+01  Hartree=   0.00000000E+00     xc=   0.00000000E+00
 7,8,9: eventually, occupation + non-local contributions
    edocc=   1.24616285E+01     enl0=   1.07151491E+01   enl1=  -8.50240805E+01
 1-9 gives the relaxation energy (to be shifted if some occ is /=2.0)
   erelax=  -8.17117468E+01
  No Ewald or frozen-wf contrib.: the relaxation energy is the total one
 2DEtotal=   -0.8171174675E+02 Ha. Also 2DEtotal=   -0.222348970672E+04 eV
    (  non-var. 2DEtotal :   -8.1711746751E+01 Ha)

 CALCULATION OF EFFECTIVE MASSES
 NOTE : Additional infos (eff. mass eigenvalues, eigenvectors and, if degenerate, average mass) are available in stdout.

 K-point ( 0.167, 0.167, 0.000) | band =    55
 Effective mass tensor:
             -2.4657144088             -2.1256236221              0.0000717121
             -2.1256236221             -2.4658797080             -0.0001047828
              0.0000717121             -0.0001047828             -1.1075593914
 Effective mass tensor eigenvalues:
             -4.5914206822             -1.1075594116             -0.3401734144
 Angular average effective mass 1/(<1/m>)=  -0.7388506105
 Angular average effective mass for Frohlich model (<m**0.5>)**2=  -0.9672693767
 Effective masses along directions: (cart. coord. / red. coord. -> eff. mass)
    1:   1.000000  0.000000  0.000000 /   1.000000  0.000000  0.000000 ->  -0.6333963819
    2:   0.000000  1.000000  0.000000 /   0.000000  1.000000  0.000000 ->  -0.6334388429
    3:   0.000000  0.000000  1.000000 /   0.000000  0.000000  1.000000 ->  -1.1075593455
    4:   0.577350  0.577350  0.577350 /   0.573102  0.573102  0.585755 ->  -2.2413681684
    5:   0.000000  0.707107  0.707107 /   0.000000  0.699344  0.714785 ->  -0.8060955072
    6:   0.707107  0.000000  0.707107 /   0.699344  0.000000  0.714785 ->  -0.8057568715
    7:   0.707107  0.707107  0.000000 /   0.707107  0.707107  0.000000 ->  -4.5914206599

 K-point ( 0.000, 0.000, 0.000) | band =    56
 Effective mass tensor:
              0.1147873210             -0.0000002341             -0.0000007100
             -0.0000002341              0.1147879138             -0.0000007544
             -0.0000007100             -0.0000007544              0.1023585898
 Effective mass tensor eigenvalues:
              0.1023585897              0.1147872397              0.1147879951
 Angular average effective mass 1/(<1/m>)=   0.1103222745
 Angular average effective mass for Frohlich model (<m**0.5>)**2=   0.1104207921
 Effective masses along directions: (cart. coord. / red. coord. -> eff. mass)
    1:   1.000000  0.000000  0.000000 /   1.000000  0.000000  0.000000 ->   0.1147873210
    2:   0.000000  1.000000  0.000000 /   0.000000  1.000000  0.000000 ->   0.1147879138
    3:   0.000000  0.000000  1.000000 /   0.000000  0.000000  1.000000 ->   0.1023585898
    4:   0.577350  0.577350  0.577350 /   0.573102  0.573102  0.585755 ->   0.1103211190
    5:   0.000000  0.707107  0.707107 /   0.000000  0.699344  0.714785 ->   0.1082167767
    6:   0.707107  0.000000  0.707107 /   0.699344  0.000000  0.714785 ->   0.1082165575
    7:   0.707107  0.707107  0.000000 /   0.707107  0.707107  0.000000 ->   0.1147873832

 END OF EFFECTIVE MASSES SECTION

 ---- first-order wavefunction calculations are completed ----

 Total localisation tensor (bohr^2) in cartesian coordinates
  WARNING : still subject to testing - especially symmetries.
      direction              matrix element
   alpha     beta       real part   imaginary part
     1        1       2.1714939078    0.0000000000
     1        2       0.0000000000    0.0000000000
     1        3       0.0000000000    0.0000000000
     2        1       0.0000000000    0.0000000000
     2        2       2.1714924547    0.0000000000
     2        3       0.0000000000    0.0000000000
     3        1       0.0000000000    0.0000000000
     3        2       0.0000000000    0.0000000000
     3        3       2.2671966637    0.0000000000

 respfn : d/dk was computed, but no 2DTE, so no DDB output.

== END DATASET(S) ==============================================================

 -outvars: echo values of variables after computation  --------
            acell      1.0000000000E+00  1.0000000000E+00  1.0000000000E+00 Bohr
              amu      1.12411000E+02  1.14820000E+02  7.89600000E+01
        autoparal           1
             ecut      5.10000000E+01 Hartree
           etotal     -8.1711746751E+01
            fcart      0.0000000000E+00  0.0000000000E+00  0.0000000000E+00
                       0.0000000000E+00  0.0000000000E+00  0.0000000000E+00
                       0.0000000000E+00  0.0000000000E+00  0.0000000000E+00
                       0.0000000000E+00  0.0000000000E+00  0.0000000000E+00
                       0.0000000000E+00  0.0000000000E+00  0.0000000000E+00
                       0.0000000000E+00  0.0000000000E+00  0.0000000000E+00
                       0.0000000000E+00  0.0000000000E+00  0.0000000000E+00
-          fftalg         512
           irdden           1
           irdwfk           1
           istwfk        0    1
              ixc     -116133
              kpt      1.66666667E-01  1.66666667E-01  0.00000000E+00
                       0.00000000E+00  0.00000000E+00  0.00000000E+00
           kptopt           0
P           mkmem           2
P          mkqmem           2
P          mk1mem           2
            natom           7
            nband          64
           nbdbuf           4
            ngfft          72      72      72
             nkpt           2
            nstep        2000
             nsym           8
           ntypat           3
              occ      2.000000  2.000000  2.000000  2.000000  2.000000  2.000000
                       2.000000  2.000000  2.000000  2.000000  2.000000  2.000000
                       2.000000  2.000000  2.000000  2.000000  2.000000  2.000000
                       2.000000  2.000000  2.000000  2.000000  2.000000  2.000000
                       2.000000  2.000000  2.000000  2.000000  2.000000  2.000000
                       2.000000  2.000000  2.000000  2.000000  2.000000  2.000000
                       2.000000  2.000000  2.000000  2.000000  2.000000  2.000000
                       2.000000  2.000000  2.000000  2.000000  2.000000  2.000000
                       2.000000  2.000000  2.000000  2.000000  2.000000  2.000000
                       2.000000  0.000000  0.000000  0.000000  0.000000  0.000000
                       0.000000  0.000000  0.000000  0.000000
        optdriver           1
            prtwf          -1
            rfdir           1       1       1
           rfelfd           2
            rprim      1.0931620298E+01  0.0000000000E+00  0.0000000000E+00
                       0.0000000000E+00  1.0931620298E+01  0.0000000000E+00
                       0.0000000000E+00  0.0000000000E+00  1.1172977177E+01
          spgroup         111
           strten      0.0000000000E+00  0.0000000000E+00  0.0000000000E+00
                       0.0000000000E+00  0.0000000000E+00  0.0000000000E+00
           symrel      1  0  0   0  1  0   0  0  1      -1  0  0   0  1  0   0  0 -1
                      -1  0  0   0 -1  0   0  0  1       1  0  0   0 -1  0   0  0 -1
                       0  1  0   1  0  0   0  0  1       0 -1  0   1  0  0   0  0 -1
                       0 -1  0  -1  0  0   0  0  1       0  1  0  -1  0  0   0  0 -1
           tolwfr      1.00000000E-20
            typat      1  2  2  3  3  3  3
           useylm           1
              wtk        0.50000    0.50000
           xangst      0.0000000000E+00  0.0000000000E+00  0.0000000000E+00
                       2.8923821574E+00  0.0000000000E+00  2.9562424371E+00
                       0.0000000000E+00  2.8923821574E+00  2.9562424371E+00
                       1.6003029848E+00  4.1844613299E+00  4.5613106184E+00
                       4.1844613299E+00  4.1844613299E+00  1.3511742558E+00
                       4.1844613299E+00  1.6003029848E+00  4.5613106184E+00
                       1.6003029848E+00  1.6003029848E+00  1.3511742558E+00
            xcart      0.0000000000E+00  0.0000000000E+00  0.0000000000E+00
                       5.4658101491E+00  0.0000000000E+00  5.5864885885E+00
                       0.0000000000E+00  5.4658101491E+00  5.5864885885E+00
                       3.0241343709E+00  7.9074859272E+00  8.6196278757E+00
                       7.9074859272E+00  7.9074859272E+00  2.5533493013E+00
                       7.9074859272E+00  3.0241343709E+00  8.6196278757E+00
                       3.0241343709E+00  3.0241343709E+00  2.5533493013E+00
             xred      0.0000000000E+00  0.0000000000E+00  0.0000000000E+00
                       5.0000000000E-01  0.0000000000E+00  5.0000000000E-01
                       0.0000000000E+00  5.0000000000E-01  5.0000000000E-01
                       2.7664100000E-01  7.2335900000E-01  7.7147100000E-01
                       7.2335900000E-01  7.2335900000E-01  2.2852900000E-01
                       7.2335900000E-01  2.7664100000E-01  7.7147100000E-01
                       2.7664100000E-01  2.7664100000E-01  2.2852900000E-01
            znucl       48.00000   49.00000   34.00000

- Timing analysis has been suppressed with timopt=0

 Suggested references for the acknowledgment of ABINIT usage.

 Calculation completed.
.Delivered  14 WARNINGs and  11 COMMENTs to log file.