.Version 9.5.2 of ABINIT

 ABINIT is a project of the Universite Catholique de Louvain,
 Corning Inc. and other collaborators, see ~abinit/doc/developers/contributors.txt .
 acknowledgments of the ABINIT effort.

.Starting date : Mon 24 May 2021.
- ( at 18h12 )

- input  file    -> /scratch/users/j/a/jabreu/flow_simple_10atoms/flow/w381/t1/run.abi
- output file    -> /scratch/users/j/a/jabreu/flow_simple_10atoms/flow/w381/t1/run.abo
- root for input  files -> /scratch/users/j/a/jabreu/flow_simple_10atoms/flow/w381/t1/indata/in
- root for output files -> /scratch/users/j/a/jabreu/flow_simple_10atoms/flow/w381/t1/outdata/out

 Symmetries : space group P2_1/m (# 11); Bravais mP (primitive monocl.)
     intxc =       0      iscf =       7    lmnmax =      18     lnmax =       6
     mgfft =      90  mpssoang =       3    mqgrid =    4190     natom =      10
  nloc_mem =       1    nspden =       1   nspinor =       1    nsppol =       1
      nsym =       4    n1xccc =    2501    ntypat =       3    occopt =       1
   xclevel =       2
-    mband =          41        mffmem =           1         mkmem =           2
-   mkqmem =           2        mk1mem =           2           mpw =       16584
      nfft =      288000          nkpt =           2
  Rough estimation (10% accuracy) of disk space for files :

------------- Echo of variables that govern the present computation ------------
-
- outvars: echo of selected default values
-   iomode0 =  0 , fftalg0 =512 , wfoptalg0 =  0
-
- outvars: echo of global parameters not present in the input file
-  max_nthreads =    0
-
 -outvars: echo values of preprocessed input variables --------
            acell      1.0000000000E+00  1.0000000000E+00  1.0000000000E+00 Bohr
              amu      1.37327000E+02  1.40067400E+01  3.54527000E+01
             ecut      4.20000000E+01 Hartree
-          fftalg         512
           irdden           1
           irdwfk           1
           istwfk        1    1
              ixc     -116133
              kpt      0.00000000E+00  5.00000000E-01  0.00000000E+00
                       0.00000000E+00  0.00000000E+00  5.00000000E-01
           kptopt           0
P           mkmem           2
P          mkqmem           2
P          mk1mem           2
            natom          10
            nband          41
           nbdbuf           4
            ngfft          50      64      90
             nkpt           2
            nstep        2000
             nsym           4
           ntypat           3
              occ      2.000000  2.000000  2.000000  2.000000  2.000000  2.000000
                       2.000000  2.000000  2.000000  2.000000  2.000000  2.000000
                       2.000000  2.000000  2.000000  2.000000  2.000000  2.000000
                       2.000000  2.000000  2.000000  2.000000  2.000000  2.000000
                       2.000000  2.000000  2.000000  2.000000  2.000000  2.000000
                       2.000000  2.000000  0.000000  0.000000  0.000000  0.000000
                       0.000000  0.000000  0.000000  0.000000  0.000000
        optdriver           1
            prtwf          -1
            rfdir           1       1       1
           rfelfd           2
            rprim      8.4210933468E+00  0.0000000000E+00  0.0000000000E+00
                       0.0000000000E+00  1.0310604475E+01  2.1241228146E+00
                       0.0000000000E+00  0.0000000000E+00  1.4662966772E+01
          spgroup          11
           symrel      1  0  0   0  1  0   0  0  1      -1  0  0   0 -1  0   0  0 -1
                       1  0  0   0 -1  0   0  0 -1      -1  0  0   0  1  0   0  0  1
            tnons      0.0000000  0.0000000  0.0000000     0.0000000  0.0000000  0.0000000
                       0.5000000  0.0000000  0.0000000     0.5000000  0.0000000  0.0000000
           tolwfr      1.00000000E-20
            typat      1  1  2  2  2  2  2  2  3  3
           useylm           1
              wtk        0.50000    0.50000
           xangst      3.3421880029E+00  4.4543847048E+00  6.8420807430E+00
                       1.1140626676E+00  1.0017521900E+00  2.0412644648E+00
                       1.1140626676E+00  7.4739254413E-01  4.9739617985E+00
                       3.3421880029E+00  2.4397170687E+00  3.2471436918E+00
                       1.1140626676E+00  1.8874578044E+00  5.3127742211E+00
                       1.1140626676E+00  3.0164198262E+00  5.6362015160E+00
                       3.3421880029E+00  3.5686790904E+00  3.5705709867E+00
                       3.3421880029E+00  4.7087443507E+00  3.9093834093E+00
                       3.3421880029E+00  1.4325360224E+00  7.6385538393E+00
                       1.1140626676E+00  4.0236008724E+00  1.2447913685E+00
            xcart      6.3158200101E+00  8.4175671826E+00  1.2929658783E+01
                       2.1052733367E+00  1.8930372922E+00  3.8574308033E+00
                       2.1052733367E+00  1.4123672222E+00  9.3994255946E+00
                       6.3158200101E+00  4.6103971015E+00  6.1362122917E+00
                       2.1052733367E+00  3.5667783378E+00  1.0039688284E+01
                       2.1052733367E+00  5.7002073733E+00  1.0650877295E+01
                       6.3158200101E+00  6.7438261370E+00  6.7474013030E+00
                       6.3158200101E+00  8.8982372526E+00  7.3876639921E+00
                       6.3158200101E+00  2.7071007579E+00  1.4434774808E+01
                       2.1052733367E+00  7.6035037169E+00  2.3523147791E+00
             xred      7.5000000000E-01  8.1639900000E-01  7.6352400000E-01
                       2.5000000000E-01  1.8360100000E-01  2.3647600000E-01
                       2.5000000000E-01  1.3698200000E-01  6.2118800000E-01
                       7.5000000000E-01  4.4715100000E-01  3.5370800000E-01
                       2.5000000000E-01  3.4593300000E-01  6.3458400000E-01
                       2.5000000000E-01  5.5284900000E-01  6.4629200000E-01
                       7.5000000000E-01  6.5406700000E-01  3.6541600000E-01
                       7.5000000000E-01  8.6301800000E-01  3.7881200000E-01
                       7.5000000000E-01  2.6255500000E-01  9.4640300000E-01
                       2.5000000000E-01  7.3744500000E-01  5.3597000000E-02
            znucl       56.00000    7.00000   17.00000

 chkinp: Checking input parameters for consistency.

== DATASET  1 ==================================================================
-   mpi_nproc: 1, omp_nthreads: -1 (-1 if OMP is not activated)

--- !DatasetInfo
iteration_state: {dtset: 1, }
dimensions: {natom: 10, nkpt: 2, mband: 41, nsppol: 1, nspinor: 1, nspden: 1, mpw: 16584, }
cutoff_energies: {ecut:  42.0, pawecutdg:  -1.0, }
electrons: {nelect:   6.40000000E+01, charge:   0.00000000E+00, occopt:   1.00000000E+00, tsmear:   1.00000000E-02, }
meta: {optdriver: 1, rfelfd: 2, }
...

 Real(R)+Recip(G) space primitive vectors, cartesian coordinates (Bohr,Bohr^-1):
 R(1)=  8.4210933  0.0000000  0.0000000  G(1)=  0.1187494  0.0000000  0.0000000
 R(2)=  0.0000000 10.3106045  2.1241228  G(2)=  0.0000000  0.0969875  0.0000000
 R(3)=  0.0000000  0.0000000 14.6629668  G(3)=  0.0000000 -0.0140499  0.0681990
 Unit cell volume ucvol=  1.2731350E+03 bohr^3
 Angles (23,13,12)=  7.83591624E+01  9.00000000E+01  9.00000000E+01 degrees

 getcut: wavevector=  0.0000  0.0000  0.0000  ngfft=  50  64  90
         ecut(hartree)=     42.000   => boxcut(ratio)=   2.03522

--- Pseudopotential description ------------------------------------------------
- pspini: atom type   1  psp file is /scratch/users/j/a/jabreu/pseudos/PBEsol/Ba.psp8
- pspatm: opening atomic psp file    /scratch/users/j/a/jabreu/pseudos/PBEsol/Ba.psp8
- Ba    ONCVPSP-3.3.0  r_core=   2.15444   1.91218   2.15444
- 56.00000  10.00000    180112                znucl, zion, pspdat
    8 -116133    2    4       600   0.00000   pspcod,pspxc,lmax,lloc,mmax,r2well
    5.99000000000000    5.00000000000000    0.00000000000000   rchrg,fchrg,qchrg
     nproj     2     2     2
     extension_switch     1
  pspatm : epsatm=   26.37418029
         --- l  ekb(1:nproj) -->
             0    6.652372    0.677024
             1    5.027722    0.408462
             2    2.543237    0.416854
 pspatm: atomic psp has been read  and splines computed

- pspini: atom type   2  psp file is /scratch/users/j/a/jabreu/pseudos/PBEsol/N.psp8
- pspatm: opening atomic psp file    /scratch/users/j/a/jabreu/pseudos/PBEsol/N.psp8
- N     ONCVPSP-3.3.0  r_core=   1.20551   1.35824
-  7.00000   5.00000    180112                znucl, zion, pspdat
    8 -116133    1    4       600   0.00000   pspcod,pspxc,lmax,lloc,mmax,r2well
    5.99000000000000    4.00000000000000    0.00000000000000   rchrg,fchrg,qchrg
     nproj     2     2
     extension_switch     1
  pspatm : epsatm=    5.26508895
         --- l  ekb(1:nproj) -->
             0    7.464189    0.625868
             1   -4.309714   -1.012941
 pspatm: atomic psp has been read  and splines computed

- pspini: atom type   3  psp file is /scratch/users/j/a/jabreu/pseudos/PBEsol/Cl.psp8
- pspatm: opening atomic psp file    /scratch/users/j/a/jabreu/pseudos/PBEsol/Cl.psp8
- Cl    ONCVPSP-3.3.0  r_core=   1.56009   1.35202   1.75774
- 17.00000   7.00000    180112                znucl, zion, pspdat
    8 -116133    2    4       600   0.00000   pspcod,pspxc,lmax,lloc,mmax,r2well
    5.99000000000000    8.00000000000000    0.00000000000000   rchrg,fchrg,qchrg
     nproj     2     2     2
     extension_switch     1
  pspatm : epsatm=    8.95520722
         --- l  ekb(1:nproj) -->
             0    8.193503    0.707970
             1    3.869736    1.114731
             2   -2.915303   -0.810552
 pspatm: atomic psp has been read  and splines computed

   6.54395576E+03                                ecore*ucvol(ha*bohr**3)

 ==>  initialize data related to q vector <==

 The list of irreducible perturbations for this q vector is:
    1)    idir= 1    ipert=  11
    2)    idir= 2    ipert=  11
    3)    idir= 3    ipert=  11

 Perturbation wavevector (in red.coord.)   0.000000  0.000000  0.000000
 Perturbation : derivative vs k along direction   1

 dfpt_looppert : COMMENT -
  In a d/dk calculation, iscf is set to -3 automatically.
 The set of symmetries contains only one element for this perturbation.
 symkpt : not enough symmetry to change the number of k points.

 Initialisation of the first-order wave-functions :
  ireadwf=   0

--- !BeginCycle
iteration_state: {dtset: 1, }
solver: {iscf: 7, nstep: 2000, nline: 4, wfoptalg: 0, }
tolerances: {tolwfr: 1.00E-20, }
...

     iter   2DEtotal(Ha)        deltaE(Ha) residm    vres2
-ETOT  1  -37.477375910094     -3.748E+01 9.575E-02 0.000E+00
 ETOT  2  -37.515727550594     -3.835E-02 1.458E-02 0.000E+00
 ETOT  3  -37.515928529891     -2.010E-04 1.937E-03 0.000E+00
 ETOT  4  -37.515930693230     -2.163E-06 5.081E-04 0.000E+00
 ETOT  5  -37.515930722375     -2.915E-08 8.157E-05 0.000E+00
 ETOT  6  -37.515930722811     -4.360E-10 2.466E-05 0.000E+00
 ETOT  7  -37.515930722818     -6.999E-12 3.974E-06 0.000E+00
 ETOT  8  -37.515930722819     -1.208E-13 1.275E-06 0.000E+00
[...]
 ETOT 22  -37.515930722819      1.421E-14 3.209E-15 0.000E+00
 ETOT 23  -37.515930722819      1.421E-14 6.002E-16 0.000E+00
 ETOT 24  -37.515930722819      0.000E+00 1.986E-16 0.000E+00
 ETOT 25  -37.515930722819     -2.842E-14 3.733E-17 0.000E+00
 ETOT 26  -37.515930722819      1.421E-14 1.233E-17 0.000E+00
 ETOT 27  -37.515930722819      0.000E+00 2.326E-18 0.000E+00
 ETOT 28  -37.515930722819     -7.105E-15 7.673E-19 0.000E+00
 ETOT 29  -37.515930722819      7.105E-15 1.451E-19 0.000E+00
 ETOT 30  -37.515930722819      0.000E+00 4.783E-20 0.000E+00
 ETOT 31  -37.515930722819      0.000E+00 9.981E-21 0.000E+00

 At SCF step   31   max residual=  9.98E-21 < tolwfr=  1.00E-20 =>converged.

 ----iterations are completed or convergence reached----

 dfpt_looppert: DFPT cycle converged with prtwf=-1. Will skip output of the 1st-order WFK file.
 dfpt_looppert : ek2=    7.1257854720E+01
          f-sum rule ratio=    1.0250134364E+00
 prteigrs : about to open file /scratch/users/j/a/jabreu/flow_simple_10atoms/flow/w381/t1/tmpdata/tmp_1WF1_EIG
 Expectation of eigenvalue derivatives (hartree) for nkpt=   2  k points:
  (in case of degenerate eigenvalues, averaged derivative)
 kpt#   1, nband= 41, wtk=  0.50000, kpt=  0.0000  0.5000  0.0000 (reduced coord)
  -0.00000   -0.00000   -0.00000    0.00000    0.00000    0.00000    0.00000    0.00000
   0.00000   -0.00000   -0.00000    0.00000    0.00000    0.00000   -0.00000   -0.00000
  -0.00000   -0.00000   -0.00000    0.00000   -0.00000    0.00000   -0.00000    0.00000
   0.00000   -0.00000    0.00000    0.00000    0.00000   -0.00000   -0.00000    0.00000
  -0.00000   -0.00000   -0.00000    0.00000    0.00000   -0.00000    0.00000   -0.00000
  -0.00000
 prteigrs : prtvol=0 or 1, do not print more k-points.

 Eight components of 2nd-order total energy (hartree) are
 1,2,3: 0th-order hamiltonian combined with 1st-order wavefunctions
     kin0=   5.44769366E+01 eigvalue=   2.30917584E+00  local=  -2.93001426E+01
 4,5,6: 1st-order hamiltonian combined with 1st and 0th-order wfs
     kin1=  -7.30402585E+01  Hartree=   0.00000000E+00     xc=   0.00000000E+00
 7,8,9: eventually, occupation + non-local contributions
    edocc=   8.05448684E+00     enl0=   1.97547409E+00   enl1=  -1.99160291E+00
 1-9 gives the relaxation energy (to be shifted if some occ is /=2.0)
   erelax=  -3.75159307E+01
  No Ewald or frozen-wf contrib.: the relaxation energy is the total one
 2DEtotal=   -0.3751593072E+02 Ha. Also 2DEtotal=   -0.102086039176E+04 eV
    (  non-var. 2DEtotal :   -3.7515930723E+01 Ha)

 Perturbation wavevector (in red.coord.)   0.000000  0.000000  0.000000
 Perturbation : derivative vs k along direction   2
 The set of symmetries contains only one element for this perturbation.
 symkpt : not enough symmetry to change the number of k points.

[...]

 Perturbation wavevector (in red.coord.)   0.000000  0.000000  0.000000
 Perturbation : derivative vs k along direction   3
 The set of symmetries contains only one element for this perturbation.
 symkpt : not enough symmetry to change the number of k points.

 Initialisation of the first-order wave-functions :
  ireadwf=   0

--- !BeginCycle
iteration_state: {dtset: 1, }
solver: {iscf: 7, nstep: 2000, nline: 4, wfoptalg: 0, }
tolerances: {tolwfr: 1.00E-20, }
...

     iter   2DEtotal(Ha)        deltaE(Ha) residm    vres2
-ETOT  1  -12.654577191606     -1.265E+01 1.675E-02 0.000E+00
 ETOT  2  -12.670582073126     -1.600E-02 3.611E-03 0.000E+00
 ETOT  3  -12.670661061573     -7.899E-05 2.181E-04 0.000E+00
 ETOT  4  -12.670661840989     -7.794E-07 8.533E-05 0.000E+00
 ETOT  5  -12.670661851156     -1.017E-08 8.452E-06 0.000E+00
 ETOT  6  -12.670661851310     -1.539E-10 5.006E-06 0.000E+00
 ETOT  7  -12.670661851312     -2.494E-12 5.284E-07 0.000E+00
 ETOT  8  -12.670661851313     -4.619E-14 3.110E-07 0.000E+00
 ETOT  9  -12.670661851313      7.105E-15 3.342E-08 0.000E+00
 ETOT 10  -12.670661851312      3.553E-15 1.976E-08 0.000E+00
 ETOT 11  -12.670661851312      8.882E-15 2.137E-09 0.000E+00
 ETOT 12  -12.670661851312      1.776E-15 1.271E-09 0.000E+00
 ETOT 13  -12.670661851312     -1.776E-15 1.377E-10 0.000E+00
 ETOT 14  -12.670661851312     -7.105E-15 8.237E-11 0.000E+00
 ETOT 15  -12.670661851312      0.000E+00 8.925E-12 0.000E+00
 ETOT 16  -12.670661851312      0.000E+00 5.360E-12 0.000E+00
 ETOT 17  -12.670661851312      7.105E-15 5.806E-13 0.000E+00
 ETOT 18  -12.670661851312     -7.105E-15 3.496E-13 0.000E+00
 ETOT 19  -12.670661851312      8.882E-15 3.787E-14 0.000E+00
 ETOT 20  -12.670661851312     -1.243E-14 2.284E-14 0.000E+00
 ETOT 21  -12.670661851312      1.066E-14 2.475E-15 0.000E+00
 ETOT 22  -12.670661851312      0.000E+00 1.494E-15 0.000E+00
 ETOT 23  -12.670661851312     -7.105E-15 1.620E-16 0.000E+00
 ETOT 24  -12.670661851312      1.776E-15 9.779E-17 0.000E+00
 ETOT 25  -12.670661851312      0.000E+00 1.283E-17 0.000E+00
 ETOT 26  -12.670661851312      7.105E-15 6.407E-18 0.000E+00
 ETOT 27  -12.670661851312      0.000E+00 1.284E-18 0.000E+00
 ETOT 28  -12.670661851312     -5.329E-15 4.201E-19 0.000E+00
 ETOT 29  -12.670661851312      3.553E-15 1.287E-19 0.000E+00
 ETOT 30  -12.670661851312      0.000E+00 3.054E-20 0.000E+00
 ETOT 31  -12.670661851312      1.776E-15 1.293E-20 0.000E+00
 ETOT 32  -12.670661851312     -5.329E-15 9.991E-21 0.000E+00

 At SCF step   32   max residual=  9.99E-21 < tolwfr=  1.00E-20 =>converged.

 ----iterations are completed or convergence reached----

 dfpt_looppert: DFPT cycle converged with prtwf=-1. Will skip output of the 1st-order WFK file.
 dfpt_looppert : ek2=    2.4500655789E+01
          f-sum rule ratio=    1.0044960438E+00
 prteigrs : about to open file /scratch/users/j/a/jabreu/flow_simple_10atoms/flow/w381/t1/tmpdata/tmp_1WF1_EIG
 Expectation of eigenvalue derivatives (hartree) for nkpt=   2  k points:
  (in case of degenerate eigenvalues, averaged derivative)
 kpt#   1, nband= 41, wtk=  0.50000, kpt=  0.0000  0.5000  0.0000 (reduced coord)
   0.00000   -0.00000    0.00000    0.00000   -0.00000    0.00000    0.00000    0.00000
  -0.00000   -0.00000    0.00000   -0.00000   -0.00000    0.00000   -0.00000    0.00000
   0.00000    0.00000    0.00000    0.00000    0.00000   -0.00000   -0.00000   -0.00000
   0.00000    0.00000   -0.00000    0.00000    0.00000    0.00000    0.00000    0.00000
   0.00000    0.00000   -0.00000    0.00000   -0.00000   -0.00000    0.00000   -0.00000
   0.00001
 prteigrs : prtvol=0 or 1, do not print more k-points.

 Eight components of 2nd-order total energy (hartree) are
 1,2,3: 0th-order hamiltonian combined with 1st-order wavefunctions
     kin0=   1.82104278E+01 eigvalue=   8.69278503E-01  local=  -9.67251565E+00
 4,5,6: 1st-order hamiltonian combined with 1st and 0th-order wfs
     kin1=  -2.46108118E+01  Hartree=   0.00000000E+00     xc=   0.00000000E+00
 7,8,9: eventually, occupation + non-local contributions
    edocc=   2.48284083E+00     enl0=   7.80630359E-01   enl1=  -7.30511893E-01
 1-9 gives the relaxation energy (to be shifted if some occ is /=2.0)
   erelax=  -1.26706619E+01
  No Ewald or frozen-wf contrib.: the relaxation energy is the total one
 2DEtotal=   -0.1267066185E+02 Ha. Also 2DEtotal=   -0.344786243396E+03 eV
    (  non-var. 2DEtotal :   -1.2670661851E+01 Ha)

 CALCULATION OF EFFECTIVE MASSES
 NOTE : Additional infos (eff. mass eigenvalues, eigenvectors and, if degenerate, average mass) are available in stdout.

 K-point ( 0.000, 0.500, 0.000) | band =    32
 Effective mass tensor:
            -92.9787634387              0.0001877190             -0.0001541759
              0.0001877190            -21.1142271337             13.3570214347
             -0.0001541759             13.3570214347            -12.9966166711
 Effective mass tensor eigenvalues:
            -92.9787634396            -31.0155050499             -3.0953387539
 Angular average effective mass 1/(<1/m>)=  -8.1952994672
 Angular average effective mass for Frohlich model (<m**0.5>)**2= -14.1212311739
 Effective masses along directions: (cart. coord. / red. coord. -> eff. mass)
    1:   1.000000  0.000000  0.000000 /   1.000000  0.000000  0.000000 -> -92.9787634367
    2:   0.000000  1.000000  0.000000 /   0.000000  1.000000  0.000000 ->  -7.3868066732
    3:   0.000000  0.000000  1.000000 /   0.000000  0.143367  0.989670 ->  -4.5468628402
    4:   0.577350  0.577350  0.577350 /   0.401214  0.592439  0.698601 ->  -4.6560385148
    5:   0.000000  0.707107  0.707107 /   0.000000  0.646778  0.762678 ->  -3.1567175873
    6:   0.707107  0.000000  0.707107 /   0.494138  0.124641  0.860402 ->  -8.6697621467
    7:   0.707107  0.707107  0.000000 /   0.632569  0.774504  0.000000 -> -13.6862820368

 K-point ( 0.000, 0.000, 0.500) | band =    33
 Effective mass tensor:
              1.0855287656              0.0000073212             -0.0000136720
              0.0000073212              0.6776580073             -0.2521901125
             -0.0000136720             -0.2521901125              2.0157170990
 Effective mass tensor eigenvalues:
              0.6317047659              1.0855287655              2.0616703406
 Angular average effective mass 1/(<1/m>)=   1.0035889624
 Angular average effective mass for Frohlich model (<m**0.5>)**2=   1.0716492217
 Effective masses along directions: (cart. coord. / red. coord. -> eff. mass)
    1:   1.000000  0.000000  0.000000 /   1.000000  0.000000  0.000000 ->   1.0855287655
    2:   0.000000  1.000000  0.000000 /   0.000000  1.000000  0.000000 ->   0.6461060336
    3:   0.000000  0.000000  1.000000 /   0.000000  0.143367  0.989670 ->   1.9218646657
    4:   0.577350  0.577350  0.577350 /   0.401214  0.592439  0.698601 ->   0.8884819616
    5:   0.000000  0.707107  0.707107 /   0.000000  0.646778  0.762678 ->   0.8145507363
    6:   0.707107  0.000000  0.707107 /   0.494138  0.124641  0.860402 ->   1.3873969185
    7:   0.707107  0.707107  0.000000 /   0.632569  0.774504  0.000000 ->   0.8100683012

 END OF EFFECTIVE MASSES SECTION

 ---- first-order wavefunction calculations are completed ----

 Total localisation tensor (bohr^2) in cartesian coordinates
  WARNING : still subject to testing - especially symmetries.
      direction              matrix element
   alpha     beta       real part   imaginary part
     1        1       0.8436383053    0.0000000000
     1        2       0.0000000000    0.0000000000
     1        3       0.0000000000    0.0000000000
     2        1       0.0000000000    0.0000000000
     2        2       1.1548471692    0.0000000000
     2        3       0.2379140064    0.0000000000
     3        1       0.0000000000    0.0000000000
     3        2       0.2379140064    0.0000000000
     3        3       0.8974630010    0.0000000000

 respfn : d/dk was computed, but no 2DTE, so no DDB output.

== END DATASET(S) ==============================================================

 -outvars: echo values of variables after computation  --------
            acell      1.0000000000E+00  1.0000000000E+00  1.0000000000E+00 Bohr
              amu      1.37327000E+02  1.40067400E+01  3.54527000E+01
             ecut      4.20000000E+01 Hartree
           etotal     -1.2670661851E+01
            fcart      0.0000000000E+00  0.0000000000E+00  0.0000000000E+00
                       0.0000000000E+00  0.0000000000E+00  0.0000000000E+00
                       0.0000000000E+00  0.0000000000E+00  0.0000000000E+00
                       0.0000000000E+00  0.0000000000E+00  0.0000000000E+00
                       0.0000000000E+00  0.0000000000E+00  0.0000000000E+00
                       0.0000000000E+00  0.0000000000E+00  0.0000000000E+00
                       0.0000000000E+00  0.0000000000E+00  0.0000000000E+00
                       0.0000000000E+00  0.0000000000E+00  0.0000000000E+00
                       0.0000000000E+00  0.0000000000E+00  0.0000000000E+00
                       0.0000000000E+00  0.0000000000E+00  0.0000000000E+00
-          fftalg         512
           irdden           1
           irdwfk           1
           istwfk        1    1
              ixc     -116133
              kpt      0.00000000E+00  5.00000000E-01  0.00000000E+00
                       0.00000000E+00  0.00000000E+00  5.00000000E-01
           kptopt           0
P           mkmem           2
P          mkqmem           2
P          mk1mem           2
            natom          10
            nband          41
           nbdbuf           4
            ngfft          50      64      90
             nkpt           2
            nstep        2000
             nsym           4
           ntypat           3
              occ      2.000000  2.000000  2.000000  2.000000  2.000000  2.000000
                       2.000000  2.000000  2.000000  2.000000  2.000000  2.000000
                       2.000000  2.000000  2.000000  2.000000  2.000000  2.000000
                       2.000000  2.000000  2.000000  2.000000  2.000000  2.000000
                       2.000000  2.000000  2.000000  2.000000  2.000000  2.000000
                       2.000000  2.000000  0.000000  0.000000  0.000000  0.000000
                       0.000000  0.000000  0.000000  0.000000  0.000000
        optdriver           1
            prtwf          -1
            rfdir           1       1       1
           rfelfd           2
            rprim      8.4210933468E+00  0.0000000000E+00  0.0000000000E+00
                       0.0000000000E+00  1.0310604475E+01  2.1241228146E+00
                       0.0000000000E+00  0.0000000000E+00  1.4662966772E+01
          spgroup          11
           strten      0.0000000000E+00  0.0000000000E+00  0.0000000000E+00
                       0.0000000000E+00  0.0000000000E+00  0.0000000000E+00
           symrel      1  0  0   0  1  0   0  0  1      -1  0  0   0 -1  0   0  0 -1
                       1  0  0   0 -1  0   0  0 -1      -1  0  0   0  1  0   0  0  1
            tnons      0.0000000  0.0000000  0.0000000     0.0000000  0.0000000  0.0000000
                       0.5000000  0.0000000  0.0000000     0.5000000  0.0000000  0.0000000
           tolwfr      1.00000000E-20
            typat      1  1  2  2  2  2  2  2  3  3
           useylm           1
              wtk        0.50000    0.50000
           xangst      3.3421880029E+00  4.4543847048E+00  6.8420807430E+00
                       1.1140626676E+00  1.0017521900E+00  2.0412644648E+00
                       1.1140626676E+00  7.4739254413E-01  4.9739617985E+00
                       3.3421880029E+00  2.4397170687E+00  3.2471436918E+00
                       1.1140626676E+00  1.8874578044E+00  5.3127742211E+00
                       1.1140626676E+00  3.0164198262E+00  5.6362015160E+00
                       3.3421880029E+00  3.5686790904E+00  3.5705709867E+00
                       3.3421880029E+00  4.7087443507E+00  3.9093834093E+00
                       3.3421880029E+00  1.4325360224E+00  7.6385538393E+00
                       1.1140626676E+00  4.0236008724E+00  1.2447913685E+00
            xcart      6.3158200101E+00  8.4175671826E+00  1.2929658783E+01
                       2.1052733367E+00  1.8930372922E+00  3.8574308033E+00
                       2.1052733367E+00  1.4123672222E+00  9.3994255946E+00
                       6.3158200101E+00  4.6103971015E+00  6.1362122917E+00
                       2.1052733367E+00  3.5667783378E+00  1.0039688284E+01
                       2.1052733367E+00  5.7002073733E+00  1.0650877295E+01
                       6.3158200101E+00  6.7438261370E+00  6.7474013030E+00
                       6.3158200101E+00  8.8982372526E+00  7.3876639921E+00
                       6.3158200101E+00  2.7071007579E+00  1.4434774808E+01
                       2.1052733367E+00  7.6035037169E+00  2.3523147791E+00
             xred      7.5000000000E-01  8.1639900000E-01  7.6352400000E-01
                       2.5000000000E-01  1.8360100000E-01  2.3647600000E-01
                       2.5000000000E-01  1.3698200000E-01  6.2118800000E-01
                       7.5000000000E-01  4.4715100000E-01  3.5370800000E-01
                       2.5000000000E-01  3.4593300000E-01  6.3458400000E-01
                       2.5000000000E-01  5.5284900000E-01  6.4629200000E-01
                       7.5000000000E-01  6.5406700000E-01  3.6541600000E-01
                       7.5000000000E-01  8.6301800000E-01  3.7881200000E-01
                       7.5000000000E-01  2.6255500000E-01  9.4640300000E-01
                       2.5000000000E-01  7.3744500000E-01  5.3597000000E-02
            znucl       56.00000    7.00000   17.00000

- Timing analysis has been suppressed with timopt=0

 Suggested references for the acknowledgment of ABINIT usage.

 Calculation completed.
.Delivered   2 WARNINGs and   5 COMMENTs to log file.