.Version 9.5.1 of ABINIT

 ABINIT is a project of the Universite Catholique de Louvain,
 Corning Inc. and other collaborators, see ~abinit/doc/developers/contributors.txt .
 acknowledgments of the ABINIT effort.

.Starting date : Wed  5 May 2021.
- ( at 19h57 )

- input  file    -> /scratch/users/j/a/jabreu/flow_simple_7atoms/flow/w164/t1/run.abi
- output file    -> /scratch/users/j/a/jabreu/flow_simple_7atoms/flow/w164/t1/run.abo
- root for input  files -> /scratch/users/j/a/jabreu/flow_simple_7atoms/flow/w164/t1/indata/in
- root for output files -> /scratch/users/j/a/jabreu/flow_simple_7atoms/flow/w164/t1/outdata/out

 Symmetries : space group C2/m (# 12); Bravais mC (1-face-center monocl.)
     intxc =       0      iscf =       7    lmnmax =      18     lnmax =       6
     mgfft =      80  mpssoang =       3    mqgrid =    3918     natom =       7
  nloc_mem =       1    nspden =       1   nspinor =       1    nsppol =       1
      nsym =       4    n1xccc =    2501    ntypat =       4    occopt =       1
   xclevel =       2
-    mband =          33        mffmem =           1         mkmem =           2
-   mkqmem =           2        mk1mem =           2           mpw =       12645
      nfft =      288000          nkpt =           2
  Rough estimation (10% accuracy) of disk space for files :

------------- Echo of variables that govern the present computation ------------
-
- outvars: echo of selected default values
-   iomode0 =  0 , fftalg0 =512 , wfoptalg0 =  0
-
- outvars: echo of global parameters not present in the input file
-  max_nthreads =    0
-
 -outvars: echo values of preprocessed input variables --------
            acell      1.0000000000E+00  1.0000000000E+00  1.0000000000E+00 Bohr
              amu      8.76200000E+01  1.20110000E+01  1.40067400E+01
                       3.54527000E+01
             ecut      4.20000000E+01 Hartree
-          fftalg         512
           irdden           1
           irdwfk           1
           istwfk        0    1
              ixc     -116133
              kpt      5.10464057E-01  5.10464057E-01  1.09402338E-01
                       0.00000000E+00  0.00000000E+00  0.00000000E+00
           kptopt           0
P           mkmem           2
P          mkqmem           2
P          mk1mem           2
            natom           7
            nband          33
           nbdbuf           4
            ngfft          60      60      80
             nkpt           2
            nstep        2000
             nsym           4
           ntypat           4
              occ      2.000000  2.000000  2.000000  2.000000  2.000000  2.000000
                       2.000000  2.000000  2.000000  2.000000  2.000000  2.000000
                       2.000000  2.000000  2.000000  2.000000  2.000000  2.000000
                       2.000000  2.000000  2.000000  2.000000  2.000000  2.000000
                       0.000000  0.000000  0.000000  0.000000  0.000000  0.000000
                       0.000000  0.000000  0.000000
        optdriver           1
            prtwf          -1
            rfdir           1       1       1
           rfelfd           2
            rprim      9.8217896385E+00  0.0000000000E+00  1.2978130091E+00
                       6.5797893927E+00  7.2920452036E+00  1.2978130091E+00
                       0.0000000000E+00  0.0000000000E+00  1.3568712431E+01
          spgroup          12
           symrel      1  0  0   0  1  0   0  0  1      -1  0  0   0 -1  0   0  0 -1
                       0 -1  0  -1  0  0   0  0 -1       0  1  0   1  0  0   0  0  1
           tolwfr      1.00000000E-20
            typat      1  1  2  3  3  4  4
           useylm           1
              wtk        0.50000    0.50000
           xangst      2.7566804691E+00  1.2256038613E+00  5.9692602031E+00
                       5.9226613391E+00  2.6331802644E+00  2.5845392964E+00
                       0.0000000000E+00  0.0000000000E+00  0.0000000000E+00
                       7.6696305789E+00  3.4098724745E+00  7.9993812852E+00
                       1.0097112293E+00  4.4891165127E-01  5.5441821427E-01
                       5.4635154781E+00  2.4290467254E+00  5.5261764176E+00
                       3.2158263301E+00  1.4297374004E+00  3.0276230818E+00
            xcart      5.2093711224E+00  2.3160556453E+00  1.1280267000E+01
                       1.1192207909E+01  4.9759895583E+00  4.8840714498E+00
                       0.0000000000E+00  0.0000000000E+00  0.0000000000E+00
                       1.4493501335E+01  6.4437251248E+00  1.5116639862E+01
                       1.9080776966E+00  8.4832007876E-01  1.0476985881E+00
                       1.0324547976E+01  4.5902330750E+00  1.0442959991E+01
                       6.0770310547E+00  2.7018121286E+00  5.7213784582E+00
             xred      3.1761400000E-01  3.1761400000E-01  7.7058600000E-01
                       6.8238600000E-01  6.8238600000E-01  2.2941400000E-01
                       0.0000000000E+00  0.0000000000E+00  0.0000000000E+00
                       8.8366500000E-01  8.8366500000E-01  9.4504000000E-01
                       1.1633500000E-01  1.1633500000E-01  5.4960000000E-02
                       6.2948500000E-01  6.2948500000E-01  6.4921800000E-01
                       3.7051500000E-01  3.7051500000E-01  3.5078200000E-01
            znucl       38.00000    6.00000    7.00000   17.00000

 chkinp: Checking input parameters for consistency.

== DATASET  1 ==================================================================
-   mpi_nproc: 1, omp_nthreads: -1 (-1 if OMP is not activated)

--- !DatasetInfo
iteration_state: {dtset: 1, }
dimensions: {natom: 7, nkpt: 2, mband: 33, nsppol: 1, nspinor: 1, nspden: 1, mpw: 12645, }
cutoff_energies: {ecut:  42.0, pawecutdg:  -1.0, }
electrons: {nelect:   4.80000000E+01, charge:   0.00000000E+00, occopt:   1.00000000E+00, tsmear:   1.00000000E-02, }
meta: {optdriver: 1, rfelfd: 2, }
...

 Real(R)+Recip(G) space primitive vectors, cartesian coordinates (Bohr,Bohr^-1):
 R(1)=  9.8217896  0.0000000  1.2978130  G(1)=  0.1018144 -0.0918696  0.0000000
 R(2)=  6.5797894  7.2920452  1.2978130  G(2)=  0.0000000  0.1371357  0.0000000
 R(3)=  0.0000000  0.0000000 13.5687124  G(3)= -0.0097383 -0.0043296  0.0736990
 Unit cell volume ucvol=  9.7180386E+02 bohr^3
 Angles (23,13,12)=  8.24727652E+01  8.24727652E+01  4.75006465E+01 degrees

 getcut: wavevector=  0.0000  0.0000  0.0000  ngfft=  60  60  80
         ecut(hartree)=     42.000   => boxcut(ratio)=   2.02102

--- Pseudopotential description ------------------------------------------------
- pspini: atom type   1  psp file is /scratch/users/j/a/jabreu/pseudos/PBEsol/Sr.psp8
- pspatm: opening atomic psp file    /scratch/users/j/a/jabreu/pseudos/PBEsol/Sr.psp8
- Sr    ONCVPSP-3.3.0  r_core=   1.66721   1.31335   1.51547
- 38.00000  10.00000    180112                znucl, zion, pspdat
    8 -116133    2    4       600   0.00000   pspcod,pspxc,lmax,lloc,mmax,r2well
    5.99000000000000    6.00000000000000    0.00000000000000   rchrg,fchrg,qchrg
     nproj     2     2     2
     extension_switch     1
  pspatm : epsatm=   12.46450977
         --- l  ekb(1:nproj) -->
             0   10.029206    1.044171
             1    7.472414    1.670829
             2    4.142950    0.968140
 pspatm: atomic psp has been read  and splines computed

- pspini: atom type   2  psp file is /scratch/users/j/a/jabreu/pseudos/PBEsol/C.psp8
- pspatm: opening atomic psp file    /scratch/users/j/a/jabreu/pseudos/PBEsol/C.psp8
- C     ONCVPSP-3.3.0  r_core=   1.20440   1.26326
-  6.00000   4.00000    180112                znucl, zion, pspdat
    8 -116133    1    4       600   0.00000   pspcod,pspxc,lmax,lloc,mmax,r2well
    5.99000000000000    4.00000000000000    0.00000000000000   rchrg,fchrg,qchrg
     nproj     2     2
     extension_switch     1
  pspatm : epsatm=    4.34909529
         --- l  ekb(1:nproj) -->
             0    6.468939    0.390031
             1   -4.179695   -0.878453
 pspatm: atomic psp has been read  and splines computed

[...]

- pspini: atom type   4  psp file is /scratch/users/j/a/jabreu/pseudos/PBEsol/Cl.psp8
- pspatm: opening atomic psp file    /scratch/users/j/a/jabreu/pseudos/PBEsol/Cl.psp8
- Cl    ONCVPSP-3.3.0  r_core=   1.56009   1.35202   1.75774
- 17.00000   7.00000    180112                znucl, zion, pspdat
    8 -116133    2    4       600   0.00000   pspcod,pspxc,lmax,lloc,mmax,r2well
    5.99000000000000    8.00000000000000    0.00000000000000   rchrg,fchrg,qchrg
     nproj     2     2     2
     extension_switch     1
  pspatm : epsatm=    8.95520722
         --- l  ekb(1:nproj) -->
             0    8.193503    0.707970
             1    3.869736    1.114731
             2   -2.915303   -0.810552
 pspatm: atomic psp has been read  and splines computed

   2.77049794E+03                                ecore*ucvol(ha*bohr**3)

-inwffil : will read wavefunctions from disk file /scratch/users/j/a/jabreu/flow_simple_7atoms/flow/w164/t1/indata/in_WFK

 ==>  initialize data related to q vector <==

 The list of irreducible perturbations for this q vector is:
    1)    idir= 1    ipert=   8
    2)    idir= 2    ipert=   8
    3)    idir= 3    ipert=   8

 Perturbation wavevector (in red.coord.)   0.000000  0.000000  0.000000
 Perturbation : derivative vs k along direction   1

 dfpt_looppert : COMMENT -
  In a d/dk calculation, iscf is set to -3 automatically.
 The set of symmetries contains only one element for this perturbation.
 symkpt : not enough symmetry to change the number of k points.

[...]

 Initialisation of the first-order wave-functions :
  ireadwf=   0

--- !BeginCycle
iteration_state: {dtset: 1, }
solver: {iscf: 7, nstep: 2000, nline: 4, wfoptalg: 0, }
tolerances: {tolwfr: 1.00E-20, }
...

     iter   2DEtotal(Ha)        deltaE(Ha) residm    vres2
-ETOT  1  -36.596421741280     -3.660E+01 9.252E-02 0.000E+00
 ETOT  2  -36.642795856297     -4.637E-02 2.715E-02 0.000E+00
 ETOT  3  -36.643054048991     -2.582E-04 1.603E-03 0.000E+00
 ETOT  4  -36.643056741108     -2.692E-06 5.383E-04 0.000E+00
 ETOT  5  -36.643056778729     -3.762E-08 4.182E-05 0.000E+00
 ETOT  6  -36.643056779323     -5.939E-10 1.340E-05 0.000E+00
 ETOT  7  -36.643056779333     -9.877E-12 1.157E-06 0.000E+00
 ETOT  8  -36.643056779333     -2.274E-13 3.632E-07 0.000E+00
 ETOT  9  -36.643056779333      3.553E-14 3.373E-08 0.000E+00
 ETOT 10  -36.643056779333      0.000E+00 1.059E-08 0.000E+00
 ETOT 11  -36.643056779333      0.000E+00 1.014E-09 0.000E+00
 ETOT 12  -36.643056779333      0.000E+00 3.198E-10 0.000E+00
 ETOT 13  -36.643056779333      0.000E+00 3.089E-11 0.000E+00
 ETOT 14  -36.643056779333      0.000E+00 9.807E-12 0.000E+00
 ETOT 15  -36.643056779333      0.000E+00 9.476E-13 0.000E+00
 ETOT 16  -36.643056779333      1.421E-14 3.032E-13 0.000E+00
 ETOT 17  -36.643056779333     -7.105E-15 2.922E-14 0.000E+00
 ETOT 18  -36.643056779333     -7.105E-15 9.431E-15 0.000E+00
 ETOT 19  -36.643056779333      2.132E-14 9.046E-16 0.000E+00
 ETOT 20  -36.643056779333     -1.421E-14 2.948E-16 0.000E+00
 ETOT 21  -36.643056779333     -1.421E-14 2.812E-17 0.000E+00
 ETOT 22  -36.643056779333      7.105E-15 9.261E-18 0.000E+00
 ETOT 23  -36.643056779333     -7.105E-15 8.772E-19 0.000E+00
 ETOT 24  -36.643056779333      7.105E-15 2.921E-19 0.000E+00
 ETOT 25  -36.643056779333      7.105E-15 2.746E-20 0.000E+00
 ETOT 26  -36.643056779333      0.000E+00 9.926E-21 0.000E+00

 At SCF step   26   max residual=  9.93E-21 < tolwfr=  1.00E-20 =>converged.

 ----iterations are completed or convergence reached----

 dfpt_looppert: DFPT cycle converged with prtwf=-1. Will skip output of the 1st-order WFK file.
 dfpt_looppert : ek2=    7.1274185885E+01
          f-sum rule ratio=    1.0449224529E+00
 prteigrs : about to open file /scratch/users/j/a/jabreu/flow_simple_7atoms/flow/w164/t1/tmpdata/tmp_1WF1_EIG
 Expectation of eigenvalue derivatives (hartree) for nkpt=   2  k points:
  (in case of degenerate eigenvalues, averaged derivative)
 kpt#   1, nband= 33, wtk=  0.50000, kpt=  0.5105  0.5105  0.1094 (reduced coord)
   0.00002   -0.00003   -0.00034    0.00438    0.00133   -0.00690    0.00001   -0.00139
   0.00004    0.00587   -0.00087   -0.00274    0.00380    0.00075   -0.00813    0.00028
   0.01028    0.00349   -0.00000   -0.00090   -0.01252   -0.00162   -0.00065    0.00265
  -0.00386    0.00351    0.00156   -0.00672    0.02689    0.00864   -0.00351    0.00171
   0.00168
 prteigrs : prtvol=0 or 1, do not print more k-points.

 Eight components of 2nd-order total energy (hartree) are
 1,2,3: 0th-order hamiltonian combined with 1st-order wavefunctions
     kin0=   4.49311862E+01 eigvalue=   1.85991528E+00  local=  -2.56247028E+01
 4,5,6: 1st-order hamiltonian combined with 1st and 0th-order wfs
     kin1=  -7.44759971E+01  Hartree=   0.00000000E+00     xc=   0.00000000E+00
 7,8,9: eventually, occupation + non-local contributions
    edocc=   1.28770872E+01     enl0=   2.59957093E+00   enl1=   1.18988359E+00
 1-9 gives the relaxation energy (to be shifted if some occ is /=2.0)
   erelax=  -3.66430568E+01
  No Ewald or frozen-wf contrib.: the relaxation energy is the total one
 2DEtotal=   -0.3664305678E+02 Ha. Also 2DEtotal=   -0.997108283826E+03 eV
    (  non-var. 2DEtotal :   -3.6643056779E+01 Ha)

 Perturbation wavevector (in red.coord.)   0.000000  0.000000  0.000000
 Perturbation : derivative vs k along direction   2
 The set of symmetries contains only one element for this perturbation.
 symkpt : not enough symmetry to change the number of k points.

[...]

 Perturbation wavevector (in red.coord.)   0.000000  0.000000  0.000000
 Perturbation : derivative vs k along direction   3
 The set of symmetries contains only one element for this perturbation.
 symkpt : not enough symmetry to change the number of k points.

-inwffil : will read wavefunctions from disk file /scratch/users/j/a/jabreu/flow_simple_7atoms/flow/w164/t1/indata/in_WFK

 Initialisation of the first-order wave-functions :
  ireadwf=   0

--- !BeginCycle
iteration_state: {dtset: 1, }
solver: {iscf: 7, nstep: 2000, nline: 4, wfoptalg: 0, }
tolerances: {tolwfr: 1.00E-20, }
...

     iter   2DEtotal(Ha)        deltaE(Ha) residm    vres2
-ETOT  1  -10.472494699955     -1.047E+01 1.969E-02 0.000E+00
 ETOT  2  -10.483784734207     -1.129E-02 1.874E-03 0.000E+00
 ETOT  3  -10.483847337714     -6.260E-05 1.045E-04 0.000E+00
 ETOT  4  -10.483847997664     -6.600E-07 1.586E-05 0.000E+00
 ETOT  5  -10.483848006780     -9.116E-09 1.993E-06 0.000E+00
 ETOT  6  -10.483848006922     -1.418E-10 3.428E-07 0.000E+00
 ETOT  7  -10.483848006924     -2.348E-12 4.856E-08 0.000E+00
 ETOT  8  -10.483848006924     -3.730E-14 8.370E-09 0.000E+00
 ETOT  9  -10.483848006924     -1.243E-14 1.268E-09 0.000E+00
 ETOT 10  -10.483848006924      5.329E-15 2.182E-10 0.000E+00
 ETOT 11  -10.483848006924      0.000E+00 3.471E-11 0.000E+00
 ETOT 12  -10.483848006924      1.776E-15 5.962E-12 0.000E+00
 ETOT 13  -10.483848006924     -3.553E-15 9.856E-13 0.000E+00
 ETOT 14  -10.483848006924      1.776E-15 1.687E-13 0.000E+00
 ETOT 15  -10.483848006924     -1.776E-15 2.872E-14 0.000E+00
 ETOT 16  -10.483848006924      3.553E-15 4.895E-15 0.000E+00
 ETOT 17  -10.483848006924     -3.553E-15 8.513E-16 0.000E+00
 ETOT 18  -10.483848006924      1.776E-15 1.444E-16 0.000E+00
 ETOT 19  -10.483848006924      0.000E+00 2.552E-17 0.000E+00
 ETOT 20  -10.483848006924     -1.776E-15 4.308E-18 0.000E+00
 ETOT 21  -10.483848006924      1.776E-15 7.699E-19 0.000E+00
 ETOT 22  -10.483848006924      3.553E-15 1.294E-19 0.000E+00
 ETOT 23  -10.483848006924     -1.776E-15 2.333E-20 0.000E+00
 ETOT 24  -10.483848006924      0.000E+00 9.944E-21 0.000E+00

 At SCF step   24   max residual=  9.94E-21 < tolwfr=  1.00E-20 =>converged.

 ----iterations are completed or convergence reached----

 dfpt_looppert: DFPT cycle converged with prtwf=-1. Will skip output of the 1st-order WFK file.
 dfpt_looppert : ek2=    2.1015592602E+01
          f-sum rule ratio=    1.0120201207E+00
 prteigrs : about to open file /scratch/users/j/a/jabreu/flow_simple_7atoms/flow/w164/t1/tmpdata/tmp_1WF1_EIG
 Expectation of eigenvalue derivatives (hartree) for nkpt=   2  k points:
  (in case of degenerate eigenvalues, averaged derivative)
 kpt#   1, nband= 33, wtk=  0.50000, kpt=  0.5105  0.5105  0.1094 (reduced coord)
   0.00008   -0.00008   -0.00034    0.00399   -0.01277    0.01138    0.00068   -0.00852
  -0.00069    0.00864   -0.00061   -0.00084    0.00199    0.00091   -0.01961   -0.00040
   0.02383   -0.02172   -0.00269   -0.01087    0.02267    0.00399    0.00116   -0.00052
   0.01692   -0.00946   -0.00081    0.03638   -0.02398    0.01129    0.00654    0.04226
  -0.03133
 prteigrs : prtvol=0 or 1, do not print more k-points.

 Eight components of 2nd-order total energy (hartree) are
 1,2,3: 0th-order hamiltonian combined with 1st-order wavefunctions
     kin0=   1.31665226E+01 eigvalue=   5.99568526E-01  local=  -7.37761113E+00
 4,5,6: 1st-order hamiltonian combined with 1st and 0th-order wfs
     kin1=  -2.12682026E+01  Hartree=   0.00000000E+00     xc=   0.00000000E+00
 7,8,9: eventually, occupation + non-local contributions
    edocc=   3.26781754E+00     enl0=   8.27550474E-01   enl1=   3.00506549E-01
 1-9 gives the relaxation energy (to be shifted if some occ is /=2.0)
   erelax=  -1.04838480E+01
  No Ewald or frozen-wf contrib.: the relaxation energy is the total one
 2DEtotal=   -0.1048384801E+02 Ha. Also 2DEtotal=   -0.285280012446E+03 eV
    (  non-var. 2DEtotal :   -1.0483848007E+01 Ha)

 CALCULATION OF EFFECTIVE MASSES
 NOTE : Additional infos (eff. mass eigenvalues, eigenvectors and, if degenerate, average mass) are available in stdout.

 K-point ( 0.510, 0.510, 0.109) | band =    24
 Effective mass tensor:
             -1.9831717323              1.0141824065             -7.0768228289
              1.0141824065             -3.8042412882             -3.0991151883
             -7.0768228289             -3.0991151883            -92.4483351510
 Effective mass tensor eigenvalues:
            -93.1001470695             -4.2566337130             -0.8789673890
 Angular average effective mass 1/(<1/m>)=  -2.1686216323
 Angular average effective mass for Frohlich model (<m**0.5>)**2=  -3.7029455351
 Effective masses along directions: (cart. coord. / red. coord. -> eff. mass)
    1:   1.000000  0.000000  0.000000 /   0.830802  0.556569  0.000000 ->  -1.0182336209
    2:   0.000000  1.000000  0.000000 /   0.000000  1.000000  0.000000 ->  -2.6139135412
    3:   0.000000  0.000000  1.000000 /   0.094784  0.094784  0.990975 -> -53.4582999873
    4:   0.577350  0.577350  0.577350 /   0.479456  0.654087  0.585057 ->  -1.6680475259
    5:   0.000000  0.707107  0.707107 /   0.080552  0.533151  0.842176 ->  -6.1580890516
    6:   0.707107  0.000000  0.707107 /   0.578227  0.409641  0.705583 ->  -2.4149492365
    7:   0.707107  0.707107  0.000000 /   0.577857  0.816138  0.000000 ->  -0.9857430719

 K-point ( 0.000, 0.000, 0.000) | band =    25
 Effective mass tensor:
              0.4751635348              0.0315838670              0.0624351172
              0.0315838670              0.4181633018              0.0277595819
              0.0624351172              0.0277595819              0.5668617980
 Effective mass tensor eigenvalues:
              0.4041217058              0.4494435303              0.6066233984
 Angular average effective mass 1/(<1/m>)=   0.4725938928
 Angular average effective mass for Frohlich model (<m**0.5>)**2=   0.4765917026
 Effective masses along directions: (cart. coord. / red. coord. -> eff. mass)
    1:   1.000000  0.000000  0.000000 /   0.830802  0.556569  0.000000 ->   0.4663344580
    2:   0.000000  1.000000  0.000000 /   0.000000  1.000000  0.000000 ->   0.4150661711
    3:   0.000000  0.000000  1.000000 /   0.094784  0.094784  0.990975 ->   0.5573182795
    4:   0.577350  0.577350  0.577350 /   0.479456  0.654087  0.585057 ->   0.5562988796
    5:   0.000000  0.707107  0.707107 /   0.080552  0.533151  0.842176 ->   0.5000093356
    6:   0.707107  0.000000  0.707107 /   0.578227  0.409641  0.705583 ->   0.5745982843
    7:   0.707107  0.707107  0.000000 /   0.577857  0.816138  0.000000 ->   0.4694712759

 END OF EFFECTIVE MASSES SECTION

 ---- first-order wavefunction calculations are completed ----

 Total localisation tensor (bohr^2) in cartesian coordinates
  WARNING : still subject to testing - especially symmetries.
      direction              matrix element
   alpha     beta       real part   imaginary part
     1        1       2.4172311907    0.0000000000
     1        2       0.8298330085    0.0000000000
     1        3       0.3681536528    0.0000000000
     2        1       0.8298330085    0.0000000000
     2        2       0.9196616257    0.0000000000
     2        3       0.1636781984    0.0000000000
     3        1       0.3681536528    0.0000000000
     3        2       0.1636781984    0.0000000000
     3        3       0.9166538717    0.0000000000

 respfn : d/dk was computed, but no 2DTE, so no DDB output.

== END DATASET(S) ==============================================================

 -outvars: echo values of variables after computation  --------
            acell      1.0000000000E+00  1.0000000000E+00  1.0000000000E+00 Bohr
              amu      8.76200000E+01  1.20110000E+01  1.40067400E+01
                       3.54527000E+01
             ecut      4.20000000E+01 Hartree
           etotal     -1.0483848007E+01
            fcart      0.0000000000E+00  0.0000000000E+00  0.0000000000E+00
                       0.0000000000E+00  0.0000000000E+00  0.0000000000E+00
                       0.0000000000E+00  0.0000000000E+00  0.0000000000E+00
                       0.0000000000E+00  0.0000000000E+00  0.0000000000E+00
                       0.0000000000E+00  0.0000000000E+00  0.0000000000E+00
                       0.0000000000E+00  0.0000000000E+00  0.0000000000E+00
                       0.0000000000E+00  0.0000000000E+00  0.0000000000E+00
-          fftalg         512
           irdden           1
           irdwfk           1
           istwfk        0    1
              ixc     -116133
              kpt      5.10464057E-01  5.10464057E-01  1.09402338E-01
                       0.00000000E+00  0.00000000E+00  0.00000000E+00
           kptopt           0
P           mkmem           2
P          mkqmem           2
P          mk1mem           2
            natom           7
            nband          33
           nbdbuf           4
            ngfft          60      60      80
             nkpt           2
            nstep        2000
             nsym           4
           ntypat           4
              occ      2.000000  2.000000  2.000000  2.000000  2.000000  2.000000
                       2.000000  2.000000  2.000000  2.000000  2.000000  2.000000
                       2.000000  2.000000  2.000000  2.000000  2.000000  2.000000
                       2.000000  2.000000  2.000000  2.000000  2.000000  2.000000
                       0.000000  0.000000  0.000000  0.000000  0.000000  0.000000
                       0.000000  0.000000  0.000000
        optdriver           1
            prtwf          -1
            rfdir           1       1       1
           rfelfd           2
            rprim      9.8217896385E+00  0.0000000000E+00  1.2978130091E+00
                       6.5797893927E+00  7.2920452036E+00  1.2978130091E+00
                       0.0000000000E+00  0.0000000000E+00  1.3568712431E+01
          spgroup          12
           strten      0.0000000000E+00  0.0000000000E+00  0.0000000000E+00
                       0.0000000000E+00  0.0000000000E+00  0.0000000000E+00
           symrel      1  0  0   0  1  0   0  0  1      -1  0  0   0 -1  0   0  0 -1
                       0 -1  0  -1  0  0   0  0 -1       0  1  0   1  0  0   0  0  1
           tolwfr      1.00000000E-20
            typat      1  1  2  3  3  4  4
           useylm           1
              wtk        0.50000    0.50000
           xangst      2.7566804691E+00  1.2256038613E+00  5.9692602031E+00
                       5.9226613391E+00  2.6331802644E+00  2.5845392964E+00
                       0.0000000000E+00  0.0000000000E+00  0.0000000000E+00
                       7.6696305789E+00  3.4098724745E+00  7.9993812852E+00
                       1.0097112293E+00  4.4891165127E-01  5.5441821427E-01
                       5.4635154781E+00  2.4290467254E+00  5.5261764176E+00
                       3.2158263301E+00  1.4297374004E+00  3.0276230818E+00
            xcart      5.2093711224E+00  2.3160556453E+00  1.1280267000E+01
                       1.1192207909E+01  4.9759895583E+00  4.8840714498E+00
                       0.0000000000E+00  0.0000000000E+00  0.0000000000E+00
                       1.4493501335E+01  6.4437251248E+00  1.5116639862E+01
                       1.9080776966E+00  8.4832007876E-01  1.0476985881E+00
                       1.0324547976E+01  4.5902330750E+00  1.0442959991E+01
                       6.0770310547E+00  2.7018121286E+00  5.7213784582E+00
             xred      3.1761400000E-01  3.1761400000E-01  7.7058600000E-01
                       6.8238600000E-01  6.8238600000E-01  2.2941400000E-01
                       0.0000000000E+00  0.0000000000E+00  0.0000000000E+00
                       8.8366500000E-01  8.8366500000E-01  9.4504000000E-01
                       1.1633500000E-01  1.1633500000E-01  5.4960000000E-02
                       6.2948500000E-01  6.2948500000E-01  6.4921800000E-01
                       3.7051500000E-01  3.7051500000E-01  3.5078200000E-01
            znucl       38.00000    6.00000    7.00000   17.00000

- Timing analysis has been suppressed with timopt=0

 Suggested references for the acknowledgment of ABINIT usage.

 Calculation completed.
.Delivered  14 WARNINGs and   9 COMMENTs to log file.