.Version 9.5.1 of ABINIT

 ABINIT is a project of the Universite Catholique de Louvain,
 Corning Inc. and other collaborators, see ~abinit/doc/developers/contributors.txt .
 acknowledgments of the ABINIT effort.

.Starting date : Tue 11 May 2021.
- ( at 21h49 )

- input  file    -> /scratch/users/j/a/jabreu/flow_simple_8atoms/flow/w329/t1/run.abi
- output file    -> /scratch/users/j/a/jabreu/flow_simple_8atoms/flow/w329/t1/run.abo
- root for input  files -> /scratch/users/j/a/jabreu/flow_simple_8atoms/flow/w329/t1/indata/in
- root for output files -> /scratch/users/j/a/jabreu/flow_simple_8atoms/flow/w329/t1/outdata/out

 Symmetries : space group P4/n m m (#129); Bravais tP (primitive tetrag.)
     intxc =       0      iscf =       7    lmnmax =      32     lnmax =       8
     mgfft =     120  mpssoang =       4    mqgrid =    5485     natom =       8
  nloc_mem =       1    nspden =       1   nspinor =       1    nsppol =       1
      nsym =      16    n1xccc =    2501    ntypat =       4    occopt =       1
   xclevel =       2
-    mband =          61        mffmem =           1         mkmem =           1
-   mkqmem =           1        mk1mem =           1           mpw =       17743
      nfft =      300000          nkpt =           1
  Rough estimation (10% accuracy) of disk space for files :

------------- Echo of variables that govern the present computation ------------
-
- outvars: echo of selected default values
-   iomode0 =  0 , fftalg0 =512 , wfoptalg0 =  0
-
- outvars: echo of global parameters not present in the input file
-  max_nthreads =    0
-
 -outvars: echo values of preprocessed input variables --------
            acell      1.0000000000E+00  1.0000000000E+00  1.0000000000E+00 Bohr
              amu      1.38905500E+02  6.53900000E+01  7.49215900E+01
                       1.59994000E+01
             ecut      5.20000000E+01 Hartree
-          fftalg         512
           irdden           1
           irdwfk           1
           istwfk        1
              ixc     -116133
           kptopt           0
P           mkmem           1
P          mkqmem           1
P          mk1mem           1
            natom           8
            nband          61
           nbdbuf           4
            ngfft          50      50     120
             nkpt           1
            nstep        2000
             nsym          16
           ntypat           4
              occ      2.000000  2.000000  2.000000  2.000000  2.000000  2.000000
                       2.000000  2.000000  2.000000  2.000000  2.000000  2.000000
                       2.000000  2.000000  2.000000  2.000000  2.000000  2.000000
                       2.000000  2.000000  2.000000  2.000000  2.000000  2.000000
                       2.000000  2.000000  2.000000  2.000000  2.000000  2.000000
                       2.000000  2.000000  2.000000  2.000000  2.000000  2.000000
                       2.000000  2.000000  2.000000  2.000000  2.000000  2.000000
                       2.000000  2.000000  2.000000  2.000000  2.000000  2.000000
                       2.000000  2.000000  2.000000  2.000000  0.000000  0.000000
                       0.000000  0.000000  0.000000  0.000000  0.000000  0.000000
                       0.000000
        optdriver           1
            prtwf          -1
            rfdir           1       1       1
           rfelfd           2
            rprim      7.6536013202E+00  0.0000000000E+00  0.0000000000E+00
                       0.0000000000E+00  7.6536013202E+00  0.0000000000E+00
                       0.0000000000E+00  0.0000000000E+00  1.6896663038E+01
          spgroup         129
           symrel      1  0  0   0  1  0   0  0  1      -1  0  0   0 -1  0   0  0 -1
                      -1  0  0   0  1  0   0  0 -1       1  0  0   0 -1  0   0  0  1
                      -1  0  0   0 -1  0   0  0  1       1  0  0   0  1  0   0  0 -1
                       1  0  0   0 -1  0   0  0 -1      -1  0  0   0  1  0   0  0  1
                       0  1  0   1  0  0   0  0  1       0 -1  0  -1  0  0   0  0 -1
                       0 -1  0   1  0  0   0  0 -1       0  1  0  -1  0  0   0  0  1
                       0 -1  0  -1  0  0   0  0  1       0  1  0   1  0  0   0  0 -1
                       0  1  0  -1  0  0   0  0 -1       0 -1  0   1  0  0   0  0  1
            tnons      0.0000000  0.0000000  0.0000000     0.5000000  0.5000000  0.0000000
                       0.5000000  0.5000000  0.0000000     0.0000000  0.0000000  0.0000000
                       0.0000000  0.0000000  0.0000000     0.5000000  0.5000000  0.0000000
                       0.5000000  0.5000000  0.0000000     0.0000000  0.0000000  0.0000000
                       0.5000000  0.5000000  0.0000000     0.0000000  0.0000000  0.0000000
                       0.0000000  0.0000000  0.0000000     0.5000000  0.5000000  0.0000000
                       0.5000000  0.5000000  0.0000000     0.0000000  0.0000000  0.0000000
                       0.0000000  0.0000000  0.0000000     0.5000000  0.5000000  0.0000000
           tolwfr      1.00000000E-20
            typat      1  1  2  2  3  3  4  4
           useylm           1
           xangst      0.0000000000E+00  2.0250556911E+00  7.7308608048E+00
                       2.0250556911E+00  0.0000000000E+00  1.2104681761E+00
                       2.0250556911E+00  2.0250556911E+00  4.4706644905E+00
                       0.0000000000E+00  0.0000000000E+00  4.4706644905E+00
                       2.0250556911E+00  0.0000000000E+00  6.0156009598E+00
                       0.0000000000E+00  2.0250556911E+00  2.9257280212E+00
                       2.0250556911E+00  2.0250556911E+00  0.0000000000E+00
                       0.0000000000E+00  0.0000000000E+00  0.0000000000E+00
            xcart      0.0000000000E+00  3.8268006601E+00  1.4609209693E+01
                       3.8268006601E+00  0.0000000000E+00  2.2874533454E+00
                       3.8268006601E+00  3.8268006601E+00  8.4483315190E+00
                       0.0000000000E+00  0.0000000000E+00  8.4483315190E+00
                       3.8268006601E+00  0.0000000000E+00  1.1367838339E+01
                       0.0000000000E+00  3.8268006601E+00  5.5288246993E+00
                       3.8268006601E+00  3.8268006601E+00  0.0000000000E+00
                       0.0000000000E+00  0.0000000000E+00  0.0000000000E+00
             xred      0.0000000000E+00  5.0000000000E-01  8.6462100000E-01
                       5.0000000000E-01  0.0000000000E+00  1.3537900000E-01
                       5.0000000000E-01  5.0000000000E-01  5.0000000000E-01
                       0.0000000000E+00  0.0000000000E+00  5.0000000000E-01
                       5.0000000000E-01  0.0000000000E+00  6.7278600000E-01
                       0.0000000000E+00  5.0000000000E-01  3.2721400000E-01
                       5.0000000000E-01  5.0000000000E-01  0.0000000000E+00
                       0.0000000000E+00  0.0000000000E+00  0.0000000000E+00
            znucl       57.00000   30.00000   33.00000    8.00000

 chkinp: Checking input parameters for consistency.

== DATASET  1 ==================================================================
-   mpi_nproc: 1, omp_nthreads: -1 (-1 if OMP is not activated)

--- !DatasetInfo
iteration_state: {dtset: 1, }
dimensions: {natom: 8, nkpt: 1, mband: 61, nsppol: 1, nspinor: 1, nspden: 1, mpw: 17743, }
cutoff_energies: {ecut:  52.0, pawecutdg:  -1.0, }
electrons: {nelect:   1.04000000E+02, charge:   0.00000000E+00, occopt:   1.00000000E+00, tsmear:   1.00000000E-02, }
meta: {optdriver: 1, rfelfd: 2, }
...

 Real(R)+Recip(G) space primitive vectors, cartesian coordinates (Bohr,Bohr^-1):
 R(1)=  7.6536013  0.0000000  0.0000000  G(1)=  0.1306574  0.0000000  0.0000000
 R(2)=  0.0000000  7.6536013  0.0000000  G(2)=  0.0000000  0.1306574  0.0000000
 R(3)=  0.0000000  0.0000000 16.8966630  G(3)=  0.0000000  0.0000000  0.0591833
 Unit cell volume ucvol=  9.8976619E+02 bohr^3
 Angles (23,13,12)=  9.00000000E+01  9.00000000E+01  9.00000000E+01 degrees

 getcut: wavevector=  0.0000  0.0000  0.0000  ngfft=  50  50 120
         ecut(hartree)=     52.000   => boxcut(ratio)=   2.01251

--- Pseudopotential description ------------------------------------------------
- pspini: atom type   1  psp file is /scratch/users/j/a/jabreu/pseudos/PBEsol/La.psp8
- pspatm: opening atomic psp file    /scratch/users/j/a/jabreu/pseudos/PBEsol/La.psp8
- La    ONCVPSP-3.3.0  r_core=   2.11664   1.60878   1.85636   1.66739
- 57.00000  11.00000    180112                znucl, zion, pspdat
    8 -116133    3    4       600   0.00000   pspcod,pspxc,lmax,lloc,mmax,r2well
    5.99000000000000    5.00000000000000    0.00000000000000   rchrg,fchrg,qchrg
     nproj     2     2     2     2
     extension_switch     1
  pspatm : epsatm=   29.08531775
         --- l  ekb(1:nproj) -->
             0    6.695600    0.639047
             1    6.383649    1.151322
             2    3.612966    0.847811
             3  -13.718437   -4.858923
 pspatm: atomic psp has been read  and splines computed

- pspini: atom type   2  psp file is /scratch/users/j/a/jabreu/pseudos/PBEsol/Zn.psp8
- pspatm: opening atomic psp file    /scratch/users/j/a/jabreu/pseudos/PBEsol/Zn.psp8
- Zn    ONCVPSP-3.3.0  r_core=   1.35823   1.66358   1.85211
- 30.00000  20.00000    180112                znucl, zion, pspdat
    8 -116133    2    4       600   0.00000   pspcod,pspxc,lmax,lloc,mmax,r2well
    5.99000000000000    2.50000000000000    0.00000000000000   rchrg,fchrg,qchrg
     nproj     2     2     2
     extension_switch     1
  pspatm : epsatm=   26.57343589
         --- l  ekb(1:nproj) -->
             0    2.830835   -1.519107
             1   -4.626739   -1.324150
             2   -6.948510   -2.555500
 pspatm: atomic psp has been read  and splines computed

[...]

- pspini: atom type   4  psp file is /scratch/users/j/a/jabreu/pseudos/PBEsol/O.psp8
- pspatm: opening atomic psp file    /scratch/users/j/a/jabreu/pseudos/PBEsol/O.psp8
- O     ONCVPSP-3.3.0  r_core=   1.35509   1.45563   1.26150
-  8.00000   6.00000    180112                znucl, zion, pspdat
    8 -116133    2    4       600   0.00000   pspcod,pspxc,lmax,lloc,mmax,r2well
    5.99000000000000    4.00000000000000    0.00000000000000   rchrg,fchrg,qchrg
     nproj     2     2     1
     extension_switch     1
  pspatm : epsatm=    6.22910522
         --- l  ekb(1:nproj) -->
             0    6.050032    0.820363
             1   -4.739617   -1.153841
             2   -1.335834
 pspatm: atomic psp has been read  and splines computed

   1.88613178E+04                                ecore*ucvol(ha*bohr**3)

-inwffil : will read wavefunctions from disk file /scratch/users/j/a/jabreu/flow_simple_8atoms/flow/w329/t1/indata/in_WFK

 ==>  initialize data related to q vector <==

 The list of irreducible perturbations for this q vector is:
    1)    idir= 1    ipert=   9
    2)    idir= 2    ipert=   9
    3)    idir= 3    ipert=   9

 Perturbation wavevector (in red.coord.)   0.000000  0.000000  0.000000
 Perturbation : derivative vs k along direction   1

 dfpt_looppert : COMMENT -
[...]
 ETOT 35  -23.539915457329     -2.537E-09 9.582E-06 0.000E+00
 ETOT 36  -23.539915458999     -1.671E-09 1.925E-05 0.000E+00
 ETOT 37  -23.539915460100     -1.101E-09 7.874E-06 0.000E+00
 ETOT 38  -23.539915460826     -7.253E-10 1.580E-05 0.000E+00
 ETOT 39  -23.539915461304     -4.780E-10 6.471E-06 0.000E+00
 ETOT 40  -23.539915461619     -3.151E-10 1.297E-05 0.000E+00
 ETOT 41  -23.539915461826     -2.077E-10 5.317E-06 0.000E+00
 ETOT 42  -23.539915461964     -1.370E-10 1.064E-05 0.000E+00
 ETOT 43  -23.539915462054     -9.040E-11 4.368E-06 0.000E+00
 ETOT 44  -23.539915462113     -5.960E-11 8.740E-06 0.000E+00
 ETOT 45  -23.539915462153     -3.929E-11 3.588E-06 0.000E+00
 ETOT 46  -23.539915462179     -2.598E-11 7.177E-06 0.000E+00
 ETOT 47  -23.539915462196     -1.715E-11 2.947E-06 0.000E+00
 ETOT 48  -23.539915462207     -1.136E-11 5.895E-06 0.000E+00
 ETOT 49  -23.539915462215     -7.415E-12 2.420E-06 0.000E+00
 ETOT 50  -23.539915462220     -4.931E-12 4.841E-06 0.000E+00
 ETOT 51  -23.539915462223     -3.265E-12 1.988E-06 0.000E+00
 ETOT 52  -23.539915462225     -2.128E-12 3.977E-06 0.000E+00
 ETOT 53  -23.539915462226     -1.435E-12 1.632E-06 0.000E+00
 ETOT 54  -23.539915462227     -9.557E-13 3.267E-06 0.000E+00
 ETOT 55  -23.539915462228     -6.217E-13 1.340E-06 0.000E+00
 ETOT 56  -23.539915462228     -4.263E-13 2.684E-06 0.000E+00
 ETOT 57  -23.539915462229     -2.487E-13 1.100E-06 0.000E+00
 ETOT 58  -23.539915462229     -1.883E-13 2.205E-06 0.000E+00
 ETOT 59  -23.539915462229     -1.137E-13 9.029E-07 0.000E+00
 ETOT 60  -23.539915462229     -1.030E-13 1.811E-06 0.000E+00
 ETOT 61  -23.539915462229     -1.776E-14 7.412E-07 0.000E+00
[...]
 ETOT  373  -23.539915462229     -3.553E-15 3.677E-20 0.000E+00
 ETOT  374  -23.539915462229      1.066E-14 6.864E-20 0.000E+00
 ETOT  375  -23.539915462229     -7.105E-15 3.023E-20 0.000E+00
 ETOT  376  -23.539915462229     -3.553E-15 5.639E-20 0.000E+00
 ETOT  377  -23.539915462229      1.421E-14 2.485E-20 0.000E+00
 ETOT  378  -23.539915462229     -1.776E-14 4.632E-20 0.000E+00
 ETOT  379  -23.539915462229      0.000E+00 2.043E-20 0.000E+00
 ETOT  380  -23.539915462229      3.553E-15 3.805E-20 0.000E+00
 ETOT  381  -23.539915462229      0.000E+00 1.679E-20 0.000E+00
 ETOT  382  -23.539915462229      3.553E-15 3.126E-20 0.000E+00
 ETOT  383  -23.539915462229     -3.553E-15 1.381E-20 0.000E+00
 ETOT  384  -23.539915462229      0.000E+00 2.568E-20 0.000E+00
 ETOT  385  -23.539915462229      3.553E-15 1.135E-20 0.000E+00
 ETOT  386  -23.539915462229      3.553E-15 2.109E-20 0.000E+00
 ETOT  387  -23.539915462229     -3.553E-15 9.988E-21 0.000E+00

 At SCF step  387   max residual=  9.99E-21 < tolwfr=  1.00E-20 =>converged.

 ----iterations are completed or convergence reached----

 dfpt_looppert: DFPT cycle converged with prtwf=-1. Will skip output of the 1st-order WFK file.
 dfpt_looppert : ek2=    2.8762139293E+01
          f-sum rule ratio=    1.0690651790E+00
 prteigrs : about to open file /scratch/users/j/a/jabreu/flow_simple_8atoms/flow/w329/t1/tmpdata/tmp_1WF1_EIG
 Expectation of eigenvalue derivatives (hartree) for nkpt=   1  k points:
  (in case of degenerate eigenvalues, averaged derivative)
 kpt#   1, nband= 61, wtk=  1.00000, kpt=  0.0000  0.0000  0.0000 (reduced coord)
  -0.00000   -0.00000   -0.00000   -0.00000    0.00000    0.00000    0.00000    0.00000
   0.00000    0.00000   -0.00000   -0.00000    0.00000   -0.00000   -0.00000    0.00000
  -0.00000   -0.00000    0.00000    0.00000    0.00000    0.00000    0.00000    0.00000
  -0.00000    0.00000    0.00000    0.00000    0.00000    0.00000   -0.00000    0.00000
   0.00000    0.00000   -0.00000    0.00000    0.00000    0.00000   -0.00000   -0.00000
  -0.00000   -0.00000    0.00000   -0.00000   -0.00000   -0.00000   -0.00000   -0.00000
  -0.00000   -0.00000    0.00000    0.00000   -0.00000    0.00000   -0.00000   -0.00000
   0.00000   -0.00000   -0.00000   -0.00001   -0.00000

 Eight components of 2nd-order total energy (hartree) are
 1,2,3: 0th-order hamiltonian combined with 1st-order wavefunctions
     kin0=   4.99167922E+01 eigvalue=  -6.59902432E-01  local=  -2.08013670E+01
 4,5,6: 1st-order hamiltonian combined with 1st and 0th-order wfs
     kin1=  -3.07486016E+01  Hartree=   0.00000000E+00     xc=   0.00000000E+00
 7,8,9: eventually, occupation + non-local contributions
    edocc=   2.04272127E+00     enl0=  -6.95832860E+00   enl1=  -1.63312293E+01
 1-9 gives the relaxation energy (to be shifted if some occ is /=2.0)
   erelax=  -2.35399155E+01
  No Ewald or frozen-wf contrib.: the relaxation energy is the total one
 2DEtotal=   -0.2353991546E+02 Ha. Also 2DEtotal=   -0.640553675675E+03 eV
    (  non-var. 2DEtotal :   -2.3539915462E+01 Ha)

 CALCULATION OF EFFECTIVE MASSES
 NOTE : Additional infos (eff. mass eigenvalues, eigenvectors and, if degenerate, average mass) are available in stdout.

 COMMENTS:
 - At k-point ( 0.000, 0.000, 0.000), bands    51 through    52
   are DEGENERATE (effective mass tensor is therefore not defined).
   See Section IIIB Eqs. (67)-(70) and Appendix E of PRB 93 205147 (2016).
 - Angular average effective mass for Frohlich model is to be averaged over degenerate bands. See later.
 - Associated theta integrals calculated with ntheta=   1000 points.

 K-point ( 0.000, 0.000, 0.000) | band =    51
 Transport equivalent effective mass tensor:
             -0.1797267920              0.0000000353             -0.0000001227
              0.0000000353             -0.1797268095              0.0000002067
             -0.0000001227              0.0000002067             -1.8008296247
 Transport equivalent effective mass tensor eigenvalues:
             -1.8008296247             -0.1797268371             -0.1797267644
 Angular average effective mass 1/(<1/m>)=  -0.2096220772
 Angular average effective mass for Frohlich model (<m**0.5>)**2=  -0.2554063305
 Effective masses along directions: (cart. coord. / red. coord. -> eff. mass)
    1:   1.000000  0.000000  0.000000 /   1.000000  0.000000  0.000000 ->  -0.1225014452
    2:   0.000000  1.000000  0.000000 /   0.000000  1.000000  0.000000 ->  -0.1225014520
    3:   0.000000  0.000000  1.000000 /   0.000000  0.000000  1.000000 ->  -1.2992373012
    4:   0.577350  0.577350  0.577350 /   0.381418  0.381418  0.842046 ->  -0.3007281571
    5:   0.000000  0.707107  0.707107 /   0.000000  0.412610  0.910908 ->  -0.2238926755
    6:   0.707107  0.000000  0.707107 /   0.412610  0.000000  0.910908 ->  -0.2238927134
    7:   0.707107  0.707107  0.000000 /   0.707107  0.707107  0.000000 ->  -0.2172472108

 K-point ( 0.000, 0.000, 0.000) | band =    52
 Transport equivalent effective mass tensor:
             -4.5761471278              0.0000002081             -0.0000011433
              0.0000002081             -4.5761446462              0.0000014962
             -0.0000011433              0.0000014962            -21.3157517865
 Transport equivalent effective mass tensor eigenvalues:
            -21.3157517865             -4.5761471452             -4.5761446289
 Angular average effective mass 1/(<1/m>)=  -0.7220678283
 Angular average effective mass for Frohlich model (<m**0.5>)**2=  -0.9817523783
 Effective masses along directions: (cart. coord. / red. coord. -> eff. mass)
    1:   1.000000  0.000000  0.000000 /   1.000000  0.000000  0.000000 ->  -3.3305410909
    2:   0.000000  1.000000  0.000000 /   0.000000  1.000000  0.000000 ->  -3.3305410892
    3:   0.000000  0.000000  1.000000 /   0.000000  0.000000  1.000000 ->  -1.2992393933
    4:   0.577350  0.577350  0.577350 /   0.381418  0.381418  0.842046 ->  -0.3533395127
    5:   0.000000  0.707107  0.707107 /   0.000000  0.412610  0.910908 ->  -1.8692745653
    6:   0.707107  0.000000  0.707107 /   0.412610  0.000000  0.910908 ->  -1.8692757182
    7:   0.707107  0.707107  0.000000 /   0.707107  0.707107  0.000000 ->  -0.2590425891

 Angular average effective mass for Frohlich model, averaged over degenerate bands.
 Value of     (<<m**0.5>>)**2 =     5.596623E-01
 Absolute Value of <<m**0.5>> =     7.481058E-01

 K-point ( 0.000, 0.000, 0.000) | band =    53
 Effective mass tensor:
              0.1657832871             -0.0000000165             -0.0000000044
             -0.0000000165              0.1657832863             -0.0000000042
             -0.0000000044             -0.0000000042              1.0451232797
 Effective mass tensor eigenvalues:
              0.1657832702              0.1657833032              1.0451232797
 Angular average effective mass 1/(<1/m>)=   0.2304011704
 Angular average effective mass for Frohlich model (<m**0.5>)**2=   0.2656645066
 Effective masses along directions: (cart. coord. / red. coord. -> eff. mass)
    1:   1.000000  0.000000  0.000000 /   1.000000  0.000000  0.000000 ->   0.1657832871
    2:   0.000000  1.000000  0.000000 /   0.000000  1.000000  0.000000 ->   0.1657832863
    3:   0.000000  0.000000  1.000000 /   0.000000  0.000000  1.000000 ->   1.0451232797
    4:   0.577350  0.577350  0.577350 /   0.381418  0.381418  0.842046 ->   0.2304011474
    5:   0.000000  0.707107  0.707107 /   0.000000  0.412610  0.910908 ->   0.2861723201
    6:   0.707107  0.000000  0.707107 /   0.412610  0.000000  0.910908 ->   0.2861723211
    7:   0.707107  0.707107  0.000000 /   0.707107  0.707107  0.000000 ->   0.1657832702

 END OF EFFECTIVE MASSES SECTION

 ---- first-order wavefunction calculations are completed ----

 Total localisation tensor (bohr^2) in cartesian coordinates
  WARNING : still subject to testing - especially symmetries.
      direction              matrix element
   alpha     beta       real part   imaginary part
     1        1       2.3721287690    0.0000000000
     1        2       0.0000000000    0.0000000000
     1        3       0.0000000000    0.0000000000
     2        1       0.0000000000    0.0000000000
     2        2       2.3721285953    0.0000000000
     2        3       0.0000000000    0.0000000000
     3        1       0.0000000000    0.0000000000
     3        2       0.0000000000    0.0000000000
     3        3       1.1309656240    0.0000000000

 respfn : d/dk was computed, but no 2DTE, so no DDB output.

== END DATASET(S) ==============================================================

 -outvars: echo values of variables after computation  --------
            acell      1.0000000000E+00  1.0000000000E+00  1.0000000000E+00 Bohr
              amu      1.38905500E+02  6.53900000E+01  7.49215900E+01
                       1.59994000E+01
             ecut      5.20000000E+01 Hartree
           etotal     -2.3539915462E+01
            fcart      0.0000000000E+00  0.0000000000E+00  0.0000000000E+00
                       0.0000000000E+00  0.0000000000E+00  0.0000000000E+00
                       0.0000000000E+00  0.0000000000E+00  0.0000000000E+00
                       0.0000000000E+00  0.0000000000E+00  0.0000000000E+00
                       0.0000000000E+00  0.0000000000E+00  0.0000000000E+00
                       0.0000000000E+00  0.0000000000E+00  0.0000000000E+00
                       0.0000000000E+00  0.0000000000E+00  0.0000000000E+00
                       0.0000000000E+00  0.0000000000E+00  0.0000000000E+00
-          fftalg         512
           irdden           1
           irdwfk           1
           istwfk        1
              ixc     -116133
           kptopt           0
P           mkmem           1
P          mkqmem           1
P          mk1mem           1
            natom           8
            nband          61
           nbdbuf           4
            ngfft          50      50     120
             nkpt           1
            nstep        2000
             nsym          16
           ntypat           4
              occ      2.000000  2.000000  2.000000  2.000000  2.000000  2.000000
                       2.000000  2.000000  2.000000  2.000000  2.000000  2.000000
                       2.000000  2.000000  2.000000  2.000000  2.000000  2.000000
                       2.000000  2.000000  2.000000  2.000000  2.000000  2.000000
                       2.000000  2.000000  2.000000  2.000000  2.000000  2.000000
                       2.000000  2.000000  2.000000  2.000000  2.000000  2.000000
                       2.000000  2.000000  2.000000  2.000000  2.000000  2.000000
                       2.000000  2.000000  2.000000  2.000000  2.000000  2.000000
                       2.000000  2.000000  2.000000  2.000000  0.000000  0.000000
                       0.000000  0.000000  0.000000  0.000000  0.000000  0.000000
                       0.000000
        optdriver           1
            prtwf          -1
            rfdir           1       1       1
           rfelfd           2
            rprim      7.6536013202E+00  0.0000000000E+00  0.0000000000E+00
                       0.0000000000E+00  7.6536013202E+00  0.0000000000E+00
                       0.0000000000E+00  0.0000000000E+00  1.6896663038E+01
          spgroup         129
           strten      0.0000000000E+00  0.0000000000E+00  0.0000000000E+00
                       0.0000000000E+00  0.0000000000E+00  0.0000000000E+00
           symrel      1  0  0   0  1  0   0  0  1      -1  0  0   0 -1  0   0  0 -1
                      -1  0  0   0  1  0   0  0 -1       1  0  0   0 -1  0   0  0  1
                      -1  0  0   0 -1  0   0  0  1       1  0  0   0  1  0   0  0 -1
                       1  0  0   0 -1  0   0  0 -1      -1  0  0   0  1  0   0  0  1
                       0  1  0   1  0  0   0  0  1       0 -1  0  -1  0  0   0  0 -1
                       0 -1  0   1  0  0   0  0 -1       0  1  0  -1  0  0   0  0  1
                       0 -1  0  -1  0  0   0  0  1       0  1  0   1  0  0   0  0 -1
                       0  1  0  -1  0  0   0  0 -1       0 -1  0   1  0  0   0  0  1
            tnons      0.0000000  0.0000000  0.0000000     0.5000000  0.5000000  0.0000000
                       0.5000000  0.5000000  0.0000000     0.0000000  0.0000000  0.0000000
                       0.0000000  0.0000000  0.0000000     0.5000000  0.5000000  0.0000000
                       0.5000000  0.5000000  0.0000000     0.0000000  0.0000000  0.0000000
                       0.5000000  0.5000000  0.0000000     0.0000000  0.0000000  0.0000000
                       0.0000000  0.0000000  0.0000000     0.5000000  0.5000000  0.0000000
                       0.5000000  0.5000000  0.0000000     0.0000000  0.0000000  0.0000000
                       0.0000000  0.0000000  0.0000000     0.5000000  0.5000000  0.0000000
           tolwfr      1.00000000E-20
            typat      1  1  2  2  3  3  4  4
           useylm           1
           xangst      0.0000000000E+00  2.0250556911E+00  7.7308608048E+00
                       2.0250556911E+00  0.0000000000E+00  1.2104681761E+00
                       2.0250556911E+00  2.0250556911E+00  4.4706644905E+00
                       0.0000000000E+00  0.0000000000E+00  4.4706644905E+00
                       2.0250556911E+00  0.0000000000E+00  6.0156009598E+00
                       0.0000000000E+00  2.0250556911E+00  2.9257280212E+00
                       2.0250556911E+00  2.0250556911E+00  0.0000000000E+00
                       0.0000000000E+00  0.0000000000E+00  0.0000000000E+00
            xcart      0.0000000000E+00  3.8268006601E+00  1.4609209693E+01
                       3.8268006601E+00  0.0000000000E+00  2.2874533454E+00
                       3.8268006601E+00  3.8268006601E+00  8.4483315190E+00
                       0.0000000000E+00  0.0000000000E+00  8.4483315190E+00
                       3.8268006601E+00  0.0000000000E+00  1.1367838339E+01
                       0.0000000000E+00  3.8268006601E+00  5.5288246993E+00
                       3.8268006601E+00  3.8268006601E+00  0.0000000000E+00
                       0.0000000000E+00  0.0000000000E+00  0.0000000000E+00
             xred      0.0000000000E+00  5.0000000000E-01  8.6462100000E-01
                       5.0000000000E-01  0.0000000000E+00  1.3537900000E-01
                       5.0000000000E-01  5.0000000000E-01  5.0000000000E-01
                       0.0000000000E+00  0.0000000000E+00  5.0000000000E-01
                       5.0000000000E-01  0.0000000000E+00  6.7278600000E-01
                       0.0000000000E+00  5.0000000000E-01  3.2721400000E-01
                       5.0000000000E-01  5.0000000000E-01  0.0000000000E+00
                       0.0000000000E+00  0.0000000000E+00  0.0000000000E+00
            znucl       57.00000   30.00000   33.00000    8.00000

- Timing analysis has been suppressed with timopt=0

 Suggested references for the acknowledgment of ABINIT usage.

 Calculation completed.
.Delivered   6 WARNINGs and   5 COMMENTs to log file.