.Version 9.5.1 of ABINIT

 ABINIT is a project of the Universite Catholique de Louvain,
 Corning Inc. and other collaborators, see ~abinit/doc/developers/contributors.txt .
 acknowledgments of the ABINIT effort.

.Starting date : Sun 25 Apr 2021.
- ( at 17h13 )

- input  file    -> /scratch/users/j/a/jabreu/flow_simple2/flow/w155/t1/run.abi
- output file    -> /scratch/users/j/a/jabreu/flow_simple2/flow/w155/t1/run.abo
- root for input  files -> /scratch/users/j/a/jabreu/flow_simple2/flow/w155/t1/indata/in
- root for output files -> /scratch/users/j/a/jabreu/flow_simple2/flow/w155/t1/outdata/out

 Symmetries : space group Fm -3 m (#225); Bravais cF (face-center cubic)
     intxc =       0      iscf =       7    lmnmax =      32     lnmax =       8
     mgfft =      45  mpssoang =       4    mqgrid =    3001     natom =       2
  nloc_mem =       1    nspden =       1   nspinor =       1    nsppol =       1
      nsym =      48    n1xccc =    2501    ntypat =       2    occopt =       1
   xclevel =       2
-    mband =          17        mffmem =           1         mkmem =           1
-   mkqmem =           1        mk1mem =           1           mpw =        3527
      nfft =       91125          nkpt =           1
  Rough estimation (10% accuracy) of disk space for files :

------------- Echo of variables that govern the present computation ------------
-
- outvars: echo of selected default values
-   iomode0 =  0 , fftalg0 =512 , wfoptalg0 =  0
-
- outvars: echo of global parameters not present in the input file
-  max_nthreads =    0
-
 -outvars: echo values of preprocessed input variables --------
            acell      1.0000000000E+00  1.0000000000E+00  1.0000000000E+00 Bohr
              amu      1.32905430E+02  7.99040000E+01
             ecut      2.40000000E+01 Hartree
-          fftalg         512
           irdden           1
           irdwfk           1
           istwfk        1
              ixc     -116133
           kptopt           0
P           mkmem           1
P          mkqmem           1
P          mk1mem           1
            natom           2
            nband          17
           nbdbuf           4
            ngfft          45      45      45
             nkpt           1
            nstep         100
             nsym          48
           ntypat           2
              occ      2.000000  2.000000  2.000000  2.000000  2.000000  2.000000
                       2.000000  2.000000  0.000000  0.000000  0.000000  0.000000
                       0.000000  0.000000  0.000000  0.000000  0.000000
        optdriver           1
            prtwf          -1
            rfdir           1       1       1
           rfelfd           2
            rprim      8.3217322892E+00  0.0000000000E+00  4.8045543773E+00
                       2.7739107631E+00  7.8458044439E+00  4.8045543773E+00
                       0.0000000000E+00  0.0000000000E+00  9.6091087546E+00
          spgroup         225
           symrel      1  0  0   0  1  0   0  0  1      -1  0  0   0 -1  0   0  0 -1
                       0 -1  1   0 -1  0   1 -1  0       0  1 -1   0  1  0  -1  1  0
                      -1  0  0  -1  0  1  -1  1  0       1  0  0   1  0 -1   1 -1  0
                       0  1 -1   1  0 -1   0  0 -1       0 -1  1  -1  0  1   0  0  1
                      -1  0  0  -1  1  0  -1  0  1       1  0  0   1 -1  0   1  0 -1
                       0 -1  1   1 -1  0   0 -1  0       0  1 -1  -1  1  0   0  1  0
                       1  0  0   0  0  1   0  1  0      -1  0  0   0  0 -1   0 -1  0
                       0  1 -1   0  0 -1   1  0 -1       0 -1  1   0  0  1  -1  0  1
                      -1  0  1  -1  1  0  -1  0  0       1  0 -1   1 -1  0   1  0  0
                       0 -1  0   1 -1  0   0 -1  1       0  1  0  -1  1  0   0  1 -1
                       1  0 -1   0  0 -1   0  1 -1      -1  0  1   0  0  1   0 -1  1
                       0  1  0   0  0  1   1  0  0       0 -1  0   0  0 -1  -1  0  0
                       1  0 -1   0  1 -1   0  0 -1      -1  0  1   0 -1  1   0  0  1
                       0 -1  0   0 -1  1   1 -1  0       0  1  0   0  1 -1  -1  1  0
                      -1  0  1  -1  0  0  -1  1  0       1  0 -1   1  0  0   1 -1  0
                       0  1  0   1  0  0   0  0  1       0 -1  0  -1  0  0   0  0 -1
                       0  0 -1   0  1 -1   1  0 -1       0  0  1   0 -1  1  -1  0  1
                       1 -1  0   0 -1  1   0 -1  0      -1  1  0   0  1 -1   0  1  0
                       0  0  1   1  0  0   0  1  0       0  0 -1  -1  0  0   0 -1  0
                      -1  1  0  -1  0  0  -1  0  1       1 -1  0   1  0  0   1  0 -1
                       0  0  1   0  1  0   1  0  0       0  0 -1   0 -1  0  -1  0  0
                       1 -1  0   0 -1  0   0 -1  1      -1  1  0   0  1  0   0  1 -1
                       0  0 -1   1  0 -1   0  1 -1       0  0  1  -1  0  1   0 -1  1
                      -1  1  0  -1  0  1  -1  0  0       1 -1  0   1  0 -1   1  0  0
           tolwfr      1.00000000E-20
            typat      1  2
           useylm           1
           xangst      0.0000000000E+00  0.0000000000E+00  0.0000000000E+00
                       2.9357807090E+00  2.0759104474E+00  5.0849213478E+00
            xcart      0.0000000000E+00  0.0000000000E+00  0.0000000000E+00
                       5.5478215261E+00  3.9229022219E+00  9.6091087546E+00
             xred      0.0000000000E+00  0.0000000000E+00  0.0000000000E+00
                       5.0000000000E-01  5.0000000000E-01  5.0000000000E-01
            znucl       55.00000   35.00000

 chkinp: Checking input parameters for consistency.

== DATASET  1 ==================================================================
-   mpi_nproc: 1, omp_nthreads: -1 (-1 if OMP is not activated)

--- !DatasetInfo
iteration_state: {dtset: 1, }
dimensions: {natom: 2, nkpt: 1, mband: 17, nsppol: 1, nspinor: 1, nspden: 1, mpw: 3527, }
cutoff_energies: {ecut:  24.0, pawecutdg:  -1.0, }
electrons: {nelect:   1.60000000E+01, charge:   0.00000000E+00, occopt:   1.00000000E+00, tsmear:   1.00000000E-02, }
meta: {optdriver: 1, rfelfd: 2, }
...

 Real(R)+Recip(G) space primitive vectors, cartesian coordinates (Bohr,Bohr^-1):
 R(1)=  8.3217323  0.0000000  4.8045544  G(1)=  0.1201673 -0.0424856  0.0000000
 R(2)=  2.7739108  7.8458044  4.8045544  G(2)=  0.0000000  0.1274567  0.0000000
 R(3)=  0.0000000  0.0000000  9.6091088  G(3)= -0.0600836 -0.0424856  0.1040679
 Unit cell volume ucvol=  6.2738528E+02 bohr^3
 Angles (23,13,12)=  6.00000000E+01  6.00000000E+01  6.00000000E+01 degrees

 getcut: wavevector=  0.0000  0.0000  0.0000  ngfft=  45  45  45
         ecut(hartree)=     24.000   => boxcut(ratio)=   2.07634

--- Pseudopotential description ------------------------------------------------
- pspini: atom type   1  psp file is /scratch/users/j/a/jabreu/pseudos/PBEsol/Cs.psp8
- pspatm: opening atomic psp file    /scratch/users/j/a/jabreu/pseudos/PBEsol/Cs.psp8
- Cs    ONCVPSP-3.3.0  r_core=   2.27353   1.85623   2.01788   1.90105
- 55.00000   9.00000    180112                znucl, zion, pspdat
    8 -116133    3    4       600   0.00000   pspcod,pspxc,lmax,lloc,mmax,r2well
    5.99000000000000    5.00000000000000    0.00000000000000   rchrg,fchrg,qchrg
     nproj     2     2     2     2
     extension_switch     1
  pspatm : epsatm=   22.12462445
         --- l  ekb(1:nproj) -->
             0    6.214110    0.767882
             1    6.311966    0.793598
             2    3.769790    0.913105
             3   -9.247129   -2.432478
 pspatm: atomic psp has been read  and splines computed

- pspini: atom type   2  psp file is /scratch/users/j/a/jabreu/pseudos/PBEsol/Br.psp8
- pspatm: opening atomic psp file    /scratch/users/j/a/jabreu/pseudos/PBEsol/Br.psp8
- Br    ONCVPSP-3.3.0  r_core=   1.81012   1.51356   1.92136
- 35.00000   7.00000    180112                znucl, zion, pspdat
    8 -116133    2    4       600   0.00000   pspcod,pspxc,lmax,lloc,mmax,r2well
    5.99000000000000    8.00000000000000    0.00000000000000   rchrg,fchrg,qchrg
     nproj     2     2     2
     extension_switch     1
  pspatm : epsatm=   10.94933070
         --- l  ekb(1:nproj) -->
             0    8.508690    0.897946
             1    5.393311    0.892021
             2    2.527513    0.394763
 pspatm: atomic psp has been read  and splines computed

   5.29183282E+02                                ecore*ucvol(ha*bohr**3)

-inwffil : will read wavefunctions from disk file /scratch/users/j/a/jabreu/flow_simple2/flow/w155/t1/indata/in_WFK

 ==>  initialize data related to q vector <==

 The list of irreducible perturbations for this q vector is:
    1)    idir= 1    ipert=   3
    2)    idir= 2    ipert=   3
    3)    idir= 3    ipert=   3

 Perturbation wavevector (in red.coord.)   0.000000  0.000000  0.000000
 Perturbation : derivative vs k along direction   1

 dfpt_looppert : COMMENT -
  In a d/dk calculation, iscf is set to -3 automatically.
 The set of symmetries contains only one element for this perturbation.
 symkpt : not enough symmetry to change the number of k points.

[...]

 Initialisation of the first-order wave-functions :
  ireadwf=   0

--- !BeginCycle
iteration_state: {dtset: 1, }
solver: {iscf: 7, nstep: 100, nline: 4, wfoptalg: 0, }
tolerances: {tolwfr: 1.00E-20, }
...

     iter   2DEtotal(Ha)        deltaE(Ha) residm    vres2
-ETOT  1  -14.312261153240     -1.431E+01 5.795E-03 0.000E+00
 ETOT  2  -14.323092844128     -1.083E-02 1.658E-04 0.000E+00
 ETOT  3  -14.323235199762     -1.424E-04 6.224E-06 0.000E+00
 ETOT  4  -14.323240067812     -4.868E-06 1.937E-06 0.000E+00
 ETOT  5  -14.323240290596     -2.228E-07 8.102E-08 0.000E+00
 ETOT  6  -14.323240301613     -1.102E-08 3.317E-08 0.000E+00
 ETOT  7  -14.323240302191     -5.781E-10 1.398E-09 0.000E+00
 ETOT  8  -14.323240302223     -3.145E-11 5.653E-10 0.000E+00
 ETOT  9  -14.323240302224     -1.734E-12 2.433E-11 0.000E+00
 ETOT 10  -14.323240302224     -1.226E-13 9.750E-12 0.000E+00
 ETOT 11  -14.323240302224     -2.665E-14 4.255E-13 0.000E+00
 ETOT 12  -14.323240302224      0.000E+00 1.698E-13 0.000E+00
 ETOT 13  -14.323240302224      3.553E-15 7.486E-15 0.000E+00
 ETOT 14  -14.323240302224      8.882E-15 2.985E-15 0.000E+00
 ETOT 15  -14.323240302225     -1.954E-14 1.325E-16 0.000E+00
 ETOT 16  -14.323240302224      8.882E-15 5.289E-17 0.000E+00
 ETOT 17  -14.323240302224      3.553E-15 2.361E-18 0.000E+00
 ETOT 18  -14.323240302224     -3.553E-15 9.437E-19 0.000E+00
 ETOT 19  -14.323240302224      1.776E-15 4.233E-20 0.000E+00
 ETOT 20  -14.323240302224     -7.105E-15 1.694E-20 0.000E+00
 ETOT 21  -14.323240302224      3.553E-15 9.497E-21 0.000E+00

 At SCF step   21   max residual=  9.50E-21 < tolwfr=  1.00E-20 =>converged.

 ----iterations are completed or convergence reached----

 dfpt_looppert: DFPT cycle converged with prtwf=-1. Will skip output of the 1st-order WFK file.
 dfpt_looppert : ek2=    2.0522712287E+01
          f-sum rule ratio=    1.2800204573E+00
 prteigrs : about to open file /scratch/users/j/a/jabreu/flow_simple2/flow/w155/t1/tmpdata/tmp_1WF1_EIG
 Expectation of eigenvalue derivatives (hartree) for nkpt=   1  k points:
  (in case of degenerate eigenvalues, averaged derivative)
 kpt#   1, nband= 17, wtk=  1.00000, kpt=  0.0000  0.0000  0.0000 (reduced coord)
  -0.00000    0.00000   -0.00000   -0.00000   -0.00000    0.00000    0.00000    0.00000
   0.00000    0.00000    0.00000    0.00000    0.00000    0.00000   -0.00000   -0.04388
  -0.03159

 Eight components of 2nd-order total energy (hartree) are
 1,2,3: 0th-order hamiltonian combined with 1st-order wavefunctions
     kin0=   6.24882978E+00 eigvalue=   3.86274766E-01  local=  -3.83641555E+00
 4,5,6: 1st-order hamiltonian combined with 1st and 0th-order wfs
     kin1=  -2.62694916E+01  Hartree=   0.00000000E+00     xc=   0.00000000E+00
 7,8,9: eventually, occupation + non-local contributions
    edocc=   1.01749710E+01     enl0=   1.34958026E+00   enl1=  -2.37698904E+00
 1-9 gives the relaxation energy (to be shifted if some occ is /=2.0)
   erelax=  -1.43232403E+01
  No Ewald or frozen-wf contrib.: the relaxation energy is the total one
 2DEtotal=   -0.1432324030E+02 Ha. Also 2DEtotal=   -0.389755189983E+03 eV
    (  non-var. 2DEtotal :   -1.4323240302E+01 Ha)

 Perturbation wavevector (in red.coord.)   0.000000  0.000000  0.000000
 Perturbation : derivative vs k along direction   2
 The set of symmetries contains only one element for this perturbation.
 symkpt : not enough symmetry to change the number of k points.

[...]

 Perturbation wavevector (in red.coord.)   0.000000  0.000000  0.000000
 Perturbation : derivative vs k along direction   3
 The set of symmetries contains only one element for this perturbation.
 symkpt : not enough symmetry to change the number of k points.

-inwffil : will read wavefunctions from disk file /scratch/users/j/a/jabreu/flow_simple2/flow/w155/t1/indata/in_WFK

 Initialisation of the first-order wave-functions :
  ireadwf=   0

--- !BeginCycle
iteration_state: {dtset: 1, }
solver: {iscf: 7, nstep: 100, nline: 4, wfoptalg: 0, }
tolerances: {tolwfr: 1.00E-20, }
...

     iter   2DEtotal(Ha)        deltaE(Ha) residm    vres2
-ETOT  1  -14.311119981170     -1.431E+01 9.690E-03 0.000E+00
 ETOT  2  -14.322922026945     -1.180E-02 2.002E-04 0.000E+00
 ETOT  3  -14.323216871571     -2.948E-04 6.440E-06 0.000E+00
 ETOT  4  -14.323227489524     -1.062E-05 1.985E-06 0.000E+00
 ETOT  5  -14.323227973321     -4.838E-07 8.323E-08 0.000E+00
 ETOT  6  -14.323227997300     -2.398E-08 3.380E-08 0.000E+00
 ETOT  7  -14.323227998555     -1.255E-09 1.651E-09 0.000E+00
 ETOT  8  -14.323227998623     -6.851E-11 5.701E-10 0.000E+00
 ETOT  9  -14.323227998627     -3.880E-12 3.413E-11 0.000E+00
 ETOT 10  -14.323227998627     -2.700E-13 9.718E-12 0.000E+00
 ETOT 11  -14.323227998627      3.553E-15 7.188E-13 0.000E+00
 ETOT 12  -14.323227998627     -3.553E-15 1.894E-13 0.000E+00
 ETOT 13  -14.323227998627     -3.553E-15 1.527E-14 0.000E+00
 ETOT 14  -14.323227998627      5.329E-15 3.937E-15 0.000E+00
 ETOT 15  -14.323227998627      2.309E-14 3.257E-16 0.000E+00
 ETOT 16  -14.323227998627     -8.882E-15 8.229E-17 0.000E+00
 ETOT 17  -14.323227998627      1.776E-15 6.966E-18 0.000E+00
 ETOT 18  -14.323227998627      0.000E+00 1.727E-18 0.000E+00
 ETOT 19  -14.323227998627     -3.553E-15 1.492E-19 0.000E+00
 ETOT 20  -14.323227998627      3.553E-15 3.635E-20 0.000E+00
 ETOT 21  -14.323227998627     -1.776E-15 9.843E-21 0.000E+00

 At SCF step   21   max residual=  9.84E-21 < tolwfr=  1.00E-20 =>converged.

 ----iterations are completed or convergence reached----

 dfpt_looppert: DFPT cycle converged with prtwf=-1. Will skip output of the 1st-order WFK file.
 dfpt_looppert : ek2=    2.0522712287E+01
          f-sum rule ratio=    1.2800105902E+00
 prteigrs : about to open file /scratch/users/j/a/jabreu/flow_simple2/flow/w155/t1/tmpdata/tmp_1WF1_EIG
 Expectation of eigenvalue derivatives (hartree) for nkpt=   1  k points:
  (in case of degenerate eigenvalues, averaged derivative)
 kpt#   1, nband= 17, wtk=  1.00000, kpt=  0.0000  0.0000  0.0000 (reduced coord)
   0.00000    0.00000   -0.00000   -0.00000   -0.00000   -0.00000   -0.00000   -0.00000
  -0.00000   -0.00000   -0.00000   -0.00000   -0.00000   -0.00000   -0.00000   -0.06679
   0.13194

 Eight components of 2nd-order total energy (hartree) are
 1,2,3: 0th-order hamiltonian combined with 1st-order wavefunctions
     kin0=   5.51981178E+00 eigvalue=   3.51806274E-01  local=  -3.39669703E+00
 4,5,6: 1st-order hamiltonian combined with 1st and 0th-order wfs
     kin1=  -2.62692891E+01  Hartree=   0.00000000E+00     xc=   0.00000000E+00
 7,8,9: eventually, occupation + non-local contributions
    edocc=   1.05706903E+01     enl0=   1.27761670E+00   enl1=  -2.37716693E+00
 1-9 gives the relaxation energy (to be shifted if some occ is /=2.0)
   erelax=  -1.43232280E+01
  No Ewald or frozen-wf contrib.: the relaxation energy is the total one
 2DEtotal=   -0.1432322800E+02 Ha. Also 2DEtotal=   -0.389754855185E+03 eV
    (  non-var. 2DEtotal :   -1.4323227999E+01 Ha)

 CALCULATION OF EFFECTIVE MASSES
 NOTE : Additional infos (eff. mass eigenvalues, eigenvectors and, if degenerate, average mass) are available in stdout.

 COMMENTS:
 - At k-point ( 0.000, 0.000, 0.000), bands     6 through     8
   are DEGENERATE (effective mass tensor is therefore not defined).
   See Section IIIB Eqs. (67)-(70) and Appendix E of PRB 93 205147 (2016).
 - Angular average effective mass for Frohlich model is to be averaged over degenerate bands. See later.
 - Associated theta integrals calculated with ntheta=   1000 points.

 K-point ( 0.000, 0.000, 0.000) | band =     6
 Transport equivalent effective mass tensor:
             -0.8033493677              0.0000202973              0.0000236491
              0.0000202973             -0.8031616479              0.0000266881
              0.0000236491              0.0000266881             -0.8033611836
 Transport equivalent effective mass tensor eigenvalues:
             -0.8033800219             -0.8033368426             -0.8031553347
 Angular average effective mass 1/(<1/m>)=  -0.6427691950
 Angular average effective mass for Frohlich model (<m**0.5>)**2=  -0.6525249525
 Effective masses along directions: (cart. coord. / red. coord. -> eff. mass)
    1:   1.000000  0.000000  0.000000 /   0.948683  0.316228  0.000000 ->  -0.6805071652
    2:   0.000000  1.000000  0.000000 /   0.000000  1.000000  0.000000 ->  -0.8488890777
    3:   0.000000  0.000000  1.000000 /   0.408248  0.408248  0.816497 ->  -0.7234999467
    4:   0.577350  0.577350  0.577350 /   0.585539  0.688047  0.428644 ->  -0.6902904009
    5:   0.000000  0.707107  0.707107 /   0.289489  0.762222  0.578977 ->  -0.5831652028
    6:   0.707107  0.000000  0.707107 /   0.731423  0.422287  0.535439 ->  -0.6994016856
    7:   0.707107  0.707107  0.000000 /   0.616798  0.787122  0.000000 ->  -0.5125702982

[...]

 K-point ( 0.000, 0.000, 0.000) | band =     8
 Transport equivalent effective mass tensor:
            -66.3220275936             -0.2405982560              0.0827909585
             -0.2405982560            -66.0798892807             -0.0858752909
              0.0827909585             -0.0858752909            -66.0023748277
 Transport equivalent effective mass tensor eigenvalues:
            -66.4717561992            -66.0877027664            -65.8448327364
 Angular average effective mass 1/(<1/m>)=  -5.6333958000
 Angular average effective mass for Frohlich model (<m**0.5>)**2=  -6.7920218866
 Effective masses along directions: (cart. coord. / red. coord. -> eff. mass)
    1:   1.000000  0.000000  0.000000 /   0.948683  0.316228  0.000000 ->  -3.4246060372
    2:   0.000000  1.000000  0.000000 /   0.000000  1.000000  0.000000 ->  -2.0125502219
    3:   0.000000  0.000000  1.000000 /   0.408248  0.408248  0.816497 -> -11.5381577192
    4:   0.577350  0.577350  0.577350 /   0.585539  0.688047  0.428644 ->  -4.3459136288
    5:   0.000000  0.707107  0.707107 /   0.289489  0.762222  0.578977 -> -10.0609807859
    6:   0.707107  0.000000  0.707107 /   0.731423  0.422287  0.535439 ->  -6.4635661022
    7:   0.707107  0.707107  0.000000 /   0.616798  0.787122  0.000000 ->  -9.5926980058

 Angular average effective mass for Frohlich model, averaged over degenerate bands.
 Value of     (<<m**0.5>>)**2 =     2.848331E+00
 Absolute Value of <<m**0.5>> =     1.687700E+00

 K-point ( 0.000, 0.000, 0.000) | band =     9
 Effective mass tensor:
              0.3629788772             -0.0000000003              0.0000000114
             -0.0000000003              0.3629789061              0.0000000029
              0.0000000114              0.0000000029              0.3629788897
 Effective mass tensor eigenvalues:
              0.3629788704              0.3629788959              0.3629789068
 Angular average effective mass 1/(<1/m>)=   0.3629788910
 Angular average effective mass for Frohlich model (<m**0.5>)**2=   0.3629788910
 Effective masses along directions: (cart. coord. / red. coord. -> eff. mass)
    1:   1.000000  0.000000  0.000000 /   0.948683  0.316228  0.000000 ->   0.3629788772
    2:   0.000000  1.000000  0.000000 /   0.000000  1.000000  0.000000 ->   0.3629789061
    3:   0.000000  0.000000  1.000000 /   0.408248  0.408248  0.816497 ->   0.3629788897
    4:   0.577350  0.577350  0.577350 /   0.585539  0.688047  0.428644 ->   0.3629789003
    5:   0.000000  0.707107  0.707107 /   0.289489  0.762222  0.578977 ->   0.3629789008
    6:   0.707107  0.000000  0.707107 /   0.731423  0.422287  0.535439 ->   0.3629788949
    7:   0.707107  0.707107  0.000000 /   0.616798  0.787122  0.000000 ->   0.3629788913

 END OF EFFECTIVE MASSES SECTION

 ---- first-order wavefunction calculations are completed ----

 Total localisation tensor (bohr^2) in cartesian coordinates
  WARNING : still subject to testing - especially symmetries.
      direction              matrix element
   alpha     beta       real part   imaginary part
     1        1       2.4396342293    0.0000000000
     1        2       0.6900862431    0.0000000000
     1        3       1.6902500080    0.0000000000
     2        1       0.6900862431    0.0000000000
     2        2       1.9518586483    0.0000000000
     2        3       1.1952644346    0.0000000000
     3        1       1.6902500080    0.0000000000
     3        2       1.1952644346    0.0000000000
     3        3       4.3912920527    0.0000000000

 respfn : d/dk was computed, but no 2DTE, so no DDB output.

== END DATASET(S) ==============================================================

 -outvars: echo values of variables after computation  --------
            acell      1.0000000000E+00  1.0000000000E+00  1.0000000000E+00 Bohr
              amu      1.32905430E+02  7.99040000E+01
             ecut      2.40000000E+01 Hartree
           etotal     -1.4323227999E+01
            fcart      0.0000000000E+00  0.0000000000E+00  0.0000000000E+00
                       0.0000000000E+00  0.0000000000E+00  0.0000000000E+00
-          fftalg         512
           irdden           1
           irdwfk           1
           istwfk        1
              ixc     -116133
           kptopt           0
P           mkmem           1
P          mkqmem           1
P          mk1mem           1
            natom           2
            nband          17
           nbdbuf           4
            ngfft          45      45      45
             nkpt           1
            nstep         100
             nsym          48
           ntypat           2
              occ      2.000000  2.000000  2.000000  2.000000  2.000000  2.000000
                       2.000000  2.000000  0.000000  0.000000  0.000000  0.000000
                       0.000000  0.000000  0.000000  0.000000  0.000000
        optdriver           1
            prtwf          -1
            rfdir           1       1       1
           rfelfd           2
            rprim      8.3217322892E+00  0.0000000000E+00  4.8045543773E+00
                       2.7739107631E+00  7.8458044439E+00  4.8045543773E+00
                       0.0000000000E+00  0.0000000000E+00  9.6091087546E+00
          spgroup         225
           strten      0.0000000000E+00  0.0000000000E+00  0.0000000000E+00
                       0.0000000000E+00  0.0000000000E+00  0.0000000000E+00
           symrel      1  0  0   0  1  0   0  0  1      -1  0  0   0 -1  0   0  0 -1
                       0 -1  1   0 -1  0   1 -1  0       0  1 -1   0  1  0  -1  1  0
                      -1  0  0  -1  0  1  -1  1  0       1  0  0   1  0 -1   1 -1  0
                       0  1 -1   1  0 -1   0  0 -1       0 -1  1  -1  0  1   0  0  1
                      -1  0  0  -1  1  0  -1  0  1       1  0  0   1 -1  0   1  0 -1
                       0 -1  1   1 -1  0   0 -1  0       0  1 -1  -1  1  0   0  1  0
                       1  0  0   0  0  1   0  1  0      -1  0  0   0  0 -1   0 -1  0
                       0  1 -1   0  0 -1   1  0 -1       0 -1  1   0  0  1  -1  0  1
                      -1  0  1  -1  1  0  -1  0  0       1  0 -1   1 -1  0   1  0  0
                       0 -1  0   1 -1  0   0 -1  1       0  1  0  -1  1  0   0  1 -1
                       1  0 -1   0  0 -1   0  1 -1      -1  0  1   0  0  1   0 -1  1
                       0  1  0   0  0  1   1  0  0       0 -1  0   0  0 -1  -1  0  0
                       1  0 -1   0  1 -1   0  0 -1      -1  0  1   0 -1  1   0  0  1
                       0 -1  0   0 -1  1   1 -1  0       0  1  0   0  1 -1  -1  1  0
                      -1  0  1  -1  0  0  -1  1  0       1  0 -1   1  0  0   1 -1  0
                       0  1  0   1  0  0   0  0  1       0 -1  0  -1  0  0   0  0 -1
                       0  0 -1   0  1 -1   1  0 -1       0  0  1   0 -1  1  -1  0  1
                       1 -1  0   0 -1  1   0 -1  0      -1  1  0   0  1 -1   0  1  0
                       0  0  1   1  0  0   0  1  0       0  0 -1  -1  0  0   0 -1  0
                      -1  1  0  -1  0  0  -1  0  1       1 -1  0   1  0  0   1  0 -1
                       0  0  1   0  1  0   1  0  0       0  0 -1   0 -1  0  -1  0  0
                       1 -1  0   0 -1  0   0 -1  1      -1  1  0   0  1  0   0  1 -1
                       0  0 -1   1  0 -1   0  1 -1       0  0  1  -1  0  1   0 -1  1
                      -1  1  0  -1  0  1  -1  0  0       1 -1  0   1  0 -1   1  0  0
           tolwfr      1.00000000E-20
            typat      1  2
           useylm           1
           xangst      0.0000000000E+00  0.0000000000E+00  0.0000000000E+00
                       2.9357807090E+00  2.0759104474E+00  5.0849213478E+00
            xcart      0.0000000000E+00  0.0000000000E+00  0.0000000000E+00
                       5.5478215261E+00  3.9229022219E+00  9.6091087546E+00
             xred      0.0000000000E+00  0.0000000000E+00  0.0000000000E+00
                       5.0000000000E-01  5.0000000000E-01  5.0000000000E-01
            znucl       55.00000   35.00000

- Timing analysis has been suppressed with timopt=0

 Suggested references for the acknowledgment of ABINIT usage.

 Calculation completed.
.Delivered   6 WARNINGs and   5 COMMENTs to log file.