.Version 9.7.2 of ABINIT

 ABINIT is a project of the Universite Catholique de Louvain,
 Corning Inc. and other collaborators, see ~abinit/doc/developers/contributors.txt .
 acknowledgments of the ABINIT effort.

.Starting date : Wed  1 Dec 2021.
- ( at 21h48 )

- input  file    -> /scratch/users/j/a/jabreu/flow_simple_remain_atoms/flow/w252/t1/run.abi
- output file    -> /scratch/users/j/a/jabreu/flow_simple_remain_atoms/flow/w252/t1/run.abo
- root for input  files -> /scratch/users/j/a/jabreu/flow_simple_remain_atoms/flow/w252/t1/indata/in
- root for output files -> /scratch/users/j/a/jabreu/flow_simple_remain_atoms/flow/w252/t1/outdata/out

 Symmetries : space group P-3 m 1 (#164); Bravais hP (primitive hexag.)
     intxc =       0      iscf =       7    lmnmax =      18     lnmax =       6
     mgfft =      72  mpssoang =       3    mqgrid =    3513     natom =       5
  nloc_mem =       1    nspden =       1   nspinor =       1    nsppol =       1
      nsym =      12    n1xccc =    2501    ntypat =       3    occopt =       1
   xclevel =       2
-    mband =          29        mffmem =           1         mkmem =           2
-   mkqmem =           2        mk1mem =           2           mpw =        6276
      nfft =      115200          nkpt =           2
  Rough estimation (10% accuracy) of disk space for files :

------------- Echo of variables that govern the present computation ------------
-
- outvars: echo of selected default values
-   iomode0 =  0 , fftalg0 =512 , wfoptalg0 =  0
-
- outvars: echo of global parameters not present in the input file
-  max_nthreads =    0
-
 -outvars: echo values of preprocessed input variables --------
            acell      1.0000000000E+00  1.0000000000E+00  1.0000000000E+00 Bohr
              amu      9.12240000E+01  3.20660000E+01  1.40067400E+01
             ecut      4.20000000E+01 Hartree
-          fftalg         512
           irdden           1
           irdwfk           1
           istwfk        1    0
              ixc     -116133
              kpt      0.00000000E+00  0.00000000E+00  0.00000000E+00
                       3.33333333E-01  3.33333333E-01  0.00000000E+00
           kptopt           0
P           mkmem           2
P          mkqmem           2
P          mk1mem           2
            natom           5
            nband          29
           nbdbuf           4
            ngfft          40      40      72
             nkpt           2
            nstep        2000
             nsym          12
           ntypat           3
              occ      2.000000  2.000000  2.000000  2.000000  2.000000  2.000000
                       2.000000  2.000000  2.000000  2.000000  2.000000  2.000000
                       2.000000  2.000000  2.000000  2.000000  2.000000  2.000000
                       2.000000  2.000000  0.000000  0.000000  0.000000  0.000000
                       0.000000  0.000000  0.000000  0.000000  0.000000
        optdriver           1
            prtwf          -1
            rfdir           1       1       1
           rfelfd           2
            rprim      6.7904052290E+00  0.0000000000E+00  0.0000000000E+00
                      -3.3952026145E+00  5.8806634303E+00  0.0000000000E+00
                       0.0000000000E+00  0.0000000000E+00  1.2040106771E+01
          spgroup         164
           symrel      1  0  0   0  1  0   0  0  1      -1  0  0   0 -1  0   0  0 -1
                      -1  0  0   1  1  0   0  0  1       1  0  0  -1 -1  0   0  0 -1
                       0  1  0  -1 -1  0   0  0  1       0 -1  0   1  1  0   0  0 -1
                       0 -1  0  -1  0  0   0  0  1       0  1  0   1  0  0   0  0 -1
                      -1 -1  0   1  0  0   0  0  1       1  1  0  -1  0  0   0  0 -1
                       1  1  0   0 -1  0   0  0  1      -1 -1  0   0  1  0   0  0 -1
           tolwfr      1.00000000E-20
            typat      1  1  2  3  3
           useylm           1
              wtk        0.50000    0.50000
           xangst      1.7966638421E+00  1.0373043529E+00  1.8790003411E+00
                      -4.7000377687E-16  2.0746087058E+00  4.4923497511E+00
                       0.0000000000E+00  0.0000000000E+00  0.0000000000E+00
                      -4.7000377687E-16  2.0746087058E+00  2.3246953941E+00
                       1.7966638421E+00  1.0373043529E+00  4.0466546981E+00
            xcart      3.3952026145E+00  1.9602211434E+00  3.5507960482E+00
                      -8.8817841970E-16  3.9204422869E+00  8.4893107227E+00
                       0.0000000000E+00  0.0000000000E+00  0.0000000000E+00
                      -8.8817841970E-16  3.9204422869E+00  4.3930376372E+00
                       3.3952026145E+00  1.9602211434E+00  7.6470691337E+00
             xred      6.6666666667E-01  3.3333333333E-01  2.9491400000E-01
                       3.3333333333E-01  6.6666666667E-01  7.0508600000E-01
                       0.0000000000E+00  0.0000000000E+00  0.0000000000E+00
                       3.3333333333E-01  6.6666666667E-01  3.6486700000E-01
                       6.6666666667E-01  3.3333333333E-01  6.3513300000E-01
            znucl       40.00000   16.00000    7.00000

 chkinp: Checking input parameters for consistency.

== DATASET  1 ==================================================================
-   mpi_nproc: 1, omp_nthreads: -1 (-1 if OMP is not activated)

--- !DatasetInfo
iteration_state: {dtset: 1, }
dimensions: {natom: 5, nkpt: 2, mband: 29, nsppol: 1, nspinor: 1, nspden: 1, mpw: 6276, }
cutoff_energies: {ecut:  42.0, pawecutdg:  -1.0, }
electrons: {nelect:   4.00000000E+01, charge:   0.00000000E+00, occopt:   1.00000000E+00, tsmear:   1.00000000E-02, }
meta: {optdriver: 1, rfelfd: 2, }
...

 Real(R)+Recip(G) space primitive vectors, cartesian coordinates (Bohr,Bohr^-1):
 R(1)=  6.7904052  0.0000000  0.0000000  G(1)=  0.1472666  0.0850244  0.0000000
 R(2)= -3.3952026  5.8806634  0.0000000  G(2)=  0.0000000  0.1700488  0.0000000
 R(3)=  0.0000000  0.0000000 12.0401068  G(3)=  0.0000000  0.0000000  0.0830557
 Unit cell volume ucvol=  4.8078660E+02 bohr^3
 Angles (23,13,12)=  9.00000000E+01  9.00000000E+01  1.20000000E+02 degrees

 getcut: wavevector=  0.0000  0.0000  0.0000  ngfft=  40  40  72
         ecut(hartree)=     42.000   => boxcut(ratio)=   2.01918

--- Pseudopotential description ------------------------------------------------
- pspini: atom type   1  psp file is /scratch/users/j/a/jabreu/pseudos/PBEsol/Zr.psp8
- pspatm: opening atomic psp file    /scratch/users/j/a/jabreu/pseudos/PBEsol/Zr.psp8
- Zr    ONCVPSP-3.3.0  r_core=   1.56507   1.56507   1.51006
- 40.00000  12.00000    180112                znucl, zion, pspdat
    8 -116133    2    4       600   0.00000   pspcod,pspxc,lmax,lloc,mmax,r2well
    5.99000000000000    5.00000000000000    0.00000000000000   rchrg,fchrg,qchrg
     nproj     2     2     2
     extension_switch     1
  pspatm : epsatm=   18.88750170
         --- l  ekb(1:nproj) -->
             0   10.584966    0.890424
             1    5.814585    0.741293
             2    1.525459    0.487901
 pspatm: atomic psp has been read  and splines computed

- pspini: atom type   2  psp file is /scratch/users/j/a/jabreu/pseudos/PBEsol/S.psp8
- pspatm: opening atomic psp file    /scratch/users/j/a/jabreu/pseudos/PBEsol/S.psp8
- S     ONCVPSP-3.3.0  r_core=   1.45376   1.45376   1.61851
- 16.00000   6.00000    180112                znucl, zion, pspdat
    8 -116133    2    4       600   0.00000   pspcod,pspxc,lmax,lloc,mmax,r2well
    5.99000000000000    6.00000000000000    0.00000000000000   rchrg,fchrg,qchrg
     nproj     2     2     2
     extension_switch     1
  pspatm : epsatm=    8.71840985
         --- l  ekb(1:nproj) -->
             0    6.834532    0.579453
             1    3.282851    0.896984
             2   -3.496974   -0.974265
 pspatm: atomic psp has been read  and splines computed

- pspini: atom type   3  psp file is /scratch/users/j/a/jabreu/pseudos/PBEsol/N.psp8
- pspatm: opening atomic psp file    /scratch/users/j/a/jabreu/pseudos/PBEsol/N.psp8
- N     ONCVPSP-3.3.0  r_core=   1.20551   1.35824
-  7.00000   5.00000    180112                znucl, zion, pspdat
    8 -116133    1    4       600   0.00000   pspcod,pspxc,lmax,lloc,mmax,r2well
    5.99000000000000    4.00000000000000    0.00000000000000   rchrg,fchrg,qchrg
     nproj     2     2
     extension_switch     1
  pspatm : epsatm=    5.26508895
         --- l  ekb(1:nproj) -->
             0    7.464189    0.625868
             1   -4.309714   -1.012941
 pspatm: atomic psp has been read  and splines computed

   2.28094365E+03                                ecore*ucvol(ha*bohr**3)

 ==>  initialize data related to q vector <==

 The list of irreducible perturbations for this q vector is:
    1)    idir= 1    ipert=   6
    2)    idir= 2    ipert=   6
    3)    idir= 3    ipert=   6

 Perturbation wavevector (in red.coord.)   0.000000  0.000000  0.000000
 Perturbation : derivative vs k along direction   1

 dfpt_looppert : COMMENT -
  In a d/dk calculation, iscf is set to -3 automatically.
 The set of symmetries contains only one element for this perturbation.
 symkpt : not enough symmetry to change the number of k points.

 Initialisation of the first-order wave-functions :
  ireadwf=   0

--- !BeginCycle
iteration_state: {dtset: 1, }
solver: {iscf: 7, nstep: 2000, nline: 4, wfoptalg: 0, }
tolerances: {tolwfr: 1.00E-20, }
...

     iter   2DEtotal(Ha)        deltaE(Ha) residm    vres2
-ETOT  1  -50.564990877758     -5.056E+01 1.223E-01 0.000E+00
 ETOT  2  -50.633996801562     -6.901E-02 9.293E-02 0.000E+00
 ETOT  3  -50.634889914060     -8.931E-04 7.875E-03 0.000E+00
 ETOT  4  -50.634907668629     -1.775E-05 4.844E-03 0.000E+00
 ETOT  5  -50.634908176891     -5.083E-07 4.771E-04 0.000E+00
 ETOT  6  -50.634908193722     -1.683E-08 3.421E-04 0.000E+00
 ETOT  7  -50.634908194321     -5.988E-10 3.531E-05 0.000E+00
 ETOT  8  -50.634908194343     -2.188E-11 2.716E-05 0.000E+00
 ETOT  9  -50.634908194344     -8.384E-13 2.875E-06 0.000E+00
 ETOT 10  -50.634908194344     -9.948E-14 2.254E-06 0.000E+00
 ETOT 11  -50.634908194344      1.421E-14 2.401E-07 0.000E+00
 ETOT 12  -50.634908194344      7.105E-15 1.892E-07 0.000E+00
 ETOT 13  -50.634908194344      0.000E+00 2.020E-08 0.000E+00
 ETOT 14  -50.634908194344      0.000E+00 1.594E-08 0.000E+00
 ETOT 15  -50.634908194344     -7.105E-15 1.706E-09 0.000E+00
 ETOT 16  -50.634908194344      2.132E-14 1.348E-09 0.000E+00
 ETOT 17  -50.634908194344      0.000E+00 1.443E-10 0.000E+00
 ETOT 18  -50.634908194344      2.132E-14 1.141E-10 0.000E+00
 ETOT 19  -50.634908194344     -1.421E-14 1.223E-11 0.000E+00
 ETOT 20  -50.634908194344     -7.105E-15 9.686E-12 0.000E+00
 ETOT 21  -50.634908194344      0.000E+00 1.039E-12 0.000E+00
 ETOT 22  -50.634908194344     -7.105E-15 8.232E-13 0.000E+00
 ETOT 23  -50.634908194344      0.000E+00 8.829E-14 0.000E+00
 ETOT 24  -50.634908194344      0.000E+00 7.006E-14 0.000E+00
 ETOT 25  -50.634908194344      7.105E-15 7.515E-15 0.000E+00
 ETOT 26  -50.634908194344      0.000E+00 5.970E-15 0.000E+00
 ETOT 27  -50.634908194344      0.000E+00 6.403E-16 0.000E+00
 ETOT 28  -50.634908194344      0.000E+00 5.093E-16 0.000E+00
 ETOT 29  -50.634908194344     -1.421E-14 5.461E-17 0.000E+00
 ETOT 30  -50.634908194344     -7.105E-15 4.349E-17 0.000E+00
 ETOT 31  -50.634908194344      2.842E-14 4.662E-18 0.000E+00
 ETOT 32  -50.634908194344     -7.105E-15 3.717E-18 0.000E+00
 ETOT 33  -50.634908194344     -2.132E-14 3.983E-19 0.000E+00
 ETOT 34  -50.634908194344      1.421E-14 3.179E-19 0.000E+00
 ETOT 35  -50.634908194344      0.000E+00 3.405E-20 0.000E+00
 ETOT 36  -50.634908194344      1.421E-14 2.721E-20 0.000E+00
 ETOT 37  -50.634908194344     -2.132E-14 9.788E-21 0.000E+00

 At SCF step   37   max residual=  9.79E-21 < tolwfr=  1.00E-20 =>converged.

 ----iterations are completed or convergence reached----

 dfpt_looppert: DFPT cycle converged with prtwf=-1. Will skip output of the 1st-order WFK file.
 dfpt_looppert : ek2=    9.1326555018E+01
          f-sum rule ratio=    1.1230558108E+00
 prteigrs : about to open file /scratch/users/j/a/jabreu/flow_simple_remain_atoms/flow/w252/t1/tmpdata/tmp_1WF1_EIG
 Expectation of eigenvalue derivatives (hartree) for nkpt=   2  k points:
  (in case of degenerate eigenvalues, averaged derivative)
 kpt#   1, nband= 29, wtk=  0.50000, kpt=  0.0000  0.0000  0.0000 (reduced coord)
   0.00000   -0.00000   -0.00000    0.00000    0.00000   -0.00000   -0.00000    0.00000
  -0.00000   -0.00000   -0.00000   -0.00000   -0.00000    0.00000    0.00000    0.00000
   0.00000    0.00000    0.00000   -0.00000   -0.00000   -0.00000    0.00000   -0.00000
  -0.00000    0.00000    0.00000   -0.00000   -0.00000
 prteigrs : prtvol=0 or 1, do not print more k-points.

 Eight components of 2nd-order total energy (hartree) are
 1,2,3: 0th-order hamiltonian combined with 1st-order wavefunctions
     kin0=   4.88244256E+01 eigvalue=  -3.55120200E+00  local=  -2.42907632E+01
 4,5,6: 1st-order hamiltonian combined with 1st and 0th-order wfs
     kin1=  -1.02564818E+02  Hartree=   0.00000000E+00     xc=   0.00000000E+00
 7,8,9: eventually, occupation + non-local contributions
    edocc=   2.73097121E+01     enl0=   2.34273574E+00   enl1=   1.29500190E+00
 1-9 gives the relaxation energy (to be shifted if some occ is /=2.0)
   erelax=  -5.06349082E+01
  No Ewald or frozen-wf contrib.: the relaxation energy is the total one
 2DEtotal=   -0.5063490819E+02 Ha. Also 2DEtotal=   -0.137784592359E+04 eV
    (  non-var. 2DEtotal :   -5.0634908194E+01 Ha)

 Perturbation wavevector (in red.coord.)   0.000000  0.000000  0.000000
 Perturbation : derivative vs k along direction   2
 The set of symmetries contains only one element for this perturbation.
 symkpt : not enough symmetry to change the number of k points.

[...]

 Perturbation wavevector (in red.coord.)   0.000000  0.000000  0.000000
 Perturbation : derivative vs k along direction   3
 The set of symmetries contains only one element for this perturbation.
 symkpt : not enough symmetry to change the number of k points.

 Initialisation of the first-order wave-functions :
  ireadwf=   0

--- !BeginCycle
iteration_state: {dtset: 1, }
solver: {iscf: 7, nstep: 2000, nline: 4, wfoptalg: 0, }
tolerances: {tolwfr: 1.00E-20, }
...

     iter   2DEtotal(Ha)        deltaE(Ha) residm    vres2
-ETOT  1  -10.314031635443     -1.031E+01 9.494E-02 0.000E+00
 ETOT  2  -10.323516371080     -9.485E-03 5.048E-03 0.000E+00
 ETOT  3  -10.323599122689     -8.275E-05 1.246E-03 0.000E+00
 ETOT  4  -10.323600411503     -1.289E-06 2.326E-04 0.000E+00
 ETOT  5  -10.323600436568     -2.506E-08 1.053E-04 0.000E+00
 ETOT  6  -10.323600437084     -5.160E-10 1.748E-05 0.000E+00
 ETOT  7  -10.323600437095     -1.110E-11 8.581E-06 0.000E+00
 ETOT  8  -10.323600437095     -2.363E-13 1.482E-06 0.000E+00
 ETOT  9  -10.323600437095     -1.776E-15 7.386E-07 0.000E+00
 ETOT 10  -10.323600437095     -3.553E-15 1.253E-07 0.000E+00
 ETOT 11  -10.323600437095     -1.776E-15 6.667E-08 0.000E+00
 ETOT 12  -10.323600437095     -3.553E-15 1.111E-08 0.000E+00
 ETOT 13  -10.323600437095      7.105E-15 6.264E-09 0.000E+00
 ETOT 14  -10.323600437095      3.553E-15 1.034E-09 0.000E+00
 ETOT 15  -10.323600437095     -3.553E-15 6.010E-10 0.000E+00
 ETOT 16  -10.323600437095      3.553E-15 9.865E-11 0.000E+00
 ETOT 17  -10.323600437095     -1.776E-15 5.825E-11 0.000E+00
 ETOT 18  -10.323600437095     -1.776E-15 9.532E-12 0.000E+00
 ETOT 19  -10.323600437095     -1.776E-15 5.680E-12 0.000E+00
 ETOT 20  -10.323600437095     -1.776E-15 9.277E-13 0.000E+00
 ETOT 21  -10.323600437095      3.553E-15 5.561E-13 0.000E+00
 ETOT 22  -10.323600437095      1.776E-15 9.070E-14 0.000E+00
 ETOT 23  -10.323600437095     -1.776E-15 5.459E-14 0.000E+00
 ETOT 24  -10.323600437095      0.000E+00 8.894E-15 0.000E+00
 ETOT 25  -10.323600437095     -1.776E-15 5.369E-15 0.000E+00
 ETOT 26  -10.323600437095      5.329E-15 8.740E-16 0.000E+00
 ETOT 27  -10.323600437095     -3.553E-15 5.287E-16 0.000E+00
 ETOT 28  -10.323600437095      3.553E-15 8.601E-17 0.000E+00
 ETOT 29  -10.323600437095     -3.553E-15 5.211E-17 0.000E+00
 ETOT 30  -10.323600437095      3.553E-15 8.473E-18 0.000E+00
 ETOT 31  -10.323600437095      0.000E+00 5.140E-18 0.000E+00
 ETOT 32  -10.323600437095     -3.553E-15 8.354E-19 0.000E+00
 ETOT 33  -10.323600437095      0.000E+00 5.073E-19 0.000E+00
 ETOT 34  -10.323600437095      0.000E+00 8.241E-20 0.000E+00
 ETOT 35  -10.323600437095      0.000E+00 5.008E-20 0.000E+00
 ETOT 36  -10.323600437095      3.553E-15 9.632E-21 0.000E+00

 At SCF step   36   max residual=  9.63E-21 < tolwfr=  1.00E-20 =>converged.

 ----iterations are completed or convergence reached----

 dfpt_looppert: DFPT cycle converged with prtwf=-1. Will skip output of the 1st-order WFK file.
 dfpt_looppert : ek2=    2.1786579300E+01
          f-sum rule ratio=    9.5619326449E-01
 prteigrs : about to open file /scratch/users/j/a/jabreu/flow_simple_remain_atoms/flow/w252/t1/tmpdata/tmp_1WF1_EIG
 Expectation of eigenvalue derivatives (hartree) for nkpt=   2  k points:
  (in case of degenerate eigenvalues, averaged derivative)
 kpt#   1, nband= 29, wtk=  0.50000, kpt=  0.0000  0.0000  0.0000 (reduced coord)
   0.00000   -0.00000    0.00000    0.00000    0.00000    0.00000    0.00000    0.00000
   0.00000   -0.00000    0.00000    0.00000    0.00000   -0.00000    0.00000   -0.00000
  -0.00000    0.00000    0.00000    0.00000   -0.00000   -0.00000    0.00000    0.00000
   0.00000    0.00000    0.00000    0.00000    0.00000
 prteigrs : prtvol=0 or 1, do not print more k-points.

 Eight components of 2nd-order total energy (hartree) are
 1,2,3: 0th-order hamiltonian combined with 1st-order wavefunctions
     kin0=   1.07946081E+01 eigvalue=  -9.01854976E-01  local=  -5.01668304E+00
 4,5,6: 1st-order hamiltonian combined with 1st and 0th-order wfs
     kin1=  -2.08321804E+01  Hartree=   0.00000000E+00     xc=   0.00000000E+00
 7,8,9: eventually, occupation + non-local contributions
    edocc=   4.92115267E+00     enl0=   5.26377665E-01   enl1=   1.84979509E-01
 1-9 gives the relaxation energy (to be shifted if some occ is /=2.0)
   erelax=  -1.03236004E+01
  No Ewald or frozen-wf contrib.: the relaxation energy is the total one
 2DEtotal=   -0.1032360044E+02 Ha. Also 2DEtotal=   -0.280919454311E+03 eV
    (  non-var. 2DEtotal :   -1.0323600437E+01 Ha)

 CALCULATION OF EFFECTIVE MASSES
 NOTE : Additional infos (eff. mass eigenvalues, eigenvectors and, if degenerate, average mass) are available in stdout.

 K-point ( 0.000, 0.000, 0.000) | band =    20
 Effective mass tensor:
             -0.4369221993             -0.0000004071              0.0000000061
             -0.0000004071             -0.4369218845              0.0000000357
              0.0000000061              0.0000000357             -0.3677090166
 Effective mass tensor eigenvalues:
             -0.4369224784             -0.4369216055             -0.3677090166
 Angular average effective mass 1/(<1/m>)=  -0.4111268849
 Angular average effective mass for Frohlich model (<m**0.5>)**2=  -0.4119664668
 Effective masses along directions: (cart. coord. / red. coord. -> eff. mass)
    1:   1.000000  0.000000  0.000000 /   0.894427 -0.447214  0.000000 ->  -0.4369221993
    2:   0.000000  1.000000  0.000000 /   0.000000  1.000000  0.000000 ->  -0.4369218845
    3:   0.000000  0.000000  1.000000 /   0.000000  0.000000  1.000000 ->  -0.3677090166
    4:   0.577350  0.577350  0.577350 /   0.483488  0.176969  0.857276 ->  -0.4111270959
    5:   0.000000  0.707107  0.707107 /   0.000000  0.438872  0.898550 ->  -0.3993386334
    6:   0.707107  0.000000  0.707107 /   0.477062 -0.238531  0.845881 ->  -0.3993387943
    7:   0.707107  0.707107  0.000000 /   0.939071  0.343724  0.000000 ->  -0.4369224491

 K-point ( 0.333, 0.333, 0.000) | band =    21
 Effective mass tensor:
              0.3435379460              0.0000053029             -0.0000175906
              0.0000053029              0.3435456764             -0.0000190491
             -0.0000175906             -0.0000190491              0.7773529218
 Effective mass tensor eigenvalues:
              0.3435352490              0.3435483718              0.7773529234
 Angular average effective mass 1/(<1/m>)=   0.4220522484
 Angular average effective mass for Frohlich model (<m**0.5>)**2=   0.4380881307
 Effective masses along directions: (cart. coord. / red. coord. -> eff. mass)
    1:   1.000000  0.000000  0.000000 /   0.894427 -0.447214  0.000000 ->   0.3435379455
    2:   0.000000  1.000000  0.000000 /   0.000000  1.000000  0.000000 ->   0.3435456759
    3:   0.000000  0.000000  1.000000 /   0.000000  0.000000  1.000000 ->   0.7773529199
    4:   0.577350  0.577350  0.577350 /   0.483488  0.176969  0.857276 ->   0.4220412914
    5:   0.000000  0.707107  0.707107 /   0.000000  0.438872  0.898550 ->   0.4764876301
    6:   0.707107  0.000000  0.707107 /   0.477062 -0.238531  0.845881 ->   0.4764814342
    7:   0.707107  0.707107  0.000000 /   0.939071  0.343724  0.000000 ->   0.3435471132

 END OF EFFECTIVE MASSES SECTION

 ---- first-order wavefunction calculations are completed ----

 Total localisation tensor (bohr^2) in cartesian coordinates
  WARNING : still subject to testing - especially symmetries.
      direction              matrix element
   alpha     beta       real part   imaginary part
     1        1       2.9846959588    0.0000000000
     1        2      -1.0339769371    0.0000000000
     1        3       0.0000000000    0.0000000000
     2        1      -1.0339769371    0.0000000000
     2        2       1.7909005889    0.0000000000
     2        3       0.0000000000    0.0000000000
     3        1       0.0000000000    0.0000000000
     3        2       0.0000000000    0.0000000000
     3        3       0.9314235765    0.0000000000

 respfn : d/dk was computed, but no 2DTE, so no DDB output.

== END DATASET(S) ==============================================================

 -outvars: echo values of variables after computation  --------
            acell      1.0000000000E+00  1.0000000000E+00  1.0000000000E+00 Bohr
              amu      9.12240000E+01  3.20660000E+01  1.40067400E+01
             ecut      4.20000000E+01 Hartree
           etotal     -1.0323600437E+01
            fcart      0.0000000000E+00  0.0000000000E+00  0.0000000000E+00
                       0.0000000000E+00  0.0000000000E+00  0.0000000000E+00
                       0.0000000000E+00  0.0000000000E+00  0.0000000000E+00
                       0.0000000000E+00  0.0000000000E+00  0.0000000000E+00
                       0.0000000000E+00  0.0000000000E+00  0.0000000000E+00
-          fftalg         512
           irdden           1
           irdwfk           1
           istwfk        1    0
              ixc     -116133
              kpt      0.00000000E+00  0.00000000E+00  0.00000000E+00
                       3.33333333E-01  3.33333333E-01  0.00000000E+00
           kptopt           0
P           mkmem           2
P          mkqmem           2
P          mk1mem           2
            natom           5
            nband          29
           nbdbuf           4
            ngfft          40      40      72
             nkpt           2
            nstep        2000
             nsym          12
           ntypat           3
              occ      2.000000  2.000000  2.000000  2.000000  2.000000  2.000000
                       2.000000  2.000000  2.000000  2.000000  2.000000  2.000000
                       2.000000  2.000000  2.000000  2.000000  2.000000  2.000000
                       2.000000  2.000000  0.000000  0.000000  0.000000  0.000000
                       0.000000  0.000000  0.000000  0.000000  0.000000
        optdriver           1
            prtwf          -1
            rfdir           1       1       1
           rfelfd           2
            rprim      6.7904052290E+00  0.0000000000E+00  0.0000000000E+00
                      -3.3952026145E+00  5.8806634303E+00  0.0000000000E+00
                       0.0000000000E+00  0.0000000000E+00  1.2040106771E+01
          spgroup         164
           strten      0.0000000000E+00  0.0000000000E+00  0.0000000000E+00
                       0.0000000000E+00  0.0000000000E+00  0.0000000000E+00
           symrel      1  0  0   0  1  0   0  0  1      -1  0  0   0 -1  0   0  0 -1
                      -1  0  0   1  1  0   0  0  1       1  0  0  -1 -1  0   0  0 -1
                       0  1  0  -1 -1  0   0  0  1       0 -1  0   1  1  0   0  0 -1
                       0 -1  0  -1  0  0   0  0  1       0  1  0   1  0  0   0  0 -1
                      -1 -1  0   1  0  0   0  0  1       1  1  0  -1  0  0   0  0 -1
                       1  1  0   0 -1  0   0  0  1      -1 -1  0   0  1  0   0  0 -1
           tolwfr      1.00000000E-20
            typat      1  1  2  3  3
           useylm           1
              wtk        0.50000    0.50000
           xangst      1.7966638421E+00  1.0373043529E+00  1.8790003411E+00
                      -4.7000377687E-16  2.0746087058E+00  4.4923497511E+00
                       0.0000000000E+00  0.0000000000E+00  0.0000000000E+00
                      -4.7000377687E-16  2.0746087058E+00  2.3246953941E+00
                       1.7966638421E+00  1.0373043529E+00  4.0466546981E+00
            xcart      3.3952026145E+00  1.9602211434E+00  3.5507960482E+00
                      -8.8817841970E-16  3.9204422869E+00  8.4893107227E+00
                       0.0000000000E+00  0.0000000000E+00  0.0000000000E+00
                      -8.8817841970E-16  3.9204422869E+00  4.3930376372E+00
                       3.3952026145E+00  1.9602211434E+00  7.6470691337E+00
             xred      6.6666666667E-01  3.3333333333E-01  2.9491400000E-01
                       3.3333333333E-01  6.6666666667E-01  7.0508600000E-01
                       0.0000000000E+00  0.0000000000E+00  0.0000000000E+00
                       3.3333333333E-01  6.6666666667E-01  3.6486700000E-01
                       6.6666666667E-01  3.3333333333E-01  6.3513300000E-01
            znucl       40.00000   16.00000    7.00000

- Timing analysis has been suppressed with timopt=0

 Suggested references for the acknowledgment of ABINIT usage.

 Calculation completed.
.Delivered   2 WARNINGs and   5 COMMENTs to log file.