.Version 9.5.2 of ABINIT

 ABINIT is a project of the Universite Catholique de Louvain,
 Corning Inc. and other collaborators, see ~abinit/doc/developers/contributors.txt .
 acknowledgments of the ABINIT effort.

.Starting date : Mon 24 May 2021.
- ( at 22h49 )

- input  file    -> /scratch/users/j/a/jabreu/flow_simple_10atoms/flow/w443/t1/run.abi
- output file    -> /scratch/users/j/a/jabreu/flow_simple_10atoms/flow/w443/t1/run.abo
- root for input  files -> /scratch/users/j/a/jabreu/flow_simple_10atoms/flow/w443/t1/indata/in
- root for output files -> /scratch/users/j/a/jabreu/flow_simple_10atoms/flow/w443/t1/outdata/out

 Symmetries : space group Fm -3 m (#225); Bravais cF (face-center cubic)
     intxc =       0      iscf =       7    lmnmax =      32     lnmax =       8
     mgfft =      80  mpssoang =       4    mqgrid =    3045     natom =      10
  nloc_mem =       1    nspden =       1   nspinor =       1    nsppol =       1
      nsym =      48    n1xccc =    2501    ntypat =       4    occopt =       1
   xclevel =       2
-    mband =          51        mffmem =           1         mkmem =           2
-   mkqmem =           2        mk1mem =           2           mpw =       19266
      nfft =      512000          nkpt =           2
  Rough estimation (10% accuracy) of disk space for files :

------------- Echo of variables that govern the present computation ------------
-
- outvars: echo of selected default values
-   iomode0 =  0 , fftalg0 =512 , wfoptalg0 =  0
-
- outvars: echo of global parameters not present in the input file
-  max_nthreads =    0
-
 -outvars: echo values of preprocessed input variables --------
            acell      1.0000000000E+00  1.0000000000E+00  1.0000000000E+00 Bohr
              amu      1.32905430E+02  3.90983000E+01  2.08980370E+02
                       1.89984032E+01
             ecut      4.20000000E+01 Hartree
-          fftalg         512
           irdden           1
           irdwfk           1
           istwfk        1    0
              ixc     -116133
              kpt      5.00000000E-01  5.00000000E-01  5.00000000E-01
                       2.00000000E-01  0.00000000E+00  2.00000000E-01
           kptopt           0
P           mkmem           2
P          mkqmem           2
P          mk1mem           2
            natom          10
            nband          51
           nbdbuf           4
            ngfft          80      80      80
             nkpt           2
            nstep        2000
             nsym          48
           ntypat           4
              occ      2.000000  2.000000  2.000000  2.000000  2.000000  2.000000
                       2.000000  2.000000  2.000000  2.000000  2.000000  2.000000
                       2.000000  2.000000  2.000000  2.000000  2.000000  2.000000
                       2.000000  2.000000  2.000000  2.000000  2.000000  2.000000
                       2.000000  2.000000  2.000000  2.000000  2.000000  2.000000
                       2.000000  2.000000  2.000000  2.000000  2.000000  2.000000
                       2.000000  2.000000  2.000000  2.000000  2.000000  2.000000
                       0.000000  0.000000  0.000000  0.000000  0.000000  0.000000
                       0.000000  0.000000  0.000000
        optdriver           1
            prtwf          -1
            rfdir           1       1       1
           rfelfd           2
            rprim      1.1069058708E+01  0.0000000000E+00  6.3907240246E+00
                       3.6896862359E+00  1.0436008632E+01  6.3907240246E+00
                       0.0000000000E+00  0.0000000000E+00  1.2781448049E+01
          spgroup         225
           symrel      1  0  0   0  1  0   0  0  1      -1  0  0   0 -1  0   0  0 -1
                       0 -1  1   0 -1  0   1 -1  0       0  1 -1   0  1  0  -1  1  0
                      -1  0  0  -1  0  1  -1  1  0       1  0  0   1  0 -1   1 -1  0
                       0  1 -1   1  0 -1   0  0 -1       0 -1  1  -1  0  1   0  0  1
                      -1  0  0  -1  1  0  -1  0  1       1  0  0   1 -1  0   1  0 -1
                       0 -1  1   1 -1  0   0 -1  0       0  1 -1  -1  1  0   0  1  0
                       1  0  0   0  0  1   0  1  0      -1  0  0   0  0 -1   0 -1  0
                       0  1 -1   0  0 -1   1  0 -1       0 -1  1   0  0  1  -1  0  1
                      -1  0  1  -1  1  0  -1  0  0       1  0 -1   1 -1  0   1  0  0
                       0 -1  0   1 -1  0   0 -1  1       0  1  0  -1  1  0   0  1 -1
                       1  0 -1   0  0 -1   0  1 -1      -1  0  1   0  0  1   0 -1  1
                       0  1  0   0  0  1   1  0  0       0 -1  0   0  0 -1  -1  0  0
                       1  0 -1   0  1 -1   0  0 -1      -1  0  1   0 -1  1   0  0  1
                       0 -1  0   0 -1  1   1 -1  0       0  1  0   0  1 -1  -1  1  0
                      -1  0  1  -1  0  0  -1  1  0       1  0 -1   1  0  0   1 -1  0
                       0  1  0   1  0  0   0  0  1       0 -1  0  -1  0  0   0  0 -1
                       0  0 -1   0  1 -1   1  0 -1       0  0  1   0 -1  1  -1  0  1
                       1 -1  0   0 -1  1   0 -1  0      -1  1  0   0  1 -1   0  1  0
                       0  0  1   1  0  0   0  1  0       0  0 -1  -1  0  0   0 -1  0
                      -1  1  0  -1  0  0  -1  0  1       1 -1  0   1  0  0   1  0 -1
                       0  0  1   0  1  0   1  0  0       0  0 -1   0 -1  0  -1  0  0
                       1 -1  0   0 -1  0   0 -1  1      -1  1  0   0  1  0   0  1 -1
                       0  0 -1   1  0 -1   0  1 -1       0  0  1  -1  0  1   0 -1  1
                      -1  1  0  -1  0  1  -1  0  0       1 -1  0   1  0 -1   1  0  0
           tolwfr      1.00000000E-20
            typat      1  1  2  3  4  4  4  4  4  4
           useylm           1
              wtk        0.50000    0.50000
           xangst      5.8574935887E+00  4.1418734373E+00  1.0145476501E+01
                       1.9524978629E+00  1.3806244791E+00  3.3818255002E+00
                       3.9049957258E+00  2.7612489582E+00  6.7636510004E+00
                       0.0000000000E+00  0.0000000000E+00  0.0000000000E+00
                       1.8414554044E+00  1.3021056037E+00  6.7636510004E+00
                       4.9367658865E+00  1.3021056037E+00  4.9765726604E+00
                       2.8732255651E+00  4.2203923127E+00  8.5507293404E+00
                       5.9685360472E+00  4.2203923127E+00  6.7636510004E+00
                       2.8732255651E+00  4.2203923127E+00  4.9765726604E+00
                       4.9367658865E+00  1.3021056037E+00  8.5507293404E+00
            xcart      1.1069058708E+01  7.8270064736E+00  1.9172172074E+01
                       3.6896862359E+00  2.6090021579E+00  6.3907240246E+00
                       7.3793724719E+00  5.2180043157E+00  1.2781448049E+01
                       0.0000000000E+00  0.0000000000E+00  0.0000000000E+00
                       3.4798464003E+00  2.4606229872E+00  1.2781448049E+01
                       9.3291355076E+00  2.4606229872E+00  9.4043594085E+00
                       5.4296094361E+00  7.9753856443E+00  1.6158536690E+01
                       1.1278898543E+01  7.9753856443E+00  1.2781448049E+01
                       5.4296094361E+00  7.9753856443E+00  9.4043594085E+00
                       9.3291355076E+00  2.4606229872E+00  1.6158536690E+01
             xred      7.5000000000E-01  7.5000000000E-01  7.5000000000E-01
                       2.5000000000E-01  2.5000000000E-01  2.5000000000E-01
                       5.0000000000E-01  5.0000000000E-01  5.0000000000E-01
                       0.0000000000E+00  0.0000000000E+00  0.0000000000E+00
                       2.3578200000E-01  2.3578200000E-01  7.6421800000E-01
                       7.6421800000E-01  2.3578200000E-01  2.3578200000E-01
                       2.3578200000E-01  7.6421800000E-01  7.6421800000E-01
                       7.6421800000E-01  7.6421800000E-01  2.3578200000E-01
                       2.3578200000E-01  7.6421800000E-01  2.3578200000E-01
                       7.6421800000E-01  2.3578200000E-01  7.6421800000E-01
            znucl       55.00000   19.00000   83.00000    9.00000

 chkinp: Checking input parameters for consistency.

== DATASET  1 ==================================================================
-   mpi_nproc: 1, omp_nthreads: -1 (-1 if OMP is not activated)

--- !DatasetInfo
iteration_state: {dtset: 1, }
dimensions: {natom: 10, nkpt: 2, mband: 51, nsppol: 1, nspinor: 1, nspden: 1, mpw: 19266, }
cutoff_energies: {ecut:  42.0, pawecutdg:  -1.0, }
electrons: {nelect:   8.40000000E+01, charge:   0.00000000E+00, occopt:   1.00000000E+00, tsmear:   1.00000000E-02, }
meta: {optdriver: 1, rfelfd: 2, }
...

 Real(R)+Recip(G) space primitive vectors, cartesian coordinates (Bohr,Bohr^-1):
 R(1)= 11.0690587  0.0000000  6.3907240  G(1)=  0.0903419 -0.0319407  0.0000000
 R(2)=  3.6896862 10.4360086  6.3907240  G(2)=  0.0000000  0.0958221  0.0000000
 R(3)=  0.0000000  0.0000000 12.7814480  G(3)= -0.0451710 -0.0319407  0.0782384
 Unit cell volume ucvol=  1.4764719E+03 bohr^3
 Angles (23,13,12)=  6.00000000E+01  6.00000000E+01  6.00000000E+01 degrees

 getcut: wavevector=  0.0000  0.0000  0.0000  ngfft=  80  80  80
         ecut(hartree)=     42.000   => boxcut(ratio)=   2.14546

--- Pseudopotential description ------------------------------------------------
- pspini: atom type   1  psp file is /scratch/users/j/a/jabreu/pseudos/PBEsol/Cs.psp8
- pspatm: opening atomic psp file    /scratch/users/j/a/jabreu/pseudos/PBEsol/Cs.psp8
- Cs    ONCVPSP-3.3.0  r_core=   2.27353   1.85623   2.01788   1.90105
- 55.00000   9.00000    180112                znucl, zion, pspdat
    8 -116133    3    4       600   0.00000   pspcod,pspxc,lmax,lloc,mmax,r2well
    5.99000000000000    5.00000000000000    0.00000000000000   rchrg,fchrg,qchrg
     nproj     2     2     2     2
     extension_switch     1
  pspatm : epsatm=   22.12462445
         --- l  ekb(1:nproj) -->
             0    6.214110    0.767882
             1    6.311966    0.793598
             2    3.769790    0.913105
             3   -9.247129   -2.432478
 pspatm: atomic psp has been read  and splines computed

- pspini: atom type   2  psp file is /scratch/users/j/a/jabreu/pseudos/PBEsol/K.psp8
- pspatm: opening atomic psp file    /scratch/users/j/a/jabreu/pseudos/PBEsol/K.psp8
- K     ONCVPSP-3.3.0  r_core=   1.36296   1.46408   1.61068
- 19.00000   9.00000    180112                znucl, zion, pspdat
    8 -116133    2    4       400   0.00000   pspcod,pspxc,lmax,lloc,mmax,r2well
    3.99000000000000    5.00000000000000    0.00000000000000   rchrg,fchrg,qchrg
     nproj     2     2     2
     extension_switch     1
  pspatm : epsatm=    8.32487830
         --- l  ekb(1:nproj) -->
             0   10.921326    0.816676
             1    4.431000    0.560368
             2   -3.384038   -1.043186
 pspatm: atomic psp has been read  and splines computed

[...]

- pspini: atom type   4  psp file is /scratch/users/j/a/jabreu/pseudos/PBEsol/F.psp8
- pspatm: opening atomic psp file    /scratch/users/j/a/jabreu/pseudos/PBEsol/F.psp8
[...]
 7,8,9: eventually, occupation + non-local contributions
    edocc=   6.23015413E+00     enl0=   3.95154986E+00   enl1=  -1.68686923E+01
 1-9 gives the relaxation energy (to be shifted if some occ is /=2.0)
   erelax=  -3.94942160E+01
  No Ewald or frozen-wf contrib.: the relaxation energy is the total one
 2DEtotal=   -0.3949421603E+02 Ha. Also 2DEtotal=   -0.107469227275E+04 eV
    (  non-var. 2DEtotal :   -3.9494216034E+01 Ha)

 Perturbation wavevector (in red.coord.)   0.000000  0.000000  0.000000
 Perturbation : derivative vs k along direction   2
 The set of symmetries contains only one element for this perturbation.
 symkpt : not enough symmetry to change the number of k points.

[...]

 Perturbation wavevector (in red.coord.)   0.000000  0.000000  0.000000
 Perturbation : derivative vs k along direction   3
 The set of symmetries contains only one element for this perturbation.
 symkpt : not enough symmetry to change the number of k points.

 Initialisation of the first-order wave-functions :
  ireadwf=   0

--- !BeginCycle
iteration_state: {dtset: 1, }
solver: {iscf: 7, nstep: 2000, nline: 4, wfoptalg: 0, }
tolerances: {tolwfr: 1.00E-20, }
...

     iter   2DEtotal(Ha)        deltaE(Ha) residm    vres2
-ETOT  1  -39.439297182655     -3.944E+01 6.582E-02 0.000E+00
 ETOT  2  -39.493539114790     -5.424E-02 4.821E-03 0.000E+00
 ETOT  3  -39.494151444092     -6.123E-04 4.821E-04 0.000E+00
 ETOT  4  -39.494176351131     -2.491E-05 8.671E-05 0.000E+00
 ETOT  5  -39.494177923916     -1.573E-06 1.787E-05 0.000E+00
 ETOT  6  -39.494178039785     -1.159E-07 5.088E-06 0.000E+00
 ETOT  7  -39.494178049014     -9.229E-09 1.422E-06 0.000E+00
 ETOT  8  -39.494178049792     -7.781E-10 4.219E-07 0.000E+00
 ETOT  9  -39.494178049861     -6.826E-11 1.060E-07 0.000E+00
 ETOT 10  -39.494178049867     -6.231E-12 3.339E-08 0.000E+00
 ETOT 11  -39.494178049867     -5.400E-13 8.178E-09 0.000E+00
 ETOT 12  -39.494178049868     -7.105E-14 2.697E-09 0.000E+00
 ETOT 13  -39.494178049868      0.000E+00 6.519E-10 0.000E+00
 ETOT 14  -39.494178049868      2.132E-14 2.224E-10 0.000E+00
 ETOT 15  -39.494178049868     -7.105E-15 5.297E-11 0.000E+00
 ETOT 16  -39.494178049867      3.553E-14 1.873E-11 0.000E+00
 ETOT 17  -39.494178049868     -2.132E-14 4.356E-12 0.000E+00
 ETOT 18  -39.494178049867      2.132E-14 1.606E-12 0.000E+00
 ETOT 19  -39.494178049868     -7.105E-15 3.619E-13 0.000E+00
 ETOT 20  -39.494178049868      0.000E+00 1.393E-13 0.000E+00
 ETOT 21  -39.494178049867      7.105E-15 3.039E-14 0.000E+00
 ETOT 22  -39.494178049868     -7.105E-15 1.217E-14 0.000E+00
 ETOT 23  -39.494178049868      0.000E+00 2.578E-15 0.000E+00
 ETOT 24  -39.494178049868      0.000E+00 1.067E-15 0.000E+00
 ETOT 25  -39.494178049868      0.000E+00 2.204E-16 0.000E+00
 ETOT 26  -39.494178049868     -1.421E-14 9.375E-17 0.000E+00
 ETOT 27  -39.494178049867      2.132E-14 1.896E-17 0.000E+00
 ETOT 28  -39.494178049867      0.000E+00 8.238E-18 0.000E+00
 ETOT 29  -39.494178049868     -1.421E-14 1.638E-18 0.000E+00
 ETOT 30  -39.494178049868      7.105E-15 7.240E-19 0.000E+00
 ETOT 31  -39.494178049868      0.000E+00 1.421E-19 0.000E+00
 ETOT 32  -39.494178049868     -7.105E-15 6.362E-20 0.000E+00
 ETOT 33  -39.494178049868      7.105E-15 1.235E-20 0.000E+00
 ETOT 34  -39.494178049868      0.000E+00 9.887E-21 0.000E+00

 At SCF step   34   max residual=  9.89E-21 < tolwfr=  1.00E-20 =>converged.

 ----iterations are completed or convergence reached----

 dfpt_looppert: DFPT cycle converged with prtwf=-1. Will skip output of the 1st-order WFK file.
 dfpt_looppert : ek2=    6.0897597468E+01
          f-sum rule ratio=    1.0200678018E+00
 prteigrs : about to open file /scratch/users/j/a/jabreu/flow_simple_10atoms/flow/w443/t1/tmpdata/tmp_1WF1_EIG
 Expectation of eigenvalue derivatives (hartree) for nkpt=   2  k points:
  (in case of degenerate eigenvalues, averaged derivative)
 kpt#   1, nband= 51, wtk=  0.50000, kpt=  0.5000  0.5000  0.5000 (reduced coord)
   0.00000    0.00000    0.00000   -0.00000    0.00000    0.00000    0.00000    0.00000
  -0.00000   -0.00000    0.00000    0.00000   -0.00000   -0.00000    0.00000   -0.00000
  -0.00000    0.00000   -0.00000   -0.00000    0.00000    0.00000   -0.00000    0.00000
  -0.00000   -0.00000   -0.00000    0.00000   -0.00000   -0.00000   -0.00000    0.00000
   0.00000   -0.00000   -0.00000   -0.00000   -0.00000    0.00000   -0.00000   -0.00000
  -0.00000   -0.00000   -0.00000   -0.00000   -0.00000   -0.00000   -0.00000   -0.00000
   0.00000   -0.00000   -0.00000
 prteigrs : prtvol=0 or 1, do not print more k-points.

 Eight components of 2nd-order total energy (hartree) are
 1,2,3: 0th-order hamiltonian combined with 1st-order wavefunctions
     kin0=   4.96300339E+01 eigvalue=   4.94337812E+00  local=  -2.52607383E+01
 4,5,6: 1st-order hamiltonian combined with 1st and 0th-order wfs
     kin1=  -6.21196784E+01  Hartree=   0.00000000E+00     xc=   0.00000000E+00
 7,8,9: eventually, occupation + non-local contributions
    edocc=   6.22984879E+00     enl0=   3.95165546E+00   enl1=  -1.68686777E+01
 1-9 gives the relaxation energy (to be shifted if some occ is /=2.0)
   erelax=  -3.94941780E+01
  No Ewald or frozen-wf contrib.: the relaxation energy is the total one
 2DEtotal=   -0.3949417805E+02 Ha. Also 2DEtotal=   -0.107469123915E+04 eV
    (  non-var. 2DEtotal :   -3.9494178050E+01 Ha)

 CALCULATION OF EFFECTIVE MASSES
 NOTE : Additional infos (eff. mass eigenvalues, eigenvectors and, if degenerate, average mass) are available in stdout.

 K-point ( 0.500, 0.500, 0.500) | band =    42
 Effective mass tensor:
             -2.4409928561              0.2309188455              0.5656333438
              0.2309188455             -2.6042771454              0.3999631688
              0.5656333438              0.3999631688             -1.7878557448
 Effective mass tensor eigenvalues:
             -2.7675614251             -2.7675614232             -1.2980028979
 Angular average effective mass 1/(<1/m>)=  -2.0092799818
 Angular average effective mass for Frohlich model (<m**0.5>)**2=  -2.0957897070
 Effective masses along directions: (cart. coord. / red. coord. -> eff. mass)
    1:   1.000000  0.000000  0.000000 /   0.948683  0.316228  0.000000 ->  -2.2112309768
    2:   0.000000  1.000000  0.000000 /   0.000000  1.000000  0.000000 ->  -2.4583140158
    3:   0.000000  0.000000  1.000000 /   0.408248  0.408248  0.816497 ->  -1.5771564390
    4:   0.577350  0.577350  0.577350 /   0.585539  0.688047  0.428644 ->  -1.3893859569
    5:   0.000000  0.707107  0.707107 /   0.289489  0.762222  0.578977 ->  -1.5828880409
    6:   0.707107  0.000000  0.707107 /   0.731423  0.422287  0.535439 ->  -1.4273445508
    7:   0.707107  0.707107  0.000000 /   0.616798  0.787122  0.000000 ->  -2.0251466928

 K-point ( 0.200, 0.000, 0.200) | band =    43
 Effective mass tensor:
              1.4817556028              0.1803874419             -0.2209303168
              0.1803874419              1.3540875262              0.3124999014
             -0.2209303168              0.3124999014              1.2266747866
 Effective mass tensor eigenvalues:
              0.8439144263              1.6092671141              1.6093363752
 Angular average effective mass 1/(<1/m>)=   1.2357226244
 Angular average effective mass for Frohlich model (<m**0.5>)**2=   1.2737830687
 Effective masses along directions: (cart. coord. / red. coord. -> eff. mass)
    1:   1.000000  0.000000  0.000000 /   0.948683  0.316228  0.000000 ->   1.3980152977
    2:   0.000000  1.000000  0.000000 /   0.000000  1.000000  0.000000 ->   1.2356322524
    3:   0.000000  0.000000  1.000000 /   0.408248  0.408248  0.816497 ->   1.1072636818
    4:   0.577350  0.577350  0.577350 /   0.585539  0.688047  0.428644 ->   1.4798655716
    5:   0.000000  0.707107  0.707107 /   0.289489  0.762222  0.578977 ->   1.5971417813
    6:   0.707107  0.000000  0.707107 /   0.731423  0.422287  0.535439 ->   1.0289317054
    7:   0.707107  0.707107  0.000000 /   0.616798  0.787122  0.000000 ->   1.5886382408

 END OF EFFECTIVE MASSES SECTION

 ---- first-order wavefunction calculations are completed ----

 Total localisation tensor (bohr^2) in cartesian coordinates
  WARNING : still subject to testing - especially symmetries.
      direction              matrix element
   alpha     beta       real part   imaginary part
     1        1       0.8514901106    0.0000000000
     1        2       0.2408367835    0.0000000000
     1        3       0.5899292497    0.0000000000
     2        1       0.2408367835    0.0000000000
     2        2       0.6811892911    0.0000000000
     2        3       0.4171415454    0.0000000000
     3        1       0.5899292497    0.0000000000
     3        2       0.4171415454    0.0000000000
     3        3       1.5326788063    0.0000000000

 respfn : d/dk was computed, but no 2DTE, so no DDB output.

== END DATASET(S) ==============================================================

 -outvars: echo values of variables after computation  --------
            acell      1.0000000000E+00  1.0000000000E+00  1.0000000000E+00 Bohr
              amu      1.32905430E+02  3.90983000E+01  2.08980370E+02
                       1.89984032E+01
             ecut      4.20000000E+01 Hartree
           etotal     -3.9494178050E+01
            fcart      0.0000000000E+00  0.0000000000E+00  0.0000000000E+00
                       0.0000000000E+00  0.0000000000E+00  0.0000000000E+00
                       0.0000000000E+00  0.0000000000E+00  0.0000000000E+00
                       0.0000000000E+00  0.0000000000E+00  0.0000000000E+00
                       0.0000000000E+00  0.0000000000E+00  0.0000000000E+00
                       0.0000000000E+00  0.0000000000E+00  0.0000000000E+00
                       0.0000000000E+00  0.0000000000E+00  0.0000000000E+00
                       0.0000000000E+00  0.0000000000E+00  0.0000000000E+00
                       0.0000000000E+00  0.0000000000E+00  0.0000000000E+00
                       0.0000000000E+00  0.0000000000E+00  0.0000000000E+00
-          fftalg         512
           irdden           1
           irdwfk           1
           istwfk        1    0
              ixc     -116133
              kpt      5.00000000E-01  5.00000000E-01  5.00000000E-01
                       2.00000000E-01  0.00000000E+00  2.00000000E-01
           kptopt           0
P           mkmem           2
P          mkqmem           2
P          mk1mem           2
            natom          10
            nband          51
           nbdbuf           4
            ngfft          80      80      80
             nkpt           2
            nstep        2000
             nsym          48
           ntypat           4
              occ      2.000000  2.000000  2.000000  2.000000  2.000000  2.000000
                       2.000000  2.000000  2.000000  2.000000  2.000000  2.000000
                       2.000000  2.000000  2.000000  2.000000  2.000000  2.000000
                       2.000000  2.000000  2.000000  2.000000  2.000000  2.000000
                       2.000000  2.000000  2.000000  2.000000  2.000000  2.000000
                       2.000000  2.000000  2.000000  2.000000  2.000000  2.000000
                       2.000000  2.000000  2.000000  2.000000  2.000000  2.000000
                       0.000000  0.000000  0.000000  0.000000  0.000000  0.000000
                       0.000000  0.000000  0.000000
        optdriver           1
            prtwf          -1
            rfdir           1       1       1
           rfelfd           2
            rprim      1.1069058708E+01  0.0000000000E+00  6.3907240246E+00
                       3.6896862359E+00  1.0436008632E+01  6.3907240246E+00
                       0.0000000000E+00  0.0000000000E+00  1.2781448049E+01
          spgroup         225
           strten      0.0000000000E+00  0.0000000000E+00  0.0000000000E+00
                       0.0000000000E+00  0.0000000000E+00  0.0000000000E+00
           symrel      1  0  0   0  1  0   0  0  1      -1  0  0   0 -1  0   0  0 -1
                       0 -1  1   0 -1  0   1 -1  0       0  1 -1   0  1  0  -1  1  0
                      -1  0  0  -1  0  1  -1  1  0       1  0  0   1  0 -1   1 -1  0
                       0  1 -1   1  0 -1   0  0 -1       0 -1  1  -1  0  1   0  0  1
                      -1  0  0  -1  1  0  -1  0  1       1  0  0   1 -1  0   1  0 -1
                       0 -1  1   1 -1  0   0 -1  0       0  1 -1  -1  1  0   0  1  0
                       1  0  0   0  0  1   0  1  0      -1  0  0   0  0 -1   0 -1  0
                       0  1 -1   0  0 -1   1  0 -1       0 -1  1   0  0  1  -1  0  1
                      -1  0  1  -1  1  0  -1  0  0       1  0 -1   1 -1  0   1  0  0
                       0 -1  0   1 -1  0   0 -1  1       0  1  0  -1  1  0   0  1 -1
                       1  0 -1   0  0 -1   0  1 -1      -1  0  1   0  0  1   0 -1  1
                       0  1  0   0  0  1   1  0  0       0 -1  0   0  0 -1  -1  0  0
                       1  0 -1   0  1 -1   0  0 -1      -1  0  1   0 -1  1   0  0  1
                       0 -1  0   0 -1  1   1 -1  0       0  1  0   0  1 -1  -1  1  0
                      -1  0  1  -1  0  0  -1  1  0       1  0 -1   1  0  0   1 -1  0
                       0  1  0   1  0  0   0  0  1       0 -1  0  -1  0  0   0  0 -1
                       0  0 -1   0  1 -1   1  0 -1       0  0  1   0 -1  1  -1  0  1
                       1 -1  0   0 -1  1   0 -1  0      -1  1  0   0  1 -1   0  1  0
                       0  0  1   1  0  0   0  1  0       0  0 -1  -1  0  0   0 -1  0
                      -1  1  0  -1  0  0  -1  0  1       1 -1  0   1  0  0   1  0 -1
                       0  0  1   0  1  0   1  0  0       0  0 -1   0 -1  0  -1  0  0
                       1 -1  0   0 -1  0   0 -1  1      -1  1  0   0  1  0   0  1 -1
                       0  0 -1   1  0 -1   0  1 -1       0  0  1  -1  0  1   0 -1  1
                      -1  1  0  -1  0  1  -1  0  0       1 -1  0   1  0 -1   1  0  0
           tolwfr      1.00000000E-20
            typat      1  1  2  3  4  4  4  4  4  4
           useylm           1
              wtk        0.50000    0.50000
           xangst      5.8574935887E+00  4.1418734373E+00  1.0145476501E+01
                       1.9524978629E+00  1.3806244791E+00  3.3818255002E+00
                       3.9049957258E+00  2.7612489582E+00  6.7636510004E+00
                       0.0000000000E+00  0.0000000000E+00  0.0000000000E+00
                       1.8414554044E+00  1.3021056037E+00  6.7636510004E+00
                       4.9367658865E+00  1.3021056037E+00  4.9765726604E+00
                       2.8732255651E+00  4.2203923127E+00  8.5507293404E+00
                       5.9685360472E+00  4.2203923127E+00  6.7636510004E+00
                       2.8732255651E+00  4.2203923127E+00  4.9765726604E+00
                       4.9367658865E+00  1.3021056037E+00  8.5507293404E+00
            xcart      1.1069058708E+01  7.8270064736E+00  1.9172172074E+01
                       3.6896862359E+00  2.6090021579E+00  6.3907240246E+00
                       7.3793724719E+00  5.2180043157E+00  1.2781448049E+01
                       0.0000000000E+00  0.0000000000E+00  0.0000000000E+00
                       3.4798464003E+00  2.4606229872E+00  1.2781448049E+01
                       9.3291355076E+00  2.4606229872E+00  9.4043594085E+00
                       5.4296094361E+00  7.9753856443E+00  1.6158536690E+01
                       1.1278898543E+01  7.9753856443E+00  1.2781448049E+01
                       5.4296094361E+00  7.9753856443E+00  9.4043594085E+00
                       9.3291355076E+00  2.4606229872E+00  1.6158536690E+01
             xred      7.5000000000E-01  7.5000000000E-01  7.5000000000E-01
                       2.5000000000E-01  2.5000000000E-01  2.5000000000E-01
                       5.0000000000E-01  5.0000000000E-01  5.0000000000E-01
                       0.0000000000E+00  0.0000000000E+00  0.0000000000E+00
                       2.3578200000E-01  2.3578200000E-01  7.6421800000E-01
                       7.6421800000E-01  2.3578200000E-01  2.3578200000E-01
                       2.3578200000E-01  7.6421800000E-01  7.6421800000E-01
                       7.6421800000E-01  7.6421800000E-01  2.3578200000E-01
                       2.3578200000E-01  7.6421800000E-01  2.3578200000E-01
                       7.6421800000E-01  2.3578200000E-01  7.6421800000E-01
            znucl       55.00000   19.00000   83.00000    9.00000

- Timing analysis has been suppressed with timopt=0

 Suggested references for the acknowledgment of ABINIT usage.

 Calculation completed.
.Delivered   2 WARNINGs and   5 COMMENTs to log file.