.Version 9.5.1 of ABINIT

 ABINIT is a project of the Universite Catholique de Louvain,
 Corning Inc. and other collaborators, see ~abinit/doc/developers/contributors.txt .
 acknowledgments of the ABINIT effort.

.Starting date : Mon 26 Apr 2021.
- ( at 00h48 )

- input  file    -> /scratch/users/j/a/jabreu/flow_simple/flow/w111/t1/run.abi
- output file    -> /scratch/users/j/a/jabreu/flow_simple/flow/w111/t1/run.abo
- root for input  files -> /scratch/users/j/a/jabreu/flow_simple/flow/w111/t1/indata/in
- root for output files -> /scratch/users/j/a/jabreu/flow_simple/flow/w111/t1/outdata/out

 Symmetries : space group F-4 3 m (#216); Bravais cF (face-center cubic)
     intxc =       0      iscf =       7    lmnmax =      18     lnmax =       6
     mgfft =      54  mpssoang =       3    mqgrid =    3001     natom =       3
  nloc_mem =       1    nspden =       1   nspinor =       1    nsppol =       1
      nsym =      24    n1xccc =    2501    ntypat =       3    occopt =       1
   xclevel =       2
-    mband =          23        mffmem =           1         mkmem =           1
-   mkqmem =           1        mk1mem =           1           mpw =        6735
      nfft =      157464          nkpt =           1
  Rough estimation (10% accuracy) of disk space for files :

------------- Echo of variables that govern the present computation ------------
-
- outvars: echo of selected default values
-   iomode0 =  0 , fftalg0 =512 , wfoptalg0 =  0
-
- outvars: echo of global parameters not present in the input file
-  max_nthreads =    0
-
 -outvars: echo values of preprocessed input variables --------
            acell      1.0000000000E+00  1.0000000000E+00  1.0000000000E+00 Bohr
              amu      6.94100000E+00  2.43050000E+01  2.08980370E+02
             ecut      4.20000000E+01 Hartree
-          fftalg         512
           irdden           1
           irdwfk           1
           istwfk        1
              ixc     -116133
           kptopt           0
P           mkmem           1
P          mkqmem           1
P          mk1mem           1
            natom           3
            nband          23
           nbdbuf           4
            ngfft          54      54      54
             nkpt           1
            nstep         100
             nsym          24
           ntypat           3
              occ      2.000000  2.000000  2.000000  2.000000  2.000000  2.000000
                       2.000000  2.000000  2.000000  2.000000  2.000000  2.000000
                       2.000000  2.000000  0.000000  0.000000  0.000000  0.000000
                       0.000000  0.000000  0.000000  0.000000  0.000000
        optdriver           1
            prtwf          -1
            rfdir           1       1       1
           rfelfd           2
            rprim      7.8178679592E+00  0.0000000000E+00  4.5136481708E+00
                       2.6059559864E+00  7.3707565979E+00  4.5136481708E+00
                       0.0000000000E+00  0.0000000000E+00  9.0272963415E+00
          spgroup         216
           symrel      1  0  0   0  1  0   0  0  1       0 -1  1   0 -1  0   1 -1  0
                      -1  0  0  -1  0  1  -1  1  0       0  1 -1   1  0 -1   0  0 -1
                      -1  0  0  -1  1  0  -1  0  1       0 -1  1   1 -1  0   0 -1  0
                       1  0  0   0  0  1   0  1  0       0  1 -1   0  0 -1   1  0 -1
                      -1  0  1  -1  1  0  -1  0  0       0 -1  0   1 -1  0   0 -1  1
                       1  0 -1   0  0 -1   0  1 -1       0  1  0   0  0  1   1  0  0
                       1  0 -1   0  1 -1   0  0 -1       0 -1  0   0 -1  1   1 -1  0
                      -1  0  1  -1  0  0  -1  1  0       0  1  0   1  0  0   0  0  1
                       0  0 -1   0  1 -1   1  0 -1       1 -1  0   0 -1  1   0 -1  0
                       0  0  1   1  0  0   0  1  0      -1  1  0  -1  0  0  -1  0  1
                       0  0  1   0  1  0   1  0  0       1 -1  0   0 -1  0   0 -1  1
                       0  0 -1   1  0 -1   0  1 -1      -1  1  0  -1  0  1  -1  0  0
           tolwfr      1.00000000E-20
            typat      1  2  3
           useylm           1
           xangst      0.0000000000E+00  0.0000000000E+00  0.0000000000E+00
                       2.7580250292E+00  1.9502182008E+00  4.7770394791E+00
                       1.3790125146E+00  9.7510910042E-01  2.3885197396E+00
            xcart      0.0000000000E+00  0.0000000000E+00  0.0000000000E+00
                       5.2119119728E+00  3.6853782990E+00  9.0272963415E+00
                       2.6059559864E+00  1.8426891495E+00  4.5136481708E+00
             xred      0.0000000000E+00  0.0000000000E+00  0.0000000000E+00
                       5.0000000000E-01  5.0000000000E-01  5.0000000000E-01
                       2.5000000000E-01  2.5000000000E-01  2.5000000000E-01
            znucl        3.00000   12.00000   83.00000

 chkinp: Checking input parameters for consistency.

== DATASET  1 ==================================================================
-   mpi_nproc: 1, omp_nthreads: -1 (-1 if OMP is not activated)

--- !DatasetInfo
iteration_state: {dtset: 1, }
dimensions: {natom: 3, nkpt: 1, mband: 23, nsppol: 1, nspinor: 1, nspden: 1, mpw: 6735, }
cutoff_energies: {ecut:  42.0, pawecutdg:  -1.0, }
electrons: {nelect:   2.80000000E+01, charge:   0.00000000E+00, occopt:   1.00000000E+00, tsmear:   1.00000000E-02, }
meta: {optdriver: 1, rfelfd: 2, }
...

 Real(R)+Recip(G) space primitive vectors, cartesian coordinates (Bohr,Bohr^-1):
 R(1)=  7.8178680  0.0000000  4.5136482  G(1)=  0.1279121 -0.0452238  0.0000000
 R(2)=  2.6059560  7.3707566  4.5136482  G(2)=  0.0000000  0.1356713  0.0000000
 R(3)=  0.0000000  0.0000000  9.0272963  G(3)= -0.0639561 -0.0452238  0.1107751
 Unit cell volume ucvol=  5.2018533E+02 bohr^3
 Angles (23,13,12)=  6.00000000E+01  6.00000000E+01  6.00000000E+01 degrees

 getcut: wavevector=  0.0000  0.0000  0.0000  ngfft=  54  54  54
         ecut(hartree)=     42.000   => boxcut(ratio)=   2.05114

--- Pseudopotential description ------------------------------------------------
- pspini: atom type   1  psp file is /scratch/users/j/a/jabreu/pseudos/PBEsol/Li.psp8
- pspatm: opening atomic psp file    /scratch/users/j/a/jabreu/pseudos/PBEsol/Li.psp8
- Li    ONCVPSP-3.3.0  r_core=   1.40824   1.10935
-  3.00000   3.00000    180112                znucl, zion, pspdat
    8 -116133    1    4       400   0.00000   pspcod,pspxc,lmax,lloc,mmax,r2well
    3.99000000000000    0.00000000000000    0.00000000000000   rchrg,fchrg,qchrg
     nproj     2     2
     extension_switch     1
  pspatm : epsatm=    2.60859637
         --- l  ekb(1:nproj) -->
             0   -4.855856   -1.482423
             1   -2.171544   -0.427615
 pspatm: atomic psp has been read  and splines computed

- pspini: atom type   2  psp file is /scratch/users/j/a/jabreu/pseudos/PBEsol/Mg.psp8
- pspatm: opening atomic psp file    /scratch/users/j/a/jabreu/pseudos/PBEsol/Mg.psp8
- Mg    ONCVPSP-3.3.0  r_core=   1.16056   1.56380
- 12.00000  10.00000    180112                znucl, zion, pspdat
    8 -116133    1    4       400   0.00000   pspcod,pspxc,lmax,lloc,mmax,r2well
    3.99000000000000    0.00000000000000    0.00000000000000   rchrg,fchrg,qchrg
     nproj     2     2
     extension_switch     1
  pspatm : epsatm=    9.18164846
         --- l  ekb(1:nproj) -->
             0    2.230603   -0.826587
             1   -6.503151   -2.501445
 pspatm: atomic psp has been read  and splines computed

- pspini: atom type   3  psp file is /scratch/users/j/a/jabreu/pseudos/PBEsol/Bi.psp8
- pspatm: opening atomic psp file    /scratch/users/j/a/jabreu/pseudos/PBEsol/Bi.psp8
- Bi    ONCVPSP-3.3.0  r_core=   2.42776   2.51622   2.10397
- 83.00000  15.00000    180112                znucl, zion, pspdat
    8 -116133    2    4       600   0.00000   pspcod,pspxc,lmax,lloc,mmax,r2well
    5.99000000000000    6.00000000000000    0.00000000000000   rchrg,fchrg,qchrg
     nproj     2     2     2
     extension_switch     1
  pspatm : epsatm=   42.90078186
         --- l  ekb(1:nproj) -->
             0    6.017688    0.961606
             1    4.379371    0.528498
             2   -3.458170   -0.753782
 pspatm: atomic psp has been read  and splines computed

   1.53134875E+03                                ecore*ucvol(ha*bohr**3)

-inwffil : will read wavefunctions from disk file /scratch/users/j/a/jabreu/flow_simple/flow/w111/t1/indata/in_WFK

 ==>  initialize data related to q vector <==

 The list of irreducible perturbations for this q vector is:
    1)    idir= 1    ipert=   4
    2)    idir= 2    ipert=   4
    3)    idir= 3    ipert=   4

 Perturbation wavevector (in red.coord.)   0.000000  0.000000  0.000000
 Perturbation : derivative vs k along direction   1

 dfpt_looppert : COMMENT -
  In a d/dk calculation, iscf is set to -3 automatically.
 The set of symmetries contains only one element for this perturbation.
 symkpt : not enough symmetry to change the number of k points.

[...]

 Initialisation of the first-order wave-functions :
  ireadwf=   0

--- !BeginCycle
iteration_state: {dtset: 1, }
solver: {iscf: 7, nstep: 100, nline: 4, wfoptalg: 0, }
tolerances: {tolwfr: 1.00E-20, }
...

     iter   2DEtotal(Ha)        deltaE(Ha) residm    vres2
-ETOT  1  -83.112696512008     -8.311E+01 2.211E-02 0.000E+00
 ETOT  2  -83.120993898418     -8.297E-03 1.855E-05 0.000E+00
 ETOT  3  -83.121000785123     -6.887E-06 6.443E-09 0.000E+00
 ETOT  4  -83.121000785841     -7.179E-10 5.064E-11 0.000E+00
 ETOT  5  -83.121000785841     -2.984E-13 7.273E-14 0.000E+00
 ETOT  6  -83.121000785841      1.421E-14 6.383E-16 0.000E+00
 ETOT  7  -83.121000785841      1.421E-13 1.120E-18 0.000E+00
 ETOT  8  -83.121000785841     -2.842E-14 9.823E-21 0.000E+00

 At SCF step    8   max residual=  9.82E-21 < tolwfr=  1.00E-20 =>converged.

 ----iterations are completed or convergence reached----

 dfpt_looppert: DFPT cycle converged with prtwf=-1. Will skip output of the 1st-order WFK file.
 dfpt_looppert : ek2=    4.0693366887E+01
          f-sum rule ratio=    3.0349783842E+00
 prteigrs : about to open file /scratch/users/j/a/jabreu/flow_simple/flow/w111/t1/tmpdata/tmp_1WF1_EIG
 Expectation of eigenvalue derivatives (hartree) for nkpt=   1  k points:
  (in case of degenerate eigenvalues, averaged derivative)
 kpt#   1, nband= 23, wtk=  1.00000, kpt=  0.0000  0.0000  0.0000 (reduced coord)
  -0.00000   -0.00000   -0.00000   -0.00000   -0.00000    0.00000    0.00000    0.00000
  -0.00000   -0.00000    0.00000    0.00000    0.00000    0.00000   -0.00000    0.00000
   0.00000    0.00000   -0.00000    0.00000    0.00000    0.00000   -0.00000

 Eight components of 2nd-order total energy (hartree) are
 1,2,3: 0th-order hamiltonian combined with 1st-order wavefunctions
     kin0=   3.87739240E+01 eigvalue=   6.72906047E+00  local=  -1.95956763E+01
 4,5,6: 1st-order hamiltonian combined with 1st and 0th-order wfs
     kin1=  -1.23503489E+02  Hartree=   0.00000000E+00     xc=   0.00000000E+00
 7,8,9: eventually, occupation + non-local contributions
    edocc=   5.35550469E+01     enl0=   3.65864575E+00   enl1=  -4.27385127E+01
 1-9 gives the relaxation energy (to be shifted if some occ is /=2.0)
   erelax=  -8.31210008E+01
  No Ewald or frozen-wf contrib.: the relaxation energy is the total one
 2DEtotal=   -0.8312100079E+02 Ha. Also 2DEtotal=   -0.226183745921E+04 eV
    (  non-var. 2DEtotal :   -8.3121000786E+01 Ha)

 Perturbation wavevector (in red.coord.)   0.000000  0.000000  0.000000
 Perturbation : derivative vs k along direction   2
 The set of symmetries contains only one element for this perturbation.
 symkpt : not enough symmetry to change the number of k points.

[...]

 Perturbation wavevector (in red.coord.)   0.000000  0.000000  0.000000
 Perturbation : derivative vs k along direction   3
 The set of symmetries contains only one element for this perturbation.
 symkpt : not enough symmetry to change the number of k points.

-inwffil : will read wavefunctions from disk file /scratch/users/j/a/jabreu/flow_simple/flow/w111/t1/indata/in_WFK

 Initialisation of the first-order wave-functions :
  ireadwf=   0

--- !BeginCycle
iteration_state: {dtset: 1, }
solver: {iscf: 7, nstep: 100, nline: 4, wfoptalg: 0, }
tolerances: {tolwfr: 1.00E-20, }
...

     iter   2DEtotal(Ha)        deltaE(Ha) residm    vres2
-ETOT  1  -83.112761514383     -8.311E+01 2.211E-02 0.000E+00
 ETOT  2  -83.120993993190     -8.232E-03 1.666E-05 0.000E+00
 ETOT  3  -83.121000775509     -6.782E-06 6.443E-09 0.000E+00
 ETOT  4  -83.121000776233     -7.241E-10 4.861E-11 0.000E+00
 ETOT  5  -83.121000776234     -1.023E-12 1.719E-13 0.000E+00
 ETOT  6  -83.121000776234     -1.705E-13 1.051E-15 0.000E+00
 ETOT  7  -83.121000776234     -5.684E-14 5.832E-18 0.000E+00
 ETOT  8  -83.121000776234     -2.842E-14 2.383E-20 0.000E+00
 ETOT  9  -83.121000776234      2.842E-14 9.823E-21 0.000E+00

 At SCF step    9   max residual=  9.82E-21 < tolwfr=  1.00E-20 =>converged.

 ----iterations are completed or convergence reached----

 dfpt_looppert: DFPT cycle converged with prtwf=-1. Will skip output of the 1st-order WFK file.
 dfpt_looppert : ek2=    4.0693366887E+01
          f-sum rule ratio=    3.0349783838E+00
 prteigrs : about to open file /scratch/users/j/a/jabreu/flow_simple/flow/w111/t1/tmpdata/tmp_1WF1_EIG
 Expectation of eigenvalue derivatives (hartree) for nkpt=   1  k points:
  (in case of degenerate eigenvalues, averaged derivative)
 kpt#   1, nband= 23, wtk=  1.00000, kpt=  0.0000  0.0000  0.0000 (reduced coord)
  -0.00000    0.00000    0.00000    0.00000    0.00000   -0.00000   -0.00000   -0.00000
   0.00000    0.00000   -0.00000   -0.00000   -0.00000   -0.00000    0.00000   -0.00000
  -0.00000   -0.00000   -0.00000    0.00000    0.00000    0.00000    0.00000

 Eight components of 2nd-order total energy (hartree) are
 1,2,3: 0th-order hamiltonian combined with 1st-order wavefunctions
     kin0=   3.87739240E+01 eigvalue=   6.72906047E+00  local=  -1.95956763E+01
 4,5,6: 1st-order hamiltonian combined with 1st and 0th-order wfs
     kin1=  -1.23503489E+02  Hartree=   0.00000000E+00     xc=   0.00000000E+00
 7,8,9: eventually, occupation + non-local contributions
    edocc=   5.35550469E+01     enl0=   3.65864575E+00   enl1=  -4.27385127E+01
 1-9 gives the relaxation energy (to be shifted if some occ is /=2.0)
   erelax=  -8.31210008E+01
  No Ewald or frozen-wf contrib.: the relaxation energy is the total one
 2DEtotal=   -0.8312100078E+02 Ha. Also 2DEtotal=   -0.226183745895E+04 eV
    (  non-var. 2DEtotal :   -8.3121000776E+01 Ha)

 CALCULATION OF EFFECTIVE MASSES
 NOTE : Additional infos (eff. mass eigenvalues, eigenvectors and, if degenerate, average mass) are available in stdout.

 COMMENTS:
 - At k-point ( 0.000, 0.000, 0.000), bands    12 through    14
   are DEGENERATE (effective mass tensor is therefore not defined).
   See Section IIIB Eqs. (67)-(70) and Appendix E of PRB 93 205147 (2016).
 - Angular average effective mass for Frohlich model is to be averaged over degenerate bands. See later.
 - Associated theta integrals calculated with ntheta=   1000 points.

 K-point ( 0.000, 0.000, 0.000) | band =    12
 Transport equivalent effective mass tensor:
             -0.0334181456              0.0000000000              0.0000000000
              0.0000000000             -0.0334181455              0.0000000000
              0.0000000000              0.0000000000             -0.0334181456
 Transport equivalent effective mass tensor eigenvalues:
             -0.0334181456             -0.0334181455             -0.0334181455
 Angular average effective mass 1/(<1/m>)=  -0.0331324955
 Angular average effective mass for Frohlich model (<m**0.5>)**2=  -0.0331521833
 Effective masses along directions: (cart. coord. / red. coord. -> eff. mass)
    1:   1.000000  0.000000  0.000000 /   0.948683  0.316228  0.000000 ->  -0.0325911142
    2:   0.000000  1.000000  0.000000 /   0.000000  1.000000  0.000000 ->  -0.0317937940
    3:   0.000000  0.000000  1.000000 /   0.408248  0.408248  0.816497 ->  -0.0326387152
    4:   0.577350  0.577350  0.577350 /   0.585539  0.688047  0.428644 ->  -0.0325700088
    5:   0.000000  0.707107  0.707107 /   0.289489  0.762222  0.578977 ->  -0.0336985948
    6:   0.707107  0.000000  0.707107 /   0.731423  0.422287  0.535439 ->  -0.0326148608
    7:   0.707107  0.707107  0.000000 /   0.616798  0.787122  0.000000 ->  -0.0350968882

[...]

 K-point ( 0.000, 0.000, 0.000) | band =    14
 Transport equivalent effective mass tensor:
            -21.2301723718              0.0000190973              0.0000000011
              0.0000190973            -21.2301656269              0.0000000007
              0.0000000011              0.0000000007            -21.2301388859
 Transport equivalent effective mass tensor eigenvalues:
            -21.2301883922            -21.2301496066            -21.2301388859
 Angular average effective mass 1/(<1/m>)=  -0.9251800382
 Angular average effective mass for Frohlich model (<m**0.5>)**2=  -1.2052299892
 Effective masses along directions: (cart. coord. / red. coord. -> eff. mass)
    1:   1.000000  0.000000  0.000000 /   0.948683  0.316228  0.000000 ->  -0.9913352773
    2:   0.000000  1.000000  0.000000 /   0.000000  1.000000  0.000000 ->  -0.9492263260
    3:   0.000000  0.000000  1.000000 /   0.408248  0.408248  0.816497 ->  -4.1793562826
    4:   0.577350  0.577350  0.577350 /   0.585539  0.688047  0.428644 ->  -1.2517142126
    5:   0.000000  0.707107  0.707107 /   0.289489  0.762222  0.578977 ->  -0.7903561115
    6:   0.707107  0.000000  0.707107 /   0.731423  0.422287  0.535439 ->  -1.8716539424
    7:   0.707107  0.707107  0.000000 /   0.616798  0.787122  0.000000 ->  -0.4073275726

 Angular average effective mass for Frohlich model, averaged over degenerate bands.
 Value of     (<<m**0.5>>)**2 =     4.219498E-01
 Absolute Value of <<m**0.5>> =     6.495766E-01

 K-point ( 0.000, 0.000, 0.000) | band =    15
 Effective mass tensor:
              0.0345878835             -0.0000000000             -0.0000000000
             -0.0000000000              0.0345878835             -0.0000000000
             -0.0000000000             -0.0000000000              0.0345878835
 Effective mass tensor eigenvalues:
              0.0345878835              0.0345878835              0.0345878835
 Angular average effective mass 1/(<1/m>)=   0.0345878835
 Angular average effective mass for Frohlich model (<m**0.5>)**2=   0.0345878835
 Effective masses along directions: (cart. coord. / red. coord. -> eff. mass)
    1:   1.000000  0.000000  0.000000 /   0.948683  0.316228  0.000000 ->   0.0345878835
    2:   0.000000  1.000000  0.000000 /   0.000000  1.000000  0.000000 ->   0.0345878835
    3:   0.000000  0.000000  1.000000 /   0.408248  0.408248  0.816497 ->   0.0345878835
    4:   0.577350  0.577350  0.577350 /   0.585539  0.688047  0.428644 ->   0.0345878835
    5:   0.000000  0.707107  0.707107 /   0.289489  0.762222  0.578977 ->   0.0345878835
    6:   0.707107  0.000000  0.707107 /   0.731423  0.422287  0.535439 ->   0.0345878835
    7:   0.707107  0.707107  0.000000 /   0.616798  0.787122  0.000000 ->   0.0345878835

 END OF EFFECTIVE MASSES SECTION

 ---- first-order wavefunction calculations are completed ----

 Total localisation tensor (bohr^2) in cartesian coordinates
  WARNING : still subject to testing - especially symmetries.
      direction              matrix element
   alpha     beta       real part   imaginary part
     1        1      76.7146867168    0.0000000000
     1        2      21.6981900815    0.0000000000
     1        3      53.1494940344    0.0000000000
     2        1      21.6981900815    0.0000000000
     2        2      61.3717493851    0.0000000000
     2        3      37.5823676541    0.0000000000
     3        1      53.1494940344    0.0000000000
     3        2      37.5823676541    0.0000000000
     3        3     138.0864360501    0.0000000000

 respfn : d/dk was computed, but no 2DTE, so no DDB output.

== END DATASET(S) ==============================================================

 -outvars: echo values of variables after computation  --------
            acell      1.0000000000E+00  1.0000000000E+00  1.0000000000E+00 Bohr
              amu      6.94100000E+00  2.43050000E+01  2.08980370E+02
             ecut      4.20000000E+01 Hartree
           etotal     -8.3121000776E+01
            fcart      0.0000000000E+00  0.0000000000E+00  0.0000000000E+00
                       0.0000000000E+00  0.0000000000E+00  0.0000000000E+00
                       0.0000000000E+00  0.0000000000E+00  0.0000000000E+00
-          fftalg         512
           irdden           1
           irdwfk           1
           istwfk        1
              ixc     -116133
           kptopt           0
P           mkmem           1
P          mkqmem           1
P          mk1mem           1
            natom           3
            nband          23
           nbdbuf           4
            ngfft          54      54      54
             nkpt           1
            nstep         100
             nsym          24
           ntypat           3
              occ      2.000000  2.000000  2.000000  2.000000  2.000000  2.000000
                       2.000000  2.000000  2.000000  2.000000  2.000000  2.000000
                       2.000000  2.000000  0.000000  0.000000  0.000000  0.000000
                       0.000000  0.000000  0.000000  0.000000  0.000000
        optdriver           1
            prtwf          -1
            rfdir           1       1       1
           rfelfd           2
            rprim      7.8178679592E+00  0.0000000000E+00  4.5136481708E+00
                       2.6059559864E+00  7.3707565979E+00  4.5136481708E+00
                       0.0000000000E+00  0.0000000000E+00  9.0272963415E+00
          spgroup         216
           strten      0.0000000000E+00  0.0000000000E+00  0.0000000000E+00
                       0.0000000000E+00  0.0000000000E+00  0.0000000000E+00
           symrel      1  0  0   0  1  0   0  0  1       0 -1  1   0 -1  0   1 -1  0
                      -1  0  0  -1  0  1  -1  1  0       0  1 -1   1  0 -1   0  0 -1
                      -1  0  0  -1  1  0  -1  0  1       0 -1  1   1 -1  0   0 -1  0
                       1  0  0   0  0  1   0  1  0       0  1 -1   0  0 -1   1  0 -1
                      -1  0  1  -1  1  0  -1  0  0       0 -1  0   1 -1  0   0 -1  1
                       1  0 -1   0  0 -1   0  1 -1       0  1  0   0  0  1   1  0  0
                       1  0 -1   0  1 -1   0  0 -1       0 -1  0   0 -1  1   1 -1  0
                      -1  0  1  -1  0  0  -1  1  0       0  1  0   1  0  0   0  0  1
                       0  0 -1   0  1 -1   1  0 -1       1 -1  0   0 -1  1   0 -1  0
                       0  0  1   1  0  0   0  1  0      -1  1  0  -1  0  0  -1  0  1
                       0  0  1   0  1  0   1  0  0       1 -1  0   0 -1  0   0 -1  1
                       0  0 -1   1  0 -1   0  1 -1      -1  1  0  -1  0  1  -1  0  0
           tolwfr      1.00000000E-20
            typat      1  2  3
           useylm           1
           xangst      0.0000000000E+00  0.0000000000E+00  0.0000000000E+00
                       2.7580250292E+00  1.9502182008E+00  4.7770394791E+00
                       1.3790125146E+00  9.7510910042E-01  2.3885197396E+00
            xcart      0.0000000000E+00  0.0000000000E+00  0.0000000000E+00
                       5.2119119728E+00  3.6853782990E+00  9.0272963415E+00
                       2.6059559864E+00  1.8426891495E+00  4.5136481708E+00
             xred      0.0000000000E+00  0.0000000000E+00  0.0000000000E+00
                       5.0000000000E-01  5.0000000000E-01  5.0000000000E-01
                       2.5000000000E-01  2.5000000000E-01  2.5000000000E-01
            znucl        3.00000   12.00000   83.00000

- Timing analysis has been suppressed with timopt=0

 Suggested references for the acknowledgment of ABINIT usage.

 Calculation completed.
.Delivered   6 WARNINGs and   5 COMMENTs to log file.