.Version 9.5.1 of ABINIT

 ABINIT is a project of the Universite Catholique de Louvain,
 Corning Inc. and other collaborators, see ~abinit/doc/developers/contributors.txt .
 acknowledgments of the ABINIT effort.

.Starting date : Tue 11 May 2021.
- ( at 21h59 )

- input  file    -> /scratch/users/j/a/jabreu/flow_simple_8atoms/flow/w376/t1/run.abi
- output file    -> /scratch/users/j/a/jabreu/flow_simple_8atoms/flow/w376/t1/run.abo
- root for input  files -> /scratch/users/j/a/jabreu/flow_simple_8atoms/flow/w376/t1/indata/in
- root for output files -> /scratch/users/j/a/jabreu/flow_simple_8atoms/flow/w376/t1/outdata/out

 Symmetries : space group C2/c (# 15); Bravais mC (1-face-center monocl.)
     intxc =       0      iscf =       7    lmnmax =      32     lnmax =       8
     mgfft =      80  mpssoang =       4    mqgrid =    3191     natom =       8
  nloc_mem =       1    nspden =       1   nspinor =       1    nsppol =       1
      nsym =       4    n1xccc =    2501    ntypat =       3    occopt =       1
   xclevel =       2
-    mband =          43        mffmem =           1         mkmem =           2
-   mkqmem =           2        mk1mem =           2           mpw =       19673
      nfft =      409600          nkpt =           2
  Rough estimation (10% accuracy) of disk space for files :

------------- Echo of variables that govern the present computation ------------
-
- outvars: echo of selected default values
-   iomode0 =  0 , fftalg0 =512 , wfoptalg0 =  0
-
- outvars: echo of global parameters not present in the input file
-  max_nthreads =    0
-
 -outvars: echo values of preprocessed input variables --------
            acell      1.0000000000E+00  1.0000000000E+00  1.0000000000E+00 Bohr
              amu      1.32905430E+02  6.97230000E+01  3.20660000E+01
             ecut      4.00000000E+01 Hartree
-          fftalg         512
           irdden           1
           irdwfk           1
           istwfk        0    1
              ixc     -116133
              kpt      1.87500000E-01 -1.87500000E-01 -1.53471112E-17
                       0.00000000E+00  0.00000000E+00  0.00000000E+00
           kptopt           0
P           mkmem           2
P          mkqmem           2
P          mk1mem           2
            natom           8
            nband          43
           nbdbuf           4
            ngfft          80      80      64
             nkpt           2
            nstep        2000
             nsym           4
           ntypat           3
              occ      2.000000  2.000000  2.000000  2.000000  2.000000  2.000000
                       2.000000  2.000000  2.000000  2.000000  2.000000  2.000000
                       2.000000  2.000000  2.000000  2.000000  2.000000  2.000000
                       2.000000  2.000000  2.000000  2.000000  2.000000  2.000000
                       2.000000  2.000000  2.000000  2.000000  2.000000  2.000000
                       2.000000  2.000000  2.000000  2.000000  0.000000  0.000000
                       0.000000  0.000000  0.000000  0.000000  0.000000  0.000000
                       0.000000
        optdriver           1
            prtwf          -1
            rfdir           1       1       1
           rfelfd           2
            rprim      1.3069572897E+01  0.0000000000E+00  2.7520816348E+00
                      -6.7270393513E+00  1.1205386083E+01  2.7520816348E+00
                       0.0000000000E+00  0.0000000000E+00  1.1135094215E+01
          spgroup          15
           symrel      1  0  0   0  1  0   0  0  1      -1  0  0   0 -1  0   0  0 -1
                       0 -1  0  -1  0  0   0  0 -1       0  1  0   1  0  0   0  0  1
            tnons      0.0000000  0.0000000  0.0000000     0.0000000  0.0000000  0.0000000
                      -0.0000000 -0.0000000  0.5000000     0.0000000  0.0000000  0.5000000
           tolwfr      1.00000000E-20
            typat      1  1  2  2  3  3  3  3
           useylm           1
              wtk        0.50000    0.50000
           xangst      3.1702991953E+00  2.1202299133E+00  2.9294483959E+00
                       1.8602500178E-01  3.8094050154E+00  5.8756674330E+00
                       6.8759030615E+00  2.2763868491E-02  5.8756674330E+00
                      -3.5195788644E+00  5.9068710602E+00  2.9294483959E+00
                      -4.5481962477E-01  1.6903135920E+00  2.9098582650E+00
                       1.6730093644E+00  5.4495598256E+00  2.9490385267E+00
                       1.6833148327E+00  4.8007510310E-01  5.8560773022E+00
                       3.8111438218E+00  4.2393213366E+00  5.8952575638E+00
            xcart      5.9909972384E+00  4.0066538748E+00  5.5358551886E+00
                       3.5153630723E-01  7.1987322084E+00  1.1103402296E+01
                       1.2993573702E+01  4.3017477173E-02  1.1103402296E+01
                      -6.6510401569E+00  1.1162368606E+01  5.5358551886E+00
                      -8.5948453068E-01  3.1942297676E+00  5.4988352065E+00
                       3.1615295164E+00  1.0298175615E+01  5.5728751708E+00
                       3.1810040292E+00  9.0721046807E-01  1.1066382314E+01
                       7.2020180763E+00  8.0111563156E+00  1.1140422278E+01
             xred      6.4243500000E-01  3.5756500000E-01  2.5000000000E-01
                       3.5756500000E-01  6.4243500000E-01  7.5000000000E-01
                       9.9616100000E-01  3.8390000000E-03  7.5000000000E-01
                       3.8390000000E-03  9.9616100000E-01  2.5000000000E-01
                       8.0962000000E-02  2.8506200000E-01  4.0336500000E-01
                       7.1493800000E-01  9.1903800000E-01  9.6635000000E-02
                       2.8506200000E-01  8.0962000000E-02  9.0336500000E-01
                       9.1903800000E-01  7.1493800000E-01  5.9663500000E-01
            znucl       55.00000   31.00000   16.00000

 chkinp: Checking input parameters for consistency.

== DATASET  1 ==================================================================
-   mpi_nproc: 1, omp_nthreads: -1 (-1 if OMP is not activated)

--- !DatasetInfo
iteration_state: {dtset: 1, }
dimensions: {natom: 8, nkpt: 2, mband: 43, nsppol: 1, nspinor: 1, nspden: 1, mpw: 19673, }
cutoff_energies: {ecut:  40.0, pawecutdg:  -1.0, }
electrons: {nelect:   6.80000000E+01, charge:   0.00000000E+00, occopt:   1.00000000E+00, tsmear:   1.00000000E-02, }
meta: {optdriver: 1, rfelfd: 2, }
...

 Real(R)+Recip(G) space primitive vectors, cartesian coordinates (Bohr,Bohr^-1):
 R(1)= 13.0695729  0.0000000  2.7520816  G(1)=  0.0765136  0.0459342  0.0000000
 R(2)= -6.7270394 11.2053861  2.7520816  G(2)=  0.0000000  0.0892428  0.0000000
 R(3)=  0.0000000  0.0000000 11.1350942  G(3)= -0.0189106 -0.0334095  0.0898062
 Unit cell volume ucvol=  1.6307302E+03 bohr^3
 Angles (23,13,12)=  7.81088543E+01  7.81088543E+01  1.16769265E+02 degrees

 getcut: wavevector=  0.0000  0.0000  0.0000  ngfft=  80  80  64
         ecut(hartree)=     40.000   => boxcut(ratio)=   2.01881

--- Pseudopotential description ------------------------------------------------
- pspini: atom type   1  psp file is /scratch/users/j/a/jabreu/pseudos/PBEsol/Cs.psp8
- pspatm: opening atomic psp file    /scratch/users/j/a/jabreu/pseudos/PBEsol/Cs.psp8
- Cs    ONCVPSP-3.3.0  r_core=   2.27353   1.85623   2.01788   1.90105
- 55.00000   9.00000    180112                znucl, zion, pspdat
    8 -116133    3    4       600   0.00000   pspcod,pspxc,lmax,lloc,mmax,r2well
    5.99000000000000    5.00000000000000    0.00000000000000   rchrg,fchrg,qchrg
     nproj     2     2     2     2
     extension_switch     1
  pspatm : epsatm=   22.12462445
         --- l  ekb(1:nproj) -->
             0    6.214110    0.767882
             1    6.311966    0.793598
             2    3.769790    0.913105
             3   -9.247129   -2.432478
 pspatm: atomic psp has been read  and splines computed

- pspini: atom type   2  psp file is /scratch/users/j/a/jabreu/pseudos/PBEsol/Ga.psp8
- pspatm: opening atomic psp file    /scratch/users/j/a/jabreu/pseudos/PBEsol/Ga.psp8
- Ga    ONCVPSP-3.3.0  r_core=   1.66857   1.75011   1.90252
- 31.00000  13.00000    180112                znucl, zion, pspdat
    8 -116133    2    4       600   0.00000   pspcod,pspxc,lmax,lloc,mmax,r2well
    5.99000000000000    5.00000000000000    0.00000000000000   rchrg,fchrg,qchrg
     nproj     2     2     2
     extension_switch     1
  pspatm : epsatm=   24.50969055
         --- l  ekb(1:nproj) -->
             0    7.053021    1.156713
             1    6.846070    1.293139
             2   -8.368667   -2.819170
 pspatm: atomic psp has been read  and splines computed

- pspini: atom type   3  psp file is /scratch/users/j/a/jabreu/pseudos/PBEsol/S.psp8
- pspatm: opening atomic psp file    /scratch/users/j/a/jabreu/pseudos/PBEsol/S.psp8
- S     ONCVPSP-3.3.0  r_core=   1.45376   1.45376   1.61851
- 16.00000   6.00000    180112                znucl, zion, pspdat
    8 -116133    2    4       600   0.00000   pspcod,pspxc,lmax,lloc,mmax,r2well
    5.99000000000000    6.00000000000000    0.00000000000000   rchrg,fchrg,qchrg
     nproj     2     2     2
     extension_switch     1
  pspatm : epsatm=    8.71840985
         --- l  ekb(1:nproj) -->
             0    6.834532    0.579453
             1    3.282851    0.896984
             2   -3.496974   -0.974265
 pspatm: atomic psp has been read  and splines computed

   8.71367432E+03                                ecore*ucvol(ha*bohr**3)

-inwffil : will read wavefunctions from disk file /scratch/users/j/a/jabreu/flow_simple_8atoms/flow/w376/t1/indata/in_WFK

 ==>  initialize data related to q vector <==

 The list of irreducible perturbations for this q vector is:
    1)    idir= 1    ipert=   9
    2)    idir= 2    ipert=   9
    3)    idir= 3    ipert=   9

 Perturbation wavevector (in red.coord.)   0.000000  0.000000  0.000000
 Perturbation : derivative vs k along direction   1

 dfpt_looppert : COMMENT -
  In a d/dk calculation, iscf is set to -3 automatically.
 The set of symmetries contains only one element for this perturbation.
 symkpt : not enough symmetry to change the number of k points.

[...]

 Initialisation of the first-order wave-functions :
  ireadwf=   0

--- !BeginCycle
iteration_state: {dtset: 1, }
solver: {iscf: 7, nstep: 2000, nline: 4, wfoptalg: 0, }
tolerances: {tolwfr: 1.00E-20, }
...

     iter   2DEtotal(Ha)        deltaE(Ha) residm    vres2
-ETOT  1  -35.458437305693     -3.546E+01 1.060E-01 0.000E+00
 ETOT  2  -35.504122495382     -4.569E-02 9.918E-03 0.000E+00
 ETOT  3  -35.505113587064     -9.911E-04 1.300E-03 0.000E+00
 ETOT  4  -35.505196088063     -8.250E-05 2.238E-04 0.000E+00
 ETOT  5  -35.505204204441     -8.116E-06 5.070E-05 0.000E+00
 ETOT  6  -35.505205129838     -9.254E-07 1.086E-05 0.000E+00
 ETOT  7  -35.505205240995     -1.112E-07 2.802E-06 0.000E+00
 ETOT  8  -35.505205255111     -1.412E-08 6.394E-07 0.000E+00
 ETOT  9  -35.505205256961     -1.850E-09 1.618E-07 0.000E+00
 ETOT 10  -35.505205257214     -2.533E-10 3.792E-08 0.000E+00
 ETOT 11  -35.505205257250     -3.539E-11 9.504E-09 0.000E+00
[...]
 ETOT 13  -35.505205257256     -7.674E-13 5.655E-10 0.000E+00
 ETOT 14  -35.505205257256     -1.137E-13 1.379E-10 0.000E+00
 ETOT 15  -35.505205257256      0.000E+00 3.399E-11 0.000E+00
 ETOT 16  -35.505205257256      1.421E-14 8.425E-12 0.000E+00
 ETOT 17  -35.505205257256     -7.105E-15 2.060E-12 0.000E+00
 ETOT 18  -35.505205257256      1.421E-14 5.178E-13 0.000E+00
 ETOT 19  -35.505205257256      1.421E-14 1.258E-13 0.000E+00
 ETOT 20  -35.505205257256     -7.105E-15 3.199E-14 0.000E+00
 ETOT 21  -35.505205257256      0.000E+00 7.738E-15 0.000E+00
 ETOT 22  -35.505205257256      0.000E+00 1.986E-15 0.000E+00
 ETOT 23  -35.505205257256      0.000E+00 4.788E-16 0.000E+00
 ETOT 24  -35.505205257256      0.000E+00 1.239E-16 0.000E+00
 ETOT 25  -35.505205257256      0.000E+00 2.980E-17 0.000E+00
 ETOT 26  -35.505205257256      0.000E+00 7.752E-18 0.000E+00
 ETOT 27  -35.505205257256      0.000E+00 1.864E-18 0.000E+00
 ETOT 28  -35.505205257256      7.105E-15 4.869E-19 0.000E+00
 ETOT 29  -35.505205257256      0.000E+00 1.171E-19 0.000E+00
 ETOT 30  -35.505205257256     -7.105E-15 3.068E-20 0.000E+00
 ETOT 31  -35.505205257256      1.421E-14 9.865E-21 0.000E+00

 At SCF step   31   max residual=  9.86E-21 < tolwfr=  1.00E-20 =>converged.

 ----iterations are completed or convergence reached----

 dfpt_looppert: DFPT cycle converged with prtwf=-1. Will skip output of the 1st-order WFK file.
 dfpt_looppert : ek2=    4.2760718648E+01
          f-sum rule ratio=    1.0632559780E+00
 prteigrs : about to open file /scratch/users/j/a/jabreu/flow_simple_8atoms/flow/w376/t1/tmpdata/tmp_1WF1_EIG
 Expectation of eigenvalue derivatives (hartree) for nkpt=   2  k points:
  (in case of degenerate eigenvalues, averaged derivative)
 kpt#   1, nband= 43, wtk=  0.50000, kpt=  0.1875 -0.1875  0.0000 (reduced coord)
   0.00091   -0.00084   -0.00015   -0.00009    0.00000    0.00012   -0.00000    0.00000
   0.00000    0.00002    0.00000    0.00000    0.00003    0.00207   -0.00430   -0.00552
   0.00437    0.01312    0.00037    0.00661   -0.00396   -0.00010   -0.00057    0.01347
   0.00578   -0.00115    0.00234    0.00192   -0.02350   -0.02443    0.00075   -0.04303
  -0.00609    0.00037    0.01268    0.03582    0.00543   -0.03099    0.00429   -0.02317
   0.02286    0.01671    0.01204
 prteigrs : prtvol=0 or 1, do not print more k-points.

 Eight components of 2nd-order total energy (hartree) are
 1,2,3: 0th-order hamiltonian combined with 1st-order wavefunctions
     kin0=   4.08853890E+01 eigvalue=   2.23268799E+00  local=  -2.03687386E+01
 4,5,6: 1st-order hamiltonian combined with 1st and 0th-order wfs
     kin1=  -4.54655897E+01  Hartree=   0.00000000E+00     xc=   0.00000000E+00
 7,8,9: eventually, occupation + non-local contributions
    edocc=   6.86732856E+00     enl0=   5.88853827E+00   enl1=  -2.55448208E+01
 1-9 gives the relaxation energy (to be shifted if some occ is /=2.0)
   erelax=  -3.55052053E+01
  No Ewald or frozen-wf contrib.: the relaxation energy is the total one
 2DEtotal=   -0.3550520526E+02 Ha. Also 2DEtotal=   -0.966145769283E+03 eV
    (  non-var. 2DEtotal :   -3.5505205257E+01 Ha)

 Perturbation wavevector (in red.coord.)   0.000000  0.000000  0.000000
 Perturbation : derivative vs k along direction   2
 The set of symmetries contains only one element for this perturbation.
 symkpt : not enough symmetry to change the number of k points.

[...]

 Perturbation wavevector (in red.coord.)   0.000000  0.000000  0.000000
 Perturbation : derivative vs k along direction   3
 The set of symmetries contains only one element for this perturbation.
 symkpt : not enough symmetry to change the number of k points.

-inwffil : will read wavefunctions from disk file /scratch/users/j/a/jabreu/flow_simple_8atoms/flow/w376/t1/indata/in_WFK

 Initialisation of the first-order wave-functions :
  ireadwf=   0

--- !BeginCycle
iteration_state: {dtset: 1, }
solver: {iscf: 7, nstep: 2000, nline: 4, wfoptalg: 0, }
tolerances: {tolwfr: 1.00E-20, }
...

     iter   2DEtotal(Ha)        deltaE(Ha) residm    vres2
-ETOT  1  -41.196061250886     -4.120E+01 7.258E-02 0.000E+00
 ETOT  2  -41.246588701819     -5.053E-02 3.711E-03 0.000E+00
 ETOT  3  -41.247358384503     -7.697E-04 2.796E-04 0.000E+00
 ETOT  4  -41.247426530600     -6.815E-05 4.087E-05 0.000E+00
 ETOT  5  -41.247434402511     -7.872E-06 6.112E-06 0.000E+00
 ETOT  6  -41.247435451510     -1.049E-06 1.507E-06 0.000E+00
 ETOT  7  -41.247435598343     -1.468E-07 2.887E-07 0.000E+00
 ETOT  8  -41.247435619849     -2.151E-08 8.201E-08 0.000E+00
 ETOT  9  -41.247435623073     -3.224E-09 1.635E-08 0.000E+00
 ETOT 10  -41.247435623569     -4.963E-10 4.778E-09 0.000E+00
 ETOT 11  -41.247435623647     -7.731E-11 9.551E-10 0.000E+00
 ETOT 12  -41.247435623659     -1.219E-11 2.823E-10 0.000E+00
 ETOT 13  -41.247435623661     -1.926E-12 5.641E-11 0.000E+00
 ETOT 14  -41.247435623661     -2.984E-13 1.682E-11 0.000E+00
 ETOT 15  -41.247435623661     -7.816E-14 3.359E-12 0.000E+00
 ETOT 16  -41.247435623661      3.553E-14 1.010E-12 0.000E+00
 ETOT 17  -41.247435623661     -1.421E-14 2.013E-13 0.000E+00
 ETOT 18  -41.247435623661     -1.421E-14 6.094E-14 0.000E+00
 ETOT 19  -41.247435623661      1.421E-14 1.213E-14 0.000E+00
 ETOT 20  -41.247435623661      1.421E-14 3.694E-15 0.000E+00
 ETOT 21  -41.247435623661      1.421E-14 7.336E-16 0.000E+00
 ETOT 22  -41.247435623661     -1.421E-14 2.247E-16 0.000E+00
 ETOT 23  -41.247435623661     -2.132E-14 4.454E-17 0.000E+00
 ETOT 24  -41.247435623661     -7.105E-15 1.371E-17 0.000E+00
 ETOT 25  -41.247435623661      0.000E+00 2.713E-18 0.000E+00
 ETOT 26  -41.247435623661      1.421E-14 8.384E-19 0.000E+00
 ETOT 27  -41.247435623661     -2.132E-14 1.656E-19 0.000E+00
 ETOT 28  -41.247435623661      7.105E-15 5.138E-20 0.000E+00
 ETOT 29  -41.247435623661      7.105E-15 1.013E-20 0.000E+00
 ETOT 30  -41.247435623661     -7.105E-15 9.929E-21 0.000E+00

 At SCF step   30   max residual=  9.93E-21 < tolwfr=  1.00E-20 =>converged.

 ----iterations are completed or convergence reached----

 dfpt_looppert: DFPT cycle converged with prtwf=-1. Will skip output of the 1st-order WFK file.
 dfpt_looppert : ek2=    5.1215254985E+01
          f-sum rule ratio=    1.0136193904E+00
 prteigrs : about to open file /scratch/users/j/a/jabreu/flow_simple_8atoms/flow/w376/t1/tmpdata/tmp_1WF1_EIG
 Expectation of eigenvalue derivatives (hartree) for nkpt=   2  k points:
  (in case of degenerate eigenvalues, averaged derivative)
 kpt#   1, nband= 43, wtk=  0.50000, kpt=  0.1875 -0.1875  0.0000 (reduced coord)
  -0.00000   -0.00000    0.00000   -0.00000    0.00000   -0.00000   -0.00000   -0.00000
  -0.00000   -0.00000    0.00000    0.00000   -0.00000   -0.00000    0.00000    0.00000
   0.00000    0.00000   -0.00000   -0.00000   -0.00000    0.00000    0.00000   -0.00000
   0.00000    0.00000   -0.00000   -0.00000    0.00000   -0.00000    0.00000    0.00000
  -0.00000   -0.00000   -0.00000    0.00000    0.00000    0.00000    0.00000   -0.00000
   0.00000   -0.00000    0.00000
 prteigrs : prtvol=0 or 1, do not print more k-points.

 Eight components of 2nd-order total energy (hartree) are
 1,2,3: 0th-order hamiltonian combined with 1st-order wavefunctions
     kin0=   4.84360806E+01 eigvalue=   2.64254834E+00  local=  -2.38154249E+01
 4,5,6: 1st-order hamiltonian combined with 1st and 0th-order wfs
     kin1=  -5.19127755E+01  Hartree=   0.00000000E+00     xc=   0.00000000E+00
 7,8,9: eventually, occupation + non-local contributions
    edocc=   7.67131770E+00     enl0=   6.31291383E+00   enl1=  -3.05820957E+01
 1-9 gives the relaxation energy (to be shifted if some occ is /=2.0)
   erelax=  -4.12474356E+01
  No Ewald or frozen-wf contrib.: the relaxation energy is the total one
 2DEtotal=   -0.4124743562E+02 Ha. Also 2DEtotal=   -0.112239980400E+04 eV
    (  non-var. 2DEtotal :   -4.1247435624E+01 Ha)

 CALCULATION OF EFFECTIVE MASSES
 NOTE : Additional infos (eff. mass eigenvalues, eigenvectors and, if degenerate, average mass) are available in stdout.

 K-point ( 0.188,-0.188,-0.000) | band =    34
 Effective mass tensor:
             -4.6646207588              1.7877510442             -0.0242035893
              1.7877510442             -2.5181042964             -0.0427606631
             -0.0242035893             -0.0427606631             -1.4983297642
 Effective mass tensor eigenvalues:
             -5.6765332705             -1.5515531764             -1.4529683725
 Angular average effective mass 1/(<1/m>)=  -1.9881696764
 Angular average effective mass for Frohlich model (<m**0.5>)**2=  -2.1679664415
 Effective masses along directions: (cart. coord. / red. coord. -> eff. mass)
    1:   1.000000  0.000000  0.000000 /   0.889134 -0.457646  0.000000 ->  -3.3934028038
    2:   0.000000  1.000000  0.000000 /   0.000000  1.000000  0.000000 ->  -1.8311278538
    3:   0.000000  0.000000  1.000000 /   0.233313  0.233313  0.943997 ->  -1.4967268554
    4:   0.577350  0.577350  0.577350 /   0.766028  0.350071  0.539121 ->  -1.6057237812
    5:   0.000000  0.707107  0.707107 /   0.152336  0.772588  0.616361 ->  -1.7002464002
    6:   0.707107  0.000000  0.707107 /   0.801042 -0.201250  0.563764 ->  -2.1246279182
    7:   0.707107  0.707107  0.000000 /   0.946005  0.324153  0.000000 ->  -1.5878050201

 K-point ( 0.000, 0.000, 0.000) | band =    35
 Effective mass tensor:
              0.3561936897             -0.0290209467              0.0086609305
             -0.0290209467              0.3213488288              0.0153013103
              0.0086609305              0.0153013103              0.2733134400
 Effective mass tensor eigenvalues:
              0.2654763318              0.3127593434              0.3726202833
 Angular average effective mass 1/(<1/m>)=   0.3109498556
 Angular average effective mass for Frohlich model (<m**0.5>)**2=   0.3127312624
 Effective masses along directions: (cart. coord. / red. coord. -> eff. mass)
    1:   1.000000  0.000000  0.000000 /   0.889134 -0.457646  0.000000 ->   0.3532028095
    2:   0.000000  1.000000  0.000000 /   0.000000  1.000000  0.000000 ->   0.3180461501
    3:   0.000000  0.000000  1.000000 /   0.233313  0.233313  0.943997 ->   0.2722996018
    4:   0.577350  0.577350  0.577350 /   0.766028  0.350071  0.539121 ->   0.3127614625
    5:   0.000000  0.707107  0.707107 /   0.152336  0.772588  0.616361 ->   0.3101712379
    6:   0.707107  0.000000  0.707107 /   0.801042 -0.201250  0.563764 ->   0.3177105096
    7:   0.707107  0.707107  0.000000 /   0.946005  0.324153  0.000000 ->   0.3078465887

 END OF EFFECTIVE MASSES SECTION

 ---- first-order wavefunction calculations are completed ----

 Total localisation tensor (bohr^2) in cartesian coordinates
  WARNING : still subject to testing - especially symmetries.
      direction              matrix element
   alpha     beta       real part   imaginary part
     1        1       2.2020926386    0.0000000000
     1        2      -0.7682425326    0.0000000000
     1        3       0.1778982377    0.0000000000
     2        1      -0.7682425326    0.0000000000
     2        2       1.2796794747    0.0000000000
     2        3       0.3142937115    0.0000000000
     3        1       0.1778982377    0.0000000000
     3        2       0.3142937115    0.0000000000
     3        3       1.5734954146    0.0000000000

 respfn : d/dk was computed, but no 2DTE, so no DDB output.

== END DATASET(S) ==============================================================

 -outvars: echo values of variables after computation  --------
            acell      1.0000000000E+00  1.0000000000E+00  1.0000000000E+00 Bohr
              amu      1.32905430E+02  6.97230000E+01  3.20660000E+01
             ecut      4.00000000E+01 Hartree
           etotal     -4.1247435624E+01
            fcart      0.0000000000E+00  0.0000000000E+00  0.0000000000E+00
                       0.0000000000E+00  0.0000000000E+00  0.0000000000E+00
                       0.0000000000E+00  0.0000000000E+00  0.0000000000E+00
                       0.0000000000E+00  0.0000000000E+00  0.0000000000E+00
                       0.0000000000E+00  0.0000000000E+00  0.0000000000E+00
                       0.0000000000E+00  0.0000000000E+00  0.0000000000E+00
                       0.0000000000E+00  0.0000000000E+00  0.0000000000E+00
                       0.0000000000E+00  0.0000000000E+00  0.0000000000E+00
-          fftalg         512
           irdden           1
           irdwfk           1
           istwfk        0    1
              ixc     -116133
              kpt      1.87500000E-01 -1.87500000E-01 -1.53471112E-17
                       0.00000000E+00  0.00000000E+00  0.00000000E+00
           kptopt           0
P           mkmem           2
P          mkqmem           2
P          mk1mem           2
            natom           8
            nband          43
           nbdbuf           4
            ngfft          80      80      64
             nkpt           2
            nstep        2000
             nsym           4
           ntypat           3
              occ      2.000000  2.000000  2.000000  2.000000  2.000000  2.000000
                       2.000000  2.000000  2.000000  2.000000  2.000000  2.000000
                       2.000000  2.000000  2.000000  2.000000  2.000000  2.000000
                       2.000000  2.000000  2.000000  2.000000  2.000000  2.000000
                       2.000000  2.000000  2.000000  2.000000  2.000000  2.000000
                       2.000000  2.000000  2.000000  2.000000  0.000000  0.000000
                       0.000000  0.000000  0.000000  0.000000  0.000000  0.000000
                       0.000000
        optdriver           1
            prtwf          -1
            rfdir           1       1       1
           rfelfd           2
            rprim      1.3069572897E+01  0.0000000000E+00  2.7520816348E+00
                      -6.7270393513E+00  1.1205386083E+01  2.7520816348E+00
                       0.0000000000E+00  0.0000000000E+00  1.1135094215E+01
          spgroup          15
           strten      0.0000000000E+00  0.0000000000E+00  0.0000000000E+00
                       0.0000000000E+00  0.0000000000E+00  0.0000000000E+00
           symrel      1  0  0   0  1  0   0  0  1      -1  0  0   0 -1  0   0  0 -1
                       0 -1  0  -1  0  0   0  0 -1       0  1  0   1  0  0   0  0  1
            tnons      0.0000000  0.0000000  0.0000000     0.0000000  0.0000000  0.0000000
                      -0.0000000 -0.0000000  0.5000000     0.0000000  0.0000000  0.5000000
           tolwfr      1.00000000E-20
            typat      1  1  2  2  3  3  3  3
           useylm           1
              wtk        0.50000    0.50000
           xangst      3.1702991953E+00  2.1202299133E+00  2.9294483959E+00
                       1.8602500178E-01  3.8094050154E+00  5.8756674330E+00
                       6.8759030615E+00  2.2763868491E-02  5.8756674330E+00
                      -3.5195788644E+00  5.9068710602E+00  2.9294483959E+00
                      -4.5481962477E-01  1.6903135920E+00  2.9098582650E+00
                       1.6730093644E+00  5.4495598256E+00  2.9490385267E+00
                       1.6833148327E+00  4.8007510310E-01  5.8560773022E+00
                       3.8111438218E+00  4.2393213366E+00  5.8952575638E+00
            xcart      5.9909972384E+00  4.0066538748E+00  5.5358551886E+00
                       3.5153630723E-01  7.1987322084E+00  1.1103402296E+01
                       1.2993573702E+01  4.3017477173E-02  1.1103402296E+01
                      -6.6510401569E+00  1.1162368606E+01  5.5358551886E+00
                      -8.5948453068E-01  3.1942297676E+00  5.4988352065E+00
                       3.1615295164E+00  1.0298175615E+01  5.5728751708E+00
                       3.1810040292E+00  9.0721046807E-01  1.1066382314E+01
                       7.2020180763E+00  8.0111563156E+00  1.1140422278E+01
             xred      6.4243500000E-01  3.5756500000E-01  2.5000000000E-01
                       3.5756500000E-01  6.4243500000E-01  7.5000000000E-01
                       9.9616100000E-01  3.8390000000E-03  7.5000000000E-01
                       3.8390000000E-03  9.9616100000E-01  2.5000000000E-01
                       8.0962000000E-02  2.8506200000E-01  4.0336500000E-01
                       7.1493800000E-01  9.1903800000E-01  9.6635000000E-02
                       2.8506200000E-01  8.0962000000E-02  9.0336500000E-01
                       9.1903800000E-01  7.1493800000E-01  5.9663500000E-01
            znucl       55.00000   31.00000   16.00000

- Timing analysis has been suppressed with timopt=0

 Suggested references for the acknowledgment of ABINIT usage.

 Calculation completed.
.Delivered  14 WARNINGs and   9 COMMENTs to log file.