.Version 9.5.2 of ABINIT

 ABINIT is a project of the Universite Catholique de Louvain,
 Corning Inc. and other collaborators, see ~abinit/doc/developers/contributors.txt .
 acknowledgments of the ABINIT effort.

.Starting date : Wed 26 May 2021.
- ( at 02h13 )

- input  file    -> /scratch/users/j/a/jabreu/flow_simple_11atoms/flow/w224/t1/run.abi
- output file    -> /scratch/users/j/a/jabreu/flow_simple_11atoms/flow/w224/t1/run.abo
- root for input  files -> /scratch/users/j/a/jabreu/flow_simple_11atoms/flow/w224/t1/indata/in
- root for output files -> /scratch/users/j/a/jabreu/flow_simple_11atoms/flow/w224/t1/outdata/out

 Symmetries : space group Cm c 2_1 (# 36); Bravais oC (1-face-center ortho.)
     intxc =       0      iscf =       7    lmnmax =      18     lnmax =       6
     mgfft =      64  mpssoang =       3    mqgrid =    3001     natom =      12
  nloc_mem =       1    nspden =       1   nspinor =       1    nsppol =       1
      nsym =       4    n1xccc =    2501    ntypat =       3    occopt =       1
   xclevel =       2
-    mband =          37        mffmem =           1         mkmem =           2
-   mkqmem =           2        mk1mem =           2           mpw =       11046
      nfft =      221184          nkpt =           2
  Rough estimation (10% accuracy) of disk space for files :

------------- Echo of variables that govern the present computation ------------
-
- outvars: echo of selected default values
-   iomode0 =  0 , fftalg0 =512 , wfoptalg0 =  0
-
- outvars: echo of global parameters not present in the input file
-  max_nthreads =    0
-
 -outvars: echo values of preprocessed input variables --------
            acell      1.0000000000E+00  1.0000000000E+00  1.0000000000E+00 Bohr
              amu      6.94100000E+00  2.80855000E+01  1.59994000E+01
             ecut      4.40000000E+01 Hartree
-          fftalg         512
           irdden           1
           irdwfk           1
           istwfk        1    1
              ixc     -116133
              kpt      0.00000000E+00  0.00000000E+00  5.00000000E-01
                       0.00000000E+00  0.00000000E+00  0.00000000E+00
           kptopt           0
P           mkmem           2
P          mkqmem           2
P          mk1mem           2
            natom          12
            nband          37
           nbdbuf           4
            ngfft          64      64      54
             nkpt           2
            nstep        2000
             nsym           4
           ntypat           3
              occ      2.000000  2.000000  2.000000  2.000000  2.000000  2.000000
                       2.000000  2.000000  2.000000  2.000000  2.000000  2.000000
                       2.000000  2.000000  2.000000  2.000000  2.000000  2.000000
                       2.000000  2.000000  2.000000  2.000000  2.000000  2.000000
                       2.000000  2.000000  2.000000  2.000000  0.000000  0.000000
                       0.000000  0.000000  0.000000  0.000000  0.000000  0.000000
                       0.000000
        optdriver           1
            prtwf          -1
            rfdir           1       1       1
           rfelfd           2
            rprim      1.0205017051E+01  0.0000000000E+00  0.0000000000E+00
                      -5.1537245506E+00  8.8080358910E+00  0.0000000000E+00
                       0.0000000000E+00  0.0000000000E+00  8.8045107461E+00
          spgroup          36
           symrel      1  0  0   0  1  0   0  0  1       0 -1  0  -1  0  0   0  0  1
                      -1  0  0   0 -1  0   0  0  1       0  1  0   1  0  0   0  0  1
            tnons      0.0000000  0.0000000  0.0000000     0.0000000  0.0000000  0.5000000
                       0.0000000  0.0000000  0.5000000     0.0000000  0.0000000  0.0000000
           tolwfr      1.00000000E-20
            typat      1  1  1  1  2  2  3  3  3  3  3  3
           useylm           1
              wtk        0.50000    0.50000
           xangst     -4.9477272570E-01  2.4129499005E+00  4.6361395546E+00
                       3.1678015906E+00  2.2480619454E+00  2.3065663448E+00
                       3.4052206428E-01  3.8694694923E+00  2.3065663448E+00
                       2.3325068006E+00  7.9154235370E-01  4.6361395546E+00
                       4.6015924606E-01  8.0238852827E-01  2.3244155347E+00
                       2.2128696188E+00  3.8586233177E+00  4.6539887445E+00
                       3.1154953329E-01  5.4325491368E-01  6.6447348493E-01
                       2.0127426535E+00  7.6665721146E-01  2.7106121814E+00
                      -3.5476442367E-01  2.1243913181E+00  2.7106121814E+00
                       2.3614793316E+00  4.1177569323E+00  2.9940466947E+00
                       3.0277932885E+00  2.5366205278E+00  3.8103897164E-01
                       6.6028621142E-01  3.8943546345E+00  3.8103897164E-01
            xcart     -9.3498494960E-01  4.5598144843E+00  8.7610340720E+00
                       5.9862774495E+00  4.2482214067E+00  4.3587786990E+00
                       6.4349344369E-01  7.3122376199E+00  4.3587786990E+00
                       4.4077990562E+00  1.4957982711E+00  8.7610340720E+00
                       8.6957495257E-01  1.5162945706E+00  4.3925087797E+00
                       4.1817175473E+00  7.2917413204E+00  8.7947641527E+00
                       5.8874329474E-01  1.0266030072E+00  1.2556729091E+00
                       3.8035323910E+00  1.4487721675E+00  5.1223146754E+00
                      -6.7040760243E-01  4.0145177904E+00  5.1223146754E+00
                       4.4625492052E+00  7.7814328838E+00  5.6579282821E+00
                       5.7217001023E+00  4.7935181006E+00  7.2005930235E-01
                       1.2477601089E+00  7.3592637235E+00  7.2005930235E-01
             xred      1.6982200000E-01  5.1768800000E-01  9.9506200000E-01
                       8.3017800000E-01  4.8231200000E-01  4.9506200000E-01
                       4.8231200000E-01  8.3017800000E-01  4.9506200000E-01
                       5.1768800000E-01  1.6982200000E-01  9.9506200000E-01
                       1.7214900000E-01  1.7214900000E-01  4.9889300000E-01
                       8.2785100000E-01  8.2785100000E-01  9.9889300000E-01
                       1.1655300000E-01  1.1655300000E-01  1.4261700000E-01
                       4.5577900000E-01  1.6448300000E-01  5.8178300000E-01
                       1.6448300000E-01  4.5577900000E-01  5.8178300000E-01
                       8.8344700000E-01  8.8344700000E-01  6.4261700000E-01
                       8.3551700000E-01  5.4422100000E-01  8.1783000000E-02
                       5.4422100000E-01  8.3551700000E-01  8.1783000000E-02
            znucl        3.00000   14.00000    8.00000

 chkinp: Checking input parameters for consistency.

== DATASET  1 ==================================================================
-   mpi_nproc: 1, omp_nthreads: -1 (-1 if OMP is not activated)

--- !DatasetInfo
iteration_state: {dtset: 1, }
dimensions: {natom: 12, nkpt: 2, mband: 37, nsppol: 1, nspinor: 1, nspden: 1, mpw: 11046, }
cutoff_energies: {ecut:  44.0, pawecutdg:  -1.0, }
electrons: {nelect:   5.60000000E+01, charge:   0.00000000E+00, occopt:   1.00000000E+00, tsmear:   1.00000000E-02, }
meta: {optdriver: 1, rfelfd: 2, }
...

 Real(R)+Recip(G) space primitive vectors, cartesian coordinates (Bohr,Bohr^-1):
 R(1)= 10.2050171  0.0000000  0.0000000  G(1)=  0.0979910  0.0573361  0.0000000
 R(2)= -5.1537246  8.8080359  0.0000000  G(2)=  0.0000000  0.1135327  0.0000000
 R(3)=  0.0000000  0.0000000  8.8045107  G(3)=  0.0000000  0.0000000  0.1135781
 Unit cell volume ucvol=  7.9140363E+02 bohr^3
 Angles (23,13,12)=  9.00000000E+01  9.00000000E+01  1.20332594E+02 degrees

 getcut: wavevector=  0.0000  0.0000  0.0000  ngfft=  64  64  54
         ecut(hartree)=     44.000   => boxcut(ratio)=   2.05398

--- Pseudopotential description ------------------------------------------------
- pspini: atom type   1  psp file is /scratch/users/j/a/jabreu/pseudos/PBEsol/Li.psp8
- pspatm: opening atomic psp file    /scratch/users/j/a/jabreu/pseudos/PBEsol/Li.psp8
- Li    ONCVPSP-3.3.0  r_core=   1.40824   1.10935
-  3.00000   3.00000    180112                znucl, zion, pspdat
    8 -116133    1    4       400   0.00000   pspcod,pspxc,lmax,lloc,mmax,r2well
    3.99000000000000    0.00000000000000    0.00000000000000   rchrg,fchrg,qchrg
     nproj     2     2
     extension_switch     1
  pspatm : epsatm=    2.60859637
         --- l  ekb(1:nproj) -->
             0   -4.855856   -1.482423
             1   -2.171544   -0.427615
 pspatm: atomic psp has been read  and splines computed

- pspini: atom type   2  psp file is /scratch/users/j/a/jabreu/pseudos/PBEsol/Si.psp8
- pspatm: opening atomic psp file    /scratch/users/j/a/jabreu/pseudos/PBEsol/Si.psp8
- Si    ONCVPSP-3.3.0  r_core=   1.60303   1.72197   1.91712
- 14.00000   4.00000    180112                znucl, zion, pspdat
    8 -116133    2    4       600   0.00000   pspcod,pspxc,lmax,lloc,mmax,r2well
    5.99000000000000    4.00000000000000    0.00000000000000   rchrg,fchrg,qchrg
     nproj     2     2     2
     extension_switch     1
  pspatm : epsatm=    7.86468782
         --- l  ekb(1:nproj) -->
             0    5.384426    0.843824
             1    2.663259    0.615854
             2   -2.267219   -0.458043
 pspatm: atomic psp has been read  and splines computed

- pspini: atom type   3  psp file is /scratch/users/j/a/jabreu/pseudos/PBEsol/O.psp8
- pspatm: opening atomic psp file    /scratch/users/j/a/jabreu/pseudos/PBEsol/O.psp8
- O     ONCVPSP-3.3.0  r_core=   1.35509   1.45563   1.26150
-  8.00000   6.00000    180112                znucl, zion, pspdat
    8 -116133    2    4       600   0.00000   pspcod,pspxc,lmax,lloc,mmax,r2well
    5.99000000000000    4.00000000000000    0.00000000000000   rchrg,fchrg,qchrg
     nproj     2     2     1
     extension_switch     1
  pspatm : epsatm=    6.22910522
         --- l  ekb(1:nproj) -->
             0    6.050032    0.820363
             1   -4.739617   -1.153841
             2   -1.335834
 pspatm: atomic psp has been read  and splines computed

   3.55814998E+03                                ecore*ucvol(ha*bohr**3)

 ==>  initialize data related to q vector <==

 The list of irreducible perturbations for this q vector is:
    1)    idir= 1    ipert=  13
    2)    idir= 2    ipert=  13
    3)    idir= 3    ipert=  13

 Perturbation wavevector (in red.coord.)   0.000000  0.000000  0.000000
 Perturbation : derivative vs k along direction   1

 dfpt_looppert : COMMENT -
  In a d/dk calculation, iscf is set to -3 automatically.
 The set of symmetries contains only one element for this perturbation.
 symkpt : not enough symmetry to change the number of k points.

 Initialisation of the first-order wave-functions :
  ireadwf=   0

--- !BeginCycle
iteration_state: {dtset: 1, }
solver: {iscf: 7, nstep: 2000, nline: 4, wfoptalg: 0, }
tolerances: {tolwfr: 1.00E-20, }
...

     iter   2DEtotal(Ha)        deltaE(Ha) residm    vres2
-ETOT  1  -29.483606436044     -2.948E+01 1.208E-01 0.000E+00
 ETOT  2  -29.507373101618     -2.377E-02 9.360E-03 0.000E+00
[...]
 7,8,9: eventually, occupation + non-local contributions
    edocc=   5.10369798E+00     enl0=  -2.29250142E+00   enl1=  -1.11418517E+00
 1-9 gives the relaxation energy (to be shifted if some occ is /=2.0)
   erelax=  -2.95074452E+01
  No Ewald or frozen-wf contrib.: the relaxation energy is the total one
 2DEtotal=   -0.2950744517E+02 Ha. Also 2DEtotal=   -0.802938417209E+03 eV
    (  non-var. 2DEtotal :   -2.9507445168E+01 Ha)

 Perturbation wavevector (in red.coord.)   0.000000  0.000000  0.000000
 Perturbation : derivative vs k along direction   2
 The set of symmetries contains only one element for this perturbation.
 symkpt : not enough symmetry to change the number of k points.

[...]

 Perturbation wavevector (in red.coord.)   0.000000  0.000000  0.000000
 Perturbation : derivative vs k along direction   3
 The set of symmetries contains only one element for this perturbation.
 symkpt : not enough symmetry to change the number of k points.

 Initialisation of the first-order wave-functions :
  ireadwf=   0

--- !BeginCycle
iteration_state: {dtset: 1, }
solver: {iscf: 7, nstep: 2000, nline: 4, wfoptalg: 0, }
tolerances: {tolwfr: 1.00E-20, }
...

     iter   2DEtotal(Ha)        deltaE(Ha) residm    vres2
-ETOT  1  -29.458541810902     -2.946E+01 2.998E-02 0.000E+00
 ETOT  2  -29.475756587161     -1.721E-02 2.007E-03 0.000E+00
 ETOT  3  -29.475794576467     -3.799E-05 6.051E-05 0.000E+00
 ETOT  4  -29.475794785543     -2.091E-07 6.442E-06 0.000E+00
 ETOT  5  -29.475794787159     -1.616E-09 5.298E-07 0.000E+00
 ETOT  6  -29.475794787174     -1.534E-11 6.885E-08 0.000E+00
 ETOT  7  -29.475794787174     -1.492E-13 6.438E-09 0.000E+00
 ETOT  8  -29.475794787174      3.908E-14 8.210E-10 0.000E+00
 ETOT  9  -29.475794787174     -3.553E-14 8.292E-11 0.000E+00
 ETOT 10  -29.475794787174      1.776E-14 1.041E-11 0.000E+00
 ETOT 11  -29.475794787174      0.000E+00 1.107E-12 0.000E+00
 ETOT 12  -29.475794787174      3.553E-15 1.376E-13 0.000E+00
 ETOT 13  -29.475794787174      0.000E+00 1.507E-14 0.000E+00
 ETOT 14  -29.475794787174     -3.553E-15 1.861E-15 0.000E+00
 ETOT 15  -29.475794787174      0.000E+00 2.072E-16 0.000E+00
 ETOT 16  -29.475794787174      3.553E-15 2.738E-17 0.000E+00
 ETOT 17  -29.475794787174     -3.553E-15 5.435E-18 0.000E+00
 ETOT 18  -29.475794787174      3.553E-15 1.418E-18 0.000E+00
 ETOT 19  -29.475794787174     -3.553E-15 2.821E-19 0.000E+00
 ETOT 20  -29.475794787174     -7.105E-15 7.403E-20 0.000E+00
 ETOT 21  -29.475794787174      7.105E-15 1.477E-20 0.000E+00
 ETOT 22  -29.475794787174      3.553E-15 9.781E-21 0.000E+00

 At SCF step   22   max residual=  9.78E-21 < tolwfr=  1.00E-20 =>converged.

 ----iterations are completed or convergence reached----

 dfpt_looppert: DFPT cycle converged with prtwf=-1. Will skip output of the 1st-order WFK file.
 dfpt_looppert : ek2=    5.7038395951E+01
          f-sum rule ratio=    1.0112773687E+00
 prteigrs : about to open file /scratch/users/j/a/jabreu/flow_simple_11atoms/flow/w224/t1/tmpdata/tmp_1WF1_EIG
 Expectation of eigenvalue derivatives (hartree) for nkpt=   2  k points:
  (in case of degenerate eigenvalues, averaged derivative)
 kpt#   1, nband= 37, wtk=  0.50000, kpt=  0.0000  0.0000  0.5000 (reduced coord)
   0.00000    0.00000    0.00000    0.00000   -0.00000   -0.00000    0.00000    0.00000
  -0.00000   -0.00000   -0.00000   -0.00000    0.00000    0.00000    0.00000    0.00000
  -0.00000   -0.00000   -0.00000   -0.00000   -0.00000   -0.00000    0.00000    0.00000
   0.00000    0.00000   -0.00000   -0.00000   -0.00000   -0.00000    0.00000    0.00000
   0.00000    0.00000    0.00000    0.00000   -0.02829
 prteigrs : prtvol=0 or 1, do not print more k-points.

 Eight components of 2nd-order total energy (hartree) are
 1,2,3: 0th-order hamiltonian combined with 1st-order wavefunctions
     kin0=   3.75621905E+01 eigvalue=   2.52365375E+00  local=  -1.43523743E+01
 4,5,6: 1st-order hamiltonian combined with 1st and 0th-order wfs
     kin1=  -5.76816390E+01  Hartree=   0.00000000E+00     xc=   0.00000000E+00
 7,8,9: eventually, occupation + non-local contributions
    edocc=   6.39111768E+00     enl0=  -2.64879293E+00   enl1=  -1.26995060E+00
 1-9 gives the relaxation energy (to be shifted if some occ is /=2.0)
   erelax=  -2.94757948E+01
  No Ewald or frozen-wf contrib.: the relaxation energy is the total one
 2DEtotal=   -0.2947579479E+02 Ha. Also 2DEtotal=   -0.802077166532E+03 eV
    (  non-var. 2DEtotal :   -2.9475794787E+01 Ha)

 CALCULATION OF EFFECTIVE MASSES
 NOTE : Additional infos (eff. mass eigenvalues, eigenvectors and, if degenerate, average mass) are available in stdout.

--- !WARNING
src_file: m_efmas.F90
src_line: 0
message: |
    Effective masses calculations require given k-point(s) to be band extrema for given bands, but max abs gradient of band(s) was found to be greater than 1e-5. Abinit will continue anyway.
...

 COMMENTS:
 - At k-point ( 0.000, 0.000, 0.500), bands    27 through    28
   are DEGENERATE (effective mass tensor is therefore not defined).
   See Section IIIB Eqs. (67)-(70) and Appendix E of PRB 93 205147 (2016).
 - Angular average effective mass for Frohlich model is to be averaged over degenerate bands. See later.
 - Associated theta integrals calculated with ntheta=   1000 points.

 K-point ( 0.000, 0.000, 0.500) | band =    27
 Transport equivalent effective mass tensor:
             -2.9006930483              0.1407654120              0.0000000258
              0.1407654120             -2.7369571925             -0.0000000135
              0.0000000258             -0.0000000135             -1.5641781033
 Transport equivalent effective mass tensor eigenvalues:
             -2.9816663278             -2.6559839130             -1.5641781033
 Angular average effective mass 1/(<1/m>)=  -1.9088213758
 Angular average effective mass for Frohlich model (<m**0.5>)**2=  -1.9546391355
 Effective masses along directions: (cart. coord. / red. coord. -> eff. mass)
    1:   1.000000  0.000000  0.000000 /   0.892628 -0.450794  0.000000 ->  -2.5377815140
    2:   0.000000  1.000000  0.000000 /   0.000000  1.000000  0.000000 ->  -2.9556110750
    3:   0.000000  0.000000  1.000000 /   0.000000  0.000000  1.000000 ->  -1.8934133254
    4:   0.577350  0.577350  0.577350 /   0.730767  0.261680  0.630479 ->  -1.6372093404
    5:   0.000000  0.707107  0.707107 /   0.000000  0.707248  0.706965 ->  -1.5498791715
    6:   0.707107  0.000000  0.707107 /   0.707212 -0.357155  0.610156 ->  -1.7162757170
    7:   0.707107  0.707107  0.000000 /   0.941459  0.337127  0.000000 ->  -3.1388286300

 K-point ( 0.000, 0.000, 0.500) | band =    28
 Transport equivalent effective mass tensor:
             -5.3826272005             -1.4359812569              0.0000000831
             -1.4359812569             -7.0618317534             -0.0000000284
              0.0000000831             -0.0000000284             -4.6440936159
 Transport equivalent effective mass tensor eigenvalues:
             -7.8856518986             -4.6440936159             -4.5588070553
 Angular average effective mass 1/(<1/m>)=  -3.1598511106
 Angular average effective mass for Frohlich model (<m**0.5>)**2=  -3.3877833190
 Effective masses along directions: (cart. coord. / red. coord. -> eff. mass)
    1:   1.000000  0.000000  0.000000 /   0.892628 -0.450794  0.000000 ->  -2.5377815599
    2:   0.000000  1.000000  0.000000 /   0.000000  1.000000  0.000000 ->  -2.9556112530
    3:   0.000000  0.000000  1.000000 /   0.000000  0.000000  1.000000 ->  -1.8934133743
    4:   0.577350  0.577350  0.577350 /   0.730767  0.261680  0.630479 ->  -6.0208588613
    5:   0.000000  0.707107  0.707107 /   0.000000  0.707248  0.706965 ->  -4.5192716225
    6:   0.707107  0.000000  0.707107 /   0.707212 -0.357155  0.610156 ->  -2.9452071467
    7:   0.707107  0.707107  0.000000 /   0.941459  0.337127  0.000000 ->  -3.1388288043

 Angular average effective mass for Frohlich model, averaged over degenerate bands.
 Value of     (<<m**0.5>>)**2 =     2.622258E+00
 Absolute Value of <<m**0.5>> =     1.619339E+00

 K-point ( 0.000, 0.000, 0.000) | band =    29
 Effective mass tensor:
              0.6041319455             -0.0281211840              0.0000000527
             -0.0281211840              0.5712236247              0.0000000140
              0.0000000527              0.0000000140              0.5048657670
 Effective mass tensor eigenvalues:
              0.5048657670              0.5550964962              0.6202590740
 Angular average effective mass 1/(<1/m>)=   0.5561278903
 Angular average effective mass for Frohlich model (<m**0.5>)**2=   0.5573032759
 Effective masses along directions: (cart. coord. / red. coord. -> eff. mass)
    1:   1.000000  0.000000  0.000000 /   0.892628 -0.450794  0.000000 ->   0.6027475473
    2:   0.000000  1.000000  0.000000 /   0.000000  1.000000  0.000000 ->   0.5699146375
    3:   0.000000  0.000000  1.000000 /   0.000000  0.000000  1.000000 ->   0.5048657670
    4:   0.577350  0.577350  0.577350 /   0.730767  0.261680  0.630479 ->   0.5397825849
    5:   0.000000  0.707107  0.707107 /   0.000000  0.707248  0.706965 ->   0.5354217442
    6:   0.707107  0.000000  0.707107 /   0.707212 -0.357155  0.610156 ->   0.5494817156
    7:   0.707107  0.707107  0.000000 /   0.941459  0.337127  0.000000 ->   0.5591169456

 END OF EFFECTIVE MASSES SECTION

 ---- first-order wavefunction calculations are completed ----

 Total localisation tensor (bohr^2) in cartesian coordinates
  WARNING : still subject to testing - especially symmetries.
      direction              matrix element
   alpha     beta       real part   imaginary part
     1        1       0.9975941822    0.0000000000
     1        2      -0.3464716953    0.0000000000
     1        3       0.0000000000    0.0000000000
     2        1      -0.3464716953    0.0000000000
     2        2       0.5921416826    0.0000000000
     2        3       0.0000000000    0.0000000000
     3        1       0.0000000000    0.0000000000
     3        2       0.0000000000    0.0000000000
     3        3       0.5940686254    0.0000000000

 respfn : d/dk was computed, but no 2DTE, so no DDB output.

== END DATASET(S) ==============================================================

 -outvars: echo values of variables after computation  --------
            acell      1.0000000000E+00  1.0000000000E+00  1.0000000000E+00 Bohr
              amu      6.94100000E+00  2.80855000E+01  1.59994000E+01
             ecut      4.40000000E+01 Hartree
           etotal     -2.9475794787E+01
            fcart      0.0000000000E+00  0.0000000000E+00  0.0000000000E+00
                       0.0000000000E+00  0.0000000000E+00  0.0000000000E+00
                       0.0000000000E+00  0.0000000000E+00  0.0000000000E+00
                       0.0000000000E+00  0.0000000000E+00  0.0000000000E+00
                       0.0000000000E+00  0.0000000000E+00  0.0000000000E+00
                       0.0000000000E+00  0.0000000000E+00  0.0000000000E+00
                       0.0000000000E+00  0.0000000000E+00  0.0000000000E+00
                       0.0000000000E+00  0.0000000000E+00  0.0000000000E+00
                       0.0000000000E+00  0.0000000000E+00  0.0000000000E+00
                       0.0000000000E+00  0.0000000000E+00  0.0000000000E+00
                       0.0000000000E+00  0.0000000000E+00  0.0000000000E+00
                       0.0000000000E+00  0.0000000000E+00  0.0000000000E+00
-          fftalg         512
           irdden           1
           irdwfk           1
           istwfk        1    1
              ixc     -116133
              kpt      0.00000000E+00  0.00000000E+00  5.00000000E-01
                       0.00000000E+00  0.00000000E+00  0.00000000E+00
           kptopt           0
P           mkmem           2
P          mkqmem           2
P          mk1mem           2
            natom          12
            nband          37
           nbdbuf           4
            ngfft          64      64      54
             nkpt           2
            nstep        2000
             nsym           4
           ntypat           3
              occ      2.000000  2.000000  2.000000  2.000000  2.000000  2.000000
                       2.000000  2.000000  2.000000  2.000000  2.000000  2.000000
                       2.000000  2.000000  2.000000  2.000000  2.000000  2.000000
                       2.000000  2.000000  2.000000  2.000000  2.000000  2.000000
                       2.000000  2.000000  2.000000  2.000000  0.000000  0.000000
                       0.000000  0.000000  0.000000  0.000000  0.000000  0.000000
                       0.000000
        optdriver           1
            prtwf          -1
            rfdir           1       1       1
           rfelfd           2
            rprim      1.0205017051E+01  0.0000000000E+00  0.0000000000E+00
                      -5.1537245506E+00  8.8080358910E+00  0.0000000000E+00
                       0.0000000000E+00  0.0000000000E+00  8.8045107461E+00
          spgroup          36
           strten      0.0000000000E+00  0.0000000000E+00  0.0000000000E+00
                       0.0000000000E+00  0.0000000000E+00  0.0000000000E+00
           symrel      1  0  0   0  1  0   0  0  1       0 -1  0  -1  0  0   0  0  1
                      -1  0  0   0 -1  0   0  0  1       0  1  0   1  0  0   0  0  1
            tnons      0.0000000  0.0000000  0.0000000     0.0000000  0.0000000  0.5000000
                       0.0000000  0.0000000  0.5000000     0.0000000  0.0000000  0.0000000
           tolwfr      1.00000000E-20
            typat      1  1  1  1  2  2  3  3  3  3  3  3
           useylm           1
              wtk        0.50000    0.50000
           xangst     -4.9477272570E-01  2.4129499005E+00  4.6361395546E+00
                       3.1678015906E+00  2.2480619454E+00  2.3065663448E+00
                       3.4052206428E-01  3.8694694923E+00  2.3065663448E+00
                       2.3325068006E+00  7.9154235370E-01  4.6361395546E+00
                       4.6015924606E-01  8.0238852827E-01  2.3244155347E+00
                       2.2128696188E+00  3.8586233177E+00  4.6539887445E+00
                       3.1154953329E-01  5.4325491368E-01  6.6447348493E-01
                       2.0127426535E+00  7.6665721146E-01  2.7106121814E+00
                      -3.5476442367E-01  2.1243913181E+00  2.7106121814E+00
                       2.3614793316E+00  4.1177569323E+00  2.9940466947E+00
                       3.0277932885E+00  2.5366205278E+00  3.8103897164E-01
                       6.6028621142E-01  3.8943546345E+00  3.8103897164E-01
            xcart     -9.3498494960E-01  4.5598144843E+00  8.7610340720E+00
                       5.9862774495E+00  4.2482214067E+00  4.3587786990E+00
                       6.4349344369E-01  7.3122376199E+00  4.3587786990E+00
                       4.4077990562E+00  1.4957982711E+00  8.7610340720E+00
                       8.6957495257E-01  1.5162945706E+00  4.3925087797E+00
                       4.1817175473E+00  7.2917413204E+00  8.7947641527E+00
                       5.8874329474E-01  1.0266030072E+00  1.2556729091E+00
                       3.8035323910E+00  1.4487721675E+00  5.1223146754E+00
                      -6.7040760243E-01  4.0145177904E+00  5.1223146754E+00
                       4.4625492052E+00  7.7814328838E+00  5.6579282821E+00
                       5.7217001023E+00  4.7935181006E+00  7.2005930235E-01
                       1.2477601089E+00  7.3592637235E+00  7.2005930235E-01
             xred      1.6982200000E-01  5.1768800000E-01  9.9506200000E-01
                       8.3017800000E-01  4.8231200000E-01  4.9506200000E-01
                       4.8231200000E-01  8.3017800000E-01  4.9506200000E-01
                       5.1768800000E-01  1.6982200000E-01  9.9506200000E-01
                       1.7214900000E-01  1.7214900000E-01  4.9889300000E-01
                       8.2785100000E-01  8.2785100000E-01  9.9889300000E-01
                       1.1655300000E-01  1.1655300000E-01  1.4261700000E-01
                       4.5577900000E-01  1.6448300000E-01  5.8178300000E-01
                       1.6448300000E-01  4.5577900000E-01  5.8178300000E-01
                       8.8344700000E-01  8.8344700000E-01  6.4261700000E-01
                       8.3551700000E-01  5.4422100000E-01  8.1783000000E-02
                       5.4422100000E-01  8.3551700000E-01  8.1783000000E-02
            znucl        3.00000   14.00000    8.00000

- Timing analysis has been suppressed with timopt=0

 Suggested references for the acknowledgment of ABINIT usage.

 Calculation completed.
.Delivered   4 WARNINGs and   5 COMMENTs to log file.