.Version 9.5.2 of ABINIT

 ABINIT is a project of the Universite Catholique de Louvain,
 Corning Inc. and other collaborators, see ~abinit/doc/developers/contributors.txt .
 acknowledgments of the ABINIT effort.

.Starting date : Mon 24 May 2021.
- ( at 23h08 )

- input  file    -> /scratch/users/j/a/jabreu/flow_simple_10atoms/flow/w475/t1/run.abi
- output file    -> /scratch/users/j/a/jabreu/flow_simple_10atoms/flow/w475/t1/run.abo
- root for input  files -> /scratch/users/j/a/jabreu/flow_simple_10atoms/flow/w475/t1/indata/in
- root for output files -> /scratch/users/j/a/jabreu/flow_simple_10atoms/flow/w475/t1/outdata/out

 Symmetries : space group Cm c m (# 63); Bravais oC (1-face-center ortho.)
     intxc =       0      iscf =       7    lmnmax =      18     lnmax =       6
     mgfft =      80  mpssoang =       3    mqgrid =    3128     natom =      10
  nloc_mem =       1    nspden =       1   nspinor =       1    nsppol =       1
      nsym =       8    n1xccc =    2501    ntypat =       4    occopt =       1
   xclevel =       2
-    mband =          53        mffmem =           1         mkmem =           2
-   mkqmem =           2        mk1mem =           2           mpw =       19286
      nfft =      409600          nkpt =           2
  Rough estimation (10% accuracy) of disk space for files :

------------- Echo of variables that govern the present computation ------------
-
- outvars: echo of selected default values
-   iomode0 =  0 , fftalg0 =512 , wfoptalg0 =  0
-
- outvars: echo of global parameters not present in the input file
-  max_nthreads =    0
-
 -outvars: echo values of preprocessed input variables --------
            acell      1.0000000000E+00  1.0000000000E+00  1.0000000000E+00 Bohr
              amu      1.37327000E+02  1.21753000E+02  3.54527000E+01
                       1.59994000E+01
             ecut      4.40000000E+01 Hartree
-          fftalg         512
           irdden           1
           irdwfk           1
           istwfk        1    0
              ixc     -116133
              kpt      0.00000000E+00  5.00000000E-01  0.00000000E+00
                       1.66706680E-01  1.66706680E-01  0.00000000E+00
           kptopt           0
P           mkmem           2
P          mkqmem           2
P          mk1mem           2
            natom          10
            nband          53
           nbdbuf           4
            ngfft          80      80      64
             nkpt           2
            nstep        2000
             nsym           8
           ntypat           4
              occ      2.000000  2.000000  2.000000  2.000000  2.000000  2.000000
                       2.000000  2.000000  2.000000  2.000000  2.000000  2.000000
                       2.000000  2.000000  2.000000  2.000000  2.000000  2.000000
                       2.000000  2.000000  2.000000  2.000000  2.000000  2.000000
                       2.000000  2.000000  2.000000  2.000000  2.000000  2.000000
                       2.000000  2.000000  2.000000  2.000000  2.000000  2.000000
                       2.000000  2.000000  2.000000  2.000000  2.000000  2.000000
                       2.000000  2.000000  0.000000  0.000000  0.000000  0.000000
                       0.000000  0.000000  0.000000  0.000000  0.000000
        optdriver           1
            prtwf          -1
            rfdir           1       1       1
           rfelfd           2
            rprim      1.3177268005E+01  0.0000000000E+00  0.0000000000E+00
                      -8.5600054818E+00  1.0018318133E+01  0.0000000000E+00
                       0.0000000000E+00  0.0000000000E+00  1.0475315841E+01
          spgroup          63
           symrel      1  0  0   0  1  0   0  0  1      -1  0  0   0 -1  0   0  0 -1
                       0  1  0   1  0  0   0  0 -1       0 -1  0  -1  0  0   0  0  1
                      -1  0  0   0 -1  0   0  0  1       1  0  0   0  1  0   0  0 -1
                       0 -1  0  -1  0  0   0  0 -1       0  1  0   1  0  0   0  0  1
            tnons      0.0000000  0.0000000  0.0000000     0.0000000  0.0000000 -0.0000000
                       0.0000000  0.0000000 -0.0000000     0.0000000  0.0000000  0.0000000
                       0.0000000  0.0000000  0.5000000     0.0000000  0.0000000  0.5000000
                       0.0000000  0.0000000  0.5000000     0.0000000  0.0000000  0.5000000
           tolwfr      1.00000000E-20
            typat      1  1  2  2  3  3  4  4  4  4
           useylm           1
              wtk        0.50000    0.50000
           xangst     -2.5599509872E-01  3.3317643878E+00  4.1574737968E+00
                       2.6993451919E+00  1.9697012367E+00  1.3858245989E+00
                      -3.7124118966E+00  4.9247646831E+00  4.1574737968E+00
                       6.1557619897E+00  3.7670094141E-01  1.3858245989E+00
                      -1.6314507438E+00  3.9656871399E+00  1.3858245989E+00
                       4.0748008369E+00  1.3357784846E+00  4.1574737968E+00
                       1.9061209348E+00  4.1358111718E+00  2.7716491979E+00
                       5.3722915838E-01  1.1656544527E+00  0.0000000000E+00
                       1.9061209348E+00  4.1358111718E+00  0.0000000000E+00
                       5.3722915838E-01  1.1656544527E+00  2.7716491979E+00
            xcart     -4.8376062794E-01  6.2961222323E+00  7.8564868807E+00
                       5.1010231507E+00  3.7221959009E+00  2.6188289602E+00
                      -7.0154417770E+00  9.3064565199E+00  7.8564868807E+00
                       1.1632704300E+01  7.1186161327E-01  2.6188289602E+00
                      -3.0829951051E+00  7.4940626231E+00  2.6188289602E+00
                       7.7002576279E+00  2.5242555101E+00  7.8564868807E+00
                       3.6020465429E+00  7.8155504520E+00  5.2376579204E+00
                       1.0152159799E+00  2.2027676812E+00  0.0000000000E+00
                       3.6020465429E+00  7.8155504520E+00  0.0000000000E+00
                       1.0152159799E+00  2.2027676812E+00  5.2376579204E+00
             xred      3.7153900000E-01  6.2846100000E-01  7.5000000000E-01
                       6.2846100000E-01  3.7153900000E-01  2.5000000000E-01
                       7.1056000000E-02  9.2894400000E-01  7.5000000000E-01
                       9.2894400000E-01  7.1056000000E-02  2.5000000000E-01
                       2.5196400000E-01  7.4803600000E-01  2.5000000000E-01
                       7.4803600000E-01  2.5196400000E-01  7.5000000000E-01
                       7.8012600000E-01  7.8012600000E-01  5.0000000000E-01
                       2.1987400000E-01  2.1987400000E-01  0.0000000000E+00
                       7.8012600000E-01  7.8012600000E-01  0.0000000000E+00
                       2.1987400000E-01  2.1987400000E-01  5.0000000000E-01
            znucl       56.00000   51.00000   17.00000    8.00000

 chkinp: Checking input parameters for consistency.

== DATASET  1 ==================================================================
-   mpi_nproc: 1, omp_nthreads: -1 (-1 if OMP is not activated)

--- !DatasetInfo
iteration_state: {dtset: 1, }
dimensions: {natom: 10, nkpt: 2, mband: 53, nsppol: 1, nspinor: 1, nspden: 1, mpw: 19286, }
cutoff_energies: {ecut:  44.0, pawecutdg:  -1.0, }
electrons: {nelect:   8.80000000E+01, charge:   0.00000000E+00, occopt:   1.00000000E+00, tsmear:   1.00000000E-02, }
meta: {optdriver: 1, rfelfd: 2, }
...

 Real(R)+Recip(G) space primitive vectors, cartesian coordinates (Bohr,Bohr^-1):
 R(1)= 13.1772680  0.0000000  0.0000000  G(1)=  0.0758883  0.0648416  0.0000000
 R(2)= -8.5600055 10.0183181  0.0000000  G(2)=  0.0000000  0.0998172  0.0000000
 R(3)=  0.0000000  0.0000000 10.4753158  G(3)=  0.0000000  0.0000000  0.0954625
 Unit cell volume ucvol=  1.3828890E+03 bohr^3
 Angles (23,13,12)=  9.00000000E+01  9.00000000E+01  1.30511749E+02 degrees

 getcut: wavevector=  0.0000  0.0000  0.0000  ngfft=  80  80  64
         ecut(hartree)=     44.000   => boxcut(ratio)=   2.03317

--- Pseudopotential description ------------------------------------------------
- pspini: atom type   1  psp file is /scratch/users/j/a/jabreu/pseudos/PBEsol/Ba.psp8
- pspatm: opening atomic psp file    /scratch/users/j/a/jabreu/pseudos/PBEsol/Ba.psp8
- Ba    ONCVPSP-3.3.0  r_core=   2.15444   1.91218   2.15444
- 56.00000  10.00000    180112                znucl, zion, pspdat
    8 -116133    2    4       600   0.00000   pspcod,pspxc,lmax,lloc,mmax,r2well
    5.99000000000000    5.00000000000000    0.00000000000000   rchrg,fchrg,qchrg
     nproj     2     2     2
     extension_switch     1
  pspatm : epsatm=   26.37418029
         --- l  ekb(1:nproj) -->
             0    6.652372    0.677024
             1    5.027722    0.408462
             2    2.543237    0.416854
 pspatm: atomic psp has been read  and splines computed

- pspini: atom type   2  psp file is /scratch/users/j/a/jabreu/pseudos/PBEsol/Sb.psp8
- pspatm: opening atomic psp file    /scratch/users/j/a/jabreu/pseudos/PBEsol/Sb.psp8
- Sb    ONCVPSP-3.3.0  r_core=   1.81962   2.12485   1.81962
- 51.00000  15.00000    180112                znucl, zion, pspdat
    8 -116133    2    4       600   0.00000   pspcod,pspxc,lmax,lloc,mmax,r2well
    5.99000000000000    5.00000000000000    0.00000000000000   rchrg,fchrg,qchrg
     nproj     2     2     2
     extension_switch     1
  pspatm : epsatm=   26.35641246
         --- l  ekb(1:nproj) -->
             0    9.727814    1.485032
             1    5.505335    0.704623
             2   -4.710637   -1.436443
 pspatm: atomic psp has been read  and splines computed

[...]

- pspini: atom type   4  psp file is /scratch/users/j/a/jabreu/pseudos/PBEsol/O.psp8
- pspatm: opening atomic psp file    /scratch/users/j/a/jabreu/pseudos/PBEsol/O.psp8
- O     ONCVPSP-3.3.0  r_core=   1.35509   1.45563   1.26150
-  8.00000   6.00000    180112                znucl, zion, pspdat
    8 -116133    2    4       600   0.00000   pspcod,pspxc,lmax,lloc,mmax,r2well
    5.99000000000000    4.00000000000000    0.00000000000000   rchrg,fchrg,qchrg
     nproj     2     2     1
     extension_switch     1
  pspatm : epsatm=    6.22910522
         --- l  ekb(1:nproj) -->
             0    6.050032    0.820363
             1   -4.739617   -1.153841
             2   -1.335834
 pspatm: atomic psp has been read  and splines computed

   1.30493458E+04                                ecore*ucvol(ha*bohr**3)

 ==>  initialize data related to q vector <==

 The list of irreducible perturbations for this q vector is:
    1)    idir= 1    ipert=  11
    2)    idir= 2    ipert=  11
    3)    idir= 3    ipert=  11

 Perturbation wavevector (in red.coord.)   0.000000  0.000000  0.000000
 Perturbation : derivative vs k along direction   1

 dfpt_looppert : COMMENT -
  In a d/dk calculation, iscf is set to -3 automatically.
 The set of symmetries contains only one element for this perturbation.
 symkpt : not enough symmetry to change the number of k points.

 Initialisation of the first-order wave-functions :
  ireadwf=   0

--- !BeginCycle
iteration_state: {dtset: 1, }
solver: {iscf: 7, nstep: 2000, nline: 4, wfoptalg: 0, }
tolerances: {tolwfr: 1.00E-20, }
[...]
          f-sum rule ratio=    1.0009761867E+00
 prteigrs : about to open file /scratch/users/j/a/jabreu/flow_simple_10atoms/flow/w475/t1/tmpdata/tmp_1WF1_EIG
 Expectation of eigenvalue derivatives (hartree) for nkpt=   2  k points:
  (in case of degenerate eigenvalues, averaged derivative)
 kpt#   1, nband= 53, wtk=  0.50000, kpt=  0.0000  0.5000  0.0000 (reduced coord)
  -0.00000   -0.00000    0.00000   -0.00000   -0.00000    0.00000    0.00000    0.00000
  -0.00000   -0.00000   -0.00000    0.00000    0.00000    0.00000   -0.00000   -0.00000
   0.00000   -0.00000    0.00000   -0.00000    0.00000   -0.00000   -0.00000    0.00000
  -0.00000    0.00000   -0.00000   -0.00000    0.00000    0.00000   -0.00000   -0.00000
  -0.00000   -0.00000   -0.00000   -0.00000   -0.00000    0.00000   -0.00000   -0.00000
   0.00000   -0.00000    0.00000    0.00000   -0.00000    0.00000   -0.00000   -0.00000
  -0.00000   -0.00000    0.00000    0.00000    0.00284
 prteigrs : prtvol=0 or 1, do not print more k-points.

 Eight components of 2nd-order total energy (hartree) are
 1,2,3: 0th-order hamiltonian combined with 1st-order wavefunctions
     kin0=   6.67381717E+01 eigvalue=   4.50402740E+00  local=  -3.69451295E+01
 4,5,6: 1st-order hamiltonian combined with 1st and 0th-order wfs
     kin1=  -6.92957362E+01  Hartree=   0.00000000E+00     xc=   0.00000000E+00
 7,8,9: eventually, occupation + non-local contributions
    edocc=   8.03560983E+00     enl0=   7.16677458E+00   enl1=  -2.97031720E+01
 1-9 gives the relaxation energy (to be shifted if some occ is /=2.0)
   erelax=  -4.94994541E+01
  No Ewald or frozen-wf contrib.: the relaxation energy is the total one
 2DEtotal=   -0.4949945408E+02 Ha. Also 2DEtotal=   -0.134694864594E+04 eV
    (  non-var. 2DEtotal :   -4.9499454084E+01 Ha)

 Perturbation wavevector (in red.coord.)   0.000000  0.000000  0.000000
 Perturbation : derivative vs k along direction   2
 The set of symmetries contains only one element for this perturbation.
 symkpt : not enough symmetry to change the number of k points.

[...]

 Perturbation wavevector (in red.coord.)   0.000000  0.000000  0.000000
 Perturbation : derivative vs k along direction   3
 The set of symmetries contains only one element for this perturbation.
 symkpt : not enough symmetry to change the number of k points.

 Initialisation of the first-order wave-functions :
  ireadwf=   0

--- !BeginCycle
iteration_state: {dtset: 1, }
solver: {iscf: 7, nstep: 2000, nline: 4, wfoptalg: 0, }
tolerances: {tolwfr: 1.00E-20, }
...

     iter   2DEtotal(Ha)        deltaE(Ha) residm    vres2
-ETOT  1  -46.574884391654     -4.657E+01 6.412E-02 0.000E+00
 ETOT  2  -46.661610394870     -8.673E-02 3.740E-03 0.000E+00
 ETOT  3  -46.662572565497     -9.622E-04 2.231E-04 0.000E+00
 ETOT  4  -46.662592906712     -2.034E-05 5.516E-05 0.000E+00
 ETOT  5  -46.662593441051     -5.343E-07 1.268E-05 0.000E+00
 ETOT  6  -46.662593457074     -1.602E-08 3.927E-06 0.000E+00
 ETOT  7  -46.662593457606     -5.313E-10 9.299E-07 0.000E+00
 ETOT  8  -46.662593457625     -1.894E-11 2.943E-07 0.000E+00
 ETOT  9  -46.662593457625     -7.105E-13 6.960E-08 0.000E+00
 ETOT 10  -46.662593457625     -4.263E-14 2.244E-08 0.000E+00
 ETOT 11  -46.662593457625     -7.105E-15 5.281E-09 0.000E+00
 ETOT 12  -46.662593457625     -1.421E-14 1.729E-09 0.000E+00
 ETOT 13  -46.662593457625      2.132E-14 4.050E-10 0.000E+00
 ETOT 14  -46.662593457625      0.000E+00 1.341E-10 0.000E+00
 ETOT 15  -46.662593457625      0.000E+00 3.129E-11 0.000E+00
 ETOT 16  -46.662593457625      0.000E+00 1.045E-11 0.000E+00
 ETOT 17  -46.662593457625      0.000E+00 2.431E-12 0.000E+00
 ETOT 18  -46.662593457625      0.000E+00 8.161E-13 0.000E+00
 ETOT 19  -46.662593457625      0.000E+00 1.896E-13 0.000E+00
 ETOT 20  -46.662593457625      0.000E+00 6.388E-14 0.000E+00
 ETOT 21  -46.662593457625      1.421E-14 1.483E-14 0.000E+00
 ETOT 22  -46.662593457625     -2.132E-14 5.009E-15 0.000E+00
 ETOT 23  -46.662593457625      0.000E+00 1.163E-15 0.000E+00
 ETOT 24  -46.662593457625     -7.105E-15 3.934E-16 0.000E+00
 ETOT 25  -46.662593457625      7.105E-15 9.138E-17 0.000E+00
 ETOT 26  -46.662593457625      0.000E+00 3.095E-17 0.000E+00
 ETOT 27  -46.662593457625     -7.105E-15 7.198E-18 0.000E+00
 ETOT 28  -46.662593457625      7.105E-15 2.440E-18 0.000E+00
 ETOT 29  -46.662593457625     -1.421E-14 5.683E-19 0.000E+00
 ETOT 30  -46.662593457625      1.421E-14 1.927E-19 0.000E+00
 ETOT 31  -46.662593457625     -7.105E-15 4.496E-20 0.000E+00
 ETOT 32  -46.662593457625      0.000E+00 1.525E-20 0.000E+00
 ETOT 33  -46.662593457625     -2.132E-14 9.922E-21 0.000E+00

 At SCF step   33   max residual=  9.92E-21 < tolwfr=  1.00E-20 =>converged.

 ----iterations are completed or convergence reached----

 dfpt_looppert: DFPT cycle converged with prtwf=-1. Will skip output of the 1st-order WFK file.
 dfpt_looppert : ek2=    6.3319598450E+01
          f-sum rule ratio=    1.0559658129E+00
 prteigrs : about to open file /scratch/users/j/a/jabreu/flow_simple_10atoms/flow/w475/t1/tmpdata/tmp_1WF1_EIG
 Expectation of eigenvalue derivatives (hartree) for nkpt=   2  k points:
  (in case of degenerate eigenvalues, averaged derivative)
 kpt#   1, nband= 53, wtk=  0.50000, kpt=  0.0000  0.5000  0.0000 (reduced coord)
   0.00000   -0.00000   -0.00000   -0.00000   -0.00000   -0.00000   -0.00000   -0.00000
  -0.00000   -0.00000    0.00000    0.00000   -0.00000   -0.00000   -0.00000   -0.00000
   0.00000   -0.00000    0.00000   -0.00000   -0.00000   -0.00000   -0.00000   -0.00000
  -0.00000   -0.00000    0.00000    0.00000    0.00000    0.00000   -0.00000    0.00000
   0.00000   -0.00000   -0.00000   -0.00000    0.00000    0.00000   -0.00000    0.00000
   0.00000    0.00000   -0.00000    0.00000    0.00000   -0.00000    0.00000    0.00000
  -0.00000   -0.00000   -0.00000    0.00000    0.00178
 prteigrs : prtvol=0 or 1, do not print more k-points.

 Eight components of 2nd-order total energy (hartree) are
 1,2,3: 0th-order hamiltonian combined with 1st-order wavefunctions
     kin0=   6.21804854E+01 eigvalue=   3.77357245E+00  local=  -3.49202743E+01
 4,5,6: 1st-order hamiltonian combined with 1st and 0th-order wfs
     kin1=  -6.68633313E+01  Hartree=   0.00000000E+00     xc=   0.00000000E+00
 7,8,9: eventually, occupation + non-local contributions
    edocc=   8.03324320E+00     enl0=   7.59556668E+00   enl1=  -2.64618557E+01
 1-9 gives the relaxation energy (to be shifted if some occ is /=2.0)
   erelax=  -4.66625935E+01
  No Ewald or frozen-wf contrib.: the relaxation energy is the total one
 2DEtotal=   -0.4666259346E+02 Ha. Also 2DEtotal=   -0.126975374248E+04 eV
    (  non-var. 2DEtotal :   -4.6662593457E+01 Ha)

 CALCULATION OF EFFECTIVE MASSES
 NOTE : Additional infos (eff. mass eigenvalues, eigenvectors and, if degenerate, average mass) are available in stdout.

 K-point ( 0.000, 0.500, 0.000) | band =    44
 Effective mass tensor:
            -68.5630092239             74.9622208473             -0.0020426503
             74.9622208473            -84.9629767285              0.0021870211
             -0.0020426503              0.0021870211             -4.1254620699
 Effective mass tensor eigenvalues:
           -152.1723710204             -4.1254620108             -1.3536149911
 Angular average effective mass 1/(<1/m>)=  -3.0372639107
 Angular average effective mass for Frohlich model (<m**0.5>)**2=  -4.8175189101
 Effective masses along directions: (cart. coord. / red. coord. -> eff. mass)
    1:   1.000000  0.000000  0.000000 /   0.838595 -0.544755  0.000000 ->  -2.4243830717
    2:   0.000000  1.000000  0.000000 /   0.000000  1.000000  0.000000 ->  -3.0042847457
    3:   0.000000  0.000000  1.000000 /   0.000000  0.000000  1.000000 ->  -4.1254620083
    4:   0.577350  0.577350  0.577350 /   0.779871  0.086307  0.619961 ->  -1.7487099882
    5:   0.000000  0.707107  0.707107 /   0.000000  0.691167  0.722695 ->  -3.4767640143
    6:   0.707107  0.000000  0.707107 /   0.697761 -0.453268  0.554687 ->  -3.0541319453
    7:   0.707107  0.707107  0.000000 /   0.993932  0.109997  0.000000 ->  -1.3576042995

 K-point ( 0.167, 0.167, 0.000) | band =    45
 Effective mass tensor:
              1.1173980718             -0.1624694939             -0.0000018823
             -0.1624694939              0.8397236221              0.0000007405
             -0.0000018823              0.0000007405              0.4857053830
 Effective mass tensor eigenvalues:
              0.4857053830              0.7648505022              1.1922711917
 Angular average effective mass 1/(<1/m>)=   0.7134293160
 Angular average effective mass for Frohlich model (<m**0.5>)**2=   0.7421498569
 Effective masses along directions: (cart. coord. / red. coord. -> eff. mass)
    1:   1.000000  0.000000  0.000000 /   0.838595 -0.544755  0.000000 ->   1.0859635191
    2:   0.000000  1.000000  0.000000 /   0.000000  1.000000  0.000000 ->   0.8161005847
    3:   0.000000  0.000000  1.000000 /   0.000000  0.000000  1.000000 ->   0.4857053830
    4:   0.577350  0.577350  0.577350 /   0.779871  0.086307  0.619961 ->   0.6576965446
    5:   0.000000  0.707107  0.707107 /   0.000000  0.691167  0.722695 ->   0.6089766696
    6:   0.707107  0.000000  0.707107 /   0.697761 -0.453268  0.554687 ->   0.6712064595
    7:   0.707107  0.707107  0.000000 /   0.993932  0.109997  0.000000 ->   0.7991980468

 END OF EFFECTIVE MASSES SECTION

 ---- first-order wavefunction calculations are completed ----

 Total localisation tensor (bohr^2) in cartesian coordinates
  WARNING : still subject to testing - especially symmetries.
      direction              matrix element
   alpha     beta       real part   imaginary part
     1        1       2.1556133095    0.0000000000
     1        2      -0.7374374907    0.0000000000
     1        3       0.0000000000    0.0000000000
     2        1      -0.7374374907    0.0000000000
     2        2       0.8630699363    0.0000000000
     2        3       0.0000000000    0.0000000000
     3        1       0.0000000000    0.0000000000
     3        2       0.0000000000    0.0000000000
     3        3       0.9982016285    0.0000000000

 respfn : d/dk was computed, but no 2DTE, so no DDB output.

== END DATASET(S) ==============================================================

 -outvars: echo values of variables after computation  --------
            acell      1.0000000000E+00  1.0000000000E+00  1.0000000000E+00 Bohr
              amu      1.37327000E+02  1.21753000E+02  3.54527000E+01
                       1.59994000E+01
             ecut      4.40000000E+01 Hartree
           etotal     -4.6662593458E+01
            fcart      0.0000000000E+00  0.0000000000E+00  0.0000000000E+00
                       0.0000000000E+00  0.0000000000E+00  0.0000000000E+00
                       0.0000000000E+00  0.0000000000E+00  0.0000000000E+00
                       0.0000000000E+00  0.0000000000E+00  0.0000000000E+00
                       0.0000000000E+00  0.0000000000E+00  0.0000000000E+00
                       0.0000000000E+00  0.0000000000E+00  0.0000000000E+00
                       0.0000000000E+00  0.0000000000E+00  0.0000000000E+00
                       0.0000000000E+00  0.0000000000E+00  0.0000000000E+00
                       0.0000000000E+00  0.0000000000E+00  0.0000000000E+00
                       0.0000000000E+00  0.0000000000E+00  0.0000000000E+00
-          fftalg         512
           irdden           1
           irdwfk           1
           istwfk        1    0
              ixc     -116133
              kpt      0.00000000E+00  5.00000000E-01  0.00000000E+00
                       1.66706680E-01  1.66706680E-01  0.00000000E+00
           kptopt           0
P           mkmem           2
P          mkqmem           2
P          mk1mem           2
            natom          10
            nband          53
           nbdbuf           4
            ngfft          80      80      64
             nkpt           2
            nstep        2000
             nsym           8
           ntypat           4
              occ      2.000000  2.000000  2.000000  2.000000  2.000000  2.000000
                       2.000000  2.000000  2.000000  2.000000  2.000000  2.000000
                       2.000000  2.000000  2.000000  2.000000  2.000000  2.000000
                       2.000000  2.000000  2.000000  2.000000  2.000000  2.000000
                       2.000000  2.000000  2.000000  2.000000  2.000000  2.000000
                       2.000000  2.000000  2.000000  2.000000  2.000000  2.000000
                       2.000000  2.000000  2.000000  2.000000  2.000000  2.000000
                       2.000000  2.000000  0.000000  0.000000  0.000000  0.000000
                       0.000000  0.000000  0.000000  0.000000  0.000000
        optdriver           1
            prtwf          -1
            rfdir           1       1       1
           rfelfd           2
            rprim      1.3177268005E+01  0.0000000000E+00  0.0000000000E+00
                      -8.5600054818E+00  1.0018318133E+01  0.0000000000E+00
                       0.0000000000E+00  0.0000000000E+00  1.0475315841E+01
          spgroup          63
           strten      0.0000000000E+00  0.0000000000E+00  0.0000000000E+00
                       0.0000000000E+00  0.0000000000E+00  0.0000000000E+00
           symrel      1  0  0   0  1  0   0  0  1      -1  0  0   0 -1  0   0  0 -1
                       0  1  0   1  0  0   0  0 -1       0 -1  0  -1  0  0   0  0  1
                      -1  0  0   0 -1  0   0  0  1       1  0  0   0  1  0   0  0 -1
                       0 -1  0  -1  0  0   0  0 -1       0  1  0   1  0  0   0  0  1
            tnons      0.0000000  0.0000000  0.0000000     0.0000000  0.0000000 -0.0000000
                       0.0000000  0.0000000 -0.0000000     0.0000000  0.0000000  0.0000000
                       0.0000000  0.0000000  0.5000000     0.0000000  0.0000000  0.5000000
                       0.0000000  0.0000000  0.5000000     0.0000000  0.0000000  0.5000000
           tolwfr      1.00000000E-20
            typat      1  1  2  2  3  3  4  4  4  4
           useylm           1
              wtk        0.50000    0.50000
           xangst     -2.5599509872E-01  3.3317643878E+00  4.1574737968E+00
                       2.6993451919E+00  1.9697012367E+00  1.3858245989E+00
                      -3.7124118966E+00  4.9247646831E+00  4.1574737968E+00
                       6.1557619897E+00  3.7670094141E-01  1.3858245989E+00
                      -1.6314507438E+00  3.9656871399E+00  1.3858245989E+00
                       4.0748008369E+00  1.3357784846E+00  4.1574737968E+00
                       1.9061209348E+00  4.1358111718E+00  2.7716491979E+00
                       5.3722915838E-01  1.1656544527E+00  0.0000000000E+00
                       1.9061209348E+00  4.1358111718E+00  0.0000000000E+00
                       5.3722915838E-01  1.1656544527E+00  2.7716491979E+00
            xcart     -4.8376062794E-01  6.2961222323E+00  7.8564868807E+00
                       5.1010231507E+00  3.7221959009E+00  2.6188289602E+00
                      -7.0154417770E+00  9.3064565199E+00  7.8564868807E+00
                       1.1632704300E+01  7.1186161327E-01  2.6188289602E+00
                      -3.0829951051E+00  7.4940626231E+00  2.6188289602E+00
                       7.7002576279E+00  2.5242555101E+00  7.8564868807E+00
                       3.6020465429E+00  7.8155504520E+00  5.2376579204E+00
                       1.0152159799E+00  2.2027676812E+00  0.0000000000E+00
                       3.6020465429E+00  7.8155504520E+00  0.0000000000E+00
                       1.0152159799E+00  2.2027676812E+00  5.2376579204E+00
             xred      3.7153900000E-01  6.2846100000E-01  7.5000000000E-01
                       6.2846100000E-01  3.7153900000E-01  2.5000000000E-01
                       7.1056000000E-02  9.2894400000E-01  7.5000000000E-01
                       9.2894400000E-01  7.1056000000E-02  2.5000000000E-01
                       2.5196400000E-01  7.4803600000E-01  2.5000000000E-01
                       7.4803600000E-01  2.5196400000E-01  7.5000000000E-01
                       7.8012600000E-01  7.8012600000E-01  5.0000000000E-01
                       2.1987400000E-01  2.1987400000E-01  0.0000000000E+00
                       7.8012600000E-01  7.8012600000E-01  0.0000000000E+00
                       2.1987400000E-01  2.1987400000E-01  5.0000000000E-01
            znucl       56.00000   51.00000   17.00000    8.00000

- Timing analysis has been suppressed with timopt=0

 Suggested references for the acknowledgment of ABINIT usage.

 Calculation completed.
.Delivered   2 WARNINGs and   5 COMMENTs to log file.