.Version 9.5.2 of ABINIT

 ABINIT is a project of the Universite Catholique de Louvain,
 Corning Inc. and other collaborators, see ~abinit/doc/developers/contributors.txt .
 acknowledgments of the ABINIT effort.

.Starting date : Mon 31 May 2021.
- ( at 22h10 )

- input  file    -> /scratch/users/j/a/jabreu/flow_simple_11atoms/flow/w347/t1/run.abi
- output file    -> /scratch/users/j/a/jabreu/flow_simple_11atoms/flow/w347/t1/run.abo
- root for input  files -> /scratch/users/j/a/jabreu/flow_simple_11atoms/flow/w347/t1/indata/in
- root for output files -> /scratch/users/j/a/jabreu/flow_simple_11atoms/flow/w347/t1/outdata/out

 Symmetries : space group Ib a m (# 72); Bravais oI (body-center ortho.)
     intxc =       0      iscf =       7    lmnmax =      18     lnmax =       6
     mgfft =      96  mpssoang =       3    mqgrid =    3384     natom =      12
  nloc_mem =       1    nspden =       1   nspinor =       1    nsppol =       1
      nsym =       8    n1xccc =    2501    ntypat =       3    occopt =       1
   xclevel =       2
-    mband =          49        mffmem =           1         mkmem =           2
-   mkqmem =           2        mk1mem =           2           mpw =       25057
      nfft =      884736          nkpt =           2
  Rough estimation (10% accuracy) of disk space for files :

------------- Echo of variables that govern the present computation ------------
-
- outvars: echo of selected default values
-   iomode0 =  0 , fftalg0 =512 , wfoptalg0 =  0
-
- outvars: echo of global parameters not present in the input file
-  max_nthreads =    0
-
 -outvars: echo values of preprocessed input variables --------
            acell      1.0000000000E+00  1.0000000000E+00  1.0000000000E+00 Bohr
              amu      2.29897680E+01  2.69815390E+01  3.09737620E+01
             ecut      4.40000000E+01 Hartree
-          fftalg         512
           irdden           1
           irdwfk           1
           istwfk        0    1
              ixc     -116133
              kpt      2.80139651E-01 -2.80139651E-01  2.80139651E-01
                       0.00000000E+00  0.00000000E+00  0.00000000E+00
           kptopt           0
P           mkmem           2
P          mkqmem           2
P          mk1mem           2
            natom          12
            nband          49
           nbdbuf           4
            ngfft          96      96      96
             nkpt           2
            nstep        2000
             nsym           8
           ntypat           3
              occ      2.000000  2.000000  2.000000  2.000000  2.000000  2.000000
                       2.000000  2.000000  2.000000  2.000000  2.000000  2.000000
                       2.000000  2.000000  2.000000  2.000000  2.000000  2.000000
                       2.000000  2.000000  2.000000  2.000000  2.000000  2.000000
                       2.000000  2.000000  2.000000  2.000000  2.000000  2.000000
                       2.000000  2.000000  2.000000  2.000000  2.000000  2.000000
                       2.000000  2.000000  2.000000  2.000000  0.000000  0.000000
                       0.000000  0.000000  0.000000  0.000000  0.000000  0.000000
                       0.000000
        optdriver           1
            prtwf          -1
            rfdir           1       1       1
           rfelfd           2
            rprim      1.1537841712E+01  0.0000000000E+00 -9.7349079320E+00
                      -1.9798735791E+00  1.0323333455E+01 -1.0835087024E+01
                       0.0000000000E+00  0.0000000000E+00  1.5096033380E+01
          spgroup          72
           symrel      1  0  0   0  1  0   0  0  1      -1  0  0   0 -1  0   0  0 -1
                       0  0  1  -1 -1 -1   1  0  0       0  0 -1   1  1  1  -1  0  0
                      -1 -1 -1   0  0  1   0  1  0       1  1  1   0  0 -1   0 -1  0
                       0  1  0   1  0  0  -1 -1 -1       0 -1  0  -1  0  0   1  1  1
            tnons      0.0000000  0.0000000  0.0000000    -0.0000000 -0.0000000 -0.0000000
                      -0.0000000  0.5000000  0.5000000     0.0000000  0.5000000  0.5000000
                      -0.0000000  0.0000000  0.0000000     0.0000000 -0.0000000 -0.0000000
                      -0.0000000  0.5000000  0.5000000     0.0000000  0.5000000  0.5000000
           tolwfr      1.00000000E-20
            typat      1  1  1  1  1  1  2  2  3  3  3  3
           useylm           1
              wtk        0.50000    0.50000
           xangst      2.7908554418E+00  1.3657181953E+00  1.9821916246E+00
                       2.2670034548E+00  4.0971545859E+00 -4.8788873309E+00
                       2.1186545833E+00  1.0438785083E+00 -1.5446422337E+00
                      -7.0953452003E-01  3.7753148988E+00 -1.4879680658E+00
                       5.7673934166E+00  1.6875578823E+00 -1.4087276405E+00
                       2.9392043133E+00  4.4189942729E+00 -1.3520534726E+00
                      -7.8577798046E-01  4.0971545859E+00  1.6910967743E+00
                      -2.6192599349E-01  1.3657181953E+00  5.6369892477E-01
                       1.1987289703E+00  3.2869286093E+00  5.8196998239E-01
                       3.8591299263E+00  2.1759441718E+00 -3.4786656886E+00
                       5.4115986770E+00  5.5549221875E-01  1.1686957333E+00
                      -3.5373978046E-01  4.9073805624E+00 -4.0653914395E+00
            xcart      5.2739524614E+00  2.5808333638E+00  3.7457993135E+00
                       4.2840156719E+00  7.7425000914E+00 -9.2197608886E+00
                       4.0036769326E+00  1.9726444966E+00 -2.9189507950E+00
                      -1.3408259247E+00  7.1343112242E+00 -2.8118521388E+00
                       1.0898794058E+01  3.1890222310E+00 -2.6621094363E+00
                       5.5542912007E+00  8.3506889586E+00 -2.5550107801E+00
                      -1.4849051843E+00  7.7425000914E+00  3.1957097677E+00
                      -4.9496839477E-01  2.5808333638E+00  1.0652365892E+00
                       2.2652694614E+00  6.2113948900E+00  1.0997638843E+00
                       7.2926986719E+00  4.1119385652E+00 -6.5737254594E+00
                       1.0226439441E+01  1.0497281624E+00  2.2085148686E+00
                      -6.6847130738E-01  9.2736052928E+00 -7.6824764437E+00
             xred      5.0000000000E-01  2.5000000000E-01  7.5000000000E-01
                       5.0000000000E-01  7.5000000000E-01  2.5000000000E-01
                       3.7979400000E-01  1.9108600000E-01  1.8870800000E-01
                       2.3780000000E-03  6.9108600000E-01  3.1129200000E-01
                       9.9762200000E-01  3.0891400000E-01  6.8870800000E-01
                       6.2020600000E-01  8.0891400000E-01  8.1129200000E-01
                      -2.7755575616E-17  7.5000000000E-01  7.5000000000E-01
                       0.0000000000E+00  2.5000000000E-01  2.5000000000E-01
                       2.9958200000E-01  6.0168500000E-01  6.9789700000E-01
                       7.0041800000E-01  3.9831500000E-01  3.0210300000E-01
                       9.0378800000E-01  1.0168500000E-01  8.0210300000E-01
                       9.6212000000E-02  8.9831500000E-01  1.9789700000E-01
            znucl       11.00000   13.00000   15.00000

 chkinp: Checking input parameters for consistency.

== DATASET  1 ==================================================================
-   mpi_nproc: 1, omp_nthreads: -1 (-1 if OMP is not activated)

--- !DatasetInfo
iteration_state: {dtset: 1, }
dimensions: {natom: 12, nkpt: 2, mband: 49, nsppol: 1, nspinor: 1, nspden: 1, mpw: 25057, }
cutoff_energies: {ecut:  44.0, pawecutdg:  -1.0, }
electrons: {nelect:   8.00000000E+01, charge:   0.00000000E+00, occopt:   1.00000000E+00, tsmear:   1.00000000E-02, }
meta: {optdriver: 1, rfelfd: 2, }
...

 Real(R)+Recip(G) space primitive vectors, cartesian coordinates (Bohr,Bohr^-1):
 R(1)= 11.5378417  0.0000000 -9.7349079  G(1)=  0.0866713  0.0166224  0.0000000
 R(2)= -1.9798736 10.3233335-10.8350870  G(2)=  0.0000000  0.0968679  0.0000000
 R(3)=  0.0000000  0.0000000 15.0960334  G(3)=  0.0558913  0.0802456  0.0662426
 Unit cell volume ucvol=  1.7980732E+03 bohr^3
 Angles (23,13,12)=  1.35868532E+02  1.30155576E+02  6.87394733E+01 degrees

 getcut: wavevector=  0.0000  0.0000  0.0000  ngfft=  96  96  96
         ecut(hartree)=     44.000   => boxcut(ratio)=   2.12989

--- Pseudopotential description ------------------------------------------------
- pspini: atom type   1  psp file is /scratch/users/j/a/jabreu/pseudos/PBEsol/Na.psp8
- pspatm: opening atomic psp file    /scratch/users/j/a/jabreu/pseudos/PBEsol/Na.psp8
- Na    ONCVPSP-3.3.0  r_core=   1.20708   1.55069
- 11.00000   9.00000    180112                znucl, zion, pspdat
    8 -116133    1    4       400   0.00000   pspcod,pspxc,lmax,lloc,mmax,r2well
    3.99000000000000    0.00000000000000    0.00000000000000   rchrg,fchrg,qchrg
     nproj     2     2
     extension_switch     1
  pspatm : epsatm=    9.32878306
         --- l  ekb(1:nproj) -->
             0    2.657905   -0.678300
             1   -6.761319   -2.404728
 pspatm: atomic psp has been read  and splines computed

- pspini: atom type   2  psp file is /scratch/users/j/a/jabreu/pseudos/PBEsol/Al.psp8
- pspatm: opening atomic psp file    /scratch/users/j/a/jabreu/pseudos/PBEsol/Al.psp8
- Al    ONCVPSP-3.3.0  r_core=   1.76802   1.76802   1.70587
- 13.00000   3.00000    180112                znucl, zion, pspdat
    8 -116133    2    4       600   0.00000   pspcod,pspxc,lmax,lloc,mmax,r2well
    5.99000000000000    5.00000000000000    0.00000000000000   rchrg,fchrg,qchrg
     nproj     2     2     2
     extension_switch     1
  pspatm : epsatm=    0.68509324
         --- l  ekb(1:nproj) -->
             0    5.834965    0.726662
             1    6.225605    0.924840
             2   -2.432733   -0.548689
 pspatm: atomic psp has been read  and splines computed

- pspini: atom type   3  psp file is /scratch/users/j/a/jabreu/pseudos/PBEsol/P.psp8
- pspatm: opening atomic psp file    /scratch/users/j/a/jabreu/pseudos/PBEsol/P.psp8
- P     ONCVPSP-3.3.0  r_core=   1.46089   1.55067   1.70594
- 15.00000   5.00000    180112                znucl, zion, pspdat
    8 -116133    2    4       600   0.00000   pspcod,pspxc,lmax,lloc,mmax,r2well
    5.99000000000000    5.00000000000000    0.00000000000000   rchrg,fchrg,qchrg
     nproj     2     2     2
     extension_switch     1
  pspatm : epsatm=    7.31221086
         --- l  ekb(1:nproj) -->
             0    6.742364    1.063650
             1    3.449117    0.910422
             2   -3.077645   -0.799176
 pspatm: atomic psp has been read  and splines computed

   6.92733826E+03                                ecore*ucvol(ha*bohr**3)

 ==>  initialize data related to q vector <==

 The list of irreducible perturbations for this q vector is:
    1)    idir= 1    ipert=  13
    2)    idir= 2    ipert=  13
    3)    idir= 3    ipert=  13

 Perturbation wavevector (in red.coord.)   0.000000  0.000000  0.000000
 Perturbation : derivative vs k along direction   1

 dfpt_looppert : COMMENT -
  In a d/dk calculation, iscf is set to -3 automatically.
[...]
 ETOT 19  -28.163541842576      0.000E+00 8.969E-20 0.000E+00
 ETOT 20  -28.163541842576      0.000E+00 9.835E-21 0.000E+00

 At SCF step   20   max residual=  9.83E-21 < tolwfr=  1.00E-20 =>converged.

 ----iterations are completed or convergence reached----

 dfpt_looppert: DFPT cycle converged with prtwf=-1. Will skip output of the 1st-order WFK file.
 dfpt_looppert : ek2=    4.9194664499E+01
          f-sum rule ratio=    1.0295114793E+00
 prteigrs : about to open file /scratch/users/j/a/jabreu/flow_simple_11atoms/flow/w347/t1/tmpdata/tmp_1WF1_EIG
 Expectation of eigenvalue derivatives (hartree) for nkpt=   2  k points:
  (in case of degenerate eigenvalues, averaged derivative)
 kpt#   1, nband= 49, wtk=  0.50000, kpt=  0.2801 -0.2801  0.2801 (reduced coord)
  -0.00006    0.00006   -0.00002    0.00002   -0.00000   -0.00000   -0.00052    0.00057
  -0.00027    0.00025   -0.00047    0.00051   -0.00027    0.00024   -0.00035    0.00040
  -0.00072    0.00066   -0.00001   -0.00001   -0.00000   -0.00000    0.00000   -0.00000
   0.00159    0.00441   -0.00483   -0.00503   -0.00714    0.01639    0.02132    0.00256
   0.01556    0.01266    0.01373   -0.02760   -0.07869    0.04989   -0.00520   -0.00074
  -0.08380    0.12773   -0.11330   -0.12272    0.08721   -0.13309   -0.02712    0.03592
   0.00012
 prteigrs : prtvol=0 or 1, do not print more k-points.

 Eight components of 2nd-order total energy (hartree) are
 1,2,3: 0th-order hamiltonian combined with 1st-order wavefunctions
     kin0=   3.28913375E+01 eigvalue=   3.40174852E+00  local=  -1.37221882E+01
 4,5,6: 1st-order hamiltonian combined with 1st and 0th-order wfs
     kin1=  -5.06464718E+01  Hartree=   0.00000000E+00     xc=   0.00000000E+00
 7,8,9: eventually, occupation + non-local contributions
    edocc=   5.82051200E+00     enl0=  -2.27867970E-01   enl1=  -5.68061186E+00
 1-9 gives the relaxation energy (to be shifted if some occ is /=2.0)
   erelax=  -2.81635418E+01
  No Ewald or frozen-wf contrib.: the relaxation energy is the total one
 2DEtotal=   -0.2816354184E+02 Ha. Also 2DEtotal=   -0.766368947936E+03 eV
    (  non-var. 2DEtotal :   -2.8163541843E+01 Ha)

 Perturbation wavevector (in red.coord.)   0.000000  0.000000  0.000000
 Perturbation : derivative vs k along direction   2
 The set of symmetries contains only one element for this perturbation.
 symkpt : not enough symmetry to change the number of k points.

[...]

 Perturbation wavevector (in red.coord.)   0.000000  0.000000  0.000000
 Perturbation : derivative vs k along direction   3
 The set of symmetries contains only one element for this perturbation.
 symkpt : not enough symmetry to change the number of k points.

 Initialisation of the first-order wave-functions :
  ireadwf=   0

--- !BeginCycle
iteration_state: {dtset: 1, }
solver: {iscf: 7, nstep: 2000, nline: 4, wfoptalg: 0, }
tolerances: {tolwfr: 1.00E-20, }
...

     iter   2DEtotal(Ha)        deltaE(Ha) residm    vres2
-ETOT  1  -50.362719465207     -5.036E+01 1.067E-01 0.000E+00
 ETOT  2  -50.399336728561     -3.662E-02 6.316E-03 0.000E+00
 ETOT  3  -50.399470258026     -1.335E-04 3.514E-04 0.000E+00
 ETOT  4  -50.399471203851     -9.458E-07 2.421E-05 0.000E+00
 ETOT  5  -50.399471211667     -7.816E-09 2.030E-06 0.000E+00
 ETOT  6  -50.399471211737     -6.998E-11 1.463E-07 0.000E+00
 ETOT  7  -50.399471211737     -6.750E-13 1.449E-08 0.000E+00
 ETOT  8  -50.399471211737     -4.263E-14 1.087E-09 0.000E+00
 ETOT  9  -50.399471211737      2.842E-14 1.215E-10 0.000E+00
 ETOT 10  -50.399471211737      3.553E-14 1.010E-11 0.000E+00
 ETOT 11  -50.399471211737     -2.842E-14 1.263E-12 0.000E+00
 ETOT 12  -50.399471211737      0.000E+00 1.133E-13 0.000E+00
 ETOT 13  -50.399471211737      1.421E-14 1.500E-14 0.000E+00
 ETOT 14  -50.399471211737      0.000E+00 1.395E-15 0.000E+00
 ETOT 15  -50.399471211737     -1.421E-14 1.897E-16 0.000E+00
 ETOT 16  -50.399471211737      2.132E-14 1.770E-17 0.000E+00
 ETOT 17  -50.399471211737     -1.421E-14 2.433E-18 0.000E+00
 ETOT 18  -50.399471211737      7.105E-15 2.265E-19 0.000E+00
 ETOT 19  -50.399471211737      7.105E-15 3.142E-20 0.000E+00
 ETOT 20  -50.399471211737      1.421E-14 9.955E-21 0.000E+00

 At SCF step   20   max residual=  9.96E-21 < tolwfr=  1.00E-20 =>converged.

 ----iterations are completed or convergence reached----

 dfpt_looppert: DFPT cycle converged with prtwf=-1. Will skip output of the 1st-order WFK file.
 dfpt_looppert : ek2=    8.8123844088E+01
          f-sum rule ratio=    1.0281776997E+00
 prteigrs : about to open file /scratch/users/j/a/jabreu/flow_simple_11atoms/flow/w347/t1/tmpdata/tmp_1WF1_EIG
 Expectation of eigenvalue derivatives (hartree) for nkpt=   2  k points:
  (in case of degenerate eigenvalues, averaged derivative)
 kpt#   1, nband= 49, wtk=  0.50000, kpt=  0.2801 -0.2801  0.2801 (reduced coord)
  -0.00006    0.00006   -0.00002    0.00002   -0.00000   -0.00000   -0.00052    0.00057
  -0.00027    0.00025   -0.00047    0.00051   -0.00027    0.00024   -0.00035    0.00040
  -0.00072    0.00066   -0.00001   -0.00001   -0.00000   -0.00000    0.00000   -0.00000
   0.00159    0.00441   -0.00483   -0.00503   -0.00714    0.01639    0.02132    0.00256
   0.01556    0.01266    0.01373   -0.02760   -0.07869    0.04989   -0.00520   -0.00074
  -0.08380    0.12773   -0.11330   -0.12272    0.08721   -0.13309   -0.02712    0.03765
  -0.00101
 prteigrs : prtvol=0 or 1, do not print more k-points.

 Eight components of 2nd-order total energy (hartree) are
 1,2,3: 0th-order hamiltonian combined with 1st-order wavefunctions
     kin0=   5.77954998E+01 eigvalue=   6.11948895E+00  local=  -2.41966016E+01
 4,5,6: 1st-order hamiltonian combined with 1st and 0th-order wfs
     kin1=  -9.06069713E+01  Hartree=   0.00000000E+00     xc=   0.00000000E+00
 7,8,9: eventually, occupation + non-local contributions
    edocc=   1.07723367E+01     enl0=  -9.12526785E-02   enl1=  -1.01919711E+01
 1-9 gives the relaxation energy (to be shifted if some occ is /=2.0)
   erelax=  -5.03994712E+01
  No Ewald or frozen-wf contrib.: the relaxation energy is the total one
 2DEtotal=   -0.5039947121E+02 Ha. Also 2DEtotal=   -0.137143935748E+04 eV
    (  non-var. 2DEtotal :   -5.0399471212E+01 Ha)

 CALCULATION OF EFFECTIVE MASSES
 NOTE : Additional infos (eff. mass eigenvalues, eigenvectors and, if degenerate, average mass) are available in stdout.

 K-point ( 0.280,-0.280, 0.280) | band =    40
 Effective mass tensor:
             -2.3718482412             -0.8807272487              1.4033786674
             -0.8807272487             -1.7463416625              1.8955381990
              1.4033786674              1.8955381990             -4.7402724352
 Effective mass tensor eigenvalues:
             -6.3427782466             -1.7198060056             -0.7958780868
 Angular average effective mass 1/(<1/m>)=  -1.5033114989
 Angular average effective mass for Frohlich model (<m**0.5>)**2=  -1.7849211770
 Effective masses along directions: (cart. coord. / red. coord. -> eff. mass)
    1:   1.000000  0.000000  0.000000 /   0.985594 -0.169126  0.000000 ->  -1.8530598041
    2:   0.000000  1.000000  0.000000 /   0.000000  1.000000  0.000000 ->  -0.9361616531
    3:   0.000000  0.000000  1.000000 /  -0.464063 -0.516509  0.719628 ->  -2.5789492542
    4:   0.577350  0.577350  0.577350 /   0.117027 -0.161730  0.979872 ->  -1.1638599617
    5:   0.000000  0.707107  0.707107 /  -0.541731 -0.028478  0.840069 ->  -0.9062341604
    6:   0.707107  0.000000  0.707107 /   0.090674 -0.644494  0.759214 ->  -1.8060380399
    7:   0.707107  0.707107  0.000000 /   0.810327  0.585979  0.000000 ->  -1.5886979027

 K-point ( 0.000, 0.000, 0.000) | band =    41
 Effective mass tensor:
              0.2149032969              0.0328373668             -0.0569522090
              0.0328373668              0.2017201875             -0.0706702962
             -0.0569522090             -0.0706702962              0.3110087012
 Effective mass tensor eigenvalues:
              0.1662533322              0.1884401196              0.3729387339
 Angular average effective mass 1/(<1/m>)=   0.2142390687
 Angular average effective mass for Frohlich model (<m**0.5>)**2=   0.2213523974
 Effective masses along directions: (cart. coord. / red. coord. -> eff. mass)
    1:   1.000000  0.000000  0.000000 /   0.985594 -0.169126  0.000000 ->   0.2023420144
    2:   0.000000  1.000000  0.000000 /   0.000000  1.000000  0.000000 ->   0.1837258484
    3:   0.000000  0.000000  1.000000 /  -0.464063 -0.516509  0.719628 ->   0.2763936160
    4:   0.577350  0.577350  0.577350 /   0.117027 -0.161730  0.979872 ->   0.1786485693
    5:   0.000000  0.707107  0.707107 /  -0.541731 -0.028478  0.840069 ->   0.1763587096
    6:   0.707107  0.000000  0.707107 /   0.090674 -0.644494  0.759214 ->   0.1974434665
    7:   0.707107  0.707107  0.000000 /   0.810327  0.585979  0.000000 ->   0.2144590632

 END OF EFFECTIVE MASSES SECTION

 ---- first-order wavefunction calculations are completed ----

 Total localisation tensor (bohr^2) in cartesian coordinates
  WARNING : still subject to testing - especially symmetries.
      direction              matrix element
   alpha     beta       real part   imaginary part
     1        1       1.4301846467    0.0000000000
     1        2      -0.2805155306    0.0000000000
     1        3      -0.8668865588    0.0000000000
     2        1      -0.2805155306    0.0000000000
     2        2       1.4626466017    0.0000000000
     2        3      -1.5351536675    0.0000000000
     3        1      -0.8668865588    0.0000000000
     3        2      -1.5351536675    0.0000000000
     3        3       7.1322377346    0.0000000000

 respfn : d/dk was computed, but no 2DTE, so no DDB output.

== END DATASET(S) ==============================================================

 -outvars: echo values of variables after computation  --------
            acell      1.0000000000E+00  1.0000000000E+00  1.0000000000E+00 Bohr
              amu      2.29897680E+01  2.69815390E+01  3.09737620E+01
             ecut      4.40000000E+01 Hartree
           etotal     -5.0399471212E+01
            fcart      0.0000000000E+00  0.0000000000E+00  0.0000000000E+00
                       0.0000000000E+00  0.0000000000E+00  0.0000000000E+00
                       0.0000000000E+00  0.0000000000E+00  0.0000000000E+00
                       0.0000000000E+00  0.0000000000E+00  0.0000000000E+00
                       0.0000000000E+00  0.0000000000E+00  0.0000000000E+00
                       0.0000000000E+00  0.0000000000E+00  0.0000000000E+00
                       0.0000000000E+00  0.0000000000E+00  0.0000000000E+00
                       0.0000000000E+00  0.0000000000E+00  0.0000000000E+00
                       0.0000000000E+00  0.0000000000E+00  0.0000000000E+00
                       0.0000000000E+00  0.0000000000E+00  0.0000000000E+00
                       0.0000000000E+00  0.0000000000E+00  0.0000000000E+00
                       0.0000000000E+00  0.0000000000E+00  0.0000000000E+00
-          fftalg         512
           irdden           1
           irdwfk           1
           istwfk        0    1
              ixc     -116133
              kpt      2.80139651E-01 -2.80139651E-01  2.80139651E-01
                       0.00000000E+00  0.00000000E+00  0.00000000E+00
           kptopt           0
P           mkmem           2
P          mkqmem           2
P          mk1mem           2
            natom          12
            nband          49
           nbdbuf           4
            ngfft          96      96      96
             nkpt           2
            nstep        2000
             nsym           8
           ntypat           3
              occ      2.000000  2.000000  2.000000  2.000000  2.000000  2.000000
                       2.000000  2.000000  2.000000  2.000000  2.000000  2.000000
                       2.000000  2.000000  2.000000  2.000000  2.000000  2.000000
                       2.000000  2.000000  2.000000  2.000000  2.000000  2.000000
                       2.000000  2.000000  2.000000  2.000000  2.000000  2.000000
                       2.000000  2.000000  2.000000  2.000000  2.000000  2.000000
                       2.000000  2.000000  2.000000  2.000000  0.000000  0.000000
                       0.000000  0.000000  0.000000  0.000000  0.000000  0.000000
                       0.000000
        optdriver           1
            prtwf          -1
            rfdir           1       1       1
           rfelfd           2
            rprim      1.1537841712E+01  0.0000000000E+00 -9.7349079320E+00
                      -1.9798735791E+00  1.0323333455E+01 -1.0835087024E+01
                       0.0000000000E+00  0.0000000000E+00  1.5096033380E+01
          spgroup          72
           strten      0.0000000000E+00  0.0000000000E+00  0.0000000000E+00
                       0.0000000000E+00  0.0000000000E+00  0.0000000000E+00
           symrel      1  0  0   0  1  0   0  0  1      -1  0  0   0 -1  0   0  0 -1
                       0  0  1  -1 -1 -1   1  0  0       0  0 -1   1  1  1  -1  0  0
                      -1 -1 -1   0  0  1   0  1  0       1  1  1   0  0 -1   0 -1  0
                       0  1  0   1  0  0  -1 -1 -1       0 -1  0  -1  0  0   1  1  1
            tnons      0.0000000  0.0000000  0.0000000    -0.0000000 -0.0000000 -0.0000000
                      -0.0000000  0.5000000  0.5000000     0.0000000  0.5000000  0.5000000
                      -0.0000000  0.0000000  0.0000000     0.0000000 -0.0000000 -0.0000000
                      -0.0000000  0.5000000  0.5000000     0.0000000  0.5000000  0.5000000
           tolwfr      1.00000000E-20
            typat      1  1  1  1  1  1  2  2  3  3  3  3
           useylm           1
              wtk        0.50000    0.50000
           xangst      2.7908554418E+00  1.3657181953E+00  1.9821916246E+00
                       2.2670034548E+00  4.0971545859E+00 -4.8788873309E+00
                       2.1186545833E+00  1.0438785083E+00 -1.5446422337E+00
                      -7.0953452003E-01  3.7753148988E+00 -1.4879680658E+00
                       5.7673934166E+00  1.6875578823E+00 -1.4087276405E+00
                       2.9392043133E+00  4.4189942729E+00 -1.3520534726E+00
                      -7.8577798046E-01  4.0971545859E+00  1.6910967743E+00
                      -2.6192599349E-01  1.3657181953E+00  5.6369892477E-01
                       1.1987289703E+00  3.2869286093E+00  5.8196998239E-01
                       3.8591299263E+00  2.1759441718E+00 -3.4786656886E+00
                       5.4115986770E+00  5.5549221875E-01  1.1686957333E+00
                      -3.5373978046E-01  4.9073805624E+00 -4.0653914395E+00
            xcart      5.2739524614E+00  2.5808333638E+00  3.7457993135E+00
                       4.2840156719E+00  7.7425000914E+00 -9.2197608886E+00
                       4.0036769326E+00  1.9726444966E+00 -2.9189507950E+00
                      -1.3408259247E+00  7.1343112242E+00 -2.8118521388E+00
                       1.0898794058E+01  3.1890222310E+00 -2.6621094363E+00
                       5.5542912007E+00  8.3506889586E+00 -2.5550107801E+00
                      -1.4849051843E+00  7.7425000914E+00  3.1957097677E+00
                      -4.9496839477E-01  2.5808333638E+00  1.0652365892E+00
                       2.2652694614E+00  6.2113948900E+00  1.0997638843E+00
                       7.2926986719E+00  4.1119385652E+00 -6.5737254594E+00
                       1.0226439441E+01  1.0497281624E+00  2.2085148686E+00
                      -6.6847130738E-01  9.2736052928E+00 -7.6824764437E+00
             xred      5.0000000000E-01  2.5000000000E-01  7.5000000000E-01
                       5.0000000000E-01  7.5000000000E-01  2.5000000000E-01
                       3.7979400000E-01  1.9108600000E-01  1.8870800000E-01
                       2.3780000000E-03  6.9108600000E-01  3.1129200000E-01
                       9.9762200000E-01  3.0891400000E-01  6.8870800000E-01
                       6.2020600000E-01  8.0891400000E-01  8.1129200000E-01
                      -2.7755575616E-17  7.5000000000E-01  7.5000000000E-01
                       0.0000000000E+00  2.5000000000E-01  2.5000000000E-01
                       2.9958200000E-01  6.0168500000E-01  6.9789700000E-01
                       7.0041800000E-01  3.9831500000E-01  3.0210300000E-01
                       9.0378800000E-01  1.0168500000E-01  8.0210300000E-01
                       9.6212000000E-02  8.9831500000E-01  1.9789700000E-01
            znucl       11.00000   13.00000   15.00000

- Timing analysis has been suppressed with timopt=0

 Suggested references for the acknowledgment of ABINIT usage.

 Calculation completed.
.Delivered   2 WARNINGs and   5 COMMENTs to log file.