.Version 9.5.1 of ABINIT

 ABINIT is a project of the Universite Catholique de Louvain,
 Corning Inc. and other collaborators, see ~abinit/doc/developers/contributors.txt .
 acknowledgments of the ABINIT effort.

.Starting date : Tue 27 Apr 2021.
- ( at 18h25 )

- input  file    -> /scratch/users/j/a/jabreu/flow_simple_4atoms/flow/w144/t1/run.abi
- output file    -> /scratch/users/j/a/jabreu/flow_simple_4atoms/flow/w144/t1/run.abo
- root for input  files -> /scratch/users/j/a/jabreu/flow_simple_4atoms/flow/w144/t1/indata/in
- root for output files -> /scratch/users/j/a/jabreu/flow_simple_4atoms/flow/w144/t1/outdata/out

 Symmetries : space group R-3 m (#166); Bravais hR (rhombohedral)
     intxc =       0      iscf =       7    lmnmax =      32     lnmax =       8
     mgfft =      72  mpssoang =       4    mqgrid =    3001     natom =       4
  nloc_mem =       1    nspden =       1   nspinor =       1    nsppol =       1
      nsym =      12    n1xccc =    2501    ntypat =       3    occopt =       1
   xclevel =       2
-    mband =          25        mffmem =           1         mkmem =           2
-   mkqmem =           2        mk1mem =           2           mpw =        4454
      nfft =      373248          nkpt =           2
  Rough estimation (10% accuracy) of disk space for files :

------------- Echo of variables that govern the present computation ------------
-
- outvars: echo of selected default values
-   iomode0 =  0 , fftalg0 =512 , wfoptalg0 =  0
-
- outvars: echo of global parameters not present in the input file
-  max_nthreads =    0
-
 -outvars: echo values of preprocessed input variables --------
            acell      1.0000000000E+00  1.0000000000E+00  1.0000000000E+00 Bohr
              amu      2.29897680E+01  1.80947900E+02  1.40067400E+01
             ecut      4.40000000E+01 Hartree
-          fftalg         512
           irdden           1
           irdwfk           1
           istwfk        1    1
              ixc     -116133
              kpt      0.00000000E+00  0.00000000E+00  0.00000000E+00
                       5.00000000E-01  5.00000000E-01  0.00000000E+00
           kptopt           0
P           mkmem           2
P          mkqmem           2
P          mk1mem           2
            natom           4
            nband          25
           nbdbuf           4
            ngfft          72      72      72
             nkpt           2
            nstep         100
             nsym          12
           ntypat           3
              occ      2.000000  2.000000  2.000000  2.000000  2.000000  2.000000
                       2.000000  2.000000  2.000000  2.000000  2.000000  2.000000
                       2.000000  2.000000  2.000000  2.000000  0.000000  0.000000
                       0.000000  0.000000  0.000000  0.000000  0.000000  0.000000
                       0.000000
        optdriver           1
            prtwf          -1
            rfdir           1       1       1
           rfelfd           2
            rprim      5.6685113063E+00  0.0000000000E+00  9.6259835587E+00
                       2.6236957242E+00  5.0247627981E+00  9.6259835587E+00
                       0.0000000000E+00  0.0000000000E+00  1.1171015169E+01
          spgroup         166
           symrel      1  0  0   0  1  0   0  0  1      -1  0  0   0 -1  0   0  0 -1
                       0  1  0   1  0  0   0  0  1       0 -1  0  -1  0  0   0  0 -1
                       0  0  1   1  0  0   0  1  0       0  0 -1  -1  0  0   0 -1  0
                       1  0  0   0  0  1   0  1  0      -1  0  0   0  0 -1   0 -1  0
                       0  1  0   0  0  1   1  0  0       0 -1  0   0  0 -1  -1  0  0
                       0  0  1   0  1  0   1  0  0       0  0 -1   0 -1  0  -1  0  0
           tolwfr      1.00000000E-20
            typat      1  2  3  3
           useylm           1
              wtk        0.50000    0.50000
           xangst      2.1940234847E+00  1.3294949757E+00  8.0495744216E+00
                       0.0000000000E+00  0.0000000000E+00  0.0000000000E+00
                       3.2074517084E+00  1.9435940229E+00  1.1767705045E+01
                       1.1805952610E+00  7.1539592842E-01  4.3314437980E+00
            xcart      4.1461035153E+00  2.5123813990E+00  1.5211491143E+01
                       0.0000000000E+00  0.0000000000E+00  0.0000000000E+00
                       6.0612053134E+00  3.6728604168E+00  2.2237739748E+01
                       2.2310017171E+00  1.3519023813E+00  8.1852425381E+00
             xred      5.0000000000E-01  5.0000000000E-01  5.0000000000E-01
                       0.0000000000E+00  0.0000000000E+00  0.0000000000E+00
                       7.3095200000E-01  7.3095200000E-01  7.3095200000E-01
                       2.6904800000E-01  2.6904800000E-01  2.6904800000E-01
            znucl       11.00000   73.00000    7.00000

 chkinp: Checking input parameters for consistency.

== DATASET  1 ==================================================================
-   mpi_nproc: 1, omp_nthreads: -1 (-1 if OMP is not activated)

--- !DatasetInfo
iteration_state: {dtset: 1, }
dimensions: {natom: 4, nkpt: 2, mband: 25, nsppol: 1, nspinor: 1, nspden: 1, mpw: 4454, }
cutoff_energies: {ecut:  44.0, pawecutdg:  -1.0, }
electrons: {nelect:   3.20000000E+01, charge:   0.00000000E+00, occopt:   1.00000000E+00, tsmear:   1.00000000E-02, }
meta: {optdriver: 1, rfelfd: 2, }
...

 Real(R)+Recip(G) space primitive vectors, cartesian coordinates (Bohr,Bohr^-1):
 R(1)=  5.6685113  0.0000000  9.6259836  G(1)=  0.1764132 -0.0921147  0.0000000
 R(2)=  2.6236957  5.0247628  9.6259836  G(2)=  0.0000000  0.1990144  0.0000000
 R(3)=  0.0000000  0.0000000 11.1710152  G(3)= -0.1520140 -0.0921147  0.0895174
 Unit cell volume ucvol=  3.1818318E+02 bohr^3
 Angles (23,13,12)=  3.04928128E+01  3.04928128E+01  3.04928128E+01 degrees

 getcut: wavevector=  0.0000  0.0000  0.0000  ngfft=  72  72  72
         ecut(hartree)=     44.000   => boxcut(ratio)=   2.15848

--- Pseudopotential description ------------------------------------------------
- pspini: atom type   1  psp file is /scratch/users/j/a/jabreu/pseudos/PBEsol/Na.psp8
- pspatm: opening atomic psp file    /scratch/users/j/a/jabreu/pseudos/PBEsol/Na.psp8
- Na    ONCVPSP-3.3.0  r_core=   1.20708   1.55069
- 11.00000   9.00000    180112                znucl, zion, pspdat
    8 -116133    1    4       400   0.00000   pspcod,pspxc,lmax,lloc,mmax,r2well
    3.99000000000000    0.00000000000000    0.00000000000000   rchrg,fchrg,qchrg
     nproj     2     2
     extension_switch     1
  pspatm : epsatm=    9.32878306
         --- l  ekb(1:nproj) -->
             0    2.657905   -0.678300
             1   -6.761319   -2.404728
 pspatm: atomic psp has been read  and splines computed

- pspini: atom type   2  psp file is /scratch/users/j/a/jabreu/pseudos/PBEsol/Ta.psp8
- pspatm: opening atomic psp file    /scratch/users/j/a/jabreu/pseudos/PBEsol/Ta.psp8
- Ta    ONCVPSP-3.3.0  r_core=   1.71294   1.71294   1.71294   2.25368
- 73.00000  13.00000    180112                znucl, zion, pspdat
    8 -116133    3    4       600   0.00000   pspcod,pspxc,lmax,lloc,mmax,r2well
    5.99000000000000    5.00000000000000    0.00000000000000   rchrg,fchrg,qchrg
     nproj     2     2     2     2
     extension_switch     1
  pspatm : epsatm=   21.70781236
         --- l  ekb(1:nproj) -->
             0   11.480337    1.447149
             1    5.630373    0.817168
             2    1.844704    0.232364
             3    4.923559    0.251242
 pspatm: atomic psp has been read  and splines computed

- pspini: atom type   3  psp file is /scratch/users/j/a/jabreu/pseudos/PBEsol/N.psp8
- pspatm: opening atomic psp file    /scratch/users/j/a/jabreu/pseudos/PBEsol/N.psp8
- N     ONCVPSP-3.3.0  r_core=   1.20551   1.35824
-  7.00000   5.00000    180112                znucl, zion, pspdat
    8 -116133    1    4       600   0.00000   pspcod,pspxc,lmax,lloc,mmax,r2well
    5.99000000000000    4.00000000000000    0.00000000000000   rchrg,fchrg,qchrg
     nproj     2     2
     extension_switch     1
  pspatm : epsatm=    5.26508895
         --- l  ekb(1:nproj) -->
             0    7.464189    0.625868
             1   -4.309714   -1.012941
 pspatm: atomic psp has been read  and splines computed

   1.33013675E+03                                ecore*ucvol(ha*bohr**3)

-inwffil : will read wavefunctions from disk file /scratch/users/j/a/jabreu/flow_simple_4atoms/flow/w144/t1/indata/in_WFK

 ==>  initialize data related to q vector <==

 The list of irreducible perturbations for this q vector is:
    1)    idir= 1    ipert=   5
    2)    idir= 2    ipert=   5
    3)    idir= 3    ipert=   5

 Perturbation wavevector (in red.coord.)   0.000000  0.000000  0.000000
 Perturbation : derivative vs k along direction   1

 dfpt_looppert : COMMENT -
  In a d/dk calculation, iscf is set to -3 automatically.
 The set of symmetries contains only one element for this perturbation.
 symkpt : not enough symmetry to change the number of k points.

[...]

 Initialisation of the first-order wave-functions :
  ireadwf=   0

--- !BeginCycle
iteration_state: {dtset: 1, }
solver: {iscf: 7, nstep: 100, nline: 4, wfoptalg: 0, }
tolerances: {tolwfr: 1.00E-20, }
...

     iter   2DEtotal(Ha)        deltaE(Ha) residm    vres2
-ETOT  1  -67.966474675552     -6.797E+01 6.145E-02 0.000E+00
 ETOT  2  -67.977152117736     -1.068E-02 2.557E-04 0.000E+00
 ETOT  3  -67.977155324984     -3.207E-06 5.037E-07 0.000E+00
 ETOT  4  -67.977155327880     -2.897E-09 4.542E-09 0.000E+00
 ETOT  5  -67.977155327885     -4.917E-12 1.509E-11 0.000E+00
 ETOT  6  -67.977155327885     -1.137E-13 1.675E-13 0.000E+00
 ETOT  7  -67.977155327885     -1.421E-14 6.081E-16 0.000E+00
 ETOT  8  -67.977155327885      4.263E-14 8.477E-18 0.000E+00
 ETOT  9  -67.977155327885      0.000E+00 5.611E-20 0.000E+00
 ETOT 10  -67.977155327885      0.000E+00 9.741E-21 0.000E+00

 At SCF step   10   max residual=  9.74E-21 < tolwfr=  1.00E-20 =>converged.

 ----iterations are completed or convergence reached----

 dfpt_looppert: DFPT cycle converged with prtwf=-1. Will skip output of the 1st-order WFK file.
 dfpt_looppert : ek2=    1.0007107858E+02
          f-sum rule ratio=    1.2793495383E+00
 prteigrs : about to open file /scratch/users/j/a/jabreu/flow_simple_4atoms/flow/w144/t1/tmpdata/tmp_1WF1_EIG
 Expectation of eigenvalue derivatives (hartree) for nkpt=   2  k points:
  (in case of degenerate eigenvalues, averaged derivative)
 kpt#   1, nband= 25, wtk=  0.50000, kpt=  0.0000  0.0000  0.0000 (reduced coord)
  -0.00000   -0.00000   -0.00000   -0.00000   -0.00000    0.00000   -0.00000   -0.00000
   0.00000   -0.00000   -0.00000    0.00000    0.00000    0.00000    0.00000    0.00000
  -0.00000   -0.00000   -0.00000   -0.00000    0.00000   -0.00000   -0.00000   -0.00000
  -0.00000
 prteigrs : prtvol=0 or 1, do not print more k-points.

 Eight components of 2nd-order total energy (hartree) are
 1,2,3: 0th-order hamiltonian combined with 1st-order wavefunctions
     kin0=   4.55982621E+01 eigvalue=   1.59517793E+00  local=  -1.65935947E+01
 4,5,6: 1st-order hamiltonian combined with 1st and 0th-order wfs
     kin1=  -1.28025888E+02  Hartree=   0.00000000E+00     xc=   0.00000000E+00
 7,8,9: eventually, occupation + non-local contributions
    edocc=   3.70562994E+01     enl0=   3.21010578E-01   enl1=  -7.92842248E+00
 1-9 gives the relaxation energy (to be shifted if some occ is /=2.0)
   erelax=  -6.79771553E+01
  No Ewald or frozen-wf contrib.: the relaxation energy is the total one
 2DEtotal=   -0.6797715533E+02 Ha. Also 2DEtotal=   -0.184975246734E+04 eV
    (  non-var. 2DEtotal :   -6.7977155328E+01 Ha)

 Perturbation wavevector (in red.coord.)   0.000000  0.000000  0.000000
 Perturbation : derivative vs k along direction   2
 The set of symmetries contains only one element for this perturbation.
 symkpt : not enough symmetry to change the number of k points.

[...]

 Perturbation wavevector (in red.coord.)   0.000000  0.000000  0.000000
 Perturbation : derivative vs k along direction   3
 The set of symmetries contains only one element for this perturbation.
 symkpt : not enough symmetry to change the number of k points.

-inwffil : will read wavefunctions from disk file /scratch/users/j/a/jabreu/flow_simple_4atoms/flow/w144/t1/indata/in_WFK

 Initialisation of the first-order wave-functions :
  ireadwf=   0

--- !BeginCycle
iteration_state: {dtset: 1, }
solver: {iscf: 7, nstep: 100, nline: 4, wfoptalg: 0, }
tolerances: {tolwfr: 1.00E-20, }
...

     iter   2DEtotal(Ha)        deltaE(Ha) residm    vres2
-ETOT  1  -65.628643256891     -6.563E+01 1.325E-01 0.000E+00
 ETOT  2  -65.639520246795     -1.088E-02 2.943E-04 0.000E+00
 ETOT  3  -65.639523348403     -3.102E-06 1.178E-06 0.000E+00
 ETOT  4  -65.639523350722     -2.319E-09 3.712E-09 0.000E+00
 ETOT  5  -65.639523350726     -3.666E-12 1.642E-11 0.000E+00
 ETOT  6  -65.639523350726      5.684E-14 1.166E-13 0.000E+00
 ETOT  7  -65.639523350726      0.000E+00 2.760E-16 0.000E+00
 ETOT  8  -65.639523350726      2.842E-14 5.262E-18 0.000E+00
 ETOT  9  -65.639523350726     -1.421E-14 1.640E-20 0.000E+00
 ETOT 10  -65.639523350726      0.000E+00 9.997E-21 0.000E+00

 At SCF step   10   max residual=  1.00E-20 < tolwfr=  1.00E-20 =>converged.

 ----iterations are completed or convergence reached----

 dfpt_looppert: DFPT cycle converged with prtwf=-1. Will skip output of the 1st-order WFK file.
 dfpt_looppert : ek2=    1.0007107857E+02
          f-sum rule ratio=    1.2198640214E+00
 prteigrs : about to open file /scratch/users/j/a/jabreu/flow_simple_4atoms/flow/w144/t1/tmpdata/tmp_1WF1_EIG
 Expectation of eigenvalue derivatives (hartree) for nkpt=   2  k points:
  (in case of degenerate eigenvalues, averaged derivative)
 kpt#   1, nband= 25, wtk=  0.50000, kpt=  0.0000  0.0000  0.0000 (reduced coord)
  -0.00000    0.00000   -0.00000   -0.00000   -0.00000   -0.00000    0.00000    0.00000
   0.00000    0.00000    0.00000    0.00000    0.00000   -0.00000    0.00000    0.00000
   0.00000    0.00000   -0.00000    0.00000   -0.00000   -0.00000   -0.00000    0.00000
   0.00000
 prteigrs : prtvol=0 or 1, do not print more k-points.

 Eight components of 2nd-order total energy (hartree) are
 1,2,3: 0th-order hamiltonian combined with 1st-order wavefunctions
     kin0=   4.52581903E+01 eigvalue=   1.66732538E+00  local=  -1.64944438E+01
 4,5,6: 1st-order hamiltonian combined with 1st and 0th-order wfs
     kin1=  -1.22073108E+02  Hartree=   0.00000000E+00     xc=   0.00000000E+00
 7,8,9: eventually, occupation + non-local contributions
    edocc=   3.48040100E+01     enl0=   4.04441445E-01   enl1=  -9.20593836E+00
 1-9 gives the relaxation energy (to be shifted if some occ is /=2.0)
   erelax=  -6.56395234E+01
  No Ewald or frozen-wf contrib.: the relaxation energy is the total one
 2DEtotal=   -0.6563952335E+02 Ha. Also 2DEtotal=   -0.178614226628E+04 eV
    (  non-var. 2DEtotal :   -6.5639523351E+01 Ha)

 CALCULATION OF EFFECTIVE MASSES
 NOTE : Additional infos (eff. mass eigenvalues, eigenvectors and, if degenerate, average mass) are available in stdout.

 COMMENTS:
 - At k-point ( 0.000, 0.000, 0.000), bands    15 through    16
   are DEGENERATE (effective mass tensor is therefore not defined).
   See Section IIIB Eqs. (67)-(70) and Appendix E of PRB 93 205147 (2016).
 - Angular average effective mass for Frohlich model is to be averaged over degenerate bands. See later.
 - Associated theta integrals calculated with ntheta=   1000 points.

 K-point ( 0.000, 0.000, 0.000) | band =    15
 Transport equivalent effective mass tensor:
             -0.7266517990             -0.3337499897             -2.0207324466
             -0.3337499897             -0.3781143177             -1.2244866846
             -2.0207324466             -1.2244866846             -7.5896847933
 Transport equivalent effective mass tensor eigenvalues:
             -8.3427020528             -0.1758745608             -0.1758742965
 Angular average effective mass 1/(<1/m>)=  -0.2605123656
 Angular average effective mass for Frohlich model (<m**0.5>)**2=  -0.3640905912
 Effective masses along directions: (cart. coord. / red. coord. -> eff. mass)
    1:   1.000000  0.000000  0.000000 /   0.907504  0.420042  0.000000 ->  -0.1879624422
    2:   0.000000  1.000000  0.000000 /   0.000000  1.000000  0.000000 ->  -0.1800888441
    3:   0.000000  0.000000  1.000000 /   0.546622  0.546622  0.634358 ->  -1.6088664873
    4:   0.577350  0.577350  0.577350 /   0.596641  0.673879  0.435783 ->  -0.4502189866
    5:   0.000000  0.707107  0.707107 /   0.463079  0.704806  0.537406 ->  -0.4448614466
    6:   0.707107  0.000000  0.707107 /   0.678071  0.543081  0.495260 ->  -0.6312842249
    7:   0.707107  0.707107  0.000000 /   0.595430  0.803407  0.000000 ->  -0.1915100182

 K-point ( 0.000, 0.000, 0.000) | band =    16
 Transport equivalent effective mass tensor:
             -0.8918105273             -0.3298924898             -1.9973639551
             -0.3298924898             -0.5473019793             -1.2103272820
             -1.9973639551             -1.2103272820             -7.6754399774
 Transport equivalent effective mass tensor eigenvalues:
             -8.4197529061             -0.3473999998             -0.3473995781
 Angular average effective mass 1/(<1/m>)=  -0.5084521557
 Angular average effective mass for Frohlich model (<m**0.5>)**2=  -0.6734974934
 Effective masses along directions: (cart. coord. / red. coord. -> eff. mass)
    1:   1.000000  0.000000  0.000000 /   0.907504  0.420042  0.000000 ->  -0.3697046923
    2:   0.000000  1.000000  0.000000 /   0.000000  1.000000  0.000000 ->  -0.3535393585
    3:   0.000000  0.000000  1.000000 /   0.546622  0.546622  0.634358 ->  -2.5770195012
    4:   0.577350  0.577350  0.577350 /   0.596641  0.673879  0.435783 ->  -0.8731963874
    5:   0.000000  0.707107  0.707107 /   0.463079  0.704806  0.537406 ->  -0.8361916534
    6:   0.707107  0.000000  0.707107 /   0.678071  0.543081  0.495260 ->  -1.1525482886
    7:   0.707107  0.707107  0.000000 /   0.595430  0.803407  0.000000 ->  -0.3787319732

 Angular average effective mass for Frohlich model, averaged over degenerate bands.
 Value of     (<<m**0.5>>)**2 =     5.069925E-01
 Absolute Value of <<m**0.5>> =     7.120341E-01

 K-point ( 0.500, 0.500, 0.000) | band =    17
 Effective mass tensor:
              0.8050308475              0.2832458354             -0.5795035851
              0.2832458354              0.5092354369             -0.3511571823
             -0.5795035851             -0.3511571823              1.9231827069
 Effective mass tensor eigenvalues:
              0.3375992090              0.6234209699              2.2764288125
 Angular average effective mass 1/(<1/m>)=   0.5993491845
 Angular average effective mass for Frohlich model (<m**0.5>)**2=   0.6928326293
 Effective masses along directions: (cart. coord. / red. coord. -> eff. mass)
    1:   1.000000  0.000000  0.000000 /   0.907504  0.420042  0.000000 ->   0.5596830083
    2:   0.000000  1.000000  0.000000 /   0.000000  1.000000  0.000000 ->   0.3951773529
    3:   0.000000  0.000000  1.000000 /   0.546622  0.546622  0.634358 ->   1.4530780179
    4:   0.577350  0.577350  0.577350 /   0.596641  0.673879  0.435783 ->   0.6131799979
    5:   0.000000  0.707107  0.707107 /   0.463079  0.704806  0.537406 ->   0.5385639654
    6:   0.707107  0.000000  0.707107 /   0.678071  0.543081  0.495260 ->   0.6076076923
    7:   0.707107  0.707107  0.000000 /   0.595430  0.803407  0.000000 ->   0.6913764681

 END OF EFFECTIVE MASSES SECTION

 ---- first-order wavefunction calculations are completed ----

 Total localisation tensor (bohr^2) in cartesian coordinates
  WARNING : still subject to testing - especially symmetries.
      direction              matrix element
   alpha     beta       real part   imaginary part
     1        1       3.8094195355    0.0000000000
     1        2       1.2872038331    0.0000000000
     1        3       7.7935180199    0.0000000000
     2        1       1.2872038331    0.0000000000
     2        2       2.4651844628    0.0000000000
     2        3       4.7225761815    0.0000000000
     3        1       7.7935180199    0.0000000000
     3        2       4.7225761815    0.0000000000
     3        3      28.7557628313    0.0000000000

 respfn : d/dk was computed, but no 2DTE, so no DDB output.

== END DATASET(S) ==============================================================

 -outvars: echo values of variables after computation  --------
            acell      1.0000000000E+00  1.0000000000E+00  1.0000000000E+00 Bohr
              amu      2.29897680E+01  1.80947900E+02  1.40067400E+01
             ecut      4.40000000E+01 Hartree
           etotal     -6.5639523351E+01
            fcart      0.0000000000E+00  0.0000000000E+00  0.0000000000E+00
                       0.0000000000E+00  0.0000000000E+00  0.0000000000E+00
                       0.0000000000E+00  0.0000000000E+00  0.0000000000E+00
                       0.0000000000E+00  0.0000000000E+00  0.0000000000E+00
-          fftalg         512
           irdden           1
           irdwfk           1
           istwfk        1    1
              ixc     -116133
              kpt      0.00000000E+00  0.00000000E+00  0.00000000E+00
                       5.00000000E-01  5.00000000E-01  0.00000000E+00
           kptopt           0
P           mkmem           2
P          mkqmem           2
P          mk1mem           2
            natom           4
            nband          25
           nbdbuf           4
            ngfft          72      72      72
             nkpt           2
            nstep         100
             nsym          12
           ntypat           3
              occ      2.000000  2.000000  2.000000  2.000000  2.000000  2.000000
                       2.000000  2.000000  2.000000  2.000000  2.000000  2.000000
                       2.000000  2.000000  2.000000  2.000000  0.000000  0.000000
                       0.000000  0.000000  0.000000  0.000000  0.000000  0.000000
                       0.000000
        optdriver           1
            prtwf          -1
            rfdir           1       1       1
           rfelfd           2
            rprim      5.6685113063E+00  0.0000000000E+00  9.6259835587E+00
                       2.6236957242E+00  5.0247627981E+00  9.6259835587E+00
                       0.0000000000E+00  0.0000000000E+00  1.1171015169E+01
          spgroup         166
           strten      0.0000000000E+00  0.0000000000E+00  0.0000000000E+00
                       0.0000000000E+00  0.0000000000E+00  0.0000000000E+00
           symrel      1  0  0   0  1  0   0  0  1      -1  0  0   0 -1  0   0  0 -1
                       0  1  0   1  0  0   0  0  1       0 -1  0  -1  0  0   0  0 -1
                       0  0  1   1  0  0   0  1  0       0  0 -1  -1  0  0   0 -1  0
                       1  0  0   0  0  1   0  1  0      -1  0  0   0  0 -1   0 -1  0
                       0  1  0   0  0  1   1  0  0       0 -1  0   0  0 -1  -1  0  0
                       0  0  1   0  1  0   1  0  0       0  0 -1   0 -1  0  -1  0  0
           tolwfr      1.00000000E-20
            typat      1  2  3  3
           useylm           1
              wtk        0.50000    0.50000
           xangst      2.1940234847E+00  1.3294949757E+00  8.0495744216E+00
                       0.0000000000E+00  0.0000000000E+00  0.0000000000E+00
                       3.2074517084E+00  1.9435940229E+00  1.1767705045E+01
                       1.1805952610E+00  7.1539592842E-01  4.3314437980E+00
            xcart      4.1461035153E+00  2.5123813990E+00  1.5211491143E+01
                       0.0000000000E+00  0.0000000000E+00  0.0000000000E+00
                       6.0612053134E+00  3.6728604168E+00  2.2237739748E+01
                       2.2310017171E+00  1.3519023813E+00  8.1852425381E+00
             xred      5.0000000000E-01  5.0000000000E-01  5.0000000000E-01
                       0.0000000000E+00  0.0000000000E+00  0.0000000000E+00
                       7.3095200000E-01  7.3095200000E-01  7.3095200000E-01
                       2.6904800000E-01  2.6904800000E-01  2.6904800000E-01
            znucl       11.00000   73.00000    7.00000

- Timing analysis has been suppressed with timopt=0

 Suggested references for the acknowledgment of ABINIT usage.

 Calculation completed.
.Delivered  14 WARNINGs and   9 COMMENTs to log file.