.Version 9.5.2 of ABINIT

 ABINIT is a project of the Universite Catholique de Louvain,
 Corning Inc. and other collaborators, see ~abinit/doc/developers/contributors.txt .
 acknowledgments of the ABINIT effort.

.Starting date : Mon 31 May 2021.
- ( at 22h53 )

- input  file    -> /scratch/users/j/a/jabreu/flow_simple_11atoms/flow/w388/t1/run.abi
- output file    -> /scratch/users/j/a/jabreu/flow_simple_11atoms/flow/w388/t1/run.abo
- root for input  files -> /scratch/users/j/a/jabreu/flow_simple_11atoms/flow/w388/t1/indata/in
- root for output files -> /scratch/users/j/a/jabreu/flow_simple_11atoms/flow/w388/t1/outdata/out

 Symmetries : space group C2/m (# 12); Bravais mC (1-face-center monocl.)
     intxc =       0      iscf =       7    lmnmax =      18     lnmax =       6
     mgfft =      80  mpssoang =       3    mqgrid =    3230     natom =      11
  nloc_mem =       1    nspden =       1   nspinor =       1    nsppol =       1
      nsym =       4    n1xccc =    2501    ntypat =       4    occopt =       1
   xclevel =       2
-    mband =          45        mffmem =           1         mkmem =           1
-   mkqmem =           1        mk1mem =           1           mpw =       14091
      nfft =      327680          nkpt =           1
  Rough estimation (10% accuracy) of disk space for files :

------------- Echo of variables that govern the present computation ------------
-
- outvars: echo of selected default values
-   iomode0 =  0 , fftalg0 =512 , wfoptalg0 =  0
-
- outvars: echo of global parameters not present in the input file
-  max_nthreads =    0
-
 -outvars: echo values of preprocessed input variables --------
            acell      1.0000000000E+00  1.0000000000E+00  1.0000000000E+00 Bohr
              amu      1.37327000E+02  4.00780000E+01  1.08110000E+01
                       1.59994000E+01
             ecut      4.40000000E+01 Hartree
-          fftalg         512
           irdden           1
           irdwfk           1
           istwfk        1
              ixc     -116133
           kptopt           0
P           mkmem           1
P          mkqmem           1
P          mk1mem           1
            natom          11
            nband          45
           nbdbuf           4
            ngfft          64      64      80
             nkpt           1
            nstep        2000
             nsym           4
           ntypat           4
              occ      2.000000  2.000000  2.000000  2.000000  2.000000  2.000000
                       2.000000  2.000000  2.000000  2.000000  2.000000  2.000000
                       2.000000  2.000000  2.000000  2.000000  2.000000  2.000000
                       2.000000  2.000000  2.000000  2.000000  2.000000  2.000000
                       2.000000  2.000000  2.000000  2.000000  2.000000  2.000000
                       2.000000  2.000000  2.000000  2.000000  2.000000  2.000000
                       0.000000  0.000000  0.000000  0.000000  0.000000  0.000000
                       0.000000  0.000000  0.000000
        optdriver           1
            prtwf          -1
            rfdir           1       1       1
           rfelfd           2
            rprim      9.4162239614E+00  0.0000000000E+00  4.5180569321E+00
                       3.8551372741E+00  8.5908783189E+00  4.5180569321E+00
                       0.0000000000E+00  0.0000000000E+00  1.2458935786E+01
          spgroup          12
           symrel      1  0  0   0  1  0   0  0  1      -1  0  0   0 -1  0   0  0 -1
                       0 -1  0  -1  0  0   0  0 -1       0  1  0   1  0  0   0  0  1
           tolwfr      1.00000000E-20
            typat      1  1  2  3  3  4  4  4  4  4  4
           useylm           1
           xangst      1.4818393223E+00  9.5923101481E-01  6.3778891224E+00
                       5.5410625705E+00  3.5868659933E+00  4.9968012500E+00
                       0.0000000000E+00  0.0000000000E+00  3.2964924306E+00
                       3.9429661303E+00  2.5523788886E+00  7.6024002419E+00
                       3.0799357625E+00  1.9937181195E+00  3.7722901305E+00
                       5.0793278398E+00  3.2879737533E+00  7.8923318111E+00
                       3.0009994449E+00  3.3697625846E+00  3.9634998606E+00
                       2.7198516135E+00  3.1877686831E+00  7.4111905117E+00
                       1.9435740530E+00  1.2581232548E+00  3.4823585612E+00
                       4.3030502793E+00  1.3583283251E+00  3.9634998606E+00
                       4.0219024478E+00  1.1763344235E+00  7.4111905117E+00
            xcart      2.8002704921E+00  1.8126839162E+00  1.2052463747E+01
                       1.0471090743E+01  6.7781944027E+00  9.4425859029E+00
                       0.0000000000E+00  0.0000000000E+00  6.2294678930E+00
                       7.4511261375E+00  4.8232970869E+00  1.4366454410E+01
                       5.8202350980E+00  3.7675812320E+00  7.1285952403E+00
                       9.5985385563E+00  6.2133699259E+00  1.4914345673E+01
                       5.6710670759E+00  6.3679284177E+00  7.4899292643E+00
                       5.1397746716E+00  6.0240097860E+00  1.4005120386E+01
                       3.6728226792E+00  2.3775083930E+00  6.5807039772E+00
                       8.1315865639E+00  2.5668685329E+00  7.4899292643E+00
                       7.6002941596E+00  2.2229499012E+00  1.4005120386E+01
             xred      2.1100100000E-01  2.1100100000E-01  8.1434200000E-01
                       7.8899900000E-01  7.8899900000E-01  1.8565800000E-01
                       0.0000000000E+00  0.0000000000E+00  5.0000000000E-01
                       5.6144400000E-01  5.6144400000E-01  7.4590500000E-01
                       4.3855600000E-01  4.3855600000E-01  2.5409500000E-01
                       7.2325200000E-01  7.2325200000E-01  6.7252600000E-01
                       2.9879000000E-01  7.4124300000E-01  2.2401600000E-01
                       2.5875700000E-01  7.0121000000E-01  7.7598400000E-01
                       2.7674800000E-01  2.7674800000E-01  3.2747400000E-01
                       7.4124300000E-01  2.9879000000E-01  2.2401600000E-01
                       7.0121000000E-01  2.5875700000E-01  7.7598400000E-01
            znucl       56.00000   20.00000    5.00000    8.00000

 chkinp: Checking input parameters for consistency.

== DATASET  1 ==================================================================
-   mpi_nproc: 1, omp_nthreads: -1 (-1 if OMP is not activated)

--- !DatasetInfo
iteration_state: {dtset: 1, }
dimensions: {natom: 11, nkpt: 1, mband: 45, nsppol: 1, nspinor: 1, nspden: 1, mpw: 14091, }
cutoff_energies: {ecut:  44.0, pawecutdg:  -1.0, }
electrons: {nelect:   7.20000000E+01, charge:   0.00000000E+00, occopt:   1.00000000E+00, tsmear:   1.00000000E-02, }
meta: {optdriver: 1, rfelfd: 2, }
...

 Real(R)+Recip(G) space primitive vectors, cartesian coordinates (Bohr,Bohr^-1):
 R(1)=  9.4162240  0.0000000  4.5180569  G(1)=  0.1061997 -0.0476569  0.0000000
 R(2)=  3.8551373  8.5908783  4.5180569  G(2)=  0.0000000  0.1164025  0.0000000
 R(3)=  0.0000000  0.0000000 12.4589358  G(3)= -0.0385118 -0.0249296  0.0802637
 Unit cell volume ucvol=  1.0078486E+03 bohr^3
 Angles (23,13,12)=  6.43675531E+01  6.43675531E+01  5.86720186E+01 degrees

 getcut: wavevector=  0.0000  0.0000  0.0000  ngfft=  64  64  80
         ecut(hartree)=     44.000   => boxcut(ratio)=   2.05250

--- Pseudopotential description ------------------------------------------------
- pspini: atom type   1  psp file is /scratch/users/j/a/jabreu/pseudos/PBEsol/Ba.psp8
- pspatm: opening atomic psp file    /scratch/users/j/a/jabreu/pseudos/PBEsol/Ba.psp8
- Ba    ONCVPSP-3.3.0  r_core=   2.15444   1.91218   2.15444
- 56.00000  10.00000    180112                znucl, zion, pspdat
    8 -116133    2    4       600   0.00000   pspcod,pspxc,lmax,lloc,mmax,r2well
    5.99000000000000    5.00000000000000    0.00000000000000   rchrg,fchrg,qchrg
     nproj     2     2     2
     extension_switch     1
  pspatm : epsatm=   26.37418029
         --- l  ekb(1:nproj) -->
             0    6.652372    0.677024
             1    5.027722    0.408462
             2    2.543237    0.416854
 pspatm: atomic psp has been read  and splines computed

- pspini: atom type   2  psp file is /scratch/users/j/a/jabreu/pseudos/PBEsol/Ca.psp8
- pspatm: opening atomic psp file    /scratch/users/j/a/jabreu/pseudos/PBEsol/Ca.psp8
- Ca    ONCVPSP-3.3.0  r_core=   1.45885   1.45885   1.85192
- 20.00000  10.00000    180112                znucl, zion, pspdat
    8 -116133    2    4       400   0.00000   pspcod,pspxc,lmax,lloc,mmax,r2well
    3.99000000000000    6.00000000000000    0.00000000000000   rchrg,fchrg,qchrg
     nproj     2     2     2
     extension_switch     1
  pspatm : epsatm=   12.46045226
         --- l  ekb(1:nproj) -->
             0   10.054847    0.973777
             1    2.998958    0.458102
             2   -3.447298   -1.091650
 pspatm: atomic psp has been read  and splines computed

[...]

- pspini: atom type   4  psp file is /scratch/users/j/a/jabreu/pseudos/PBEsol/O.psp8
- pspatm: opening atomic psp file    /scratch/users/j/a/jabreu/pseudos/PBEsol/O.psp8
- O     ONCVPSP-3.3.0  r_core=   1.35509   1.45563   1.26150
-  8.00000   6.00000    180112                znucl, zion, pspdat
    8 -116133    2    4       600   0.00000   pspcod,pspxc,lmax,lloc,mmax,r2well
    5.99000000000000    4.00000000000000    0.00000000000000   rchrg,fchrg,qchrg
     nproj     2     2     1
     extension_switch     1
  pspatm : epsatm=    6.22910522
         --- l  ekb(1:nproj) -->
             0    6.050032    0.820363
             1   -4.739617   -1.153841
             2   -1.335834
 pspatm: atomic psp has been read  and splines computed

   7.84703055E+03                                ecore*ucvol(ha*bohr**3)

 ==>  initialize data related to q vector <==

 The list of irreducible perturbations for this q vector is:
    1)    idir= 1    ipert=  12
    2)    idir= 2    ipert=  12
    3)    idir= 3    ipert=  12

 Perturbation wavevector (in red.coord.)   0.000000  0.000000  0.000000
 Perturbation : derivative vs k along direction   1

 dfpt_looppert : COMMENT -
  In a d/dk calculation, iscf is set to -3 automatically.
 The set of symmetries contains only one element for this perturbation.
 symkpt : not enough symmetry to change the number of k points.

 Initialisation of the first-order wave-functions :
  ireadwf=   0

--- !BeginCycle
iteration_state: {dtset: 1, }
solver: {iscf: 7, nstep: 2000, nline: 4, wfoptalg: 0, }
tolerances: {tolwfr: 1.00E-20, }
...

     iter   2DEtotal(Ha)        deltaE(Ha) residm    vres2
-ETOT  1  -43.766154107023     -4.377E+01 4.486E-02 0.000E+00
 ETOT  2  -43.903310041292     -1.372E-01 1.159E-02 0.000E+00
 ETOT  3  -43.906780380140     -3.470E-03 1.082E-03 0.000E+00
 ETOT  4  -43.906931093305     -1.507E-04 5.643E-04 0.000E+00
 ETOT  5  -43.906939030304     -7.937E-06 9.681E-05 0.000E+00
 ETOT  6  -43.906939488038     -4.577E-07 4.763E-05 0.000E+00
 ETOT  7  -43.906939515900     -2.786E-08 8.351E-06 0.000E+00
 ETOT  8  -43.906939517656     -1.755E-09 4.285E-06 0.000E+00
[...]

 At SCF step   39   max residual=  9.56E-21 < tolwfr=  1.00E-20 =>converged.

 ----iterations are completed or convergence reached----

 dfpt_looppert: DFPT cycle converged with prtwf=-1. Will skip output of the 1st-order WFK file.
 dfpt_looppert : ek2=    7.7027728920E+01
          f-sum rule ratio=    1.1290042996E+00
 prteigrs : about to open file /scratch/users/j/a/jabreu/flow_simple_11atoms/flow/w388/t1/tmpdata/tmp_1WF1_EIG
 Expectation of eigenvalue derivatives (hartree) for nkpt=   1  k points:
  (in case of degenerate eigenvalues, averaged derivative)
 kpt#   1, nband= 45, wtk=  1.00000, kpt=  0.0000  0.0000  0.0000 (reduced coord)
  -0.00000    0.00000    0.00000    0.00000    0.00000    0.00000   -0.00000    0.00000
   0.00000   -0.00000    0.00000    0.00000   -0.00000   -0.00000   -0.00000    0.00000
   0.00000   -0.00000    0.00000    0.00000   -0.00000   -0.00000    0.00000    0.00000
   0.00000    0.00000    0.00000    0.00000   -0.00000    0.00000   -0.00000    0.00000
  -0.00000    0.00000   -0.00000    0.00000   -0.00000    0.00000    0.00000    0.00000
   0.00000    0.00000   -0.00000    0.00000   -0.00000

 Eight components of 2nd-order total energy (hartree) are
 1,2,3: 0th-order hamiltonian combined with 1st-order wavefunctions
     kin0=   6.57181719E+01 eigvalue=  -7.17373697E-01  local=  -3.28863622E+01
 4,5,6: 1st-order hamiltonian combined with 1st and 0th-order wfs
     kin1=  -8.69646371E+01  Hartree=   0.00000000E+00     xc=   0.00000000E+00
 7,8,9: eventually, occupation + non-local contributions
    edocc=   1.12172137E+01     enl0=   5.75289828E-01   enl1=  -8.49241892E-01
 1-9 gives the relaxation energy (to be shifted if some occ is /=2.0)
   erelax=  -4.39069395E+01
  No Ewald or frozen-wf contrib.: the relaxation energy is the total one
 2DEtotal=   -0.4390693952E+02 Ha. Also 2DEtotal=   -0.119476858534E+04 eV
    (  non-var. 2DEtotal :   -4.3906939517E+01 Ha)

 Perturbation wavevector (in red.coord.)   0.000000  0.000000  0.000000
 Perturbation : derivative vs k along direction   2
 The set of symmetries contains only one element for this perturbation.
 symkpt : not enough symmetry to change the number of k points.

[...]

 Perturbation wavevector (in red.coord.)   0.000000  0.000000  0.000000
 Perturbation : derivative vs k along direction   3
 The set of symmetries contains only one element for this perturbation.
 symkpt : not enough symmetry to change the number of k points.

 Initialisation of the first-order wave-functions :
  ireadwf=   0

--- !BeginCycle
iteration_state: {dtset: 1, }
solver: {iscf: 7, nstep: 2000, nline: 4, wfoptalg: 0, }
tolerances: {tolwfr: 1.00E-20, }
...

     iter   2DEtotal(Ha)        deltaE(Ha) residm    vres2
-ETOT  1  -26.348416869730     -2.635E+01 3.916E-02 0.000E+00
 ETOT  2  -26.399447362251     -5.103E-02 1.378E-02 0.000E+00
 ETOT  3  -26.400293629050     -8.463E-04 1.859E-03 0.000E+00
 ETOT  4  -26.400319041700     -2.541E-05 7.547E-04 0.000E+00
 ETOT  5  -26.400320064826     -1.023E-06 1.310E-04 0.000E+00
 ETOT  6  -26.400320110067     -4.524E-08 5.063E-05 0.000E+00
 ETOT  7  -26.400320112179     -2.112E-09 1.352E-05 0.000E+00
 ETOT  8  -26.400320112280     -1.013E-10 3.974E-06 0.000E+00
 ETOT  9  -26.400320112285     -5.013E-12 1.698E-06 0.000E+00
 ETOT 10  -26.400320112285     -2.238E-13 4.934E-07 0.000E+00
 ETOT 11  -26.400320112285     -3.197E-14 2.179E-07 0.000E+00
 ETOT 12  -26.400320112285      3.553E-14 6.169E-08 0.000E+00
 ETOT 13  -26.400320112285     -3.553E-15 2.810E-08 0.000E+00
 ETOT 14  -26.400320112285     -2.487E-14 7.779E-09 0.000E+00
 ETOT 15  -26.400320112285      7.105E-15 3.639E-09 0.000E+00
 ETOT 16  -26.400320112285     -7.105E-15 9.855E-10 0.000E+00
 ETOT 17  -26.400320112285      3.553E-15 4.725E-10 0.000E+00
 ETOT 18  -26.400320112285      3.553E-15 1.254E-10 0.000E+00
 ETOT 19  -26.400320112285     -7.105E-15 6.145E-11 0.000E+00
 ETOT 20  -26.400320112285      3.553E-15 1.600E-11 0.000E+00
 ETOT 21  -26.400320112285     -7.105E-15 8.003E-12 0.000E+00
 ETOT 22  -26.400320112285      3.553E-15 2.048E-12 0.000E+00
 ETOT 23  -26.400320112285      3.553E-15 1.043E-12 0.000E+00
 ETOT 24  -26.400320112285     -3.553E-15 2.628E-13 0.000E+00
 ETOT 25  -26.400320112285     -7.105E-15 1.361E-13 0.000E+00
 ETOT 26  -26.400320112285      1.421E-14 3.380E-14 0.000E+00
 ETOT 27  -26.400320112285     -1.066E-14 1.776E-14 0.000E+00
 ETOT 28  -26.400320112285      0.000E+00 4.356E-15 0.000E+00
 ETOT 29  -26.400320112285      0.000E+00 2.320E-15 0.000E+00
 ETOT 30  -26.400320112285      1.776E-14 5.624E-16 0.000E+00
 ETOT 31  -26.400320112285     -1.421E-14 3.031E-16 0.000E+00
 ETOT 32  -26.400320112285      0.000E+00 7.272E-17 0.000E+00
 ETOT 33  -26.400320112285      7.105E-15 3.962E-17 0.000E+00
 ETOT 34  -26.400320112285      0.000E+00 9.415E-18 0.000E+00
 ETOT 35  -26.400320112285     -7.105E-15 5.179E-18 0.000E+00
 ETOT 36  -26.400320112285      1.066E-14 1.221E-18 0.000E+00
 ETOT 37  -26.400320112285     -3.553E-15 6.773E-19 0.000E+00
 ETOT 38  -26.400320112285      0.000E+00 1.584E-19 0.000E+00
 ETOT 39  -26.400320112285      0.000E+00 8.859E-20 0.000E+00
 ETOT 40  -26.400320112285      0.000E+00 2.057E-20 0.000E+00
 ETOT 41  -26.400320112285      0.000E+00 1.159E-20 0.000E+00
 ETOT 42  -26.400320112285     -1.421E-14 8.951E-21 0.000E+00

 At SCF step   42   max residual=  8.95E-21 < tolwfr=  1.00E-20 =>converged.

 ----iterations are completed or convergence reached----

 dfpt_looppert: DFPT cycle converged with prtwf=-1. Will skip output of the 1st-order WFK file.
 dfpt_looppert : ek2=    4.8588231878E+01
          f-sum rule ratio=    1.0652569076E+00
 prteigrs : about to open file /scratch/users/j/a/jabreu/flow_simple_11atoms/flow/w388/t1/tmpdata/tmp_1WF1_EIG
 Expectation of eigenvalue derivatives (hartree) for nkpt=   1  k points:
  (in case of degenerate eigenvalues, averaged derivative)
 kpt#   1, nband= 45, wtk=  1.00000, kpt=  0.0000  0.0000  0.0000 (reduced coord)
   0.00000   -0.00000   -0.00000    0.00000   -0.00000   -0.00000   -0.00000   -0.00000
  -0.00000    0.00000    0.00000    0.00000   -0.00000    0.00000   -0.00000    0.00000
   0.00000    0.00000   -0.00000   -0.00000    0.00000    0.00000   -0.00000    0.00000
   0.00000   -0.00000    0.00000    0.00000   -0.00000    0.00000   -0.00000   -0.00000
   0.00000    0.00000   -0.00000   -0.00000   -0.00000   -0.00000   -0.00000   -0.00000
  -0.00000   -0.00000   -0.00000    0.00000   -0.00000

 Eight components of 2nd-order total energy (hartree) are
 1,2,3: 0th-order hamiltonian combined with 1st-order wavefunctions
     kin0=   3.45100557E+01 eigvalue=   3.03692624E-01  local=  -1.54233665E+01
 4,5,6: 1st-order hamiltonian combined with 1st and 0th-order wfs
     kin1=  -5.17589496E+01  Hartree=   0.00000000E+00     xc=   0.00000000E+00
 7,8,9: eventually, occupation + non-local contributions
    edocc=   7.36273561E+00     enl0=  -3.52797354E-01   enl1=  -1.04169059E+00
 1-9 gives the relaxation energy (to be shifted if some occ is /=2.0)
   erelax=  -2.64003201E+01
  No Ewald or frozen-wf contrib.: the relaxation energy is the total one
 2DEtotal=   -0.2640032011E+02 Ha. Also 2DEtotal=   -0.718389244602E+03 eV
    (  non-var. 2DEtotal :   -2.6400320112E+01 Ha)

 CALCULATION OF EFFECTIVE MASSES
 NOTE : Additional infos (eff. mass eigenvalues, eigenvectors and, if degenerate, average mass) are available in stdout.

 K-point ( 0.000, 0.000, 0.000) | band =    36
 Effective mass tensor:
             -8.3562569488             -4.5971603143              8.7657104361
             -4.5971603143             -4.2303263015              5.6742598142
              8.7657104361              5.6742598142            -18.0731290184
 Effective mass tensor eigenvalues:
            -25.6750965322             -3.7301442989             -1.2544714376
 Angular average effective mass 1/(<1/m>)=  -2.7169412599
 Angular average effective mass for Frohlich model (<m**0.5>)**2=  -3.6959067341
 Effective masses along directions: (cart. coord. / red. coord. -> eff. mass)
    1:   1.000000  0.000000  0.000000 /   0.925442  0.378889  0.000000 ->  -2.7146048861
    2:   0.000000  1.000000  0.000000 /   0.000000  1.000000  0.000000 ->  -1.6194828808
    3:   0.000000  0.000000  1.000000 /   0.322677  0.322677  0.889809 ->  -8.4513651591
    4:   0.577350  0.577350  0.577350 /   0.552023  0.672052  0.493576 ->  -3.5268199190
    5:   0.000000  0.707107  0.707107 /   0.242374  0.703236  0.668367 ->  -2.3410965048
    6:   0.707107  0.000000  0.707107 /   0.680329  0.408814  0.608296 ->  -2.9861626233
    7:   0.707107  0.707107  0.000000 /   0.603346  0.797480  0.000000 ->  -4.6430524831

 K-point ( 0.000, 0.000, 0.000) | band =    37
 Effective mass tensor:
              0.7924539149             -0.2460213508              0.1663665162
             -0.2460213508              1.0132569678              0.1076931350
              0.1663665162              0.1076931350              0.6786420719
 Effective mass tensor eigenvalues:
              0.4564410523              0.8553992673              1.1725126350
 Angular average effective mass 1/(<1/m>)=   0.7121192767
 Angular average effective mass for Frohlich model (<m**0.5>)**2=   0.7473406183
 Effective masses along directions: (cart. coord. / red. coord. -> eff. mass)
    1:   1.000000  0.000000  0.000000 /   0.925442  0.378889  0.000000 ->   0.6771705615
    2:   0.000000  1.000000  0.000000 /   0.000000  1.000000  0.000000 ->   0.8974354539
    3:   0.000000  0.000000  1.000000 /   0.322677  0.322677  0.889809 ->   0.6166146908
    4:   0.577350  0.577350  0.577350 /   0.552023  0.672052  0.493576 ->   0.8295062702
    5:   0.000000  0.707107  0.707107 /   0.242374  0.703236  0.668367 ->   0.9155859367
    6:   0.707107  0.000000  0.707107 /   0.680329  0.408814  0.608296 ->   0.8903571708
    7:   0.707107  0.707107  0.000000 /   0.603346  0.797480  0.000000 ->   0.5884596837

 END OF EFFECTIVE MASSES SECTION

 ---- first-order wavefunction calculations are completed ----

 Total localisation tensor (bohr^2) in cartesian coordinates
  WARNING : still subject to testing - especially symmetries.
      direction              matrix element
   alpha     beta       real part   imaginary part
     1        1       1.3003393649    0.0000000000
     1        2       0.4159862711    0.0000000000
     1        3       0.7531279276    0.0000000000
     2        1       0.4159862711    0.0000000000
     2        2       0.9269935628    0.0000000000
     2        3       0.4875182184    0.0000000000
     3        1       0.7531279276    0.0000000000
     3        2       0.4875182184    0.0000000000
     3        3       1.5704324623    0.0000000000

 respfn : d/dk was computed, but no 2DTE, so no DDB output.

== END DATASET(S) ==============================================================

 -outvars: echo values of variables after computation  --------
            acell      1.0000000000E+00  1.0000000000E+00  1.0000000000E+00 Bohr
              amu      1.37327000E+02  4.00780000E+01  1.08110000E+01
                       1.59994000E+01
             ecut      4.40000000E+01 Hartree
           etotal     -2.6400320112E+01
            fcart      0.0000000000E+00  0.0000000000E+00  0.0000000000E+00
                       0.0000000000E+00  0.0000000000E+00  0.0000000000E+00
                       0.0000000000E+00  0.0000000000E+00  0.0000000000E+00
                       0.0000000000E+00  0.0000000000E+00  0.0000000000E+00
                       0.0000000000E+00  0.0000000000E+00  0.0000000000E+00
                       0.0000000000E+00  0.0000000000E+00  0.0000000000E+00
                       0.0000000000E+00  0.0000000000E+00  0.0000000000E+00
                       0.0000000000E+00  0.0000000000E+00  0.0000000000E+00
                       0.0000000000E+00  0.0000000000E+00  0.0000000000E+00
                       0.0000000000E+00  0.0000000000E+00  0.0000000000E+00
                       0.0000000000E+00  0.0000000000E+00  0.0000000000E+00
-          fftalg         512
           irdden           1
           irdwfk           1
           istwfk        1
              ixc     -116133
           kptopt           0
P           mkmem           1
P          mkqmem           1
P          mk1mem           1
            natom          11
            nband          45
           nbdbuf           4
            ngfft          64      64      80
             nkpt           1
            nstep        2000
             nsym           4
           ntypat           4
              occ      2.000000  2.000000  2.000000  2.000000  2.000000  2.000000
                       2.000000  2.000000  2.000000  2.000000  2.000000  2.000000
                       2.000000  2.000000  2.000000  2.000000  2.000000  2.000000
                       2.000000  2.000000  2.000000  2.000000  2.000000  2.000000
                       2.000000  2.000000  2.000000  2.000000  2.000000  2.000000
                       2.000000  2.000000  2.000000  2.000000  2.000000  2.000000
                       0.000000  0.000000  0.000000  0.000000  0.000000  0.000000
                       0.000000  0.000000  0.000000
        optdriver           1
            prtwf          -1
            rfdir           1       1       1
           rfelfd           2
            rprim      9.4162239614E+00  0.0000000000E+00  4.5180569321E+00
                       3.8551372741E+00  8.5908783189E+00  4.5180569321E+00
                       0.0000000000E+00  0.0000000000E+00  1.2458935786E+01
          spgroup          12
           strten      0.0000000000E+00  0.0000000000E+00  0.0000000000E+00
                       0.0000000000E+00  0.0000000000E+00  0.0000000000E+00
           symrel      1  0  0   0  1  0   0  0  1      -1  0  0   0 -1  0   0  0 -1
                       0 -1  0  -1  0  0   0  0 -1       0  1  0   1  0  0   0  0  1
           tolwfr      1.00000000E-20
            typat      1  1  2  3  3  4  4  4  4  4  4
           useylm           1
           xangst      1.4818393223E+00  9.5923101481E-01  6.3778891224E+00
                       5.5410625705E+00  3.5868659933E+00  4.9968012500E+00
                       0.0000000000E+00  0.0000000000E+00  3.2964924306E+00
                       3.9429661303E+00  2.5523788886E+00  7.6024002419E+00
                       3.0799357625E+00  1.9937181195E+00  3.7722901305E+00
                       5.0793278398E+00  3.2879737533E+00  7.8923318111E+00
                       3.0009994449E+00  3.3697625846E+00  3.9634998606E+00
                       2.7198516135E+00  3.1877686831E+00  7.4111905117E+00
                       1.9435740530E+00  1.2581232548E+00  3.4823585612E+00
                       4.3030502793E+00  1.3583283251E+00  3.9634998606E+00
                       4.0219024478E+00  1.1763344235E+00  7.4111905117E+00
            xcart      2.8002704921E+00  1.8126839162E+00  1.2052463747E+01
                       1.0471090743E+01  6.7781944027E+00  9.4425859029E+00
                       0.0000000000E+00  0.0000000000E+00  6.2294678930E+00
                       7.4511261375E+00  4.8232970869E+00  1.4366454410E+01
                       5.8202350980E+00  3.7675812320E+00  7.1285952403E+00
                       9.5985385563E+00  6.2133699259E+00  1.4914345673E+01
                       5.6710670759E+00  6.3679284177E+00  7.4899292643E+00
                       5.1397746716E+00  6.0240097860E+00  1.4005120386E+01
                       3.6728226792E+00  2.3775083930E+00  6.5807039772E+00
                       8.1315865639E+00  2.5668685329E+00  7.4899292643E+00
                       7.6002941596E+00  2.2229499012E+00  1.4005120386E+01
             xred      2.1100100000E-01  2.1100100000E-01  8.1434200000E-01
                       7.8899900000E-01  7.8899900000E-01  1.8565800000E-01
                       0.0000000000E+00  0.0000000000E+00  5.0000000000E-01
                       5.6144400000E-01  5.6144400000E-01  7.4590500000E-01
                       4.3855600000E-01  4.3855600000E-01  2.5409500000E-01
                       7.2325200000E-01  7.2325200000E-01  6.7252600000E-01
                       2.9879000000E-01  7.4124300000E-01  2.2401600000E-01
                       2.5875700000E-01  7.0121000000E-01  7.7598400000E-01
                       2.7674800000E-01  2.7674800000E-01  3.2747400000E-01
                       7.4124300000E-01  2.9879000000E-01  2.2401600000E-01
                       7.0121000000E-01  2.5875700000E-01  7.7598400000E-01
            znucl       56.00000   20.00000    5.00000    8.00000

- Timing analysis has been suppressed with timopt=0

 Suggested references for the acknowledgment of ABINIT usage.

 Calculation completed.
.Delivered   2 WARNINGs and   5 COMMENTs to log file.