.Version 9.5.2 of ABINIT

 ABINIT is a project of the Universite Catholique de Louvain,
 Corning Inc. and other collaborators, see ~abinit/doc/developers/contributors.txt .
 acknowledgments of the ABINIT effort.

.Starting date : Mon 24 May 2021.
- ( at 23h22 )

- input  file    -> /scratch/users/j/a/jabreu/flow_simple_10atoms/flow/w478/t1/run.abi
- output file    -> /scratch/users/j/a/jabreu/flow_simple_10atoms/flow/w478/t1/run.abo
- root for input  files -> /scratch/users/j/a/jabreu/flow_simple_10atoms/flow/w478/t1/indata/in
- root for output files -> /scratch/users/j/a/jabreu/flow_simple_10atoms/flow/w478/t1/outdata/out

 Symmetries : space group R-3 (#148); Bravais hR (rhombohedral)
     intxc =       0      iscf =       7    lmnmax =      32     lnmax =       8
     mgfft =      80  mpssoang =       4    mqgrid =    3061     natom =      10
  nloc_mem =       1    nspden =       1   nspinor =       1    nsppol =       1
      nsym =       6    n1xccc =    2501    ntypat =       4    occopt =       1
   xclevel =       2
-    mband =          50        mffmem =           1         mkmem =           1
-   mkqmem =           1        mk1mem =           1           mpw =       19254
      nfft =      512000          nkpt =           1
  Rough estimation (10% accuracy) of disk space for files :

------------- Echo of variables that govern the present computation ------------
-
- outvars: echo of selected default values
-   iomode0 =  0 , fftalg0 =512 , wfoptalg0 =  0
-
- outvars: echo of global parameters not present in the input file
-  max_nthreads =    0
-
 -outvars: echo values of preprocessed input variables --------
            acell      1.0000000000E+00  1.0000000000E+00  1.0000000000E+00 Bohr
              amu      1.37327000E+02  1.38905500E+02  1.21753000E+02
                       1.59994000E+01
             ecut      5.20000000E+01 Hartree
-          fftalg         512
           irdden           1
           irdwfk           1
           istwfk        1
              ixc     -116133
              kpt      5.00000000E-01  5.00000000E-01  0.00000000E+00
           kptopt           0
P           mkmem           1
P          mkqmem           1
P          mk1mem           1
            natom          10
            nband          50
           nbdbuf           4
            ngfft          80      80      80
             nkpt           1
            nstep        2000
             nsym           6
           ntypat           4
              occ      2.000000  2.000000  2.000000  2.000000  2.000000  2.000000
                       2.000000  2.000000  2.000000  2.000000  2.000000  2.000000
                       2.000000  2.000000  2.000000  2.000000  2.000000  2.000000
                       2.000000  2.000000  2.000000  2.000000  2.000000  2.000000
                       2.000000  2.000000  2.000000  2.000000  2.000000  2.000000
                       2.000000  2.000000  2.000000  2.000000  2.000000  2.000000
                       2.000000  2.000000  2.000000  2.000000  2.000000  0.000000
                       0.000000  0.000000  0.000000  0.000000  0.000000  0.000000
                       0.000000  0.000000
        optdriver           1
            prtwf          -1
            rfdir           1       1       1
           rfelfd           2
            rprim      9.9812946503E+00  0.0000000000E+00  5.5994446495E+00
                       3.2791243355E+00  9.4272788486E+00  5.5994446495E+00
                       0.0000000000E+00  0.0000000000E+00  1.1444650422E+01
          spgroup         148
           symrel      1  0  0   0  1  0   0  0  1      -1  0  0   0 -1  0   0  0 -1
                       0  0  1   1  0  0   0  1  0       0  0 -1  -1  0  0   0 -1  0
                       0  1  0   0  0  1   1  0  0       0 -1  0   0  0 -1  -1  0  0
           tolwfr      1.00000000E-20
            typat      1  1  2  3  4  4  4  4  4  4
           useylm           1
           xangst      5.2468837333E+00  3.7301865117E+00  8.9595977588E+00
                       1.7702277704E+00  1.2585145940E+00  3.0228473833E+00
                       0.0000000000E+00  0.0000000000E+00  0.0000000000E+00
                       3.5085557518E+00  2.4943505529E+00  5.9912225711E+00
                       2.9607209117E+00  3.6216772739E+00  4.4189414786E+00
                       2.8062353242E+00  3.9066817681E+00  7.2382682547E+00
                       1.7044244380E+00  1.6065662928E+00  5.9936083011E+00
                       5.3126870656E+00  3.3821348129E+00  5.9888368410E+00
                       4.2108761795E+00  1.0820193376E+00  4.7441768874E+00
                       4.0563905919E+00  1.3670238318E+00  7.5635036635E+00
            xcart      9.9151733070E+00  7.0490309316E+00  1.6931186025E+01
                       3.3452456788E+00  2.3782479170E+00  5.7123536960E+00
                       0.0000000000E+00  0.0000000000E+00  0.0000000000E+00
                       6.6302094929E+00  4.7136394243E+00  1.1321769860E+01
                       5.5949516791E+00  6.8439781894E+00  8.3505891918E+00
                       5.3030162271E+00  7.3825586300E+00  1.3678344678E+01
                       3.2208954020E+00  3.0359703077E+00  1.1326278237E+01
                       1.0039523584E+01  6.3913085409E+00  1.1317261484E+01
                       7.9574027587E+00  2.0447202186E+00  8.9651950432E+00
                       7.6654673067E+00  2.5833006592E+00  1.4292950529E+01
             xred      7.4772700000E-01  7.4772700000E-01  7.4772700000E-01
                       2.5227300000E-01  2.5227300000E-01  2.5227300000E-01
                       0.0000000000E+00  0.0000000000E+00  0.0000000000E+00
                       5.0000000000E-01  5.0000000000E-01  5.0000000000E-01
                       3.2204100000E-01  7.2597600000E-01  2.1689400000E-01
                       2.7402400000E-01  7.8310600000E-01  6.7795900000E-01
                       2.1689400000E-01  3.2204100000E-01  7.2597600000E-01
                       7.8310600000E-01  6.7795900000E-01  2.7402400000E-01
                       7.2597600000E-01  2.1689400000E-01  3.2204100000E-01
                       6.7795900000E-01  2.7402400000E-01  7.8310600000E-01
            znucl       56.00000   57.00000   51.00000    8.00000

 chkinp: Checking input parameters for consistency.

== DATASET  1 ==================================================================
-   mpi_nproc: 1, omp_nthreads: -1 (-1 if OMP is not activated)

--- !DatasetInfo
iteration_state: {dtset: 1, }
dimensions: {natom: 10, nkpt: 1, mband: 50, nsppol: 1, nspinor: 1, nspden: 1, mpw: 19254, }
cutoff_energies: {ecut:  52.0, pawecutdg:  -1.0, }
electrons: {nelect:   8.20000000E+01, charge:   0.00000000E+00, occopt:   1.00000000E+00, tsmear:   1.00000000E-02, }
meta: {optdriver: 1, rfelfd: 2, }
...

 Real(R)+Recip(G) space primitive vectors, cartesian coordinates (Bohr,Bohr^-1):
 R(1)=  9.9812947  0.0000000  5.5994446  G(1)=  0.1001874 -0.0348485  0.0000000
 R(2)=  3.2791243  9.4272788  5.5994446  G(2)=  0.0000000  0.1060751  0.0000000
 R(3)=  0.0000000  0.0000000 11.4446504  G(3)= -0.0490180 -0.0348485  0.0873771
 Unit cell volume ucvol=  1.0769010E+03 bohr^3
 Angles (23,13,12)=  6.07078441E+01  6.07078441E+01  6.07078441E+01 degrees

 getcut: wavevector=  0.0000  0.0000  0.0000  ngfft=  80  80  80
         ecut(hartree)=     52.000   => boxcut(ratio)=   2.15363

--- Pseudopotential description ------------------------------------------------
- pspini: atom type   1  psp file is /scratch/users/j/a/jabreu/pseudos/PBEsol/Ba.psp8
- pspatm: opening atomic psp file    /scratch/users/j/a/jabreu/pseudos/PBEsol/Ba.psp8
- Ba    ONCVPSP-3.3.0  r_core=   2.15444   1.91218   2.15444
- 56.00000  10.00000    180112                znucl, zion, pspdat
    8 -116133    2    4       600   0.00000   pspcod,pspxc,lmax,lloc,mmax,r2well
    5.99000000000000    5.00000000000000    0.00000000000000   rchrg,fchrg,qchrg
     nproj     2     2     2
     extension_switch     1
  pspatm : epsatm=   26.37418029
         --- l  ekb(1:nproj) -->
             0    6.652372    0.677024
             1    5.027722    0.408462
             2    2.543237    0.416854
 pspatm: atomic psp has been read  and splines computed

- pspini: atom type   2  psp file is /scratch/users/j/a/jabreu/pseudos/PBEsol/La.psp8
- pspatm: opening atomic psp file    /scratch/users/j/a/jabreu/pseudos/PBEsol/La.psp8
- La    ONCVPSP-3.3.0  r_core=   2.11664   1.60878   1.85636   1.66739
- 57.00000  11.00000    180112                znucl, zion, pspdat
    8 -116133    3    4       600   0.00000   pspcod,pspxc,lmax,lloc,mmax,r2well
    5.99000000000000    5.00000000000000    0.00000000000000   rchrg,fchrg,qchrg
     nproj     2     2     2     2
     extension_switch     1
  pspatm : epsatm=   29.08531775
         --- l  ekb(1:nproj) -->
             0    6.695600    0.639047
             1    6.383649    1.151322
             2    3.612966    0.847811
             3  -13.718437   -4.858923
 pspatm: atomic psp has been read  and splines computed

[...]

- pspini: atom type   4  psp file is /scratch/users/j/a/jabreu/pseudos/PBEsol/O.psp8
- pspatm: opening atomic psp file    /scratch/users/j/a/jabreu/pseudos/PBEsol/O.psp8
- O     ONCVPSP-3.3.0  r_core=   1.35509   1.45563   1.26150
-  8.00000   6.00000    180112                znucl, zion, pspdat
    8 -116133    2    4       600   0.00000   pspcod,pspxc,lmax,lloc,mmax,r2well
    5.99000000000000    4.00000000000000    0.00000000000000   rchrg,fchrg,qchrg
     nproj     2     2     1
     extension_switch     1
  pspatm : epsatm=    6.22910522
         --- l  ekb(1:nproj) -->
             0    6.050032    0.820363
             1   -4.739617   -1.153841
             2   -1.335834
 pspatm: atomic psp has been read  and splines computed

   1.19363072E+04                                ecore*ucvol(ha*bohr**3)

 ==>  initialize data related to q vector <==

 The list of irreducible perturbations for this q vector is:
    1)    idir= 1    ipert=  11
    2)    idir= 2    ipert=  11
    3)    idir= 3    ipert=  11

 Perturbation wavevector (in red.coord.)   0.000000  0.000000  0.000000
 Perturbation : derivative vs k along direction   1

 dfpt_looppert : COMMENT -
  In a d/dk calculation, iscf is set to -3 automatically.
 The set of symmetries contains only one element for this perturbation.
 symkpt : not enough symmetry to change the number of k points.

 Initialisation of the first-order wave-functions :
  ireadwf=   0

--- !BeginCycle
iteration_state: {dtset: 1, }
solver: {iscf: 7, nstep: 2000, nline: 4, wfoptalg: 0, }
tolerances: {tolwfr: 1.00E-20, }
...

     iter   2DEtotal(Ha)        deltaE(Ha) residm    vres2
-ETOT  1  -45.105738378876     -4.511E+01 7.230E-02 0.000E+00
 ETOT  2  -45.234289386132     -1.286E-01 1.700E-02 0.000E+00
 ETOT  3  -45.237114458879     -2.825E-03 5.162E-03 0.000E+00
 ETOT  4  -45.237239508519     -1.250E-04 3.973E-03 0.000E+00
 ETOT  5  -45.237246358653     -6.850E-06 2.021E-03 0.000E+00
 ETOT  6  -45.237246780011     -4.214E-07 1.730E-03 0.000E+00
 ETOT  7  -45.237246808790     -2.878E-08 1.152E-03 0.000E+00
[...]
 symkpt : not enough symmetry to change the number of k points.

[...]

 Perturbation wavevector (in red.coord.)   0.000000  0.000000  0.000000
 Perturbation : derivative vs k along direction   3
 The set of symmetries contains only one element for this perturbation.
 symkpt : not enough symmetry to change the number of k points.

 Initialisation of the first-order wave-functions :
  ireadwf=   0

--- !BeginCycle
iteration_state: {dtset: 1, }
solver: {iscf: 7, nstep: 2000, nline: 4, wfoptalg: 0, }
tolerances: {tolwfr: 1.00E-20, }
...

     iter   2DEtotal(Ha)        deltaE(Ha) residm    vres2
-ETOT  1  -45.466889218631     -4.547E+01 5.875E-02 0.000E+00
 ETOT  2  -45.611811506611     -1.449E-01 1.194E-02 0.000E+00
 ETOT  3  -45.614699881397     -2.888E-03 3.781E-03 0.000E+00
 ETOT  4  -45.614810353640     -1.105E-04 2.339E-03 0.000E+00
 ETOT  5  -45.614815637167     -5.284E-06 1.615E-03 0.000E+00
 ETOT  6  -45.614815920641     -2.835E-07 1.153E-03 0.000E+00
 ETOT  7  -45.614815937449     -1.681E-08 8.534E-04 0.000E+00
 ETOT  8  -45.614815938513     -1.063E-09 6.474E-04 0.000E+00
 ETOT  9  -45.614815938584     -7.108E-11 5.027E-04 0.000E+00
 ETOT 10  -45.614815938589     -4.945E-12 3.996E-04 0.000E+00
 ETOT 11  -45.614815938589     -3.553E-13 3.214E-04 0.000E+00
 ETOT 12  -45.614815938589     -5.684E-14 2.643E-04 0.000E+00
 ETOT 13  -45.614815938589      1.421E-14 2.175E-04 0.000E+00
 ETOT 14  -45.614815938589      0.000E+00 1.835E-04 0.000E+00
 ETOT 15  -45.614815938589      0.000E+00 1.598E-04 0.000E+00
 ETOT 16  -45.614815938589      0.000E+00 1.429E-04 0.000E+00
 ETOT 17  -45.614815938589      0.000E+00 1.257E-04 0.000E+00
 ETOT 18  -45.614815938589      0.000E+00 1.125E-04 0.000E+00
 ETOT 19  -45.614815938589      1.421E-14 9.963E-05 0.000E+00
 ETOT 20  -45.614815938589     -7.105E-15 8.919E-05 0.000E+00
 ETOT 21  -45.614815938589      2.132E-14 7.934E-05 0.000E+00
 ETOT 22  -45.614815938589     -4.263E-14 7.100E-05 0.000E+00
 ETOT 23  -45.614815938589      4.263E-14 6.335E-05 0.000E+00
 ETOT 24  -45.614815938589     -2.842E-14 5.665E-05 0.000E+00
 ETOT 25  -45.614815938589     -1.421E-14 5.067E-05 0.000E+00
 ETOT 26  -45.614815938589      2.842E-14 4.527E-05 0.000E+00
 ETOT 27  -45.614815938589      1.421E-14 4.056E-05 0.000E+00
 ETOT 28  -45.614815938589      0.000E+00 3.622E-05 0.000E+00
 ETOT 29  -45.614815938589      1.421E-14 3.249E-05 0.000E+00
 ETOT 30  -45.614815938589     -1.421E-14 2.899E-05 0.000E+00
 ETOT 31  -45.614815938589     -7.105E-15 2.603E-05 0.000E+00
 ETOT 32  -45.614815938589      0.000E+00 2.321E-05 0.000E+00
 ETOT 33  -45.614815938589      1.421E-14 2.086E-05 0.000E+00
 ETOT 34  -45.614815938589     -1.421E-14 1.859E-05 0.000E+00
 ETOT 35  -45.614815938589      0.000E+00 1.672E-05 0.000E+00
 ETOT 36  -45.614815938589     -7.105E-15 1.490E-05 0.000E+00
 ETOT 37  -45.614815938589      0.000E+00 1.341E-05 0.000E+00
 ETOT 38  -45.614815938589      1.421E-14 1.194E-05 0.000E+00
 ETOT 39  -45.614815938589     -1.421E-14 1.075E-05 0.000E+00
 ETOT 40  -45.614815938589      7.105E-15 9.567E-06 0.000E+00
 ETOT 41  -45.614815938589      0.000E+00 8.617E-06 0.000E+00
 ETOT 42  -45.614815938589      0.000E+00 7.668E-06 0.000E+00
 ETOT 43  -45.614815938589      0.000E+00 6.909E-06 0.000E+00
 ETOT 44  -45.614815938589      7.105E-15 6.146E-06 0.000E+00
 ETOT 45  -45.614815938589      0.000E+00 5.540E-06 0.000E+00
 ETOT 46  -45.614815938589     -7.105E-15 4.927E-06 0.000E+00
 ETOT 47  -45.614815938589      7.105E-15 4.442E-06 0.000E+00
 ETOT 48  -45.614815938589      0.000E+00 3.950E-06 0.000E+00
 ETOT 49  -45.614815938589      0.000E+00 3.562E-06 0.000E+00
 ETOT 50  -45.614815938589      0.000E+00 3.167E-06 0.000E+00
 ETOT 51  -45.614815938589      0.000E+00 2.856E-06 0.000E+00
 ETOT 52  -45.614815938589      0.000E+00 2.539E-06 0.000E+00
 ETOT 53  -45.614815938589      0.000E+00 2.290E-06 0.000E+00
 ETOT 54  -45.614815938589      0.000E+00 2.036E-06 0.000E+00
 ETOT 55  -45.614815938589      0.000E+00 1.836E-06 0.000E+00
 ETOT 56  -45.614815938589      1.421E-14 1.632E-06 0.000E+00
 ETOT 57  -45.614815938589     -1.421E-14 1.473E-06 0.000E+00
 ETOT 58  -45.614815938589      0.000E+00 1.309E-06 0.000E+00
 ETOT 59  -45.614815938589     -7.105E-15 1.181E-06 0.000E+00
 ETOT 60  -45.614815938589      2.132E-14 1.050E-06 0.000E+00
 ETOT 61  -45.614815938589     -1.421E-14 9.471E-07 0.000E+00
[...]
 ETOT  340  -45.614815938589      0.000E+00 4.397E-20 0.000E+00
 ETOT  341  -45.614815938589      1.421E-14 3.944E-20 0.000E+00
 ETOT  342  -45.614815938589     -1.421E-14 3.530E-20 0.000E+00
 ETOT  343  -45.614815938589      2.132E-14 3.166E-20 0.000E+00
 ETOT  344  -45.614815938589     -2.132E-14 2.833E-20 0.000E+00
 ETOT  345  -45.614815938589      7.105E-15 2.541E-20 0.000E+00
 ETOT  346  -45.614815938589     -7.105E-15 2.274E-20 0.000E+00
 ETOT  347  -45.614815938589      2.132E-14 2.040E-20 0.000E+00
 ETOT  348  -45.614815938589      0.000E+00 1.826E-20 0.000E+00
 ETOT  349  -45.614815938589     -1.421E-14 1.637E-20 0.000E+00
 ETOT  350  -45.614815938589      0.000E+00 1.465E-20 0.000E+00
 ETOT  351  -45.614815938589     -1.421E-14 1.314E-20 0.000E+00
 ETOT  352  -45.614815938589      7.105E-15 1.176E-20 0.000E+00
 ETOT  353  -45.614815938589      7.105E-15 1.055E-20 0.000E+00
 ETOT  354  -45.614815938589     -1.421E-14 9.904E-21 0.000E+00

 At SCF step  354   max residual=  9.90E-21 < tolwfr=  1.00E-20 =>converged.

 ----iterations are completed or convergence reached----

 dfpt_looppert: DFPT cycle converged with prtwf=-1. Will skip output of the 1st-order WFK file.
 dfpt_looppert : ek2=    7.2850221791E+01
          f-sum rule ratio=    9.7926736269E-01
 prteigrs : about to open file /scratch/users/j/a/jabreu/flow_simple_10atoms/flow/w478/t1/tmpdata/tmp_1WF1_EIG
 Expectation of eigenvalue derivatives (hartree) for nkpt=   1  k points:
  (in case of degenerate eigenvalues, averaged derivative)
 kpt#   1, nband= 50, wtk=  1.00000, kpt=  0.5000  0.5000  0.0000 (reduced coord)
   0.00000   -0.00000    0.00000   -0.00000   -0.00000    0.00000   -0.00000    0.00000
   0.00000   -0.00000    0.00000    0.00000    0.00000    0.00000   -0.00000   -0.00000
   0.00000   -0.00000    0.00000   -0.00000   -0.00000   -0.00000    0.00000   -0.00000
  -0.00000   -0.00000   -0.00000   -0.00000    0.00000    0.00000   -0.00000    0.00000
   0.00000   -0.00000    0.00000   -0.00000    0.00000    0.00000    0.00000    0.00000
   0.00000   -0.00000    0.00000    0.00000    0.00000    0.00000    0.00000    0.00000
   0.00000    0.00000

 Eight components of 2nd-order total energy (hartree) are
 1,2,3: 0th-order hamiltonian combined with 1st-order wavefunctions
     kin0=   8.72433630E+01 eigvalue=   8.53380795E-01  local=  -4.47462643E+01
 4,5,6: 1st-order hamiltonian combined with 1st and 0th-order wfs
     kin1=  -7.13398446E+01  Hartree=   0.00000000E+00     xc=   0.00000000E+00
 7,8,9: eventually, occupation + non-local contributions
    edocc=   3.65725220E+00     enl0=  -1.39291581E+00   enl1=  -1.98897873E+01
 1-9 gives the relaxation energy (to be shifted if some occ is /=2.0)
   erelax=  -4.56148159E+01
  No Ewald or frozen-wf contrib.: the relaxation energy is the total one
 2DEtotal=   -0.4561481594E+02 Ha. Also 2DEtotal=   -0.124124226621E+04 eV
    (  non-var. 2DEtotal :   -4.5614815938E+01 Ha)

 CALCULATION OF EFFECTIVE MASSES
 NOTE : Additional infos (eff. mass eigenvalues, eigenvectors and, if degenerate, average mass) are available in stdout.

--- !WARNING
src_file: m_efmas.F90
src_line: 0
message: |

    Band(s)    41,
    are not band extrema, but saddle points;
    the transport equivalent formalism breaks down in these conditions.
    The associated tensor(s) will therefore not be printed.
...

 K-point ( 0.500, 0.500, 0.000) | band =    41
 Effective mass tensor:
     *** SADDLE POINT: TRANSPORT EQV. EFF. MASS NOT DEFINED (see WARNING above) ***
 Angular average effective mass 1/(<1/m>)= -16.0230758619
 Angular average effective mass for Frohlich model (<m**0.5>)**2= -42.0861748510
 Effective masses along directions: (cart. coord. / red. coord. -> eff. mass)
    1:   1.000000  0.000000  0.000000 /   0.950044  0.312115  0.000000 -> **************
    2:   0.000000  1.000000  0.000000 /   0.000000  1.000000  0.000000 -> -25.4846024806
    3:   0.000000  0.000000  1.000000 /   0.402341  0.402341  0.822340 ->  -6.9828577071
    4:   0.577350  0.577350  0.577350 /   0.585212  0.687566  0.429860 -> -28.0250987569
    5:   0.000000  0.707107  0.707107 /   0.284219  0.762732  0.580912 -> -23.0536609657
    6:   0.707107  0.000000  0.707107 /   0.732396  0.417350  0.537973 -> -16.4480287697
    7:   0.707107  0.707107  0.000000 /   0.617733  0.786388  0.000000 -> -23.2753988042

 K-point ( 0.500, 0.500, 0.000) | band =    42
 Effective mass tensor:
              0.6227719341             -0.0699905732             -0.0038897653
             -0.0699905732              0.5991089087              0.0154039966
             -0.0038897653              0.0154039966              0.7048915582
 Effective mass tensor eigenvalues:
              0.5394355725              0.6762301244              0.7111067042
 Angular average effective mass 1/(<1/m>)=   0.6330670219
 Angular average effective mass for Frohlich model (<m**0.5>)**2=   0.6359140699
 Effective masses along directions: (cart. coord. / red. coord. -> eff. mass)
    1:   1.000000  0.000000  0.000000 /   0.950044  0.312115  0.000000 ->   0.6145891218
    2:   0.000000  1.000000  0.000000 /   0.000000  1.000000  0.000000 ->   0.5909251795
    3:   0.000000  0.000000  1.000000 /   0.402341  0.402341  0.822340 ->   0.7044883895
    4:   0.577350  0.577350  0.577350 /   0.585212  0.687566  0.429860 ->   0.5932902431
    5:   0.000000  0.707107  0.707107 /   0.284219  0.762732  0.580912 ->   0.6579237502
    6:   0.707107  0.000000  0.707107 /   0.732396  0.417350  0.537973 ->   0.6544013976
    7:   0.707107  0.707107  0.000000 /   0.617733  0.786388  0.000000 ->   0.5406446343

 END OF EFFECTIVE MASSES SECTION

 ---- first-order wavefunction calculations are completed ----

 Total localisation tensor (bohr^2) in cartesian coordinates
  WARNING : still subject to testing - especially symmetries.
      direction              matrix element
   alpha     beta       real part   imaginary part
     1        1       0.9437594062    0.0000000000
     1        2       0.2674004494    0.0000000000
     1        3       0.6360903638    0.0000000000
     2        1       0.2674004494    0.0000000000
     2        2       0.7687596880    0.0000000000
     2        3       0.4566139806    0.0000000000
     3        1       0.6360903638    0.0000000000
     3        2       0.4566139806    0.0000000000
     3        3       1.6862392307    0.0000000000

 respfn : d/dk was computed, but no 2DTE, so no DDB output.

== END DATASET(S) ==============================================================

 -outvars: echo values of variables after computation  --------
            acell      1.0000000000E+00  1.0000000000E+00  1.0000000000E+00 Bohr
              amu      1.37327000E+02  1.38905500E+02  1.21753000E+02
                       1.59994000E+01
             ecut      5.20000000E+01 Hartree
           etotal     -4.5614815939E+01
            fcart      0.0000000000E+00  0.0000000000E+00  0.0000000000E+00
                       0.0000000000E+00  0.0000000000E+00  0.0000000000E+00
                       0.0000000000E+00  0.0000000000E+00  0.0000000000E+00
                       0.0000000000E+00  0.0000000000E+00  0.0000000000E+00
                       0.0000000000E+00  0.0000000000E+00  0.0000000000E+00
                       0.0000000000E+00  0.0000000000E+00  0.0000000000E+00
                       0.0000000000E+00  0.0000000000E+00  0.0000000000E+00
                       0.0000000000E+00  0.0000000000E+00  0.0000000000E+00
                       0.0000000000E+00  0.0000000000E+00  0.0000000000E+00
                       0.0000000000E+00  0.0000000000E+00  0.0000000000E+00
-          fftalg         512
           irdden           1
           irdwfk           1
           istwfk        1
              ixc     -116133
              kpt      5.00000000E-01  5.00000000E-01  0.00000000E+00
           kptopt           0
P           mkmem           1
P          mkqmem           1
P          mk1mem           1
            natom          10
            nband          50
           nbdbuf           4
            ngfft          80      80      80
             nkpt           1
            nstep        2000
             nsym           6
           ntypat           4
              occ      2.000000  2.000000  2.000000  2.000000  2.000000  2.000000
                       2.000000  2.000000  2.000000  2.000000  2.000000  2.000000
                       2.000000  2.000000  2.000000  2.000000  2.000000  2.000000
                       2.000000  2.000000  2.000000  2.000000  2.000000  2.000000
                       2.000000  2.000000  2.000000  2.000000  2.000000  2.000000
                       2.000000  2.000000  2.000000  2.000000  2.000000  2.000000
                       2.000000  2.000000  2.000000  2.000000  2.000000  0.000000
                       0.000000  0.000000  0.000000  0.000000  0.000000  0.000000
                       0.000000  0.000000
        optdriver           1
            prtwf          -1
            rfdir           1       1       1
           rfelfd           2
            rprim      9.9812946503E+00  0.0000000000E+00  5.5994446495E+00
                       3.2791243355E+00  9.4272788486E+00  5.5994446495E+00
                       0.0000000000E+00  0.0000000000E+00  1.1444650422E+01
          spgroup         148
           strten      0.0000000000E+00  0.0000000000E+00  0.0000000000E+00
                       0.0000000000E+00  0.0000000000E+00  0.0000000000E+00
           symrel      1  0  0   0  1  0   0  0  1      -1  0  0   0 -1  0   0  0 -1
                       0  0  1   1  0  0   0  1  0       0  0 -1  -1  0  0   0 -1  0
                       0  1  0   0  0  1   1  0  0       0 -1  0   0  0 -1  -1  0  0
           tolwfr      1.00000000E-20
            typat      1  1  2  3  4  4  4  4  4  4
           useylm           1
           xangst      5.2468837333E+00  3.7301865117E+00  8.9595977588E+00
                       1.7702277704E+00  1.2585145940E+00  3.0228473833E+00
                       0.0000000000E+00  0.0000000000E+00  0.0000000000E+00
                       3.5085557518E+00  2.4943505529E+00  5.9912225711E+00
                       2.9607209117E+00  3.6216772739E+00  4.4189414786E+00
                       2.8062353242E+00  3.9066817681E+00  7.2382682547E+00
                       1.7044244380E+00  1.6065662928E+00  5.9936083011E+00
                       5.3126870656E+00  3.3821348129E+00  5.9888368410E+00
                       4.2108761795E+00  1.0820193376E+00  4.7441768874E+00
                       4.0563905919E+00  1.3670238318E+00  7.5635036635E+00
            xcart      9.9151733070E+00  7.0490309316E+00  1.6931186025E+01
                       3.3452456788E+00  2.3782479170E+00  5.7123536960E+00
                       0.0000000000E+00  0.0000000000E+00  0.0000000000E+00
                       6.6302094929E+00  4.7136394243E+00  1.1321769860E+01
                       5.5949516791E+00  6.8439781894E+00  8.3505891918E+00
                       5.3030162271E+00  7.3825586300E+00  1.3678344678E+01
                       3.2208954020E+00  3.0359703077E+00  1.1326278237E+01
                       1.0039523584E+01  6.3913085409E+00  1.1317261484E+01
                       7.9574027587E+00  2.0447202186E+00  8.9651950432E+00
                       7.6654673067E+00  2.5833006592E+00  1.4292950529E+01
             xred      7.4772700000E-01  7.4772700000E-01  7.4772700000E-01
                       2.5227300000E-01  2.5227300000E-01  2.5227300000E-01
                       0.0000000000E+00  0.0000000000E+00  0.0000000000E+00
                       5.0000000000E-01  5.0000000000E-01  5.0000000000E-01
                       3.2204100000E-01  7.2597600000E-01  2.1689400000E-01
                       2.7402400000E-01  7.8310600000E-01  6.7795900000E-01
                       2.1689400000E-01  3.2204100000E-01  7.2597600000E-01
                       7.8310600000E-01  6.7795900000E-01  2.7402400000E-01
                       7.2597600000E-01  2.1689400000E-01  3.2204100000E-01
                       6.7795900000E-01  2.7402400000E-01  7.8310600000E-01
            znucl       56.00000   57.00000   51.00000    8.00000

- Timing analysis has been suppressed with timopt=0

 Suggested references for the acknowledgment of ABINIT usage.

 Calculation completed.
.Delivered   3 WARNINGs and   5 COMMENTs to log file.