.Version 9.5.1 of ABINIT

 ABINIT is a project of the Universite Catholique de Louvain,
 Corning Inc. and other collaborators, see ~abinit/doc/developers/contributors.txt .
 acknowledgments of the ABINIT effort.

.Starting date : Tue 27 Apr 2021.
- ( at 18h33 )

- input  file    -> /scratch/users/j/a/jabreu/flow_simple_4atoms/flow/w190/t1/run.abi
- output file    -> /scratch/users/j/a/jabreu/flow_simple_4atoms/flow/w190/t1/run.abo
- root for input  files -> /scratch/users/j/a/jabreu/flow_simple_4atoms/flow/w190/t1/indata/in
- root for output files -> /scratch/users/j/a/jabreu/flow_simple_4atoms/flow/w190/t1/outdata/out

 Symmetries : space group Im m m (# 71); Bravais oI (body-center ortho.)
     intxc =       0      iscf =       7    lmnmax =      18     lnmax =       6
     mgfft =      54  mpssoang =       3    mqgrid =    3001     natom =       4
  nloc_mem =       1    nspden =       1   nspinor =       1    nsppol =       1
      nsym =       8    n1xccc =    2501    ntypat =       2    occopt =       1
   xclevel =       2
-    mband =          24        mffmem =           1         mkmem =           2
-   mkqmem =           2        mk1mem =           2           mpw =        6523
      nfft =      157464          nkpt =           2
  Rough estimation (10% accuracy) of disk space for files :

------------- Echo of variables that govern the present computation ------------
-
- outvars: echo of selected default values
-   iomode0 =  0 , fftalg0 =512 , wfoptalg0 =  0
-
- outvars: echo of global parameters not present in the input file
-  max_nthreads =    0
-
 -outvars: echo values of preprocessed input variables --------
            acell      1.0000000000E+00  1.0000000000E+00  1.0000000000E+00 Bohr
              amu      8.54678000E+01  3.20660000E+01
             ecut      2.70000000E+01 Hartree
-          fftalg         512
           irdden           1
           irdwfk           1
              ixc     -116133
              kpt      5.00000000E-01  5.00000000E-01 -5.00000000E-01
                       2.31456162E-01 -2.31456162E-01  2.31456162E-01
           kptopt           0
P           mkmem           2
P          mkqmem           2
P          mk1mem           2
            natom           4
            nband          24
           nbdbuf           4
            ngfft          54      54      54
             nkpt           2
            nstep         100
             nsym           8
           ntypat           2
              occ      2.000000  2.000000  2.000000  2.000000  2.000000  2.000000
                       2.000000  2.000000  2.000000  2.000000  2.000000  2.000000
                       2.000000  2.000000  2.000000  0.000000  0.000000  0.000000
                       0.000000  0.000000  0.000000  0.000000  0.000000  0.000000
        optdriver           1
            prtwf          -1
            rfdir           1       1       1
           rfelfd           2
            rprim      1.0609663011E+01  0.0000000000E+00 -4.0025127727E+00
                      -2.6568795855E+00  8.0816160818E+00 -7.4975682769E+00
                       0.0000000000E+00  0.0000000000E+00  1.1339535162E+01
          spgroup          71
           symrel      1  0  0   0  1  0   0  0  1      -1  0  0   0 -1  0   0  0 -1
                       0  0  1  -1 -1 -1   1  0  0       0  0 -1   1  1  1  -1  0  0
                      -1 -1 -1   0  0  1   0  1  0       1  1  1   0  0 -1   0 -1  0
                       0  1  0   1  0  0  -1 -1 -1       0 -1  0  -1  0  0   1  1  1
           tolwfr      1.00000000E-20
            typat      1  1  2  2
           useylm           1
              wtk        0.50000    0.50000
           xangst      9.4524322634E-01  9.6055587722E-01 -1.3668640441E+00
                       3.2631885070E+00  3.3160511618E+00 -4.7187167442E+00
                       1.6773912846E-01  2.1383035195E+00  1.6186791200E+00
                       4.0406926049E+00  2.1383035195E+00 -1.7036363446E+00
            xcart      1.7862508267E+00  1.8151875433E+00 -2.5829987043E+00
                       6.1665325983E+00  6.2664285385E+00 -8.9170823453E+00
                       3.1698101456E-01  4.0408080409E+00  3.0588602339E+00
                       7.6358024104E+00  4.0408080409E+00 -3.2194061214E+00
             xred      2.2460700000E-01  2.2460700000E-01 -4.1633363423E-17
                       7.7539300000E-01  7.7539300000E-01  2.7755575616E-17
                       1.5508700000E-01  5.0000000000E-01  6.5508700000E-01
                       8.4491300000E-01  5.0000000000E-01  3.4491300000E-01
            znucl       37.00000   16.00000

 chkinp: Checking input parameters for consistency.

== DATASET  1 ==================================================================
-   mpi_nproc: 1, omp_nthreads: -1 (-1 if OMP is not activated)

--- !DatasetInfo
iteration_state: {dtset: 1, }
dimensions: {natom: 4, nkpt: 2, mband: 24, nsppol: 1, nspinor: 1, nspden: 1, mpw: 6523, }
cutoff_energies: {ecut:  27.0, pawecutdg:  -1.0, }
electrons: {nelect:   3.00000000E+01, charge:   0.00000000E+00, occopt:   1.00000000E+00, tsmear:   1.00000000E-02, }
meta: {optdriver: 1, rfelfd: 2, }
...

 Real(R)+Recip(G) space primitive vectors, cartesian coordinates (Bohr,Bohr^-1):
 R(1)= 10.6096630  0.0000000 -4.0025128  G(1)=  0.0942537  0.0309865  0.0000000
 R(2)= -2.6568796  8.0816161 -7.4975683  G(2)=  0.0000000  0.1237376  0.0000000
 R(3)=  0.0000000  0.0000000 11.3395352  G(3)=  0.0332687  0.0927512  0.0881870
 Unit cell volume ucvol=  9.7228829E+02 bohr^3
 Angles (23,13,12)=  1.31390564E+02  1.10669066E+02  8.91887755E+01 degrees

 getcut: wavevector=  0.0000  0.0000  0.0000  ngfft=  54  54  54
         ecut(hartree)=     27.000   => boxcut(ratio)=   2.03633

--- Pseudopotential description ------------------------------------------------
- pspini: atom type   1  psp file is /scratch/users/j/a/jabreu/pseudos/PBEsol/Rb.psp8
- pspatm: opening atomic psp file    /scratch/users/j/a/jabreu/pseudos/PBEsol/Rb.psp8
- Rb    ONCVPSP-3.3.0  r_core=   1.71227   1.75361   1.90633
- 37.00000   9.00000    180112                znucl, zion, pspdat
    8 -116133    2    4       600   0.00000   pspcod,pspxc,lmax,lloc,mmax,r2well
    5.99000000000000    7.00000000000000    0.00000000000000   rchrg,fchrg,qchrg
     nproj     2     2     2
     extension_switch     1
  pspatm : epsatm=   34.48400912
         --- l  ekb(1:nproj) -->
             0    8.196957   -0.477221
             1    3.231347   -0.378736
             2   -1.047201    0.996637
 pspatm: atomic psp has been read  and splines computed

- pspini: atom type   2  psp file is /scratch/users/j/a/jabreu/pseudos/PBEsol/S.psp8
- pspatm: opening atomic psp file    /scratch/users/j/a/jabreu/pseudos/PBEsol/S.psp8
- S     ONCVPSP-3.3.0  r_core=   1.45376   1.45376   1.61851
- 16.00000   6.00000    180112                znucl, zion, pspdat
    8 -116133    2    4       600   0.00000   pspcod,pspxc,lmax,lloc,mmax,r2well
    5.99000000000000    6.00000000000000    0.00000000000000   rchrg,fchrg,qchrg
     nproj     2     2     2
     extension_switch     1
  pspatm : epsatm=    8.71840985
         --- l  ekb(1:nproj) -->
             0    6.834532    0.579453
             1    3.282851    0.896984
             2   -3.496974   -0.974265
 pspatm: atomic psp has been read  and splines computed

   2.59214514E+03                                ecore*ucvol(ha*bohr**3)

-inwffil : will read wavefunctions from disk file /scratch/users/j/a/jabreu/flow_simple_4atoms/flow/w190/t1/indata/in_WFK

 ==>  initialize data related to q vector <==

 The list of irreducible perturbations for this q vector is:
    1)    idir= 1    ipert=   5
    2)    idir= 2    ipert=   5
    3)    idir= 3    ipert=   5

 Perturbation wavevector (in red.coord.)   0.000000  0.000000  0.000000
 Perturbation : derivative vs k along direction   1

 dfpt_looppert : COMMENT -
  In a d/dk calculation, iscf is set to -3 automatically.
 The set of symmetries contains only one element for this perturbation.
 symkpt : not enough symmetry to change the number of k points.

[...]

 Initialisation of the first-order wave-functions :
  ireadwf=   0

--- !BeginCycle
iteration_state: {dtset: 1, }
solver: {iscf: 7, nstep: 100, nline: 4, wfoptalg: 0, }
tolerances: {tolwfr: 1.00E-20, }
...

     iter   2DEtotal(Ha)        deltaE(Ha) residm    vres2
-ETOT  1  -11.644053548455     -1.164E+01 3.675E-02 0.000E+00
 ETOT  2  -11.652203257643     -8.150E-03 1.919E-03 0.000E+00
 ETOT  3  -11.652244232733     -4.098E-05 5.318E-05 0.000E+00
 ETOT  4  -11.652244542414     -3.097E-07 3.517E-06 0.000E+00
 ETOT  5  -11.652244545129     -2.715E-09 1.374E-07 0.000E+00
 ETOT  6  -11.652244545154     -2.530E-11 9.471E-09 0.000E+00
 ETOT  7  -11.652244545154     -2.576E-13 3.908E-10 0.000E+00
 ETOT  8  -11.652244545154     -8.882E-15 2.720E-11 0.000E+00
 ETOT  9  -11.652244545154      3.553E-15 1.152E-12 0.000E+00
 ETOT 10  -11.652244545154     -5.329E-15 8.068E-14 0.000E+00
 ETOT 11  -11.652244545154      0.000E+00 3.469E-15 0.000E+00
 ETOT 12  -11.652244545154      0.000E+00 2.444E-16 0.000E+00
 ETOT 13  -11.652244545154      3.553E-15 1.060E-17 0.000E+00
 ETOT 14  -11.652244545154      0.000E+00 7.511E-19 0.000E+00
 ETOT 15  -11.652244545154     -3.553E-15 3.475E-20 0.000E+00
 ETOT 16  -11.652244545154      0.000E+00 9.685E-21 0.000E+00

 At SCF step   16   max residual=  9.69E-21 < tolwfr=  1.00E-20 =>converged.

 ----iterations are completed or convergence reached----

 dfpt_looppert: DFPT cycle converged with prtwf=-1. Will skip output of the 1st-order WFK file.
 dfpt_looppert : ek2=    2.3317345967E+01
          f-sum rule ratio=    1.0138683230E+00
 prteigrs : about to open file /scratch/users/j/a/jabreu/flow_simple_4atoms/flow/w190/t1/tmpdata/tmp_1WF1_EIG
 Expectation of eigenvalue derivatives (hartree) for nkpt=   2  k points:
  (in case of degenerate eigenvalues, averaged derivative)
 kpt#   1, nband= 24, wtk=  0.50000, kpt=  0.5000  0.5000 -0.5000 (reduced coord)
   0.00000   -0.00000    0.00000    0.00000   -0.00000    0.00000   -0.00000    0.00000
   0.00000   -0.00000   -0.00000   -0.00000    0.00000    0.00000    0.00000    0.00000
  -0.00000   -0.00000   -0.00000   -0.00000   -0.00000    0.00000   -0.00000   -0.00106
 prteigrs : prtvol=0 or 1, do not print more k-points.

 Eight components of 2nd-order total energy (hartree) are
 1,2,3: 0th-order hamiltonian combined with 1st-order wavefunctions
     kin0=   1.12847996E+01 eigvalue=   1.59529832E+00  local=  -6.44331991E+00
 4,5,6: 1st-order hamiltonian combined with 1st and 0th-order wfs
     kin1=  -2.36407185E+01  Hartree=   0.00000000E+00     xc=   0.00000000E+00
 7,8,9: eventually, occupation + non-local contributions
    edocc=   5.10014926E+00     enl0=   1.15317247E-01   enl1=   3.36229363E-01
 1-9 gives the relaxation energy (to be shifted if some occ is /=2.0)
   erelax=  -1.16522445E+01
  No Ewald or frozen-wf contrib.: the relaxation energy is the total one
 2DEtotal=   -0.1165224455E+02 Ha. Also 2DEtotal=   -0.317073699149E+03 eV
    (  non-var. 2DEtotal :   -1.1652244545E+01 Ha)

 Perturbation wavevector (in red.coord.)   0.000000  0.000000  0.000000
 Perturbation : derivative vs k along direction   2
 The set of symmetries contains only one element for this perturbation.
 symkpt : not enough symmetry to change the number of k points.

[...]

 Perturbation wavevector (in red.coord.)   0.000000  0.000000  0.000000
 Perturbation : derivative vs k along direction   3
 The set of symmetries contains only one element for this perturbation.
 symkpt : not enough symmetry to change the number of k points.

-inwffil : will read wavefunctions from disk file /scratch/users/j/a/jabreu/flow_simple_4atoms/flow/w190/t1/indata/in_WFK

 Initialisation of the first-order wave-functions :
  ireadwf=   0

--- !BeginCycle
iteration_state: {dtset: 1, }
solver: {iscf: 7, nstep: 100, nline: 4, wfoptalg: 0, }
tolerances: {tolwfr: 1.00E-20, }
...

     iter   2DEtotal(Ha)        deltaE(Ha) residm    vres2
-ETOT  1  -21.312508657638     -2.131E+01 2.077E-01 0.000E+00
 ETOT  2  -21.327975021537     -1.547E-02 2.235E-03 0.000E+00
 ETOT  3  -21.328039594909     -6.457E-05 2.572E-04 0.000E+00
 ETOT  4  -21.328039969005     -3.741E-07 3.676E-06 0.000E+00
 ETOT  5  -21.328039971490     -2.485E-09 5.089E-07 0.000E+00
 ETOT  6  -21.328039971508     -1.764E-11 3.338E-08 0.000E+00
 ETOT  7  -21.328039971508     -1.101E-13 4.383E-09 0.000E+00
 ETOT  8  -21.328039971508     -1.066E-14 2.590E-10 0.000E+00
 ETOT  9  -21.328039971508      3.553E-15 3.658E-11 0.000E+00
 ETOT 10  -21.328039971508      1.421E-14 2.232E-12 0.000E+00
 ETOT 11  -21.328039971508     -1.066E-14 4.617E-13 0.000E+00
 ETOT 12  -21.328039971508      3.553E-15 2.578E-14 0.000E+00
 ETOT 13  -21.328039971508      0.000E+00 5.431E-15 0.000E+00
 ETOT 14  -21.328039971508      0.000E+00 3.043E-16 0.000E+00
 ETOT 15  -21.328039971508      0.000E+00 6.473E-17 0.000E+00
 ETOT 16  -21.328039971508      0.000E+00 3.681E-18 0.000E+00
 ETOT 17  -21.328039971508      0.000E+00 7.884E-19 0.000E+00
 ETOT 18  -21.328039971508      0.000E+00 4.581E-20 0.000E+00
 ETOT 19  -21.328039971508      0.000E+00 9.884E-21 0.000E+00

 At SCF step   19   max residual=  9.88E-21 < tolwfr=  1.00E-20 =>converged.

 ----iterations are completed or convergence reached----

 dfpt_looppert: DFPT cycle converged with prtwf=-1. Will skip output of the 1st-order WFK file.
 dfpt_looppert : ek2=    4.1420450425E+01
          f-sum rule ratio=    1.0457085926E+00
 prteigrs : about to open file /scratch/users/j/a/jabreu/flow_simple_4atoms/flow/w190/t1/tmpdata/tmp_1WF1_EIG
 Expectation of eigenvalue derivatives (hartree) for nkpt=   2  k points:
  (in case of degenerate eigenvalues, averaged derivative)
 kpt#   1, nband= 24, wtk=  0.50000, kpt=  0.5000  0.5000 -0.5000 (reduced coord)
  -0.00000   -0.00000    0.00000    0.00000    0.00000    0.00000   -0.00000    0.00000
   0.00000   -0.00000   -0.00000    0.00000    0.00000    0.00000   -0.00000    0.00000
  -0.00000   -0.00000   -0.00000   -0.00000    0.00000    0.00000    0.00032    0.00007
 prteigrs : prtvol=0 or 1, do not print more k-points.

 Eight components of 2nd-order total energy (hartree) are
 1,2,3: 0th-order hamiltonian combined with 1st-order wavefunctions
     kin0=   1.84557786E+01 eigvalue=   2.75856282E+00  local=  -1.03724114E+01
 4,5,6: 1st-order hamiltonian combined with 1st and 0th-order wfs
     kin1=  -4.33137209E+01  Hartree=   0.00000000E+00     xc=   0.00000000E+00
 7,8,9: eventually, occupation + non-local contributions
    edocc=   1.02713026E+01     enl0=   2.14807336E-01   enl1=   6.57640975E-01
 1-9 gives the relaxation energy (to be shifted if some occ is /=2.0)
   erelax=  -2.13280400E+01
  No Ewald or frozen-wf contrib.: the relaxation energy is the total one
 2DEtotal=   -0.2132803997E+02 Ha. Also 2DEtotal=   -0.580365482646E+03 eV
    (  non-var. 2DEtotal :   -2.1328039971E+01 Ha)

 CALCULATION OF EFFECTIVE MASSES
 NOTE : Additional infos (eff. mass eigenvalues, eigenvectors and, if degenerate, average mass) are available in stdout.

 K-point ( 0.500, 0.500,-0.500) | band =    15
 Effective mass tensor:
             -2.3027056671             -0.2206251991             -0.0737407899
             -0.2206251991             -1.7491817170              0.3190338871
             -0.0737407899              0.3190338871             -2.2470680595
 Effective mass tensor eigenvalues:
             -2.4202725346             -2.3537005039             -1.5249824050
 Angular average effective mass 1/(<1/m>)=  -2.0083214519
 Angular average effective mass for Frohlich model (<m**0.5>)**2=  -2.0373012657
 Effective masses along directions: (cart. coord. / red. coord. -> eff. mass)
    1:   1.000000  0.000000  0.000000 /   0.970046 -0.242920  0.000000 ->  -2.2689428215
    2:   0.000000  1.000000  0.000000 /   0.000000  1.000000  0.000000 ->  -1.6806693841
    3:   0.000000  0.000000  1.000000 /  -0.282443 -0.529076  0.800190 ->  -2.1831684538
    4:   0.577350  0.577350  0.577350 /   0.497276 -0.156008  0.853451 ->  -1.9983881662
    5:   0.000000  0.707107  0.707107 /  -0.332452  0.048512  0.941872 ->  -1.6314170831
    6:   0.707107  0.000000  0.707107 /   0.398171 -0.611944  0.683362 ->  -2.3449864146
    7:   0.707107  0.707107  0.000000 /   0.890366  0.455245  0.000000 ->  -2.1829696553

 K-point ( 0.231,-0.231, 0.231) | band =    16
 Effective mass tensor:
              0.5843269884              0.0025919951             -0.2168207930
              0.0025919951              0.8926091676             -0.0037482724
             -0.2168207930             -0.0037482724              0.7479189126
 Effective mass tensor eigenvalues:
              0.4343863852              0.8899751094              0.9004935739
 Angular average effective mass 1/(<1/m>)=   0.6613425711
 Angular average effective mass for Frohlich model (<m**0.5>)**2=   0.6871950542
 Effective masses along directions: (cart. coord. / red. coord. -> eff. mass)
    1:   1.000000  0.000000  0.000000 /   0.970046 -0.242920  0.000000 ->   0.5214683624
    2:   0.000000  1.000000  0.000000 /   0.000000  1.000000  0.000000 ->   0.8925860370
    3:   0.000000  0.000000  1.000000 /  -0.282443 -0.529076  0.800190 ->   0.6674565343
    4:   0.577350  0.577350  0.577350 /   0.497276 -0.156008  0.853451 ->   0.5308854891
    5:   0.000000  0.707107  0.707107 /  -0.332452  0.048512  0.941872 ->   0.7610583759
    6:   0.707107  0.000000  0.707107 /   0.398171 -0.611944  0.683362 ->   0.4417243933
    7:   0.707107  0.707107  0.000000 /   0.890366  0.455245  0.000000 ->   0.6597320710

 END OF EFFECTIVE MASSES SECTION

 ---- first-order wavefunction calculations are completed ----

 Total localisation tensor (bohr^2) in cartesian coordinates
  WARNING : still subject to testing - especially symmetries.
      direction              matrix element
   alpha     beta       real part   imaginary part
     1        1       1.4001552239    0.0000000000
     1        2      -0.3909067863    0.0000000000
     1        3      -0.1170726715    0.0000000000
     2        1      -0.3909067863    0.0000000000
     2        2       1.1890484566    0.0000000000
     2        3      -1.1031174826    0.0000000000
     3        1      -0.1170726715    0.0000000000
     3        2      -1.1031174826    0.0000000000
     3        3       3.9318689982    0.0000000000

 respfn : d/dk was computed, but no 2DTE, so no DDB output.

== END DATASET(S) ==============================================================

 -outvars: echo values of variables after computation  --------
            acell      1.0000000000E+00  1.0000000000E+00  1.0000000000E+00 Bohr
              amu      8.54678000E+01  3.20660000E+01
             ecut      2.70000000E+01 Hartree
           etotal     -2.1328039972E+01
            fcart      0.0000000000E+00  0.0000000000E+00  0.0000000000E+00
                       0.0000000000E+00  0.0000000000E+00  0.0000000000E+00
                       0.0000000000E+00  0.0000000000E+00  0.0000000000E+00
                       0.0000000000E+00  0.0000000000E+00  0.0000000000E+00
-          fftalg         512
           irdden           1
           irdwfk           1
              ixc     -116133
              kpt      5.00000000E-01  5.00000000E-01 -5.00000000E-01
                       2.31456162E-01 -2.31456162E-01  2.31456162E-01
           kptopt           0
P           mkmem           2
P          mkqmem           2
P          mk1mem           2
            natom           4
            nband          24
           nbdbuf           4
            ngfft          54      54      54
             nkpt           2
            nstep         100
             nsym           8
           ntypat           2
              occ      2.000000  2.000000  2.000000  2.000000  2.000000  2.000000
                       2.000000  2.000000  2.000000  2.000000  2.000000  2.000000
                       2.000000  2.000000  2.000000  0.000000  0.000000  0.000000
                       0.000000  0.000000  0.000000  0.000000  0.000000  0.000000
        optdriver           1
            prtwf          -1
            rfdir           1       1       1
           rfelfd           2
            rprim      1.0609663011E+01  0.0000000000E+00 -4.0025127727E+00
                      -2.6568795855E+00  8.0816160818E+00 -7.4975682769E+00
                       0.0000000000E+00  0.0000000000E+00  1.1339535162E+01
          spgroup          71
           strten      0.0000000000E+00  0.0000000000E+00  0.0000000000E+00
                       0.0000000000E+00  0.0000000000E+00  0.0000000000E+00
           symrel      1  0  0   0  1  0   0  0  1      -1  0  0   0 -1  0   0  0 -1
                       0  0  1  -1 -1 -1   1  0  0       0  0 -1   1  1  1  -1  0  0
                      -1 -1 -1   0  0  1   0  1  0       1  1  1   0  0 -1   0 -1  0
                       0  1  0   1  0  0  -1 -1 -1       0 -1  0  -1  0  0   1  1  1
           tolwfr      1.00000000E-20
            typat      1  1  2  2
           useylm           1
              wtk        0.50000    0.50000
           xangst      9.4524322634E-01  9.6055587722E-01 -1.3668640441E+00
                       3.2631885070E+00  3.3160511618E+00 -4.7187167442E+00
                       1.6773912846E-01  2.1383035195E+00  1.6186791200E+00
                       4.0406926049E+00  2.1383035195E+00 -1.7036363446E+00
            xcart      1.7862508267E+00  1.8151875433E+00 -2.5829987043E+00
                       6.1665325983E+00  6.2664285385E+00 -8.9170823453E+00
                       3.1698101456E-01  4.0408080409E+00  3.0588602339E+00
                       7.6358024104E+00  4.0408080409E+00 -3.2194061214E+00
             xred      2.2460700000E-01  2.2460700000E-01 -4.1633363423E-17
                       7.7539300000E-01  7.7539300000E-01  2.7755575616E-17
                       1.5508700000E-01  5.0000000000E-01  6.5508700000E-01
                       8.4491300000E-01  5.0000000000E-01  3.4491300000E-01
            znucl       37.00000   16.00000

- Timing analysis has been suppressed with timopt=0

 Suggested references for the acknowledgment of ABINIT usage.

 Calculation completed.
.Delivered  14 WARNINGs and   9 COMMENTs to log file.