.Version 9.5.2 of ABINIT

 ABINIT is a project of the Universite Catholique de Louvain,
 Corning Inc. and other collaborators, see ~abinit/doc/developers/contributors.txt .
 acknowledgments of the ABINIT effort.

.Starting date : Mon 24 May 2021.
- ( at 23h10 )

- input  file    -> /scratch/users/j/a/jabreu/flow_simple_10atoms/flow/w481/t1/run.abi
- output file    -> /scratch/users/j/a/jabreu/flow_simple_10atoms/flow/w481/t1/run.abo
- root for input  files -> /scratch/users/j/a/jabreu/flow_simple_10atoms/flow/w481/t1/indata/in
- root for output files -> /scratch/users/j/a/jabreu/flow_simple_10atoms/flow/w481/t1/outdata/out

 Symmetries : space group P2_1/m (# 11); Bravais mP (primitive monocl.)
     intxc =       0      iscf =       7    lmnmax =      18     lnmax =       6
     mgfft =      90  mpssoang =       3    mqgrid =    4207     natom =      10
  nloc_mem =       1    nspden =       1   nspinor =       1    nsppol =       1
      nsym =       4    n1xccc =    2501    ntypat =       4    occopt =       1
   xclevel =       2
-    mband =          53        mffmem =           1         mkmem =           2
-   mkqmem =           2        mk1mem =           2           mpw =       18270
      nfft =      311040          nkpt =           2
  Rough estimation (10% accuracy) of disk space for files :

------------- Echo of variables that govern the present computation ------------
-
- outvars: echo of selected default values
-   iomode0 =  0 , fftalg0 =512 , wfoptalg0 =  0
-
- outvars: echo of global parameters not present in the input file
-  max_nthreads =    0
-
 -outvars: echo values of preprocessed input variables --------
            acell      1.0000000000E+00  1.0000000000E+00  1.0000000000E+00 Bohr
              amu      4.00780000E+01  2.08980370E+02  3.54527000E+01
                       1.59994000E+01
             ecut      4.40000000E+01 Hartree
-          fftalg         512
           irdden           1
           irdwfk           1
              ixc     -116133
              kpt      0.00000000E+00  0.00000000E+00  3.46153846E-01
                       3.69565217E-01  5.00000000E-01  5.00000000E-01
           kptopt           0
P           mkmem           2
P          mkqmem           2
P          mk1mem           2
            natom          10
            nband          53
           nbdbuf           4
            ngfft          48      72      90
             nkpt           2
            nstep        2000
             nsym           4
           ntypat           4
              occ      2.000000  2.000000  2.000000  2.000000  2.000000  2.000000
                       2.000000  2.000000  2.000000  2.000000  2.000000  2.000000
                       2.000000  2.000000  2.000000  2.000000  2.000000  2.000000
                       2.000000  2.000000  2.000000  2.000000  2.000000  2.000000
                       2.000000  2.000000  2.000000  2.000000  2.000000  2.000000
                       2.000000  2.000000  2.000000  2.000000  2.000000  2.000000
                       2.000000  2.000000  2.000000  2.000000  2.000000  2.000000
                       2.000000  2.000000  0.000000  0.000000  0.000000  0.000000
                       0.000000  0.000000  0.000000  0.000000  0.000000
        optdriver           1
            prtwf          -1
            rfdir           1       1       1
           rfelfd           2
            rprim      7.7599412548E+00  0.0000000000E+00  0.0000000000E+00
                       0.0000000000E+00  1.1592489434E+01  3.0354125151E+00
                       0.0000000000E+00  0.0000000000E+00  1.4563978552E+01
          spgroup          11
           symrel      1  0  0   0  1  0   0  0  1      -1  0  0   0 -1  0   0  0 -1
                       1  0  0   0 -1  0   0  0 -1      -1  0  0   0  1  0   0  0  1
            tnons      0.0000000  0.0000000  0.0000000     0.0000000  0.0000000 -0.0000000
                       0.5000000  0.0000000 -0.0000000     0.5000000  0.0000000  0.0000000
           tolwfr      1.00000000E-20
            typat      1  1  2  2  3  3  4  4  4  4
           useylm           1
              wtk        0.50000    0.50000
           xangst      3.0797880390E+00  2.0197104556E+00  7.6155654901E+00
                       1.0265960130E+00  4.1147707438E+00  1.6976311478E+00
                       3.0797880390E+00  1.9564210131E+00  3.6458802859E+00
                       1.0265960130E+00  4.1780601864E+00  5.6673163521E+00
                       3.0797880390E+00  5.7749637943E+00  7.7777796649E+00
                       1.0265960130E+00  3.5951740518E-01  1.5354169731E+00
                       1.0265960130E+00  2.8985485012E+00  3.8419044701E+00
                       3.0797880390E+00  3.2359326982E+00  5.4712921678E+00
                       1.0265960130E+00  2.9968842348E+00  7.3990202163E+00
                       3.0797880390E+00  3.1375969646E+00  1.9141764217E+00
            xcart      5.8199559411E+00  3.8166996289E+00  1.4391333123E+01
                       1.9399853137E+00  7.7757898054E+00  3.2080579441E+00
                       5.8199559411E+00  3.6970999154E+00  6.8897152536E+00
                       1.9399853137E+00  7.8953895189E+00  1.0709675814E+01
                       5.8199559411E+00  1.0913099999E+01  1.4697873489E+01
                       1.9399853137E+00  6.7938943579E-01  2.9015175789E+00
                       1.9399853137E+00  5.4774628502E+00  7.2601472773E+00
                       5.8199559411E+00  6.1150265841E+00  1.0339243790E+01
                       1.9399853137E+00  5.6632904558E+00  1.3982121860E+01
                       5.8199559411E+00  5.9291989785E+00  3.6172692070E+00
             xred      7.5000000000E-01  3.2923900000E-01  9.1952600000E-01
                       2.5000000000E-01  6.7076100000E-01  8.0474000000E-02
                       7.5000000000E-01  3.1892200000E-01  4.0659600000E-01
                       2.5000000000E-01  6.8107800000E-01  5.9340400000E-01
                       7.5000000000E-01  9.4139400000E-01  8.1298900000E-01
                       2.5000000000E-01  5.8606000000E-02  1.8701100000E-01
                       2.5000000000E-01  4.7250100000E-01  4.0002200000E-01
                       7.5000000000E-01  5.2749900000E-01  5.9997800000E-01
                       2.5000000000E-01  4.8853100000E-01  8.5822900000E-01
                       7.5000000000E-01  5.1146900000E-01  1.4177100000E-01
            znucl       20.00000   83.00000   17.00000    8.00000

 chkinp: Checking input parameters for consistency.

== DATASET  1 ==================================================================
-   mpi_nproc: 1, omp_nthreads: -1 (-1 if OMP is not activated)

--- !DatasetInfo
iteration_state: {dtset: 1, }
dimensions: {natom: 10, nkpt: 2, mband: 53, nsppol: 1, nspinor: 1, nspden: 1, mpw: 18270, }
cutoff_energies: {ecut:  44.0, pawecutdg:  -1.0, }
electrons: {nelect:   8.80000000E+01, charge:   0.00000000E+00, occopt:   1.00000000E+00, tsmear:   1.00000000E-02, }
meta: {optdriver: 1, rfelfd: 2, }
...

 Real(R)+Recip(G) space primitive vectors, cartesian coordinates (Bohr,Bohr^-1):
 R(1)=  7.7599413  0.0000000  0.0000000  G(1)=  0.1288670  0.0000000  0.0000000
 R(2)=  0.0000000 11.5924894  3.0354125  G(2)=  0.0000000  0.0862627  0.0000000
 R(3)=  0.0000000  0.0000000 14.5639786  G(3)=  0.0000000 -0.0179788  0.0686626
 Unit cell volume ucvol=  1.3101324E+03 bohr^3
 Angles (23,13,12)=  7.53269170E+01  9.00000000E+01  9.00000000E+01 degrees

 getcut: wavevector=  0.0000  0.0000  0.0000  ngfft=  48  72  90
         ecut(hartree)=     44.000   => boxcut(ratio)=   2.01217

--- Pseudopotential description ------------------------------------------------
- pspini: atom type   1  psp file is /scratch/users/j/a/jabreu/pseudos/PBEsol/Ca.psp8
- pspatm: opening atomic psp file    /scratch/users/j/a/jabreu/pseudos/PBEsol/Ca.psp8
- Ca    ONCVPSP-3.3.0  r_core=   1.45885   1.45885   1.85192
- 20.00000  10.00000    180112                znucl, zion, pspdat
    8 -116133    2    4       400   0.00000   pspcod,pspxc,lmax,lloc,mmax,r2well
    3.99000000000000    6.00000000000000    0.00000000000000   rchrg,fchrg,qchrg
     nproj     2     2     2
     extension_switch     1
  pspatm : epsatm=   12.46045226
         --- l  ekb(1:nproj) -->
             0   10.054847    0.973777
             1    2.998958    0.458102
             2   -3.447298   -1.091650
 pspatm: atomic psp has been read  and splines computed

- pspini: atom type   2  psp file is /scratch/users/j/a/jabreu/pseudos/PBEsol/Bi.psp8
- pspatm: opening atomic psp file    /scratch/users/j/a/jabreu/pseudos/PBEsol/Bi.psp8
- Bi    ONCVPSP-3.3.0  r_core=   2.42776   2.51622   2.10397
- 83.00000  15.00000    180112                znucl, zion, pspdat
    8 -116133    2    4       600   0.00000   pspcod,pspxc,lmax,lloc,mmax,r2well
    5.99000000000000    6.00000000000000    0.00000000000000   rchrg,fchrg,qchrg
     nproj     2     2     2
     extension_switch     1
  pspatm : epsatm=   42.90078186
         --- l  ekb(1:nproj) -->
             0    6.017688    0.961606
             1    4.379371    0.528498
             2   -3.458170   -0.753782
 pspatm: atomic psp has been read  and splines computed

[...]

- pspini: atom type   4  psp file is /scratch/users/j/a/jabreu/pseudos/PBEsol/O.psp8
- pspatm: opening atomic psp file    /scratch/users/j/a/jabreu/pseudos/PBEsol/O.psp8
- O     ONCVPSP-3.3.0  r_core=   1.35509   1.45563   1.26150
-  8.00000   6.00000    180112                znucl, zion, pspdat
    8 -116133    2    4       600   0.00000   pspcod,pspxc,lmax,lloc,mmax,r2well
    5.99000000000000    4.00000000000000    0.00000000000000   rchrg,fchrg,qchrg
     nproj     2     2     1
     extension_switch     1
  pspatm : epsatm=    6.22910522
         --- l  ekb(1:nproj) -->
             0    6.050032    0.820363
             1   -4.739617   -1.153841
             2   -1.335834
 pspatm: atomic psp has been read  and splines computed

   1.35123387E+04                                ecore*ucvol(ha*bohr**3)

 ==>  initialize data related to q vector <==

 The list of irreducible perturbations for this q vector is:
    1)    idir= 1    ipert=  11
    2)    idir= 2    ipert=  11
    3)    idir= 3    ipert=  11

 Perturbation wavevector (in red.coord.)   0.000000  0.000000  0.000000
 Perturbation : derivative vs k along direction   1

 dfpt_looppert : COMMENT -
  In a d/dk calculation, iscf is set to -3 automatically.
 The set of symmetries contains only one element for this perturbation.
 symkpt : not enough symmetry to change the number of k points.

 Initialisation of the first-order wave-functions :
  ireadwf=   0

--- !BeginCycle
iteration_state: {dtset: 1, }
solver: {iscf: 7, nstep: 2000, nline: 4, wfoptalg: 0, }
tolerances: {tolwfr: 1.00E-20, }
...

     iter   2DEtotal(Ha)        deltaE(Ha) residm    vres2
-ETOT  1  -80.948344722108     -8.095E+01 1.687E-01 0.000E+00
 ETOT  2  -81.235247810217     -2.869E-01 2.710E-02 0.000E+00
 ETOT  3  -81.243525339101     -8.278E-03 2.648E-03 0.000E+00
 ETOT  4  -81.243899914217     -3.746E-04 1.417E-03 0.000E+00
 ETOT  5  -81.243920304793     -2.039E-05 2.805E-04 0.000E+00
[...]
  -0.00000    0.00000   -0.00000    0.00000    0.00000    0.00000   -0.00000    0.00000
   0.00000   -0.00000    0.00000    0.00000   -0.00000
 prteigrs : prtvol=0 or 1, do not print more k-points.

 Eight components of 2nd-order total energy (hartree) are
 1,2,3: 0th-order hamiltonian combined with 1st-order wavefunctions
     kin0=   1.14610446E+02 eigvalue=   1.01231134E+01  local=  -6.17518157E+01
 4,5,6: 1st-order hamiltonian combined with 1st and 0th-order wfs
     kin1=  -1.16581444E+02  Hartree=   0.00000000E+00     xc=   0.00000000E+00
 7,8,9: eventually, occupation + non-local contributions
    edocc=   1.28733858E+01     enl0=   5.38879162E+00   enl1=  -4.59063986E+01
 1-9 gives the relaxation energy (to be shifted if some occ is /=2.0)
   erelax=  -8.12439216E+01
  No Ewald or frozen-wf contrib.: the relaxation energy is the total one
 2DEtotal=   -0.8124392156E+02 Ha. Also 2DEtotal=   -0.221075953595E+04 eV
    (  non-var. 2DEtotal :   -8.1243921563E+01 Ha)

 Perturbation wavevector (in red.coord.)   0.000000  0.000000  0.000000
 Perturbation : derivative vs k along direction   2
 The set of symmetries contains only one element for this perturbation.
 symkpt : not enough symmetry to change the number of k points.

[...]

 Perturbation wavevector (in red.coord.)   0.000000  0.000000  0.000000
 Perturbation : derivative vs k along direction   3
 The set of symmetries contains only one element for this perturbation.
 symkpt : not enough symmetry to change the number of k points.

 Initialisation of the first-order wave-functions :
  ireadwf=   0

--- !BeginCycle
iteration_state: {dtset: 1, }
solver: {iscf: 7, nstep: 2000, nline: 4, wfoptalg: 0, }
tolerances: {tolwfr: 1.00E-20, }
...

     iter   2DEtotal(Ha)        deltaE(Ha) residm    vres2
-ETOT  1  -24.280526826791     -2.428E+01 5.900E-02 0.000E+00
 ETOT  2  -24.357796750805     -7.727E-02 1.269E-02 0.000E+00
 ETOT  3  -24.360043990740     -2.247E-03 3.316E-03 0.000E+00
 ETOT  4  -24.360148898337     -1.049E-04 1.524E-03 0.000E+00
 ETOT  5  -24.360154834187     -5.936E-06 5.449E-04 0.000E+00
 ETOT  6  -24.360155190954     -3.568E-07 2.584E-04 0.000E+00
 ETOT  7  -24.360155213373     -2.242E-08 9.865E-05 0.000E+00
 ETOT  8  -24.360155214826     -1.453E-09 4.622E-05 0.000E+00
 ETOT  9  -24.360155214923     -9.663E-11 1.845E-05 0.000E+00
 ETOT 10  -24.360155214929     -6.580E-12 8.492E-06 0.000E+00
 ETOT 11  -24.360155214930     -4.619E-13 3.503E-06 0.000E+00
 ETOT 12  -24.360155214930     -1.776E-14 1.585E-06 0.000E+00
 ETOT 13  -24.360155214930     -1.066E-14 6.708E-07 0.000E+00
 ETOT 14  -24.360155214930      1.776E-14 2.986E-07 0.000E+00
 ETOT 15  -24.360155214930     -3.553E-15 1.290E-07 0.000E+00
 ETOT 16  -24.360155214930      0.000E+00 5.666E-08 0.000E+00
 ETOT 17  -24.360155214930     -7.105E-15 2.489E-08 0.000E+00
 ETOT 18  -24.360155214930     -7.105E-15 1.080E-08 0.000E+00
 ETOT 19  -24.360155214930      7.105E-15 4.808E-09 0.000E+00
 ETOT 20  -24.360155214930      7.105E-15 2.066E-09 0.000E+00
 ETOT 21  -24.360155214930     -7.105E-15 9.298E-10 0.000E+00
 ETOT 22  -24.360155214930      0.000E+00 3.963E-10 0.000E+00
 ETOT 23  -24.360155214930      0.000E+00 1.799E-10 0.000E+00
 ETOT 24  -24.360155214930      0.000E+00 7.616E-11 0.000E+00
 ETOT 25  -24.360155214930     -7.105E-15 3.481E-11 0.000E+00
 ETOT 26  -24.360155214930      0.000E+00 1.466E-11 0.000E+00
 ETOT 27  -24.360155214930      7.105E-15 6.739E-12 0.000E+00
 ETOT 28  -24.360155214930      7.105E-15 2.825E-12 0.000E+00
 ETOT 29  -24.360155214930      0.000E+00 1.305E-12 0.000E+00
 ETOT 30  -24.360155214930      0.000E+00 5.450E-13 0.000E+00
 ETOT 31  -24.360155214930      0.000E+00 2.525E-13 0.000E+00
 ETOT 32  -24.360155214930      0.000E+00 1.052E-13 0.000E+00
 ETOT 33  -24.360155214930      0.000E+00 4.888E-14 0.000E+00
 ETOT 34  -24.360155214930      0.000E+00 2.033E-14 0.000E+00
 ETOT 35  -24.360155214930     -1.421E-14 9.462E-15 0.000E+00
 ETOT 36  -24.360155214930      7.105E-15 3.929E-15 0.000E+00
 ETOT 37  -24.360155214930      7.105E-15 1.831E-15 0.000E+00
 ETOT 38  -24.360155214930     -1.421E-14 7.597E-16 0.000E+00
 ETOT 39  -24.360155214930      3.553E-15 3.544E-16 0.000E+00
 ETOT 40  -24.360155214930      3.553E-15 1.469E-16 0.000E+00
 ETOT 41  -24.360155214930      7.105E-15 6.860E-17 0.000E+00
 ETOT 42  -24.360155214930     -7.105E-15 2.843E-17 0.000E+00
 ETOT 43  -24.360155214930     -3.553E-15 1.327E-17 0.000E+00
 ETOT 44  -24.360155214930     -3.553E-15 5.501E-18 0.000E+00
 ETOT 45  -24.360155214930      0.000E+00 2.569E-18 0.000E+00
 ETOT 46  -24.360155214930      0.000E+00 1.065E-18 0.000E+00
 ETOT 47  -24.360155214930      0.000E+00 4.971E-19 0.000E+00
 ETOT 48  -24.360155214930      7.105E-15 2.061E-19 0.000E+00
 ETOT 49  -24.360155214930      0.000E+00 9.619E-20 0.000E+00
 ETOT 50  -24.360155214930     -7.105E-15 3.990E-20 0.000E+00
 ETOT 51  -24.360155214930      1.421E-14 1.861E-20 0.000E+00
 ETOT 52  -24.360155214930     -1.421E-14 9.960E-21 0.000E+00

 At SCF step   52   max residual=  9.96E-21 < tolwfr=  1.00E-20 =>converged.

 ----iterations are completed or convergence reached----

 dfpt_looppert: DFPT cycle converged with prtwf=-1. Will skip output of the 1st-order WFK file.
 dfpt_looppert : ek2=    3.5003540622E+01
          f-sum rule ratio=    9.9557624878E-01
 prteigrs : about to open file /scratch/users/j/a/jabreu/flow_simple_10atoms/flow/w481/t1/tmpdata/tmp_1WF1_EIG
 Expectation of eigenvalue derivatives (hartree) for nkpt=   2  k points:
  (in case of degenerate eigenvalues, averaged derivative)
 kpt#   1, nband= 53, wtk=  0.50000, kpt=  0.0000  0.0000  0.3462 (reduced coord)
   0.00000   -0.00000   -0.00026    0.00030   -0.00014   -0.00000    0.00003   -0.00000
  -0.00008   -0.00002    0.00003   -0.00003    0.00283   -0.00926    0.00451    0.00002
  -0.00002   -0.00002    0.01033   -0.01400    0.00000    0.00531    0.00337   -0.00350
  -0.00336    0.00960   -0.00060   -0.00825   -0.02507    0.01754   -0.00188   -0.06310
   0.03413    0.01488    0.00299   -0.00690   -0.00525    0.01395    0.01019    0.02497
  -0.02742   -0.02108    0.07305   -0.00152    0.01937   -0.04784   -0.03105   -0.04909
  -0.01084    0.00817    0.02264    0.02065    0.00304
 prteigrs : prtvol=0 or 1, do not print more k-points.

 Eight components of 2nd-order total energy (hartree) are
 1,2,3: 0th-order hamiltonian combined with 1st-order wavefunctions
     kin0=   3.35185638E+01 eigvalue=   3.10815310E+00  local=  -1.78403453E+01
 4,5,6: 1st-order hamiltonian combined with 1st and 0th-order wfs
     kin1=  -3.48486937E+01  Hartree=   0.00000000E+00     xc=   0.00000000E+00
 7,8,9: eventually, occupation + non-local contributions
    edocc=   3.76329585E+00     enl0=   1.81048779E+00   enl1=  -1.38716168E+01
 1-9 gives the relaxation energy (to be shifted if some occ is /=2.0)
   erelax=  -2.43601552E+01
  No Ewald or frozen-wf contrib.: the relaxation energy is the total one
 2DEtotal=   -0.2436015521E+02 Ha. Also 2DEtotal=   -0.662873534443E+03 eV
    (  non-var. 2DEtotal :   -2.4360155215E+01 Ha)

 CALCULATION OF EFFECTIVE MASSES
 NOTE : Additional infos (eff. mass eigenvalues, eigenvectors and, if degenerate, average mass) are available in stdout.

 K-point ( 0.000, 0.000, 0.346) | band =    44
 Effective mass tensor:
             -2.1830753252             -0.0000001363             -0.0000012253
             -0.0000001363             -1.8235268714             -0.6201938818
             -0.0000012253             -0.6201938818             -2.1343793368
 Effective mass tensor eigenvalues:
             -2.6183260508             -2.1830753252             -1.3395801575
 Angular average effective mass 1/(<1/m>)=  -1.8909604745
 Angular average effective mass for Frohlich model (<m**0.5>)**2=  -1.9395773512
 Effective masses along directions: (cart. coord. / red. coord. -> eff. mass)
    1:   1.000000  0.000000  0.000000 /   1.000000  0.000000  0.000000 ->  -2.1830753252
    2:   0.000000  1.000000  0.000000 /   0.000000  1.000000  0.000000 ->  -1.6433150204
    3:   0.000000  0.000000  1.000000 /   0.000000  0.204035  0.978964 ->  -1.9234471827
    4:   0.577350  0.577350  0.577350 /   0.351889  0.663329  0.660431 ->  -2.4333822437
    5:   0.000000  0.707107  0.707107 /   0.000000  0.708653  0.705557 ->  -2.5813680348
    6:   0.707107  0.000000  0.707107 /   0.462475  0.180904  0.867981 ->  -2.0450551467
    7:   0.707107  0.707107  0.000000 /   0.556268  0.831003  0.000000 ->  -1.8751249802

 K-point ( 0.370, 0.500, 0.500) | band =    45
 Effective mass tensor:
              0.5145503790              0.0000000769             -0.0000001184
              0.0000000769              1.2743890366             -0.7613555103
             -0.0000001184             -0.7613555103              1.8233928970
 Effective mass tensor eigenvalues:
              0.5145503790              0.7395619097              2.3582200240
 Angular average effective mass 1/(<1/m>)=   0.8065286267
 Angular average effective mass for Frohlich model (<m**0.5>)**2=   0.8890103321
 Effective masses along directions: (cart. coord. / red. coord. -> eff. mass)
    1:   1.000000  0.000000  0.000000 /   1.000000  0.000000  0.000000 ->   0.5145503790
    2:   0.000000  1.000000  0.000000 /   0.000000  1.000000  0.000000 ->   0.9564859593
    3:   0.000000  0.000000  1.000000 /   0.000000  0.204035  0.978964 ->   1.3685379065
    4:   0.577350  0.577350  0.577350 /   0.351889  0.663329  0.660431 ->   0.6532056780
    5:   0.000000  0.707107  0.707107 /   0.000000  0.708653  0.705557 ->   0.7549193221
    6:   0.707107  0.000000  0.707107 /   0.462475  0.180904  0.867981 ->   0.7479008283
    7:   0.707107  0.707107  0.000000 /   0.556268  0.831003  0.000000 ->   0.6691340226

 END OF EFFECTIVE MASSES SECTION

 ---- first-order wavefunction calculations are completed ----

 Total localisation tensor (bohr^2) in cartesian coordinates
  WARNING : still subject to testing - especially symmetries.
      direction              matrix element
   alpha     beta       real part   imaginary part
     1        1       0.8648653798    0.0000000000
     1        2       0.0000000000    0.0000000000
     1        3       0.0000000000    0.0000000000
     2        1       0.0000000000    0.0000000000
     2        2       0.8249334764    0.0000000000
     2        3       0.2160030779    0.0000000000
     3        1       0.0000000000    0.0000000000
     3        2       0.2160030779    0.0000000000
     3        3       0.9493073141    0.0000000000

 respfn : d/dk was computed, but no 2DTE, so no DDB output.

== END DATASET(S) ==============================================================

 -outvars: echo values of variables after computation  --------
            acell      1.0000000000E+00  1.0000000000E+00  1.0000000000E+00 Bohr
              amu      4.00780000E+01  2.08980370E+02  3.54527000E+01
                       1.59994000E+01
             ecut      4.40000000E+01 Hartree
           etotal     -2.4360155215E+01
            fcart      0.0000000000E+00  0.0000000000E+00  0.0000000000E+00
                       0.0000000000E+00  0.0000000000E+00  0.0000000000E+00
                       0.0000000000E+00  0.0000000000E+00  0.0000000000E+00
                       0.0000000000E+00  0.0000000000E+00  0.0000000000E+00
                       0.0000000000E+00  0.0000000000E+00  0.0000000000E+00
                       0.0000000000E+00  0.0000000000E+00  0.0000000000E+00
                       0.0000000000E+00  0.0000000000E+00  0.0000000000E+00
                       0.0000000000E+00  0.0000000000E+00  0.0000000000E+00
                       0.0000000000E+00  0.0000000000E+00  0.0000000000E+00
                       0.0000000000E+00  0.0000000000E+00  0.0000000000E+00
-          fftalg         512
           irdden           1
           irdwfk           1
              ixc     -116133
              kpt      0.00000000E+00  0.00000000E+00  3.46153846E-01
                       3.69565217E-01  5.00000000E-01  5.00000000E-01
           kptopt           0
P           mkmem           2
P          mkqmem           2
P          mk1mem           2
            natom          10
            nband          53
           nbdbuf           4
            ngfft          48      72      90
             nkpt           2
            nstep        2000
             nsym           4
           ntypat           4
              occ      2.000000  2.000000  2.000000  2.000000  2.000000  2.000000
                       2.000000  2.000000  2.000000  2.000000  2.000000  2.000000
                       2.000000  2.000000  2.000000  2.000000  2.000000  2.000000
                       2.000000  2.000000  2.000000  2.000000  2.000000  2.000000
                       2.000000  2.000000  2.000000  2.000000  2.000000  2.000000
                       2.000000  2.000000  2.000000  2.000000  2.000000  2.000000
                       2.000000  2.000000  2.000000  2.000000  2.000000  2.000000
                       2.000000  2.000000  0.000000  0.000000  0.000000  0.000000
                       0.000000  0.000000  0.000000  0.000000  0.000000
        optdriver           1
            prtwf          -1
            rfdir           1       1       1
           rfelfd           2
            rprim      7.7599412548E+00  0.0000000000E+00  0.0000000000E+00
                       0.0000000000E+00  1.1592489434E+01  3.0354125151E+00
                       0.0000000000E+00  0.0000000000E+00  1.4563978552E+01
          spgroup          11
           strten      0.0000000000E+00  0.0000000000E+00  0.0000000000E+00
                       0.0000000000E+00  0.0000000000E+00  0.0000000000E+00
           symrel      1  0  0   0  1  0   0  0  1      -1  0  0   0 -1  0   0  0 -1
                       1  0  0   0 -1  0   0  0 -1      -1  0  0   0  1  0   0  0  1
            tnons      0.0000000  0.0000000  0.0000000     0.0000000  0.0000000 -0.0000000
                       0.5000000  0.0000000 -0.0000000     0.5000000  0.0000000  0.0000000
           tolwfr      1.00000000E-20
            typat      1  1  2  2  3  3  4  4  4  4
           useylm           1
              wtk        0.50000    0.50000
           xangst      3.0797880390E+00  2.0197104556E+00  7.6155654901E+00
                       1.0265960130E+00  4.1147707438E+00  1.6976311478E+00
                       3.0797880390E+00  1.9564210131E+00  3.6458802859E+00
                       1.0265960130E+00  4.1780601864E+00  5.6673163521E+00
                       3.0797880390E+00  5.7749637943E+00  7.7777796649E+00
                       1.0265960130E+00  3.5951740518E-01  1.5354169731E+00
                       1.0265960130E+00  2.8985485012E+00  3.8419044701E+00
                       3.0797880390E+00  3.2359326982E+00  5.4712921678E+00
                       1.0265960130E+00  2.9968842348E+00  7.3990202163E+00
                       3.0797880390E+00  3.1375969646E+00  1.9141764217E+00
            xcart      5.8199559411E+00  3.8166996289E+00  1.4391333123E+01
                       1.9399853137E+00  7.7757898054E+00  3.2080579441E+00
                       5.8199559411E+00  3.6970999154E+00  6.8897152536E+00
                       1.9399853137E+00  7.8953895189E+00  1.0709675814E+01
                       5.8199559411E+00  1.0913099999E+01  1.4697873489E+01
                       1.9399853137E+00  6.7938943579E-01  2.9015175789E+00
                       1.9399853137E+00  5.4774628502E+00  7.2601472773E+00
                       5.8199559411E+00  6.1150265841E+00  1.0339243790E+01
                       1.9399853137E+00  5.6632904558E+00  1.3982121860E+01
                       5.8199559411E+00  5.9291989785E+00  3.6172692070E+00
             xred      7.5000000000E-01  3.2923900000E-01  9.1952600000E-01
                       2.5000000000E-01  6.7076100000E-01  8.0474000000E-02
                       7.5000000000E-01  3.1892200000E-01  4.0659600000E-01
                       2.5000000000E-01  6.8107800000E-01  5.9340400000E-01
                       7.5000000000E-01  9.4139400000E-01  8.1298900000E-01
                       2.5000000000E-01  5.8606000000E-02  1.8701100000E-01
                       2.5000000000E-01  4.7250100000E-01  4.0002200000E-01
                       7.5000000000E-01  5.2749900000E-01  5.9997800000E-01
                       2.5000000000E-01  4.8853100000E-01  8.5822900000E-01
                       7.5000000000E-01  5.1146900000E-01  1.4177100000E-01
            znucl       20.00000   83.00000   17.00000    8.00000

- Timing analysis has been suppressed with timopt=0

 Suggested references for the acknowledgment of ABINIT usage.

 Calculation completed.
.Delivered   2 WARNINGs and   5 COMMENTs to log file.