.Version 9.5.2 of ABINIT

 ABINIT is a project of the Universite Catholique de Louvain,
 Corning Inc. and other collaborators, see ~abinit/doc/developers/contributors.txt .
 acknowledgments of the ABINIT effort.

.Starting date : Mon 24 May 2021.
- ( at 20h56 )

- input  file    -> /scratch/users/j/a/jabreu/flow_simple_10atoms/flow/w420/t1/run.abi
- output file    -> /scratch/users/j/a/jabreu/flow_simple_10atoms/flow/w420/t1/run.abo
- root for input  files -> /scratch/users/j/a/jabreu/flow_simple_10atoms/flow/w420/t1/indata/in
- root for output files -> /scratch/users/j/a/jabreu/flow_simple_10atoms/flow/w420/t1/outdata/out

 Symmetries : space group Fm -3 m (#225); Bravais cF (face-center cubic)
     intxc =       0      iscf =       7    lmnmax =      32     lnmax =       8
     mgfft =      80  mpssoang =       4    mqgrid =    3115     natom =      10
  nloc_mem =       1    nspden =       1   nspinor =       1    nsppol =       1
      nsym =      48    n1xccc =    2501    ntypat =       4    occopt =       1
   xclevel =       2
-    mband =          51        mffmem =           1         mkmem =           2
-   mkqmem =           2        mk1mem =           2           mpw =       20534
      nfft =      512000          nkpt =           2
  Rough estimation (10% accuracy) of disk space for files :

------------- Echo of variables that govern the present computation ------------
-
- outvars: echo of selected default values
-   iomode0 =  0 , fftalg0 =512 , wfoptalg0 =  0
-
- outvars: echo of global parameters not present in the input file
-  max_nthreads =    0
-
 -outvars: echo values of preprocessed input variables --------
            acell      1.0000000000E+00  1.0000000000E+00  1.0000000000E+00 Bohr
              amu      1.32905430E+02  8.54678000E+01  2.08980370E+02
                       1.89984032E+01
             ecut      4.20000000E+01 Hartree
-          fftalg         512
           irdden           1
           irdwfk           1
           istwfk        1    0
              ixc     -116133
              kpt      5.00000000E-01  5.00000000E-01  5.00000000E-01
                       2.25000000E-01  0.00000000E+00  2.25000000E-01
           kptopt           0
P           mkmem           2
P          mkqmem           2
P          mk1mem           2
            natom          10
            nband          51
           nbdbuf           4
            ngfft          80      80      80
             nkpt           2
            nstep        2000
             nsym          48
           ntypat           4
              occ      2.000000  2.000000  2.000000  2.000000  2.000000  2.000000
                       2.000000  2.000000  2.000000  2.000000  2.000000  2.000000
                       2.000000  2.000000  2.000000  2.000000  2.000000  2.000000
                       2.000000  2.000000  2.000000  2.000000  2.000000  2.000000
                       2.000000  2.000000  2.000000  2.000000  2.000000  2.000000
                       2.000000  2.000000  2.000000  2.000000  2.000000  2.000000
                       2.000000  2.000000  2.000000  2.000000  2.000000  2.000000
                       0.000000  0.000000  0.000000  0.000000  0.000000  0.000000
                       0.000000  0.000000  0.000000
        optdriver           1
            prtwf          -1
            rfdir           1       1       1
           rfelfd           2
            rprim      1.1321875731E+01  0.0000000000E+00  6.5366880012E+00
                       3.7739585771E+00  1.0674366807E+01  6.5366880012E+00
                       0.0000000000E+00  0.0000000000E+00  1.3073376002E+01
          spgroup         225
           symrel      1  0  0   0  1  0   0  0  1      -1  0  0   0 -1  0   0  0 -1
                       0 -1  1   0 -1  0   1 -1  0       0  1 -1   0  1  0  -1  1  0
                      -1  0  0  -1  0  1  -1  1  0       1  0  0   1  0 -1   1 -1  0
                       0  1 -1   1  0 -1   0  0 -1       0 -1  1  -1  0  1   0  0  1
                      -1  0  0  -1  1  0  -1  0  1       1  0  0   1 -1  0   1  0 -1
                       0 -1  1   1 -1  0   0 -1  0       0  1 -1  -1  1  0   0  1  0
                       1  0  0   0  0  1   0  1  0      -1  0  0   0  0 -1   0 -1  0
                       0  1 -1   0  0 -1   1  0 -1       0 -1  1   0  0  1  -1  0  1
                      -1  0  1  -1  1  0  -1  0  0       1  0 -1   1 -1  0   1  0  0
                       0 -1  0   1 -1  0   0 -1  1       0  1  0  -1  1  0   0  1 -1
                       1  0 -1   0  0 -1   0  1 -1      -1  0  1   0  0  1   0 -1  1
                       0  1  0   0  0  1   1  0  0       0 -1  0   0  0 -1  -1  0  0
                       1  0 -1   0  1 -1   0  0 -1      -1  0  1   0 -1  1   0  0  1
                       0 -1  0   0 -1  1   1 -1  0       0  1  0   0  1 -1  -1  1  0
                      -1  0  1  -1  0  0  -1  1  0       1  0 -1   1  0  0   1 -1  0
                       0  1  0   1  0  0   0  0  1       0 -1  0  -1  0  0   0  0 -1
                       0  0 -1   0  1 -1   1  0 -1       0  0  1   0 -1  1  -1  0  1
                       1 -1  0   0 -1  1   0 -1  0      -1  1  0   0  1 -1   0  1  0
                       0  0  1   1  0  0   0  1  0       0  0 -1  -1  0  0   0 -1  0
                      -1  1  0  -1  0  0  -1  0  1       1 -1  0   1  0  0   1  0 -1
                       0  0  1   0  1  0   1  0  0       0  0 -1   0 -1  0  -1  0  0
                       1 -1  0   0 -1  0   0 -1  1      -1  1  0   0  1  0   0  1 -1
                       0  0 -1   1  0 -1   0  1 -1       0  0  1  -1  0  1   0 -1  1
                      -1  1  0  -1  0  1  -1  0  0       1 -1  0   1  0 -1   1  0  0
           tolwfr      1.00000000E-20
            typat      1  1  2  3  4  4  4  4  4  4
           useylm           1
              wtk        0.50000    0.50000
           xangst      1.9970928652E+00  1.4121579076E+00  3.4590663099E+00
                       5.9912785955E+00  4.2364737228E+00  1.0377198930E+01
                       3.9941857303E+00  2.8243158152E+00  6.9181326198E+00
                       0.0000000000E+00  0.0000000000E+00  0.0000000000E+00
                       1.8404648659E+00  1.3014051872E+00  6.9181326198E+00
                       2.9173252981E+00  4.3472264432E+00  5.0529556386E+00
                       5.0710461625E+00  1.3014051872E+00  8.7833096010E+00
                       6.1479065947E+00  4.3472264432E+00  6.9181326198E+00
                       5.0710461625E+00  1.3014051872E+00  5.0529556386E+00
                       2.9173252981E+00  4.3472264432E+00  8.7833096010E+00
            xcart      3.7739585771E+00  2.6685917018E+00  6.5366880012E+00
                       1.1321875731E+01  8.0057751053E+00  1.9610064004E+01
                       7.5479171542E+00  5.3371834036E+00  1.3073376002E+01
                       0.0000000000E+00  0.0000000000E+00  0.0000000000E+00
                       3.4779745538E+00  2.4592993918E+00  1.3073376002E+01
                       5.5129458540E+00  8.2150674153E+00  9.5487023185E+00
                       9.5828884543E+00  2.4592993918E+00  1.6598049686E+01
                       1.1617859755E+01  8.2150674153E+00  1.3073376002E+01
                       9.5828884543E+00  2.4592993918E+00  9.5487023185E+00
                       5.5129458540E+00  8.2150674153E+00  1.6598049686E+01
             xred      2.5000000000E-01  2.5000000000E-01  2.5000000000E-01
                       7.5000000000E-01  7.5000000000E-01  7.5000000000E-01
                       5.0000000000E-01  5.0000000000E-01  5.0000000000E-01
                       0.0000000000E+00  0.0000000000E+00  0.0000000000E+00
                       2.3039300000E-01  2.3039300000E-01  7.6960700000E-01
                       2.3039300000E-01  7.6960700000E-01  2.3039300000E-01
                       7.6960700000E-01  2.3039300000E-01  7.6960700000E-01
                       7.6960700000E-01  7.6960700000E-01  2.3039300000E-01
                       7.6960700000E-01  2.3039300000E-01  2.3039300000E-01
                       2.3039300000E-01  7.6960700000E-01  7.6960700000E-01
            znucl       55.00000   37.00000   83.00000    9.00000

 chkinp: Checking input parameters for consistency.

== DATASET  1 ==================================================================
-   mpi_nproc: 1, omp_nthreads: -1 (-1 if OMP is not activated)

--- !DatasetInfo
iteration_state: {dtset: 1, }
dimensions: {natom: 10, nkpt: 2, mband: 51, nsppol: 1, nspinor: 1, nspden: 1, mpw: 20534, }
cutoff_energies: {ecut:  42.0, pawecutdg:  -1.0, }
electrons: {nelect:   8.40000000E+01, charge:   0.00000000E+00, occopt:   1.00000000E+00, tsmear:   1.00000000E-02, }
meta: {optdriver: 1, rfelfd: 2, }
...

 Real(R)+Recip(G) space primitive vectors, cartesian coordinates (Bohr,Bohr^-1):
 R(1)= 11.3218757  0.0000000  6.5366880  G(1)=  0.0883246 -0.0312275  0.0000000
 R(2)=  3.7739586 10.6743668  6.5366880  G(2)=  0.0000000  0.0936824  0.0000000
 R(3)=  0.0000000  0.0000000 13.0733760  G(3)= -0.0441623 -0.0312275  0.0764913
 Unit cell volume ucvol=  1.5799679E+03 bohr^3
 Angles (23,13,12)=  6.00000000E+01  6.00000000E+01  6.00000000E+01 degrees

 getcut: wavevector=  0.0000  0.0000  0.0000  ngfft=  80  80  80
         ecut(hartree)=     42.000   => boxcut(ratio)=   2.09755

--- Pseudopotential description ------------------------------------------------
- pspini: atom type   1  psp file is /scratch/users/j/a/jabreu/pseudos/PBEsol/Cs.psp8
- pspatm: opening atomic psp file    /scratch/users/j/a/jabreu/pseudos/PBEsol/Cs.psp8
- Cs    ONCVPSP-3.3.0  r_core=   2.27353   1.85623   2.01788   1.90105
- 55.00000   9.00000    180112                znucl, zion, pspdat
    8 -116133    3    4       600   0.00000   pspcod,pspxc,lmax,lloc,mmax,r2well
    5.99000000000000    5.00000000000000    0.00000000000000   rchrg,fchrg,qchrg
     nproj     2     2     2     2
     extension_switch     1
  pspatm : epsatm=   22.12462445
         --- l  ekb(1:nproj) -->
             0    6.214110    0.767882
             1    6.311966    0.793598
             2    3.769790    0.913105
             3   -9.247129   -2.432478
 pspatm: atomic psp has been read  and splines computed

- pspini: atom type   2  psp file is /scratch/users/j/a/jabreu/pseudos/PBEsol/Rb.psp8
- pspatm: opening atomic psp file    /scratch/users/j/a/jabreu/pseudos/PBEsol/Rb.psp8
- Rb    ONCVPSP-3.3.0  r_core=   1.71227   1.75361   1.90633
- 37.00000   9.00000    180112                znucl, zion, pspdat
    8 -116133    2    4       600   0.00000   pspcod,pspxc,lmax,lloc,mmax,r2well
    5.99000000000000    7.00000000000000    0.00000000000000   rchrg,fchrg,qchrg
     nproj     2     2     2
     extension_switch     1
  pspatm : epsatm=   34.48400912
         --- l  ekb(1:nproj) -->
             0    8.196957   -0.477221
             1    3.231347   -0.378736
             2   -1.047201    0.996637
 pspatm: atomic psp has been read  and splines computed

[...]

- pspini: atom type   4  psp file is /scratch/users/j/a/jabreu/pseudos/PBEsol/F.psp8
- pspatm: opening atomic psp file    /scratch/users/j/a/jabreu/pseudos/PBEsol/F.psp8
[...]
 symkpt : not enough symmetry to change the number of k points.

 Initialisation of the first-order wave-functions :
  ireadwf=   0

--- !BeginCycle
iteration_state: {dtset: 1, }
solver: {iscf: 7, nstep: 2000, nline: 4, wfoptalg: 0, }
tolerances: {tolwfr: 1.00E-20, }
...

     iter   2DEtotal(Ha)        deltaE(Ha) residm    vres2
-ETOT  1  -37.986110351122     -3.799E+01 7.686E-02 0.000E+00
 ETOT  2  -38.049428667316     -6.332E-02 6.225E-03 0.000E+00
 ETOT  3  -38.050423452382     -9.948E-04 1.146E-03 0.000E+00
 ETOT  4  -38.050471212873     -4.776E-05 3.797E-04 0.000E+00
 ETOT  5  -38.050474927402     -3.715E-06 1.377E-04 0.000E+00
 ETOT  6  -38.050475283795     -3.564E-07 6.305E-05 0.000E+00
 ETOT  7  -38.050475320997     -3.720E-08 2.283E-05 0.000E+00
 ETOT  8  -38.050475325070     -4.073E-09 1.078E-05 0.000E+00
 ETOT  9  -38.050475325532     -4.623E-10 3.896E-06 0.000E+00
 ETOT 10  -38.050475325586     -5.414E-11 1.839E-06 0.000E+00
 ETOT 11  -38.050475325593     -6.452E-12 6.664E-07 0.000E+00
 ETOT 12  -38.050475325594     -8.100E-13 3.130E-07 0.000E+00
 ETOT 13  -38.050475325594     -7.816E-14 1.138E-07 0.000E+00
 ETOT 14  -38.050475325594     -7.105E-15 5.322E-08 0.000E+00
 ETOT 15  -38.050475325594     -1.421E-14 1.917E-08 0.000E+00
 ETOT 16  -38.050475325594      2.842E-14 9.020E-09 0.000E+00
 ETOT 17  -38.050475325594     -2.842E-14 2.962E-09 0.000E+00
 ETOT 18  -38.050475325594      7.105E-15 1.546E-09 0.000E+00
 ETOT 19  -38.050475325594      7.105E-15 5.521E-10 0.000E+00
 ETOT 20  -38.050475325594      1.421E-14 3.375E-10 0.000E+00
 ETOT 21  -38.050475325594     -1.421E-14 1.173E-10 0.000E+00
 ETOT 22  -38.050475325594      0.000E+00 6.546E-11 0.000E+00
 ETOT 23  -38.050475325594      7.105E-15 2.214E-11 0.000E+00
 ETOT 24  -38.050475325594     -7.105E-15 1.241E-11 0.000E+00
 ETOT 25  -38.050475325594      0.000E+00 4.182E-12 0.000E+00
 ETOT 26  -38.050475325594      0.000E+00 2.345E-12 0.000E+00
 ETOT 27  -38.050475325594      7.105E-15 7.899E-13 0.000E+00
 ETOT 28  -38.050475325594      0.000E+00 4.434E-13 0.000E+00
 ETOT 29  -38.050475325594     -7.105E-15 1.493E-13 0.000E+00
 ETOT 30  -38.050475325594      7.105E-15 8.387E-14 0.000E+00
 ETOT 31  -38.050475325594     -7.105E-15 2.822E-14 0.000E+00
 ETOT 32  -38.050475325594      0.000E+00 1.587E-14 0.000E+00
 ETOT 33  -38.050475325594      7.105E-15 5.336E-15 0.000E+00
 ETOT 34  -38.050475325594      7.105E-15 3.003E-15 0.000E+00
 ETOT 35  -38.050475325594      0.000E+00 1.009E-15 0.000E+00
 ETOT 36  -38.050475325594      0.000E+00 5.685E-16 0.000E+00
 ETOT 37  -38.050475325594      0.000E+00 1.910E-16 0.000E+00
 ETOT 38  -38.050475325594      0.000E+00 1.077E-16 0.000E+00
 ETOT 39  -38.050475325594      7.105E-15 3.615E-17 0.000E+00
 ETOT 40  -38.050475325594     -7.105E-15 2.039E-17 0.000E+00
 ETOT 41  -38.050475325594      0.000E+00 6.844E-18 0.000E+00
 ETOT 42  -38.050475325594      0.000E+00 3.863E-18 0.000E+00
 ETOT 43  -38.050475325594      0.000E+00 1.296E-18 0.000E+00
 ETOT 44  -38.050475325594     -7.105E-15 7.320E-19 0.000E+00
 ETOT 45  -38.050475325594      0.000E+00 2.456E-19 0.000E+00
 ETOT 46  -38.050475325594      0.000E+00 1.387E-19 0.000E+00
 ETOT 47  -38.050475325594      7.105E-15 4.653E-20 0.000E+00
 ETOT 48  -38.050475325594      0.000E+00 9.955E-21 0.000E+00

 At SCF step   48   max residual=  9.96E-21 < tolwfr=  1.00E-20 =>converged.

 ----iterations are completed or convergence reached----

 dfpt_looppert: DFPT cycle converged with prtwf=-1. Will skip output of the 1st-order WFK file.
 dfpt_looppert : ek2=    5.8208280923E+01
          f-sum rule ratio=    1.0165837737E+00
 prteigrs : about to open file /scratch/users/j/a/jabreu/flow_simple_10atoms/flow/w420/t1/tmpdata/tmp_1WF1_EIG
 Expectation of eigenvalue derivatives (hartree) for nkpt=   2  k points:
  (in case of degenerate eigenvalues, averaged derivative)
 kpt#   1, nband= 51, wtk=  0.50000, kpt=  0.5000  0.5000  0.5000 (reduced coord)
   0.00000    0.00000    0.00000   -0.00000    0.00000    0.00000    0.00000    0.00000
   0.00000   -0.00000    0.00000    0.00000   -0.00000   -0.00000   -0.00000    0.00000
   0.00000    0.00000   -0.00000   -0.00000    0.00000    0.00000   -0.00000    0.00000
   0.00000    0.00000    0.00000    0.00000   -0.00000   -0.00000   -0.00000   -0.00000
  -0.00000   -0.00000   -0.00000    0.00000    0.00000    0.00000    0.00000    0.00000
   0.00000    0.00000   -0.00000    0.00000    0.00000   -0.00000   -0.00000   -0.00000
   0.00000    0.00000   -0.00000
 prteigrs : prtvol=0 or 1, do not print more k-points.

 Eight components of 2nd-order total energy (hartree) are
 1,2,3: 0th-order hamiltonian combined with 1st-order wavefunctions
     kin0=   4.78356891E+01 eigvalue=   5.26148312E+00  local=  -2.42327225E+01
 4,5,6: 1st-order hamiltonian combined with 1st and 0th-order wfs
     kin1=  -5.91735939E+01  Hartree=   0.00000000E+00     xc=   0.00000000E+00
 7,8,9: eventually, occupation + non-local contributions
    edocc=   5.70570083E+00     enl0=   3.48032473E+00   enl1=  -1.69273568E+01
 1-9 gives the relaxation energy (to be shifted if some occ is /=2.0)
   erelax=  -3.80504753E+01
  No Ewald or frozen-wf contrib.: the relaxation energy is the total one
 2DEtotal=   -0.3805047533E+02 Ha. Also 2DEtotal=   -0.103540609014E+04 eV
    (  non-var. 2DEtotal :   -3.8050475326E+01 Ha)

 CALCULATION OF EFFECTIVE MASSES
 NOTE : Additional infos (eff. mass eigenvalues, eigenvectors and, if degenerate, average mass) are available in stdout.

 K-point ( 0.500, 0.500, 0.500) | band =    42
 Effective mass tensor:
             -1.5328723718              0.0745934687              0.1827159392
              0.0745934687             -1.5856178691              0.1291997222
              0.1827159392              0.1291997222             -1.3218900392
 Effective mass tensor eigenvalues:
             -1.6383634349             -1.6383634330             -1.1636534121
 Angular average effective mass 1/(<1/m>)=  -1.4422433607
 Angular average effective mass for Frohlich model (<m**0.5>)**2=  -1.4541594614
 Effective masses along directions: (cart. coord. / red. coord. -> eff. mass)
    1:   1.000000  0.000000  0.000000 /   0.948683  0.316228  0.000000 ->  -1.5021829579
    2:   0.000000  1.000000  0.000000 /   0.000000  1.000000  0.000000 ->  -1.5673206210
    3:   0.000000  0.000000  1.000000 /   0.408248  0.408248  0.816497 ->  -1.2880566660
    4:   0.577350  0.577350  0.577350 /   0.585539  0.688047  0.428644 ->  -1.2069714180
    5:   0.000000  0.707107  0.707107 /   0.289489  0.762222  0.578977 ->  -1.2903793179
    6:   0.707107  0.000000  0.707107 /   0.731423  0.422287  0.535439 ->  -1.2241854858
    7:   0.707107  0.707107  0.000000 /   0.616798  0.787122  0.000000 ->  -1.4471971843

 K-point ( 0.225, 0.000, 0.225) | band =    43
 Effective mass tensor:
              1.2304164461              0.1504097717             -0.1842818611
              0.1504097717              1.1243095891              0.2605253941
             -0.1842818611              0.2605253941              1.0178316353
 Effective mass tensor eigenvalues:
              0.6987379435              1.3368378840              1.3369818430
 Angular average effective mass 1/(<1/m>)=   1.0248915836
 Angular average effective mass for Frohlich model (<m**0.5>)**2=   1.0568009514
 Effective masses along directions: (cart. coord. / red. coord. -> eff. mass)
    1:   1.000000  0.000000  0.000000 /   0.948683  0.316228  0.000000 ->   1.1601411884
    2:   0.000000  1.000000  0.000000 /   0.000000  1.000000  0.000000 ->   1.0250139299
    3:   0.000000  0.000000  1.000000 /   0.408248  0.408248  0.816497 ->   0.9177862428
    4:   0.577350  0.577350  0.577350 /   0.585539  0.688047  0.428644 ->   1.2285498802
    5:   0.000000  0.707107  0.707107 /   0.289489  0.762222  0.578977 ->   1.3267558756
    6:   0.707107  0.000000  0.707107 /   0.731423  0.422287  0.535439 ->   0.8524791186
    7:   0.707107  0.707107  0.000000 /   0.616798  0.787122  0.000000 ->   1.3196900896

 END OF EFFECTIVE MASSES SECTION

 ---- first-order wavefunction calculations are completed ----

 Total localisation tensor (bohr^2) in cartesian coordinates
  WARNING : still subject to testing - especially symmetries.
      direction              matrix element
   alpha     beta       real part   imaginary part
     1        1       0.8730432042    0.0000000000
     1        2       0.2469306518    0.0000000000
     1        3       0.6048607454    0.0000000000
     2        1       0.2469306518    0.0000000000
     2        2       0.6984253534    0.0000000000
     2        3       0.4276964348    0.0000000000
     3        1       0.6048607454    0.0000000000
     3        2       0.4276964348    0.0000000000
     3        3       1.5714608111    0.0000000000

 respfn : d/dk was computed, but no 2DTE, so no DDB output.

== END DATASET(S) ==============================================================

 -outvars: echo values of variables after computation  --------
            acell      1.0000000000E+00  1.0000000000E+00  1.0000000000E+00 Bohr
              amu      1.32905430E+02  8.54678000E+01  2.08980370E+02
                       1.89984032E+01
             ecut      4.20000000E+01 Hartree
           etotal     -3.8050475326E+01
            fcart      0.0000000000E+00  0.0000000000E+00  0.0000000000E+00
                       0.0000000000E+00  0.0000000000E+00  0.0000000000E+00
                       0.0000000000E+00  0.0000000000E+00  0.0000000000E+00
                       0.0000000000E+00  0.0000000000E+00  0.0000000000E+00
                       0.0000000000E+00  0.0000000000E+00  0.0000000000E+00
                       0.0000000000E+00  0.0000000000E+00  0.0000000000E+00
                       0.0000000000E+00  0.0000000000E+00  0.0000000000E+00
                       0.0000000000E+00  0.0000000000E+00  0.0000000000E+00
                       0.0000000000E+00  0.0000000000E+00  0.0000000000E+00
                       0.0000000000E+00  0.0000000000E+00  0.0000000000E+00
-          fftalg         512
           irdden           1
           irdwfk           1
           istwfk        1    0
              ixc     -116133
              kpt      5.00000000E-01  5.00000000E-01  5.00000000E-01
                       2.25000000E-01  0.00000000E+00  2.25000000E-01
           kptopt           0
P           mkmem           2
P          mkqmem           2
P          mk1mem           2
            natom          10
            nband          51
           nbdbuf           4
            ngfft          80      80      80
             nkpt           2
            nstep        2000
             nsym          48
           ntypat           4
              occ      2.000000  2.000000  2.000000  2.000000  2.000000  2.000000
                       2.000000  2.000000  2.000000  2.000000  2.000000  2.000000
                       2.000000  2.000000  2.000000  2.000000  2.000000  2.000000
                       2.000000  2.000000  2.000000  2.000000  2.000000  2.000000
                       2.000000  2.000000  2.000000  2.000000  2.000000  2.000000
                       2.000000  2.000000  2.000000  2.000000  2.000000  2.000000
                       2.000000  2.000000  2.000000  2.000000  2.000000  2.000000
                       0.000000  0.000000  0.000000  0.000000  0.000000  0.000000
                       0.000000  0.000000  0.000000
        optdriver           1
            prtwf          -1
            rfdir           1       1       1
           rfelfd           2
            rprim      1.1321875731E+01  0.0000000000E+00  6.5366880012E+00
                       3.7739585771E+00  1.0674366807E+01  6.5366880012E+00
                       0.0000000000E+00  0.0000000000E+00  1.3073376002E+01
          spgroup         225
           strten      0.0000000000E+00  0.0000000000E+00  0.0000000000E+00
                       0.0000000000E+00  0.0000000000E+00  0.0000000000E+00
           symrel      1  0  0   0  1  0   0  0  1      -1  0  0   0 -1  0   0  0 -1
                       0 -1  1   0 -1  0   1 -1  0       0  1 -1   0  1  0  -1  1  0
                      -1  0  0  -1  0  1  -1  1  0       1  0  0   1  0 -1   1 -1  0
                       0  1 -1   1  0 -1   0  0 -1       0 -1  1  -1  0  1   0  0  1
                      -1  0  0  -1  1  0  -1  0  1       1  0  0   1 -1  0   1  0 -1
                       0 -1  1   1 -1  0   0 -1  0       0  1 -1  -1  1  0   0  1  0
                       1  0  0   0  0  1   0  1  0      -1  0  0   0  0 -1   0 -1  0
                       0  1 -1   0  0 -1   1  0 -1       0 -1  1   0  0  1  -1  0  1
                      -1  0  1  -1  1  0  -1  0  0       1  0 -1   1 -1  0   1  0  0
                       0 -1  0   1 -1  0   0 -1  1       0  1  0  -1  1  0   0  1 -1
                       1  0 -1   0  0 -1   0  1 -1      -1  0  1   0  0  1   0 -1  1
                       0  1  0   0  0  1   1  0  0       0 -1  0   0  0 -1  -1  0  0
                       1  0 -1   0  1 -1   0  0 -1      -1  0  1   0 -1  1   0  0  1
                       0 -1  0   0 -1  1   1 -1  0       0  1  0   0  1 -1  -1  1  0
                      -1  0  1  -1  0  0  -1  1  0       1  0 -1   1  0  0   1 -1  0
                       0  1  0   1  0  0   0  0  1       0 -1  0  -1  0  0   0  0 -1
                       0  0 -1   0  1 -1   1  0 -1       0  0  1   0 -1  1  -1  0  1
                       1 -1  0   0 -1  1   0 -1  0      -1  1  0   0  1 -1   0  1  0
                       0  0  1   1  0  0   0  1  0       0  0 -1  -1  0  0   0 -1  0
                      -1  1  0  -1  0  0  -1  0  1       1 -1  0   1  0  0   1  0 -1
                       0  0  1   0  1  0   1  0  0       0  0 -1   0 -1  0  -1  0  0
                       1 -1  0   0 -1  0   0 -1  1      -1  1  0   0  1  0   0  1 -1
                       0  0 -1   1  0 -1   0  1 -1       0  0  1  -1  0  1   0 -1  1
                      -1  1  0  -1  0  1  -1  0  0       1 -1  0   1  0 -1   1  0  0
           tolwfr      1.00000000E-20
            typat      1  1  2  3  4  4  4  4  4  4
           useylm           1
              wtk        0.50000    0.50000
           xangst      1.9970928652E+00  1.4121579076E+00  3.4590663099E+00
                       5.9912785955E+00  4.2364737228E+00  1.0377198930E+01
                       3.9941857303E+00  2.8243158152E+00  6.9181326198E+00
                       0.0000000000E+00  0.0000000000E+00  0.0000000000E+00
                       1.8404648659E+00  1.3014051872E+00  6.9181326198E+00
                       2.9173252981E+00  4.3472264432E+00  5.0529556386E+00
                       5.0710461625E+00  1.3014051872E+00  8.7833096010E+00
                       6.1479065947E+00  4.3472264432E+00  6.9181326198E+00
                       5.0710461625E+00  1.3014051872E+00  5.0529556386E+00
                       2.9173252981E+00  4.3472264432E+00  8.7833096010E+00
            xcart      3.7739585771E+00  2.6685917018E+00  6.5366880012E+00
                       1.1321875731E+01  8.0057751053E+00  1.9610064004E+01
                       7.5479171542E+00  5.3371834036E+00  1.3073376002E+01
                       0.0000000000E+00  0.0000000000E+00  0.0000000000E+00
                       3.4779745538E+00  2.4592993918E+00  1.3073376002E+01
                       5.5129458540E+00  8.2150674153E+00  9.5487023185E+00
                       9.5828884543E+00  2.4592993918E+00  1.6598049686E+01
                       1.1617859755E+01  8.2150674153E+00  1.3073376002E+01
                       9.5828884543E+00  2.4592993918E+00  9.5487023185E+00
                       5.5129458540E+00  8.2150674153E+00  1.6598049686E+01
             xred      2.5000000000E-01  2.5000000000E-01  2.5000000000E-01
                       7.5000000000E-01  7.5000000000E-01  7.5000000000E-01
                       5.0000000000E-01  5.0000000000E-01  5.0000000000E-01
                       0.0000000000E+00  0.0000000000E+00  0.0000000000E+00
                       2.3039300000E-01  2.3039300000E-01  7.6960700000E-01
                       2.3039300000E-01  7.6960700000E-01  2.3039300000E-01
                       7.6960700000E-01  2.3039300000E-01  7.6960700000E-01
                       7.6960700000E-01  7.6960700000E-01  2.3039300000E-01
                       7.6960700000E-01  2.3039300000E-01  2.3039300000E-01
                       2.3039300000E-01  7.6960700000E-01  7.6960700000E-01
            znucl       55.00000   37.00000   83.00000    9.00000

- Timing analysis has been suppressed with timopt=0

 Suggested references for the acknowledgment of ABINIT usage.

 Calculation completed.
.Delivered   2 WARNINGs and   7 COMMENTs to log file.