.Version 9.5.1 of ABINIT

 ABINIT is a project of the Universite Catholique de Louvain,
 Corning Inc. and other collaborators, see ~abinit/doc/developers/contributors.txt .
 acknowledgments of the ABINIT effort.

.Starting date : Tue  4 May 2021.
- ( at 21h48 )

- input  file    -> /scratch/users/j/a/jabreu/flow_simple_6atoms/flow/w252/t1/run.abi
- output file    -> /scratch/users/j/a/jabreu/flow_simple_6atoms/flow/w252/t1/run.abo
- root for input  files -> /scratch/users/j/a/jabreu/flow_simple_6atoms/flow/w252/t1/indata/in
- root for output files -> /scratch/users/j/a/jabreu/flow_simple_6atoms/flow/w252/t1/outdata/out

 Symmetries : space group P4/n m m (#129); Bravais tP (primitive tetrag.)
     intxc =       0      iscf =       7    lmnmax =      32     lnmax =       8
     mgfft =      90  mpssoang =       4    mqgrid =    4230     natom =       6
  nloc_mem =       1    nspden =       1   nspinor =       1    nsppol =       1
      nsym =      16    n1xccc =    2501    ntypat =       3    occopt =       1
   xclevel =       2
-    mband =          33        mffmem =           1         mkmem =           1
-   mkqmem =           1        mk1mem =           1           mpw =       13411
      nfft =      225000          nkpt =           1
  Rough estimation (10% accuracy) of disk space for files :

------------- Echo of variables that govern the present computation ------------
-
- outvars: echo of selected default values
-   iomode0 =  0 , fftalg0 =512 , wfoptalg0 =  0
-
- outvars: echo of global parameters not present in the input file
-  max_nthreads =    0
-
 -outvars: echo values of preprocessed input variables --------
            acell      1.0000000000E+00  1.0000000000E+00  1.0000000000E+00 Bohr
              amu      1.38905500E+02  3.20660000E+01  1.89984032E+01
             ecut      5.20000000E+01 Hartree
-          fftalg         512
           irdden           1
           irdwfk           1
           istwfk        1
              ixc     -116133
           kptopt           0
P           mkmem           1
P          mkqmem           1
P          mk1mem           1
            natom           6
            nband          33
           nbdbuf           4
            ngfft          50      50      90
             nkpt           1
            nstep        1000
             nsym          16
           ntypat           3
              occ      2.000000  2.000000  2.000000  2.000000  2.000000  2.000000
                       2.000000  2.000000  2.000000  2.000000  2.000000  2.000000
                       2.000000  2.000000  2.000000  2.000000  2.000000  2.000000
                       2.000000  2.000000  2.000000  2.000000  2.000000  2.000000
                       0.000000  0.000000  0.000000  0.000000  0.000000  0.000000
                       0.000000  0.000000  0.000000
        optdriver           1
            prtwf          -1
            rfdir           1       1       1
           rfelfd           2
            rprim      7.5625932250E+00  0.0000000000E+00  0.0000000000E+00
                       0.0000000000E+00  7.5625932250E+00  0.0000000000E+00
                       0.0000000000E+00  0.0000000000E+00  1.3030366006E+01
          spgroup         129
           symrel      1  0  0   0  1  0   0  0  1      -1  0  0   0 -1  0   0  0 -1
                      -1  0  0   0  1  0   0  0 -1       1  0  0   0 -1  0   0  0  1
                      -1  0  0   0 -1  0   0  0  1       1  0  0   0  1  0   0  0 -1
                       1  0  0   0 -1  0   0  0 -1      -1  0  0   0  1  0   0  0  1
                       0  1  0   1  0  0   0  0  1       0 -1  0  -1  0  0   0  0 -1
                       0 -1  0   1  0  0   0  0 -1       0  1  0  -1  0  0   0  0  1
                       0 -1  0  -1  0  0   0  0  1       0  1  0   1  0  0   0  0 -1
                       0  1  0  -1  0  0   0  0 -1       0 -1  0   1  0  0   0  0  1
            tnons      0.0000000  0.0000000  0.0000000     0.5000000  0.5000000  0.0000000
                       0.5000000  0.5000000  0.0000000     0.0000000  0.0000000  0.0000000
                       0.0000000  0.0000000  0.0000000     0.5000000  0.5000000  0.0000000
                       0.5000000  0.5000000  0.0000000     0.0000000  0.0000000  0.0000000
                       0.5000000  0.5000000  0.0000000     0.0000000  0.0000000  0.0000000
                       0.0000000  0.0000000  0.0000000     0.5000000  0.5000000  0.0000000
                       0.5000000  0.5000000  0.0000000     0.0000000  0.0000000  0.0000000
                       0.0000000  0.0000000  0.0000000     0.5000000  0.5000000  0.0000000
           tolwfr      1.00000000E-20
            typat      1  1  2  2  3  3
           useylm           1
           xangst      0.0000000000E+00  2.0009759863E+00  5.3081544473E+00
                       2.0009759863E+00  0.0000000000E+00  1.5872182626E+00
                       2.0009759863E+00  0.0000000000E+00  4.4826680079E+00
                       0.0000000000E+00  2.0009759863E+00  2.4127047019E+00
                       2.0009759863E+00  2.0009759863E+00  0.0000000000E+00
                       0.0000000000E+00  0.0000000000E+00  0.0000000000E+00
            xcart      0.0000000000E+00  3.7812966125E+00  1.0030958176E+01
                       3.7812966125E+00  0.0000000000E+00  2.9994078294E+00
                       3.7812966125E+00  0.0000000000E+00  8.4710148796E+00
                       0.0000000000E+00  3.7812966125E+00  4.5593511262E+00
                       3.7812966125E+00  3.7812966125E+00  0.0000000000E+00
                       0.0000000000E+00  0.0000000000E+00  0.0000000000E+00
             xred      0.0000000000E+00  5.0000000000E-01  7.6981400000E-01
                       5.0000000000E-01  0.0000000000E+00  2.3018600000E-01
                       5.0000000000E-01  0.0000000000E+00  6.5009800000E-01
                       0.0000000000E+00  5.0000000000E-01  3.4990200000E-01
                       5.0000000000E-01  5.0000000000E-01  0.0000000000E+00
                       0.0000000000E+00  0.0000000000E+00  0.0000000000E+00
            znucl       57.00000   16.00000    9.00000

 chkinp: Checking input parameters for consistency.

== DATASET  1 ==================================================================
-   mpi_nproc: 1, omp_nthreads: -1 (-1 if OMP is not activated)

--- !DatasetInfo
iteration_state: {dtset: 1, }
dimensions: {natom: 6, nkpt: 1, mband: 33, nsppol: 1, nspinor: 1, nspden: 1, mpw: 13411, }
cutoff_energies: {ecut:  52.0, pawecutdg:  -1.0, }
electrons: {nelect:   4.80000000E+01, charge:   0.00000000E+00, occopt:   1.00000000E+00, tsmear:   1.00000000E-02, }
meta: {optdriver: 1, rfelfd: 2, }
...

 Real(R)+Recip(G) space primitive vectors, cartesian coordinates (Bohr,Bohr^-1):
 R(1)=  7.5625932  0.0000000  0.0000000  G(1)=  0.1322298  0.0000000  0.0000000
 R(2)=  0.0000000  7.5625932  0.0000000  G(2)=  0.0000000  0.1322298  0.0000000
 R(3)=  0.0000000  0.0000000 13.0303660  G(3)=  0.0000000  0.0000000  0.0767438
 Unit cell volume ucvol=  7.4524333E+02 bohr^3
 Angles (23,13,12)=  9.00000000E+01  9.00000000E+01  9.00000000E+01 degrees

 getcut: wavevector=  0.0000  0.0000  0.0000  ngfft=  50  50  90
         ecut(hartree)=     52.000   => boxcut(ratio)=   2.03673

--- Pseudopotential description ------------------------------------------------
- pspini: atom type   1  psp file is /scratch/users/j/a/jabreu/pseudos/PBEsol/La.psp8
- pspatm: opening atomic psp file    /scratch/users/j/a/jabreu/pseudos/PBEsol/La.psp8
- La    ONCVPSP-3.3.0  r_core=   2.11664   1.60878   1.85636   1.66739
- 57.00000  11.00000    180112                znucl, zion, pspdat
    8 -116133    3    4       600   0.00000   pspcod,pspxc,lmax,lloc,mmax,r2well
    5.99000000000000    5.00000000000000    0.00000000000000   rchrg,fchrg,qchrg
     nproj     2     2     2     2
     extension_switch     1
  pspatm : epsatm=   29.08531775
         --- l  ekb(1:nproj) -->
             0    6.695600    0.639047
             1    6.383649    1.151322
             2    3.612966    0.847811
             3  -13.718437   -4.858923
 pspatm: atomic psp has been read  and splines computed

- pspini: atom type   2  psp file is /scratch/users/j/a/jabreu/pseudos/PBEsol/S.psp8
- pspatm: opening atomic psp file    /scratch/users/j/a/jabreu/pseudos/PBEsol/S.psp8
- S     ONCVPSP-3.3.0  r_core=   1.45376   1.45376   1.61851
- 16.00000   6.00000    180112                znucl, zion, pspdat
    8 -116133    2    4       600   0.00000   pspcod,pspxc,lmax,lloc,mmax,r2well
    5.99000000000000    6.00000000000000    0.00000000000000   rchrg,fchrg,qchrg
     nproj     2     2     2
     extension_switch     1
  pspatm : epsatm=    8.71840985
         --- l  ekb(1:nproj) -->
             0    6.834532    0.579453
             1    3.282851    0.896984
             2   -3.496974   -0.974265
 pspatm: atomic psp has been read  and splines computed

- pspini: atom type   3  psp file is /scratch/users/j/a/jabreu/pseudos/PBEsol/F.psp8
- pspatm: opening atomic psp file    /scratch/users/j/a/jabreu/pseudos/PBEsol/F.psp8
- F     ONCVPSP-3.3.0  r_core=   1.30942   1.45782   1.60379
-  9.00000   7.00000    180112                znucl, zion, pspdat
    8 -116133    2    4       600   0.00000   pspcod,pspxc,lmax,lloc,mmax,r2well
    5.99000000000000    2.50000000000000    0.00000000000000   rchrg,fchrg,qchrg
     nproj     2     2     1
     extension_switch     1
  pspatm : epsatm=    4.89824824
         --- l  ekb(1:nproj) -->
             0    6.506434    1.065875
             1   -3.978753   -1.295852
             2   -2.394754
 pspatm: atomic psp has been read  and splines computed

   4.09938968E+03                                ecore*ucvol(ha*bohr**3)

-inwffil : will read wavefunctions from disk file /scratch/users/j/a/jabreu/flow_simple_6atoms/flow/w252/t1/indata/in_WFK

 ==>  initialize data related to q vector <==

 The list of irreducible perturbations for this q vector is:
    1)    idir= 1    ipert=   7
    2)    idir= 2    ipert=   7
    3)    idir= 3    ipert=   7

 Perturbation wavevector (in red.coord.)   0.000000  0.000000  0.000000
 Perturbation : derivative vs k along direction   1

 dfpt_looppert : COMMENT -
  In a d/dk calculation, iscf is set to -3 automatically.
 The set of symmetries contains only one element for this perturbation.
 symkpt : not enough symmetry to change the number of k points.

[...]

 Initialisation of the first-order wave-functions :
  ireadwf=   0

--- !BeginCycle
iteration_state: {dtset: 1, }
solver: {iscf: 7, nstep: 1000, nline: 4, wfoptalg: 0, }
tolerances: {tolwfr: 1.00E-20, }
...

     iter   2DEtotal(Ha)        deltaE(Ha) residm    vres2
-ETOT  1  -44.280797855276     -4.428E+01 1.268E-01 0.000E+00
 ETOT  2  -44.492457477714     -2.117E-01 3.970E-02 0.000E+00
 ETOT  3  -44.514118450181     -2.166E-02 1.254E-02 0.000E+00
 ETOT  4  -44.518115843317     -3.997E-03 1.691E-02 0.000E+00
 ETOT  5  -44.519057587721     -9.417E-04 6.331E-03 0.000E+00
 ETOT  6  -44.519332027096     -2.744E-04 1.025E-02 0.000E+00
 ETOT  7  -44.519428015408     -9.599E-05 4.651E-03 0.000E+00
[...]
 1-9 gives the relaxation energy (to be shifted if some occ is /=2.0)
   erelax=  -4.45194985E+01
  No Ewald or frozen-wf contrib.: the relaxation energy is the total one
 2DEtotal=   -0.4451949847E+02 Ha. Also 2DEtotal=   -0.121143716210E+04 eV
    (  non-var. 2DEtotal :   -4.4519498469E+01 Ha)

 Perturbation wavevector (in red.coord.)   0.000000  0.000000  0.000000
 Perturbation : derivative vs k along direction   2
 The set of symmetries contains only one element for this perturbation.
 symkpt : not enough symmetry to change the number of k points.

[...]

 Perturbation wavevector (in red.coord.)   0.000000  0.000000  0.000000
 Perturbation : derivative vs k along direction   3
 The set of symmetries contains only one element for this perturbation.
 symkpt : not enough symmetry to change the number of k points.

-inwffil : will read wavefunctions from disk file /scratch/users/j/a/jabreu/flow_simple_6atoms/flow/w252/t1/indata/in_WFK

 Initialisation of the first-order wave-functions :
  ireadwf=   0

--- !BeginCycle
iteration_state: {dtset: 1, }
solver: {iscf: 7, nstep: 1000, nline: 4, wfoptalg: 0, }
tolerances: {tolwfr: 1.00E-20, }
...

     iter   2DEtotal(Ha)        deltaE(Ha) residm    vres2
-ETOT  1  -12.707882203126     -1.271E+01 4.723E-02 0.000E+00
 ETOT  2  -12.754663913601     -4.678E-02 4.998E-03 0.000E+00
 ETOT  3  -12.757647830983     -2.984E-03 5.491E-03 0.000E+00
 ETOT  4  -12.758274342045     -6.265E-04 2.451E-03 0.000E+00
 ETOT  5  -12.758515885719     -2.415E-04 2.590E-03 0.000E+00
 ETOT  6  -12.758626410653     -1.105E-04 1.418E-03 0.000E+00
 ETOT  7  -12.758679289253     -5.288E-05 1.714E-03 0.000E+00
 ETOT  8  -12.758704828871     -2.554E-05 1.108E-03 0.000E+00
 ETOT  9  -12.758717489673     -1.266E-05 1.234E-03 0.000E+00
 ETOT 10  -12.758723833400     -6.344E-06 8.782E-04 0.000E+00
 ETOT 11  -12.758727083820     -3.250E-06 9.179E-04 0.000E+00
 ETOT 12  -12.758728761674     -1.678E-06 6.910E-04 0.000E+00
 ETOT 13  -12.758729633550     -8.719E-07 7.208E-04 0.000E+00
 ETOT 14  -12.758730086723     -4.532E-07 5.448E-04 0.000E+00
 ETOT 15  -12.758730324285     -2.376E-07 5.419E-04 0.000E+00
 ETOT 16  -12.758730448765     -1.245E-07 4.263E-04 0.000E+00
 ETOT 17  -12.758730514752     -6.599E-08 4.204E-04 0.000E+00
 ETOT 18  -12.758730549729     -3.498E-08 3.343E-04 0.000E+00
 ETOT 19  -12.758730568490     -1.876E-08 3.281E-04 0.000E+00
 ETOT 20  -12.758730578557     -1.007E-08 2.626E-04 0.000E+00
 ETOT 21  -12.758730584010     -5.453E-09 2.574E-04 0.000E+00
 ETOT 22  -12.758730586965     -2.955E-09 2.067E-04 0.000E+00
 ETOT 23  -12.758730588577     -1.612E-09 2.027E-04 0.000E+00
 ETOT 24  -12.758730589457     -8.799E-10 1.632E-04 0.000E+00
 ETOT 25  -12.758730589939     -4.821E-10 1.602E-04 0.000E+00
 ETOT 26  -12.758730590204     -2.644E-10 1.291E-04 0.000E+00
 ETOT 27  -12.758730590349     -1.453E-10 1.271E-04 0.000E+00
 ETOT 28  -12.758730590429     -7.984E-11 1.025E-04 0.000E+00
 ETOT 29  -12.758730590473     -4.396E-11 1.012E-04 0.000E+00
 ETOT 30  -12.758730590497     -2.420E-11 8.159E-05 0.000E+00
 ETOT 31  -12.758730590510     -1.335E-11 8.090E-05 0.000E+00
 ETOT 32  -12.758730590518     -7.352E-12 6.516E-05 0.000E+00
 ETOT 33  -12.758730590522     -4.038E-12 6.488E-05 0.000E+00
 ETOT 34  -12.758730590524     -2.238E-12 5.222E-05 0.000E+00
 ETOT 35  -12.758730590525     -1.254E-12 5.223E-05 0.000E+00
 ETOT 36  -12.758730590526     -6.661E-13 4.199E-05 0.000E+00
 ETOT 37  -12.758730590526     -3.855E-13 4.220E-05 0.000E+00
 ETOT 38  -12.758730590527     -2.043E-13 3.389E-05 0.000E+00
 ETOT 39  -12.758730590527     -1.137E-13 3.423E-05 0.000E+00
 ETOT 40  -12.758730590527     -6.750E-14 2.745E-05 0.000E+00
 ETOT 41  -12.758730590527     -3.908E-14 2.786E-05 0.000E+00
 ETOT 42  -12.758730590527     -3.553E-15 2.231E-05 0.000E+00
 ETOT 43  -12.758730590527     -2.842E-14 2.276E-05 0.000E+00
 ETOT 44  -12.758730590527     -5.329E-15 1.819E-05 0.000E+00
 ETOT 45  -12.758730590527      3.553E-15 1.867E-05 0.000E+00
 ETOT 46  -12.758730590527      1.066E-14 1.489E-05 0.000E+00
 ETOT 47  -12.758730590527     -1.243E-14 1.536E-05 0.000E+00
 ETOT 48  -12.758730590527     -8.882E-15 1.223E-05 0.000E+00
 ETOT 49  -12.758730590527      1.776E-15 1.268E-05 0.000E+00
 ETOT 50  -12.758730590527      0.000E+00 1.007E-05 0.000E+00
 ETOT 51  -12.758730590527      8.882E-15 1.051E-05 0.000E+00
 ETOT 52  -12.758730590527     -1.421E-14 8.324E-06 0.000E+00
 ETOT 53  -12.758730590527      5.329E-15 8.729E-06 0.000E+00
 ETOT 54  -12.758730590527     -1.776E-15 6.899E-06 0.000E+00
 ETOT 55  -12.758730590527      5.329E-15 7.274E-06 0.000E+00
 ETOT 56  -12.758730590527     -5.329E-15 5.734E-06 0.000E+00
 ETOT 57  -12.758730590527     -7.105E-15 6.077E-06 0.000E+00
 ETOT 58  -12.758730590527      8.882E-15 4.778E-06 0.000E+00
 ETOT 59  -12.758730590527     -1.776E-15 5.090E-06 0.000E+00
 ETOT 60  -12.758730590527     -3.553E-15 3.992E-06 0.000E+00
 ETOT 61  -12.758730590527      7.105E-15 4.274E-06 0.000E+00
[...]
 ETOT  480  -12.758730590527     -1.776E-15 2.888E-20 0.000E+00
 ETOT  481  -12.758730590527      0.000E+00 3.332E-20 0.000E+00
 ETOT  482  -12.758730590527      0.000E+00 2.477E-20 0.000E+00
 ETOT  483  -12.758730590527      7.105E-15 2.857E-20 0.000E+00
 ETOT  484  -12.758730590527      0.000E+00 2.125E-20 0.000E+00
 ETOT  485  -12.758730590527      7.105E-15 2.449E-20 0.000E+00
 ETOT  486  -12.758730590527     -7.105E-15 1.822E-20 0.000E+00
 ETOT  487  -12.758730590527     -3.553E-15 2.101E-20 0.000E+00
 ETOT  488  -12.758730590527      5.329E-15 1.562E-20 0.000E+00
 ETOT  489  -12.758730590527      1.776E-15 1.802E-20 0.000E+00
 ETOT  490  -12.758730590527     -3.553E-15 1.340E-20 0.000E+00
 ETOT  491  -12.758730590527     -1.776E-15 1.546E-20 0.000E+00
 ETOT  492  -12.758730590527     -5.329E-15 1.149E-20 0.000E+00
 ETOT  493  -12.758730590527      1.066E-14 1.325E-20 0.000E+00
 ETOT  494  -12.758730590527     -5.329E-15 9.865E-21 0.000E+00

 At SCF step  494   max residual=  9.86E-21 < tolwfr=  1.00E-20 =>converged.

 ----iterations are completed or convergence reached----

 dfpt_looppert: DFPT cycle converged with prtwf=-1. Will skip output of the 1st-order WFK file.
 dfpt_looppert : ek2=    2.2321210365E+01
          f-sum rule ratio=    1.1007332427E+00
 prteigrs : about to open file /scratch/users/j/a/jabreu/flow_simple_6atoms/flow/w252/t1/tmpdata/tmp_1WF1_EIG
 Expectation of eigenvalue derivatives (hartree) for nkpt=   1  k points:
  (in case of degenerate eigenvalues, averaged derivative)
 kpt#   1, nband= 33, wtk=  1.00000, kpt=  0.0000  0.0000  0.0000 (reduced coord)
  -0.00000    0.00000    0.00000   -0.00000    0.00000   -0.00000   -0.00000   -0.00000
  -0.00000   -0.00000   -0.00000   -0.00000   -0.00000   -0.00000   -0.00000   -0.00000
  -0.00000   -0.00000   -0.00000    0.00000    0.00000   -0.00000   -0.00000    0.00000
   0.00000   -0.00000   -0.00000   -0.00000   -0.00000    0.00000    0.00000   -0.00000
   0.00000

 Eight components of 2nd-order total energy (hartree) are
 1,2,3: 0th-order hamiltonian combined with 1st-order wavefunctions
     kin0=   3.53496223E+01 eigvalue=  -2.29327214E+00  local=  -2.02896285E+01
 4,5,6: 1st-order hamiltonian combined with 1st and 0th-order wfs
     kin1=  -2.45696983E+01  Hartree=   0.00000000E+00     xc=   0.00000000E+00
 7,8,9: eventually, occupation + non-local contributions
    edocc=   8.20077823E-01     enl0=  -8.28068908E-01   enl1=  -9.47762914E-01
 1-9 gives the relaxation energy (to be shifted if some occ is /=2.0)
   erelax=  -1.27587306E+01
  No Ewald or frozen-wf contrib.: the relaxation energy is the total one
 2DEtotal=   -0.1275873059E+02 Ha. Also 2DEtotal=   -0.347182715665E+03 eV
    (  non-var. 2DEtotal :   -1.2758730590E+01 Ha)

 CALCULATION OF EFFECTIVE MASSES
 NOTE : Additional infos (eff. mass eigenvalues, eigenvectors and, if degenerate, average mass) are available in stdout.

 K-point ( 0.000, 0.000, 0.000) | band =    24
 Effective mass tensor:
             -4.5322166784              0.0000000011             -0.0000000009
              0.0000000011             -4.5322166671             -0.0000000020
             -0.0000000009             -0.0000000020             -0.4256354757
 Effective mass tensor eigenvalues:
             -4.5322166785             -4.5322166670             -0.4256354757
 Angular average effective mass 1/(<1/m>)=  -1.0749939449
 Angular average effective mass for Frohlich model (<m**0.5>)**2=  -1.6103106888
 Effective masses along directions: (cart. coord. / red. coord. -> eff. mass)
    1:   1.000000  0.000000  0.000000 /   1.000000  0.000000  0.000000 ->  -4.5322166784
    2:   0.000000  1.000000  0.000000 /   0.000000  1.000000  0.000000 ->  -4.5322166671
    3:   0.000000  0.000000  1.000000 /   0.000000  0.000000  1.000000 ->  -0.4256354757
    4:   0.577350  0.577350  0.577350 /   0.448618  0.448618  0.772970 ->  -1.0749939461
    5:   0.000000  0.707107  0.707107 /   0.000000  0.501965  0.864888 ->  -0.7781886765
    6:   0.707107  0.000000  0.707107 /   0.501965  0.000000  0.864888 ->  -0.7781886763
    7:   0.707107  0.707107  0.000000 /   0.707107  0.707107  0.000000 ->  -4.5322166717

 K-point ( 0.000, 0.000, 0.000) | band =    25
 Effective mass tensor:
              0.3516259121              0.0000000000             -0.0000000000
              0.0000000000              0.3516259122              0.0000000000
             -0.0000000000              0.0000000000              1.0081889657
 Effective mass tensor eigenvalues:
              0.3516259121              0.3516259122              1.0081889657
 Angular average effective mass 1/(<1/m>)=   0.4491192432
 Angular average effective mass for Frohlich model (<m**0.5>)**2=   0.4761124396
 Effective masses along directions: (cart. coord. / red. coord. -> eff. mass)
    1:   1.000000  0.000000  0.000000 /   1.000000  0.000000  0.000000 ->   0.3516259121
    2:   0.000000  1.000000  0.000000 /   0.000000  1.000000  0.000000 ->   0.3516259122
    3:   0.000000  0.000000  1.000000 /   0.000000  0.000000  1.000000 ->   1.0081889657
    4:   0.577350  0.577350  0.577350 /   0.448618  0.448618  0.772970 ->   0.4491192432
    5:   0.000000  0.707107  0.707107 /   0.000000  0.501965  0.864888 ->   0.5214023916
    6:   0.707107  0.000000  0.707107 /   0.501965  0.000000  0.864888 ->   0.5214023915
    7:   0.707107  0.707107  0.000000 /   0.707107  0.707107  0.000000 ->   0.3516259122

 END OF EFFECTIVE MASSES SECTION

 ---- first-order wavefunction calculations are completed ----

 Total localisation tensor (bohr^2) in cartesian coordinates
  WARNING : still subject to testing - especially symmetries.
      direction              matrix element
   alpha     beta       real part   imaginary part
     1        1       1.9835504113    0.0000000000
     1        2       0.0000000000    0.0000000000
     1        3       0.0000000000    0.0000000000
     2        1       0.0000000000    0.0000000000
     2        2       1.9835513850    0.0000000000
     2        3       0.0000000000    0.0000000000
     3        1       0.0000000000    0.0000000000
     3        2       0.0000000000    0.0000000000
     3        3       1.2113107555    0.0000000000

 respfn : d/dk was computed, but no 2DTE, so no DDB output.

== END DATASET(S) ==============================================================

 -outvars: echo values of variables after computation  --------
            acell      1.0000000000E+00  1.0000000000E+00  1.0000000000E+00 Bohr
              amu      1.38905500E+02  3.20660000E+01  1.89984032E+01
             ecut      5.20000000E+01 Hartree
           etotal     -1.2758730591E+01
            fcart      0.0000000000E+00  0.0000000000E+00  0.0000000000E+00
                       0.0000000000E+00  0.0000000000E+00  0.0000000000E+00
                       0.0000000000E+00  0.0000000000E+00  0.0000000000E+00
                       0.0000000000E+00  0.0000000000E+00  0.0000000000E+00
                       0.0000000000E+00  0.0000000000E+00  0.0000000000E+00
                       0.0000000000E+00  0.0000000000E+00  0.0000000000E+00
-          fftalg         512
           irdden           1
           irdwfk           1
           istwfk        1
              ixc     -116133
           kptopt           0
P           mkmem           1
P          mkqmem           1
P          mk1mem           1
            natom           6
            nband          33
           nbdbuf           4
            ngfft          50      50      90
             nkpt           1
            nstep        1000
             nsym          16
           ntypat           3
              occ      2.000000  2.000000  2.000000  2.000000  2.000000  2.000000
                       2.000000  2.000000  2.000000  2.000000  2.000000  2.000000
                       2.000000  2.000000  2.000000  2.000000  2.000000  2.000000
                       2.000000  2.000000  2.000000  2.000000  2.000000  2.000000
                       0.000000  0.000000  0.000000  0.000000  0.000000  0.000000
                       0.000000  0.000000  0.000000
        optdriver           1
            prtwf          -1
            rfdir           1       1       1
           rfelfd           2
            rprim      7.5625932250E+00  0.0000000000E+00  0.0000000000E+00
                       0.0000000000E+00  7.5625932250E+00  0.0000000000E+00
                       0.0000000000E+00  0.0000000000E+00  1.3030366006E+01
          spgroup         129
           strten      0.0000000000E+00  0.0000000000E+00  0.0000000000E+00
                       0.0000000000E+00  0.0000000000E+00  0.0000000000E+00
           symrel      1  0  0   0  1  0   0  0  1      -1  0  0   0 -1  0   0  0 -1
                      -1  0  0   0  1  0   0  0 -1       1  0  0   0 -1  0   0  0  1
                      -1  0  0   0 -1  0   0  0  1       1  0  0   0  1  0   0  0 -1
                       1  0  0   0 -1  0   0  0 -1      -1  0  0   0  1  0   0  0  1
                       0  1  0   1  0  0   0  0  1       0 -1  0  -1  0  0   0  0 -1
                       0 -1  0   1  0  0   0  0 -1       0  1  0  -1  0  0   0  0  1
                       0 -1  0  -1  0  0   0  0  1       0  1  0   1  0  0   0  0 -1
                       0  1  0  -1  0  0   0  0 -1       0 -1  0   1  0  0   0  0  1
            tnons      0.0000000  0.0000000  0.0000000     0.5000000  0.5000000  0.0000000
                       0.5000000  0.5000000  0.0000000     0.0000000  0.0000000  0.0000000
                       0.0000000  0.0000000  0.0000000     0.5000000  0.5000000  0.0000000
                       0.5000000  0.5000000  0.0000000     0.0000000  0.0000000  0.0000000
                       0.5000000  0.5000000  0.0000000     0.0000000  0.0000000  0.0000000
                       0.0000000  0.0000000  0.0000000     0.5000000  0.5000000  0.0000000
                       0.5000000  0.5000000  0.0000000     0.0000000  0.0000000  0.0000000
                       0.0000000  0.0000000  0.0000000     0.5000000  0.5000000  0.0000000
           tolwfr      1.00000000E-20
            typat      1  1  2  2  3  3
           useylm           1
           xangst      0.0000000000E+00  2.0009759863E+00  5.3081544473E+00
                       2.0009759863E+00  0.0000000000E+00  1.5872182626E+00
                       2.0009759863E+00  0.0000000000E+00  4.4826680079E+00
                       0.0000000000E+00  2.0009759863E+00  2.4127047019E+00
                       2.0009759863E+00  2.0009759863E+00  0.0000000000E+00
                       0.0000000000E+00  0.0000000000E+00  0.0000000000E+00
            xcart      0.0000000000E+00  3.7812966125E+00  1.0030958176E+01
                       3.7812966125E+00  0.0000000000E+00  2.9994078294E+00
                       3.7812966125E+00  0.0000000000E+00  8.4710148796E+00
                       0.0000000000E+00  3.7812966125E+00  4.5593511262E+00
                       3.7812966125E+00  3.7812966125E+00  0.0000000000E+00
                       0.0000000000E+00  0.0000000000E+00  0.0000000000E+00
             xred      0.0000000000E+00  5.0000000000E-01  7.6981400000E-01
                       5.0000000000E-01  0.0000000000E+00  2.3018600000E-01
                       5.0000000000E-01  0.0000000000E+00  6.5009800000E-01
                       0.0000000000E+00  5.0000000000E-01  3.4990200000E-01
                       5.0000000000E-01  5.0000000000E-01  0.0000000000E+00
                       0.0000000000E+00  0.0000000000E+00  0.0000000000E+00
            znucl       57.00000   16.00000    9.00000

- Timing analysis has been suppressed with timopt=0

 Suggested references for the acknowledgment of ABINIT usage.

 Calculation completed.
.Delivered   6 WARNINGs and   5 COMMENTs to log file.