.Version 9.5.1 of ABINIT

 ABINIT is a project of the Universite Catholique de Louvain,
 Corning Inc. and other collaborators, see ~abinit/doc/developers/contributors.txt .
 acknowledgments of the ABINIT effort.

.Starting date : Tue 27 Apr 2021.
- ( at 18h30 )

- input  file    -> /scratch/users/j/a/jabreu/flow_simple_4atoms/flow/w171/t1/run.abi
- output file    -> /scratch/users/j/a/jabreu/flow_simple_4atoms/flow/w171/t1/run.abo
- root for input  files -> /scratch/users/j/a/jabreu/flow_simple_4atoms/flow/w171/t1/indata/in
- root for output files -> /scratch/users/j/a/jabreu/flow_simple_4atoms/flow/w171/t1/outdata/out

 Symmetries : space group P3 m 1 (#156); Bravais hP (primitive hexag.)
     intxc =       0      iscf =       7    lmnmax =      18     lnmax =       6
     mgfft =      60  mpssoang =       3    mqgrid =    3001     natom =       4
  nloc_mem =       1    nspden =       1   nspinor =       1    nsppol =       1
      nsym =       6    n1xccc =    2501    ntypat =       4    occopt =       1
   xclevel =       2
-    mband =          18        mffmem =           1         mkmem =           2
-   mkqmem =           2        mk1mem =           2           mpw =        6448
      nfft =      138240          nkpt =           2
  Rough estimation (10% accuracy) of disk space for files :

------------- Echo of variables that govern the present computation ------------
-
- outvars: echo of selected default values
-   iomode0 =  0 , fftalg0 =512 , wfoptalg0 =  0
-
- outvars: echo of global parameters not present in the input file
-  max_nthreads =    0
-
 -outvars: echo values of preprocessed input variables --------
            acell      1.0000000000E+00  1.0000000000E+00  1.0000000000E+00 Bohr
              amu      1.37327000E+02  2.69815390E+01  2.80855000E+01
                       1.00794000E+00
             ecut      3.90000000E+01 Hartree
-          fftalg         512
           irdden           1
           irdwfk           1
              ixc     -116133
              kpt      1.11111111E-02  1.11111111E-02  5.00000000E-01
                       5.00000000E-01  0.00000000E+00  1.31578947E-01
           kptopt           0
P           mkmem           2
P          mkqmem           2
P          mk1mem           2
            natom           4
            nband          18
           nbdbuf           4
            ngfft          48      48      60
             nkpt           2
            nstep         100
             nsym           6
           ntypat           4
              occ      2.000000  2.000000  2.000000  2.000000  2.000000  2.000000
                       2.000000  2.000000  2.000000  0.000000  0.000000  0.000000
                       0.000000  0.000000  0.000000  0.000000  0.000000  0.000000
        optdriver           1
            prtwf          -1
            rfdir           1       1       1
           rfelfd           2
            rprim      8.1304751818E+00  0.0000000000E+00  0.0000000000E+00
                      -4.0652375909E+00  7.0411980522E+00  0.0000000000E+00
                       0.0000000000E+00  0.0000000000E+00  9.6088227823E+00
          spgroup         156
           symrel      1  0  0   0  1  0   0  0  1      -1  0  0   1  1  0   0  0  1
                       0  1  0  -1 -1  0   0  0  1       0 -1  0  -1  0  0   0  0  1
                      -1 -1  0   1  0  0   0  0  1       1  1  0   0 -1  0   0  0  1
           tolwfr      1.00000000E-20
            typat      1  2  3  4
           useylm           1
              wtk        0.50000    0.50000
           xangst      0.0000000000E+00  0.0000000000E+00  5.0612326174E+00
                       2.1512310806E+00  1.2420138435E+00  2.6992603335E+00
                       0.0000000000E+00  2.4840276869E+00  2.3205415778E+00
                       2.1512310806E+00  1.2420138435E+00  4.4466618892E+00
            xcart      0.0000000000E+00  0.0000000000E+00  9.5643435416E+00
                       4.0652375909E+00  2.3470660174E+00  5.1008627916E+00
                       0.0000000000E+00  4.6941320348E+00  4.3851880620E+00
                       4.0652375909E+00  2.3470660174E+00  8.4029731761E+00
             xred      0.0000000000E+00  0.0000000000E+00  9.9537100000E-01
                       6.6666666667E-01  3.3333333333E-01  5.3085200000E-01
                       3.3333333333E-01  6.6666666667E-01  4.5637100000E-01
                       6.6666666667E-01  3.3333333333E-01  8.7450600000E-01
            znucl       56.00000   13.00000   14.00000    1.00000

 chkinp: Checking input parameters for consistency.

== DATASET  1 ==================================================================
-   mpi_nproc: 1, omp_nthreads: -1 (-1 if OMP is not activated)

--- !DatasetInfo
iteration_state: {dtset: 1, }
dimensions: {natom: 4, nkpt: 2, mband: 18, nsppol: 1, nspinor: 1, nspden: 1, mpw: 6448, }
cutoff_energies: {ecut:  39.0, pawecutdg:  -1.0, }
electrons: {nelect:   1.80000000E+01, charge:   0.00000000E+00, occopt:   1.00000000E+00, tsmear:   1.00000000E-02, }
meta: {optdriver: 1, rfelfd: 2, }
...

 Real(R)+Recip(G) space primitive vectors, cartesian coordinates (Bohr,Bohr^-1):
 R(1)=  8.1304752  0.0000000  0.0000000  G(1)=  0.1229940  0.0710106  0.0000000
 R(2)= -4.0652376  7.0411981  0.0000000  G(2)=  0.0000000  0.1420213  0.0000000
 R(3)=  0.0000000  0.0000000  9.6088228  G(3)=  0.0000000  0.0000000  0.1040710
 Unit cell volume ucvol=  5.5008863E+02 bohr^3
 Angles (23,13,12)=  9.00000000E+01  9.00000000E+01  1.20000000E+02 degrees

 getcut: wavevector=  0.0000  0.0000  0.0000  ngfft=  48  48  60
         ecut(hartree)=     39.000   => boxcut(ratio)=   2.10004

--- Pseudopotential description ------------------------------------------------
- pspini: atom type   1  psp file is /scratch/users/j/a/jabreu/pseudos/PBEsol/Ba.psp8
- pspatm: opening atomic psp file    /scratch/users/j/a/jabreu/pseudos/PBEsol/Ba.psp8
- Ba    ONCVPSP-3.3.0  r_core=   2.15444   1.91218   2.15444
- 56.00000  10.00000    180112                znucl, zion, pspdat
    8 -116133    2    4       600   0.00000   pspcod,pspxc,lmax,lloc,mmax,r2well
    5.99000000000000    5.00000000000000    0.00000000000000   rchrg,fchrg,qchrg
     nproj     2     2     2
     extension_switch     1
  pspatm : epsatm=   26.37418029
         --- l  ekb(1:nproj) -->
             0    6.652372    0.677024
             1    5.027722    0.408462
             2    2.543237    0.416854
 pspatm: atomic psp has been read  and splines computed

- pspini: atom type   2  psp file is /scratch/users/j/a/jabreu/pseudos/PBEsol/Al.psp8
- pspatm: opening atomic psp file    /scratch/users/j/a/jabreu/pseudos/PBEsol/Al.psp8
- Al    ONCVPSP-3.3.0  r_core=   1.76802   1.76802   1.70587
- 13.00000   3.00000    180112                znucl, zion, pspdat
    8 -116133    2    4       600   0.00000   pspcod,pspxc,lmax,lloc,mmax,r2well
    5.99000000000000    5.00000000000000    0.00000000000000   rchrg,fchrg,qchrg
     nproj     2     2     2
     extension_switch     1
  pspatm : epsatm=    0.68509324
         --- l  ekb(1:nproj) -->
             0    5.834965    0.726662
             1    6.225605    0.924840
             2   -2.432733   -0.548689
 pspatm: atomic psp has been read  and splines computed

[...]

- pspini: atom type   4  psp file is /scratch/users/j/a/jabreu/pseudos/PBEsol/H.psp8
- pspatm: opening atomic psp file    /scratch/users/j/a/jabreu/pseudos/PBEsol/H.psp8
- H     ONCVPSP-3.3.0  r_core=   1.00957   0.70586
-  1.00000   1.00000    180112                znucl, zion, pspdat
    8 -116133    1    4       300   0.00000   pspcod,pspxc,lmax,lloc,mmax,r2well
    2.99000000000000    0.00000000000000    0.00000000000000   rchrg,fchrg,qchrg
     nproj     2     1
     extension_switch     1
  pspatm : epsatm=    0.35627032
         --- l  ekb(1:nproj) -->
             0   -1.674911   -0.523609
             1   -0.494138
 pspatm: atomic psp has been read  and splines computed

   6.35044170E+02                                ecore*ucvol(ha*bohr**3)

-inwffil : will read wavefunctions from disk file /scratch/users/j/a/jabreu/flow_simple_4atoms/flow/w171/t1/indata/in_WFK

 ==>  initialize data related to q vector <==

 The list of irreducible perturbations for this q vector is:
    1)    idir= 1    ipert=   5
    2)    idir= 2    ipert=   5
    3)    idir= 3    ipert=   5

 Perturbation wavevector (in red.coord.)   0.000000  0.000000  0.000000
 Perturbation : derivative vs k along direction   1

 dfpt_looppert : COMMENT -
  In a d/dk calculation, iscf is set to -3 automatically.
 The set of symmetries contains only one element for this perturbation.
 symkpt : not enough symmetry to change the number of k points.

[...]

 Initialisation of the first-order wave-functions :
  ireadwf=   0

--- !BeginCycle
iteration_state: {dtset: 1, }
solver: {iscf: 7, nstep: 100, nline: 4, wfoptalg: 0, }
tolerances: {tolwfr: 1.00E-20, }
...

     iter   2DEtotal(Ha)        deltaE(Ha) residm    vres2
-ETOT  1  -24.315820352374     -2.432E+01 1.297E-02 0.000E+00
 ETOT  2  -24.317902130269     -2.082E-03 3.879E-04 0.000E+00
 ETOT  3  -24.317905861278     -3.731E-06 8.048E-06 0.000E+00
 ETOT  4  -24.317905872189     -1.091E-08 1.723E-07 0.000E+00
 ETOT  5  -24.317905872228     -3.854E-11 9.590E-09 0.000E+00
 ETOT  6  -24.317905872228     -1.812E-13 2.871E-10 0.000E+00
 ETOT  7  -24.317905872228      1.030E-13 1.886E-11 0.000E+00
 ETOT  8  -24.317905872228     -2.487E-14 5.712E-13 0.000E+00
 ETOT  9  -24.317905872228      0.000E+00 4.051E-14 0.000E+00
 ETOT 10  -24.317905872228      3.553E-15 1.356E-15 0.000E+00
 ETOT 11  -24.317905872228      0.000E+00 1.008E-16 0.000E+00
 ETOT 12  -24.317905872228      0.000E+00 3.541E-18 0.000E+00
 ETOT 13  -24.317905872228      3.553E-15 2.658E-19 0.000E+00
 ETOT 14  -24.317905872228     -3.553E-15 9.512E-21 0.000E+00

 At SCF step   14   max residual=  9.51E-21 < tolwfr=  1.00E-20 =>converged.

 ----iterations are completed or convergence reached----

 dfpt_looppert: DFPT cycle converged with prtwf=-1. Will skip output of the 1st-order WFK file.
 dfpt_looppert : ek2=    2.8666133373E+01
          f-sum rule ratio=    1.6872917980E+00
 prteigrs : about to open file /scratch/users/j/a/jabreu/flow_simple_4atoms/flow/w171/t1/tmpdata/tmp_1WF1_EIG
 Expectation of eigenvalue derivatives (hartree) for nkpt=   2  k points:
  (in case of degenerate eigenvalues, averaged derivative)
 kpt#   1, nband= 18, wtk=  0.50000, kpt=  0.0111  0.0111  0.5000 (reduced coord)
   0.00065    0.00366   -0.01019   -0.00175    0.00364    0.01676   -0.17443   -0.04301
   0.00922    0.03909    0.06415    0.08874    0.00370    0.02617    0.06843    0.05303
  -0.19599   -0.01258
 prteigrs : prtvol=0 or 1, do not print more k-points.

 Eight components of 2nd-order total energy (hartree) are
 1,2,3: 0th-order hamiltonian combined with 1st-order wavefunctions
     kin0=   4.04952392E+00 eigvalue=   2.45710330E-01  local=  -2.44324483E+00
 4,5,6: 1st-order hamiltonian combined with 1st and 0th-order wfs
     kin1=  -4.83681317E+01  Hartree=   0.00000000E+00     xc=   0.00000000E+00
 7,8,9: eventually, occupation + non-local contributions
    edocc=   2.14012182E+01     enl0=   1.06469827E+00   enl1=  -2.67680024E-01
 1-9 gives the relaxation energy (to be shifted if some occ is /=2.0)
   erelax=  -2.43179059E+01
  No Ewald or frozen-wf contrib.: the relaxation energy is the total one
 2DEtotal=   -0.2431790587E+02 Ha. Also 2DEtotal=   -0.661723871361E+03 eV
    (  non-var. 2DEtotal :   -2.4317905872E+01 Ha)

 Perturbation wavevector (in red.coord.)   0.000000  0.000000  0.000000
 Perturbation : derivative vs k along direction   2
 The set of symmetries contains only one element for this perturbation.
 symkpt : not enough symmetry to change the number of k points.

[...]

 Perturbation wavevector (in red.coord.)   0.000000  0.000000  0.000000
 Perturbation : derivative vs k along direction   3
 The set of symmetries contains only one element for this perturbation.
 symkpt : not enough symmetry to change the number of k points.

-inwffil : will read wavefunctions from disk file /scratch/users/j/a/jabreu/flow_simple_4atoms/flow/w171/t1/indata/in_WFK

 Initialisation of the first-order wave-functions :
  ireadwf=   0

--- !BeginCycle
iteration_state: {dtset: 1, }
solver: {iscf: 7, nstep: 100, nline: 4, wfoptalg: 0, }
tolerances: {tolwfr: 1.00E-20, }
...

     iter   2DEtotal(Ha)        deltaE(Ha) residm    vres2
-ETOT  1  -9.6554725393765     -9.655E+00 7.211E-03 0.000E+00
 ETOT  2  -9.6569649552695     -1.492E-03 4.760E-05 0.000E+00
 ETOT  3  -9.6569675256638     -2.570E-06 5.583E-07 0.000E+00
 ETOT  4  -9.6569675325487     -6.885E-09 8.372E-09 0.000E+00
 ETOT  5  -9.6569675325705     -2.176E-11 2.940E-10 0.000E+00
 ETOT  6  -9.6569675325706     -7.283E-14 6.090E-12 0.000E+00
 ETOT  7  -9.6569675325706      0.000E+00 3.403E-13 0.000E+00
 ETOT  8  -9.6569675325706      5.329E-15 9.339E-15 0.000E+00
 ETOT  9  -9.6569675325706     -5.329E-15 5.143E-16 0.000E+00
 ETOT 10  -9.6569675325706      3.553E-15 1.703E-17 0.000E+00
 ETOT 11  -9.6569675325706     -1.776E-15 9.531E-19 0.000E+00
 ETOT 12  -9.6569675325706     -1.776E-15 3.306E-20 0.000E+00
 ETOT 13  -9.6569675325706      1.776E-15 9.845E-21 0.000E+00

 At SCF step   13   max residual=  9.85E-21 < tolwfr=  1.00E-20 =>converged.

 ----iterations are completed or convergence reached----

 dfpt_looppert: DFPT cycle converged with prtwf=-1. Will skip output of the 1st-order WFK file.
 dfpt_looppert : ek2=    1.5392950406E+01
          f-sum rule ratio=    1.2228596404E+00
 prteigrs : about to open file /scratch/users/j/a/jabreu/flow_simple_4atoms/flow/w171/t1/tmpdata/tmp_1WF1_EIG
 Expectation of eigenvalue derivatives (hartree) for nkpt=   2  k points:
  (in case of degenerate eigenvalues, averaged derivative)
 kpt#   1, nband= 18, wtk=  0.50000, kpt=  0.0111  0.0111  0.5000 (reduced coord)
  -0.00000   -0.00000    0.00000   -0.00000   -0.00000    0.00000   -0.00000    0.00000
   0.00000    0.00000   -0.00000    0.00000    0.00000   -0.00000   -0.00000   -0.00000
   0.00010    0.00001
 prteigrs : prtvol=0 or 1, do not print more k-points.

 Eight components of 2nd-order total energy (hartree) are
 1,2,3: 0th-order hamiltonian combined with 1st-order wavefunctions
     kin0=   2.98131768E+00 eigvalue=   7.01703551E-03  local=  -1.82259898E+00
 4,5,6: 1st-order hamiltonian combined with 1st and 0th-order wfs
     kin1=  -1.88234178E+01  Hartree=   0.00000000E+00     xc=   0.00000000E+00
 7,8,9: eventually, occupation + non-local contributions
    edocc=   7.71265103E+00     enl0=   7.78580770E-01   enl1=  -4.90517266E-01
 1-9 gives the relaxation energy (to be shifted if some occ is /=2.0)
   erelax=  -9.65696753E+00
  No Ewald or frozen-wf contrib.: the relaxation energy is the total one
 2DEtotal=   -0.9656967533E+01 Ha. Also 2DEtotal=   -0.262779450452E+03 eV
    (  non-var. 2DEtotal :   -9.6569675326E+00 Ha)

 CALCULATION OF EFFECTIVE MASSES
 NOTE : Additional infos (eff. mass eigenvalues, eigenvectors and, if degenerate, average mass) are available in stdout.

--- !WARNING
src_file: m_efmas.F90
src_line: 0
message: |

    Band(s)     9,
    are not band extrema, but saddle points;
    the transport equivalent formalism breaks down in these conditions.
    The associated tensor(s) will therefore not be printed.
...

 K-point ( 0.011, 0.011, 0.500) | band =     9
 Effective mass tensor:
     *** SADDLE POINT: TRANSPORT EQV. EFF. MASS NOT DEFINED (see WARNING above) ***
 Angular average effective mass 1/(<1/m>)=  -1.3246263248
 Angular average effective mass for Frohlich model (<m**0.5>)**2=  -2.2923813683
 Effective masses along directions: (cart. coord. / red. coord. -> eff. mass)
    1:   1.000000  0.000000  0.000000 /   0.894427 -0.447214  0.000000 ->   8.0290228212
    2:   0.000000  1.000000  0.000000 /   0.000000  1.000000  0.000000 ->  -1.0845558227
    3:   0.000000  0.000000  1.000000 /   0.000000  0.000000  1.000000 ->  -0.6815232532
    4:   0.577350  0.577350  0.577350 /   0.628609  0.230087  0.742907 ->  -0.7254194546
    5:   0.000000  0.707107  0.707107 /   0.000000  0.591076  0.806616 ->  -0.8657388179
    6:   0.707107  0.000000  0.707107 /   0.614676 -0.307338  0.726441 ->  -1.3514217205
    7:   0.707107  0.707107  0.000000 /   0.939071  0.343724  0.000000 ->  -0.7662132012

 K-point ( 0.500, 0.000, 0.132) | band =    10
 Effective mass tensor:
              0.6966199020              0.3160684036             -0.5517202091
              0.3160684036              0.3316555284             -0.3185360538
             -0.5517202091             -0.3185360538              1.1954528950
 Effective mass tensor eigenvalues:
              0.1491733549              0.3808630834              1.6936918870
 Angular average effective mass 1/(<1/m>)=   0.3024299745
 Angular average effective mass for Frohlich model (<m**0.5>)**2=   0.3787894247
 Effective masses along directions: (cart. coord. / red. coord. -> eff. mass)
    1:   1.000000  0.000000  0.000000 /   0.894427 -0.447214  0.000000 ->   0.3261766613
    2:   0.000000  1.000000  0.000000 /   0.000000  1.000000  0.000000 ->   0.1821156538
    3:   0.000000  0.000000  1.000000 /   0.000000  0.000000  1.000000 ->   0.7337768075
    4:   0.577350  0.577350  0.577350 /   0.628609  0.230087  0.742907 ->   0.3564088324
    5:   0.000000  0.707107  0.707107 /   0.000000  0.591076  0.806616 ->   0.2550551665
    6:   0.707107  0.000000  0.707107 /   0.614676 -0.307338  0.726441 ->   0.3257741481
    7:   0.707107  0.707107  0.000000 /   0.939071  0.343724  0.000000 ->   0.4591064604

 END OF EFFECTIVE MASSES SECTION

 ---- first-order wavefunction calculations are completed ----

 Total localisation tensor (bohr^2) in cartesian coordinates
  WARNING : still subject to testing - especially symmetries.
      direction              matrix element
   alpha     beta       real part   imaginary part
     1        1      13.2493256788    0.0000000000
     1        2      -5.4499397433    0.0000000000
     1        3       0.0000000000    0.0000000000
     2        1      -5.4499397433    0.0000000000
     2        2       9.4395725336    0.0000000000
     2        3       0.0000000000    0.0000000000
     3        1       0.0000000000    0.0000000000
     3        2       0.0000000000    0.0000000000
     3        3       3.7710014492    0.0000000000

 respfn : d/dk was computed, but no 2DTE, so no DDB output.

== END DATASET(S) ==============================================================

 -outvars: echo values of variables after computation  --------
            acell      1.0000000000E+00  1.0000000000E+00  1.0000000000E+00 Bohr
              amu      1.37327000E+02  2.69815390E+01  2.80855000E+01
                       1.00794000E+00
             ecut      3.90000000E+01 Hartree
           etotal     -9.6569675326E+00
            fcart      0.0000000000E+00  0.0000000000E+00  0.0000000000E+00
                       0.0000000000E+00  0.0000000000E+00  0.0000000000E+00
                       0.0000000000E+00  0.0000000000E+00  0.0000000000E+00
                       0.0000000000E+00  0.0000000000E+00  0.0000000000E+00
-          fftalg         512
           irdden           1
           irdwfk           1
              ixc     -116133
              kpt      1.11111111E-02  1.11111111E-02  5.00000000E-01
                       5.00000000E-01  0.00000000E+00  1.31578947E-01
           kptopt           0
P           mkmem           2
P          mkqmem           2
P          mk1mem           2
            natom           4
            nband          18
           nbdbuf           4
            ngfft          48      48      60
             nkpt           2
            nstep         100
             nsym           6
           ntypat           4
              occ      2.000000  2.000000  2.000000  2.000000  2.000000  2.000000
                       2.000000  2.000000  2.000000  0.000000  0.000000  0.000000
                       0.000000  0.000000  0.000000  0.000000  0.000000  0.000000
        optdriver           1
            prtwf          -1
            rfdir           1       1       1
           rfelfd           2
            rprim      8.1304751818E+00  0.0000000000E+00  0.0000000000E+00
                      -4.0652375909E+00  7.0411980522E+00  0.0000000000E+00
                       0.0000000000E+00  0.0000000000E+00  9.6088227823E+00
          spgroup         156
           strten      0.0000000000E+00  0.0000000000E+00  0.0000000000E+00
                       0.0000000000E+00  0.0000000000E+00  0.0000000000E+00
           symrel      1  0  0   0  1  0   0  0  1      -1  0  0   1  1  0   0  0  1
                       0  1  0  -1 -1  0   0  0  1       0 -1  0  -1  0  0   0  0  1
                      -1 -1  0   1  0  0   0  0  1       1  1  0   0 -1  0   0  0  1
           tolwfr      1.00000000E-20
            typat      1  2  3  4
           useylm           1
              wtk        0.50000    0.50000
           xangst      0.0000000000E+00  0.0000000000E+00  5.0612326174E+00
                       2.1512310806E+00  1.2420138435E+00  2.6992603335E+00
                       0.0000000000E+00  2.4840276869E+00  2.3205415778E+00
                       2.1512310806E+00  1.2420138435E+00  4.4466618892E+00
            xcart      0.0000000000E+00  0.0000000000E+00  9.5643435416E+00
                       4.0652375909E+00  2.3470660174E+00  5.1008627916E+00
                       0.0000000000E+00  4.6941320348E+00  4.3851880620E+00
                       4.0652375909E+00  2.3470660174E+00  8.4029731761E+00
             xred      0.0000000000E+00  0.0000000000E+00  9.9537100000E-01
                       6.6666666667E-01  3.3333333333E-01  5.3085200000E-01
                       3.3333333333E-01  6.6666666667E-01  4.5637100000E-01
                       6.6666666667E-01  3.3333333333E-01  8.7450600000E-01
            znucl       56.00000   13.00000   14.00000    1.00000

- Timing analysis has been suppressed with timopt=0

 Suggested references for the acknowledgment of ABINIT usage.

 Calculation completed.
.Delivered  15 WARNINGs and   9 COMMENTs to log file.