.Version 9.7.2 of ABINIT

 ABINIT is a project of the Universite Catholique de Louvain,
 Corning Inc. and other collaborators, see ~abinit/doc/developers/contributors.txt .
 acknowledgments of the ABINIT effort.

.Starting date : Wed  1 Dec 2021.
- ( at 21h57 )

- input  file    -> /scratch/users/j/a/jabreu/flow_simple_remain_atoms/flow/w249/t1/run.abi
- output file    -> /scratch/users/j/a/jabreu/flow_simple_remain_atoms/flow/w249/t1/run.abo
- root for input  files -> /scratch/users/j/a/jabreu/flow_simple_remain_atoms/flow/w249/t1/indata/in
- root for output files -> /scratch/users/j/a/jabreu/flow_simple_remain_atoms/flow/w249/t1/outdata/out

 Symmetries : space group R-3 m (#166); Bravais hR (rhombohedral)
     intxc =       0      iscf =       7    lmnmax =      32     lnmax =       8
     mgfft =     108  mpssoang =       4    mqgrid =    3001     natom =       4
  nloc_mem =       1    nspden =       1   nspinor =       1    nsppol =       1
      nsym =      12    n1xccc =    2501    ntypat =       3    occopt =       1
   xclevel =       2
-    mband =          25        mffmem =           1         mkmem =           2
-   mkqmem =           2        mk1mem =           2           mpw =       15240
      nfft =     1259712          nkpt =           2
  Rough estimation (10% accuracy) of disk space for files :

------------- Echo of variables that govern the present computation ------------
-
- outvars: echo of selected default values
-   iomode0 =  0 , fftalg0 =512 , wfoptalg0 =  0
-
- outvars: echo of global parameters not present in the input file
-  max_nthreads =    0
-
 -outvars: echo values of preprocessed input variables --------
            acell      1.0000000000E+00  1.0000000000E+00  1.0000000000E+00 Bohr
              amu      1.32905430E+02  1.38905500E+02  3.20660000E+01
             ecut      5.20000000E+01 Hartree
-          fftalg         512
           irdden           1
           irdwfk           1
           istwfk        1    1
              ixc     -116133
              kpt      0.00000000E+00  0.00000000E+00  0.00000000E+00
                       5.00000000E-01  5.00000000E-01  0.00000000E+00
           kptopt           0
P           mkmem           2
P          mkqmem           2
P          mk1mem           2
            natom           4
            nband          25
           nbdbuf           4
            ngfft         108     108     108
             nkpt           2
            nstep        2000
             nsym          12
           ntypat           3
              occ      2.000000  2.000000  2.000000  2.000000  2.000000  2.000000
                       2.000000  2.000000  2.000000  2.000000  2.000000  2.000000
                       2.000000  2.000000  2.000000  2.000000  0.000000  0.000000
                       0.000000  0.000000  0.000000  0.000000  0.000000  0.000000
                       0.000000
        optdriver           1
            prtwf          -1
            rfdir           1       1       1
           rfelfd           2
            rprim      7.8194870944E+00  0.0000000000E+00  1.3595467884E+01
                       3.6308844533E+00  6.9253921554E+00  1.3595467884E+01
                       0.0000000000E+00  0.0000000000E+00  1.5683785430E+01
          spgroup         166
           symrel      1  0  0   0  1  0   0  0  1      -1  0  0   0 -1  0   0  0 -1
                       0  1  0   1  0  0   0  0  1       0 -1  0  -1  0  0   0  0 -1
                       0  0  1   1  0  0   0  1  0       0  0 -1  -1  0  0   0 -1  0
                       1  0  0   0  0  1   0  1  0      -1  0  0   0  0 -1   0 -1  0
                       0  1  0   0  0  1   1  0  0       0 -1  0   0  0 -1  -1  0  0
                       0  0  1   0  1  0   1  0  0       0  0 -1   0 -1  0  -1  0  0
           tolwfr      1.00000000E-20
            typat      1  2  3  3
           useylm           1
              wtk        0.50000    0.50000
           xangst      0.0000000000E+00  0.0000000000E+00  0.0000000000E+00
                       3.0296378265E+00  1.8323798446E+00  1.1344162641E+01
                       1.3905916438E+00  8.4105501915E-01  5.2069252756E+00
                       4.6686840091E+00  2.8237046700E+00  1.7481400007E+01
            xcart      0.0000000000E+00  0.0000000000E+00  0.0000000000E+00
                       5.7251857739E+00  3.4626960777E+00  2.1437360599E+01
                       2.6278373695E+00  1.5893636489E+00  9.8396627653E+00
                       8.8225341782E+00  5.3360285065E+00  3.3035058432E+01
             xred      0.0000000000E+00  0.0000000000E+00  0.0000000000E+00
                       5.0000000000E-01  5.0000000000E-01  5.0000000000E-01
                       2.2949800000E-01  2.2949800000E-01  2.2949800000E-01
                       7.7050200000E-01  7.7050200000E-01  7.7050200000E-01
            znucl       55.00000   57.00000   16.00000

 chkinp: Checking input parameters for consistency.

== DATASET  1 ==================================================================
-   mpi_nproc: 1, omp_nthreads: -1 (-1 if OMP is not activated)

--- !DatasetInfo
iteration_state: {dtset: 1, }
dimensions: {natom: 4, nkpt: 2, mband: 25, nsppol: 1, nspinor: 1, nspden: 1, mpw: 15240, }
cutoff_energies: {ecut:  52.0, pawecutdg:  -1.0, }
electrons: {nelect:   3.20000000E+01, charge:   0.00000000E+00, occopt:   1.00000000E+00, tsmear:   1.00000000E-02, }
meta: {optdriver: 1, rfelfd: 2, }
...

 Real(R)+Recip(G) space primitive vectors, cartesian coordinates (Bohr,Bohr^-1):
 R(1)=  7.8194871  0.0000000 13.5954679  G(1)=  0.1278856 -0.0670486  0.0000000
 R(2)=  3.6308845  6.9253922 13.5954679  G(2)=  0.0000000  0.1443962  0.0000000
 R(3)=  0.0000000  0.0000000 15.6837854  G(3)= -0.1108575 -0.0670486  0.0637601
 Unit cell volume ucvol=  8.4932426E+02 bohr^3
 Angles (23,13,12)=  2.99055305E+01  2.99055305E+01  2.99055305E+01 degrees

 getcut: wavevector=  0.0000  0.0000  0.0000  ngfft= 108 108 108
         ecut(hartree)=     52.000   => boxcut(ratio)=   2.12139

--- Pseudopotential description ------------------------------------------------
- pspini: atom type   1  psp file is /scratch/users/j/a/jabreu/pseudos/PBEsol/Cs.psp8
- pspatm: opening atomic psp file    /scratch/users/j/a/jabreu/pseudos/PBEsol/Cs.psp8
- Cs    ONCVPSP-3.3.0  r_core=   2.27353   1.85623   2.01788   1.90105
- 55.00000   9.00000    180112                znucl, zion, pspdat
    8 -116133    3    4       600   0.00000   pspcod,pspxc,lmax,lloc,mmax,r2well
    5.99000000000000    5.00000000000000    0.00000000000000   rchrg,fchrg,qchrg
     nproj     2     2     2     2
     extension_switch     1
  pspatm : epsatm=   22.12462445
         --- l  ekb(1:nproj) -->
             0    6.214110    0.767882
             1    6.311966    0.793598
             2    3.769790    0.913105
             3   -9.247129   -2.432478
 pspatm: atomic psp has been read  and splines computed

- pspini: atom type   2  psp file is /scratch/users/j/a/jabreu/pseudos/PBEsol/La.psp8
- pspatm: opening atomic psp file    /scratch/users/j/a/jabreu/pseudos/PBEsol/La.psp8
- La    ONCVPSP-3.3.0  r_core=   2.11664   1.60878   1.85636   1.66739
- 57.00000  11.00000    180112                znucl, zion, pspdat
    8 -116133    3    4       600   0.00000   pspcod,pspxc,lmax,lloc,mmax,r2well
    5.99000000000000    5.00000000000000    0.00000000000000   rchrg,fchrg,qchrg
     nproj     2     2     2     2
     extension_switch     1
  pspatm : epsatm=   29.08531775
         --- l  ekb(1:nproj) -->
             0    6.695600    0.639047
             1    6.383649    1.151322
             2    3.612966    0.847811
             3  -13.718437   -4.858923
 pspatm: atomic psp has been read  and splines computed

- pspini: atom type   3  psp file is /scratch/users/j/a/jabreu/pseudos/PBEsol/S.psp8
- pspatm: opening atomic psp file    /scratch/users/j/a/jabreu/pseudos/PBEsol/S.psp8
- S     ONCVPSP-3.3.0  r_core=   1.45376   1.45376   1.61851
- 16.00000   6.00000    180112                znucl, zion, pspdat
    8 -116133    2    4       600   0.00000   pspcod,pspxc,lmax,lloc,mmax,r2well
    5.99000000000000    6.00000000000000    0.00000000000000   rchrg,fchrg,qchrg
     nproj     2     2     2
     extension_switch     1
  pspatm : epsatm=    8.71840985
         --- l  ekb(1:nproj) -->
             0    6.834532    0.579453
             1    3.282851    0.896984
             2   -3.496974   -0.974265
 pspatm: atomic psp has been read  and splines computed

   2.19669638E+03                                ecore*ucvol(ha*bohr**3)

 ==>  initialize data related to q vector <==

 The list of irreducible perturbations for this q vector is:
    1)    idir= 1    ipert=   5
    2)    idir= 2    ipert=   5
    3)    idir= 3    ipert=   5

 Perturbation wavevector (in red.coord.)   0.000000  0.000000  0.000000
 Perturbation : derivative vs k along direction   1

 dfpt_looppert : COMMENT -
  In a d/dk calculation, iscf is set to -3 automatically.
 The set of symmetries contains only one element for this perturbation.
 symkpt : not enough symmetry to change the number of k points.

 Initialisation of the first-order wave-functions :
  ireadwf=   0

--- !BeginCycle
iteration_state: {dtset: 1, }
solver: {iscf: 7, nstep: 2000, nline: 4, wfoptalg: 0, }
tolerances: {tolwfr: 1.00E-20, }
...

     iter   2DEtotal(Ha)        deltaE(Ha) residm    vres2
-ETOT  1  -31.347307464845     -3.135E+01 9.257E-02 0.000E+00
 ETOT  2  -31.402022686866     -5.472E-02 6.085E-02 0.000E+00
 ETOT  3  -31.405748275974     -3.726E-03 1.806E-02 0.000E+00
 ETOT  4  -31.406646025241     -8.977E-04 2.480E-02 0.000E+00
 ETOT  5  -31.406901420959     -2.554E-04 1.363E-02 0.000E+00
 ETOT  6  -31.406976340991     -7.492E-05 1.568E-02 0.000E+00
 ETOT  7  -31.406998580549     -2.224E-05 9.676E-03 0.000E+00
 ETOT  8  -31.407005223500     -6.643E-06 1.204E-02 0.000E+00
 ETOT  9  -31.407007220118     -1.997E-06 6.666E-03 0.000E+00
 ETOT 10  -31.407007823251     -6.031E-07 8.771E-03 0.000E+00
 ETOT 11  -31.407008006474     -1.832E-07 4.639E-03 0.000E+00
 ETOT 12  -31.407008062414     -5.594E-08 6.127E-03 0.000E+00
 ETOT 13  -31.407008079586     -1.717E-08 3.210E-03 0.000E+00
 ETOT 14  -31.407008084884     -5.298E-09 4.453E-03 0.000E+00
 ETOT 15  -31.407008086527     -1.643E-09 2.296E-03 0.000E+00
 ETOT 16  -31.407008087039     -5.120E-10 3.239E-03 0.000E+00
 ETOT 17  -31.407008087199     -1.605E-10 1.644E-03 0.000E+00
 ETOT 18  -31.407008087250     -5.073E-11 2.353E-03 0.000E+00
 ETOT 19  -31.407008087266     -1.628E-11 1.180E-03 0.000E+00
 ETOT 20  -31.407008087272     -5.333E-12 1.707E-03 0.000E+00
 ETOT 21  -31.407008087273     -1.727E-12 8.482E-04 0.000E+00
 ETOT 22  -31.407008087274     -5.578E-13 1.238E-03 0.000E+00
 ETOT 23  -31.407008087274     -1.705E-13 6.104E-04 0.000E+00
 ETOT 24  -31.407008087274     -9.237E-14 8.965E-04 0.000E+00
 ETOT 25  -31.407008087274     -3.553E-15 4.396E-04 0.000E+00
 ETOT 26  -31.407008087274     -1.421E-14 6.487E-04 0.000E+00
 ETOT 27  -31.407008087274     -7.105E-15 3.168E-04 0.000E+00
 ETOT 28  -31.407008087274     -7.105E-15 4.690E-04 0.000E+00
 ETOT 29  -31.407008087274      1.066E-14 2.284E-04 0.000E+00
[...]
 Perturbation : derivative vs k along direction   2
 The set of symmetries contains only one element for this perturbation.
 symkpt : not enough symmetry to change the number of k points.

[...]

 Perturbation wavevector (in red.coord.)   0.000000  0.000000  0.000000
 Perturbation : derivative vs k along direction   3
 The set of symmetries contains only one element for this perturbation.
 symkpt : not enough symmetry to change the number of k points.

 Initialisation of the first-order wave-functions :
  ireadwf=   0

--- !BeginCycle
iteration_state: {dtset: 1, }
solver: {iscf: 7, nstep: 2000, nline: 4, wfoptalg: 0, }
tolerances: {tolwfr: 1.00E-20, }
...

     iter   2DEtotal(Ha)        deltaE(Ha) residm    vres2
-ETOT  1  -29.807165044322     -2.981E+01 9.194E-02 0.000E+00
 ETOT  2  -29.857546330026     -5.038E-02 5.912E-02 0.000E+00
 ETOT  3  -29.861398128011     -3.852E-03 1.789E-02 0.000E+00
 ETOT  4  -29.862304474124     -9.063E-04 2.357E-02 0.000E+00
 ETOT  5  -29.862553881340     -2.494E-04 1.349E-02 0.000E+00
 ETOT  6  -29.862625110643     -7.123E-05 1.572E-02 0.000E+00
 ETOT  7  -29.862645825886     -2.072E-05 9.582E-03 0.000E+00
 ETOT  8  -29.862651909723     -6.084E-06 1.207E-02 0.000E+00
 ETOT  9  -29.862653712683     -1.803E-06 6.600E-03 0.000E+00
 ETOT 10  -29.862654250922     -5.382E-07 8.787E-03 0.000E+00
 ETOT 11  -29.862654412867     -1.619E-07 4.591E-03 0.000E+00
 ETOT 12  -29.862654461937     -4.907E-08 6.137E-03 0.000E+00
 ETOT 13  -29.862654476915     -1.498E-08 3.175E-03 0.000E+00
 ETOT 14  -29.862654481519     -4.603E-09 4.459E-03 0.000E+00
 ETOT 15  -29.862654482943     -1.424E-09 2.270E-03 0.000E+00
 ETOT 16  -29.862654483386     -4.434E-10 3.243E-03 0.000E+00
 ETOT 17  -29.862654483526     -1.393E-10 1.626E-03 0.000E+00
 ETOT 18  -29.862654483570     -4.409E-11 2.355E-03 0.000E+00
 ETOT 19  -29.862654483584     -1.427E-11 1.166E-03 0.000E+00
 ETOT 20  -29.862654483589     -4.622E-12 1.709E-03 0.000E+00
 ETOT 21  -29.862654483590     -1.563E-12 8.382E-04 0.000E+00
 ETOT 22  -29.862654483591     -4.761E-13 1.239E-03 0.000E+00
 ETOT 23  -29.862654483591     -2.274E-13 6.031E-04 0.000E+00
 ETOT 24  -29.862654483591     -2.487E-14 8.969E-04 0.000E+00
 ETOT 25  -29.862654483591     -1.066E-14 4.343E-04 0.000E+00
 ETOT 26  -29.862654483591     -2.487E-14 6.488E-04 0.000E+00
 ETOT 27  -29.862654483591     -7.105E-15 3.129E-04 0.000E+00
 ETOT 28  -29.862654483591     -1.421E-14 4.690E-04 0.000E+00
 ETOT 29  -29.862654483591      3.553E-15 2.256E-04 0.000E+00
 ETOT 30  -29.862654483591     -7.105E-15 3.388E-04 0.000E+00
 ETOT 31  -29.862654483591      1.421E-14 1.627E-04 0.000E+00
 ETOT 32  -29.862654483591     -2.487E-14 2.447E-04 0.000E+00
 ETOT 33  -29.862654483591      4.619E-14 1.173E-04 0.000E+00
 ETOT 34  -29.862654483591     -2.487E-14 1.767E-04 0.000E+00
 ETOT 35  -29.862654483591      7.105E-15 8.467E-05 0.000E+00
 ETOT 36  -29.862654483591      1.066E-14 1.277E-04 0.000E+00
 ETOT 37  -29.862654483591      1.066E-14 6.112E-05 0.000E+00
 ETOT 38  -29.862654483591     -2.132E-14 9.221E-05 0.000E+00
 ETOT 39  -29.862654483591      1.421E-14 4.413E-05 0.000E+00
 ETOT 40  -29.862654483591      0.000E+00 6.663E-05 0.000E+00
 ETOT 41  -29.862654483591      7.105E-15 3.187E-05 0.000E+00
 ETOT 42  -29.862654483591     -1.421E-14 4.816E-05 0.000E+00
 ETOT 43  -29.862654483591      1.066E-14 2.302E-05 0.000E+00
 ETOT 44  -29.862654483591      0.000E+00 3.481E-05 0.000E+00
 ETOT 45  -29.862654483591      0.000E+00 1.663E-05 0.000E+00
 ETOT 46  -29.862654483591     -3.553E-15 2.517E-05 0.000E+00
 ETOT 47  -29.862654483591      1.066E-14 1.202E-05 0.000E+00
 ETOT 48  -29.862654483591     -1.066E-14 1.820E-05 0.000E+00
 ETOT 49  -29.862654483591      1.066E-14 8.688E-06 0.000E+00
 ETOT 50  -29.862654483591      0.000E+00 1.317E-05 0.000E+00
 ETOT 51  -29.862654483591     -7.105E-15 6.281E-06 0.000E+00
 ETOT 52  -29.862654483591      1.066E-14 9.524E-06 0.000E+00
 ETOT 53  -29.862654483591     -3.553E-15 4.541E-06 0.000E+00
 ETOT 54  -29.862654483591     -1.066E-14 6.890E-06 0.000E+00
 ETOT 55  -29.862654483591     -3.553E-15 3.283E-06 0.000E+00
 ETOT 56  -29.862654483591      0.000E+00 4.985E-06 0.000E+00
 ETOT 57  -29.862654483591      0.000E+00 2.374E-06 0.000E+00
 ETOT 58  -29.862654483591      1.421E-14 3.606E-06 0.000E+00
 ETOT 59  -29.862654483591      0.000E+00 1.717E-06 0.000E+00
 ETOT 60  -29.862654483591     -7.105E-15 2.609E-06 0.000E+00
 ETOT 61  -29.862654483591     -3.553E-15 1.242E-06 0.000E+00
[...]
 ETOT  249  -29.862654483591      0.000E+00 7.979E-20 0.000E+00
 ETOT  250  -29.862654483591      0.000E+00 1.222E-19 0.000E+00
 ETOT  251  -29.862654483591     -3.553E-15 5.777E-20 0.000E+00
 ETOT  252  -29.862654483591      3.553E-15 8.848E-20 0.000E+00
 ETOT  253  -29.862654483591      0.000E+00 4.183E-20 0.000E+00
 ETOT  254  -29.862654483591     -7.105E-15 6.405E-20 0.000E+00
 ETOT  255  -29.862654483591      3.553E-15 3.029E-20 0.000E+00
 ETOT  256  -29.862654483591      0.000E+00 4.638E-20 0.000E+00
 ETOT  257  -29.862654483591     -3.553E-15 2.193E-20 0.000E+00
 ETOT  258  -29.862654483591      7.105E-15 3.357E-20 0.000E+00
 ETOT  259  -29.862654483591     -3.553E-15 1.588E-20 0.000E+00
 ETOT  260  -29.862654483591      0.000E+00 2.432E-20 0.000E+00
 ETOT  261  -29.862654483591     -7.105E-15 1.150E-20 0.000E+00
 ETOT  262  -29.862654483591     -3.553E-15 1.760E-20 0.000E+00
 ETOT  263  -29.862654483591      0.000E+00 9.772E-21 0.000E+00

 At SCF step  263   max residual=  9.77E-21 < tolwfr=  1.00E-20 =>converged.

 ----iterations are completed or convergence reached----

 dfpt_looppert: DFPT cycle converged with prtwf=-1. Will skip output of the 1st-order WFK file.
 dfpt_looppert : ek2=    5.2680631136E+01
          f-sum rule ratio=    1.0808819905E+00
 prteigrs : about to open file /scratch/users/j/a/jabreu/flow_simple_remain_atoms/flow/w249/t1/tmpdata/tmp_1WF1_EIG
 Expectation of eigenvalue derivatives (hartree) for nkpt=   2  k points:
  (in case of degenerate eigenvalues, averaged derivative)
 kpt#   1, nband= 25, wtk=  0.50000, kpt=  0.0000  0.0000  0.0000 (reduced coord)
  -0.00000   -0.00000   -0.00000    0.00000    0.00000   -0.00000   -0.00000   -0.00000
   0.00000    0.00000   -0.00000   -0.00000   -0.00000   -0.00000    0.00000    0.00000
   0.00000    0.00000    0.00000    0.00000   -0.00000   -0.00000   -0.00000    0.00000
  -0.00001
 prteigrs : prtvol=0 or 1, do not print more k-points.

 Eight components of 2nd-order total energy (hartree) are
 1,2,3: 0th-order hamiltonian combined with 1st-order wavefunctions
     kin0=   5.47059865E+01 eigvalue=  -8.97907866E-01  local=  -3.59386879E+01
 4,5,6: 1st-order hamiltonian combined with 1st and 0th-order wfs
     kin1=  -5.69415454E+01  Hartree=   0.00000000E+00     xc=   0.00000000E+00
 7,8,9: eventually, occupation + non-local contributions
    edocc=   7.06083022E+00     enl0=   4.93243360E+00   enl1=  -2.78376352E+00
 1-9 gives the relaxation energy (to be shifted if some occ is /=2.0)
   erelax=  -2.98626545E+01
  No Ewald or frozen-wf contrib.: the relaxation energy is the total one
 2DEtotal=   -0.2986265448E+02 Ha. Also 2DEtotal=   -0.812604154232E+03 eV
    (  non-var. 2DEtotal :   -2.9862654483E+01 Ha)

 CALCULATION OF EFFECTIVE MASSES
 NOTE : Additional infos (eff. mass eigenvalues, eigenvectors and, if degenerate, average mass) are available in stdout.

 COMMENTS:
 - At k-point ( 0.000, 0.000, 0.000), bands    15 through    16
   are DEGENERATE (effective mass tensor is therefore not defined).
   See Section IIIB Eqs. (67)-(70) and Appendix E of PRB 93 205147 (2016).
 - Angular average effective mass for Frohlich model is to be averaged over degenerate bands. See later.
 - Associated theta integrals calculated with ntheta=   1000 points.

 K-point ( 0.000, 0.000, 0.000) | band =    15
 Transport equivalent effective mass tensor:
             -0.5173931353             -0.0829784805             -0.5137102582
             -0.0829784805             -0.4303868398             -0.3107032950
             -0.5137102582             -0.3107032950             -2.3037340692
 Transport equivalent effective mass tensor eigenvalues:
             -2.4911155315             -0.3801998290             -0.3801986839
 Angular average effective mass 1/(<1/m>)=  -0.4806851527
 Angular average effective mass for Frohlich model (<m**0.5>)**2=  -0.5563737477
 Effective masses along directions: (cart. coord. / red. coord. -> eff. mass)
    1:   1.000000  0.000000  0.000000 /   0.906991  0.421150  0.000000 ->  -0.3638006446
    2:   0.000000  1.000000  0.000000 /   0.000000  1.000000  0.000000 ->  -0.3445412179
    3:   0.000000  0.000000  1.000000 /   0.547931  0.547931  0.632095 ->  -1.3071283243
    4:   0.577350  0.577350  0.577350 /   0.596730  0.672991  0.437031 ->  -0.7821605977
    5:   0.000000  0.707107  0.707107 /   0.465794  0.703065  0.537342 ->  -0.6503157776
    6:   0.707107  0.000000  0.707107 /   0.676751  0.544384  0.495636 ->  -0.8010085154
    7:   0.707107  0.707107  0.000000 /   0.595229  0.803556  0.000000 ->  -0.3860418614

 K-point ( 0.000, 0.000, 0.000) | band =    16
 Transport equivalent effective mass tensor:
             -2.5866698939             -0.1375315389             -0.8514684648
             -0.1375315389             -2.4424512074             -0.5149809329
             -0.8514684648             -0.5149809329             -5.5475109005
 Transport equivalent effective mass tensor eigenvalues:
             -5.8580908769             -2.3592730602             -2.3592680647
 Angular average effective mass 1/(<1/m>)=  -1.7115651972
 Angular average effective mass for Frohlich model (<m**0.5>)**2=  -1.8263469275
 Effective masses along directions: (cart. coord. / red. coord. -> eff. mass)
    1:   1.000000  0.000000  0.000000 /   0.906991  0.421150  0.000000 ->  -1.5187074116
    2:   0.000000  1.000000  0.000000 /   0.000000  1.000000  0.000000 ->  -1.6158559954
    3:   0.000000  0.000000  1.000000 /   0.547931  0.547931  0.632095 ->  -3.3294823972
    4:   0.577350  0.577350  0.577350 /   0.596730  0.672991  0.437031 ->  -1.6861209335
    5:   0.000000  0.707107  0.707107 /   0.465794  0.703065  0.537342 ->  -2.8711131360
    6:   0.707107  0.000000  0.707107 /   0.676751  0.544384  0.495636 ->  -3.1805071908
    7:   0.707107  0.707107  0.000000 /   0.595229  0.803556  0.000000 ->  -1.3070672042

 Angular average effective mass for Frohlich model, averaged over degenerate bands.
 Value of     (<<m**0.5>>)**2 =     1.099697E+00
 Absolute Value of <<m**0.5>> =     1.048664E+00

 K-point ( 0.500, 0.500, 0.000) | band =    17
 Effective mass tensor:
              0.7530652533              0.2127599452             -0.4350225271
              0.2127599452              0.5299712366             -0.2631095058
             -0.4350225271             -0.2631095058              1.0769663556
 Effective mass tensor eigenvalues:
              0.4012901672              0.4616702118              1.4970424666
 Angular average effective mass 1/(<1/m>)=   0.5632750893
 Angular average effective mass for Frohlich model (<m**0.5>)**2=   0.6095914633
 Effective masses along directions: (cart. coord. / red. coord. -> eff. mass)
    1:   1.000000  0.000000  0.000000 /   0.906991  0.421150  0.000000 ->   0.5529980635
    2:   0.000000  1.000000  0.000000 /   0.000000  1.000000  0.000000 ->   0.4460533506
    3:   0.000000  0.000000  1.000000 /   0.547931  0.547931  0.632095 ->   0.7838307853
    4:   0.577350  0.577350  0.577350 /   0.596730  0.672991  0.437031 ->   0.4601738686
    5:   0.000000  0.707107  0.707107 /   0.465794  0.703065  0.537342 ->   0.4673936524
    6:   0.707107  0.000000  0.707107 /   0.676751  0.544384  0.495636 ->   0.4605148434
    7:   0.707107  0.707107  0.000000 /   0.595229  0.803556  0.000000 ->   0.6204906126

 END OF EFFECTIVE MASSES SECTION

 ---- first-order wavefunction calculations are completed ----

 Total localisation tensor (bohr^2) in cartesian coordinates
  WARNING : still subject to testing - especially symmetries.
      direction              matrix element
   alpha     beta       real part   imaginary part
     1        1       2.7556939535    0.0000000000
     1        2       0.9322594707    0.0000000000
     1        3       5.7715701237    0.0000000000
     2        1       0.9322594707    0.0000000000
     2        2       1.7781514417    0.0000000000
     2        3       3.4907482892    0.0000000000
     3        1       5.7715701237    0.0000000000
     3        2       3.4907482892    0.0000000000
     3        3      21.7446529374    0.0000000000

 respfn : d/dk was computed, but no 2DTE, so no DDB output.

== END DATASET(S) ==============================================================

 -outvars: echo values of variables after computation  --------
            acell      1.0000000000E+00  1.0000000000E+00  1.0000000000E+00 Bohr
              amu      1.32905430E+02  1.38905500E+02  3.20660000E+01
             ecut      5.20000000E+01 Hartree
           etotal     -2.9862654484E+01
            fcart      0.0000000000E+00  0.0000000000E+00  0.0000000000E+00
                       0.0000000000E+00  0.0000000000E+00  0.0000000000E+00
                       0.0000000000E+00  0.0000000000E+00  0.0000000000E+00
                       0.0000000000E+00  0.0000000000E+00  0.0000000000E+00
-          fftalg         512
           irdden           1
           irdwfk           1
           istwfk        1    1
              ixc     -116133
              kpt      0.00000000E+00  0.00000000E+00  0.00000000E+00
                       5.00000000E-01  5.00000000E-01  0.00000000E+00
           kptopt           0
P           mkmem           2
P          mkqmem           2
P          mk1mem           2
            natom           4
            nband          25
           nbdbuf           4
            ngfft         108     108     108
             nkpt           2
            nstep        2000
             nsym          12
           ntypat           3
              occ      2.000000  2.000000  2.000000  2.000000  2.000000  2.000000
                       2.000000  2.000000  2.000000  2.000000  2.000000  2.000000
                       2.000000  2.000000  2.000000  2.000000  0.000000  0.000000
                       0.000000  0.000000  0.000000  0.000000  0.000000  0.000000
                       0.000000
        optdriver           1
            prtwf          -1
            rfdir           1       1       1
           rfelfd           2
            rprim      7.8194870944E+00  0.0000000000E+00  1.3595467884E+01
                       3.6308844533E+00  6.9253921554E+00  1.3595467884E+01
                       0.0000000000E+00  0.0000000000E+00  1.5683785430E+01
          spgroup         166
           strten      0.0000000000E+00  0.0000000000E+00  0.0000000000E+00
                       0.0000000000E+00  0.0000000000E+00  0.0000000000E+00
           symrel      1  0  0   0  1  0   0  0  1      -1  0  0   0 -1  0   0  0 -1
                       0  1  0   1  0  0   0  0  1       0 -1  0  -1  0  0   0  0 -1
                       0  0  1   1  0  0   0  1  0       0  0 -1  -1  0  0   0 -1  0
                       1  0  0   0  0  1   0  1  0      -1  0  0   0  0 -1   0 -1  0
                       0  1  0   0  0  1   1  0  0       0 -1  0   0  0 -1  -1  0  0
                       0  0  1   0  1  0   1  0  0       0  0 -1   0 -1  0  -1  0  0
           tolwfr      1.00000000E-20
            typat      1  2  3  3
           useylm           1
              wtk        0.50000    0.50000
           xangst      0.0000000000E+00  0.0000000000E+00  0.0000000000E+00
                       3.0296378265E+00  1.8323798446E+00  1.1344162641E+01
                       1.3905916438E+00  8.4105501915E-01  5.2069252756E+00
                       4.6686840091E+00  2.8237046700E+00  1.7481400007E+01
            xcart      0.0000000000E+00  0.0000000000E+00  0.0000000000E+00
                       5.7251857739E+00  3.4626960777E+00  2.1437360599E+01
                       2.6278373695E+00  1.5893636489E+00  9.8396627653E+00
                       8.8225341782E+00  5.3360285065E+00  3.3035058432E+01
             xred      0.0000000000E+00  0.0000000000E+00  0.0000000000E+00
                       5.0000000000E-01  5.0000000000E-01  5.0000000000E-01
                       2.2949800000E-01  2.2949800000E-01  2.2949800000E-01
                       7.7050200000E-01  7.7050200000E-01  7.7050200000E-01
            znucl       55.00000   57.00000   16.00000

- Timing analysis has been suppressed with timopt=0

 Suggested references for the acknowledgment of ABINIT usage.

 Calculation completed.
.Delivered   2 WARNINGs and   5 COMMENTs to log file.