.Version 9.5.2 of ABINIT

 ABINIT is a project of the Universite Catholique de Louvain,
 Corning Inc. and other collaborators, see ~abinit/doc/developers/contributors.txt .
 acknowledgments of the ABINIT effort.

.Starting date : Mon 24 May 2021.
- ( at 20h52 )

- input  file    -> /scratch/users/j/a/jabreu/flow_simple_10atoms/flow/w336/t1/run.abi
- output file    -> /scratch/users/j/a/jabreu/flow_simple_10atoms/flow/w336/t1/run.abo
- root for input  files -> /scratch/users/j/a/jabreu/flow_simple_10atoms/flow/w336/t1/indata/in
- root for output files -> /scratch/users/j/a/jabreu/flow_simple_10atoms/flow/w336/t1/outdata/out

 Symmetries : space group Cm m a (# 67); Bravais oC (1-face-center ortho.)
     intxc =       0      iscf =       7    lmnmax =      32     lnmax =       8
     mgfft =      96  mpssoang =       4    mqgrid =    3690     natom =      10
  nloc_mem =       1    nspden =       1   nspinor =       1    nsppol =       1
      nsym =       8    n1xccc =    2501    ntypat =       4    occopt =       1
   xclevel =       2
-    mband =          69        mffmem =           1         mkmem =           2
-   mkqmem =           2        mk1mem =           2           mpw =       32180
      nfft =      691200          nkpt =           2
  Rough estimation (10% accuracy) of disk space for files :

------------- Echo of variables that govern the present computation ------------
-
- outvars: echo of selected default values
-   iomode0 =  0 , fftalg0 =512 , wfoptalg0 =  0
-
- outvars: echo of global parameters not present in the input file
-  max_nthreads =    0
-
 -outvars: echo values of preprocessed input variables --------
            acell      1.0000000000E+00  1.0000000000E+00  1.0000000000E+00 Bohr
              amu      1.32905430E+02  1.12411000E+02  1.96966540E+02
                       3.20660000E+01
             ecut      5.10000000E+01 Hartree
-          fftalg         512
           irdden           1
           irdwfk           1
           istwfk        1    0
              ixc     -116133
              kpt      0.00000000E+00  0.00000000E+00  5.00000000E-01
                       0.00000000E+00  0.00000000E+00  9.37500000E-02
           kptopt           0
P           mkmem           2
P          mkqmem           2
P          mk1mem           2
            natom          10
            nband          69
           nbdbuf           4
            ngfft          96      96      75
             nkpt           2
            nstep        2000
             nsym           8
           ntypat           4
              occ      2.000000  2.000000  2.000000  2.000000  2.000000  2.000000
                       2.000000  2.000000  2.000000  2.000000  2.000000  2.000000
                       2.000000  2.000000  2.000000  2.000000  2.000000  2.000000
                       2.000000  2.000000  2.000000  2.000000  2.000000  2.000000
                       2.000000  2.000000  2.000000  2.000000  2.000000  2.000000
                       2.000000  2.000000  2.000000  2.000000  2.000000  2.000000
                       2.000000  2.000000  2.000000  2.000000  2.000000  2.000000
                       2.000000  2.000000  2.000000  2.000000  2.000000  2.000000
                       2.000000  2.000000  2.000000  2.000000  2.000000  2.000000
                       2.000000  2.000000  2.000000  2.000000  2.000000  2.000000
                       0.000000  0.000000  0.000000  0.000000  0.000000  0.000000
                       0.000000  0.000000  0.000000
        optdriver           1
            prtwf          -1
            rfdir           1       1       1
           rfelfd           2
            rprim      1.4423031459E+01  0.0000000000E+00  0.0000000000E+00
                      -9.1216059640E+00  1.1172293457E+01  0.0000000000E+00
                       0.0000000000E+00  0.0000000000E+00  1.1476034785E+01
          spgroup          67
           symrel      1  0  0   0  1  0   0  0  1      -1  0  0   0 -1  0   0  0 -1
                       0  1  0   1  0  0   0  0 -1       0 -1  0  -1  0  0   0  0  1
                      -1  0  0   0 -1  0   0  0  1       1  0  0   0  1  0   0  0 -1
                       0 -1  0  -1  0  0   0  0 -1       0  1  0   1  0  0   0  0  1
            tnons      0.0000000  0.0000000  0.0000000     0.0000000  0.0000000  0.0000000
                      -0.0000000 -0.0000000  0.0000000     0.0000000  0.0000000  0.0000000
                       0.5000000  0.5000000  0.0000000     0.5000000  0.5000000  0.0000000
                       0.5000000  0.5000000  0.0000000     0.5000000  0.5000000  0.0000000
           tolwfr      1.00000000E-20
            typat      1  1  2  2  3  3  4  4  4  4
           useylm           1
              wtk        0.50000    0.50000
           xangst     -1.7121246048E+00  4.4340922989E+00  4.6568967903E+00
                       4.5175181495E+00  1.4780307663E+00  1.4159592631E+00
                       7.0134838618E-01  1.4780307663E+00  3.0364280267E+00
                       2.1040451585E+00  4.4340922989E+00  3.0364280267E+00
                       0.0000000000E+00  0.0000000000E+00  0.0000000000E+00
                       1.4026967724E+00  2.9560615326E+00  0.0000000000E+00
                      -3.4621060101E+00  5.2644854561E+00  1.7430432902E+00
                       3.7856800620E-02  3.6036991416E+00  1.7430432902E+00
                       2.7675367441E+00  2.3084239235E+00  4.3298127633E+00
                       6.2674995549E+00  6.4763760905E-01  4.3298127633E+00
            xcart     -3.2354466084E+00  8.3792200928E+00  8.8002595628E+00
                       8.5368721029E+00  2.7930733643E+00  2.6757752227E+00
                       1.3253563736E+00  2.7930733643E+00  5.7380173927E+00
                       3.9760691209E+00  8.3792200928E+00  5.7380173927E+00
                       0.0000000000E+00  0.0000000000E+00  0.0000000000E+00
                       2.6507127473E+00  5.5861467286E+00  0.0000000000E+00
                      -6.5424322022E+00  9.9484357426E+00  3.2938744562E+00
                       7.1538985440E-02  6.8100044430E+00  3.2938744562E+00
                       5.2298865091E+00  4.3622890141E+00  8.1821603293E+00
                       1.1843857697E+01  1.2238577145E+00  8.1821603293E+00
             xred      2.5000000000E-01  7.5000000000E-01  7.6683800000E-01
                       7.5000000000E-01  2.5000000000E-01  2.3316200000E-01
                       2.5000000000E-01  2.5000000000E-01  5.0000000000E-01
                       7.5000000000E-01  7.5000000000E-01  5.0000000000E-01
                       0.0000000000E+00  0.0000000000E+00  0.0000000000E+00
                       5.0000000000E-01  5.0000000000E-01  0.0000000000E+00
                       1.0954400000E-01  8.9045600000E-01  2.8702200000E-01
                       3.9045600000E-01  6.0954400000E-01  2.8702200000E-01
                       6.0954400000E-01  3.9045600000E-01  7.1297800000E-01
                       8.9045600000E-01  1.0954400000E-01  7.1297800000E-01
            znucl       55.00000   48.00000   79.00000   16.00000

 chkinp: Checking input parameters for consistency.

== DATASET  1 ==================================================================
-   mpi_nproc: 1, omp_nthreads: -1 (-1 if OMP is not activated)

--- !DatasetInfo
iteration_state: {dtset: 1, }
dimensions: {natom: 10, nkpt: 2, mband: 69, nsppol: 1, nspinor: 1, nspden: 1, mpw: 32180, }
cutoff_energies: {ecut:  51.0, pawecutdg:  -1.0, }
electrons: {nelect:   1.20000000E+02, charge:   0.00000000E+00, occopt:   1.00000000E+00, tsmear:   1.00000000E-02, }
meta: {optdriver: 1, rfelfd: 2, }
...

 Real(R)+Recip(G) space primitive vectors, cartesian coordinates (Bohr,Bohr^-1):
 R(1)= 14.4230315  0.0000000  0.0000000  G(1)=  0.0693336  0.0566073  0.0000000
 R(2)= -9.1216060 11.1722935  0.0000000  G(2)=  0.0000000  0.0895071  0.0000000
 R(3)=  0.0000000  0.0000000 11.4760348  G(3)=  0.0000000  0.0000000  0.0871381
 Unit cell volume ucvol=  1.8492292E+03 bohr^3
 Angles (23,13,12)=  9.00000000E+01  9.00000000E+01  1.29229879E+02 degrees

 getcut: wavevector=  0.0000  0.0000  0.0000  ngfft=  96  96  75
         ecut(hartree)=     51.000   => boxcut(ratio)=   2.00581

--- Pseudopotential description ------------------------------------------------
- pspini: atom type   1  psp file is /scratch/users/j/a/jabreu/pseudos/PBEsol/Cs.psp8
- pspatm: opening atomic psp file    /scratch/users/j/a/jabreu/pseudos/PBEsol/Cs.psp8
- Cs    ONCVPSP-3.3.0  r_core=   2.27353   1.85623   2.01788   1.90105
- 55.00000   9.00000    180112                znucl, zion, pspdat
    8 -116133    3    4       600   0.00000   pspcod,pspxc,lmax,lloc,mmax,r2well
    5.99000000000000    5.00000000000000    0.00000000000000   rchrg,fchrg,qchrg
     nproj     2     2     2     2
     extension_switch     1
  pspatm : epsatm=   22.12462445
         --- l  ekb(1:nproj) -->
             0    6.214110    0.767882
             1    6.311966    0.793598
             2    3.769790    0.913105
             3   -9.247129   -2.432478
 pspatm: atomic psp has been read  and splines computed

- pspini: atom type   2  psp file is /scratch/users/j/a/jabreu/pseudos/PBEsol/Cd.psp8
- pspatm: opening atomic psp file    /scratch/users/j/a/jabreu/pseudos/PBEsol/Cd.psp8
- Cd    ONCVPSP-3.3.0  r_core=   1.25838   1.30423   1.35174
- 48.00000  20.00000    180112                znucl, zion, pspdat
    8 -116133    2    4       600   0.00000   pspcod,pspxc,lmax,lloc,mmax,r2well
    5.99000000000000    6.00000000000000    0.00000000000000   rchrg,fchrg,qchrg
     nproj     2     2     2
     extension_switch     1
  pspatm : epsatm=   23.26728021
         --- l  ekb(1:nproj) -->
             0   63.701523    3.700425
             1    8.703569    1.290373
             2    0.983656   -0.721725
 pspatm: atomic psp has been read  and splines computed

[...]

- pspini: atom type   4  psp file is /scratch/users/j/a/jabreu/pseudos/PBEsol/S.psp8
- pspatm: opening atomic psp file    /scratch/users/j/a/jabreu/pseudos/PBEsol/S.psp8
- S     ONCVPSP-3.3.0  r_core=   1.45376   1.45376   1.61851
- 16.00000   6.00000    180112                znucl, zion, pspdat
    8 -116133    2    4       600   0.00000   pspcod,pspxc,lmax,lloc,mmax,r2well
    5.99000000000000    6.00000000000000    0.00000000000000   rchrg,fchrg,qchrg
     nproj     2     2     2
     extension_switch     1
  pspatm : epsatm=    8.71840985
         --- l  ekb(1:nproj) -->
             0    6.834532    0.579453
             1    3.282851    0.896984
             2   -3.496974   -0.974265
 pspatm: atomic psp has been read  and splines computed

   2.28116119E+04                                ecore*ucvol(ha*bohr**3)

 ==>  initialize data related to q vector <==

 The list of irreducible perturbations for this q vector is:
    1)    idir= 1    ipert=  11
    2)    idir= 2    ipert=  11
    3)    idir= 3    ipert=  11

 Perturbation wavevector (in red.coord.)   0.000000  0.000000  0.000000
 Perturbation : derivative vs k along direction   1

 dfpt_looppert : COMMENT -
  In a d/dk calculation, iscf is set to -3 automatically.
[...]
  -0.00000   -0.00000   -0.00000    0.00000    0.00000    0.00000   -0.00000    0.00000
   0.00000   -0.00000   -0.00000   -0.00000   -0.00000   -0.00000   -0.00000    0.00000
   0.00000   -0.00000   -0.00000    0.00000   -0.00000    0.00000   -0.00000   -0.00000
   0.00000   -0.00000   -0.00000   -0.00000   -0.00000   -0.00000   -0.00000   -0.00000
   0.00000    0.00000    0.00000   -0.00000   -0.00000   -0.00000    0.00000    0.00000
  -0.00000    0.00000   -0.00000    0.00000   -0.00000
 prteigrs : prtvol=0 or 1, do not print more k-points.

 Eight components of 2nd-order total energy (hartree) are
 1,2,3: 0th-order hamiltonian combined with 1st-order wavefunctions
     kin0=   6.37129531E+01 eigvalue=   4.01448470E-02  local=  -3.57636501E+01
 4,5,6: 1st-order hamiltonian combined with 1st and 0th-order wfs
     kin1=  -7.87676742E+01  Hartree=   0.00000000E+00     xc=   0.00000000E+00
 7,8,9: eventually, occupation + non-local contributions
    edocc=   7.86738583E+00     enl0=   4.89846661E+00   enl1=  -2.74292639E+00
 1-9 gives the relaxation energy (to be shifted if some occ is /=2.0)
   erelax=  -4.07553003E+01
  No Ewald or frozen-wf contrib.: the relaxation energy is the total one
 2DEtotal=   -0.4075530031E+02 Ha. Also 2DEtotal=   -0.110900812099E+04 eV
    (  non-var. 2DEtotal :   -4.0755300307E+01 Ha)

 Perturbation wavevector (in red.coord.)   0.000000  0.000000  0.000000
 Perturbation : derivative vs k along direction   2
 The set of symmetries contains only one element for this perturbation.
 symkpt : not enough symmetry to change the number of k points.

[...]

 Perturbation wavevector (in red.coord.)   0.000000  0.000000  0.000000
 Perturbation : derivative vs k along direction   3
 The set of symmetries contains only one element for this perturbation.
 symkpt : not enough symmetry to change the number of k points.

 Initialisation of the first-order wave-functions :
  ireadwf=   0

--- !BeginCycle
iteration_state: {dtset: 1, }
solver: {iscf: 7, nstep: 2000, nline: 4, wfoptalg: 0, }
tolerances: {tolwfr: 1.00E-20, }
...

     iter   2DEtotal(Ha)        deltaE(Ha) residm    vres2
-ETOT  1  -37.390566736350     -3.739E+01 8.989E-01 0.000E+00
 ETOT  2  -37.466949277126     -7.638E-02 1.334E-02 0.000E+00
 ETOT  3  -37.468217796811     -1.269E-03 9.569E-03 0.000E+00
 ETOT  4  -37.468307445554     -8.965E-05 3.257E-04 0.000E+00
 ETOT  5  -37.468318720610     -1.128E-05 2.768E-04 0.000E+00
 ETOT  6  -37.468320412264     -1.692E-06 1.368E-05 0.000E+00
 ETOT  7  -37.468320682581     -2.703E-07 1.155E-05 0.000E+00
 ETOT  8  -37.468320727128     -4.455E-08 8.058E-07 0.000E+00
 ETOT  9  -37.468320734820     -7.692E-09 6.596E-07 0.000E+00
 ETOT 10  -37.468320736174     -1.354E-09 5.651E-08 0.000E+00
 ETOT 11  -37.468320736416     -2.419E-10 4.475E-08 0.000E+00
 ETOT 12  -37.468320736460     -4.385E-11 4.210E-09 0.000E+00
 ETOT 13  -37.468320736468     -7.851E-12 3.237E-09 0.000E+00
 ETOT 14  -37.468320736470     -1.620E-12 3.215E-10 0.000E+00
 ETOT 15  -37.468320736470     -2.345E-13 2.406E-10 0.000E+00
 ETOT 16  -37.468320736470     -1.208E-13 2.485E-11 0.000E+00
 ETOT 17  -37.468320736470      3.553E-14 1.818E-11 0.000E+00
 ETOT 18  -37.468320736470     -1.421E-14 1.930E-12 0.000E+00
 ETOT 19  -37.468320736470     -3.553E-14 1.389E-12 0.000E+00
 ETOT 20  -37.468320736470     -7.105E-15 1.502E-13 0.000E+00
 ETOT 21  -37.468320736470     -7.105E-15 1.069E-13 0.000E+00
 ETOT 22  -37.468320736470     -7.105E-15 1.169E-14 0.000E+00
 ETOT 23  -37.468320736470      1.421E-14 8.264E-15 0.000E+00
 ETOT 24  -37.468320736470     -1.421E-14 9.110E-16 0.000E+00
 ETOT 25  -37.468320736470     -7.105E-15 6.412E-16 0.000E+00
 ETOT 26  -37.468320736470      2.132E-14 7.101E-17 0.000E+00
 ETOT 27  -37.468320736470     -1.421E-14 4.988E-17 0.000E+00
 ETOT 28  -37.468320736470      7.105E-15 5.539E-18 0.000E+00
 ETOT 29  -37.468320736470     -1.421E-14 3.887E-18 0.000E+00
 ETOT 30  -37.468320736470      1.421E-14 4.325E-19 0.000E+00
 ETOT 31  -37.468320736470      0.000E+00 3.035E-19 0.000E+00
 ETOT 32  -37.468320736470      0.000E+00 4.782E-20 0.000E+00
 ETOT 33  -37.468320736470      0.000E+00 3.074E-20 0.000E+00
 ETOT 34  -37.468320736470      0.000E+00 9.997E-21 0.000E+00

 At SCF step   34   max residual=  1.00E-20 < tolwfr=  1.00E-20 =>converged.

 ----iterations are completed or convergence reached----

 dfpt_looppert: DFPT cycle converged with prtwf=-1. Will skip output of the 1st-order WFK file.
 dfpt_looppert : ek2=    7.1942788402E+01
          f-sum rule ratio=    1.0065390146E+00
 prteigrs : about to open file /scratch/users/j/a/jabreu/flow_simple_10atoms/flow/w336/t1/tmpdata/tmp_1WF1_EIG
 Expectation of eigenvalue derivatives (hartree) for nkpt=   2  k points:
  (in case of degenerate eigenvalues, averaged derivative)
 kpt#   1, nband= 69, wtk=  0.50000, kpt=  0.0000  0.0000  0.5000 (reduced coord)
  -0.00000   -0.00000   -0.00000    0.00000   -0.00000   -0.00000   -0.00000   -0.00000
  -0.00000   -0.00000   -0.00000   -0.00000   -0.00000    0.00000   -0.00000   -0.00000
   0.00000   -0.00000    0.00000    0.00000    0.00000   -0.00000   -0.00000   -0.00000
   0.00000   -0.00000   -0.00000   -0.00000    0.00000    0.00000    0.00000    0.00000
   0.00000   -0.00000   -0.00000    0.00000   -0.00000    0.00000   -0.00000   -0.00000
   0.00000   -0.00000    0.00000   -0.00000   -0.00000   -0.00000   -0.00000    0.00000
  -0.00000   -0.00000   -0.00000    0.00000    0.00000    0.00000    0.00000   -0.00000
  -0.00000   -0.00000    0.00000   -0.00000   -0.00000    0.00000    0.00000    0.00000
  -0.00000   -0.00000    0.00000    0.00000    0.00000
 prteigrs : prtvol=0 or 1, do not print more k-points.

 Eight components of 2nd-order total energy (hartree) are
 1,2,3: 0th-order hamiltonian combined with 1st-order wavefunctions
     kin0=   5.73944863E+01 eigvalue=   2.00490413E-01  local=  -3.27022468E+01
 4,5,6: 1st-order hamiltonian combined with 1st and 0th-order wfs
     kin1=  -7.24132233E+01  Hartree=   0.00000000E+00     xc=   0.00000000E+00
 7,8,9: eventually, occupation + non-local contributions
    edocc=   8.05857717E+00     enl0=   4.51701365E+00   enl1=  -2.52341813E+00
 1-9 gives the relaxation energy (to be shifted if some occ is /=2.0)
   erelax=  -3.74683207E+01
  No Ewald or frozen-wf contrib.: the relaxation energy is the total one
 2DEtotal=   -0.3746832074E+02 Ha. Also 2DEtotal=   -0.101956485815E+04 eV
    (  non-var. 2DEtotal :   -3.7468320737E+01 Ha)

 CALCULATION OF EFFECTIVE MASSES
 NOTE : Additional infos (eff. mass eigenvalues, eigenvectors and, if degenerate, average mass) are available in stdout.

 K-point ( 0.000, 0.000, 0.500) | band =    60
 Effective mass tensor:
             -0.6113072358              0.0369426203              0.0000005278
              0.0369426203             -0.5509837175             -0.0000010238
              0.0000005278             -0.0000010238             -1.2636082094
 Effective mass tensor eigenvalues:
             -1.2636082094             -0.6288370787             -0.5334538746
 Angular average effective mass 1/(<1/m>)=  -0.7048544474
 Angular average effective mass for Frohlich model (<m**0.5>)**2=  -0.7308141431
 Effective masses along directions: (cart. coord. / red. coord. -> eff. mass)
    1:   1.000000  0.000000  0.000000 /   0.845163 -0.534509  0.000000 ->  -0.6088302893
    2:   0.000000  1.000000  0.000000 /   0.000000  1.000000  0.000000 ->  -0.5487511949
    3:   0.000000  0.000000  1.000000 /   0.000000  0.000000  1.000000 ->  -1.2636082094
    4:   0.577350  0.577350  0.577350 /   0.777719  0.110577  0.618811 ->  -0.6701739650
    5:   0.000000  0.707107  0.707107 /   0.000000  0.697561  0.716525 ->  -0.7651984172
    6:   0.707107  0.000000  0.707107 /   0.701332 -0.443546  0.558032 ->  -0.8217333439
    7:   0.707107  0.707107  0.000000 /   0.990043  0.140766  0.000000 ->  -0.5427310084

 K-point ( 0.000, 0.000, 0.094) | band =    61
 Effective mass tensor:
              0.3045214244              0.0553632736             -0.0000000113
              0.0553632736              0.3949239847              0.0000000071
             -0.0000000113              0.0000000071              0.5002304691
 Effective mass tensor eigenvalues:
              0.2782506975              0.4211947116              0.5002304691
 Angular average effective mass 1/(<1/m>)=   0.3765457781
 Angular average effective mass for Frohlich model (<m**0.5>)**2=   0.3837805824
 Effective masses along directions: (cart. coord. / red. coord. -> eff. mass)
    1:   1.000000  0.000000  0.000000 /   0.845163 -0.534509  0.000000 ->   0.2967602041
    2:   0.000000  1.000000  0.000000 /   0.000000  1.000000  0.000000 ->   0.3848587091
    3:   0.000000  0.000000  1.000000 /   0.000000  0.000000  1.000000 ->   0.5002304691
    4:   0.577350  0.577350  0.577350 /   0.777719  0.110577  0.618811 ->   0.4272059123
    5:   0.000000  0.707107  0.707107 /   0.000000  0.697561  0.716525 ->   0.4350252186
    6:   0.707107  0.000000  0.707107 /   0.701332 -0.443546  0.558032 ->   0.3725225313
    7:   0.707107  0.707107  0.000000 /   0.990043  0.140766  0.000000 ->   0.3981449547

 END OF EFFECTIVE MASSES SECTION

 ---- first-order wavefunction calculations are completed ----

 Total localisation tensor (bohr^2) in cartesian coordinates
  WARNING : still subject to testing - especially symmetries.
      direction              matrix element
   alpha     beta       real part   imaginary part
     1        1       2.4751558352    0.0000000000
     1        2      -0.8661308462    0.0000000000
     1        3       0.0000000000    0.0000000000
     2        1      -0.8661308462    0.0000000000
     2        2       1.0608513484    0.0000000000
     2        3       0.0000000000    0.0000000000
     3        1       0.0000000000    0.0000000000
     3        2       0.0000000000    0.0000000000
     3        3       0.9577798691    0.0000000000

 respfn : d/dk was computed, but no 2DTE, so no DDB output.

== END DATASET(S) ==============================================================

 -outvars: echo values of variables after computation  --------
            acell      1.0000000000E+00  1.0000000000E+00  1.0000000000E+00 Bohr
              amu      1.32905430E+02  1.12411000E+02  1.96966540E+02
                       3.20660000E+01
             ecut      5.10000000E+01 Hartree
           etotal     -3.7468320736E+01
            fcart      0.0000000000E+00  0.0000000000E+00  0.0000000000E+00
                       0.0000000000E+00  0.0000000000E+00  0.0000000000E+00
                       0.0000000000E+00  0.0000000000E+00  0.0000000000E+00
                       0.0000000000E+00  0.0000000000E+00  0.0000000000E+00
                       0.0000000000E+00  0.0000000000E+00  0.0000000000E+00
                       0.0000000000E+00  0.0000000000E+00  0.0000000000E+00
                       0.0000000000E+00  0.0000000000E+00  0.0000000000E+00
                       0.0000000000E+00  0.0000000000E+00  0.0000000000E+00
                       0.0000000000E+00  0.0000000000E+00  0.0000000000E+00
                       0.0000000000E+00  0.0000000000E+00  0.0000000000E+00
-          fftalg         512
           irdden           1
           irdwfk           1
           istwfk        1    0
              ixc     -116133
              kpt      0.00000000E+00  0.00000000E+00  5.00000000E-01
                       0.00000000E+00  0.00000000E+00  9.37500000E-02
           kptopt           0
P           mkmem           2
P          mkqmem           2
P          mk1mem           2
            natom          10
            nband          69
           nbdbuf           4
            ngfft          96      96      75
             nkpt           2
            nstep        2000
             nsym           8
           ntypat           4
              occ      2.000000  2.000000  2.000000  2.000000  2.000000  2.000000
                       2.000000  2.000000  2.000000  2.000000  2.000000  2.000000
                       2.000000  2.000000  2.000000  2.000000  2.000000  2.000000
                       2.000000  2.000000  2.000000  2.000000  2.000000  2.000000
                       2.000000  2.000000  2.000000  2.000000  2.000000  2.000000
                       2.000000  2.000000  2.000000  2.000000  2.000000  2.000000
                       2.000000  2.000000  2.000000  2.000000  2.000000  2.000000
                       2.000000  2.000000  2.000000  2.000000  2.000000  2.000000
                       2.000000  2.000000  2.000000  2.000000  2.000000  2.000000
                       2.000000  2.000000  2.000000  2.000000  2.000000  2.000000
                       0.000000  0.000000  0.000000  0.000000  0.000000  0.000000
                       0.000000  0.000000  0.000000
        optdriver           1
            prtwf          -1
            rfdir           1       1       1
           rfelfd           2
            rprim      1.4423031459E+01  0.0000000000E+00  0.0000000000E+00
                      -9.1216059640E+00  1.1172293457E+01  0.0000000000E+00
                       0.0000000000E+00  0.0000000000E+00  1.1476034785E+01
          spgroup          67
           strten      0.0000000000E+00  0.0000000000E+00  0.0000000000E+00
                       0.0000000000E+00  0.0000000000E+00  0.0000000000E+00
           symrel      1  0  0   0  1  0   0  0  1      -1  0  0   0 -1  0   0  0 -1
                       0  1  0   1  0  0   0  0 -1       0 -1  0  -1  0  0   0  0  1
                      -1  0  0   0 -1  0   0  0  1       1  0  0   0  1  0   0  0 -1
                       0 -1  0  -1  0  0   0  0 -1       0  1  0   1  0  0   0  0  1
            tnons      0.0000000  0.0000000  0.0000000     0.0000000  0.0000000  0.0000000
                      -0.0000000 -0.0000000  0.0000000     0.0000000  0.0000000  0.0000000
                       0.5000000  0.5000000  0.0000000     0.5000000  0.5000000  0.0000000
                       0.5000000  0.5000000  0.0000000     0.5000000  0.5000000  0.0000000
           tolwfr      1.00000000E-20
            typat      1  1  2  2  3  3  4  4  4  4
           useylm           1
              wtk        0.50000    0.50000
           xangst     -1.7121246048E+00  4.4340922989E+00  4.6568967903E+00
                       4.5175181495E+00  1.4780307663E+00  1.4159592631E+00
                       7.0134838618E-01  1.4780307663E+00  3.0364280267E+00
                       2.1040451585E+00  4.4340922989E+00  3.0364280267E+00
                       0.0000000000E+00  0.0000000000E+00  0.0000000000E+00
                       1.4026967724E+00  2.9560615326E+00  0.0000000000E+00
                      -3.4621060101E+00  5.2644854561E+00  1.7430432902E+00
                       3.7856800620E-02  3.6036991416E+00  1.7430432902E+00
                       2.7675367441E+00  2.3084239235E+00  4.3298127633E+00
                       6.2674995549E+00  6.4763760905E-01  4.3298127633E+00
            xcart     -3.2354466084E+00  8.3792200928E+00  8.8002595628E+00
                       8.5368721029E+00  2.7930733643E+00  2.6757752227E+00
                       1.3253563736E+00  2.7930733643E+00  5.7380173927E+00
                       3.9760691209E+00  8.3792200928E+00  5.7380173927E+00
                       0.0000000000E+00  0.0000000000E+00  0.0000000000E+00
                       2.6507127473E+00  5.5861467286E+00  0.0000000000E+00
                      -6.5424322022E+00  9.9484357426E+00  3.2938744562E+00
                       7.1538985440E-02  6.8100044430E+00  3.2938744562E+00
                       5.2298865091E+00  4.3622890141E+00  8.1821603293E+00
                       1.1843857697E+01  1.2238577145E+00  8.1821603293E+00
             xred      2.5000000000E-01  7.5000000000E-01  7.6683800000E-01
                       7.5000000000E-01  2.5000000000E-01  2.3316200000E-01
                       2.5000000000E-01  2.5000000000E-01  5.0000000000E-01
                       7.5000000000E-01  7.5000000000E-01  5.0000000000E-01
                       0.0000000000E+00  0.0000000000E+00  0.0000000000E+00
                       5.0000000000E-01  5.0000000000E-01  0.0000000000E+00
                       1.0954400000E-01  8.9045600000E-01  2.8702200000E-01
                       3.9045600000E-01  6.0954400000E-01  2.8702200000E-01
                       6.0954400000E-01  3.9045600000E-01  7.1297800000E-01
                       8.9045600000E-01  1.0954400000E-01  7.1297800000E-01
            znucl       55.00000   48.00000   79.00000   16.00000

- Timing analysis has been suppressed with timopt=0

 Suggested references for the acknowledgment of ABINIT usage.

 Calculation completed.
.Delivered   2 WARNINGs and   7 COMMENTs to log file.