.Version 9.7.2 of ABINIT

 ABINIT is a project of the Universite Catholique de Louvain,
 Corning Inc. and other collaborators, see ~abinit/doc/developers/contributors.txt .
 acknowledgments of the ABINIT effort.

.Starting date : Wed  1 Dec 2021.
- ( at 21h19 )

- input  file    -> /scratch/users/j/a/jabreu/flow_simple_remain_atoms/flow/w173/t1/run.abi
- output file    -> /scratch/users/j/a/jabreu/flow_simple_remain_atoms/flow/w173/t1/run.abo
- root for input  files -> /scratch/users/j/a/jabreu/flow_simple_remain_atoms/flow/w173/t1/indata/in
- root for output files -> /scratch/users/j/a/jabreu/flow_simple_remain_atoms/flow/w173/t1/outdata/out

 Symmetries : space group I4/m m m (#139); Bravais tI (body-center tetrag.)
     intxc =       0      iscf =       7    lmnmax =      25     lnmax =       7
     mgfft =      90  mpssoang =       4    mqgrid =    3001     natom =       5
  nloc_mem =       1    nspden =       1   nspinor =       1    nsppol =       1
      nsym =      16    n1xccc =    2501    ntypat =       3    occopt =       1
   xclevel =       2
-    mband =          34        mffmem =           1         mkmem =           1
-   mkqmem =           1        mk1mem =           1           mpw =       11299
      nfft =      729000          nkpt =           1
  Rough estimation (10% accuracy) of disk space for files :

------------- Echo of variables that govern the present computation ------------
-
- outvars: echo of selected default values
-   iomode0 =  0 , fftalg0 =512 , wfoptalg0 =  0
-
- outvars: echo of global parameters not present in the input file
-  max_nthreads =    0
-
 -outvars: echo values of preprocessed input variables --------
            acell      1.0000000000E+00  1.0000000000E+00  1.0000000000E+00 Bohr
              amu      8.54678000E+01  2.00590000E+02  1.59994000E+01
             ecut      4.40000000E+01 Hartree
-          fftalg         512
           irdden           1
           irdwfk           1
           istwfk        1
              ixc     -116133
           kptopt           0
P           mkmem           1
P          mkqmem           1
P          mk1mem           1
            natom           5
            nband          34
           nbdbuf           4
            ngfft          90      90      90
             nkpt           1
            nstep        2000
             nsym          16
           ntypat           3
              occ      2.000000  2.000000  2.000000  2.000000  2.000000  2.000000
                       2.000000  2.000000  2.000000  2.000000  2.000000  2.000000
                       2.000000  2.000000  2.000000  2.000000  2.000000  2.000000
                       2.000000  2.000000  2.000000  2.000000  2.000000  2.000000
                       2.000000  0.000000  0.000000  0.000000  0.000000  0.000000
                       0.000000  0.000000  0.000000  0.000000
        optdriver           1
            prtwf          -1
            rfdir           1       1       1
           rfelfd           2
            rprim      7.4930758162E+00  0.0000000000E+00 -1.2332598741E+01
                      -5.8736458830E-01  7.4700192789E+00 -1.2332598741E+01
                       0.0000000000E+00  0.0000000000E+00  1.4430494686E+01
          spgroup         139
           symrel      1  0  0   0  1  0   0  0  1      -1  0  0   0 -1  0   0  0 -1
                       0  0  1  -1 -1 -1   1  0  0       0  0 -1   1  1  1  -1  0  0
                       0  1  0   1  0  0  -1 -1 -1       0 -1  0  -1  0  0   1  1  1
                      -1 -1 -1   0  0  1   0  1  0       1  1  1   0  0 -1   0 -1  0
                       0  1  0   1  0  0   0  0  1       0 -1  0  -1  0  0   0  0 -1
                       0  0  1  -1 -1 -1   0  1  0       0  0 -1   1  1  1   0 -1  0
                       1  0  0   0  1  0  -1 -1 -1      -1  0  0   0 -1  0   1  1  1
                      -1 -1 -1   0  0  1   1  0  0       1  1  1   0  0 -1  -1  0  0
           tolwfr      1.00000000E-20
            typat      1  1  2  3  3
           useylm           1
           xangst      1.2171928839E+00  1.3166571855E+00 -4.3474599305E+00
                       2.4371521070E+00  2.6363067647E+00 -8.7048004221E+00
                       0.0000000000E+00  0.0000000000E+00  0.0000000000E+00
                       5.0691611976E-01  5.4833934731E-01 -1.8105573471E+00
                       3.1474288711E+00  3.4046246028E+00 -1.1241703006E+01
            xcart      2.3001612015E+00  2.4881214914E+00 -8.2155086424E+00
                       4.6055500264E+00  4.9818977875E+00 -1.6449688839E+01
                       0.0000000000E+00  0.0000000000E+00  0.0000000000E+00
                       9.5793263869E-01  1.0362111943E+00 -3.4214575339E+00
                       5.9477785892E+00  6.4338080846E+00 -2.1243739948E+01
             xred      3.3308100000E-01  3.3308100000E-01  0.0000000000E+00
                       6.6691900000E-01  6.6691900000E-01 -1.1102230246E-16
                       0.0000000000E+00  0.0000000000E+00  0.0000000000E+00
                       1.3871600000E-01  1.3871600000E-01  0.0000000000E+00
                       8.6128400000E-01  8.6128400000E-01  1.1102230246E-16
            znucl       37.00000   80.00000    8.00000

 chkinp: Checking input parameters for consistency.

== DATASET  1 ==================================================================
-   mpi_nproc: 1, omp_nthreads: -1 (-1 if OMP is not activated)

--- !DatasetInfo
iteration_state: {dtset: 1, }
dimensions: {natom: 5, nkpt: 1, mband: 34, nsppol: 1, nspinor: 1, nspden: 1, mpw: 11299, }
cutoff_energies: {ecut:  44.0, pawecutdg:  -1.0, }
electrons: {nelect:   5.00000000E+01, charge:   0.00000000E+00, occopt:   1.00000000E+00, tsmear:   1.00000000E-02, }
meta: {optdriver: 1, rfelfd: 2, }
...

 Real(R)+Recip(G) space primitive vectors, cartesian coordinates (Bohr,Bohr^-1):
 R(1)=  7.4930758  0.0000000-12.3325987  G(1)=  0.1334565  0.0104936  0.0000000
 R(2)= -0.5873646  7.4700193-12.3325987  G(2)=  0.0000000  0.1338685  0.0000000
 R(3)=  0.0000000  0.0000000 14.4304947  G(3)=  0.1140547  0.1233748  0.0692977
 Unit cell volume ucvol=  8.0772415E+02 bohr^3
 Angles (23,13,12)=  1.48717851E+02  1.48717851E+02  4.48267812E+01 degrees

 getcut: wavevector=  0.0000  0.0000  0.0000  ngfft=  90  90  90
         ecut(hartree)=     44.000   => boxcut(ratio)=   2.08954

--- Pseudopotential description ------------------------------------------------
- pspini: atom type   1  psp file is /scratch/users/j/a/jabreu/pseudos/PBEsol/Rb.psp8
- pspatm: opening atomic psp file    /scratch/users/j/a/jabreu/pseudos/PBEsol/Rb.psp8
- Rb    ONCVPSP-3.3.0  r_core=   1.71227   1.75361   1.90633
- 37.00000   9.00000    180112                znucl, zion, pspdat
    8 -116133    2    4       600   0.00000   pspcod,pspxc,lmax,lloc,mmax,r2well
    5.99000000000000    7.00000000000000    0.00000000000000   rchrg,fchrg,qchrg
     nproj     2     2     2
     extension_switch     1
  pspatm : epsatm=   34.48400912
         --- l  ekb(1:nproj) -->
             0    8.196957   -0.477221
             1    3.231347   -0.378736
             2   -1.047201    0.996637
 pspatm: atomic psp has been read  and splines computed

- pspini: atom type   2  psp file is /scratch/users/j/a/jabreu/pseudos/PBEsol/Hg.psp8
- pspatm: opening atomic psp file    /scratch/users/j/a/jabreu/pseudos/PBEsol/Hg.psp8
- Hg    ONCVPSP-3.3.0  r_core=   1.60079   1.60079   1.45509   1.60079
- 80.00000  20.00000    180112                znucl, zion, pspdat
    8 -116133    3    4       600   0.00000   pspcod,pspxc,lmax,lloc,mmax,r2well
    5.99000000000000    5.00000000000000    0.00000000000000   rchrg,fchrg,qchrg
     nproj     2     2     2     1
     extension_switch     1
  pspatm : epsatm=   30.52477316
         --- l  ekb(1:nproj) -->
             0   15.280580    2.063595
             1   11.999965    1.374025
             2    2.245749    0.205661
             3    0.961656
 pspatm: atomic psp has been read  and splines computed

- pspini: atom type   3  psp file is /scratch/users/j/a/jabreu/pseudos/PBEsol/O.psp8
- pspatm: opening atomic psp file    /scratch/users/j/a/jabreu/pseudos/PBEsol/O.psp8
- O     ONCVPSP-3.3.0  r_core=   1.35509   1.45563   1.26150
-  8.00000   6.00000    180112                znucl, zion, pspdat
    8 -116133    2    4       600   0.00000   pspcod,pspxc,lmax,lloc,mmax,r2well
    5.99000000000000    4.00000000000000    0.00000000000000   rchrg,fchrg,qchrg
     nproj     2     2     1
     extension_switch     1
  pspatm : epsatm=    6.22910522
         --- l  ekb(1:nproj) -->
             0    6.050032    0.820363
             1   -4.739617   -1.153841
             2   -1.335834
 pspatm: atomic psp has been read  and splines computed

   5.59755009E+03                                ecore*ucvol(ha*bohr**3)

 ==>  initialize data related to q vector <==

 The list of irreducible perturbations for this q vector is:
    1)    idir= 1    ipert=   6
    2)    idir= 2    ipert=   6
    3)    idir= 3    ipert=   6

 Perturbation wavevector (in red.coord.)   0.000000  0.000000  0.000000
 Perturbation : derivative vs k along direction   1

 dfpt_looppert : COMMENT -
  In a d/dk calculation, iscf is set to -3 automatically.
 The set of symmetries contains only one element for this perturbation.
 symkpt : not enough symmetry to change the number of k points.

 Initialisation of the first-order wave-functions :
  ireadwf=   0

--- !BeginCycle
iteration_state: {dtset: 1, }
solver: {iscf: 7, nstep: 2000, nline: 4, wfoptalg: 0, }
tolerances: {tolwfr: 1.00E-20, }
...

     iter   2DEtotal(Ha)        deltaE(Ha) residm    vres2
-ETOT  1  -40.073068869429     -4.007E+01 4.997E-02 0.000E+00
 ETOT  2  -40.119936026162     -4.687E-02 5.461E-04 0.000E+00
 ETOT  3  -40.120232044133     -2.960E-04 1.393E-05 0.000E+00
 ETOT  4  -40.120235988167     -3.944E-06 4.335E-07 0.000E+00
 ETOT  5  -40.120236050207     -6.204E-08 2.487E-08 0.000E+00
 ETOT  6  -40.120236051236     -1.029E-09 6.167E-10 0.000E+00
 ETOT  7  -40.120236051254     -1.749E-11 4.763E-11 0.000E+00
 ETOT  8  -40.120236051254     -2.984E-13 1.209E-12 0.000E+00
 ETOT  9  -40.120236051254     -4.974E-14 9.480E-14 0.000E+00
 ETOT 10  -40.120236051254      3.553E-14 2.454E-15 0.000E+00
 ETOT 11  -40.120236051254      1.421E-14 1.923E-16 0.000E+00
 ETOT 12  -40.120236051254     -7.105E-15 5.063E-18 0.000E+00
 ETOT 13  -40.120236051254      0.000E+00 3.950E-19 0.000E+00
 ETOT 14  -40.120236051254      0.000E+00 1.054E-20 0.000E+00
 ETOT 15  -40.120236051254      0.000E+00 9.656E-21 0.000E+00

 At SCF step   15   max residual=  9.66E-21 < tolwfr=  1.00E-20 =>converged.

 ----iterations are completed or convergence reached----

 dfpt_looppert: DFPT cycle converged with prtwf=-1. Will skip output of the 1st-order WFK file.
 dfpt_looppert : ek2=    7.0748346047E+01
          f-sum rule ratio=    1.1015351595E+00
 prteigrs : about to open file /scratch/users/j/a/jabreu/flow_simple_remain_atoms/flow/w173/t1/tmpdata/tmp_1WF1_EIG
 Expectation of eigenvalue derivatives (hartree) for nkpt=   1  k points:
  (in case of degenerate eigenvalues, averaged derivative)
 kpt#   1, nband= 34, wtk=  1.00000, kpt=  0.0000  0.0000  0.0000 (reduced coord)
   0.00000   -0.00000   -0.00000   -0.00000   -0.00000   -0.00000    0.00000   -0.00000
  -0.00000   -0.00000   -0.00000   -0.00000    0.00000    0.00000   -0.00000    0.00000
   0.00000    0.00000    0.00000   -0.00000    0.00000   -0.00000   -0.00000   -0.00000
  -0.00000   -0.00000   -0.00000   -0.00000    0.00000    0.00000    0.00000    0.00000
   0.00000    0.00000

 Eight components of 2nd-order total energy (hartree) are
 1,2,3: 0th-order hamiltonian combined with 1st-order wavefunctions
     kin0=   5.16106132E+01 eigvalue=   3.34994325E+00  local=  -2.64781082E+01
 4,5,6: 1st-order hamiltonian combined with 1st and 0th-order wfs
     kin1=  -7.79317906E+01  Hartree=   0.00000000E+00     xc=   0.00000000E+00
 7,8,9: eventually, occupation + non-local contributions
    edocc=   1.10889681E+01     enl0=   5.48819696E-01   enl1=  -2.30868146E+00
 1-9 gives the relaxation energy (to be shifted if some occ is /=2.0)
   erelax=  -4.01202361E+01
  No Ewald or frozen-wf contrib.: the relaxation energy is the total one
 2DEtotal=   -0.4012023605E+02 Ha. Also 2DEtotal=   -0.109172714374E+04 eV
    (  non-var. 2DEtotal :   -4.0120236051E+01 Ha)

 Perturbation wavevector (in red.coord.)   0.000000  0.000000  0.000000
 Perturbation : derivative vs k along direction   2
 The set of symmetries contains only one element for this perturbation.
 symkpt : not enough symmetry to change the number of k points.

[...]

 Perturbation wavevector (in red.coord.)   0.000000  0.000000  0.000000
 Perturbation : derivative vs k along direction   3
 The set of symmetries contains only one element for this perturbation.
 symkpt : not enough symmetry to change the number of k points.

 Initialisation of the first-order wave-functions :
  ireadwf=   0

--- !BeginCycle
iteration_state: {dtset: 1, }
solver: {iscf: 7, nstep: 2000, nline: 4, wfoptalg: 0, }
tolerances: {tolwfr: 1.00E-20, }
...

     iter   2DEtotal(Ha)        deltaE(Ha) residm    vres2
-ETOT  1  -74.349037851637     -7.435E+01 1.706E-01 0.000E+00
 ETOT  2  -74.413940510904     -6.490E-02 7.352E-04 0.000E+00
 ETOT  3  -74.414347316614     -4.068E-04 9.595E-06 0.000E+00
 ETOT  4  -74.414352769770     -5.453E-06 1.285E-07 0.000E+00
 ETOT  5  -74.414352854818     -8.505E-08 2.419E-09 0.000E+00
 ETOT  6  -74.414352856201     -1.383E-09 3.320E-11 0.000E+00
 ETOT  7  -74.414352856224     -2.287E-11 6.654E-13 0.000E+00
 ETOT  8  -74.414352856224     -4.405E-13 9.160E-15 0.000E+00
 ETOT  9  -74.414352856224     -7.105E-14 1.894E-16 0.000E+00
 ETOT 10  -74.414352856224      9.948E-14 2.611E-18 0.000E+00
 ETOT 11  -74.414352856224      0.000E+00 5.517E-20 0.000E+00
 ETOT 12  -74.414352856224     -1.421E-14 9.730E-21 0.000E+00

 At SCF step   12   max residual=  9.73E-21 < tolwfr=  1.00E-20 =>converged.

 ----iterations are completed or convergence reached----

 dfpt_looppert: DFPT cycle converged with prtwf=-1. Will skip output of the 1st-order WFK file.
 dfpt_looppert : ek2=    1.3040509920E+02
          f-sum rule ratio=    1.1093380899E+00
 prteigrs : about to open file /scratch/users/j/a/jabreu/flow_simple_remain_atoms/flow/w173/t1/tmpdata/tmp_1WF1_EIG
 Expectation of eigenvalue derivatives (hartree) for nkpt=   1  k points:
  (in case of degenerate eigenvalues, averaged derivative)
 kpt#   1, nband= 34, wtk=  1.00000, kpt=  0.0000  0.0000  0.0000 (reduced coord)
  -0.00000   -0.00000   -0.00000   -0.00000   -0.00000    0.00000    0.00000   -0.00000
   0.00000   -0.00000   -0.00000    0.00000    0.00000    0.00000   -0.00000   -0.00000
  -0.00000    0.00000    0.00000   -0.00000    0.00000    0.00000    0.00000   -0.00000
  -0.00000   -0.00000    0.00000   -0.00000   -0.00000    0.00000    0.00000    0.00000
   0.00000    0.00000

 Eight components of 2nd-order total energy (hartree) are
 1,2,3: 0th-order hamiltonian combined with 1st-order wavefunctions
     kin0=   9.51276612E+01 eigvalue=   6.15692054E+00  local=  -4.86062716E+01
 4,5,6: 1st-order hamiltonian combined with 1st and 0th-order wfs
     kin1=  -1.44663344E+02  Hartree=   0.00000000E+00     xc=   0.00000000E+00
 7,8,9: eventually, occupation + non-local contributions
    edocc=   2.07138477E+01     enl0=   1.02219502E+00   enl1=  -4.16536205E+00
 1-9 gives the relaxation energy (to be shifted if some occ is /=2.0)
   erelax=  -7.44143529E+01
  No Ewald or frozen-wf contrib.: the relaxation energy is the total one
 2DEtotal=   -0.7441435286E+02 Ha. Also 2DEtotal=   -0.202491752026E+04 eV
    (  non-var. 2DEtotal :   -7.4414352856E+01 Ha)

 CALCULATION OF EFFECTIVE MASSES
 NOTE : Additional infos (eff. mass eigenvalues, eigenvectors and, if degenerate, average mass) are available in stdout.

 COMMENTS:
 - At k-point ( 0.000, 0.000, 0.000), bands    24 through    25
   are DEGENERATE (effective mass tensor is therefore not defined).
   See Section IIIB Eqs. (67)-(70) and Appendix E of PRB 93 205147 (2016).
 - Angular average effective mass for Frohlich model is to be averaged over degenerate bands. See later.
 - Associated theta integrals calculated with ntheta=   1000 points.

 K-point ( 0.000, 0.000, 0.000) | band =    24
 Transport equivalent effective mass tensor:
             -1.3652257328             -0.2612362653              0.8625739468
             -0.2612362653             -1.4063075366              0.9330601593
              0.8625739468              0.9330601593             -4.2045879760
 Transport equivalent effective mass tensor eigenvalues:
             -4.7286731401             -1.1237240530             -1.1237240523
 Angular average effective mass 1/(<1/m>)=  -1.4357566931
 Angular average effective mass for Frohlich model (<m**0.5>)**2=  -1.5854066848
 Effective masses along directions: (cart. coord. / red. coord. -> eff. mass)
    1:   1.000000  0.000000  0.000000 /   0.996942 -0.078148  0.000000 ->  -1.3046060331
    2:   0.000000  1.000000  0.000000 /   0.000000  1.000000  0.000000 ->  -1.3310944466
    3:   0.000000  0.000000  1.000000 /  -0.544803 -0.544803  0.637479 ->  -2.8904385023
    4:   0.577350  0.577350  0.577350 /  -0.299351 -0.337109  0.892606 ->  -0.9984088266
    5:   0.000000  0.707107  0.707107 /  -0.629364 -0.248150  0.736425 ->  -1.3780493866
    6:   0.707107  0.000000  0.707107 /  -0.242405 -0.647143  0.722804 ->  -1.4351766239
    7:   0.707107  0.707107  0.000000 /   0.736468  0.676472  0.000000 ->  -1.0830730219

 K-point ( 0.000, 0.000, 0.000) | band =    25
 Transport equivalent effective mass tensor:
             -6.9325471047             -0.2307816538              0.7620161201
             -0.2307816538             -6.9688396396              0.8242851330
              0.7620161201              0.8242851330             -9.4408999928
 Transport equivalent effective mass tensor eigenvalues:
             -9.9038879323             -6.7191994039             -6.7191994009
 Angular average effective mass 1/(<1/m>)=  -4.0956023725
 Angular average effective mass for Frohlich model (<m**0.5>)**2=  -4.3060086763
 Effective masses along directions: (cart. coord. / red. coord. -> eff. mass)
    1:   1.000000  0.000000  0.000000 /   0.996942 -0.078148  0.000000 ->  -2.7157485018
    2:   0.000000  1.000000  0.000000 /   0.000000  1.000000  0.000000 ->  -2.6654433324
    3:   0.000000  0.000000  1.000000 /  -0.544803 -0.544803  0.637479 ->  -4.6545379518
    4:   0.577350  0.577350  0.577350 /  -0.299351 -0.337109  0.892606 ->  -6.8570908229
    5:   0.000000  0.707107  0.707107 /  -0.629364 -0.248150  0.736425 ->  -3.2619973826
    6:   0.707107  0.000000  0.707107 /  -0.242405 -0.647143  0.722804 ->  -3.0736115711
    7:   0.707107  0.707107  0.000000 /   0.736468  0.676472  0.000000 ->  -6.4732186317

 Angular average effective mass for Frohlich model, averaged over degenerate bands.
 Value of     (<<m**0.5>>)**2 =     2.779259E+00
 Absolute Value of <<m**0.5>> =     1.667111E+00

 K-point ( 0.000, 0.000, 0.000) | band =    26
 Effective mass tensor:
              1.1383447481             -0.0546383886              0.1804100619
             -0.0546383886              1.1297523595              0.1951524753
              0.1804100619              0.1951524753              0.5444831741
 Effective mass tensor eigenvalues:
              0.4348691097              1.1888555859              1.1888555862
 Angular average effective mass 1/(<1/m>)=   0.7534219265
 Angular average effective mass for Frohlich model (<m**0.5>)**2=   0.8126013416
 Effective masses along directions: (cart. coord. / red. coord. -> eff. mass)
    1:   1.000000  0.000000  0.000000 /   0.996942 -0.078148  0.000000 ->   1.0651378838
    2:   0.000000  1.000000  0.000000 /   0.000000  1.000000  0.000000 ->   1.0466103714
    3:   0.000000  0.000000  1.000000 /  -0.544803 -0.544803  0.637479 ->   0.4790369532
    4:   0.577350  0.577350  0.577350 /  -0.299351 -0.337109  0.892606 ->   1.0947553404
    5:   0.000000  0.707107  0.707107 /  -0.629364 -0.248150  0.736425 ->   0.8741105374
    6:   0.707107  0.000000  0.707107 /  -0.242405 -0.647143  0.722804 ->   0.8589400108
    7:   0.707107  0.707107  0.000000 /   0.736468  0.676472  0.000000 ->   0.9498121791

 END OF EFFECTIVE MASSES SECTION

 ---- first-order wavefunction calculations are completed ----

 Total localisation tensor (bohr^2) in cartesian coordinates
  WARNING : still subject to testing - especially symmetries.
      direction              matrix element
   alpha     beta       real part   imaginary part
     1        1       0.8719309883    0.0000000000
     1        2      -0.0677221796    0.0000000000
     1        3      -1.3145117231    0.0000000000
     2        1      -0.0677221796    0.0000000000
     2        2       0.8612810460    0.0000000000
     2        3      -1.4219285315    0.0000000000
     3        1      -1.3145117231    0.0000000000
     3        2      -1.4219285315    0.0000000000
     3        3      10.6349670275    0.0000000000

 respfn : d/dk was computed, but no 2DTE, so no DDB output.

== END DATASET(S) ==============================================================

 -outvars: echo values of variables after computation  --------
            acell      1.0000000000E+00  1.0000000000E+00  1.0000000000E+00 Bohr
              amu      8.54678000E+01  2.00590000E+02  1.59994000E+01
             ecut      4.40000000E+01 Hartree
           etotal     -7.4414352856E+01
            fcart      0.0000000000E+00  0.0000000000E+00  0.0000000000E+00
                       0.0000000000E+00  0.0000000000E+00  0.0000000000E+00
                       0.0000000000E+00  0.0000000000E+00  0.0000000000E+00
                       0.0000000000E+00  0.0000000000E+00  0.0000000000E+00
                       0.0000000000E+00  0.0000000000E+00  0.0000000000E+00
-          fftalg         512
           irdden           1
           irdwfk           1
           istwfk        1
              ixc     -116133
           kptopt           0
P           mkmem           1
P          mkqmem           1
P          mk1mem           1
            natom           5
            nband          34
           nbdbuf           4
            ngfft          90      90      90
             nkpt           1
            nstep        2000
             nsym          16
           ntypat           3
              occ      2.000000  2.000000  2.000000  2.000000  2.000000  2.000000
                       2.000000  2.000000  2.000000  2.000000  2.000000  2.000000
                       2.000000  2.000000  2.000000  2.000000  2.000000  2.000000
                       2.000000  2.000000  2.000000  2.000000  2.000000  2.000000
                       2.000000  0.000000  0.000000  0.000000  0.000000  0.000000
                       0.000000  0.000000  0.000000  0.000000
        optdriver           1
            prtwf          -1
            rfdir           1       1       1
           rfelfd           2
            rprim      7.4930758162E+00  0.0000000000E+00 -1.2332598741E+01
                      -5.8736458830E-01  7.4700192789E+00 -1.2332598741E+01
                       0.0000000000E+00  0.0000000000E+00  1.4430494686E+01
          spgroup         139
           strten      0.0000000000E+00  0.0000000000E+00  0.0000000000E+00
                       0.0000000000E+00  0.0000000000E+00  0.0000000000E+00
           symrel      1  0  0   0  1  0   0  0  1      -1  0  0   0 -1  0   0  0 -1
                       0  0  1  -1 -1 -1   1  0  0       0  0 -1   1  1  1  -1  0  0
                       0  1  0   1  0  0  -1 -1 -1       0 -1  0  -1  0  0   1  1  1
                      -1 -1 -1   0  0  1   0  1  0       1  1  1   0  0 -1   0 -1  0
                       0  1  0   1  0  0   0  0  1       0 -1  0  -1  0  0   0  0 -1
                       0  0  1  -1 -1 -1   0  1  0       0  0 -1   1  1  1   0 -1  0
                       1  0  0   0  1  0  -1 -1 -1      -1  0  0   0 -1  0   1  1  1
                      -1 -1 -1   0  0  1   1  0  0       1  1  1   0  0 -1  -1  0  0
           tolwfr      1.00000000E-20
            typat      1  1  2  3  3
           useylm           1
           xangst      1.2171928839E+00  1.3166571855E+00 -4.3474599305E+00
                       2.4371521070E+00  2.6363067647E+00 -8.7048004221E+00
                       0.0000000000E+00  0.0000000000E+00  0.0000000000E+00
                       5.0691611976E-01  5.4833934731E-01 -1.8105573471E+00
                       3.1474288711E+00  3.4046246028E+00 -1.1241703006E+01
            xcart      2.3001612015E+00  2.4881214914E+00 -8.2155086424E+00
                       4.6055500264E+00  4.9818977875E+00 -1.6449688839E+01
                       0.0000000000E+00  0.0000000000E+00  0.0000000000E+00
                       9.5793263869E-01  1.0362111943E+00 -3.4214575339E+00
                       5.9477785892E+00  6.4338080846E+00 -2.1243739948E+01
             xred      3.3308100000E-01  3.3308100000E-01  0.0000000000E+00
                       6.6691900000E-01  6.6691900000E-01 -1.1102230246E-16
                       0.0000000000E+00  0.0000000000E+00  0.0000000000E+00
                       1.3871600000E-01  1.3871600000E-01  0.0000000000E+00
                       8.6128400000E-01  8.6128400000E-01  1.1102230246E-16
            znucl       37.00000   80.00000    8.00000

- Timing analysis has been suppressed with timopt=0

 Suggested references for the acknowledgment of ABINIT usage.

 Calculation completed.
.Delivered   2 WARNINGs and   5 COMMENTs to log file.