.Version 9.5.2 of ABINIT

 ABINIT is a project of the Universite Catholique de Louvain,
 Corning Inc. and other collaborators, see ~abinit/doc/developers/contributors.txt .
 acknowledgments of the ABINIT effort.

.Starting date : Tue 25 May 2021.
- ( at 11h17 )

- input  file    -> /scratch/users/j/a/jabreu/flow_simple_10atoms/flow/w496/t1/run.abi
- output file    -> /scratch/users/j/a/jabreu/flow_simple_10atoms/flow/w496/t1/run.abo
- root for input  files -> /scratch/users/j/a/jabreu/flow_simple_10atoms/flow/w496/t1/indata/in
- root for output files -> /scratch/users/j/a/jabreu/flow_simple_10atoms/flow/w496/t1/outdata/out

 Symmetries : space group Ib a m (# 72); Bravais oI (body-center ortho.)
     intxc =       0      iscf =       7    lmnmax =      32     lnmax =       8
     mgfft =     100  mpssoang =       4    mqgrid =    3678     natom =      10
  nloc_mem =       1    nspden =       1   nspinor =       1    nsppol =       1
      nsym =       8    n1xccc =    2501    ntypat =       3    occopt =       1
   xclevel =       2
-    mband =          61        mffmem =           1         mkmem =           2
-   mkqmem =           2        mk1mem =           2           mpw =       30414
      nfft =     1000000          nkpt =           2
  Rough estimation (10% accuracy) of disk space for files :

------------- Echo of variables that govern the present computation ------------
-
- outvars: echo of selected default values
-   iomode0 =  0 , fftalg0 =512 , wfoptalg0 =  0
-
- outvars: echo of global parameters not present in the input file
-  max_nthreads =    0
-
 -outvars: echo values of preprocessed input variables --------
            acell      1.0000000000E+00  1.0000000000E+00  1.0000000000E+00 Bohr
              amu      1.32905430E+02  2.80855000E+01  7.49215900E+01
             ecut      4.20000000E+01 Hartree
-          fftalg         512
           irdden           1
           irdwfk           1
              ixc     -116133
              kpt      5.00000000E-01  5.00000000E-01 -5.00000000E-01
                      -2.32875939E-01  2.32875939E-01  2.32875939E-01
           kptopt           0
P           mkmem           2
P          mkqmem           2
P          mk1mem           2
            natom          10
            nband          61
           nbdbuf           4
            ngfft         100     100     100
             nkpt           2
            nstep        2000
             nsym           8
           ntypat           3
              occ      2.000000  2.000000  2.000000  2.000000  2.000000  2.000000
                       2.000000  2.000000  2.000000  2.000000  2.000000  2.000000
                       2.000000  2.000000  2.000000  2.000000  2.000000  2.000000
                       2.000000  2.000000  2.000000  2.000000  2.000000  2.000000
                       2.000000  2.000000  2.000000  2.000000  2.000000  2.000000
                       2.000000  2.000000  2.000000  2.000000  2.000000  2.000000
                       2.000000  2.000000  2.000000  2.000000  2.000000  2.000000
                       2.000000  2.000000  2.000000  2.000000  2.000000  2.000000
                       2.000000  2.000000  2.000000  2.000000  0.000000  0.000000
                       0.000000  0.000000  0.000000  0.000000  0.000000  0.000000
                       0.000000
        optdriver           1
            prtwf          -1
            rfdir           1       1       1
           rfelfd           2
            rprim      1.2834635254E+01  0.0000000000E+00 -1.0362500146E+01
                      -2.1180986419E+00  1.1049849274E+01 -1.2063322947E+01
                       0.0000000000E+00  0.0000000000E+00  1.6495734945E+01
          spgroup          72
           symrel      1  0  0   0  1  0   0  0  1      -1  0  0   0 -1  0   0  0 -1
                       0  0  1  -1 -1 -1   1  0  0       0  0 -1   1  1  1  -1  0  0
                      -1 -1 -1   0  0  1   0  1  0       1  1  1   0  0 -1   0 -1  0
                       0  1  0   1  0  0  -1 -1 -1       0 -1  0  -1  0  0   1  1  1
            tnons      0.0000000  0.0000000  0.0000000     0.0000000 -0.0000000 -0.0000000
                       0.0000000  0.5000000  0.5000000     0.0000000  0.5000000  0.5000000
                       0.0000000  0.0000000  0.0000000     0.0000000 -0.0000000 -0.0000000
                       0.0000000  0.5000000  0.5000000     0.0000000  0.5000000  0.5000000
           tolwfr      1.00000000E-20
            typat      1  1  1  1  2  2  3  3  3  3
           useylm           1
              wtk        0.50000    0.50000
           xangst      3.0728705734E+00  8.4643148355E-01 -6.4170418399E-01
                       4.8002998015E+00  3.7700956807E+00 -7.1048179965E+00
                       8.7064712877E-01  2.0772327136E+00  3.9667505036E+00
                       2.5980763568E+00  5.0008969108E+00 -2.4963633089E+00
                      -8.4063714513E-01  4.3854962957E+00  1.7591485562E+00
                      -2.8021238171E-01  1.4618320986E+00  5.8638285205E-01
                       6.2572279879E+00  5.4136320473E-01  1.6405163365E+00
                      -5.8628105762E-01  5.3059651896E+00 -4.7785838293E+00
                       4.6467366652E+00  2.3823009924E+00 -3.7184765944E+00
                       1.0242102651E+00  3.4650274019E+00  5.8040910152E-01
            xcart      5.8068838256E+00  1.5995236942E+00 -1.2126451661E+00
                       9.0712519805E+00  7.1244483313E+00 -1.3426160237E+01
                       1.6452846318E+00  3.9254009430E+00  7.4960720893E+00
                       4.9096527867E+00  9.4503255801E+00 -4.7174429819E+00
                      -1.5885739814E+00  8.2873869557E+00  3.3243089982E+00
                      -5.2952466047E-01  2.7624623186E+00  1.1081029994E+00
                       1.1824447248E+01  1.0230281954E+00  3.1001265925E+00
                      -1.1079106358E+00  1.0026821079E+01 -9.0302147405E+00
                       8.7810597088E+00  4.5018964418E+00 -7.0269023949E+00
                       1.9354769035E+00  6.5479528325E+00  1.0968142469E+00
             xred      4.7632750000E-01  1.4475525000E-01  3.3157225000E-01
                       8.1318300000E-01  6.4475525000E-01  1.6842775000E-01
                       1.8681700000E-01  3.5524475000E-01  8.3157225000E-01
                       5.2367250000E-01  8.5524475000E-01  6.6842775000E-01
                       3.4694469520E-18  7.5000000000E-01  7.5000000000E-01
                       3.4694469520E-18  2.5000000000E-01  2.5000000000E-01
                       9.3657100000E-01  9.2583000000E-02  8.4398800000E-01
                       6.3429000000E-02  9.0741700000E-01  1.5601200000E-01
                       7.5140500000E-01  4.0741700000E-01  3.4398800000E-01
                       2.4859500000E-01  5.9258300000E-01  6.5601200000E-01
            znucl       55.00000   14.00000   33.00000

 chkinp: Checking input parameters for consistency.

== DATASET  1 ==================================================================
-   mpi_nproc: 1, omp_nthreads: -1 (-1 if OMP is not activated)

--- !DatasetInfo
iteration_state: {dtset: 1, }
dimensions: {natom: 10, nkpt: 2, mband: 61, nsppol: 1, nspinor: 1, nspden: 1, mpw: 30414, }
cutoff_energies: {ecut:  42.0, pawecutdg:  -1.0, }
electrons: {nelect:   1.04000000E+02, charge:   0.00000000E+00, occopt:   1.00000000E+00, tsmear:   1.00000000E-02, }
meta: {optdriver: 1, rfelfd: 2, }
...

 Real(R)+Recip(G) space primitive vectors, cartesian coordinates (Bohr,Bohr^-1):
 R(1)= 12.8346353  0.0000000-10.3625001  G(1)=  0.0779142  0.0149350  0.0000000
 R(2)= -2.1180986 11.0498493-12.0633229  G(2)=  0.0000000  0.0904990  0.0000000
 R(3)=  0.0000000  0.0000000 16.4957349  G(3)=  0.0489451  0.0755639  0.0606217
 Unit cell volume ucvol=  2.3394381E+03 bohr^3
 Angles (23,13,12)=  1.36995448E+02  1.28916908E+02  6.89309860E+01 degrees

 getcut: wavevector=  0.0000  0.0000  0.0000  ngfft= 100 100 100
         ecut(hartree)=     42.000   => boxcut(ratio)=   2.07821

--- Pseudopotential description ------------------------------------------------
- pspini: atom type   1  psp file is /scratch/users/j/a/jabreu/pseudos/PBEsol/Cs.psp8
- pspatm: opening atomic psp file    /scratch/users/j/a/jabreu/pseudos/PBEsol/Cs.psp8
- Cs    ONCVPSP-3.3.0  r_core=   2.27353   1.85623   2.01788   1.90105
- 55.00000   9.00000    180112                znucl, zion, pspdat
    8 -116133    3    4       600   0.00000   pspcod,pspxc,lmax,lloc,mmax,r2well
    5.99000000000000    5.00000000000000    0.00000000000000   rchrg,fchrg,qchrg
     nproj     2     2     2     2
     extension_switch     1
  pspatm : epsatm=   22.12462445
         --- l  ekb(1:nproj) -->
             0    6.214110    0.767882
             1    6.311966    0.793598
             2    3.769790    0.913105
             3   -9.247129   -2.432478
 pspatm: atomic psp has been read  and splines computed

- pspini: atom type   2  psp file is /scratch/users/j/a/jabreu/pseudos/PBEsol/Si.psp8
- pspatm: opening atomic psp file    /scratch/users/j/a/jabreu/pseudos/PBEsol/Si.psp8
- Si    ONCVPSP-3.3.0  r_core=   1.60303   1.72197   1.91712
- 14.00000   4.00000    180112                znucl, zion, pspdat
    8 -116133    2    4       600   0.00000   pspcod,pspxc,lmax,lloc,mmax,r2well
    5.99000000000000    4.00000000000000    0.00000000000000   rchrg,fchrg,qchrg
     nproj     2     2     2
     extension_switch     1
  pspatm : epsatm=    7.86468782
         --- l  ekb(1:nproj) -->
             0    5.384426    0.843824
             1    2.663259    0.615854
             2   -2.267219   -0.458043
 pspatm: atomic psp has been read  and splines computed

- pspini: atom type   3  psp file is /scratch/users/j/a/jabreu/pseudos/PBEsol/As.psp8
- pspatm: opening atomic psp file    /scratch/users/j/a/jabreu/pseudos/PBEsol/As.psp8
- As    ONCVPSP-3.3.0  r_core=   1.76603   1.70395   1.80867
- 33.00000  15.00000    180112                znucl, zion, pspdat
    8 -116133    2    4       600   0.00000   pspcod,pspxc,lmax,lloc,mmax,r2well
    5.99000000000000    5.00000000000000    0.00000000000000   rchrg,fchrg,qchrg
     nproj     2     2     2
     extension_switch     1
  pspatm : epsatm=   28.79155382
         --- l  ekb(1:nproj) -->
             0    8.270760    0.868950
             1    4.919053    0.756587
             2  -10.048665   -4.076802
 pspatm: atomic psp has been read  and splines computed

   2.28169852E+04                                ecore*ucvol(ha*bohr**3)

 ==>  initialize data related to q vector <==

 The list of irreducible perturbations for this q vector is:
    1)    idir= 1    ipert=  11
    2)    idir= 2    ipert=  11
    3)    idir= 3    ipert=  11

 Perturbation wavevector (in red.coord.)   0.000000  0.000000  0.000000
 Perturbation : derivative vs k along direction   1

 dfpt_looppert : COMMENT -
  In a d/dk calculation, iscf is set to -3 automatically.
 The set of symmetries contains only one element for this perturbation.
 symkpt : not enough symmetry to change the number of k points.

 Initialisation of the first-order wave-functions :
  ireadwf=   0

--- !BeginCycle
[...]
 Expectation of eigenvalue derivatives (hartree) for nkpt=   2  k points:
  (in case of degenerate eigenvalues, averaged derivative)
 kpt#   1, nband= 61, wtk=  0.50000, kpt=  0.5000  0.5000 -0.5000 (reduced coord)
  -0.00000    0.00000   -0.00000    0.00000    0.00000   -0.00000   -0.00000    0.00000
   0.00000    0.00000   -0.00000   -0.00000    0.00000    0.00000   -0.00000   -0.00000
  -0.00000    0.00000   -0.00000    0.00000    0.00000    0.00000    0.00000    0.00000
  -0.00000   -0.00000    0.00000    0.00000    0.00000    0.00000   -0.00000   -0.00000
  -0.00000   -0.00000    0.00000    0.00000   -0.00000    0.00000    0.00000   -0.00000
   0.00000   -0.00000    0.00000    0.00000    0.00000    0.00000    0.00000   -0.00000
  -0.00000   -0.00000   -0.00000    0.00000    0.00000   -0.00000   -0.00000    0.00000
  -0.00000    0.00000    0.00000    0.00000    0.00000
 prteigrs : prtvol=0 or 1, do not print more k-points.

 Eight components of 2nd-order total energy (hartree) are
 1,2,3: 0th-order hamiltonian combined with 1st-order wavefunctions
     kin0=   6.19058873E+01 eigvalue=   5.66487383E+00  local=  -2.96274281E+01
 4,5,6: 1st-order hamiltonian combined with 1st and 0th-order wfs
     kin1=  -5.40059422E+01  Hartree=   0.00000000E+00     xc=   0.00000000E+00
 7,8,9: eventually, occupation + non-local contributions
    edocc=   5.94885842E+00     enl0=   7.75229980E+00   enl1=  -4.92830405E+01
 1-9 gives the relaxation energy (to be shifted if some occ is /=2.0)
   erelax=  -5.16444913E+01
  No Ewald or frozen-wf contrib.: the relaxation energy is the total one
 2DEtotal=   -0.5164449134E+02 Ha. Also 2DEtotal=   -0.140531807822E+04 eV
    (  non-var. 2DEtotal :   -5.1644491344E+01 Ha)

 Perturbation wavevector (in red.coord.)   0.000000  0.000000  0.000000
 Perturbation : derivative vs k along direction   2
 The set of symmetries contains only one element for this perturbation.
 symkpt : not enough symmetry to change the number of k points.

[...]

 Perturbation wavevector (in red.coord.)   0.000000  0.000000  0.000000
 Perturbation : derivative vs k along direction   3
 The set of symmetries contains only one element for this perturbation.
 symkpt : not enough symmetry to change the number of k points.

 Initialisation of the first-order wave-functions :
  ireadwf=   0

--- !BeginCycle
iteration_state: {dtset: 1, }
solver: {iscf: 7, nstep: 2000, nline: 4, wfoptalg: 0, }
tolerances: {tolwfr: 1.00E-20, }
...

     iter   2DEtotal(Ha)        deltaE(Ha) residm    vres2
-ETOT  1  -96.437122421004     -9.644E+01 1.158E-01 0.000E+00
 ETOT  2  -96.528771676363     -9.165E-02 6.747E-03 0.000E+00
 ETOT  3  -96.532150829112     -3.379E-03 1.019E-03 0.000E+00
 ETOT  4  -96.532562409026     -4.116E-04 1.882E-04 0.000E+00
 ETOT  5  -96.532616109090     -5.370E-05 4.382E-05 0.000E+00
 ETOT  6  -96.532623670407     -7.561E-06 1.109E-05 0.000E+00
 ETOT  7  -96.532624768623     -1.098E-06 2.547E-06 0.000E+00
 ETOT  8  -96.532624934971     -1.663E-07 6.648E-07 0.000E+00
 ETOT  9  -96.532624960819     -2.585E-08 1.538E-07 0.000E+00
 ETOT 10  -96.532624964974     -4.155E-09 4.029E-08 0.000E+00
 ETOT 11  -96.532624965657     -6.832E-10 9.420E-09 0.000E+00
 ETOT 12  -96.532624965773     -1.154E-10 2.477E-09 0.000E+00
 ETOT 13  -96.532624965793     -2.001E-11 6.296E-10 0.000E+00
 ETOT 14  -96.532624965796     -3.439E-12 1.615E-10 0.000E+00
 ETOT 15  -96.532624965797     -6.253E-13 4.468E-11 0.000E+00
 ETOT 16  -96.532624965797     -7.105E-14 1.153E-11 0.000E+00
 ETOT 17  -96.532624965797      5.684E-14 3.204E-12 0.000E+00
 ETOT 18  -96.532624965797     -1.137E-13 8.324E-13 0.000E+00
 ETOT 19  -96.532624965797      5.684E-14 2.313E-13 0.000E+00
 ETOT 20  -96.532624965797     -7.105E-14 6.048E-14 0.000E+00
 ETOT 21  -96.532624965797      1.137E-13 1.678E-14 0.000E+00
 ETOT 22  -96.532624965797     -4.263E-14 4.416E-15 0.000E+00
 ETOT 23  -96.532624965797     -4.263E-14 1.222E-15 0.000E+00
 ETOT 24  -96.532624965797      0.000E+00 3.236E-16 0.000E+00
 ETOT 25  -96.532624965797     -1.421E-14 8.938E-17 0.000E+00
 ETOT 26  -96.532624965797      1.421E-14 2.380E-17 0.000E+00
 ETOT 27  -96.532624965797     -1.421E-14 6.564E-18 0.000E+00
 ETOT 28  -96.532624965797      0.000E+00 1.755E-18 0.000E+00
 ETOT 29  -96.532624965797      0.000E+00 4.840E-19 0.000E+00
 ETOT 30  -96.532624965797      0.000E+00 1.299E-19 0.000E+00
 ETOT 31  -96.532624965797      0.000E+00 3.583E-20 0.000E+00
 ETOT 32  -96.532624965797      0.000E+00 9.984E-21 0.000E+00

 At SCF step   32   max residual=  9.98E-21 < tolwfr=  1.00E-20 =>converged.

 ----iterations are completed or convergence reached----

 dfpt_looppert: DFPT cycle converged with prtwf=-1. Will skip output of the 1st-order WFK file.
 dfpt_looppert : ek2=    9.6735923439E+01
          f-sum rule ratio=    1.0425022912E+00
 prteigrs : about to open file /scratch/users/j/a/jabreu/flow_simple_10atoms/flow/w496/t1/tmpdata/tmp_1WF1_EIG
 Expectation of eigenvalue derivatives (hartree) for nkpt=   2  k points:
  (in case of degenerate eigenvalues, averaged derivative)
 kpt#   1, nband= 61, wtk=  0.50000, kpt=  0.5000  0.5000 -0.5000 (reduced coord)
  -0.00000    0.00000   -0.00000    0.00000    0.00000   -0.00000    0.00000   -0.00000
   0.00000    0.00000   -0.00000   -0.00000   -0.00000   -0.00000   -0.00000   -0.00000
  -0.00000   -0.00000   -0.00000    0.00000   -0.00000    0.00000    0.00000    0.00000
  -0.00000   -0.00000   -0.00000    0.00000    0.00000    0.00000   -0.00000   -0.00000
  -0.00000   -0.00000    0.00000    0.00000   -0.00000    0.00000   -0.00000    0.00000
   0.00000   -0.00000    0.00000   -0.00000    0.00000   -0.00000    0.00000   -0.00000
  -0.00000    0.00000   -0.00000   -0.00000    0.00000    0.00000    0.00000    0.00000
  -0.00000   -0.00000   -0.00000   -0.00000    0.00000
 prteigrs : prtvol=0 or 1, do not print more k-points.

 Eight components of 2nd-order total energy (hartree) are
 1,2,3: 0th-order hamiltonian combined with 1st-order wavefunctions
     kin0=   1.08202089E+02 eigvalue=   1.17304678E+01  local=  -5.12748535E+01
 4,5,6: 1st-order hamiltonian combined with 1st and 0th-order wfs
     kin1=  -1.00847422E+02  Hartree=   0.00000000E+00     xc=   0.00000000E+00
 7,8,9: eventually, occupation + non-local contributions
    edocc=   1.38477566E+01     enl0=   1.40271655E+01   enl1=  -9.22178281E+01
 1-9 gives the relaxation energy (to be shifted if some occ is /=2.0)
   erelax=  -9.65326250E+01
  No Ewald or frozen-wf contrib.: the relaxation energy is the total one
 2DEtotal=   -0.9653262497E+02 Ha. Also 2DEtotal=   -0.262678631296E+04 eV
    (  non-var. 2DEtotal :   -9.6532624965E+01 Ha)

 CALCULATION OF EFFECTIVE MASSES
 NOTE : Additional infos (eff. mass eigenvalues, eigenvectors and, if degenerate, average mass) are available in stdout.

 K-point ( 0.500, 0.500,-0.500) | band =    52
 Effective mass tensor:
             -1.0912922241             -0.1176786443             -0.0537864714
             -0.1176786443             -0.4861610031              0.2462587080
             -0.0537864714              0.2462587080             -1.0044393753
 Effective mass tensor eigenvalues:
             -1.1169949458             -1.1000754153             -0.3648222414
 Angular average effective mass 1/(<1/m>)=  -0.6600153638
 Angular average effective mass for Frohlich model (<m**0.5>)**2=  -0.7241781944
 Effective masses along directions: (cart. coord. / red. coord. -> eff. mass)
    1:   1.000000  0.000000  0.000000 /   0.986655 -0.162828  0.000000 ->  -1.0481904373
    2:   0.000000  1.000000  0.000000 /   0.000000  1.000000  0.000000 ->  -0.4100510359
    3:   0.000000  0.000000  1.000000 /  -0.452250 -0.526479  0.719923 ->  -0.8676015707
    4:   0.577350  0.577350  0.577350 /   0.145665 -0.184521  0.971974 ->  -0.6072673062
    5:   0.000000  0.707107  0.707107 /  -0.531223 -0.051955  0.845637 ->  -0.4150642911
    6:   0.707107  0.000000  0.707107 /   0.112915 -0.647740  0.753447 ->  -1.0748779094
    7:   0.707107  0.707107  0.000000 /   0.820806  0.571207  0.000000 ->  -0.7126807751

 K-point (-0.233, 0.233, 0.233) | band =    53
 Effective mass tensor:
              0.8250557747              0.3161171713             -0.5350275984
              0.3161171713              0.6214097362             -0.6613618378
             -0.5350275984             -0.6613618378              1.6886077707
 Effective mass tensor eigenvalues:
              0.2955241072              0.5693108329              2.2702383416
 Angular average effective mass 1/(<1/m>)=   0.5375563007
 Angular average effective mass for Frohlich model (<m**0.5>)**2=   0.6318524260
 Effective masses along directions: (cart. coord. / red. coord. -> eff. mass)
    1:   1.000000  0.000000  0.000000 /   0.986655 -0.162828  0.000000 ->   0.6241956082
    2:   0.000000  1.000000  0.000000 /   0.000000  1.000000  0.000000 ->   0.3450557891
    3:   0.000000  0.000000  1.000000 /  -0.452250 -0.526479  0.719923 ->   0.9253546014
    4:   0.577350  0.577350  0.577350 /   0.145665 -0.184521  0.971974 ->   0.4134339901
    5:   0.000000  0.707107  0.707107 /  -0.531223 -0.051955  0.845637 ->   0.3361158241
    6:   0.707107  0.000000  0.707107 /   0.112915 -0.647740  0.753447 ->   0.6008001146
    7:   0.707107  0.707107  0.000000 /   0.820806  0.571207  0.000000 ->   0.5621318335

 END OF EFFECTIVE MASSES SECTION

 ---- first-order wavefunction calculations are completed ----

 Total localisation tensor (bohr^2) in cartesian coordinates
  WARNING : still subject to testing - especially symmetries.
      direction              matrix element
   alpha     beta       real part   imaginary part
     1        1       1.4100654015    0.0000000000
     1        2      -0.2923636390    0.0000000000
     1        3      -0.7740403483    0.0000000000
     2        1      -0.2923636390    0.0000000000
     2        2       1.5252236513    0.0000000000
     2        3      -1.6651146107    0.0000000000
     3        1      -0.7740403483    0.0000000000
     3        2      -1.6651146107    0.0000000000
     3        3       7.4750695806    0.0000000000

 respfn : d/dk was computed, but no 2DTE, so no DDB output.

== END DATASET(S) ==============================================================

 -outvars: echo values of variables after computation  --------
            acell      1.0000000000E+00  1.0000000000E+00  1.0000000000E+00 Bohr
              amu      1.32905430E+02  2.80855000E+01  7.49215900E+01
             ecut      4.20000000E+01 Hartree
           etotal     -9.6532624966E+01
            fcart      0.0000000000E+00  0.0000000000E+00  0.0000000000E+00
                       0.0000000000E+00  0.0000000000E+00  0.0000000000E+00
                       0.0000000000E+00  0.0000000000E+00  0.0000000000E+00
                       0.0000000000E+00  0.0000000000E+00  0.0000000000E+00
                       0.0000000000E+00  0.0000000000E+00  0.0000000000E+00
                       0.0000000000E+00  0.0000000000E+00  0.0000000000E+00
                       0.0000000000E+00  0.0000000000E+00  0.0000000000E+00
                       0.0000000000E+00  0.0000000000E+00  0.0000000000E+00
                       0.0000000000E+00  0.0000000000E+00  0.0000000000E+00
                       0.0000000000E+00  0.0000000000E+00  0.0000000000E+00
-          fftalg         512
           irdden           1
           irdwfk           1
              ixc     -116133
              kpt      5.00000000E-01  5.00000000E-01 -5.00000000E-01
                      -2.32875939E-01  2.32875939E-01  2.32875939E-01
           kptopt           0
P           mkmem           2
P          mkqmem           2
P          mk1mem           2
            natom          10
            nband          61
           nbdbuf           4
            ngfft         100     100     100
             nkpt           2
            nstep        2000
             nsym           8
           ntypat           3
              occ      2.000000  2.000000  2.000000  2.000000  2.000000  2.000000
                       2.000000  2.000000  2.000000  2.000000  2.000000  2.000000
                       2.000000  2.000000  2.000000  2.000000  2.000000  2.000000
                       2.000000  2.000000  2.000000  2.000000  2.000000  2.000000
                       2.000000  2.000000  2.000000  2.000000  2.000000  2.000000
                       2.000000  2.000000  2.000000  2.000000  2.000000  2.000000
                       2.000000  2.000000  2.000000  2.000000  2.000000  2.000000
                       2.000000  2.000000  2.000000  2.000000  2.000000  2.000000
                       2.000000  2.000000  2.000000  2.000000  0.000000  0.000000
                       0.000000  0.000000  0.000000  0.000000  0.000000  0.000000
                       0.000000
        optdriver           1
            prtwf          -1
            rfdir           1       1       1
           rfelfd           2
            rprim      1.2834635254E+01  0.0000000000E+00 -1.0362500146E+01
                      -2.1180986419E+00  1.1049849274E+01 -1.2063322947E+01
                       0.0000000000E+00  0.0000000000E+00  1.6495734945E+01
          spgroup          72
           strten      0.0000000000E+00  0.0000000000E+00  0.0000000000E+00
                       0.0000000000E+00  0.0000000000E+00  0.0000000000E+00
           symrel      1  0  0   0  1  0   0  0  1      -1  0  0   0 -1  0   0  0 -1
                       0  0  1  -1 -1 -1   1  0  0       0  0 -1   1  1  1  -1  0  0
                      -1 -1 -1   0  0  1   0  1  0       1  1  1   0  0 -1   0 -1  0
                       0  1  0   1  0  0  -1 -1 -1       0 -1  0  -1  0  0   1  1  1
            tnons      0.0000000  0.0000000  0.0000000     0.0000000 -0.0000000 -0.0000000
                       0.0000000  0.5000000  0.5000000     0.0000000  0.5000000  0.5000000
                       0.0000000  0.0000000  0.0000000     0.0000000 -0.0000000 -0.0000000
                       0.0000000  0.5000000  0.5000000     0.0000000  0.5000000  0.5000000
           tolwfr      1.00000000E-20
            typat      1  1  1  1  2  2  3  3  3  3
           useylm           1
              wtk        0.50000    0.50000
           xangst      3.0728705734E+00  8.4643148355E-01 -6.4170418399E-01
                       4.8002998015E+00  3.7700956807E+00 -7.1048179965E+00
                       8.7064712877E-01  2.0772327136E+00  3.9667505036E+00
                       2.5980763568E+00  5.0008969108E+00 -2.4963633089E+00
                      -8.4063714513E-01  4.3854962957E+00  1.7591485562E+00
                      -2.8021238171E-01  1.4618320986E+00  5.8638285205E-01
                       6.2572279879E+00  5.4136320473E-01  1.6405163365E+00
                      -5.8628105762E-01  5.3059651896E+00 -4.7785838293E+00
                       4.6467366652E+00  2.3823009924E+00 -3.7184765944E+00
                       1.0242102651E+00  3.4650274019E+00  5.8040910152E-01
            xcart      5.8068838256E+00  1.5995236942E+00 -1.2126451661E+00
                       9.0712519805E+00  7.1244483313E+00 -1.3426160237E+01
                       1.6452846318E+00  3.9254009430E+00  7.4960720893E+00
                       4.9096527867E+00  9.4503255801E+00 -4.7174429819E+00
                      -1.5885739814E+00  8.2873869557E+00  3.3243089982E+00
                      -5.2952466047E-01  2.7624623186E+00  1.1081029994E+00
                       1.1824447248E+01  1.0230281954E+00  3.1001265925E+00
                      -1.1079106358E+00  1.0026821079E+01 -9.0302147405E+00
                       8.7810597088E+00  4.5018964418E+00 -7.0269023949E+00
                       1.9354769035E+00  6.5479528325E+00  1.0968142469E+00
             xred      4.7632750000E-01  1.4475525000E-01  3.3157225000E-01
                       8.1318300000E-01  6.4475525000E-01  1.6842775000E-01
                       1.8681700000E-01  3.5524475000E-01  8.3157225000E-01
                       5.2367250000E-01  8.5524475000E-01  6.6842775000E-01
                       3.4694469520E-18  7.5000000000E-01  7.5000000000E-01
                       3.4694469520E-18  2.5000000000E-01  2.5000000000E-01
                       9.3657100000E-01  9.2583000000E-02  8.4398800000E-01
                       6.3429000000E-02  9.0741700000E-01  1.5601200000E-01
                       7.5140500000E-01  4.0741700000E-01  3.4398800000E-01
                       2.4859500000E-01  5.9258300000E-01  6.5601200000E-01
            znucl       55.00000   14.00000   33.00000

- Timing analysis has been suppressed with timopt=0

 Suggested references for the acknowledgment of ABINIT usage.

 Calculation completed.
.Delivered   2 WARNINGs and   7 COMMENTs to log file.