.Version 9.5.1 of ABINIT

 ABINIT is a project of the Universite Catholique de Louvain,
 Corning Inc. and other collaborators, see ~abinit/doc/developers/contributors.txt .
 acknowledgments of the ABINIT effort.

.Starting date : Tue 27 Apr 2021.
- ( at 18h32 )

- input  file    -> /scratch/users/j/a/jabreu/flow_simple_4atoms/flow/w184/t1/run.abi
- output file    -> /scratch/users/j/a/jabreu/flow_simple_4atoms/flow/w184/t1/run.abo
- root for input  files -> /scratch/users/j/a/jabreu/flow_simple_4atoms/flow/w184/t1/indata/in
- root for output files -> /scratch/users/j/a/jabreu/flow_simple_4atoms/flow/w184/t1/outdata/out

 Symmetries : space group P6_3 m c (#186); Bravais hP (primitive hexag.)
     intxc =       0      iscf =       7    lmnmax =      18     lnmax =       6
     mgfft =      80  mpssoang =       3    mqgrid =    3761     natom =       4
  nloc_mem =       1    nspden =       1   nspinor =       1    nsppol =       1
      nsym =      12    n1xccc =    2501    ntypat =       2    occopt =       1
   xclevel =       2
-    mband =          19        mffmem =           1         mkmem =           1
-   mkqmem =           1        mk1mem =           1           mpw =        9211
      nfft =      184320          nkpt =           1
  Rough estimation (10% accuracy) of disk space for files :

------------- Echo of variables that govern the present computation ------------
-
- outvars: echo of selected default values
-   iomode0 =  0 , fftalg0 =512 , wfoptalg0 =  0
-
- outvars: echo of global parameters not present in the input file
-  max_nthreads =    0
-
 -outvars: echo values of preprocessed input variables --------
            acell      1.0000000000E+00  1.0000000000E+00  1.0000000000E+00 Bohr
              amu      6.94100000E+00  1.26904470E+02
             ecut      3.70000000E+01 Hartree
-          fftalg         512
           irdden           1
           irdwfk           1
           istwfk        1
              ixc     -116133
           kptopt           0
P           mkmem           1
P          mkqmem           1
P          mk1mem           1
            natom           4
            nband          19
           nbdbuf           4
            ngfft          48      48      80
             nkpt           1
            nstep         100
             nsym          12
           ntypat           2
              occ      2.000000  2.000000  2.000000  2.000000  2.000000  2.000000
                       2.000000  2.000000  2.000000  2.000000  0.000000  0.000000
                       0.000000  0.000000  0.000000  0.000000  0.000000  0.000000
                       0.000000
        optdriver           1
            prtwf          -1
            rfdir           1       1       1
           rfelfd           2
            rprim      8.4985472302E+00  0.0000000000E+00  0.0000000000E+00
                      -4.2492736151E+00  7.3599577966E+00  0.0000000000E+00
                       0.0000000000E+00  0.0000000000E+00  1.3733535346E+01
          spgroup         186
           symrel      1  0  0   0  1  0   0  0  1       0  1  0   1  0  0   0  0  1
                       1  1  0  -1  0  0   0  0  1      -1  0  0   1  1  0   0  0  1
                       0  1  0  -1 -1  0   0  0  1      -1 -1  0   0  1  0   0  0  1
                      -1  0  0   0 -1  0   0  0  1       0 -1  0  -1  0  0   0  0  1
                      -1 -1  0   1  0  0   0  0  1       1  0  0  -1 -1  0   0  0  1
                       0 -1  0   1  1  0   0  0  1       1  1  0   0 -1  0   0  0  1
            tnons      0.0000000  0.0000000  0.0000000    -0.0000000  0.0000000  0.5000000
                       0.0000000  0.0000000  0.5000000    -0.0000000  0.0000000  0.0000000
                       0.0000000  0.0000000  0.0000000    -0.0000000 -0.0000000  0.5000000
                      -0.0000000  0.0000000  0.5000000     0.0000000  0.0000000  0.0000000
                      -0.0000000  0.0000000  0.0000000     0.0000000  0.0000000  0.5000000
                      -0.0000000 -0.0000000  0.5000000     0.0000000  0.0000000  0.0000000
           tolwfr      1.00000000E-20
            typat      1  1  2  2
           useylm           1
           xangst     -7.0500566530E-16  2.5964812814E+00  7.2560130919E+00
                       2.2486187502E+00  1.2982406407E+00  3.6222761428E+00
                      -7.0500566530E-16  2.5964812814E+00  2.7367635182E+00
                       2.2486187502E+00  1.2982406407E+00  6.3705004673E+00
            xcart     -1.3322676296E-15  4.9066385311E+00  1.3711877560E+01
                       4.2492736151E+00  2.4533192655E+00  6.8451098876E+00
                      -1.3322676296E-15  4.9066385311E+00  5.1717335398E+00
                       4.2492736151E+00  2.4533192655E+00  1.2038501213E+01
             xred      3.3333333333E-01  6.6666666667E-01  9.9842300000E-01
                       6.6666666667E-01  3.3333333333E-01  4.9842300000E-01
                       3.3333333333E-01  6.6666666667E-01  3.7657700000E-01
                       6.6666666667E-01  3.3333333333E-01  8.7657700000E-01
            znucl        3.00000   53.00000

 chkinp: Checking input parameters for consistency.

== DATASET  1 ==================================================================
-   mpi_nproc: 1, omp_nthreads: -1 (-1 if OMP is not activated)

--- !DatasetInfo
iteration_state: {dtset: 1, }
dimensions: {natom: 4, nkpt: 1, mband: 19, nsppol: 1, nspinor: 1, nspden: 1, mpw: 9211, }
cutoff_energies: {ecut:  37.0, pawecutdg:  -1.0, }
electrons: {nelect:   2.00000000E+01, charge:   0.00000000E+00, occopt:   1.00000000E+00, tsmear:   1.00000000E-02, }
meta: {optdriver: 1, rfelfd: 2, }
...

 Real(R)+Recip(G) space primitive vectors, cartesian coordinates (Bohr,Bohr^-1):
 R(1)=  8.4985472  0.0000000  0.0000000  G(1)=  0.1176672  0.0679352  0.0000000
 R(2)= -4.2492736  7.3599578  0.0000000  G(2)=  0.0000000  0.1358703  0.0000000
 R(3)=  0.0000000  0.0000000 13.7335353  G(3)=  0.0000000  0.0000000  0.0728145
 Unit cell volume ucvol=  8.5901820E+02 bohr^3
 Angles (23,13,12)=  9.00000000E+01  9.00000000E+01  1.20000000E+02 degrees

 getcut: wavevector=  0.0000  0.0000  0.0000  ngfft=  48  48  80
         ecut(hartree)=     37.000   => boxcut(ratio)=   2.06267

--- Pseudopotential description ------------------------------------------------
- pspini: atom type   1  psp file is /scratch/users/j/a/jabreu/pseudos/PBEsol/Li.psp8
- pspatm: opening atomic psp file    /scratch/users/j/a/jabreu/pseudos/PBEsol/Li.psp8
- Li    ONCVPSP-3.3.0  r_core=   1.40824   1.10935
-  3.00000   3.00000    180112                znucl, zion, pspdat
    8 -116133    1    4       400   0.00000   pspcod,pspxc,lmax,lloc,mmax,r2well
    3.99000000000000    0.00000000000000    0.00000000000000   rchrg,fchrg,qchrg
     nproj     2     2
     extension_switch     1
  pspatm : epsatm=    2.60859637
         --- l  ekb(1:nproj) -->
             0   -4.855856   -1.482423
             1   -2.171544   -0.427615
 pspatm: atomic psp has been read  and splines computed

- pspini: atom type   2  psp file is /scratch/users/j/a/jabreu/pseudos/PBEsol/I.psp8
- pspatm: opening atomic psp file    /scratch/users/j/a/jabreu/pseudos/PBEsol/I.psp8
- I     ONCVPSP-3.3.0  r_core=   2.02042   2.17032   2.27639
- 53.00000   7.00000    180112                znucl, zion, pspdat
    8 -116133    2    4       600   0.00000   pspcod,pspxc,lmax,lloc,mmax,r2well
    5.99000000000000    4.00000000000000    0.00000000000000   rchrg,fchrg,qchrg
     nproj     2     2     2
     extension_switch     1
  pspatm : epsatm=   18.14229533
         --- l  ekb(1:nproj) -->
             0    6.015861    0.935228
             1    4.063749    0.754139
             2    4.149534    0.722940
 pspatm: atomic psp has been read  and splines computed

   8.30035668E+02                                ecore*ucvol(ha*bohr**3)

-inwffil : will read wavefunctions from disk file /scratch/users/j/a/jabreu/flow_simple_4atoms/flow/w184/t1/indata/in_WFK

 ==>  initialize data related to q vector <==

 The list of irreducible perturbations for this q vector is:
    1)    idir= 1    ipert=   5
    2)    idir= 2    ipert=   5
    3)    idir= 3    ipert=   5

 Perturbation wavevector (in red.coord.)   0.000000  0.000000  0.000000
 Perturbation : derivative vs k along direction   1

 dfpt_looppert : COMMENT -
  In a d/dk calculation, iscf is set to -3 automatically.
 The set of symmetries contains only one element for this perturbation.
 symkpt : not enough symmetry to change the number of k points.

[...]

 Initialisation of the first-order wave-functions :
  ireadwf=   0

--- !BeginCycle
iteration_state: {dtset: 1, }
solver: {iscf: 7, nstep: 100, nline: 4, wfoptalg: 0, }
tolerances: {tolwfr: 1.00E-20, }
...

     iter   2DEtotal(Ha)        deltaE(Ha) residm    vres2
-ETOT  1  -24.238388668214     -2.424E+01 2.297E-02 0.000E+00
 ETOT  2  -24.240119097994     -1.730E-03 1.682E-05 0.000E+00
 ETOT  3  -24.240119677031     -5.790E-07 6.496E-09 0.000E+00
 ETOT  4  -24.240119677551     -5.193E-10 1.011E-11 0.000E+00
 ETOT  5  -24.240119677551     -3.553E-14 7.391E-14 0.000E+00
 ETOT  6  -24.240119677551     -6.395E-14 7.996E-16 0.000E+00
 ETOT  7  -24.240119677551      6.395E-14 6.470E-18 0.000E+00
 ETOT  8  -24.240119677551     -3.553E-15 7.713E-20 0.000E+00
 ETOT  9  -24.240119677551     -3.553E-15 9.692E-21 0.000E+00

 At SCF step    9   max residual=  9.69E-21 < tolwfr=  1.00E-20 =>converged.

 ----iterations are completed or convergence reached----

 dfpt_looppert: DFPT cycle converged with prtwf=-1. Will skip output of the 1st-order WFK file.
 dfpt_looppert : ek2=    2.9152048647E+01
          f-sum rule ratio=    1.4768161050E+00
 prteigrs : about to open file /scratch/users/j/a/jabreu/flow_simple_4atoms/flow/w184/t1/tmpdata/tmp_1WF1_EIG
 Expectation of eigenvalue derivatives (hartree) for nkpt=   1  k points:
  (in case of degenerate eigenvalues, averaged derivative)
 kpt#   1, nband= 19, wtk=  1.00000, kpt=  0.0000  0.0000  0.0000 (reduced coord)
   0.00000    0.00000   -0.00000    0.00000   -0.00000   -0.00000   -0.00000    0.00000
   0.00000   -0.00000   -0.00000   -0.00000   -0.00000   -0.00000   -0.00000    0.00000
   0.00000    0.00000   -0.00008

 Eight components of 2nd-order total energy (hartree) are
 1,2,3: 0th-order hamiltonian combined with 1st-order wavefunctions
     kin0=   7.90115114E+00 eigvalue=   1.53288033E+00  local=  -3.81884690E+00
 4,5,6: 1st-order hamiltonian combined with 1st and 0th-order wfs
     kin1=  -4.30522149E+01  Hartree=   0.00000000E+00     xc=   0.00000000E+00
 7,8,9: eventually, occupation + non-local contributions
    edocc=   1.77227669E+01     enl0=   9.02168168E-01   enl1=  -5.42802442E+00
 1-9 gives the relaxation energy (to be shifted if some occ is /=2.0)
   erelax=  -2.42401197E+01
  No Ewald or frozen-wf contrib.: the relaxation energy is the total one
 2DEtotal=   -0.2424011968E+02 Ha. Also 2DEtotal=   -0.659607201358E+03 eV
    (  non-var. 2DEtotal :   -2.4240119678E+01 Ha)

 Perturbation wavevector (in red.coord.)   0.000000  0.000000  0.000000
 Perturbation : derivative vs k along direction   2
 The set of symmetries contains only one element for this perturbation.
 symkpt : not enough symmetry to change the number of k points.

[...]

 Perturbation wavevector (in red.coord.)   0.000000  0.000000  0.000000
 Perturbation : derivative vs k along direction   3
 The set of symmetries contains only one element for this perturbation.
 symkpt : not enough symmetry to change the number of k points.

-inwffil : will read wavefunctions from disk file /scratch/users/j/a/jabreu/flow_simple_4atoms/flow/w184/t1/indata/in_WFK

 Initialisation of the first-order wave-functions :
  ireadwf=   0

--- !BeginCycle
iteration_state: {dtset: 1, }
solver: {iscf: 7, nstep: 100, nline: 4, wfoptalg: 0, }
tolerances: {tolwfr: 1.00E-20, }
...

     iter   2DEtotal(Ha)        deltaE(Ha) residm    vres2
-ETOT  1  -5.5124394607758     -5.512E+00 6.780E-03 0.000E+00
 ETOT  2  -5.5130861465828     -6.467E-04 3.144E-06 0.000E+00
 ETOT  3  -5.5130863225049     -1.759E-07 4.414E-09 0.000E+00
 ETOT  4  -5.5130863225977     -9.282E-11 3.691E-12 0.000E+00
 ETOT  5  -5.5130863225978     -4.885E-14 5.521E-14 0.000E+00
 ETOT  6  -5.5130863225978     -8.882E-16 1.017E-16 0.000E+00
 ETOT  7  -5.5130863225978      8.882E-16 1.881E-18 0.000E+00
 ETOT  8  -5.5130863225978      2.665E-15 6.000E-21 0.000E+00

 At SCF step    8   max residual=  6.00E-21 < tolwfr=  1.00E-20 =>converged.

 ----iterations are completed or convergence reached----

 dfpt_looppert: DFPT cycle converged with prtwf=-1. Will skip output of the 1st-order WFK file.
 dfpt_looppert : ek2=    8.3724975454E+00
          f-sum rule ratio=    1.1541636263E+00
 prteigrs : about to open file /scratch/users/j/a/jabreu/flow_simple_4atoms/flow/w184/t1/tmpdata/tmp_1WF1_EIG
 Expectation of eigenvalue derivatives (hartree) for nkpt=   1  k points:
  (in case of degenerate eigenvalues, averaged derivative)
 kpt#   1, nband= 19, wtk=  1.00000, kpt=  0.0000  0.0000  0.0000 (reduced coord)
   0.00000    0.00000   -0.00000   -0.00000   -0.00000   -0.00000   -0.00000    0.00000
   0.00000   -0.00000   -0.00000    0.00000   -0.00000   -0.00000   -0.00000   -0.00000
  -0.00000    0.00000   -0.00309

 Eight components of 2nd-order total energy (hartree) are
 1,2,3: 0th-order hamiltonian combined with 1st-order wavefunctions
     kin0=   3.53424220E+00 eigvalue=   5.37200750E-01  local=  -1.95337311E+00
 4,5,6: 1st-order hamiltonian combined with 1st and 0th-order wfs
     kin1=  -9.66323213E+00  Hartree=   0.00000000E+00     xc=   0.00000000E+00
 7,8,9: eventually, occupation + non-local contributions
    edocc=   2.86882987E+00     enl0=   5.26186613E-01   enl1=  -1.36294052E+00
 1-9 gives the relaxation energy (to be shifted if some occ is /=2.0)
   erelax=  -5.51308632E+00
  No Ewald or frozen-wf contrib.: the relaxation energy is the total one
 2DEtotal=   -0.5513086323E+01 Ha. Also 2DEtotal=   -0.150018708178E+03 eV
    (  non-var. 2DEtotal :   -5.5130863225E+00 Ha)

 CALCULATION OF EFFECTIVE MASSES
 NOTE : Additional infos (eff. mass eigenvalues, eigenvectors and, if degenerate, average mass) are available in stdout.

 K-point ( 0.000, 0.000, 0.000) | band =    10
 Effective mass tensor:
             -2.7759739693              0.0097359018              0.0000404858
              0.0097359018             -2.7944706590             -0.0000182531
              0.0000404858             -0.0000182531             -0.3275216159
 Effective mass tensor eigenvalues:
             -2.7986506305             -2.7717939987             -0.3275216151
 Angular average effective mass 1/(<1/m>)=  -0.7954762168
 Angular average effective mass for Frohlich model (<m**0.5>)**2=  -1.1142344441
 Effective masses along directions: (cart. coord. / red. coord. -> eff. mass)
    1:   1.000000  0.000000  0.000000 /   0.894427 -0.447214  0.000000 ->  -2.7759400445
    2:   0.000000  1.000000  0.000000 /   0.000000  1.000000  0.000000 ->  -2.7944365123
    3:   0.000000  0.000000  1.000000 /   0.000000  0.000000  1.000000 ->  -0.3275216152
    4:   0.577350  0.577350  0.577350 /   0.516716  0.189131  0.835006 ->  -0.7949367195
    5:   0.000000  0.707107  0.707107 /   0.000000  0.472356  0.881408 ->  -0.5863300799
    6:   0.707107  0.000000  0.707107 /   0.508894 -0.254447  0.822365 ->  -0.5858984473
    7:   0.707107  0.707107  0.000000 /   0.939071  0.343724  0.000000 ->  -2.7754558094

 K-point ( 0.000, 0.000, 0.000) | band =    11
 Effective mass tensor:
              0.3336965454              0.0000020096             -0.0000002266
              0.0000020096              0.3336895865              0.0000005861
             -0.0000002266              0.0000005861              0.3263204602
 Effective mass tensor eigenvalues:
              0.3263204602              0.3336890479              0.3336970840
 Angular average effective mass 1/(<1/m>)=   0.3311987917
 Angular average effective mass for Frohlich model (<m**0.5>)**2=   0.3312098559
 Effective masses along directions: (cart. coord. / red. coord. -> eff. mass)
    1:   1.000000  0.000000  0.000000 /   0.894427 -0.447214  0.000000 ->   0.3336965453
    2:   0.000000  1.000000  0.000000 /   0.000000  1.000000  0.000000 ->   0.3336895865
    3:   0.000000  0.000000  1.000000 /   0.000000  0.000000  1.000000 ->   0.3263204602
    4:   0.577350  0.577350  0.577350 /   0.516716  0.189131  0.835006 ->   0.3312003529
    5:   0.000000  0.707107  0.707107 /   0.000000  0.472356  0.881408 ->   0.3299644706
    6:   0.707107  0.000000  0.707107 /   0.508894 -0.254447  0.822365 ->   0.3299670601
    7:   0.707107  0.707107  0.000000 /   0.939071  0.343724  0.000000 ->   0.3336950755

 END OF EFFECTIVE MASSES SECTION

 ---- first-order wavefunction calculations are completed ----

 Total localisation tensor (bohr^2) in cartesian coordinates
  WARNING : still subject to testing - especially symmetries.
      direction              matrix element
   alpha     beta       real part   imaginary part
     1        1       4.5494813293    0.0000000000
     1        2      -1.5755770556    0.0000000000
     1        3       0.0000000000    0.0000000000
     2        1      -1.5755770556    0.0000000000
     2        2       2.7289795116    0.0000000000
     2        3       0.0000000000    0.0000000000
     3        1       0.0000000000    0.0000000000
     3        2       0.0000000000    0.0000000000
     3        3       1.9278004567    0.0000000000

 respfn : d/dk was computed, but no 2DTE, so no DDB output.

== END DATASET(S) ==============================================================

 -outvars: echo values of variables after computation  --------
            acell      1.0000000000E+00  1.0000000000E+00  1.0000000000E+00 Bohr
              amu      6.94100000E+00  1.26904470E+02
             ecut      3.70000000E+01 Hartree
           etotal     -5.5130863226E+00
            fcart      0.0000000000E+00  0.0000000000E+00  0.0000000000E+00
                       0.0000000000E+00  0.0000000000E+00  0.0000000000E+00
                       0.0000000000E+00  0.0000000000E+00  0.0000000000E+00
                       0.0000000000E+00  0.0000000000E+00  0.0000000000E+00
-          fftalg         512
           irdden           1
           irdwfk           1
           istwfk        1
              ixc     -116133
           kptopt           0
P           mkmem           1
P          mkqmem           1
P          mk1mem           1
            natom           4
            nband          19
           nbdbuf           4
            ngfft          48      48      80
             nkpt           1
            nstep         100
             nsym          12
           ntypat           2
              occ      2.000000  2.000000  2.000000  2.000000  2.000000  2.000000
                       2.000000  2.000000  2.000000  2.000000  0.000000  0.000000
                       0.000000  0.000000  0.000000  0.000000  0.000000  0.000000
                       0.000000
        optdriver           1
            prtwf          -1
            rfdir           1       1       1
           rfelfd           2
            rprim      8.4985472302E+00  0.0000000000E+00  0.0000000000E+00
                      -4.2492736151E+00  7.3599577966E+00  0.0000000000E+00
                       0.0000000000E+00  0.0000000000E+00  1.3733535346E+01
          spgroup         186
           strten      0.0000000000E+00  0.0000000000E+00  0.0000000000E+00
                       0.0000000000E+00  0.0000000000E+00  0.0000000000E+00
           symrel      1  0  0   0  1  0   0  0  1       0  1  0   1  0  0   0  0  1
                       1  1  0  -1  0  0   0  0  1      -1  0  0   1  1  0   0  0  1
                       0  1  0  -1 -1  0   0  0  1      -1 -1  0   0  1  0   0  0  1
                      -1  0  0   0 -1  0   0  0  1       0 -1  0  -1  0  0   0  0  1
                      -1 -1  0   1  0  0   0  0  1       1  0  0  -1 -1  0   0  0  1
                       0 -1  0   1  1  0   0  0  1       1  1  0   0 -1  0   0  0  1
            tnons      0.0000000  0.0000000  0.0000000    -0.0000000  0.0000000  0.5000000
                       0.0000000  0.0000000  0.5000000    -0.0000000  0.0000000  0.0000000
                       0.0000000  0.0000000  0.0000000    -0.0000000 -0.0000000  0.5000000
                      -0.0000000  0.0000000  0.5000000     0.0000000  0.0000000  0.0000000
                      -0.0000000  0.0000000  0.0000000     0.0000000  0.0000000  0.5000000
                      -0.0000000 -0.0000000  0.5000000     0.0000000  0.0000000  0.0000000
           tolwfr      1.00000000E-20
            typat      1  1  2  2
           useylm           1
           xangst     -7.0500566530E-16  2.5964812814E+00  7.2560130919E+00
                       2.2486187502E+00  1.2982406407E+00  3.6222761428E+00
                      -7.0500566530E-16  2.5964812814E+00  2.7367635182E+00
                       2.2486187502E+00  1.2982406407E+00  6.3705004673E+00
            xcart     -1.3322676296E-15  4.9066385311E+00  1.3711877560E+01
                       4.2492736151E+00  2.4533192655E+00  6.8451098876E+00
                      -1.3322676296E-15  4.9066385311E+00  5.1717335398E+00
                       4.2492736151E+00  2.4533192655E+00  1.2038501213E+01
             xred      3.3333333333E-01  6.6666666667E-01  9.9842300000E-01
                       6.6666666667E-01  3.3333333333E-01  4.9842300000E-01
                       3.3333333333E-01  6.6666666667E-01  3.7657700000E-01
                       6.6666666667E-01  3.3333333333E-01  8.7657700000E-01
            znucl        3.00000   53.00000

- Timing analysis has been suppressed with timopt=0

 Suggested references for the acknowledgment of ABINIT usage.

 Calculation completed.
.Delivered   6 WARNINGs and   5 COMMENTs to log file.