.Version 9.5.1 of ABINIT

 ABINIT is a project of the Universite Catholique de Louvain,
 Corning Inc. and other collaborators, see ~abinit/doc/developers/contributors.txt .
 acknowledgments of the ABINIT effort.

.Starting date : Wed  5 May 2021.
- ( at 19h45 )

- input  file    -> /scratch/users/j/a/jabreu/flow_simple_7atoms/flow/w136/t1/run.abi
- output file    -> /scratch/users/j/a/jabreu/flow_simple_7atoms/flow/w136/t1/run.abo
- root for input  files -> /scratch/users/j/a/jabreu/flow_simple_7atoms/flow/w136/t1/indata/in
- root for output files -> /scratch/users/j/a/jabreu/flow_simple_7atoms/flow/w136/t1/outdata/out

 Symmetries : space group P-4 2 m (#111); Bravais tP (primitive tetrag.)
     intxc =       0      iscf =       7    lmnmax =      25     lnmax =       7
     mgfft =      72  mpssoang =       4    mqgrid =    3545     natom =       7
  nloc_mem =       1    nspden =       1   nspinor =       1    nsppol =       1
      nsym =       8    n1xccc =    2501    ntypat =       3    occopt =       1
   xclevel =       2
-    mband =          52        mffmem =           1         mkmem =           1
-   mkqmem =           1        mk1mem =           1           mpw =       22991
      nfft =      373248          nkpt =           1
  Rough estimation (10% accuracy) of disk space for files :

------------- Echo of variables that govern the present computation ------------
-
- outvars: echo of selected default values
-   iomode0 =  0 , fftalg0 =512 , wfoptalg0 =  0
-
- outvars: echo of global parameters not present in the input file
-  max_nthreads =    0
-
 -outvars: echo values of preprocessed input variables --------
            acell      1.0000000000E+00  1.0000000000E+00  1.0000000000E+00 Bohr
              amu      1.07868200E+02  2.00590000E+02  1.26904470E+02
             ecut      4.30000000E+01 Hartree
-          fftalg         512
           irdden           1
           irdwfk           1
           istwfk        1
              ixc     -116133
           kptopt           0
P           mkmem           1
P          mkqmem           1
P          mk1mem           1
            natom           7
            nband          52
           nbdbuf           4
            ngfft          72      72      72
             nkpt           1
            nstep        2000
             nsym           8
           ntypat           3
              occ      2.000000  2.000000  2.000000  2.000000  2.000000  2.000000
                       2.000000  2.000000  2.000000  2.000000  2.000000  2.000000
                       2.000000  2.000000  2.000000  2.000000  2.000000  2.000000
                       2.000000  2.000000  2.000000  2.000000  2.000000  2.000000
                       2.000000  2.000000  2.000000  2.000000  2.000000  2.000000
                       2.000000  2.000000  2.000000  2.000000  2.000000  2.000000
                       2.000000  2.000000  2.000000  2.000000  2.000000  2.000000
                       2.000000  0.000000  0.000000  0.000000  0.000000  0.000000
                       0.000000  0.000000  0.000000  0.000000
        optdriver           1
            prtwf          -1
            rfdir           1       1       1
           rfelfd           2
            rprim      1.2007802999E+01  0.0000000000E+00  0.0000000000E+00
                       0.0000000000E+00  1.2007802999E+01  0.0000000000E+00
                       0.0000000000E+00  0.0000000000E+00  1.1872314454E+01
          spgroup         111
           symrel      1  0  0   0  1  0   0  0  1      -1  0  0   0  1  0   0  0 -1
                      -1  0  0   0 -1  0   0  0  1       1  0  0   0 -1  0   0  0 -1
                       0  1  0   1  0  0   0  0  1       0 -1  0   1  0  0   0  0 -1
                       0 -1  0  -1  0  0   0  0  1       0  1  0  -1  0  0   0  0 -1
           tolwfr      1.00000000E-20
            typat      1  1  2  3  3  3  3
           useylm           1
           xangst      0.0000000000E+00  3.1771278361E+00  3.1412791113E+00
                       3.1771278361E+00  0.0000000000E+00  3.1412791113E+00
                       0.0000000000E+00  0.0000000000E+00  0.0000000000E+00
                       4.6610244547E+00  4.6610244547E+00  1.4904929604E+00
                       1.6932312175E+00  4.6610244547E+00  4.7920652621E+00
                       1.6932312175E+00  1.6932312175E+00  1.4904929604E+00
                       4.6610244547E+00  1.6932312175E+00  4.7920652621E+00
            xcart      0.0000000000E+00  6.0039014994E+00  5.9361572272E+00
                       6.0039014994E+00  0.0000000000E+00  5.9361572272E+00
                       0.0000000000E+00  0.0000000000E+00  0.0000000000E+00
                       8.8080597181E+00  8.8080597181E+00  2.8166234981E+00
                       3.1997432807E+00  8.8080597181E+00  9.0556909564E+00
                       3.1997432807E+00  3.1997432807E+00  2.8166234981E+00
                       8.8080597181E+00  3.1997432807E+00  9.0556909564E+00
             xred      0.0000000000E+00  5.0000000000E-01  5.0000000000E-01
                       5.0000000000E-01  0.0000000000E+00  5.0000000000E-01
                       0.0000000000E+00  0.0000000000E+00  0.0000000000E+00
                       7.3352800000E-01  7.3352800000E-01  2.3724300000E-01
                       2.6647200000E-01  7.3352800000E-01  7.6275700000E-01
                       2.6647200000E-01  2.6647200000E-01  2.3724300000E-01
                       7.3352800000E-01  2.6647200000E-01  7.6275700000E-01
            znucl       47.00000   80.00000   53.00000

 chkinp: Checking input parameters for consistency.

== DATASET  1 ==================================================================
-   mpi_nproc: 1, omp_nthreads: -1 (-1 if OMP is not activated)

--- !DatasetInfo
iteration_state: {dtset: 1, }
dimensions: {natom: 7, nkpt: 1, mband: 52, nsppol: 1, nspinor: 1, nspden: 1, mpw: 22991, }
cutoff_energies: {ecut:  43.0, pawecutdg:  -1.0, }
electrons: {nelect:   8.60000000E+01, charge:   0.00000000E+00, occopt:   1.00000000E+00, tsmear:   1.00000000E-02, }
meta: {optdriver: 1, rfelfd: 2, }
...

 Real(R)+Recip(G) space primitive vectors, cartesian coordinates (Bohr,Bohr^-1):
 R(1)= 12.0078030  0.0000000  0.0000000  G(1)=  0.0832792  0.0000000  0.0000000
 R(2)=  0.0000000 12.0078030  0.0000000  G(2)=  0.0000000  0.0832792  0.0000000
 R(3)=  0.0000000  0.0000000 11.8723145  G(3)=  0.0000000  0.0000000  0.0842296
 Unit cell volume ucvol=  1.7118374E+03 bohr^3
 Angles (23,13,12)=  9.00000000E+01  9.00000000E+01  9.00000000E+01 degrees

 getcut: wavevector=  0.0000  0.0000  0.0000  ngfft=  72  72  72
         ecut(hartree)=     43.000   => boxcut(ratio)=   2.03128

--- Pseudopotential description ------------------------------------------------
- pspini: atom type   1  psp file is /scratch/users/j/a/jabreu/pseudos/PBEsol/Ag.psp8
- pspatm: opening atomic psp file    /scratch/users/j/a/jabreu/pseudos/PBEsol/Ag.psp8
- Ag    ONCVPSP-3.3.0  r_core=   1.41384   1.46535   1.61207
- 47.00000  19.00000    180112                znucl, zion, pspdat
    8 -116133    2    4       600   0.00000   pspcod,pspxc,lmax,lloc,mmax,r2well
    5.99000000000000    7.00000000000000    0.00000000000000   rchrg,fchrg,qchrg
     nproj     2     2     2
     extension_switch     1
  pspatm : epsatm=   27.64581383
         --- l  ekb(1:nproj) -->
             0    9.559407   -0.398585
             1    3.418858   -0.136622
             2   -1.644397   -0.401551
 pspatm: atomic psp has been read  and splines computed

- pspini: atom type   2  psp file is /scratch/users/j/a/jabreu/pseudos/PBEsol/Hg.psp8
- pspatm: opening atomic psp file    /scratch/users/j/a/jabreu/pseudos/PBEsol/Hg.psp8
- Hg    ONCVPSP-3.3.0  r_core=   1.60079   1.60079   1.45509   1.60079
- 80.00000  20.00000    180112                znucl, zion, pspdat
    8 -116133    3    4       600   0.00000   pspcod,pspxc,lmax,lloc,mmax,r2well
    5.99000000000000    5.00000000000000    0.00000000000000   rchrg,fchrg,qchrg
     nproj     2     2     2     1
     extension_switch     1
  pspatm : epsatm=   30.52477316
         --- l  ekb(1:nproj) -->
             0   15.280580    2.063595
             1   11.999965    1.374025
             2    2.245749    0.205661
             3    0.961656
 pspatm: atomic psp has been read  and splines computed

- pspini: atom type   3  psp file is /scratch/users/j/a/jabreu/pseudos/PBEsol/I.psp8
- pspatm: opening atomic psp file    /scratch/users/j/a/jabreu/pseudos/PBEsol/I.psp8
- I     ONCVPSP-3.3.0  r_core=   2.02042   2.17032   2.27639
- 53.00000   7.00000    180112                znucl, zion, pspdat
    8 -116133    2    4       600   0.00000   pspcod,pspxc,lmax,lloc,mmax,r2well
    5.99000000000000    4.00000000000000    0.00000000000000   rchrg,fchrg,qchrg
     nproj     2     2     2
     extension_switch     1
  pspatm : epsatm=   18.14229533
         --- l  ekb(1:nproj) -->
             0    6.015861    0.935228
             1    4.063749    0.754139
             2    4.149534    0.722940
 pspatm: atomic psp has been read  and splines computed

   1.36211601E+04                                ecore*ucvol(ha*bohr**3)

-inwffil : will read wavefunctions from disk file /scratch/users/j/a/jabreu/flow_simple_7atoms/flow/w136/t1/indata/in_WFK

 ==>  initialize data related to q vector <==

 The list of irreducible perturbations for this q vector is:
    1)    idir= 1    ipert=   8
    2)    idir= 2    ipert=   8
    3)    idir= 3    ipert=   8

 Perturbation wavevector (in red.coord.)   0.000000  0.000000  0.000000
 Perturbation : derivative vs k along direction   1

 dfpt_looppert : COMMENT -
  In a d/dk calculation, iscf is set to -3 automatically.
 The set of symmetries contains only one element for this perturbation.
 symkpt : not enough symmetry to change the number of k points.

[...]

 Initialisation of the first-order wave-functions :
  ireadwf=   0

--- !BeginCycle
iteration_state: {dtset: 1, }
solver: {iscf: 7, nstep: 2000, nline: 4, wfoptalg: 0, }
tolerances: {tolwfr: 1.00E-20, }
...

     iter   2DEtotal(Ha)        deltaE(Ha) residm    vres2
-ETOT  1  -29.526731554450     -2.953E+01 1.728E-02 0.000E+00
 ETOT  2  -29.550764128059     -2.403E-02 1.212E-04 0.000E+00
 ETOT  3  -29.550902279838     -1.382E-04 8.974E-07 0.000E+00
 ETOT  4  -29.550903861516     -1.582E-06 2.183E-08 0.000E+00
 ETOT  5  -29.550903887553     -2.604E-08 2.681E-10 0.000E+00
 ETOT  6  -29.550903888072     -5.187E-10 8.712E-12 0.000E+00
 ETOT  7  -29.550903888083     -1.147E-11 1.344E-13 0.000E+00
 ETOT  8  -29.550903888084     -2.416E-13 4.902E-15 0.000E+00
 ETOT  9  -29.550903888084     -4.974E-14 8.208E-17 0.000E+00
 ETOT 10  -29.550903888084      1.066E-14 3.084E-18 0.000E+00
 ETOT 11  -29.550903888084      1.776E-14 5.372E-20 0.000E+00
 ETOT 12  -29.550903888084     -1.066E-14 9.997E-21 0.000E+00

 At SCF step   12   max residual=  1.00E-20 < tolwfr=  1.00E-20 =>converged.

 ----iterations are completed or convergence reached----

 dfpt_looppert: DFPT cycle converged with prtwf=-1. Will skip output of the 1st-order WFK file.
 dfpt_looppert : ek2=    4.7093511568E+01
          f-sum rule ratio=    1.1503351852E+00
 prteigrs : about to open file /scratch/users/j/a/jabreu/flow_simple_7atoms/flow/w136/t1/tmpdata/tmp_1WF1_EIG
 Expectation of eigenvalue derivatives (hartree) for nkpt=   1  k points:
  (in case of degenerate eigenvalues, averaged derivative)
 kpt#   1, nband= 52, wtk=  1.00000, kpt=  0.0000  0.0000  0.0000 (reduced coord)
  -0.00000    0.00000    0.00000    0.00000    0.00000   -0.00000    0.00000    0.00000
  -0.00000   -0.00000   -0.00000   -0.00000    0.00000   -0.00000   -0.00000    0.00000
  -0.00000   -0.00000   -0.00000    0.00000   -0.00000    0.00000    0.00000    0.00000
   0.00000    0.00000    0.00000   -0.00000    0.00000    0.00000    0.00000   -0.00000
   0.00000    0.00000   -0.00000   -0.00000   -0.00000   -0.00000   -0.00000   -0.00000
  -0.00000   -0.00000    0.00000   -0.00000    0.00000    0.00000    0.00000    0.00000
  -0.00000    0.00000   -0.00002   -0.00000

 Eight components of 2nd-order total energy (hartree) are
 1,2,3: 0th-order hamiltonian combined with 1st-order wavefunctions
     kin0=   3.56643855E+01 eigvalue=   6.94216021E-01  local=  -1.99286985E+01
 4,5,6: 1st-order hamiltonian combined with 1st and 0th-order wfs
     kin1=  -5.41733233E+01  Hartree=   0.00000000E+00     xc=   0.00000000E+00
 7,8,9: eventually, occupation + non-local contributions
    edocc=   1.01181104E+01     enl0=   3.00289039E+00   enl1=  -4.92848443E+00
 1-9 gives the relaxation energy (to be shifted if some occ is /=2.0)
   erelax=  -2.95509039E+01
  No Ewald or frozen-wf contrib.: the relaxation energy is the total one
 2DEtotal=   -0.2955090389E+02 Ha. Also 2DEtotal=   -0.804120989109E+03 eV
    (  non-var. 2DEtotal :   -2.9550903888E+01 Ha)

 Perturbation wavevector (in red.coord.)   0.000000  0.000000  0.000000
 Perturbation : derivative vs k along direction   2
 The set of symmetries contains only one element for this perturbation.
 symkpt : not enough symmetry to change the number of k points.

[...]

 Perturbation wavevector (in red.coord.)   0.000000  0.000000  0.000000
 Perturbation : derivative vs k along direction   3
 The set of symmetries contains only one element for this perturbation.
 symkpt : not enough symmetry to change the number of k points.

-inwffil : will read wavefunctions from disk file /scratch/users/j/a/jabreu/flow_simple_7atoms/flow/w136/t1/indata/in_WFK

 Initialisation of the first-order wave-functions :
  ireadwf=   0

--- !BeginCycle
iteration_state: {dtset: 1, }
solver: {iscf: 7, nstep: 2000, nline: 4, wfoptalg: 0, }
tolerances: {tolwfr: 1.00E-20, }
...

     iter   2DEtotal(Ha)        deltaE(Ha) residm    vres2
-ETOT  1  -30.060365647775     -3.006E+01 1.996E-02 0.000E+00
 ETOT  2  -30.086433911492     -2.607E-02 7.831E-05 0.000E+00
 ETOT  3  -30.086564336129     -1.304E-04 1.177E-06 0.000E+00
 ETOT  4  -30.086565415997     -1.080E-06 7.750E-09 0.000E+00
 ETOT  5  -30.086565426417     -1.042E-08 1.316E-10 0.000E+00
 ETOT  6  -30.086565426527     -1.094E-10 1.675E-12 0.000E+00
 ETOT  7  -30.086565426528     -1.265E-12 2.245E-14 0.000E+00
 ETOT  8  -30.086565426528     -2.487E-14 3.811E-16 0.000E+00
 ETOT  9  -30.086565426528     -2.842E-14 5.128E-18 0.000E+00
 ETOT 10  -30.086565426528     -1.421E-14 8.878E-20 0.000E+00
 ETOT 11  -30.086565426528     -7.105E-15 9.731E-21 0.000E+00

 At SCF step   11   max residual=  9.73E-21 < tolwfr=  1.00E-20 =>converged.

 ----iterations are completed or convergence reached----

 dfpt_looppert: DFPT cycle converged with prtwf=-1. Will skip output of the 1st-order WFK file.
 dfpt_looppert : ek2=    4.8174520615E+01
          f-sum rule ratio=    1.1456949515E+00
 prteigrs : about to open file /scratch/users/j/a/jabreu/flow_simple_7atoms/flow/w136/t1/tmpdata/tmp_1WF1_EIG
 Expectation of eigenvalue derivatives (hartree) for nkpt=   1  k points:
  (in case of degenerate eigenvalues, averaged derivative)
 kpt#   1, nband= 52, wtk=  1.00000, kpt=  0.0000  0.0000  0.0000 (reduced coord)
  -0.00000    0.00000    0.00000    0.00000    0.00000    0.00000   -0.00000   -0.00000
  -0.00000    0.00000    0.00000    0.00000    0.00000   -0.00000   -0.00000   -0.00000
  -0.00000    0.00000    0.00000    0.00000    0.00000    0.00000   -0.00000   -0.00000
  -0.00000    0.00000    0.00000    0.00000   -0.00000   -0.00000   -0.00000    0.00000
   0.00000    0.00000    0.00000    0.00000   -0.00000    0.00000   -0.00000   -0.00000
   0.00000    0.00000   -0.00000   -0.00000    0.00000   -0.00000   -0.00000   -0.00000
  -0.00000    0.00000   -0.00006    0.00000

 Eight components of 2nd-order total energy (hartree) are
 1,2,3: 0th-order hamiltonian combined with 1st-order wavefunctions
     kin0=   3.75610538E+01 eigvalue=   5.59550228E-01  local=  -2.11117523E+01
 4,5,6: 1st-order hamiltonian combined with 1st and 0th-order wfs
     kin1=  -5.51933051E+01  Hartree=   0.00000000E+00     xc=   0.00000000E+00
 7,8,9: eventually, occupation + non-local contributions
    edocc=   9.84994671E+00     enl0=   3.22776700E+00   enl1=  -4.97982579E+00
 1-9 gives the relaxation energy (to be shifted if some occ is /=2.0)
   erelax=  -3.00865654E+01
  No Ewald or frozen-wf contrib.: the relaxation energy is the total one
 2DEtotal=   -0.3008656543E+02 Ha. Also 2DEtotal=   -0.818697080850E+03 eV
    (  non-var. 2DEtotal :   -3.0086565426E+01 Ha)

 CALCULATION OF EFFECTIVE MASSES
 NOTE : Additional infos (eff. mass eigenvalues, eigenvectors and, if degenerate, average mass) are available in stdout.

--- !WARNING
src_file: m_efmas.F90
src_line: 0
message: |

    Band(s)    43,
    are not band extrema, but saddle points;
    the transport equivalent formalism breaks down in these conditions.
    The associated tensor(s) will therefore not be printed.
...

 K-point ( 0.000, 0.000, 0.000) | band =    43
 Effective mass tensor:
     *** SADDLE POINT: TRANSPORT EQV. EFF. MASS NOT DEFINED (see WARNING above) ***
 Angular average effective mass 1/(<1/m>)=  -7.8628516108
 Angular average effective mass for Frohlich model (<m**0.5>)**2=  -1.1663766909
 Effective masses along directions: (cart. coord. / red. coord. -> eff. mass)
    1:   1.000000  0.000000  0.000000 /   1.000000  0.000000  0.000000 ->   0.4908759883
    2:   0.000000  1.000000  0.000000 /   0.000000  1.000000  0.000000 ->   0.4908737978
    3:   0.000000  0.000000  1.000000 /   0.000000  0.000000  1.000000 ->  -0.2244216104
    4:   0.577350  0.577350  0.577350 /   0.579522  0.579522  0.572983 ->  -7.8635465532
    5:   0.000000  0.707107  0.707107 /   0.000000  0.711107  0.703084 ->  -0.8268936672
    6:   0.707107  0.000000  0.707107 /   0.711107  0.000000  0.703084 ->  -0.8268665591
    7:   0.707107  0.707107  0.000000 /   0.707107  0.707107  0.000000 ->   0.4908683243

 K-point ( 0.000, 0.000, 0.000) | band =    44
 Effective mass tensor:
              0.1874822814             -0.0000001963             -0.0000084299
             -0.0000001963              0.1874823342              0.0000117281
             -0.0000084299              0.0000117281              0.2162796032
 Effective mass tensor eigenvalues:
              0.1874821097              0.1874824987              0.2162796104
 Angular average effective mass 1/(<1/m>)=   0.1961897618
 Angular average effective mass for Frohlich model (<m**0.5>)**2=   0.1964501022
 Effective masses along directions: (cart. coord. / red. coord. -> eff. mass)
    1:   1.000000  0.000000  0.000000 /   1.000000  0.000000  0.000000 ->   0.1874822811
    2:   0.000000  1.000000  0.000000 /   0.000000  1.000000  0.000000 ->   0.1874823336
    3:   0.000000  0.000000  1.000000 /   0.000000  0.000000  1.000000 ->   0.2162796020
    4:   0.577350  0.577350  0.577350 /   0.579522  0.579522  0.572983 ->   0.1961917061
    5:   0.000000  0.707107  0.707107 /   0.000000  0.711107  0.703084 ->   0.2008656919
    6:   0.707107  0.000000  0.707107 /   0.711107  0.000000  0.703084 ->   0.2008456060
    7:   0.707107  0.707107  0.000000 /   0.707107  0.707107  0.000000 ->   0.1874821115

 END OF EFFECTIVE MASSES SECTION

 ---- first-order wavefunction calculations are completed ----

 Total localisation tensor (bohr^2) in cartesian coordinates
  WARNING : still subject to testing - especially symmetries.
      direction              matrix element
   alpha     beta       real part   imaginary part
     1        1       2.4449323013    0.0000000000
     1        2       0.0000000000    0.0000000000
     1        3       0.0000000000    0.0000000000
     2        1       0.0000000000    0.0000000000
     2        2       2.4449345884    0.0000000000
     2        3       0.0000000000    0.0000000000
     3        1       0.0000000000    0.0000000000
     3        2       0.0000000000    0.0000000000
     3        3       2.3435416762    0.0000000000

 respfn : d/dk was computed, but no 2DTE, so no DDB output.

== END DATASET(S) ==============================================================

 -outvars: echo values of variables after computation  --------
            acell      1.0000000000E+00  1.0000000000E+00  1.0000000000E+00 Bohr
              amu      1.07868200E+02  2.00590000E+02  1.26904470E+02
             ecut      4.30000000E+01 Hartree
           etotal     -3.0086565427E+01
            fcart      0.0000000000E+00  0.0000000000E+00  0.0000000000E+00
                       0.0000000000E+00  0.0000000000E+00  0.0000000000E+00
                       0.0000000000E+00  0.0000000000E+00  0.0000000000E+00
                       0.0000000000E+00  0.0000000000E+00  0.0000000000E+00
                       0.0000000000E+00  0.0000000000E+00  0.0000000000E+00
                       0.0000000000E+00  0.0000000000E+00  0.0000000000E+00
                       0.0000000000E+00  0.0000000000E+00  0.0000000000E+00
-          fftalg         512
           irdden           1
           irdwfk           1
           istwfk        1
              ixc     -116133
           kptopt           0
P           mkmem           1
P          mkqmem           1
P          mk1mem           1
            natom           7
            nband          52
           nbdbuf           4
            ngfft          72      72      72
             nkpt           1
            nstep        2000
             nsym           8
           ntypat           3
              occ      2.000000  2.000000  2.000000  2.000000  2.000000  2.000000
                       2.000000  2.000000  2.000000  2.000000  2.000000  2.000000
                       2.000000  2.000000  2.000000  2.000000  2.000000  2.000000
                       2.000000  2.000000  2.000000  2.000000  2.000000  2.000000
                       2.000000  2.000000  2.000000  2.000000  2.000000  2.000000
                       2.000000  2.000000  2.000000  2.000000  2.000000  2.000000
                       2.000000  2.000000  2.000000  2.000000  2.000000  2.000000
                       2.000000  0.000000  0.000000  0.000000  0.000000  0.000000
                       0.000000  0.000000  0.000000  0.000000
        optdriver           1
            prtwf          -1
            rfdir           1       1       1
           rfelfd           2
            rprim      1.2007802999E+01  0.0000000000E+00  0.0000000000E+00
                       0.0000000000E+00  1.2007802999E+01  0.0000000000E+00
                       0.0000000000E+00  0.0000000000E+00  1.1872314454E+01
          spgroup         111
           strten      0.0000000000E+00  0.0000000000E+00  0.0000000000E+00
                       0.0000000000E+00  0.0000000000E+00  0.0000000000E+00
           symrel      1  0  0   0  1  0   0  0  1      -1  0  0   0  1  0   0  0 -1
                      -1  0  0   0 -1  0   0  0  1       1  0  0   0 -1  0   0  0 -1
                       0  1  0   1  0  0   0  0  1       0 -1  0   1  0  0   0  0 -1
                       0 -1  0  -1  0  0   0  0  1       0  1  0  -1  0  0   0  0 -1
           tolwfr      1.00000000E-20
            typat      1  1  2  3  3  3  3
           useylm           1
           xangst      0.0000000000E+00  3.1771278361E+00  3.1412791113E+00
                       3.1771278361E+00  0.0000000000E+00  3.1412791113E+00
                       0.0000000000E+00  0.0000000000E+00  0.0000000000E+00
                       4.6610244547E+00  4.6610244547E+00  1.4904929604E+00
                       1.6932312175E+00  4.6610244547E+00  4.7920652621E+00
                       1.6932312175E+00  1.6932312175E+00  1.4904929604E+00
                       4.6610244547E+00  1.6932312175E+00  4.7920652621E+00
            xcart      0.0000000000E+00  6.0039014994E+00  5.9361572272E+00
                       6.0039014994E+00  0.0000000000E+00  5.9361572272E+00
                       0.0000000000E+00  0.0000000000E+00  0.0000000000E+00
                       8.8080597181E+00  8.8080597181E+00  2.8166234981E+00
                       3.1997432807E+00  8.8080597181E+00  9.0556909564E+00
                       3.1997432807E+00  3.1997432807E+00  2.8166234981E+00
                       8.8080597181E+00  3.1997432807E+00  9.0556909564E+00
             xred      0.0000000000E+00  5.0000000000E-01  5.0000000000E-01
                       5.0000000000E-01  0.0000000000E+00  5.0000000000E-01
                       0.0000000000E+00  0.0000000000E+00  0.0000000000E+00
                       7.3352800000E-01  7.3352800000E-01  2.3724300000E-01
                       2.6647200000E-01  7.3352800000E-01  7.6275700000E-01
                       2.6647200000E-01  2.6647200000E-01  2.3724300000E-01
                       7.3352800000E-01  2.6647200000E-01  7.6275700000E-01
            znucl       47.00000   80.00000   53.00000

- Timing analysis has been suppressed with timopt=0

 Suggested references for the acknowledgment of ABINIT usage.

 Calculation completed.
.Delivered   7 WARNINGs and   5 COMMENTs to log file.