.Version 9.5.1 of ABINIT

 ABINIT is a project of the Universite Catholique de Louvain,
 Corning Inc. and other collaborators, see ~abinit/doc/developers/contributors.txt .
 acknowledgments of the ABINIT effort.

.Starting date : Tue 11 May 2021.
- ( at 21h53 )

- input  file    -> /scratch/users/j/a/jabreu/flow_simple_8atoms/flow/w367/t1/run.abi
- output file    -> /scratch/users/j/a/jabreu/flow_simple_8atoms/flow/w367/t1/run.abo
- root for input  files -> /scratch/users/j/a/jabreu/flow_simple_8atoms/flow/w367/t1/indata/in
- root for output files -> /scratch/users/j/a/jabreu/flow_simple_8atoms/flow/w367/t1/outdata/out

 Symmetries : space group I4_1/a m d (#141); Bravais tI (body-center tetrag.)
     intxc =       0      iscf =       7    lmnmax =      18     lnmax =       6
     mgfft =      64  mpssoang =       3    mqgrid =    3001     natom =       8
  nloc_mem =       1    nspden =       1   nspinor =       1    nsppol =       1
      nsym =      16    n1xccc =    2501    ntypat =       3    occopt =       1
   xclevel =       2
-    mband =          37        mffmem =           1         mkmem =           2
-   mkqmem =           2        mk1mem =           2           mpw =        8232
      nfft =      262144          nkpt =           2
  Rough estimation (10% accuracy) of disk space for files :

------------- Echo of variables that govern the present computation ------------
-
- outvars: echo of selected default values
-   iomode0 =  0 , fftalg0 =512 , wfoptalg0 =  0
-
- outvars: echo of global parameters not present in the input file
-  max_nthreads =    0
-
 -outvars: echo values of preprocessed input variables --------
            acell      1.0000000000E+00  1.0000000000E+00  1.0000000000E+00 Bohr
              amu      6.94100000E+00  1.14820000E+02  1.59994000E+01
             ecut      4.40000000E+01 Hartree
-          fftalg         512
           irdden           1
           irdwfk           1
           istwfk        0    1
              ixc     -116133
              kpt      0.00000000E+00  2.77555756E-17  4.67741935E-01
                       0.00000000E+00  0.00000000E+00  0.00000000E+00
           kptopt           0
P           mkmem           2
P          mkqmem           2
P          mk1mem           2
            natom           8
            nband          37
           nbdbuf           4
            ngfft          64      64      64
             nkpt           2
            nstep        2000
             nsym          16
           ntypat           3
              occ      2.000000  2.000000  2.000000  2.000000  2.000000  2.000000
                       2.000000  2.000000  2.000000  2.000000  2.000000  2.000000
                       2.000000  2.000000  2.000000  2.000000  2.000000  2.000000
                       2.000000  2.000000  2.000000  2.000000  2.000000  2.000000
                       2.000000  2.000000  2.000000  2.000000  0.000000  0.000000
                       0.000000  0.000000  0.000000  0.000000  0.000000  0.000000
                       0.000000
        optdriver           1
            prtwf          -1
            rfdir           1       1       1
           rfelfd           2
            rprim      7.5485736221E+00  0.0000000000E+00 -7.3196168744E+00
                      -1.3523354034E+00  7.4264495343E+00 -7.3196168744E+00
                       0.0000000000E+00  0.0000000000E+00  1.0514644783E+01
          spgroup         141
           symrel      1  0  0   0  1  0   0  0  1      -1  0  0   0 -1  0   0  0 -1
                      -1 -1 -1   0  0  1   0  1  0       1  1  1   0  0 -1   0 -1  0
                       0  1  0   1  0  0  -1 -1 -1       0 -1  0  -1  0  0   1  1  1
                       0  0  1  -1 -1 -1   1  0  0       0  0 -1   1  1  1  -1  0  0
                       0  1  0   1  0  0   0  0  1       0 -1  0  -1  0  0   0  0 -1
                      -1 -1 -1   0  0  1   1  0  0       1  1  1   0  0 -1  -1  0  0
                       1  0  0   0  1  0  -1 -1 -1      -1  0  0   0 -1  0   1  1  1
                       0  0  1  -1 -1 -1   0  1  0       0  0 -1   1  1  1   0 -1  0
            tnons      0.0000000  0.0000000  0.0000000    -0.2500000  0.2500000  0.5000000
                      -0.2500000  0.2500000  0.5000000     0.0000000  0.0000000  0.0000000
                       0.0000000  0.0000000  0.0000000    -0.2500000  0.2500000  0.5000000
                      -0.2500000  0.2500000  0.5000000     0.0000000  0.0000000  0.0000000
                      -0.2500000  0.2500000  0.5000000     0.0000000  0.0000000  0.0000000
                       0.0000000  0.0000000  0.0000000    -0.2500000  0.2500000  0.5000000
                      -0.2500000  0.2500000  0.5000000     0.0000000  0.0000000  0.0000000
                       0.0000000  0.0000000  0.0000000    -0.2500000  0.2500000  0.5000000
           tolwfr      1.00000000E-20
            typat      1  1  2  2  3  3  3  3
           useylm           1
              wtk        0.50000    0.50000
           xangst      2.8169935702E+00  9.8247695857E-01 -1.0913192377E+00
                       0.0000000000E+00  0.0000000000E+00  0.0000000000E+00
                       1.6394540222E+00  1.9649539171E+00 -3.8733744255E+00
                       4.6191447416E-01  2.9474308757E+00 -1.0913192377E+00
                      -3.0737309448E-01  2.0254076894E+00  7.2619973750E-01
                       8.7016645353E-01  1.0429307308E+00 -2.0558554503E+00
                       1.2312020428E+00  3.8694540621E+00 -2.9088382129E+00
                       2.4087415908E+00  2.8869771035E+00 -5.6908934007E+00
            xcart      5.3233463657E+00  1.8566123836E+00 -2.0622944828E+00
                       0.0000000000E+00  0.0000000000E+00  0.0000000000E+00
                       3.0981191094E+00  3.7132247671E+00 -7.3196168744E+00
                       8.7289185298E-01  5.5698371507E+00 -2.0622944828E+00
                      -5.8085096918E-01  3.8274658403E+00  1.3723186216E+00
                       1.6443762872E+00  1.9708534568E+00 -3.8850037700E+00
                       2.3266346751E+00  7.3122084611E+00 -5.4969075872E+00
                       4.5518619315E+00  5.4555960775E+00 -1.0754229979E+01
             xred      7.5000000000E-01  2.5000000000E-01  5.0000000000E-01
                       0.0000000000E+00  0.0000000000E+00  0.0000000000E+00
                       5.0000000000E-01  5.0000000000E-01  5.5511151231E-17
                       2.5000000000E-01  7.5000000000E-01  5.0000000000E-01
                       1.5383000000E-02  5.1538300000E-01  5.0000000000E-01
                       2.6538300000E-01  2.6538300000E-01  0.0000000000E+00
                       4.8461700000E-01  9.8461700000E-01  5.0000000000E-01
                       7.3461700000E-01  7.3461700000E-01 -5.5511151231E-17
            znucl        3.00000   49.00000    8.00000

 chkinp: Checking input parameters for consistency.

== DATASET  1 ==================================================================
-   mpi_nproc: 1, omp_nthreads: -1 (-1 if OMP is not activated)

--- !DatasetInfo
iteration_state: {dtset: 1, }
dimensions: {natom: 8, nkpt: 2, mband: 37, nsppol: 1, nspinor: 1, nspden: 1, mpw: 8232, }
cutoff_energies: {ecut:  44.0, pawecutdg:  -1.0, }
electrons: {nelect:   5.60000000E+01, charge:   0.00000000E+00, occopt:   1.00000000E+00, tsmear:   1.00000000E-02, }
meta: {optdriver: 1, rfelfd: 2, }
...

 Real(R)+Recip(G) space primitive vectors, cartesian coordinates (Bohr,Bohr^-1):
 R(1)=  7.5485736  0.0000000 -7.3196169  G(1)=  0.1324754  0.0241234  0.0000000
 R(2)= -1.3523354  7.4264495 -7.3196169  G(2)=  0.0000000  0.1346538  0.0000000
 R(3)=  0.0000000  0.0000000 10.5146448  G(3)=  0.0922208  0.1105305  0.0951054
 Unit cell volume ucvol=  5.8944153E+02 bohr^3
 Angles (23,13,12)=  1.34117766E+02  1.34117766E+02  6.69041258E+01 degrees

 getcut: wavevector=  0.0000  0.0000  0.0000  ngfft=  64  64  64
         ecut(hartree)=     44.000   => boxcut(ratio)=   2.03878

--- Pseudopotential description ------------------------------------------------
- pspini: atom type   1  psp file is /scratch/users/j/a/jabreu/pseudos/PBEsol/Li.psp8
- pspatm: opening atomic psp file    /scratch/users/j/a/jabreu/pseudos/PBEsol/Li.psp8
- Li    ONCVPSP-3.3.0  r_core=   1.40824   1.10935
-  3.00000   3.00000    180112                znucl, zion, pspdat
    8 -116133    1    4       400   0.00000   pspcod,pspxc,lmax,lloc,mmax,r2well
    3.99000000000000    0.00000000000000    0.00000000000000   rchrg,fchrg,qchrg
     nproj     2     2
     extension_switch     1
  pspatm : epsatm=    2.60859637
         --- l  ekb(1:nproj) -->
             0   -4.855856   -1.482423
             1   -2.171544   -0.427615
 pspatm: atomic psp has been read  and splines computed

- pspini: atom type   2  psp file is /scratch/users/j/a/jabreu/pseudos/PBEsol/In.psp8
- pspatm: opening atomic psp file    /scratch/users/j/a/jabreu/pseudos/PBEsol/In.psp8
- In    ONCVPSP-3.3.0  r_core=   2.10853   2.37566   1.87143
- 49.00000  13.00000    180112                znucl, zion, pspdat
    8 -116133    2    4       600   0.00000   pspcod,pspxc,lmax,lloc,mmax,r2well
    5.99000000000000    5.00000000000000    0.00000000000000   rchrg,fchrg,qchrg
     nproj     2     2     2
     extension_switch     1
  pspatm : epsatm=   25.17984752
         --- l  ekb(1:nproj) -->
             0   12.999887    1.931740
             1    5.981707    1.012544
             2   -4.048011   -1.239028
 pspatm: atomic psp has been read  and splines computed

- pspini: atom type   3  psp file is /scratch/users/j/a/jabreu/pseudos/PBEsol/O.psp8
- pspatm: opening atomic psp file    /scratch/users/j/a/jabreu/pseudos/PBEsol/O.psp8
- O     ONCVPSP-3.3.0  r_core=   1.35509   1.45563   1.26150
-  8.00000   6.00000    180112                znucl, zion, pspdat
    8 -116133    2    4       600   0.00000   pspcod,pspxc,lmax,lloc,mmax,r2well
    5.99000000000000    4.00000000000000    0.00000000000000   rchrg,fchrg,qchrg
     nproj     2     2     1
     extension_switch     1
  pspatm : epsatm=    6.22910522
         --- l  ekb(1:nproj) -->
             0    6.050032    0.820363
             1   -4.739617   -1.153841
             2   -1.335834
 pspatm: atomic psp has been read  and splines computed

   4.50762528E+03                                ecore*ucvol(ha*bohr**3)

-inwffil : will read wavefunctions from disk file /scratch/users/j/a/jabreu/flow_simple_8atoms/flow/w367/t1/indata/in_WFK

 ==>  initialize data related to q vector <==

 The list of irreducible perturbations for this q vector is:
    1)    idir= 1    ipert=   9
    2)    idir= 2    ipert=   9
    3)    idir= 3    ipert=   9

 Perturbation wavevector (in red.coord.)   0.000000  0.000000  0.000000
 Perturbation : derivative vs k along direction   1

 dfpt_looppert : COMMENT -
  In a d/dk calculation, iscf is set to -3 automatically.
 The set of symmetries contains only one element for this perturbation.
 symkpt : not enough symmetry to change the number of k points.

[...]

 Initialisation of the first-order wave-functions :
  ireadwf=   0

--- !BeginCycle
iteration_state: {dtset: 1, }
[...]
   0.16311   -0.13288    0.07146   -0.10376    0.06381
 prteigrs : prtvol=0 or 1, do not print more k-points.

 Eight components of 2nd-order total energy (hartree) are
 1,2,3: 0th-order hamiltonian combined with 1st-order wavefunctions
     kin0=   8.30831337E+01 eigvalue=   3.52224561E+00  local=  -3.81797286E+01
 4,5,6: 1st-order hamiltonian combined with 1st and 0th-order wfs
     kin1=  -8.66927706E+01  Hartree=   0.00000000E+00     xc=   0.00000000E+00
 7,8,9: eventually, occupation + non-local contributions
    edocc=   1.01320682E+01     enl0=   8.20281781E+00   enl1=  -4.68283027E+01
 1-9 gives the relaxation energy (to be shifted if some occ is /=2.0)
   erelax=  -6.67605367E+01
  No Ewald or frozen-wf contrib.: the relaxation energy is the total one
 2DEtotal=   -0.6676053666E+02 Ha. Also 2DEtotal=   -0.181664658971E+04 eV
    (  non-var. 2DEtotal :   -6.6760536658E+01 Ha)

 Perturbation wavevector (in red.coord.)   0.000000  0.000000  0.000000
 Perturbation : derivative vs k along direction   2
 The set of symmetries contains only one element for this perturbation.
 symkpt : not enough symmetry to change the number of k points.

[...]

 Perturbation wavevector (in red.coord.)   0.000000  0.000000  0.000000
 Perturbation : derivative vs k along direction   3
 The set of symmetries contains only one element for this perturbation.
 symkpt : not enough symmetry to change the number of k points.

-inwffil : will read wavefunctions from disk file /scratch/users/j/a/jabreu/flow_simple_8atoms/flow/w367/t1/indata/in_WFK

 Initialisation of the first-order wave-functions :
  ireadwf=   0

--- !BeginCycle
iteration_state: {dtset: 1, }
solver: {iscf: 7, nstep: 2000, nline: 4, wfoptalg: 0, }
tolerances: {tolwfr: 1.00E-20, }
...

     iter   2DEtotal(Ha)        deltaE(Ha) residm    vres2
-ETOT  1  -110.04892350698     -1.100E+02 1.421E-01 0.000E+00
 ETOT  2  -110.10929343061     -6.037E-02 3.039E-02 0.000E+00
 ETOT  3  -110.10953325266     -2.398E-04 3.264E-03 0.000E+00
 ETOT  4  -110.10953538868     -2.136E-06 1.762E-03 0.000E+00
 ETOT  5  -110.10953541603     -2.735E-08 3.346E-04 0.000E+00
 ETOT  6  -110.10953541649     -4.625E-10 1.942E-04 0.000E+00
 ETOT  7  -110.10953541650     -9.848E-12 3.554E-05 0.000E+00
 ETOT  8  -110.10953541650     -2.558E-13 2.395E-05 0.000E+00
 ETOT  9  -110.10953541650      9.948E-14 6.242E-06 0.000E+00
 ETOT 10  -110.10953541650      1.421E-14 4.166E-06 0.000E+00
 ETOT 11  -110.10953541650     -1.421E-14 1.150E-06 0.000E+00
 ETOT 12  -110.10953541650      0.000E+00 7.147E-07 0.000E+00
 ETOT 13  -110.10953541650     -2.842E-14 2.306E-07 0.000E+00
 ETOT 14  -110.10953541650      0.000E+00 1.324E-07 0.000E+00
 ETOT 15  -110.10953541650      0.000E+00 4.361E-08 0.000E+00
 ETOT 16  -110.10953541650      0.000E+00 2.466E-08 0.000E+00
 ETOT 17  -110.10953541650      0.000E+00 8.266E-09 0.000E+00
 ETOT 18  -110.10953541650      0.000E+00 4.614E-09 0.000E+00
 ETOT 19  -110.10953541650      2.842E-14 1.567E-09 0.000E+00
 ETOT 20  -110.10953541650     -2.842E-14 8.658E-10 0.000E+00
 ETOT 21  -110.10953541650      0.000E+00 2.971E-10 0.000E+00
 ETOT 22  -110.10953541650      0.000E+00 1.628E-10 0.000E+00
 ETOT 23  -110.10953541650      0.000E+00 5.627E-11 0.000E+00
 ETOT 24  -110.10953541650      0.000E+00 3.064E-11 0.000E+00
 ETOT 25  -110.10953541650      0.000E+00 1.065E-11 0.000E+00
 ETOT 26  -110.10953541650      1.421E-14 5.774E-12 0.000E+00
 ETOT 27  -110.10953541650      1.421E-14 2.015E-12 0.000E+00
 ETOT 28  -110.10953541650     -2.842E-14 1.089E-12 0.000E+00
 ETOT 29  -110.10953541650      5.684E-14 3.810E-13 0.000E+00
 ETOT 30  -110.10953541650     -8.527E-14 2.054E-13 0.000E+00
 ETOT 31  -110.10953541650      2.842E-14 7.203E-14 0.000E+00
 ETOT 32  -110.10953541650      0.000E+00 3.876E-14 0.000E+00
 ETOT 33  -110.10953541650      2.842E-14 1.361E-14 0.000E+00
 ETOT 34  -110.10953541650      2.842E-14 7.317E-15 0.000E+00
 ETOT 35  -110.10953541650     -2.842E-14 2.571E-15 0.000E+00
 ETOT 36  -110.10953541650      0.000E+00 1.381E-15 0.000E+00
 ETOT 37  -110.10953541650      0.000E+00 4.857E-16 0.000E+00
 ETOT 38  -110.10953541650     -2.842E-14 2.608E-16 0.000E+00
 ETOT 39  -110.10953541650      1.421E-14 9.174E-17 0.000E+00
 ETOT 40  -110.10953541650     -1.421E-14 4.926E-17 0.000E+00
 ETOT 41  -110.10953541650      0.000E+00 1.732E-17 0.000E+00
 ETOT 42  -110.10953541650      0.000E+00 9.303E-18 0.000E+00
 ETOT 43  -110.10953541650     -1.421E-14 3.271E-18 0.000E+00
 ETOT 44  -110.10953541650     -2.842E-14 1.757E-18 0.000E+00
 ETOT 45  -110.10953541650      4.263E-14 6.177E-19 0.000E+00
 ETOT 46  -110.10953541650      0.000E+00 3.319E-19 0.000E+00
 ETOT 47  -110.10953541650      2.842E-14 1.166E-19 0.000E+00
 ETOT 48  -110.10953541650     -2.842E-14 6.270E-20 0.000E+00
 ETOT 49  -110.10953541650     -4.263E-14 2.202E-20 0.000E+00
 ETOT 50  -110.10953541650      0.000E+00 1.184E-20 0.000E+00
 ETOT 51  -110.10953541650      4.263E-14 9.952E-21 0.000E+00

 At SCF step   51   max residual=  9.95E-21 < tolwfr=  1.00E-20 =>converged.

 ----iterations are completed or convergence reached----

 dfpt_looppert: DFPT cycle converged with prtwf=-1. Will skip output of the 1st-order WFK file.
 dfpt_looppert : ek2=    1.3161594244E+02
          f-sum rule ratio=    1.0885151692E+00
 prteigrs : about to open file /scratch/users/j/a/jabreu/flow_simple_8atoms/flow/w367/t1/tmpdata/tmp_1WF1_EIG
 Expectation of eigenvalue derivatives (hartree) for nkpt=   2  k points:
  (in case of degenerate eigenvalues, averaged derivative)
 kpt#   1, nband= 37, wtk=  0.50000, kpt=  0.0000  0.0000  0.4677 (reduced coord)
   0.00057   -0.00054    0.05016   -0.02115    0.01604    0.00012   -0.00538   -0.04213
   0.00987   -0.00858    0.05757   -0.00192   -0.01002    0.01585   -0.01639   -0.08994
   0.01477   -0.08388    0.24048   -0.00830   -0.02610   -0.22479    0.07179    0.03726
   0.04815   -0.00560    0.12920   -0.00285   -0.08598   -0.10932    0.43101   -0.41039
   0.32622   -0.26575    0.14293   -0.20751    0.17439
 prteigrs : prtvol=0 or 1, do not print more k-points.

 Eight components of 2nd-order total energy (hartree) are
 1,2,3: 0th-order hamiltonian combined with 1st-order wavefunctions
     kin0=   1.38909218E+02 eigvalue=   5.26568744E+00  local=  -6.40238215E+01
 4,5,6: 1st-order hamiltonian combined with 1st and 0th-order wfs
     kin1=  -1.43265950E+02  Hartree=   0.00000000E+00     xc=   0.00000000E+00
 7,8,9: eventually, occupation + non-local contributions
    edocc=   1.58753659E+01     enl0=   1.40830860E+01   enl1=  -7.69531210E+01
 1-9 gives the relaxation energy (to be shifted if some occ is /=2.0)
   erelax=  -1.10109535E+02
  No Ewald or frozen-wf contrib.: the relaxation energy is the total one
 2DEtotal=   -0.1101095354E+03 Ha. Also 2DEtotal=   -0.299623283486E+04 eV
    (  non-var. 2DEtotal :   -1.1010953542E+02 Ha)

 CALCULATION OF EFFECTIVE MASSES
 NOTE : Additional infos (eff. mass eigenvalues, eigenvectors and, if degenerate, average mass) are available in stdout.

 K-point ( 0.000, 0.000, 0.468) | band =    28
 Effective mass tensor:
             -2.8480556443             -2.5498197995              5.0556586646
             -2.5498197995             -3.7754127862              6.0579299399
              5.0556586646              6.0579299399            -12.6303728874
 Effective mass tensor eigenvalues:
            -17.8442454273             -0.7200978930             -0.6894979977
 Angular average effective mass 1/(<1/m>)=  -1.0362439845
 Angular average effective mass for Frohlich model (<m**0.5>)**2=  -1.3783126848
 Effective masses along directions: (cart. coord. / red. coord. -> eff. mass)
    1:   1.000000  0.000000  0.000000 /   0.984329 -0.176344  0.000000 ->  -0.8064344354
    2:   0.000000  1.000000  0.000000 /   0.000000  1.000000  0.000000 ->  -0.8508935269
    3:   0.000000  0.000000  1.000000 /  -0.496076 -0.496076  0.712614 ->  -2.0841604664
    4:   0.577350  0.577350  0.577350 /   0.021619 -0.117604  0.992825 ->  -0.6903949829
    5:   0.000000  0.707107  0.707107 /  -0.571312  0.008339  0.820691 ->  -0.7576365718
    6:   0.707107  0.000000  0.707107 /   0.016796 -0.636178  0.771359 ->  -0.7868887038
    7:   0.707107  0.707107  0.000000 /   0.779091  0.626911  0.000000 ->  -0.9713612846

 K-point ( 0.000, 0.000, 0.000) | band =    29
 Effective mass tensor:
              0.2916172637             -0.0038113402              0.0075130284
             -0.0038113402              0.2902291990              0.0090046730
              0.0075130284              0.0090046730              0.2770469652
 Effective mass tensor eigenvalues:
              0.2692989343              0.2947972467              0.2947972469
 Angular average effective mass 1/(<1/m>)=   0.2857777167
 Angular average effective mass for Frohlich model (<m**0.5>)**2=   0.2859360915
 Effective masses along directions: (cart. coord. / red. coord. -> eff. mass)
    1:   1.000000  0.000000  0.000000 /   0.984329 -0.176344  0.000000 ->   0.2913567962
    2:   0.000000  1.000000  0.000000 /   0.000000  1.000000  0.000000 ->   0.2898800863
    3:   0.000000  0.000000  1.000000 /  -0.496076 -0.496076  0.712614 ->   0.2765678497
    4:   0.577350  0.577350  0.577350 /   0.021619 -0.117604  0.992825 ->   0.2947660187
    5:   0.000000  0.707107  0.707107 /  -0.571312  0.008339  0.820691 ->   0.2924574781
    6:   0.707107  0.000000  0.707107 /   0.016796 -0.636178  0.771359 ->   0.2916006672
    7:   0.707107  0.707107  0.000000 /   0.779091  0.626911  0.000000 ->   0.2866176432

 END OF EFFECTIVE MASSES SECTION

 ---- first-order wavefunction calculations are completed ----

 Total localisation tensor (bohr^2) in cartesian coordinates
  WARNING : still subject to testing - especially symmetries.
      direction              matrix element
   alpha     beta       real part   imaginary part
     1        1       1.0258008376    0.0000000000
     1        2      -0.1751818250    0.0000000000
     1        3      -0.7910928351    0.0000000000
     2        1      -0.1751818250    0.0000000000
     2        2       0.9620239030    0.0000000000
     2        3      -0.9481847768    0.0000000000
     3        1      -0.7910928351    0.0000000000
     3        2      -0.9481847768    0.0000000000
     3        3       5.0332884752    0.0000000000

 respfn : d/dk was computed, but no 2DTE, so no DDB output.

== END DATASET(S) ==============================================================

 -outvars: echo values of variables after computation  --------
            acell      1.0000000000E+00  1.0000000000E+00  1.0000000000E+00 Bohr
              amu      6.94100000E+00  1.14820000E+02  1.59994000E+01
             ecut      4.40000000E+01 Hartree
           etotal     -1.1010953542E+02
            fcart      0.0000000000E+00  0.0000000000E+00  0.0000000000E+00
                       0.0000000000E+00  0.0000000000E+00  0.0000000000E+00
                       0.0000000000E+00  0.0000000000E+00  0.0000000000E+00
                       0.0000000000E+00  0.0000000000E+00  0.0000000000E+00
                       0.0000000000E+00  0.0000000000E+00  0.0000000000E+00
                       0.0000000000E+00  0.0000000000E+00  0.0000000000E+00
                       0.0000000000E+00  0.0000000000E+00  0.0000000000E+00
                       0.0000000000E+00  0.0000000000E+00  0.0000000000E+00
-          fftalg         512
           irdden           1
           irdwfk           1
           istwfk        0    1
              ixc     -116133
              kpt      0.00000000E+00  2.77555756E-17  4.67741935E-01
                       0.00000000E+00  0.00000000E+00  0.00000000E+00
           kptopt           0
P           mkmem           2
P          mkqmem           2
P          mk1mem           2
            natom           8
            nband          37
           nbdbuf           4
            ngfft          64      64      64
             nkpt           2
            nstep        2000
             nsym          16
           ntypat           3
              occ      2.000000  2.000000  2.000000  2.000000  2.000000  2.000000
                       2.000000  2.000000  2.000000  2.000000  2.000000  2.000000
                       2.000000  2.000000  2.000000  2.000000  2.000000  2.000000
                       2.000000  2.000000  2.000000  2.000000  2.000000  2.000000
                       2.000000  2.000000  2.000000  2.000000  0.000000  0.000000
                       0.000000  0.000000  0.000000  0.000000  0.000000  0.000000
                       0.000000
        optdriver           1
            prtwf          -1
            rfdir           1       1       1
           rfelfd           2
            rprim      7.5485736221E+00  0.0000000000E+00 -7.3196168744E+00
                      -1.3523354034E+00  7.4264495343E+00 -7.3196168744E+00
                       0.0000000000E+00  0.0000000000E+00  1.0514644783E+01
          spgroup         141
           strten      0.0000000000E+00  0.0000000000E+00  0.0000000000E+00
                       0.0000000000E+00  0.0000000000E+00  0.0000000000E+00
           symrel      1  0  0   0  1  0   0  0  1      -1  0  0   0 -1  0   0  0 -1
                      -1 -1 -1   0  0  1   0  1  0       1  1  1   0  0 -1   0 -1  0
                       0  1  0   1  0  0  -1 -1 -1       0 -1  0  -1  0  0   1  1  1
                       0  0  1  -1 -1 -1   1  0  0       0  0 -1   1  1  1  -1  0  0
                       0  1  0   1  0  0   0  0  1       0 -1  0  -1  0  0   0  0 -1
                      -1 -1 -1   0  0  1   1  0  0       1  1  1   0  0 -1  -1  0  0
                       1  0  0   0  1  0  -1 -1 -1      -1  0  0   0 -1  0   1  1  1
                       0  0  1  -1 -1 -1   0  1  0       0  0 -1   1  1  1   0 -1  0
            tnons      0.0000000  0.0000000  0.0000000    -0.2500000  0.2500000  0.5000000
                      -0.2500000  0.2500000  0.5000000     0.0000000  0.0000000  0.0000000
                       0.0000000  0.0000000  0.0000000    -0.2500000  0.2500000  0.5000000
                      -0.2500000  0.2500000  0.5000000     0.0000000  0.0000000  0.0000000
                      -0.2500000  0.2500000  0.5000000     0.0000000  0.0000000  0.0000000
                       0.0000000  0.0000000  0.0000000    -0.2500000  0.2500000  0.5000000
                      -0.2500000  0.2500000  0.5000000     0.0000000  0.0000000  0.0000000
                       0.0000000  0.0000000  0.0000000    -0.2500000  0.2500000  0.5000000
           tolwfr      1.00000000E-20
            typat      1  1  2  2  3  3  3  3
           useylm           1
              wtk        0.50000    0.50000
           xangst      2.8169935702E+00  9.8247695857E-01 -1.0913192377E+00
                       0.0000000000E+00  0.0000000000E+00  0.0000000000E+00
                       1.6394540222E+00  1.9649539171E+00 -3.8733744255E+00
                       4.6191447416E-01  2.9474308757E+00 -1.0913192377E+00
                      -3.0737309448E-01  2.0254076894E+00  7.2619973750E-01
                       8.7016645353E-01  1.0429307308E+00 -2.0558554503E+00
                       1.2312020428E+00  3.8694540621E+00 -2.9088382129E+00
                       2.4087415908E+00  2.8869771035E+00 -5.6908934007E+00
            xcart      5.3233463657E+00  1.8566123836E+00 -2.0622944828E+00
                       0.0000000000E+00  0.0000000000E+00  0.0000000000E+00
                       3.0981191094E+00  3.7132247671E+00 -7.3196168744E+00
                       8.7289185298E-01  5.5698371507E+00 -2.0622944828E+00
                      -5.8085096918E-01  3.8274658403E+00  1.3723186216E+00
                       1.6443762872E+00  1.9708534568E+00 -3.8850037700E+00
                       2.3266346751E+00  7.3122084611E+00 -5.4969075872E+00
                       4.5518619315E+00  5.4555960775E+00 -1.0754229979E+01
             xred      7.5000000000E-01  2.5000000000E-01  5.0000000000E-01
                       0.0000000000E+00  0.0000000000E+00  0.0000000000E+00
                       5.0000000000E-01  5.0000000000E-01  5.5511151231E-17
                       2.5000000000E-01  7.5000000000E-01  5.0000000000E-01
                       1.5383000000E-02  5.1538300000E-01  5.0000000000E-01
                       2.6538300000E-01  2.6538300000E-01  0.0000000000E+00
                       4.8461700000E-01  9.8461700000E-01  5.0000000000E-01
                       7.3461700000E-01  7.3461700000E-01 -5.5511151231E-17
            znucl        3.00000   49.00000    8.00000

- Timing analysis has been suppressed with timopt=0

 Suggested references for the acknowledgment of ABINIT usage.

 Calculation completed.
.Delivered  14 WARNINGs and   9 COMMENTs to log file.