.Version 9.5.2 of ABINIT

 ABINIT is a project of the Universite Catholique de Louvain,
 Corning Inc. and other collaborators, see ~abinit/doc/developers/contributors.txt .
 acknowledgments of the ABINIT effort.

.Starting date : Mon 24 May 2021.
- ( at 18h12 )

- input  file    -> /scratch/users/j/a/jabreu/flow_simple_10atoms/flow/w390/t1/run.abi
- output file    -> /scratch/users/j/a/jabreu/flow_simple_10atoms/flow/w390/t1/run.abo
- root for input  files -> /scratch/users/j/a/jabreu/flow_simple_10atoms/flow/w390/t1/indata/in
- root for output files -> /scratch/users/j/a/jabreu/flow_simple_10atoms/flow/w390/t1/outdata/out

 Symmetries : space group C2/m (# 12); Bravais mC (1-face-center monocl.)
     intxc =       0      iscf =       7    lmnmax =      32     lnmax =       8
     mgfft =      80  mpssoang =       4    mqgrid =    3081     natom =      10
  nloc_mem =       1    nspden =       1   nspinor =       1    nsppol =       1
      nsym =       4    n1xccc =    2501    ntypat =       4    occopt =       1
   xclevel =       2
-    mband =          49        mffmem =           1         mkmem =           2
-   mkqmem =           2        mk1mem =           2           mpw =       19198
      nfft =      512000          nkpt =           2
  Rough estimation (10% accuracy) of disk space for files :

------------- Echo of variables that govern the present computation ------------
-
- outvars: echo of selected default values
-   iomode0 =  0 , fftalg0 =512 , wfoptalg0 =  0
-
- outvars: echo of global parameters not present in the input file
-  max_nthreads =    0
-
 -outvars: echo values of preprocessed input variables --------
            acell      1.0000000000E+00  1.0000000000E+00  1.0000000000E+00 Bohr
              amu      1.37327000E+02  1.38905500E+02  9.29063800E+01
                       1.59994000E+01
             ecut      5.20000000E+01 Hartree
-          fftalg         512
           irdden           1
           irdwfk           1
           istwfk        0    1
              ixc     -116133
              kpt      9.47792372E-02 -9.47792372E-02  5.00000000E-01
                       5.00000000E-01  5.00000000E-01  0.00000000E+00
           kptopt           0
P           mkmem           2
P          mkqmem           2
P          mk1mem           2
            natom          10
            nband          49
           nbdbuf           4
            ngfft          80      80      80
             nkpt           2
            nstep        2000
             nsym           4
           ntypat           4
              occ      2.000000  2.000000  2.000000  2.000000  2.000000  2.000000
                       2.000000  2.000000  2.000000  2.000000  2.000000  2.000000
                       2.000000  2.000000  2.000000  2.000000  2.000000  2.000000
                       2.000000  2.000000  2.000000  2.000000  2.000000  2.000000
                       2.000000  2.000000  2.000000  2.000000  2.000000  2.000000
                       2.000000  2.000000  2.000000  2.000000  2.000000  2.000000
                       2.000000  2.000000  2.000000  2.000000  0.000000  0.000000
                       0.000000  0.000000  0.000000  0.000000  0.000000  0.000000
                       0.000000
        optdriver           1
            prtwf          -1
            rfdir           1       1       1
           rfelfd           2
            rprim      9.8929485700E+00  0.0000000000E+00  5.6693195945E+00
                       3.3017971327E+00  9.3256939208E+00  5.6693195945E+00
                       0.0000000000E+00  0.0000000000E+00  1.1593437271E+01
          spgroup          12
           symrel      1  0  0   0  1  0   0  0  1      -1  0  0   0 -1  0   0  0 -1
                       0 -1  0  -1  0  0   0  0 -1       0  1  0   1  0  0   0  0  1
           tolwfr      1.00000000E-20
            typat      1  1  2  3  4  4  4  4  4  4
           useylm           1
              wtk        0.50000    0.50000
           xangst      1.7280569721E+00  1.2213445232E+00  3.0841646731E+00
                       5.2543017270E+00  3.7136001540E+00  9.0509675353E+00
                       0.0000000000E+00  0.0000000000E+00  0.0000000000E+00
                       3.4911793495E+00  2.4674723386E+00  6.0675661042E+00
                       4.0081246166E+00  1.1128398946E+00  4.6901004067E+00
                       1.9077689203E+00  1.3483601293E+00  6.5580271084E+00
                       2.3867523862E+00  3.4068884073E+00  4.6901004067E+00
                       5.0745897788E+00  3.5865845479E+00  5.5771051000E+00
                       4.5956063128E+00  1.5280562698E+00  7.4450318017E+00
                       2.9742340824E+00  3.8221047826E+00  7.4450318017E+00
            xcart      3.2655544192E+00  2.3080066628E+00  5.8282265809E+00
                       9.9291912835E+00  7.0176872580E+00  1.7103849879E+01
                       0.0000000000E+00  0.0000000000E+00  0.0000000000E+00
                       6.5973728513E+00  4.6628469604E+00  1.1466038230E+01
                       7.5742578318E+00  2.1029626305E+00  8.8630053044E+00
                       3.6051607841E+00  2.5480313729E+00  1.2392875207E+01
                       4.5103083570E+00  6.4380860552E+00  8.8630053044E+00
                       9.5895849186E+00  6.7776625479E+00  1.0539201253E+01
                       8.6844373457E+00  2.8876078656E+00  1.4069071156E+01
                       5.6204878709E+00  7.2227312903E+00  1.4069071156E+01
             xred      2.4748900000E-01  2.4748900000E-01  2.6066800000E-01
                       7.5251100000E-01  7.5251100000E-01  7.3933200000E-01
                       0.0000000000E+00  0.0000000000E+00  0.0000000000E+00
                       5.0000000000E-01  5.0000000000E-01  5.0000000000E-01
                       6.9036000000E-01  2.2550200000E-01  3.1661800000E-01
                       2.7322700000E-01  2.7322700000E-01  8.0173400000E-01
                       2.2550200000E-01  6.9036000000E-01  3.1661800000E-01
                       7.2677300000E-01  7.2677300000E-01  1.9826600000E-01
                       7.7449800000E-01  3.0964000000E-01  6.8338200000E-01
                       3.0964000000E-01  7.7449800000E-01  6.8338200000E-01
            znucl       56.00000   57.00000   41.00000    8.00000

 chkinp: Checking input parameters for consistency.

== DATASET  1 ==================================================================
-   mpi_nproc: 1, omp_nthreads: -1 (-1 if OMP is not activated)

--- !DatasetInfo
iteration_state: {dtset: 1, }
dimensions: {natom: 10, nkpt: 2, mband: 49, nsppol: 1, nspinor: 1, nspden: 1, mpw: 19198, }
cutoff_energies: {ecut:  52.0, pawecutdg:  -1.0, }
electrons: {nelect:   8.00000000E+01, charge:   0.00000000E+00, occopt:   1.00000000E+00, tsmear:   1.00000000E-02, }
meta: {optdriver: 1, rfelfd: 2, }
...

 Real(R)+Recip(G) space primitive vectors, cartesian coordinates (Bohr,Bohr^-1):
 R(1)=  9.8929486  0.0000000  5.6693196  G(1)=  0.1010821 -0.0357885  0.0000000
 R(2)=  3.3017971  9.3256939  5.6693196  G(2)=  0.0000000  0.1072306  0.0000000
 R(3)=  0.0000000  0.0000000 11.5934373  G(3)= -0.0494303 -0.0349360  0.0862557
 Unit cell volume ucvol=  1.0695944E+03 bohr^3
 Angles (23,13,12)=  6.01844134E+01  6.01844134E+01  6.01017806E+01 degrees

 getcut: wavevector=  0.0000  0.0000  0.0000  ngfft=  80  80  80
         ecut(hartree)=     52.000   => boxcut(ratio)=   2.12601

--- Pseudopotential description ------------------------------------------------
- pspini: atom type   1  psp file is /scratch/users/j/a/jabreu/pseudos/PBEsol/Ba.psp8
- pspatm: opening atomic psp file    /scratch/users/j/a/jabreu/pseudos/PBEsol/Ba.psp8
- Ba    ONCVPSP-3.3.0  r_core=   2.15444   1.91218   2.15444
- 56.00000  10.00000    180112                znucl, zion, pspdat
    8 -116133    2    4       600   0.00000   pspcod,pspxc,lmax,lloc,mmax,r2well
    5.99000000000000    5.00000000000000    0.00000000000000   rchrg,fchrg,qchrg
     nproj     2     2     2
     extension_switch     1
  pspatm : epsatm=   26.37418029
         --- l  ekb(1:nproj) -->
             0    6.652372    0.677024
             1    5.027722    0.408462
             2    2.543237    0.416854
 pspatm: atomic psp has been read  and splines computed

- pspini: atom type   2  psp file is /scratch/users/j/a/jabreu/pseudos/PBEsol/La.psp8
- pspatm: opening atomic psp file    /scratch/users/j/a/jabreu/pseudos/PBEsol/La.psp8
- La    ONCVPSP-3.3.0  r_core=   2.11664   1.60878   1.85636   1.66739
- 57.00000  11.00000    180112                znucl, zion, pspdat
    8 -116133    3    4       600   0.00000   pspcod,pspxc,lmax,lloc,mmax,r2well
    5.99000000000000    5.00000000000000    0.00000000000000   rchrg,fchrg,qchrg
     nproj     2     2     2     2
     extension_switch     1
  pspatm : epsatm=   29.08531775
         --- l  ekb(1:nproj) -->
             0    6.695600    0.639047
             1    6.383649    1.151322
             2    3.612966    0.847811
             3  -13.718437   -4.858923
 pspatm: atomic psp has been read  and splines computed

[...]

- pspini: atom type   4  psp file is /scratch/users/j/a/jabreu/pseudos/PBEsol/O.psp8
- pspatm: opening atomic psp file    /scratch/users/j/a/jabreu/pseudos/PBEsol/O.psp8
- O     ONCVPSP-3.3.0  r_core=   1.35509   1.45563   1.26150
-  8.00000   6.00000    180112                znucl, zion, pspdat
    8 -116133    2    4       600   0.00000   pspcod,pspxc,lmax,lloc,mmax,r2well
    5.99000000000000    4.00000000000000    0.00000000000000   rchrg,fchrg,qchrg
     nproj     2     2     1
     extension_switch     1
  pspatm : epsatm=    6.22910522
         --- l  ekb(1:nproj) -->
             0    6.050032    0.820363
             1   -4.739617   -1.153841
             2   -1.335834
 pspatm: atomic psp has been read  and splines computed

   1.07900675E+04                                ecore*ucvol(ha*bohr**3)

 ==>  initialize data related to q vector <==

 The list of irreducible perturbations for this q vector is:
    1)    idir= 1    ipert=  11
    2)    idir= 2    ipert=  11
    3)    idir= 3    ipert=  11

 Perturbation wavevector (in red.coord.)   0.000000  0.000000  0.000000
 Perturbation : derivative vs k along direction   1

 dfpt_looppert : COMMENT -
  In a d/dk calculation, iscf is set to -3 automatically.
 The set of symmetries contains only one element for this perturbation.
 symkpt : not enough symmetry to change the number of k points.

 Initialisation of the first-order wave-functions :
  ireadwf=   0

--- !BeginCycle
iteration_state: {dtset: 1, }
solver: {iscf: 7, nstep: 2000, nline: 4, wfoptalg: 0, }
tolerances: {tolwfr: 1.00E-20, }
...

     iter   2DEtotal(Ha)        deltaE(Ha) residm    vres2
-ETOT  1  -38.028675089400     -3.803E+01 7.411E-02 0.000E+00
 ETOT  2  -38.246656270774     -2.180E-01 1.991E-02 0.000E+00
 ETOT  3  -38.262981653252     -1.633E-02 6.800E-03 0.000E+00
 ETOT  4  -38.266475216732     -3.494E-03 4.098E-03 0.000E+00
 ETOT  5  -38.267421405331     -9.462E-04 2.792E-03 0.000E+00
 ETOT  6  -38.267699840514     -2.784E-04 2.967E-03 0.000E+00
 ETOT  7  -38.267784981112     -8.514E-05 1.630E-03 0.000E+00
[...]

[...]

 Perturbation wavevector (in red.coord.)   0.000000  0.000000  0.000000
 Perturbation : derivative vs k along direction   3
 The set of symmetries contains only one element for this perturbation.
 symkpt : not enough symmetry to change the number of k points.

 Initialisation of the first-order wave-functions :
  ireadwf=   0

--- !BeginCycle
iteration_state: {dtset: 1, }
solver: {iscf: 7, nstep: 2000, nline: 4, wfoptalg: 0, }
tolerances: {tolwfr: 1.00E-20, }
...

     iter   2DEtotal(Ha)        deltaE(Ha) residm    vres2
-ETOT  1  -34.815778904964     -3.482E+01 8.215E-02 0.000E+00
 ETOT  2  -34.996581139659     -1.808E-01 2.634E-02 0.000E+00
 ETOT  3  -35.010866301758     -1.429E-02 9.196E-03 0.000E+00
 ETOT  4  -35.013783145361     -2.917E-03 6.855E-03 0.000E+00
 ETOT  5  -35.014539309139     -7.562E-04 4.191E-03 0.000E+00
 ETOT  6  -35.014754305488     -2.150E-04 3.376E-03 0.000E+00
 ETOT  7  -35.014817224831     -6.292E-05 2.034E-03 0.000E+00
 ETOT  8  -35.014836093218     -1.887E-05 1.770E-03 0.000E+00
 ETOT  9  -35.014841830829     -5.738E-06 1.058E-03 0.000E+00
 ETOT 10  -35.014843603985     -1.773E-06 9.572E-04 0.000E+00
 ETOT 11  -35.014844157977     -5.540E-07 9.713E-04 0.000E+00
 ETOT 12  -35.014844332685     -1.747E-07 8.777E-04 0.000E+00
 ETOT 13  -35.014844388212     -5.553E-08 8.904E-04 0.000E+00
 ETOT 14  -35.014844405995     -1.778E-08 8.036E-04 0.000E+00
 ETOT 15  -35.014844411722     -5.728E-09 8.144E-04 0.000E+00
 ETOT 16  -35.014844413581     -1.858E-09 7.339E-04 0.000E+00
 ETOT 17  -35.014844414187     -6.059E-10 7.435E-04 0.000E+00
 ETOT 18  -35.014844414386     -1.991E-10 6.759E-04 0.000E+00
 ETOT 19  -35.014844414451     -6.565E-11 6.363E-04 0.000E+00
 ETOT 20  -35.014844414473     -2.193E-11 7.128E-04 0.000E+00
 ETOT 21  -35.014844414481     -7.375E-12 6.514E-04 0.000E+00
 ETOT 22  -35.014844414483     -2.466E-12 7.866E-04 0.000E+00
 ETOT 23  -35.014844414484     -8.100E-13 5.928E-04 0.000E+00
 ETOT 24  -35.014844414484     -2.771E-13 7.108E-04 0.000E+00
 ETOT 25  -35.014844414484     -6.395E-14 5.390E-04 0.000E+00
 ETOT 26  -35.014844414484     -2.842E-14 6.424E-04 0.000E+00
 ETOT 27  -35.014844414484     -2.842E-14 4.899E-04 0.000E+00
 ETOT 28  -35.014844414484     -2.842E-14 5.807E-04 0.000E+00
 ETOT 29  -35.014844414484     -4.974E-14 4.450E-04 0.000E+00
 ETOT 30  -35.014844414484      6.395E-14 5.249E-04 0.000E+00
 ETOT 31  -35.014844414484      7.105E-15 4.040E-04 0.000E+00
 ETOT 32  -35.014844414484      7.105E-15 4.744E-04 0.000E+00
 ETOT 33  -35.014844414484     -7.105E-15 3.666E-04 0.000E+00
 ETOT 34  -35.014844414484     -7.105E-15 4.288E-04 0.000E+00
 ETOT 35  -35.014844414484     -1.421E-14 3.325E-04 0.000E+00
 ETOT 36  -35.014844414484      3.553E-14 3.874E-04 0.000E+00
 ETOT 37  -35.014844414484     -7.105E-15 3.014E-04 0.000E+00
 ETOT 38  -35.014844414484      0.000E+00 3.501E-04 0.000E+00
 ETOT 39  -35.014844414484      1.421E-14 2.732E-04 0.000E+00
 ETOT 40  -35.014844414484     -7.105E-15 3.163E-04 0.000E+00
 ETOT 41  -35.014844414484     -7.105E-15 2.475E-04 0.000E+00
 ETOT 42  -35.014844414484      7.105E-15 2.857E-04 0.000E+00
 ETOT 43  -35.014844414484     -1.421E-14 2.242E-04 0.000E+00
 ETOT 44  -35.014844414484      0.000E+00 2.581E-04 0.000E+00
 ETOT 45  -35.014844414484      0.000E+00 2.031E-04 0.000E+00
 ETOT 46  -35.014844414484      1.421E-14 2.332E-04 0.000E+00
 ETOT 47  -35.014844414484     -1.421E-14 1.839E-04 0.000E+00
 ETOT 48  -35.014844414484      1.421E-14 2.106E-04 0.000E+00
 ETOT 49  -35.014844414484      1.421E-14 1.666E-04 0.000E+00
 ETOT 50  -35.014844414484      0.000E+00 1.903E-04 0.000E+00
 ETOT 51  -35.014844414484      0.000E+00 1.508E-04 0.000E+00
 ETOT 52  -35.014844414484     -1.421E-14 1.719E-04 0.000E+00
 ETOT 53  -35.014844414484     -7.105E-15 1.366E-04 0.000E+00
 ETOT 54  -35.014844414484      7.105E-15 1.552E-04 0.000E+00
 ETOT 55  -35.014844414484      0.000E+00 1.237E-04 0.000E+00
 ETOT 56  -35.014844414484      0.000E+00 1.402E-04 0.000E+00
 ETOT 57  -35.014844414484      0.000E+00 1.120E-04 0.000E+00
 ETOT 58  -35.014844414484     -3.553E-14 1.266E-04 0.000E+00
 ETOT 59  -35.014844414484      2.132E-14 1.014E-04 0.000E+00
 ETOT 60  -35.014844414484      0.000E+00 1.144E-04 0.000E+00
 ETOT 61  -35.014844414484      1.421E-14 9.176E-05 0.000E+00
[...]
 ETOT  780  -35.014844414484      0.000E+00 1.908E-20 0.000E+00
 ETOT  781  -35.014844414484      7.105E-15 1.906E-20 0.000E+00
 ETOT  782  -35.014844414484      0.000E+00 1.725E-20 0.000E+00
 ETOT  783  -35.014844414484     -7.105E-15 1.725E-20 0.000E+00
 ETOT  784  -35.014844414484      2.842E-14 1.560E-20 0.000E+00
 ETOT  785  -35.014844414484     -2.132E-14 1.560E-20 0.000E+00
 ETOT  786  -35.014844414484      7.105E-15 1.411E-20 0.000E+00
 ETOT  787  -35.014844414484      1.421E-14 1.411E-20 0.000E+00
 ETOT  788  -35.014844414484     -7.105E-15 1.276E-20 0.000E+00
 ETOT  789  -35.014844414484      7.105E-15 1.276E-20 0.000E+00
 ETOT  790  -35.014844414484      0.000E+00 1.155E-20 0.000E+00
 ETOT  791  -35.014844414484     -1.421E-14 1.154E-20 0.000E+00
 ETOT  792  -35.014844414484     -2.132E-14 1.045E-20 0.000E+00
 ETOT  793  -35.014844414484      1.421E-14 1.044E-20 0.000E+00
 ETOT  794  -35.014844414484     -7.105E-15 9.956E-21 0.000E+00

 At SCF step  794   max residual=  9.96E-21 < tolwfr=  1.00E-20 =>converged.

 ----iterations are completed or convergence reached----

 dfpt_looppert: DFPT cycle converged with prtwf=-1. Will skip output of the 1st-order WFK file.
 dfpt_looppert : ek2=    7.0138432000E+01
          f-sum rule ratio=    9.4223091309E-01
 prteigrs : about to open file /scratch/users/j/a/jabreu/flow_simple_10atoms/flow/w390/t1/tmpdata/tmp_1WF1_EIG
 Expectation of eigenvalue derivatives (hartree) for nkpt=   2  k points:
  (in case of degenerate eigenvalues, averaged derivative)
 kpt#   1, nband= 49, wtk=  0.50000, kpt=  0.0948 -0.0948  0.5000 (reduced coord)
   0.00000   -0.00000   -0.00000   -0.00000    0.00000    0.00000    0.00000    0.00000
  -0.00000    0.00000    0.00000   -0.00000    0.00000    0.00000   -0.00000    0.00000
   0.00000   -0.00000    0.00000   -0.00000   -0.00000   -0.00000    0.00000    0.00000
  -0.00000   -0.00000   -0.00000    0.00000   -0.00000   -0.00000   -0.00000    0.00000
  -0.00000    0.00000   -0.00000   -0.00000   -0.00000    0.00000   -0.00000    0.00000
   0.00000   -0.00000   -0.00000   -0.00000    0.00000   -0.00001   -0.00002    0.00002
  -0.00001
 prteigrs : prtvol=0 or 1, do not print more k-points.

 Eight components of 2nd-order total energy (hartree) are
 1,2,3: 0th-order hamiltonian combined with 1st-order wavefunctions
     kin0=   7.34930783E+01 eigvalue=  -2.23644396E+00  local=  -4.05410219E+01
 4,5,6: 1st-order hamiltonian combined with 1st and 0th-order wfs
     kin1=  -6.60865988E+01  Hartree=   0.00000000E+00     xc=   0.00000000E+00
 7,8,9: eventually, occupation + non-local contributions
    edocc=   4.26585546E+00     enl0=   3.33764602E-02   enl1=  -3.94309000E+00
 1-9 gives the relaxation energy (to be shifted if some occ is /=2.0)
   erelax=  -3.50148444E+01
  No Ewald or frozen-wf contrib.: the relaxation energy is the total one
 2DEtotal=   -0.3501484441E+02 Ha. Also 2DEtotal=   -0.952802372161E+03 eV
    (  non-var. 2DEtotal :   -3.5014844414E+01 Ha)

 CALCULATION OF EFFECTIVE MASSES
 NOTE : Additional infos (eff. mass eigenvalues, eigenvectors and, if degenerate, average mass) are available in stdout.

--- !WARNING
src_file: m_efmas.F90
src_line: 0
message: |

    Band(s)    40,
    are not band extrema, but saddle points;
    the transport equivalent formalism breaks down in these conditions.
    The associated tensor(s) will therefore not be printed.
...

 K-point ( 0.095,-0.095, 0.500) | band =    40
 Effective mass tensor:
     *** SADDLE POINT: TRANSPORT EQV. EFF. MASS NOT DEFINED (see WARNING above) ***
 Angular average effective mass 1/(<1/m>)=  -4.8791186290
 Angular average effective mass for Frohlich model (<m**0.5>)**2= -11.4685837060
 Effective masses along directions: (cart. coord. / red. coord. -> eff. mass)
    1:   1.000000  0.000000  0.000000 /   0.948564  0.316586  0.000000 ->  -6.4951021605
    2:   0.000000  1.000000  0.000000 /   0.000000  1.000000  0.000000 ->  -6.7837748958
    3:   0.000000  0.000000  1.000000 /   0.402201  0.402201  0.822478 ->  -3.1898696857
    4:   0.577350  0.577350  0.577350 /   0.583481  0.686008  0.434676 ->  -2.2699157270
    5:   0.000000  0.707107  0.707107 /   0.286563  0.757943  0.586006 ->  -2.6812666500
    6:   0.707107  0.000000  0.707107 /   0.727914  0.419618  0.542275 ->  -2.2969893502
    7:   0.707107  0.707107  0.000000 /   0.616717  0.787185  0.000000 ->  -6.2523631645

 K-point ( 0.500, 0.500, 0.000) | band =    41
 Effective mass tensor:
              3.8331325773              2.3438733042             -0.5041478720
              2.3438733042              2.1734182141             -0.3563182520
             -0.5041478720             -0.3563182520              0.6687654058
 Effective mass tensor eigenvalues:
              0.5168311457              0.5909644626              5.5675205888
 Angular average effective mass 1/(<1/m>)=   0.7880986167
 Angular average effective mass for Frohlich model (<m**0.5>)**2=   0.9585188717
 Effective masses along directions: (cart. coord. / red. coord. -> eff. mass)
    1:   1.000000  0.000000  0.000000 /   0.948564  0.316586  0.000000 ->   1.2818881834
    2:   0.000000  1.000000  0.000000 /   0.000000  1.000000  0.000000 ->   0.7363618134
    3:   0.000000  0.000000  1.000000 /   0.402201  0.402201  0.822478 ->   0.5993396795
    4:   0.577350  0.577350  0.577350 /   0.583481  0.686008  0.434676 ->   1.1121995400
    5:   0.000000  0.707107  0.707107 /   0.286563  0.757943  0.586006 ->   0.6166893064
    6:   0.707107  0.000000  0.707107 /   0.727914  0.419618  0.542275 ->   0.7259381185
    7:   0.707107  0.707107  0.000000 /   0.616717  0.787185  0.000000 ->   3.9540697864

 END OF EFFECTIVE MASSES SECTION

 ---- first-order wavefunction calculations are completed ----

 Total localisation tensor (bohr^2) in cartesian coordinates
  WARNING : still subject to testing - especially symmetries.
      direction              matrix element
   alpha     beta       real part   imaginary part
     1        1       1.0533240630    0.0000000000
     1        2       0.2981780273    0.0000000000
     1        3       0.7243954928    0.0000000000
     2        1       0.2981780273    0.0000000000
     2        2       0.8421828794    0.0000000000
     2        3       0.5119837667    0.0000000000
     3        1       0.7243954928    0.0000000000
     3        2       0.5119837667    0.0000000000
     3        3       1.7205303024    0.0000000000

 respfn : d/dk was computed, but no 2DTE, so no DDB output.

== END DATASET(S) ==============================================================

 -outvars: echo values of variables after computation  --------
            acell      1.0000000000E+00  1.0000000000E+00  1.0000000000E+00 Bohr
              amu      1.37327000E+02  1.38905500E+02  9.29063800E+01
                       1.59994000E+01
             ecut      5.20000000E+01 Hartree
           etotal     -3.5014844414E+01
            fcart      0.0000000000E+00  0.0000000000E+00  0.0000000000E+00
                       0.0000000000E+00  0.0000000000E+00  0.0000000000E+00
                       0.0000000000E+00  0.0000000000E+00  0.0000000000E+00
                       0.0000000000E+00  0.0000000000E+00  0.0000000000E+00
                       0.0000000000E+00  0.0000000000E+00  0.0000000000E+00
                       0.0000000000E+00  0.0000000000E+00  0.0000000000E+00
                       0.0000000000E+00  0.0000000000E+00  0.0000000000E+00
                       0.0000000000E+00  0.0000000000E+00  0.0000000000E+00
                       0.0000000000E+00  0.0000000000E+00  0.0000000000E+00
                       0.0000000000E+00  0.0000000000E+00  0.0000000000E+00
-          fftalg         512
           irdden           1
           irdwfk           1
           istwfk        0    1
              ixc     -116133
              kpt      9.47792372E-02 -9.47792372E-02  5.00000000E-01
                       5.00000000E-01  5.00000000E-01  0.00000000E+00
           kptopt           0
P           mkmem           2
P          mkqmem           2
P          mk1mem           2
            natom          10
            nband          49
           nbdbuf           4
            ngfft          80      80      80
             nkpt           2
            nstep        2000
             nsym           4
           ntypat           4
              occ      2.000000  2.000000  2.000000  2.000000  2.000000  2.000000
                       2.000000  2.000000  2.000000  2.000000  2.000000  2.000000
                       2.000000  2.000000  2.000000  2.000000  2.000000  2.000000
                       2.000000  2.000000  2.000000  2.000000  2.000000  2.000000
                       2.000000  2.000000  2.000000  2.000000  2.000000  2.000000
                       2.000000  2.000000  2.000000  2.000000  2.000000  2.000000
                       2.000000  2.000000  2.000000  2.000000  0.000000  0.000000
                       0.000000  0.000000  0.000000  0.000000  0.000000  0.000000
                       0.000000
        optdriver           1
            prtwf          -1
            rfdir           1       1       1
           rfelfd           2
            rprim      9.8929485700E+00  0.0000000000E+00  5.6693195945E+00
                       3.3017971327E+00  9.3256939208E+00  5.6693195945E+00
                       0.0000000000E+00  0.0000000000E+00  1.1593437271E+01
          spgroup          12
           strten      0.0000000000E+00  0.0000000000E+00  0.0000000000E+00
                       0.0000000000E+00  0.0000000000E+00  0.0000000000E+00
           symrel      1  0  0   0  1  0   0  0  1      -1  0  0   0 -1  0   0  0 -1
                       0 -1  0  -1  0  0   0  0 -1       0  1  0   1  0  0   0  0  1
           tolwfr      1.00000000E-20
            typat      1  1  2  3  4  4  4  4  4  4
           useylm           1
              wtk        0.50000    0.50000
           xangst      1.7280569721E+00  1.2213445232E+00  3.0841646731E+00
                       5.2543017270E+00  3.7136001540E+00  9.0509675353E+00
                       0.0000000000E+00  0.0000000000E+00  0.0000000000E+00
                       3.4911793495E+00  2.4674723386E+00  6.0675661042E+00
                       4.0081246166E+00  1.1128398946E+00  4.6901004067E+00
                       1.9077689203E+00  1.3483601293E+00  6.5580271084E+00
                       2.3867523862E+00  3.4068884073E+00  4.6901004067E+00
                       5.0745897788E+00  3.5865845479E+00  5.5771051000E+00
                       4.5956063128E+00  1.5280562698E+00  7.4450318017E+00
                       2.9742340824E+00  3.8221047826E+00  7.4450318017E+00
            xcart      3.2655544192E+00  2.3080066628E+00  5.8282265809E+00
                       9.9291912835E+00  7.0176872580E+00  1.7103849879E+01
                       0.0000000000E+00  0.0000000000E+00  0.0000000000E+00
                       6.5973728513E+00  4.6628469604E+00  1.1466038230E+01
                       7.5742578318E+00  2.1029626305E+00  8.8630053044E+00
                       3.6051607841E+00  2.5480313729E+00  1.2392875207E+01
                       4.5103083570E+00  6.4380860552E+00  8.8630053044E+00
                       9.5895849186E+00  6.7776625479E+00  1.0539201253E+01
                       8.6844373457E+00  2.8876078656E+00  1.4069071156E+01
                       5.6204878709E+00  7.2227312903E+00  1.4069071156E+01
             xred      2.4748900000E-01  2.4748900000E-01  2.6066800000E-01
                       7.5251100000E-01  7.5251100000E-01  7.3933200000E-01
                       0.0000000000E+00  0.0000000000E+00  0.0000000000E+00
                       5.0000000000E-01  5.0000000000E-01  5.0000000000E-01
                       6.9036000000E-01  2.2550200000E-01  3.1661800000E-01
                       2.7322700000E-01  2.7322700000E-01  8.0173400000E-01
                       2.2550200000E-01  6.9036000000E-01  3.1661800000E-01
                       7.2677300000E-01  7.2677300000E-01  1.9826600000E-01
                       7.7449800000E-01  3.0964000000E-01  6.8338200000E-01
                       3.0964000000E-01  7.7449800000E-01  6.8338200000E-01
            znucl       56.00000   57.00000   41.00000    8.00000

- Timing analysis has been suppressed with timopt=0

 Suggested references for the acknowledgment of ABINIT usage.

 Calculation completed.
.Delivered   3 WARNINGs and   5 COMMENTs to log file.