.Version 9.5.1 of ABINIT

 ABINIT is a project of the Universite Catholique de Louvain,
 Corning Inc. and other collaborators, see ~abinit/doc/developers/contributors.txt .
 acknowledgments of the ABINIT effort.

.Starting date : Tue  4 May 2021.
- ( at 19h51 )

- input  file    -> /scratch/users/j/a/jabreu/flow_simple_6atoms/flow/w251/t1/run.abi
- output file    -> /scratch/users/j/a/jabreu/flow_simple_6atoms/flow/w251/t1/run.abo
- root for input  files -> /scratch/users/j/a/jabreu/flow_simple_6atoms/flow/w251/t1/indata/in
- root for output files -> /scratch/users/j/a/jabreu/flow_simple_6atoms/flow/w251/t1/outdata/out

 Symmetries : space group P-3 m 1 (#164); Bravais hP (primitive hexag.)
     intxc =       0      iscf =       7    lmnmax =      32     lnmax =       8
     mgfft =      64  mpssoang =       4    mqgrid =    3188     natom =       6
  nloc_mem =       1    nspden =       1   nspinor =       1    nsppol =       1
      nsym =      12    n1xccc =    2501    ntypat =       3    occopt =       1
   xclevel =       2
-    mband =          48        mffmem =           1         mkmem =           2
-   mkqmem =           2        mk1mem =           2           mpw =       12356
      nfft =      230400          nkpt =           2
  Rough estimation (10% accuracy) of disk space for files :

------------- Echo of variables that govern the present computation ------------
-
- outvars: echo of selected default values
-   iomode0 =  0 , fftalg0 =512 , wfoptalg0 =  0
-
- outvars: echo of global parameters not present in the input file
-  max_nthreads =    0
-
 -outvars: echo values of preprocessed input variables --------
            acell      1.0000000000E+00  1.0000000000E+00  1.0000000000E+00 Bohr
              amu      1.32905430E+02  6.35460000E+01  1.59994000E+01
             ecut      4.60000000E+01 Hartree
-          fftalg         512
           irdden           1
           irdwfk           1
           istwfk        1    0
              ixc     -116133
              kpt      0.00000000E+00  0.00000000E+00  5.00000000E-01
                       0.00000000E+00  0.00000000E+00  1.11111111E-01
           kptopt           0
P           mkmem           2
P          mkqmem           2
P          mk1mem           2
            natom           6
            nband          48
           nbdbuf           4
            ngfft          60      60      64
             nkpt           2
            nstep        1000
             nsym          12
           ntypat           3
              occ      2.000000  2.000000  2.000000  2.000000  2.000000  2.000000
                       2.000000  2.000000  2.000000  2.000000  2.000000  2.000000
                       2.000000  2.000000  2.000000  2.000000  2.000000  2.000000
                       2.000000  2.000000  2.000000  2.000000  2.000000  2.000000
                       2.000000  2.000000  2.000000  2.000000  2.000000  2.000000
                       2.000000  2.000000  2.000000  2.000000  2.000000  2.000000
                       2.000000  2.000000  2.000000  0.000000  0.000000  0.000000
                       0.000000  0.000000  0.000000  0.000000  0.000000  0.000000
        optdriver           1
            prtwf          -1
            rfdir           1       1       1
           rfelfd           2
            rprim      9.5604204712E+00  0.0000000000E+00  0.0000000000E+00
                      -4.7802102356E+00  8.2795669989E+00  0.0000000000E+00
                       0.0000000000E+00  0.0000000000E+00  1.0439106496E+01
          spgroup         164
           symrel      1  0  0   0  1  0   0  0  1      -1  0  0   0 -1  0   0  0 -1
                      -1  0  0   1  1  0   0  0  1       1  0  0  -1 -1  0   0  0 -1
                       0  1  0  -1 -1  0   0  0  1       0 -1  0   1  1  0   0  0 -1
                       0 -1  0  -1  0  0   0  0  1       0  1  0   1  0  0   0  0 -1
                      -1 -1  0   1  0  0   0  0  1       1  1  0  -1  0  0   0  0 -1
                       1  1  0   0 -1  0   0  0  1      -1 -1  0   0  1  0   0  0 -1
           tolwfr      1.00000000E-20
            typat      1  2  2  2  3  3
           useylm           1
              wtk        0.50000    0.50000
           xangst      0.0000000000E+00  0.0000000000E+00  2.7620686179E+00
                       1.2647891545E+00  2.1906790764E+00  0.0000000000E+00
                       2.5295783089E+00  0.0000000000E+00  0.0000000000E+00
                      -1.2647891545E+00  2.1906790764E+00  0.0000000000E+00
                       2.5295783089E+00  1.4604527176E+00  1.1080977364E+00
                       0.0000000000E+00  2.9209054352E+00  4.4160394994E+00
            xcart      0.0000000000E+00  0.0000000000E+00  5.2195532481E+00
                       2.3901051178E+00  4.1397834995E+00  0.0000000000E+00
                       4.7802102356E+00  0.0000000000E+00  0.0000000000E+00
                      -2.3901051178E+00  4.1397834995E+00  0.0000000000E+00
                       4.7802102356E+00  2.7598556663E+00  2.0940012503E+00
                       0.0000000000E+00  5.5197113326E+00  8.3451052459E+00
             xred      0.0000000000E+00  0.0000000000E+00  5.0000000000E-01
                       5.0000000000E-01  5.0000000000E-01  0.0000000000E+00
                       5.0000000000E-01  0.0000000000E+00  0.0000000000E+00
                       0.0000000000E+00  5.0000000000E-01  0.0000000000E+00
                       6.6666666667E-01  3.3333333333E-01  2.0059200000E-01
                       3.3333333333E-01  6.6666666667E-01  7.9940800000E-01
            znucl       55.00000   29.00000    8.00000

 chkinp: Checking input parameters for consistency.

== DATASET  1 ==================================================================
-   mpi_nproc: 1, omp_nthreads: -1 (-1 if OMP is not activated)

--- !DatasetInfo
iteration_state: {dtset: 1, }
dimensions: {natom: 6, nkpt: 2, mband: 48, nsppol: 1, nspinor: 1, nspden: 1, mpw: 12356, }
cutoff_energies: {ecut:  46.0, pawecutdg:  -1.0, }
electrons: {nelect:   7.80000000E+01, charge:   0.00000000E+00, occopt:   1.00000000E+00, tsmear:   1.00000000E-02, }
meta: {optdriver: 1, rfelfd: 2, }
...

 Real(R)+Recip(G) space primitive vectors, cartesian coordinates (Bohr,Bohr^-1):
 R(1)=  9.5604205  0.0000000  0.0000000  G(1)=  0.1045979  0.0603896  0.0000000
 R(2)= -4.7802102  8.2795670  0.0000000  G(2)=  0.0000000  0.1207793  0.0000000
 R(3)=  0.0000000  0.0000000 10.4391065  G(3)=  0.0000000  0.0000000  0.0957936
 Unit cell volume ucvol=  8.2631939E+02 bohr^3
 Angles (23,13,12)=  9.00000000E+01  9.00000000E+01  1.20000000E+02 degrees

 getcut: wavevector=  0.0000  0.0000  0.0000  ngfft=  60  60  64
         ecut(hartree)=     46.000   => boxcut(ratio)=   2.00804

--- Pseudopotential description ------------------------------------------------
- pspini: atom type   1  psp file is /scratch/users/j/a/jabreu/pseudos/PBEsol/Cs.psp8
- pspatm: opening atomic psp file    /scratch/users/j/a/jabreu/pseudos/PBEsol/Cs.psp8
- Cs    ONCVPSP-3.3.0  r_core=   2.27353   1.85623   2.01788   1.90105
- 55.00000   9.00000    180112                znucl, zion, pspdat
    8 -116133    3    4       600   0.00000   pspcod,pspxc,lmax,lloc,mmax,r2well
    5.99000000000000    5.00000000000000    0.00000000000000   rchrg,fchrg,qchrg
     nproj     2     2     2     2
     extension_switch     1
  pspatm : epsatm=   22.12462445
         --- l  ekb(1:nproj) -->
             0    6.214110    0.767882
             1    6.311966    0.793598
             2    3.769790    0.913105
             3   -9.247129   -2.432478
 pspatm: atomic psp has been read  and splines computed

- pspini: atom type   2  psp file is /scratch/users/j/a/jabreu/pseudos/PBEsol/Cu.psp8
- pspatm: opening atomic psp file    /scratch/users/j/a/jabreu/pseudos/PBEsol/Cu.psp8
- Cu    ONCVPSP-3.3.0  r_core=   1.26204   1.45626   1.76249
- 29.00000  19.00000    180112                znucl, zion, pspdat
    8 -116133    2    4       600   0.00000   pspcod,pspxc,lmax,lloc,mmax,r2well
    5.99000000000000    3.50000000000000    0.00000000000000   rchrg,fchrg,qchrg
     nproj     2     2     2
     extension_switch     1
  pspatm : epsatm=   21.63488701
         --- l  ekb(1:nproj) -->
             0    5.008230   -0.401634
             1   -3.496700   -0.765945
             2   -6.895851   -2.521180
 pspatm: atomic psp has been read  and splines computed

- pspini: atom type   3  psp file is /scratch/users/j/a/jabreu/pseudos/PBEsol/O.psp8
- pspatm: opening atomic psp file    /scratch/users/j/a/jabreu/pseudos/PBEsol/O.psp8
- O     ONCVPSP-3.3.0  r_core=   1.35509   1.45563   1.26150
-  8.00000   6.00000    180112                znucl, zion, pspdat
    8 -116133    2    4       600   0.00000   pspcod,pspxc,lmax,lloc,mmax,r2well
    5.99000000000000    4.00000000000000    0.00000000000000   rchrg,fchrg,qchrg
     nproj     2     2     1
     extension_switch     1
  pspatm : epsatm=    6.22910522
         --- l  ekb(1:nproj) -->
             0    6.050032    0.820363
             1   -4.739617   -1.153841
             2   -1.335834
 pspatm: atomic psp has been read  and splines computed

   7.76002468E+03                                ecore*ucvol(ha*bohr**3)

-inwffil : will read wavefunctions from disk file /scratch/users/j/a/jabreu/flow_simple_6atoms/flow/w251/t1/indata/in_WFK

 ==>  initialize data related to q vector <==

 The list of irreducible perturbations for this q vector is:
    1)    idir= 1    ipert=   7
    2)    idir= 2    ipert=   7
    3)    idir= 3    ipert=   7

 Perturbation wavevector (in red.coord.)   0.000000  0.000000  0.000000
 Perturbation : derivative vs k along direction   1

 dfpt_looppert : COMMENT -
  In a d/dk calculation, iscf is set to -3 automatically.
 The set of symmetries contains only one element for this perturbation.
 symkpt : not enough symmetry to change the number of k points.

[...]

 Initialisation of the first-order wave-functions :
  ireadwf=   0

--- !BeginCycle
iteration_state: {dtset: 1, }
solver: {iscf: 7, nstep: 1000, nline: 4, wfoptalg: 0, }
tolerances: {tolwfr: 1.00E-20, }
...

     iter   2DEtotal(Ha)        deltaE(Ha) residm    vres2
-ETOT  1  -54.500659677359     -5.450E+01 5.700E-02 0.000E+00
 ETOT  2  -54.632106198038     -1.314E-01 2.149E-03 0.000E+00
 ETOT  3  -54.635071260551     -2.965E-03 6.459E-05 0.000E+00
 ETOT  4  -54.635216412163     -1.452E-04 5.202E-06 0.000E+00
 ETOT  5  -54.635226223961     -9.812E-06 3.884E-07 0.000E+00
 ETOT  6  -54.635227024326     -8.004E-07 4.685E-08 0.000E+00
 ETOT  7  -54.635227096829     -7.250E-08 4.106E-09 0.000E+00
 ETOT  8  -54.635227103809     -6.980E-09 5.252E-10 0.000E+00
 ETOT  9  -54.635227104511     -7.017E-10 4.684E-11 0.000E+00
 ETOT 10  -54.635227104583     -7.249E-11 6.134E-12 0.000E+00
 ETOT 11  -54.635227104591     -7.603E-12 5.507E-13 0.000E+00
 ETOT 12  -54.635227104592     -8.669E-13 7.319E-14 0.000E+00
 ETOT 13  -54.635227104592     -9.948E-14 6.590E-15 0.000E+00
 ETOT 14  -54.635227104592      5.684E-14 8.849E-16 0.000E+00
 ETOT 15  -54.635227104592     -1.421E-14 7.979E-17 0.000E+00
 ETOT 16  -54.635227104592      2.132E-14 1.079E-17 0.000E+00
[...]
 ETOT 19  -54.635227104592      2.842E-14 1.194E-20 0.000E+00
 ETOT 20  -54.635227104592      1.421E-14 9.877E-21 0.000E+00

 At SCF step   20   max residual=  9.88E-21 < tolwfr=  1.00E-20 =>converged.

 ----iterations are completed or convergence reached----

 dfpt_looppert: DFPT cycle converged with prtwf=-1. Will skip output of the 1st-order WFK file.
 dfpt_looppert : ek2=    8.9839863912E+01
          f-sum rule ratio=    1.0887063953E+00
 prteigrs : about to open file /scratch/users/j/a/jabreu/flow_simple_6atoms/flow/w251/t1/tmpdata/tmp_1WF1_EIG
 Expectation of eigenvalue derivatives (hartree) for nkpt=   2  k points:
  (in case of degenerate eigenvalues, averaged derivative)
 kpt#   1, nband= 48, wtk=  0.50000, kpt=  0.0000  0.0000  0.5000 (reduced coord)
   0.00000    0.00000    0.00000   -0.00000    0.00000    0.00000   -0.00000   -0.00000
   0.00000    0.00000   -0.00000   -0.00000    0.00000   -0.00000    0.00000    0.00000
   0.00000    0.00000    0.00000    0.00000   -0.00000    0.00000   -0.00000   -0.00000
  -0.00000    0.00000    0.00000   -0.00000    0.00000    0.00000    0.00000    0.00000
   0.00000   -0.00000   -0.00000    0.00000    0.00000   -0.00000   -0.00000   -0.00000
  -0.00000    0.00000    0.00000    0.00000   -0.00000   -0.00000   -0.09278    0.00011
 prteigrs : prtvol=0 or 1, do not print more k-points.

 Eight components of 2nd-order total energy (hartree) are
 1,2,3: 0th-order hamiltonian combined with 1st-order wavefunctions
     kin0=   7.36162051E+01 eigvalue=   8.13439964E-01  local=  -2.94128013E+01
 4,5,6: 1st-order hamiltonian combined with 1st and 0th-order wfs
     kin1=  -9.78092344E+01  Hartree=   0.00000000E+00     xc=   0.00000000E+00
 7,8,9: eventually, occupation + non-local contributions
    edocc=   1.11405524E+01     enl0=  -1.52216900E+00   enl1=  -1.14612198E+01
 1-9 gives the relaxation energy (to be shifted if some occ is /=2.0)
   erelax=  -5.46352271E+01
  No Ewald or frozen-wf contrib.: the relaxation energy is the total one
 2DEtotal=   -0.5463522710E+02 Ha. Also 2DEtotal=   -0.148670013702E+04 eV
    (  non-var. 2DEtotal :   -5.4635227105E+01 Ha)

 Perturbation wavevector (in red.coord.)   0.000000  0.000000  0.000000
 Perturbation : derivative vs k along direction   2
 The set of symmetries contains only one element for this perturbation.
 symkpt : not enough symmetry to change the number of k points.

[...]

 Perturbation wavevector (in red.coord.)   0.000000  0.000000  0.000000
 Perturbation : derivative vs k along direction   3
 The set of symmetries contains only one element for this perturbation.
 symkpt : not enough symmetry to change the number of k points.

-inwffil : will read wavefunctions from disk file /scratch/users/j/a/jabreu/flow_simple_6atoms/flow/w251/t1/indata/in_WFK

 Initialisation of the first-order wave-functions :
  ireadwf=   0

--- !BeginCycle
iteration_state: {dtset: 1, }
solver: {iscf: 7, nstep: 1000, nline: 4, wfoptalg: 0, }
tolerances: {tolwfr: 1.00E-20, }
...

     iter   2DEtotal(Ha)        deltaE(Ha) residm    vres2
-ETOT  1  -32.391541982500     -3.239E+01 3.957E-02 0.000E+00
 ETOT  2  -32.449975082914     -5.843E-02 5.038E-03 0.000E+00
 ETOT  3  -32.450883535712     -9.085E-04 6.341E-05 0.000E+00
 ETOT  4  -32.450913421978     -2.989E-05 1.938E-05 0.000E+00
 ETOT  5  -32.450914627474     -1.205E-06 3.185E-07 0.000E+00
 ETOT  6  -32.450914680832     -5.336E-08 1.426E-07 0.000E+00
 ETOT  7  -32.450914683401     -2.569E-09 3.343E-09 0.000E+00
 ETOT  8  -32.450914683529     -1.283E-10 1.082E-09 0.000E+00
 ETOT  9  -32.450914683536     -6.573E-12 4.594E-11 0.000E+00
 ETOT 10  -32.450914683536     -3.340E-13 9.153E-12 0.000E+00
 ETOT 11  -32.450914683536     -4.263E-14 6.384E-13 0.000E+00
 ETOT 12  -32.450914683536      2.132E-14 8.623E-14 0.000E+00
 ETOT 13  -32.450914683536     -1.421E-14 8.972E-15 0.000E+00
 ETOT 14  -32.450914683536     -7.105E-15 9.051E-16 0.000E+00
 ETOT 15  -32.450914683536      0.000E+00 1.273E-16 0.000E+00
 ETOT 16  -32.450914683536     -7.105E-15 1.269E-17 0.000E+00
 ETOT 17  -32.450914683536     -7.105E-15 1.817E-18 0.000E+00
 ETOT 18  -32.450914683536      1.421E-14 1.799E-19 0.000E+00
 ETOT 19  -32.450914683536     -7.105E-15 2.608E-20 0.000E+00
 ETOT 20  -32.450914683536      0.000E+00 9.971E-21 0.000E+00

 At SCF step   20   max residual=  9.97E-21 < tolwfr=  1.00E-20 =>converged.

 ----iterations are completed or convergence reached----

 dfpt_looppert: DFPT cycle converged with prtwf=-1. Will skip output of the 1st-order WFK file.
 dfpt_looppert : ek2=    5.6514212308E+01
          f-sum rule ratio=    1.0021198737E+00
 prteigrs : about to open file /scratch/users/j/a/jabreu/flow_simple_6atoms/flow/w251/t1/tmpdata/tmp_1WF1_EIG
 Expectation of eigenvalue derivatives (hartree) for nkpt=   2  k points:
  (in case of degenerate eigenvalues, averaged derivative)
 kpt#   1, nband= 48, wtk=  0.50000, kpt=  0.0000  0.0000  0.5000 (reduced coord)
  -0.00000   -0.00000   -0.00000   -0.00000   -0.00000   -0.00000   -0.00000   -0.00000
   0.00000    0.00000    0.00000    0.00000   -0.00000    0.00000    0.00000   -0.00000
  -0.00000   -0.00000   -0.00000   -0.00000   -0.00000    0.00000   -0.00000   -0.00000
  -0.00000   -0.00000   -0.00000    0.00000    0.00000    0.00000    0.00000    0.00000
   0.00000    0.00000    0.00000    0.00000    0.00000   -0.00000   -0.00000    0.00000
   0.00000    0.00000    0.00000    0.00000   -0.00000   -0.00000    0.00023    0.00001
 prteigrs : prtvol=0 or 1, do not print more k-points.

 Eight components of 2nd-order total energy (hartree) are
 1,2,3: 0th-order hamiltonian combined with 1st-order wavefunctions
     kin0=   4.77284288E+01 eigvalue=   6.56915342E-01  local=  -1.93341976E+01
 4,5,6: 1st-order hamiltonian combined with 1st and 0th-order wfs
     kin1=  -5.66340153E+01  Hartree=   0.00000000E+00     xc=   0.00000000E+00
 7,8,9: eventually, occupation + non-local contributions
    edocc=   4.52285756E+00     enl0=  -1.12308939E+00   enl1=  -8.26781406E+00
 1-9 gives the relaxation energy (to be shifted if some occ is /=2.0)
   erelax=  -3.24509147E+01
  No Ewald or frozen-wf contrib.: the relaxation energy is the total one
 2DEtotal=   -0.3245091468E+02 Ha. Also 2DEtotal=   -0.883034296062E+03 eV
    (  non-var. 2DEtotal :   -3.2450914683E+01 Ha)

 CALCULATION OF EFFECTIVE MASSES
 NOTE : Additional infos (eff. mass eigenvalues, eigenvectors and, if degenerate, average mass) are available in stdout.

 COMMENTS:
 - At k-point ( 0.000, 0.000, 0.500), bands    38 through    39
   are DEGENERATE (effective mass tensor is therefore not defined).
   See Section IIIB Eqs. (67)-(70) and Appendix E of PRB 93 205147 (2016).
 - Angular average effective mass for Frohlich model is to be averaged over degenerate bands. See later.
 - Associated theta integrals calculated with ntheta=   1000 points.

 K-point ( 0.000, 0.000, 0.500) | band =    38
 Transport equivalent effective mass tensor:
             -0.3820011170              0.0000056596             -0.0000589223
              0.0000056596             -0.3819867421              0.0000535793
             -0.0000589223              0.0000535793             -6.0404017881
 Transport equivalent effective mass tensor eigenvalues:
             -6.0404017892             -0.3820030768             -0.3819847811
 Angular average effective mass 1/(<1/m>)=  -0.5553054908
 Angular average effective mass for Frohlich model (<m**0.5>)**2=  -0.7066945403
 Effective masses along directions: (cart. coord. / red. coord. -> eff. mass)
    1:   1.000000  0.000000  0.000000 /   0.894427 -0.447214  0.000000 ->  -0.3819183480
    2:   0.000000  1.000000  0.000000 /   0.000000  1.000000  0.000000 ->  -0.3819039400
    3:   0.000000  0.000000  1.000000 /   0.000000  0.000000  1.000000 ->  -6.0396835351
    4:   0.577350  0.577350  0.577350 /   0.655651  0.239985  0.715911 ->  -0.5564507336
    5:   0.000000  0.707107  0.707107 /   0.000000  0.621407  0.783488 ->  -0.7154942034
    6:   0.707107  0.000000  0.707107 /   0.639888 -0.319944  0.698699 ->  -0.7184010266
    7:   0.707107  0.707107  0.000000 /   0.939071  0.343724  0.000000 ->  -0.3819054622

 K-point ( 0.000, 0.000, 0.500) | band =    39
 Transport equivalent effective mass tensor:
             -0.9535464610             -0.0000002423              0.0000003811
             -0.0000002423             -0.9535469201             -0.0000004467
              0.0000003811             -0.0000004467             -6.0465860653
 Transport equivalent effective mass tensor eigenvalues:
             -6.0465860653             -0.9535470243             -0.9535463568
 Angular average effective mass 1/(<1/m>)=  -1.3250308899
 Angular average effective mass for Frohlich model (<m**0.5>)**2=  -1.5288082471
 Effective masses along directions: (cart. coord. / red. coord. -> eff. mass)
    1:   1.000000  0.000000  0.000000 /   0.894427 -0.447214  0.000000 ->  -0.9530315070
    2:   0.000000  1.000000  0.000000 /   0.000000  1.000000  0.000000 ->  -0.9530315086
    3:   0.000000  0.000000  1.000000 /   0.000000  0.000000  1.000000 ->  -6.0396841728
    4:   0.577350  0.577350  0.577350 /   0.655651  0.239985  0.715911 ->  -1.3185130547
    5:   0.000000  0.707107  0.707107 /   0.000000  0.621407  0.783488 ->  -1.6615964420
    6:   0.707107  0.000000  0.707107 /   0.639888 -0.319944  0.698699 ->  -1.6463945788
    7:   0.707107  0.707107  0.000000 /   0.939071  0.343724  0.000000 ->  -0.9530315025

 Angular average effective mass for Frohlich model, averaged over degenerate bands.
 Value of     (<<m**0.5>>)**2 =     1.078587E+00
 Absolute Value of <<m**0.5>> =     1.038551E+00

 K-point ( 0.000, 0.000, 0.111) | band =    40
 Effective mass tensor:
              0.8795157148             -0.0000000000              0.0000000001
             -0.0000000000              0.8795157149              0.0000000007
              0.0000000001              0.0000000007              3.6980083688
 Effective mass tensor eigenvalues:
              0.8795157148              0.8795157149              3.6980083688
 Angular average effective mass 1/(<1/m>)=   1.1790624323
 Angular average effective mass for Frohlich model (<m**0.5>)**2=   1.2999356461
 Effective masses along directions: (cart. coord. / red. coord. -> eff. mass)
    1:   1.000000  0.000000  0.000000 /   0.894427 -0.447214  0.000000 ->   0.8795157148
    2:   0.000000  1.000000  0.000000 /   0.000000  1.000000  0.000000 ->   0.8795157149
    3:   0.000000  0.000000  1.000000 /   0.000000  0.000000  1.000000 ->   3.6980083688
    4:   0.577350  0.577350  0.577350 /   0.655651  0.239985  0.715911 ->   1.1790624325
    5:   0.000000  0.707107  0.707107 /   0.000000  0.621407  0.783488 ->   1.4210548828
    6:   0.707107  0.000000  0.707107 /   0.639888 -0.319944  0.698699 ->   1.4210548823
    7:   0.707107  0.707107  0.000000 /   0.939071  0.343724  0.000000 ->   0.8795157148

 END OF EFFECTIVE MASSES SECTION

 ---- first-order wavefunction calculations are completed ----

 Total localisation tensor (bohr^2) in cartesian coordinates
  WARNING : still subject to testing - especially symmetries.
      direction              matrix element
   alpha     beta       real part   imaginary part
     1        1       1.5504960813    0.0000000000
     1        2      -0.5371096364    0.0000000000
     1        3       0.0000000000    0.0000000000
     2        1      -0.5371096364    0.0000000000
     2        2       0.9303011795    0.0000000000
     2        3       0.0000000000    0.0000000000
     3        1       0.0000000000    0.0000000000
     3        2       0.0000000000    0.0000000000
     3        3       0.5051687198    0.0000000000

 respfn : d/dk was computed, but no 2DTE, so no DDB output.

== END DATASET(S) ==============================================================

 -outvars: echo values of variables after computation  --------
            acell      1.0000000000E+00  1.0000000000E+00  1.0000000000E+00 Bohr
              amu      1.32905430E+02  6.35460000E+01  1.59994000E+01
             ecut      4.60000000E+01 Hartree
           etotal     -3.2450914684E+01
            fcart      0.0000000000E+00  0.0000000000E+00  0.0000000000E+00
                       0.0000000000E+00  0.0000000000E+00  0.0000000000E+00
                       0.0000000000E+00  0.0000000000E+00  0.0000000000E+00
                       0.0000000000E+00  0.0000000000E+00  0.0000000000E+00
                       0.0000000000E+00  0.0000000000E+00  0.0000000000E+00
                       0.0000000000E+00  0.0000000000E+00  0.0000000000E+00
-          fftalg         512
           irdden           1
           irdwfk           1
           istwfk        1    0
              ixc     -116133
              kpt      0.00000000E+00  0.00000000E+00  5.00000000E-01
                       0.00000000E+00  0.00000000E+00  1.11111111E-01
           kptopt           0
P           mkmem           2
P          mkqmem           2
P          mk1mem           2
            natom           6
            nband          48
           nbdbuf           4
            ngfft          60      60      64
             nkpt           2
            nstep        1000
             nsym          12
           ntypat           3
              occ      2.000000  2.000000  2.000000  2.000000  2.000000  2.000000
                       2.000000  2.000000  2.000000  2.000000  2.000000  2.000000
                       2.000000  2.000000  2.000000  2.000000  2.000000  2.000000
                       2.000000  2.000000  2.000000  2.000000  2.000000  2.000000
                       2.000000  2.000000  2.000000  2.000000  2.000000  2.000000
                       2.000000  2.000000  2.000000  2.000000  2.000000  2.000000
                       2.000000  2.000000  2.000000  0.000000  0.000000  0.000000
                       0.000000  0.000000  0.000000  0.000000  0.000000  0.000000
        optdriver           1
            prtwf          -1
            rfdir           1       1       1
           rfelfd           2
            rprim      9.5604204712E+00  0.0000000000E+00  0.0000000000E+00
                      -4.7802102356E+00  8.2795669989E+00  0.0000000000E+00
                       0.0000000000E+00  0.0000000000E+00  1.0439106496E+01
          spgroup         164
           strten      0.0000000000E+00  0.0000000000E+00  0.0000000000E+00
                       0.0000000000E+00  0.0000000000E+00  0.0000000000E+00
           symrel      1  0  0   0  1  0   0  0  1      -1  0  0   0 -1  0   0  0 -1
                      -1  0  0   1  1  0   0  0  1       1  0  0  -1 -1  0   0  0 -1
                       0  1  0  -1 -1  0   0  0  1       0 -1  0   1  1  0   0  0 -1
                       0 -1  0  -1  0  0   0  0  1       0  1  0   1  0  0   0  0 -1
                      -1 -1  0   1  0  0   0  0  1       1  1  0  -1  0  0   0  0 -1
                       1  1  0   0 -1  0   0  0  1      -1 -1  0   0  1  0   0  0 -1
           tolwfr      1.00000000E-20
            typat      1  2  2  2  3  3
           useylm           1
              wtk        0.50000    0.50000
           xangst      0.0000000000E+00  0.0000000000E+00  2.7620686179E+00
                       1.2647891545E+00  2.1906790764E+00  0.0000000000E+00
                       2.5295783089E+00  0.0000000000E+00  0.0000000000E+00
                      -1.2647891545E+00  2.1906790764E+00  0.0000000000E+00
                       2.5295783089E+00  1.4604527176E+00  1.1080977364E+00
                       0.0000000000E+00  2.9209054352E+00  4.4160394994E+00
            xcart      0.0000000000E+00  0.0000000000E+00  5.2195532481E+00
                       2.3901051178E+00  4.1397834995E+00  0.0000000000E+00
                       4.7802102356E+00  0.0000000000E+00  0.0000000000E+00
                      -2.3901051178E+00  4.1397834995E+00  0.0000000000E+00
                       4.7802102356E+00  2.7598556663E+00  2.0940012503E+00
                       0.0000000000E+00  5.5197113326E+00  8.3451052459E+00
             xred      0.0000000000E+00  0.0000000000E+00  5.0000000000E-01
                       5.0000000000E-01  5.0000000000E-01  0.0000000000E+00
                       5.0000000000E-01  0.0000000000E+00  0.0000000000E+00
                       0.0000000000E+00  5.0000000000E-01  0.0000000000E+00
                       6.6666666667E-01  3.3333333333E-01  2.0059200000E-01
                       3.3333333333E-01  6.6666666667E-01  7.9940800000E-01
            znucl       55.00000   29.00000    8.00000

- Timing analysis has been suppressed with timopt=0

 Suggested references for the acknowledgment of ABINIT usage.

 Calculation completed.
.Delivered  14 WARNINGs and   9 COMMENTs to log file.