.Version 9.5.1 of ABINIT

 ABINIT is a project of the Universite Catholique de Louvain,
 Corning Inc. and other collaborators, see ~abinit/doc/developers/contributors.txt .
 acknowledgments of the ABINIT effort.

.Starting date : Sat  1 May 2021.
- ( at 05h04 )

- input  file    -> /scratch/users/j/a/jabreu/flow_simple_6atoms/flow/w145/t1/run.abi
- output file    -> /scratch/users/j/a/jabreu/flow_simple_6atoms/flow/w145/t1/run.abo
- root for input  files -> /scratch/users/j/a/jabreu/flow_simple_6atoms/flow/w145/t1/indata/in
- root for output files -> /scratch/users/j/a/jabreu/flow_simple_6atoms/flow/w145/t1/outdata/out

 Symmetries : space group Cm c m (# 63); Bravais oC (1-face-center ortho.)
     intxc =       0      iscf =       7    lmnmax =      32     lnmax =       8
     mgfft =      72  mpssoang =       4    mqgrid =    3001     natom =       6
  nloc_mem =       1    nspden =       1   nspinor =       1    nsppol =       1
      nsym =       8    n1xccc =    2501    ntypat =       3    occopt =       1
   xclevel =       2
-    mband =          43        mffmem =           1         mkmem =           2
-   mkqmem =           2        mk1mem =           2           mpw =       15256
      nfft =      311040          nkpt =           2
  Rough estimation (10% accuracy) of disk space for files :

------------- Echo of variables that govern the present computation ------------
-
- outvars: echo of selected default values
-   iomode0 =  0 , fftalg0 =512 , wfoptalg0 =  0
-
- outvars: echo of global parameters not present in the input file
-  max_nthreads =    0
-
 -outvars: echo values of preprocessed input variables --------
            acell      1.0000000000E+00  1.0000000000E+00  1.0000000000E+00 Bohr
              amu      1.32905430E+02  6.35460000E+01  1.59994000E+01
             ecut      4.60000000E+01 Hartree
-          fftalg         512
           irdden           1
           irdwfk           1
           istwfk        1    0
              ixc     -116133
              kpt      0.00000000E+00  0.00000000E+00  0.00000000E+00
                      -1.05263158E-01  1.05263158E-01  0.00000000E+00
           kptopt           0
P           mkmem           2
P          mkqmem           2
P          mk1mem           2
            natom           6
            nband          43
           nbdbuf           4
            ngfft          72      72      60
             nkpt           2
            nstep        1000
             nsym           8
           ntypat           3
              occ      2.000000  2.000000  2.000000  2.000000  2.000000  2.000000
                       2.000000  2.000000  2.000000  2.000000  2.000000  2.000000
                       2.000000  2.000000  2.000000  2.000000  2.000000  2.000000
                       2.000000  2.000000  2.000000  2.000000  2.000000  2.000000
                       2.000000  2.000000  2.000000  2.000000  2.000000  2.000000
                       2.000000  2.000000  2.000000  2.000000  0.000000  0.000000
                       0.000000  0.000000  0.000000  0.000000  0.000000  0.000000
                       0.000000
        optdriver           1
            prtwf          -1
            rfdir           1       1       1
           rfelfd           2
            rprim      1.1282747607E+01  0.0000000000E+00  0.0000000000E+00
                      -5.7768419547E+00  9.6916711972E+00  0.0000000000E+00
                       0.0000000000E+00  0.0000000000E+00  9.3593424054E+00
          spgroup          63
           symrel      1  0  0   0  1  0   0  0  1      -1  0  0   0 -1  0   0  0 -1
                       0  1  0   1  0  0   0  0 -1       0 -1  0  -1  0  0   0  0  1
                      -1  0  0   0 -1  0   0  0  1       1  0  0   0  1  0   0  0 -1
                       0 -1  0  -1  0  0   0  0 -1       0  1  0   1  0  0   0  0  1
            tnons      0.0000000  0.0000000  0.0000000     0.0000000  0.0000000 -0.0000000
                      -0.0000000 -0.0000000 -0.0000000     0.0000000  0.0000000  0.0000000
                       0.0000000  0.0000000  0.5000000     0.0000000  0.0000000  0.5000000
                       0.0000000  0.0000000  0.5000000    -0.0000000 -0.0000000  0.5000000
           tolwfr      1.00000000E-20
            typat      1  1  2  2  3  3
           useylm           1
              wtk        0.50000    0.50000
           xangst      4.2754796020E+00  9.6299425475E-01  1.2381876721E+00
                      -1.3618798182E+00  4.1656172560E+00  3.7145630162E+00
                       1.4567998919E+00  2.5643057554E+00  0.0000000000E+00
                       1.4567998919E+00  2.5643057554E+00  2.4763753442E+00
                       3.0641970719E-01  3.2178447202E+00  1.2381876721E+00
                       2.6071800767E+00  1.9107667905E+00  3.7145630162E+00
            xcart      8.0794855346E+00  1.8197954090E+00  2.3398356013E+00
                      -2.5735798823E+00  7.8718757882E+00  7.0195068040E+00
                       2.7529528261E+00  4.8458355986E+00  0.0000000000E+00
                       2.7529528261E+00  4.8458355986E+00  4.6796712027E+00
                       5.7904932830E-01  6.0808452593E+00  2.3398356013E+00
                       4.9268563240E+00  3.6108259379E+00  7.0195068040E+00
             xred      8.1223100000E-01  1.8776900000E-01  2.5000000000E-01
                       1.8776900000E-01  8.1223100000E-01  7.5000000000E-01
                       5.0000000000E-01  5.0000000000E-01  0.0000000000E+00
                       5.0000000000E-01  5.0000000000E-01  5.0000000000E-01
                       3.7257000000E-01  6.2743000000E-01  2.5000000000E-01
                       6.2743000000E-01  3.7257000000E-01  7.5000000000E-01
            znucl       55.00000   29.00000    8.00000

 chkinp: Checking input parameters for consistency.

== DATASET  1 ==================================================================
-   mpi_nproc: 1, omp_nthreads: -1 (-1 if OMP is not activated)

--- !DatasetInfo
iteration_state: {dtset: 1, }
dimensions: {natom: 6, nkpt: 2, mband: 43, nsppol: 1, nspinor: 1, nspden: 1, mpw: 15256, }
cutoff_energies: {ecut:  46.0, pawecutdg:  -1.0, }
electrons: {nelect:   6.80000000E+01, charge:   0.00000000E+00, occopt:   1.00000000E+00, tsmear:   1.00000000E-02, }
meta: {optdriver: 1, rfelfd: 2, }
...

 Real(R)+Recip(G) space primitive vectors, cartesian coordinates (Bohr,Bohr^-1):
 R(1)= 11.2827476  0.0000000  0.0000000  G(1)=  0.0886309  0.0528296  0.0000000
 R(2)= -5.7768420  9.6916712  0.0000000  G(2)=  0.0000000  0.1031814  0.0000000
 R(3)=  0.0000000  0.0000000  9.3593424  G(3)=  0.0000000  0.0000000  0.1068451
 Unit cell volume ucvol=  1.0234317E+03 bohr^3
 Angles (23,13,12)=  9.00000000E+01  9.00000000E+01  1.20797585E+02 degrees

 getcut: wavevector=  0.0000  0.0000  0.0000  ngfft=  72  72  60
         ecut(hartree)=     46.000   => boxcut(ratio)=   2.09034

--- Pseudopotential description ------------------------------------------------
- pspini: atom type   1  psp file is /scratch/users/j/a/jabreu/pseudos/PBEsol/Cs.psp8
- pspatm: opening atomic psp file    /scratch/users/j/a/jabreu/pseudos/PBEsol/Cs.psp8
- Cs    ONCVPSP-3.3.0  r_core=   2.27353   1.85623   2.01788   1.90105
- 55.00000   9.00000    180112                znucl, zion, pspdat
    8 -116133    3    4       600   0.00000   pspcod,pspxc,lmax,lloc,mmax,r2well
    5.99000000000000    5.00000000000000    0.00000000000000   rchrg,fchrg,qchrg
     nproj     2     2     2     2
     extension_switch     1
  pspatm : epsatm=   22.12462445
         --- l  ekb(1:nproj) -->
             0    6.214110    0.767882
             1    6.311966    0.793598
             2    3.769790    0.913105
             3   -9.247129   -2.432478
 pspatm: atomic psp has been read  and splines computed

- pspini: atom type   2  psp file is /scratch/users/j/a/jabreu/pseudos/PBEsol/Cu.psp8
- pspatm: opening atomic psp file    /scratch/users/j/a/jabreu/pseudos/PBEsol/Cu.psp8
- Cu    ONCVPSP-3.3.0  r_core=   1.26204   1.45626   1.76249
- 29.00000  19.00000    180112                znucl, zion, pspdat
    8 -116133    2    4       600   0.00000   pspcod,pspxc,lmax,lloc,mmax,r2well
    5.99000000000000    3.50000000000000    0.00000000000000   rchrg,fchrg,qchrg
     nproj     2     2     2
     extension_switch     1
  pspatm : epsatm=   21.63488701
         --- l  ekb(1:nproj) -->
             0    5.008230   -0.401634
             1   -3.496700   -0.765945
             2   -6.895851   -2.521180
 pspatm: atomic psp has been read  and splines computed

- pspini: atom type   3  psp file is /scratch/users/j/a/jabreu/pseudos/PBEsol/O.psp8
- pspatm: opening atomic psp file    /scratch/users/j/a/jabreu/pseudos/PBEsol/O.psp8
- O     ONCVPSP-3.3.0  r_core=   1.35509   1.45563   1.26150
-  8.00000   6.00000    180112                znucl, zion, pspdat
    8 -116133    2    4       600   0.00000   pspcod,pspxc,lmax,lloc,mmax,r2well
    5.99000000000000    4.00000000000000    0.00000000000000   rchrg,fchrg,qchrg
     nproj     2     2     1
     extension_switch     1
  pspatm : epsatm=    6.22910522
         --- l  ekb(1:nproj) -->
             0    6.050032    0.820363
             1   -4.739617   -1.153841
             2   -1.335834
 pspatm: atomic psp has been read  and splines computed

   6.79845187E+03                                ecore*ucvol(ha*bohr**3)

-inwffil : will read wavefunctions from disk file /scratch/users/j/a/jabreu/flow_simple_6atoms/flow/w145/t1/indata/in_WFK

 ==>  initialize data related to q vector <==

 The list of irreducible perturbations for this q vector is:
    1)    idir= 1    ipert=   7
    2)    idir= 2    ipert=   7
    3)    idir= 3    ipert=   7

 Perturbation wavevector (in red.coord.)   0.000000  0.000000  0.000000
 Perturbation : derivative vs k along direction   1

 dfpt_looppert : COMMENT -
  In a d/dk calculation, iscf is set to -3 automatically.
 The set of symmetries contains only one element for this perturbation.
 symkpt : not enough symmetry to change the number of k points.

[...]

 Initialisation of the first-order wave-functions :
  ireadwf=   0

--- !BeginCycle
iteration_state: {dtset: 1, }
solver: {iscf: 7, nstep: 1000, nline: 4, wfoptalg: 0, }
tolerances: {tolwfr: 1.00E-20, }
...

     iter   2DEtotal(Ha)        deltaE(Ha) residm    vres2
-ETOT  1  -33.434899470129     -3.343E+01 4.661E-02 0.000E+00
 ETOT  2  -33.562193803643     -1.273E-01 2.250E-03 0.000E+00
 ETOT  3  -33.567014379375     -4.821E-03 1.756E-04 0.000E+00
 ETOT  4  -33.567335297673     -3.209E-04 2.265E-05 0.000E+00
 ETOT  5  -33.567362399414     -2.710E-05 6.158E-06 0.000E+00
 ETOT  6  -33.567365018569     -2.619E-06 6.824E-07 0.000E+00
 ETOT  7  -33.567365292949     -2.744E-07 2.805E-07 0.000E+00
 ETOT  8  -33.567365323229     -3.028E-08 3.128E-08 0.000E+00
 ETOT  9  -33.567365326681     -3.452E-09 1.334E-08 0.000E+00
 ETOT 10  -33.567365327082     -4.013E-10 1.480E-09 0.000E+00
 ETOT 11  -33.567365327130     -4.732E-11 6.418E-10 0.000E+00
 ETOT 12  -33.567365327135     -5.635E-12 7.097E-11 0.000E+00
 ETOT 13  -33.567365327136     -6.750E-13 3.105E-11 0.000E+00
 ETOT 14  -33.567365327136     -9.237E-14 3.427E-12 0.000E+00
 ETOT 15  -33.567365327136      7.105E-15 1.505E-12 0.000E+00
 ETOT 16  -33.567365327136      7.105E-15 1.661E-13 0.000E+00
 ETOT 17  -33.567365327136      0.000E+00 7.305E-14 0.000E+00
 ETOT 18  -33.567365327136     -7.105E-15 8.060E-15 0.000E+00
 ETOT 19  -33.567365327136     -7.105E-15 3.547E-15 0.000E+00
 ETOT 20  -33.567365327136     -7.105E-15 3.916E-16 0.000E+00
 ETOT 21  -33.567365327136      1.421E-14 1.723E-16 0.000E+00
 ETOT 22  -33.567365327136     -2.132E-14 1.904E-17 0.000E+00
 ETOT 23  -33.567365327136      1.421E-14 8.372E-18 0.000E+00
 ETOT 24  -33.567365327136      0.000E+00 9.257E-19 0.000E+00
 ETOT 25  -33.567365327136      0.000E+00 4.068E-19 0.000E+00
 ETOT 26  -33.567365327136      0.000E+00 4.503E-20 0.000E+00
 ETOT 27  -33.567365327136      0.000E+00 1.977E-20 0.000E+00
 ETOT 28  -33.567365327136      0.000E+00 9.948E-21 0.000E+00

 At SCF step   28   max residual=  9.95E-21 < tolwfr=  1.00E-20 =>converged.

 ----iterations are completed or convergence reached----

 dfpt_looppert: DFPT cycle converged with prtwf=-1. Will skip output of the 1st-order WFK file.
 dfpt_looppert : ek2=    5.7161195291E+01
          f-sum rule ratio=    1.0429143772E+00
 prteigrs : about to open file /scratch/users/j/a/jabreu/flow_simple_6atoms/flow/w145/t1/tmpdata/tmp_1WF1_EIG
 Expectation of eigenvalue derivatives (hartree) for nkpt=   2  k points:
  (in case of degenerate eigenvalues, averaged derivative)
 kpt#   1, nband= 43, wtk=  0.50000, kpt=  0.0000  0.0000  0.0000 (reduced coord)
  -0.00000   -0.00000    0.00000    0.00000    0.00000   -0.00000    0.00000    0.00000
   0.00000   -0.00000    0.00000    0.00000   -0.00000   -0.00000   -0.00000    0.00000
   0.00000   -0.00000   -0.00000   -0.00000   -0.00000   -0.00000    0.00000   -0.00000
   0.00000    0.00000    0.00000    0.00000    0.00000   -0.00000    0.00000    0.00000
   0.00000   -0.00000   -0.00000   -0.00000   -0.00000    0.00000    0.00000   -0.00000
  -0.00000   -0.00000    0.00002
 prteigrs : prtvol=0 or 1, do not print more k-points.

 Eight components of 2nd-order total energy (hartree) are
 1,2,3: 0th-order hamiltonian combined with 1st-order wavefunctions
     kin0=   4.72651341E+01 eigvalue=   5.10724385E-01  local=  -2.09088710E+01
 4,5,6: 1st-order hamiltonian combined with 1st and 0th-order wfs
     kin1=  -5.96142324E+01  Hartree=   0.00000000E+00     xc=   0.00000000E+00
 7,8,9: eventually, occupation + non-local contributions
    edocc=   5.86308059E+00     enl0=   8.37297209E-01   enl1=  -7.52049827E+00
 1-9 gives the relaxation energy (to be shifted if some occ is /=2.0)
   erelax=  -3.35673653E+01
  No Ewald or frozen-wf contrib.: the relaxation energy is the total one
 2DEtotal=   -0.3356736533E+02 Ha. Also 2DEtotal=   -0.913414463086E+03 eV
    (  non-var. 2DEtotal :   -3.3567365327E+01 Ha)

 Perturbation wavevector (in red.coord.)   0.000000  0.000000  0.000000
 Perturbation : derivative vs k along direction   2
 The set of symmetries contains only one element for this perturbation.
 symkpt : not enough symmetry to change the number of k points.

[...]

 Perturbation wavevector (in red.coord.)   0.000000  0.000000  0.000000
 Perturbation : derivative vs k along direction   3
 The set of symmetries contains only one element for this perturbation.
 symkpt : not enough symmetry to change the number of k points.

-inwffil : will read wavefunctions from disk file /scratch/users/j/a/jabreu/flow_simple_6atoms/flow/w145/t1/indata/in_WFK

 Initialisation of the first-order wave-functions :
  ireadwf=   0

--- !BeginCycle
iteration_state: {dtset: 1, }
solver: {iscf: 7, nstep: 1000, nline: 4, wfoptalg: 0, }
tolerances: {tolwfr: 1.00E-20, }
...

     iter   2DEtotal(Ha)        deltaE(Ha) residm    vres2
-ETOT  1  -37.555390216565     -3.756E+01 6.827E-02 0.000E+00
 ETOT  2  -37.704162650703     -1.488E-01 4.359E-03 0.000E+00
 ETOT  3  -37.710087286252     -5.925E-03 2.008E-04 0.000E+00
 ETOT  4  -37.710474049306     -3.868E-04 2.055E-05 0.000E+00
 ETOT  5  -37.710505508141     -3.146E-05 1.621E-06 0.000E+00
 ETOT  6  -37.710508454617     -2.946E-06 2.451E-07 0.000E+00
 ETOT  7  -37.710508758830     -3.042E-07 3.733E-08 0.000E+00
 ETOT  8  -37.710508792923     -3.409E-08 3.786E-09 0.000E+00
 ETOT  9  -37.710508796948     -4.025E-09 9.423E-10 0.000E+00
 ETOT 10  -37.710508797441     -4.930E-10 6.537E-11 0.000E+00
 ETOT 11  -37.710508797502     -6.186E-11 2.381E-11 0.000E+00
 ETOT 12  -37.710508797510     -7.866E-12 1.603E-12 0.000E+00
 ETOT 13  -37.710508797511     -1.066E-12 5.978E-13 0.000E+00
 ETOT 14  -37.710508797511     -1.563E-13 3.952E-14 0.000E+00
 ETOT 15  -37.710508797511      1.421E-14 1.495E-14 0.000E+00
 ETOT 16  -37.710508797511     -1.421E-14 9.789E-16 0.000E+00
 ETOT 17  -37.710508797511      0.000E+00 3.734E-16 0.000E+00
 ETOT 18  -37.710508797512     -2.842E-14 2.433E-17 0.000E+00
 ETOT 19  -37.710508797511      2.842E-14 9.316E-18 0.000E+00
 ETOT 20  -37.710508797512     -3.553E-14 6.064E-19 0.000E+00
 ETOT 21  -37.710508797512      7.105E-15 2.323E-19 0.000E+00
 ETOT 22  -37.710508797512     -7.105E-15 1.515E-20 0.000E+00
 ETOT 23  -37.710508797512      0.000E+00 9.965E-21 0.000E+00

 At SCF step   23   max residual=  9.97E-21 < tolwfr=  1.00E-20 =>converged.

 ----iterations are completed or convergence reached----

 dfpt_looppert: DFPT cycle converged with prtwf=-1. Will skip output of the 1st-order WFK file.
 dfpt_looppert : ek2=    6.1292589967E+01
          f-sum rule ratio=    1.1164088879E+00
 prteigrs : about to open file /scratch/users/j/a/jabreu/flow_simple_6atoms/flow/w145/t1/tmpdata/tmp_1WF1_EIG
 Expectation of eigenvalue derivatives (hartree) for nkpt=   2  k points:
  (in case of degenerate eigenvalues, averaged derivative)
 kpt#   1, nband= 43, wtk=  0.50000, kpt=  0.0000  0.0000  0.0000 (reduced coord)
   0.00000    0.00000   -0.00000   -0.00000    0.00000    0.00000    0.00000   -0.00000
  -0.00000   -0.00000   -0.00000   -0.00000    0.00000   -0.00000    0.00000    0.00000
  -0.00000    0.00000   -0.00000   -0.00000    0.00000   -0.00000    0.00000   -0.00000
  -0.00000   -0.00000   -0.00000    0.00000    0.00000    0.00000   -0.00000   -0.00000
  -0.00000    0.00000    0.00000   -0.00000    0.00000   -0.00000    0.00000    0.00000
  -0.00000    0.00000    0.00004
 prteigrs : prtvol=0 or 1, do not print more k-points.

 Eight components of 2nd-order total energy (hartree) are
 1,2,3: 0th-order hamiltonian combined with 1st-order wavefunctions
     kin0=   4.87694892E+01 eigvalue=   5.07637246E-01  local=  -2.13004545E+01
 4,5,6: 1st-order hamiltonian combined with 1st and 0th-order wfs
     kin1=  -6.84275922E+01  Hartree=   0.00000000E+00     xc=   0.00000000E+00
 7,8,9: eventually, occupation + non-local contributions
    edocc=   9.63342155E+00     enl0=   1.00415267E-01   enl1=  -6.99342539E+00
 1-9 gives the relaxation energy (to be shifted if some occ is /=2.0)
   erelax=  -3.77105088E+01
  No Ewald or frozen-wf contrib.: the relaxation energy is the total one
 2DEtotal=   -0.3771050880E+02 Ha. Also 2DEtotal=   -0.102615513044E+04 eV
    (  non-var. 2DEtotal :   -3.7710508797E+01 Ha)

 CALCULATION OF EFFECTIVE MASSES
 NOTE : Additional infos (eff. mass eigenvalues, eigenvectors and, if degenerate, average mass) are available in stdout.

 K-point ( 0.000, 0.000, 0.000) | band =    34
 Effective mass tensor:
             -5.2011303505             -0.6002071464             -0.0000063133
             -0.6002071464             -5.9164205297             -0.0000111133
             -0.0000063133             -0.0000111133             -0.2644487825
 Effective mass tensor eigenvalues:
             -6.2574589369             -4.8600919433             -0.2644487825
 Angular average effective mass 1/(<1/m>)=  -0.7234115028
 Angular average effective mass for Frohlich model (<m**0.5>)**2=  -1.3419079383
 Effective masses along directions: (cart. coord. / red. coord. -> eff. mass)
    1:   1.000000  0.000000  0.000000 /   0.890111 -0.455743  0.000000 ->  -5.1402407269
    2:   0.000000  1.000000  0.000000 /   0.000000  1.000000  0.000000 ->  -5.8471570050
    3:   0.000000  0.000000  1.000000 /   0.000000  0.000000  1.000000 ->  -0.2644487825
    4:   0.577350  0.577350  0.577350 /   0.743601  0.258011  0.616837 ->  -0.7303669589
    5:   0.000000  0.707107  0.707107 /   0.000000  0.719332  0.694666 ->  -0.5060139215
    6:   0.707107  0.000000  0.707107 /   0.716066 -0.366631  0.593996 ->  -0.5030198342
    7:   0.707107  0.707107  0.000000 /   0.944746  0.327803  0.000000 ->  -6.1331868315

 K-point (-0.105, 0.105, 0.000) | band =    35
 Effective mass tensor:
              1.0862562831              1.0236505086             -0.0000001829
              1.0236505086              2.3065744262              0.0000001098
             -0.0000001829              0.0000001098              0.3171931774
 Effective mass tensor eigenvalues:
              0.3171931774              0.5047130192              2.8881176901
 Angular average effective mass 1/(<1/m>)=   0.5474229618
 Angular average effective mass for Frohlich model (<m**0.5>)**2=   0.6522191496
 Effective masses along directions: (cart. coord. / red. coord. -> eff. mass)
    1:   1.000000  0.000000  0.000000 /   0.890111 -0.455743  0.000000 ->   0.6319633924
    2:   0.000000  1.000000  0.000000 /   0.000000  1.000000  0.000000 ->   1.3419214432
    3:   0.000000  0.000000  1.000000 /   0.000000  0.000000  1.000000 ->   0.3171931774
    4:   0.577350  0.577350  0.577350 /   0.743601  0.258011  0.616837 ->   0.7360658446
    5:   0.000000  0.707107  0.707107 /   0.000000  0.719332  0.694666 ->   0.5131031526
    6:   0.707107  0.000000  0.707107 /   0.716066 -0.366631  0.593996 ->   0.4223842198
    7:   0.707107  0.707107  0.000000 /   0.944746  0.327803  0.000000 ->   2.1666866332

 END OF EFFECTIVE MASSES SECTION

 ---- first-order wavefunction calculations are completed ----

 Total localisation tensor (bohr^2) in cartesian coordinates
  WARNING : still subject to testing - especially symmetries.
      direction              matrix element
   alpha     beta       real part   imaginary part
     1        1       1.2066917597    0.0000000000
     1        2      -0.4204834155    0.0000000000
     1        3       0.0000000000    0.0000000000
     2        1      -0.4204834155    0.0000000000
     2        2       0.7054350870    0.0000000000
     2        3       0.0000000000    0.0000000000
     3        1       0.0000000000    0.0000000000
     3        2       0.0000000000    0.0000000000
     3        3       1.5746110077    0.0000000000

 respfn : d/dk was computed, but no 2DTE, so no DDB output.

== END DATASET(S) ==============================================================

 -outvars: echo values of variables after computation  --------
            acell      1.0000000000E+00  1.0000000000E+00  1.0000000000E+00 Bohr
              amu      1.32905430E+02  6.35460000E+01  1.59994000E+01
             ecut      4.60000000E+01 Hartree
           etotal     -3.7710508798E+01
            fcart      0.0000000000E+00  0.0000000000E+00  0.0000000000E+00
                       0.0000000000E+00  0.0000000000E+00  0.0000000000E+00
                       0.0000000000E+00  0.0000000000E+00  0.0000000000E+00
                       0.0000000000E+00  0.0000000000E+00  0.0000000000E+00
                       0.0000000000E+00  0.0000000000E+00  0.0000000000E+00
                       0.0000000000E+00  0.0000000000E+00  0.0000000000E+00
-          fftalg         512
           irdden           1
           irdwfk           1
           istwfk        1    0
              ixc     -116133
              kpt      0.00000000E+00  0.00000000E+00  0.00000000E+00
                      -1.05263158E-01  1.05263158E-01  0.00000000E+00
           kptopt           0
P           mkmem           2
P          mkqmem           2
P          mk1mem           2
            natom           6
            nband          43
           nbdbuf           4
            ngfft          72      72      60
             nkpt           2
            nstep        1000
             nsym           8
           ntypat           3
              occ      2.000000  2.000000  2.000000  2.000000  2.000000  2.000000
                       2.000000  2.000000  2.000000  2.000000  2.000000  2.000000
                       2.000000  2.000000  2.000000  2.000000  2.000000  2.000000
                       2.000000  2.000000  2.000000  2.000000  2.000000  2.000000
                       2.000000  2.000000  2.000000  2.000000  2.000000  2.000000
                       2.000000  2.000000  2.000000  2.000000  0.000000  0.000000
                       0.000000  0.000000  0.000000  0.000000  0.000000  0.000000
                       0.000000
        optdriver           1
            prtwf          -1
            rfdir           1       1       1
           rfelfd           2
            rprim      1.1282747607E+01  0.0000000000E+00  0.0000000000E+00
                      -5.7768419547E+00  9.6916711972E+00  0.0000000000E+00
                       0.0000000000E+00  0.0000000000E+00  9.3593424054E+00
          spgroup          63
           strten      0.0000000000E+00  0.0000000000E+00  0.0000000000E+00
                       0.0000000000E+00  0.0000000000E+00  0.0000000000E+00
           symrel      1  0  0   0  1  0   0  0  1      -1  0  0   0 -1  0   0  0 -1
                       0  1  0   1  0  0   0  0 -1       0 -1  0  -1  0  0   0  0  1
                      -1  0  0   0 -1  0   0  0  1       1  0  0   0  1  0   0  0 -1
                       0 -1  0  -1  0  0   0  0 -1       0  1  0   1  0  0   0  0  1
            tnons      0.0000000  0.0000000  0.0000000     0.0000000  0.0000000 -0.0000000
                      -0.0000000 -0.0000000 -0.0000000     0.0000000  0.0000000  0.0000000
                       0.0000000  0.0000000  0.5000000     0.0000000  0.0000000  0.5000000
                       0.0000000  0.0000000  0.5000000    -0.0000000 -0.0000000  0.5000000
           tolwfr      1.00000000E-20
            typat      1  1  2  2  3  3
           useylm           1
              wtk        0.50000    0.50000
           xangst      4.2754796020E+00  9.6299425475E-01  1.2381876721E+00
                      -1.3618798182E+00  4.1656172560E+00  3.7145630162E+00
                       1.4567998919E+00  2.5643057554E+00  0.0000000000E+00
                       1.4567998919E+00  2.5643057554E+00  2.4763753442E+00
                       3.0641970719E-01  3.2178447202E+00  1.2381876721E+00
                       2.6071800767E+00  1.9107667905E+00  3.7145630162E+00
            xcart      8.0794855346E+00  1.8197954090E+00  2.3398356013E+00
                      -2.5735798823E+00  7.8718757882E+00  7.0195068040E+00
                       2.7529528261E+00  4.8458355986E+00  0.0000000000E+00
                       2.7529528261E+00  4.8458355986E+00  4.6796712027E+00
                       5.7904932830E-01  6.0808452593E+00  2.3398356013E+00
                       4.9268563240E+00  3.6108259379E+00  7.0195068040E+00
             xred      8.1223100000E-01  1.8776900000E-01  2.5000000000E-01
                       1.8776900000E-01  8.1223100000E-01  7.5000000000E-01
                       5.0000000000E-01  5.0000000000E-01  0.0000000000E+00
                       5.0000000000E-01  5.0000000000E-01  5.0000000000E-01
                       3.7257000000E-01  6.2743000000E-01  2.5000000000E-01
                       6.2743000000E-01  3.7257000000E-01  7.5000000000E-01
            znucl       55.00000   29.00000    8.00000

- Timing analysis has been suppressed with timopt=0

 Suggested references for the acknowledgment of ABINIT usage.

 Calculation completed.
.Delivered  14 WARNINGs and   9 COMMENTs to log file.