.Version 9.5.1 of ABINIT

 ABINIT is a project of the Universite Catholique de Louvain,
 Corning Inc. and other collaborators, see ~abinit/doc/developers/contributors.txt .
 acknowledgments of the ABINIT effort.

.Starting date : Wed  5 May 2021.
- ( at 20h08 )

- input  file    -> /scratch/users/j/a/jabreu/flow_simple_7atoms/flow/w192/t1/run.abi
- output file    -> /scratch/users/j/a/jabreu/flow_simple_7atoms/flow/w192/t1/run.abo
- root for input  files -> /scratch/users/j/a/jabreu/flow_simple_7atoms/flow/w192/t1/indata/in
- root for output files -> /scratch/users/j/a/jabreu/flow_simple_7atoms/flow/w192/t1/outdata/out

 Symmetries : space group I-4 (# 82); Bravais tI (body-center tetrag.)
     intxc =       0      iscf =       7    lmnmax =      18     lnmax =       6
     mgfft =      80  mpssoang =       3    mqgrid =    3001     natom =       7
  nloc_mem =       1    nspden =       1   nspinor =       1    nsppol =       1
      nsym =       4    n1xccc =    2501    ntypat =       3    occopt =       1
   xclevel =       2
-    mband =          34        mffmem =           1         mkmem =           2
-   mkqmem =           2        mk1mem =           2           mpw =       18203
      nfft =      512000          nkpt =           2
  Rough estimation (10% accuracy) of disk space for files :

------------- Echo of variables that govern the present computation ------------
-
- outvars: echo of selected default values
-   iomode0 =  0 , fftalg0 =512 , wfoptalg0 =  0
-
- outvars: echo of global parameters not present in the input file
-  max_nthreads =    0
-
 -outvars: echo values of preprocessed input variables --------
            acell      1.0000000000E+00  1.0000000000E+00  1.0000000000E+00 Bohr
              amu      2.69815390E+01  1.12411000E+02  3.20660000E+01
             ecut      5.10000000E+01 Hartree
-          fftalg         512
           irdden           1
           irdwfk           1
           istwfk        1    1
              ixc     -116133
              kpt     -1.11022302E-16  0.00000000E+00  5.00000000E-01
                       0.00000000E+00  0.00000000E+00  0.00000000E+00
           kptopt           0
P           mkmem           2
P          mkqmem           2
P          mk1mem           2
            natom           7
            nband          34
           nbdbuf           4
            ngfft          80      80      80
             nkpt           2
            nstep        2000
             nsym           4
           ntypat           3
              occ      2.000000  2.000000  2.000000  2.000000  2.000000  2.000000
                       2.000000  2.000000  2.000000  2.000000  2.000000  2.000000
                       2.000000  2.000000  2.000000  2.000000  2.000000  2.000000
                       2.000000  2.000000  2.000000  2.000000  2.000000  2.000000
                       2.000000  0.000000  0.000000  0.000000  0.000000  0.000000
                       0.000000  0.000000  0.000000  0.000000
        optdriver           1
            prtwf          -1
            rfdir           1       1       1
           rfelfd           2
            rprim      9.4139773850E+00  0.0000000000E+00 -7.6016478779E+00
                      -2.1494035013E+00  9.1653169500E+00 -7.6016478779E+00
                       0.0000000000E+00  0.0000000000E+00  1.2099918209E+01
          spgroup          82
           symrel      1  0  0   0  1  0   0  0  1       0  1  0   1  0  0  -1 -1 -1
                       0  0  1  -1 -1 -1   0  1  0      -1 -1 -1   0  0  1   1  0  0
           tolwfr      1.00000000E-20
            typat      1  1  2  3  3  3  3
           useylm           1
              wtk        0.50000    0.50000
           xangst      3.9235405987E-01  3.6375576296E+00 -8.2111833371E-01
                       0.0000000000E+00  0.0000000000E+00  0.0000000000E+00
                       1.9221234647E+00  2.4250384197E+00 -4.0226188047E+00
                       3.0446494491E+00  4.4533890547E-01  3.4662231824E+00
                      -2.4682575509E-01  3.0845227679E+00 -2.9185059463E+00
                       3.4956297322E+00  4.3861233391E+00 -3.8314395819E+00
                       1.3950404326E+00  1.7841686665E+00 -7.5098895410E-04
            xcart      7.4144172028E-01  6.8739877125E+00 -1.5516887734E+00
                       0.0000000000E+00  0.0000000000E+00  0.0000000000E+00
                       3.6322869419E+00  4.5826584750E+00 -7.6016478779E+00
                       5.7535536294E+00  8.4156856767E-01  6.5502125302E+00
                      -4.6643307966E-01  5.8289032820E+00 -5.5151769558E+00
                       6.6057828558E+00  8.2885718959E+00 -7.2403715046E+00
                       2.6362443619E+00  3.3715901545E+00 -1.4191634521E-03
             xred      2.5000000000E-01  7.5000000000E-01  5.0000000000E-01
                       0.0000000000E+00  0.0000000000E+00  0.0000000000E+00
                       5.0000000000E-01  5.0000000000E-01  1.1102230246E-16
                       6.3213600000E-01  9.1821000000E-02  9.9616200000E-01
                       9.5659000000E-02  6.3597400000E-01  3.8380000000E-03
                       9.0817900000E-01  9.0434100000E-01  5.4031500000E-01
                       3.6402600000E-01  3.6786400000E-01  4.5968500000E-01
            znucl       13.00000   48.00000   16.00000

 chkinp: Checking input parameters for consistency.

== DATASET  1 ==================================================================
-   mpi_nproc: 1, omp_nthreads: -1 (-1 if OMP is not activated)

--- !DatasetInfo
iteration_state: {dtset: 1, }
dimensions: {natom: 7, nkpt: 2, mband: 34, nsppol: 1, nspinor: 1, nspden: 1, mpw: 18203, }
cutoff_energies: {ecut:  51.0, pawecutdg:  -1.0, }
electrons: {nelect:   5.00000000E+01, charge:   0.00000000E+00, occopt:   1.00000000E+00, tsmear:   1.00000000E-02, }
meta: {optdriver: 1, rfelfd: 2, }
...

 Real(R)+Recip(G) space primitive vectors, cartesian coordinates (Bohr,Bohr^-1):
 R(1)=  9.4139774  0.0000000 -7.6016479  G(1)=  0.1062250  0.0249114  0.0000000
 R(2)= -2.1494035  9.1653170 -7.6016479  G(2)=  0.0000000  0.1091070  0.0000000
 R(3)=  0.0000000  0.0000000 12.0999182  G(3)=  0.0667348  0.0841956  0.0826452
 Unit cell volume ucvol=  1.0440062E+03 bohr^3
 Angles (23,13,12)=  1.28920363E+02  1.28920363E+02  7.51387466E+01 degrees

 getcut: wavevector=  0.0000  0.0000  0.0000  ngfft=  80  80  80
         ecut(hartree)=     51.000   => boxcut(ratio)=   2.05668

--- Pseudopotential description ------------------------------------------------
- pspini: atom type   1  psp file is /scratch/users/j/a/jabreu/pseudos/PBEsol/Al.psp8
- pspatm: opening atomic psp file    /scratch/users/j/a/jabreu/pseudos/PBEsol/Al.psp8
- Al    ONCVPSP-3.3.0  r_core=   1.76802   1.76802   1.70587
- 13.00000   3.00000    180112                znucl, zion, pspdat
    8 -116133    2    4       600   0.00000   pspcod,pspxc,lmax,lloc,mmax,r2well
    5.99000000000000    5.00000000000000    0.00000000000000   rchrg,fchrg,qchrg
     nproj     2     2     2
     extension_switch     1
  pspatm : epsatm=    0.68509324
         --- l  ekb(1:nproj) -->
             0    5.834965    0.726662
             1    6.225605    0.924840
             2   -2.432733   -0.548689
 pspatm: atomic psp has been read  and splines computed

- pspini: atom type   2  psp file is /scratch/users/j/a/jabreu/pseudos/PBEsol/Cd.psp8
- pspatm: opening atomic psp file    /scratch/users/j/a/jabreu/pseudos/PBEsol/Cd.psp8
- Cd    ONCVPSP-3.3.0  r_core=   1.25838   1.30423   1.35174
- 48.00000  20.00000    180112                znucl, zion, pspdat
    8 -116133    2    4       600   0.00000   pspcod,pspxc,lmax,lloc,mmax,r2well
    5.99000000000000    6.00000000000000    0.00000000000000   rchrg,fchrg,qchrg
     nproj     2     2     2
     extension_switch     1
  pspatm : epsatm=   23.26728021
         --- l  ekb(1:nproj) -->
             0   63.701523    3.700425
             1    8.703569    1.290373
             2    0.983656   -0.721725
 pspatm: atomic psp has been read  and splines computed

- pspini: atom type   3  psp file is /scratch/users/j/a/jabreu/pseudos/PBEsol/S.psp8
- pspatm: opening atomic psp file    /scratch/users/j/a/jabreu/pseudos/PBEsol/S.psp8
- S     ONCVPSP-3.3.0  r_core=   1.45376   1.45376   1.61851
- 16.00000   6.00000    180112                znucl, zion, pspdat
    8 -116133    2    4       600   0.00000   pspcod,pspxc,lmax,lloc,mmax,r2well
    5.99000000000000    6.00000000000000    0.00000000000000   rchrg,fchrg,qchrg
     nproj     2     2     2
     extension_switch     1
  pspatm : epsatm=    8.71840985
         --- l  ekb(1:nproj) -->
             0    6.834532    0.579453
             1    3.282851    0.896984
             2   -3.496974   -0.974265
 pspatm: atomic psp has been read  and splines computed

   2.97555530E+03                                ecore*ucvol(ha*bohr**3)

-inwffil : will read wavefunctions from disk file /scratch/users/j/a/jabreu/flow_simple_7atoms/flow/w192/t1/indata/in_WFK

 ==>  initialize data related to q vector <==

 The list of irreducible perturbations for this q vector is:
    1)    idir= 1    ipert=   8
    2)    idir= 2    ipert=   8
    3)    idir= 3    ipert=   8

 Perturbation wavevector (in red.coord.)   0.000000  0.000000  0.000000
 Perturbation : derivative vs k along direction   1

 dfpt_looppert : COMMENT -
  In a d/dk calculation, iscf is set to -3 automatically.
 The set of symmetries contains only one element for this perturbation.
 symkpt : not enough symmetry to change the number of k points.

[...]

 Initialisation of the first-order wave-functions :
  ireadwf=   0

--- !BeginCycle
iteration_state: {dtset: 1, }
solver: {iscf: 7, nstep: 2000, nline: 4, wfoptalg: 0, }
tolerances: {tolwfr: 1.00E-20, }
...

     iter   2DEtotal(Ha)        deltaE(Ha) residm    vres2
-ETOT  1  -25.243135662512     -2.524E+01 9.711E-01 0.000E+00
 ETOT  2  -25.333593859945     -9.046E-02 3.986E-02 0.000E+00
 ETOT  3  -25.334864794366     -1.271E-03 1.352E-02 0.000E+00
 ETOT  4  -25.334892422360     -2.763E-05 2.299E-03 0.000E+00
 ETOT  5  -25.334893146171     -7.238E-07 6.795E-04 0.000E+00
 ETOT  6  -25.334893166537     -2.037E-08 1.303E-04 0.000E+00
 ETOT  7  -25.334893167143     -6.061E-10 3.824E-05 0.000E+00
 ETOT  8  -25.334893167161     -1.861E-11 7.450E-06 0.000E+00
 ETOT  9  -25.334893167162     -5.471E-13 2.172E-06 0.000E+00
 ETOT 10  -25.334893167162     -8.882E-14 4.260E-07 0.000E+00
 ETOT 11  -25.334893167162      1.776E-14 1.228E-07 0.000E+00
 ETOT 12  -25.334893167162      4.619E-14 2.432E-08 0.000E+00
 ETOT 13  -25.334893167162     -4.619E-14 6.900E-09 0.000E+00
 ETOT 14  -25.334893167162      3.553E-14 1.387E-09 0.000E+00
 ETOT 15  -25.334893167162      3.553E-15 3.853E-10 0.000E+00
 ETOT 16  -25.334893167162     -7.105E-15 7.897E-11 0.000E+00
 ETOT 17  -25.334893167162      7.105E-15 2.146E-11 0.000E+00
 ETOT 18  -25.334893167162     -3.553E-15 4.497E-12 0.000E+00
 ETOT 19  -25.334893167162     -7.105E-15 1.197E-12 0.000E+00
 ETOT 20  -25.334893167162      1.066E-14 2.561E-13 0.000E+00
 ETOT 21  -25.334893167162     -3.553E-15 6.710E-14 0.000E+00
 ETOT 22  -25.334893167162     -3.553E-15 1.460E-14 0.000E+00
 ETOT 23  -25.334893167162      7.105E-15 3.789E-15 0.000E+00
 ETOT 24  -25.334893167162     -1.776E-14 8.327E-16 0.000E+00
 ETOT 25  -25.334893167162      7.105E-15 2.155E-16 0.000E+00
 ETOT 26  -25.334893167162     -3.553E-15 4.756E-17 0.000E+00
 ETOT 27  -25.334893167162     -3.553E-15 1.232E-17 0.000E+00
 ETOT 28  -25.334893167162      7.105E-15 2.719E-18 0.000E+00
 ETOT 29  -25.334893167162     -3.553E-15 7.078E-19 0.000E+00
 ETOT 30  -25.334893167162      7.105E-15 1.557E-19 0.000E+00
 ETOT 31  -25.334893167162      0.000E+00 4.076E-20 0.000E+00
 ETOT 32  -25.334893167162     -7.105E-15 9.924E-21 0.000E+00

 At SCF step   32   max residual=  9.92E-21 < tolwfr=  1.00E-20 =>converged.

 ----iterations are completed or convergence reached----

 dfpt_looppert: DFPT cycle converged with prtwf=-1. Will skip output of the 1st-order WFK file.
 dfpt_looppert : ek2=    4.6996418286E+01
          f-sum rule ratio=    1.1119059643E+00
 prteigrs : about to open file /scratch/users/j/a/jabreu/flow_simple_7atoms/flow/w192/t1/tmpdata/tmp_1WF1_EIG
 Expectation of eigenvalue derivatives (hartree) for nkpt=   2  k points:
  (in case of degenerate eigenvalues, averaged derivative)
 kpt#   1, nband= 34, wtk=  0.50000, kpt=  0.0000  0.0000  0.5000 (reduced coord)
  -0.00000   -0.00000   -0.00000    0.00000   -0.00000    0.00000    0.00000   -0.00000
   0.00000    0.00000    0.00000   -0.00000   -0.00000   -0.00000   -0.00000   -0.00000
   0.00000   -0.00000    0.00000    0.00000    0.00000   -0.00000   -0.00000    0.00000
   0.00000    0.00000    0.00000    0.00000    0.00000    0.00000    0.00000    0.00000
  -0.00000   -0.00010
 prteigrs : prtvol=0 or 1, do not print more k-points.

 Eight components of 2nd-order total energy (hartree) are
 1,2,3: 0th-order hamiltonian combined with 1st-order wavefunctions
     kin0=   2.72701387E+01 eigvalue=   1.94869009E-01  local=  -1.48898876E+01
 4,5,6: 1st-order hamiltonian combined with 1st and 0th-order wfs
     kin1=  -5.22555978E+01  Hartree=   0.00000000E+00     xc=   0.00000000E+00
 7,8,9: eventually, occupation + non-local contributions
    edocc=   1.09812039E+01     enl0=   1.77856912E+00   enl1=   1.58581146E+00
 1-9 gives the relaxation energy (to be shifted if some occ is /=2.0)
   erelax=  -2.53348932E+01
  No Ewald or frozen-wf contrib.: the relaxation energy is the total one
 2DEtotal=   -0.2533489317E+02 Ha. Also 2DEtotal=   -0.689397503024E+03 eV
    (  non-var. 2DEtotal :   -2.5334893167E+01 Ha)

 Perturbation wavevector (in red.coord.)   0.000000  0.000000  0.000000
 Perturbation : derivative vs k along direction   2
 The set of symmetries contains only one element for this perturbation.
 symkpt : not enough symmetry to change the number of k points.

[...]

 Perturbation wavevector (in red.coord.)   0.000000  0.000000  0.000000
 Perturbation : derivative vs k along direction   3
 The set of symmetries contains only one element for this perturbation.
 symkpt : not enough symmetry to change the number of k points.

-inwffil : will read wavefunctions from disk file /scratch/users/j/a/jabreu/flow_simple_7atoms/flow/w192/t1/indata/in_WFK

 Initialisation of the first-order wave-functions :
  ireadwf=   0

--- !BeginCycle
iteration_state: {dtset: 1, }
solver: {iscf: 7, nstep: 2000, nline: 4, wfoptalg: 0, }
tolerances: {tolwfr: 1.00E-20, }
...

     iter   2DEtotal(Ha)        deltaE(Ha) residm    vres2
-ETOT  1  -40.443738561948     -4.044E+01 3.409E-01 0.000E+00
 ETOT  2  -40.525762293245     -8.202E-02 4.458E-02 0.000E+00
 ETOT  3  -40.526961352383     -1.199E-03 3.250E-03 0.000E+00
 ETOT  4  -40.526988528220     -2.718E-05 1.301E-03 0.000E+00
 ETOT  5  -40.526989276439     -7.482E-07 1.074E-04 0.000E+00
 ETOT  6  -40.526989298559     -2.212E-08 5.545E-05 0.000E+00
 ETOT  7  -40.526989299252     -6.926E-10 4.840E-06 0.000E+00
 ETOT  8  -40.526989299275     -2.264E-11 2.470E-06 0.000E+00
 ETOT  9  -40.526989299275     -7.390E-13 2.174E-07 0.000E+00
 ETOT 10  -40.526989299275     -5.684E-14 1.117E-07 0.000E+00
 ETOT 11  -40.526989299275      7.105E-15 9.820E-09 0.000E+00
 ETOT 12  -40.526989299275      7.105E-14 5.088E-09 0.000E+00
 ETOT 13  -40.526989299275     -3.553E-14 4.449E-10 0.000E+00
 ETOT 14  -40.526989299275     -3.553E-14 2.326E-10 0.000E+00
 ETOT 15  -40.526989299275      3.553E-14 2.019E-11 0.000E+00
 ETOT 16  -40.526989299275      7.105E-15 1.065E-11 0.000E+00
 ETOT 17  -40.526989299275      0.000E+00 9.179E-13 0.000E+00
 ETOT 18  -40.526989299275     -7.105E-15 4.882E-13 0.000E+00
 ETOT 19  -40.526989299275     -7.105E-15 4.176E-14 0.000E+00
 ETOT 20  -40.526989299275      1.421E-14 2.240E-14 0.000E+00
 ETOT 21  -40.526989299275      0.000E+00 1.902E-15 0.000E+00
 ETOT 22  -40.526989299275     -1.421E-14 1.029E-15 0.000E+00
 ETOT 23  -40.526989299275      0.000E+00 8.667E-17 0.000E+00
 ETOT 24  -40.526989299275      0.000E+00 4.728E-17 0.000E+00
 ETOT 25  -40.526989299275      0.000E+00 3.952E-18 0.000E+00
 ETOT 26  -40.526989299275     -7.105E-15 2.173E-18 0.000E+00
 ETOT 27  -40.526989299275      0.000E+00 1.803E-19 0.000E+00
 ETOT 28  -40.526989299275      0.000E+00 9.993E-20 0.000E+00
 ETOT 29  -40.526989299275      0.000E+00 9.698E-21 0.000E+00

 At SCF step   29   max residual=  9.70E-21 < tolwfr=  1.00E-20 =>converged.

 ----iterations are completed or convergence reached----

 dfpt_looppert: DFPT cycle converged with prtwf=-1. Will skip output of the 1st-order WFK file.
 dfpt_looppert : ek2=    7.2532350317E+01
          f-sum rule ratio=    1.1536003446E+00
 prteigrs : about to open file /scratch/users/j/a/jabreu/flow_simple_7atoms/flow/w192/t1/tmpdata/tmp_1WF1_EIG
 Expectation of eigenvalue derivatives (hartree) for nkpt=   2  k points:
  (in case of degenerate eigenvalues, averaged derivative)
 kpt#   1, nband= 34, wtk=  0.50000, kpt=  0.0000  0.0000  0.5000 (reduced coord)
  -0.00000   -0.00000   -0.00000    0.00000   -0.00000   -0.00000    0.00000   -0.00000
  -0.00000    0.00000    0.00000   -0.00000   -0.00000    0.00000   -0.00000    0.00000
   0.00000    0.00000   -0.00000    0.00000    0.00000   -0.00000    0.00000   -0.00000
   0.00000   -0.00000   -0.00000   -0.00000    0.00000    0.00000    0.00000    0.00000
  -0.00006   -0.00003
 prteigrs : prtvol=0 or 1, do not print more k-points.

 Eight components of 2nd-order total energy (hartree) are
 1,2,3: 0th-order hamiltonian combined with 1st-order wavefunctions
     kin0=   4.20029129E+01 eigvalue=   2.63253232E-01  local=  -2.27461689E+01
 4,5,6: 1st-order hamiltonian combined with 1st and 0th-order wfs
     kin1=  -8.36733443E+01  Hartree=   0.00000000E+00     xc=   0.00000000E+00
 7,8,9: eventually, occupation + non-local contributions
    edocc=   1.84724131E+01     enl0=   2.53457905E+00   enl1=   2.61936573E+00
 1-9 gives the relaxation energy (to be shifted if some occ is /=2.0)
   erelax=  -4.05269893E+01
  No Ewald or frozen-wf contrib.: the relaxation energy is the total one
 2DEtotal=   -0.4052698930E+02 Ha. Also 2DEtotal=   -0.110279546251E+04 eV
    (  non-var. 2DEtotal :   -4.0526989299E+01 Ha)

 CALCULATION OF EFFECTIVE MASSES
 NOTE : Additional infos (eff. mass eigenvalues, eigenvectors and, if degenerate, average mass) are available in stdout.

 K-point (-0.000, 0.000, 0.500) | band =    25
 Effective mass tensor:
             -1.4890588686              3.0382265141              1.5551392008
              3.0382265141            -17.0983241938             -8.3070001695
              1.5551392008             -8.3070001695             -5.1752901846
 Effective mass tensor eigenvalues:
            -21.9314365603             -0.9207049913             -0.9105316955
 Angular average effective mass 1/(<1/m>)=  -1.3453033730
 Angular average effective mass for Frohlich model (<m**0.5>)**2=  -1.7803535347
 Effective masses along directions: (cart. coord. / red. coord. -> eff. mass)
    1:   1.000000  0.000000  0.000000 /   0.974912 -0.222592  0.000000 ->  -0.9437068848
    2:   0.000000  1.000000  0.000000 /   0.000000  1.000000  0.000000 ->  -3.4769881081
    3:   0.000000  0.000000  1.000000 /  -0.469651 -0.469651  0.747567 ->  -1.1328569467
    4:   0.577350  0.577350  0.577350 /   0.147959 -0.047819  0.987837 ->  -1.6211199570
    5:   0.000000  0.707107  0.707107 /  -0.528813  0.108778  0.841739 ->  -5.9042873983
    6:   0.707107  0.000000  0.707107 /   0.115839 -0.623257  0.773390 ->  -0.9572056203
    7:   0.707107  0.707107  0.000000 /   0.801818  0.597568  0.000000 ->  -1.2103602102

 K-point ( 0.000, 0.000, 0.000) | band =    26
 Effective mass tensor:
              0.2479018484              0.0248783518             -0.0412678520
              0.0248783518              0.2595705374             -0.0520653998
             -0.0412678520             -0.0520653998              0.3145482120
 Effective mass tensor eigenvalues:
              0.2281828765              0.2281828768              0.3656548445
 Angular average effective mass 1/(<1/m>)=   0.2608759378
 Angular average effective mass for Frohlich model (<m**0.5>)**2=   0.2644200132
 Effective masses along directions: (cart. coord. / red. coord. -> eff. mass)
    1:   1.000000  0.000000  0.000000 /   0.974912 -0.222592  0.000000 ->   0.2411897143
    2:   0.000000  1.000000  0.000000 /   0.000000  1.000000  0.000000 ->   0.2496092298
    3:   0.000000  0.000000  1.000000 /  -0.469651 -0.469651  0.747567 ->   0.2987443908
    4:   0.577350  0.577350  0.577350 /   0.147959 -0.047819  0.987837 ->   0.2282998748
    5:   0.000000  0.707107  0.707107 /  -0.528813  0.108778  0.841739 ->   0.2325139427
    6:   0.707107  0.000000  0.707107 /   0.115839 -0.623257  0.773390 ->   0.2357749697
    7:   0.707107  0.707107  0.000000 /   0.801818  0.597568  0.000000 ->   0.2646892123

 END OF EFFECTIVE MASSES SECTION

 ---- first-order wavefunction calculations are completed ----

 Total localisation tensor (bohr^2) in cartesian coordinates
  WARNING : still subject to testing - especially symmetries.
      direction              matrix element
   alpha     beta       real part   imaginary part
     1        1       1.6873075453    0.0000000000
     1        2      -0.3576337658    0.0000000000
     1        3      -0.9981329320    0.0000000000
     2        1      -0.3576337658    0.0000000000
     2        2       1.5249937079    0.0000000000
     2        3      -1.2648187997    0.0000000000
     3        1      -0.9981329320    0.0000000000
     3        2      -1.2648187997    0.0000000000
     3        3       6.5409409446    0.0000000000

 respfn : d/dk was computed, but no 2DTE, so no DDB output.

== END DATASET(S) ==============================================================

 -outvars: echo values of variables after computation  --------
            acell      1.0000000000E+00  1.0000000000E+00  1.0000000000E+00 Bohr
              amu      2.69815390E+01  1.12411000E+02  3.20660000E+01
             ecut      5.10000000E+01 Hartree
           etotal     -4.0526989299E+01
            fcart      0.0000000000E+00  0.0000000000E+00  0.0000000000E+00
                       0.0000000000E+00  0.0000000000E+00  0.0000000000E+00
                       0.0000000000E+00  0.0000000000E+00  0.0000000000E+00
                       0.0000000000E+00  0.0000000000E+00  0.0000000000E+00
                       0.0000000000E+00  0.0000000000E+00  0.0000000000E+00
                       0.0000000000E+00  0.0000000000E+00  0.0000000000E+00
                       0.0000000000E+00  0.0000000000E+00  0.0000000000E+00
-          fftalg         512
           irdden           1
           irdwfk           1
           istwfk        1    1
              ixc     -116133
              kpt     -1.11022302E-16  0.00000000E+00  5.00000000E-01
                       0.00000000E+00  0.00000000E+00  0.00000000E+00
           kptopt           0
P           mkmem           2
P          mkqmem           2
P          mk1mem           2
            natom           7
            nband          34
           nbdbuf           4
            ngfft          80      80      80
             nkpt           2
            nstep        2000
             nsym           4
           ntypat           3
              occ      2.000000  2.000000  2.000000  2.000000  2.000000  2.000000
                       2.000000  2.000000  2.000000  2.000000  2.000000  2.000000
                       2.000000  2.000000  2.000000  2.000000  2.000000  2.000000
                       2.000000  2.000000  2.000000  2.000000  2.000000  2.000000
                       2.000000  0.000000  0.000000  0.000000  0.000000  0.000000
                       0.000000  0.000000  0.000000  0.000000
        optdriver           1
            prtwf          -1
            rfdir           1       1       1
           rfelfd           2
            rprim      9.4139773850E+00  0.0000000000E+00 -7.6016478779E+00
                      -2.1494035013E+00  9.1653169500E+00 -7.6016478779E+00
                       0.0000000000E+00  0.0000000000E+00  1.2099918209E+01
          spgroup          82
           strten      0.0000000000E+00  0.0000000000E+00  0.0000000000E+00
                       0.0000000000E+00  0.0000000000E+00  0.0000000000E+00
           symrel      1  0  0   0  1  0   0  0  1       0  1  0   1  0  0  -1 -1 -1
                       0  0  1  -1 -1 -1   0  1  0      -1 -1 -1   0  0  1   1  0  0
           tolwfr      1.00000000E-20
            typat      1  1  2  3  3  3  3
           useylm           1
              wtk        0.50000    0.50000
           xangst      3.9235405987E-01  3.6375576296E+00 -8.2111833371E-01
                       0.0000000000E+00  0.0000000000E+00  0.0000000000E+00
                       1.9221234647E+00  2.4250384197E+00 -4.0226188047E+00
                       3.0446494491E+00  4.4533890547E-01  3.4662231824E+00
                      -2.4682575509E-01  3.0845227679E+00 -2.9185059463E+00
                       3.4956297322E+00  4.3861233391E+00 -3.8314395819E+00
                       1.3950404326E+00  1.7841686665E+00 -7.5098895410E-04
            xcart      7.4144172028E-01  6.8739877125E+00 -1.5516887734E+00
                       0.0000000000E+00  0.0000000000E+00  0.0000000000E+00
                       3.6322869419E+00  4.5826584750E+00 -7.6016478779E+00
                       5.7535536294E+00  8.4156856767E-01  6.5502125302E+00
                      -4.6643307966E-01  5.8289032820E+00 -5.5151769558E+00
                       6.6057828558E+00  8.2885718959E+00 -7.2403715046E+00
                       2.6362443619E+00  3.3715901545E+00 -1.4191634521E-03
             xred      2.5000000000E-01  7.5000000000E-01  5.0000000000E-01
                       0.0000000000E+00  0.0000000000E+00  0.0000000000E+00
                       5.0000000000E-01  5.0000000000E-01  1.1102230246E-16
                       6.3213600000E-01  9.1821000000E-02  9.9616200000E-01
                       9.5659000000E-02  6.3597400000E-01  3.8380000000E-03
                       9.0817900000E-01  9.0434100000E-01  5.4031500000E-01
                       3.6402600000E-01  3.6786400000E-01  4.5968500000E-01
            znucl       13.00000   48.00000   16.00000

- Timing analysis has been suppressed with timopt=0

 Suggested references for the acknowledgment of ABINIT usage.

 Calculation completed.
.Delivered  14 WARNINGs and   9 COMMENTs to log file.