.Version 9.5.2 of ABINIT

 ABINIT is a project of the Universite Catholique de Louvain,
 Corning Inc. and other collaborators, see ~abinit/doc/developers/contributors.txt .
 acknowledgments of the ABINIT effort.

.Starting date : Mon 24 May 2021.
- ( at 10h54 )

- input  file    -> /scratch/users/j/a/jabreu/flow_simple_10atoms/flow/w272/t1/run.abi
- output file    -> /scratch/users/j/a/jabreu/flow_simple_10atoms/flow/w272/t1/run.abo
- root for input  files -> /scratch/users/j/a/jabreu/flow_simple_10atoms/flow/w272/t1/indata/in
- root for output files -> /scratch/users/j/a/jabreu/flow_simple_10atoms/flow/w272/t1/outdata/out

 Symmetries : space group Cm c m (# 63); Bravais oC (1-face-center ortho.)
     intxc =       0      iscf =       7    lmnmax =      18     lnmax =       6
     mgfft =      80  mpssoang =       3    mqgrid =    3220     natom =      10
  nloc_mem =       1    nspden =       1   nspinor =       1    nsppol =       1
      nsym =       8    n1xccc =    2501    ntypat =       4    occopt =       1
   xclevel =       2
-    mband =          53        mffmem =           1         mkmem =           2
-   mkqmem =           2        mk1mem =           2           mpw =       20285
      nfft =      460800          nkpt =           2
  Rough estimation (10% accuracy) of disk space for files :

------------- Echo of variables that govern the present computation ------------
-
- outvars: echo of selected default values
-   iomode0 =  0 , fftalg0 =512 , wfoptalg0 =  0
-
- outvars: echo of global parameters not present in the input file
-  max_nthreads =    0
-
 -outvars: echo values of preprocessed input variables --------
            acell      1.0000000000E+00  1.0000000000E+00  1.0000000000E+00 Bohr
              amu      1.37327000E+02  2.08980370E+02  3.54527000E+01
                       1.59994000E+01
             ecut      4.40000000E+01 Hartree
-          fftalg         512
           irdden           1
           irdwfk           1
           istwfk        1    0
              ixc     -116133
              kpt      0.00000000E+00  5.00000000E-01  0.00000000E+00
                       1.81283404E-01  1.81283404E-01  0.00000000E+00
           kptopt           0
P           mkmem           2
P          mkqmem           2
P          mk1mem           2
            natom          10
            nband          53
           nbdbuf           4
            ngfft          80      80      72
             nkpt           2
            nstep        2000
             nsym           8
           ntypat           4
              occ      2.000000  2.000000  2.000000  2.000000  2.000000  2.000000
                       2.000000  2.000000  2.000000  2.000000  2.000000  2.000000
                       2.000000  2.000000  2.000000  2.000000  2.000000  2.000000
                       2.000000  2.000000  2.000000  2.000000  2.000000  2.000000
                       2.000000  2.000000  2.000000  2.000000  2.000000  2.000000
                       2.000000  2.000000  2.000000  2.000000  2.000000  2.000000
                       2.000000  2.000000  2.000000  2.000000  2.000000  2.000000
                       2.000000  2.000000  0.000000  0.000000  0.000000  0.000000
                       0.000000  0.000000  0.000000  0.000000  0.000000
        optdriver           1
            prtwf          -1
            rfdir           1       1       1
           rfelfd           2
            rprim      1.3362420479E+01  0.0000000000E+00  0.0000000000E+00
                      -8.7506139277E+00  1.0098566084E+01  0.0000000000E+00
                       0.0000000000E+00  0.0000000000E+00  1.0781076079E+01
          spgroup          63
           symrel      1  0  0   0  1  0   0  0  1      -1  0  0   0 -1  0   0  0 -1
                       0  1  0   1  0  0   0  0 -1       0 -1  0  -1  0  0   0  0  1
                      -1  0  0   0 -1  0   0  0  1       1  0  0   0  1  0   0  0 -1
                       0 -1  0  -1  0  0   0  0 -1       0  1  0   1  0  0   0  0  1
            tnons      0.0000000  0.0000000  0.0000000     0.0000000  0.0000000 -0.0000000
                       0.0000000 -0.0000000 -0.0000000     0.0000000  0.0000000  0.0000000
                       0.0000000  0.0000000  0.5000000     0.0000000  0.0000000  0.5000000
                       0.0000000  0.0000000  0.5000000     0.0000000 -0.0000000  0.5000000
           tolwfr      1.00000000E-20
            typat      1  1  2  2  3  3  4  4  4  4
           useylm           1
              wtk        0.50000    0.50000
           xangst     -3.2337567678E+00  4.7060099344E+00  4.2788248088E+00
                       5.6742196852E+00  6.3792107657E-01  1.4262749363E+00
                       3.1513899979E-01  3.0853025374E+00  4.2788248088E+00
                       2.1253239176E+00  2.2586284736E+00  1.4262749363E+00
                       4.1898455853E+00  1.3158040692E+00  4.2788248088E+00
                      -1.7493826679E+00  4.0281269417E+00  1.4262749363E+00
                       1.7796075235E+00  3.8968425886E+00  0.0000000000E+00
                       6.6085539386E-01  1.4470884224E+00  0.0000000000E+00
                       1.7796075235E+00  3.8968425886E+00  2.8525498725E+00
                       6.6085539386E-01  1.4470884224E+00  2.8525498725E+00
            xcart     -6.1109146715E+00  8.8930699546E+00  8.0858070592E+00
                       1.0722721223E+01  1.2054961291E+00  2.6952690197E+00
                       5.9552640339E-01  5.8303768327E+00  8.0858070592E+00
                       4.0162801479E+00  4.2681892510E+00  2.6952690197E+00
                       7.9176606952E+00  2.4865093354E+00  8.0858070592E+00
                      -3.3058541439E+00  7.6120567483E+00  2.6952690197E+00
                       3.3629708435E+00  7.3639652753E+00  0.0000000000E+00
                       1.2488357078E+00  2.7346008084E+00  0.0000000000E+00
                       3.3629708435E+00  7.3639652753E+00  5.3905380395E+00
                       1.2488357078E+00  2.7346008084E+00  5.3905380395E+00
             xred      1.1937300000E-01  8.8062700000E-01  7.5000000000E-01
                       8.8062700000E-01  1.1937300000E-01  2.5000000000E-01
                       4.2265300000E-01  5.7734700000E-01  7.5000000000E-01
                       5.7734700000E-01  4.2265300000E-01  2.5000000000E-01
                       7.5377600000E-01  2.4622400000E-01  7.5000000000E-01
                       2.4622400000E-01  7.5377600000E-01  2.5000000000E-01
                       7.2920900000E-01  7.2920900000E-01  0.0000000000E+00
                       2.7079100000E-01  2.7079100000E-01  0.0000000000E+00
                       7.2920900000E-01  7.2920900000E-01  5.0000000000E-01
                       2.7079100000E-01  2.7079100000E-01  5.0000000000E-01
            znucl       56.00000   83.00000   17.00000    8.00000

 chkinp: Checking input parameters for consistency.

== DATASET  1 ==================================================================
-   mpi_nproc: 1, omp_nthreads: -1 (-1 if OMP is not activated)

--- !DatasetInfo
iteration_state: {dtset: 1, }
dimensions: {natom: 10, nkpt: 2, mband: 53, nsppol: 1, nspinor: 1, nspden: 1, mpw: 20285, }
cutoff_energies: {ecut:  44.0, pawecutdg:  -1.0, }
electrons: {nelect:   8.80000000E+01, charge:   0.00000000E+00, occopt:   1.00000000E+00, tsmear:   1.00000000E-02, }
meta: {optdriver: 1, rfelfd: 2, }
...

 Real(R)+Recip(G) space primitive vectors, cartesian coordinates (Bohr,Bohr^-1):
 R(1)= 13.3624205  0.0000000  0.0000000  G(1)=  0.0748367  0.0648476  0.0000000
 R(2)= -8.7506139 10.0985661  0.0000000  G(2)=  0.0000000  0.0990240  0.0000000
 R(3)=  0.0000000  0.0000000 10.7810761  G(3)=  0.0000000  0.0000000  0.0927551
 Unit cell volume ucvol=  1.4548123E+03 bohr^3
 Angles (23,13,12)=  9.00000000E+01  9.00000000E+01  1.30909598E+02 degrees

 getcut: wavevector=  0.0000  0.0000  0.0000  ngfft=  80  80  72
         ecut(hartree)=     44.000   => boxcut(ratio)=   2.00504

--- Pseudopotential description ------------------------------------------------
- pspini: atom type   1  psp file is /scratch/users/j/a/jabreu/pseudos/PBEsol/Ba.psp8
- pspatm: opening atomic psp file    /scratch/users/j/a/jabreu/pseudos/PBEsol/Ba.psp8
- Ba    ONCVPSP-3.3.0  r_core=   2.15444   1.91218   2.15444
- 56.00000  10.00000    180112                znucl, zion, pspdat
    8 -116133    2    4       600   0.00000   pspcod,pspxc,lmax,lloc,mmax,r2well
    5.99000000000000    5.00000000000000    0.00000000000000   rchrg,fchrg,qchrg
     nproj     2     2     2
     extension_switch     1
  pspatm : epsatm=   26.37418029
         --- l  ekb(1:nproj) -->
             0    6.652372    0.677024
             1    5.027722    0.408462
             2    2.543237    0.416854
 pspatm: atomic psp has been read  and splines computed

- pspini: atom type   2  psp file is /scratch/users/j/a/jabreu/pseudos/PBEsol/Bi.psp8
- pspatm: opening atomic psp file    /scratch/users/j/a/jabreu/pseudos/PBEsol/Bi.psp8
- Bi    ONCVPSP-3.3.0  r_core=   2.42776   2.51622   2.10397
- 83.00000  15.00000    180112                znucl, zion, pspdat
    8 -116133    2    4       600   0.00000   pspcod,pspxc,lmax,lloc,mmax,r2well
    5.99000000000000    6.00000000000000    0.00000000000000   rchrg,fchrg,qchrg
     nproj     2     2     2
     extension_switch     1
  pspatm : epsatm=   42.90078186
         --- l  ekb(1:nproj) -->
             0    6.017688    0.961606
             1    4.379371    0.528498
             2   -3.458170   -0.753782
 pspatm: atomic psp has been read  and splines computed

[...]

- pspini: atom type   4  psp file is /scratch/users/j/a/jabreu/pseudos/PBEsol/O.psp8
- pspatm: opening atomic psp file    /scratch/users/j/a/jabreu/pseudos/PBEsol/O.psp8
- O     ONCVPSP-3.3.0  r_core=   1.35509   1.45563   1.26150
-  8.00000   6.00000    180112                znucl, zion, pspdat
    8 -116133    2    4       600   0.00000   pspcod,pspxc,lmax,lloc,mmax,r2well
    5.99000000000000    4.00000000000000    0.00000000000000   rchrg,fchrg,qchrg
     nproj     2     2     1
     extension_switch     1
  pspatm : epsatm=    6.22910522
         --- l  ekb(1:nproj) -->
             0    6.050032    0.820363
             1   -4.739617   -1.153841
             2   -1.335834
 pspatm: atomic psp has been read  and splines computed

   1.59611548E+04                                ecore*ucvol(ha*bohr**3)

 ==>  initialize data related to q vector <==

 The list of irreducible perturbations for this q vector is:
    1)    idir= 1    ipert=  11
    2)    idir= 2    ipert=  11
    3)    idir= 3    ipert=  11

 Perturbation wavevector (in red.coord.)   0.000000  0.000000  0.000000
 Perturbation : derivative vs k along direction   1

 dfpt_looppert : COMMENT -
  In a d/dk calculation, iscf is set to -3 automatically.
 The set of symmetries contains only one element for this perturbation.
 symkpt : not enough symmetry to change the number of k points.

 Initialisation of the first-order wave-functions :
  ireadwf=   0

--- !BeginCycle
iteration_state: {dtset: 1, }
solver: {iscf: 7, nstep: 2000, nline: 4, wfoptalg: 0, }
tolerances: {tolwfr: 1.00E-20, }
[...]
 ETOT 25  -49.558207780724      2.132E-14 6.150E-19 0.000E+00
 ETOT 26  -49.558207780724     -1.421E-14 1.258E-19 0.000E+00
 ETOT 27  -49.558207780724      0.000E+00 3.220E-20 0.000E+00
 ETOT 28  -49.558207780724      1.421E-14 9.877E-21 0.000E+00

 At SCF step   28   max residual=  9.88E-21 < tolwfr=  1.00E-20 =>converged.

 ----iterations are completed or convergence reached----

 dfpt_looppert: DFPT cycle converged with prtwf=-1. Will skip output of the 1st-order WFK file.
 dfpt_looppert : ek2=    6.8132289163E+01
          f-sum rule ratio=    1.0009652932E+00
 prteigrs : about to open file /scratch/users/j/a/jabreu/flow_simple_10atoms/flow/w272/t1/tmpdata/tmp_1WF1_EIG
 Expectation of eigenvalue derivatives (hartree) for nkpt=   2  k points:
  (in case of degenerate eigenvalues, averaged derivative)
 kpt#   1, nband= 53, wtk=  0.50000, kpt=  0.0000  0.5000  0.0000 (reduced coord)
  -0.00000    0.00000    0.00000   -0.00000   -0.00000    0.00000    0.00000    0.00000
   0.00000    0.00000   -0.00000   -0.00000   -0.00000   -0.00000   -0.00000    0.00000
  -0.00000   -0.00000   -0.00000    0.00000   -0.00000    0.00000   -0.00000   -0.00000
  -0.00000   -0.00000    0.00000    0.00000   -0.00000   -0.00000   -0.00000    0.00000
  -0.00000   -0.00000   -0.00000   -0.00000    0.00000    0.00000   -0.00000    0.00000
   0.00000   -0.00000   -0.00000    0.00000    0.00000   -0.00000   -0.00000    0.00000
  -0.00000    0.00000   -0.00000   -0.00000   -0.00127
 prteigrs : prtvol=0 or 1, do not print more k-points.

 Eight components of 2nd-order total energy (hartree) are
 1,2,3: 0th-order hamiltonian combined with 1st-order wavefunctions
     kin0=   6.57634701E+01 eigvalue=   4.82764490E+00  local=  -3.54286703E+01
 4,5,6: 1st-order hamiltonian combined with 1st and 0th-order wfs
     kin1=  -6.81980568E+01  Hartree=   0.00000000E+00     xc=   0.00000000E+00
 7,8,9: eventually, occupation + non-local contributions
    edocc=   8.23484512E+00     enl0=   6.16091799E+00   enl1=  -3.09183588E+01
 1-9 gives the relaxation energy (to be shifted if some occ is /=2.0)
   erelax=  -4.95582078E+01
  No Ewald or frozen-wf contrib.: the relaxation energy is the total one
 2DEtotal=   -0.4955820778E+02 Ha. Also 2DEtotal=   -0.134854741533E+04 eV
    (  non-var. 2DEtotal :   -4.9558207780E+01 Ha)

 Perturbation wavevector (in red.coord.)   0.000000  0.000000  0.000000
 Perturbation : derivative vs k along direction   2
 The set of symmetries contains only one element for this perturbation.
 symkpt : not enough symmetry to change the number of k points.

[...]

 Perturbation wavevector (in red.coord.)   0.000000  0.000000  0.000000
 Perturbation : derivative vs k along direction   3
 The set of symmetries contains only one element for this perturbation.
 symkpt : not enough symmetry to change the number of k points.

 Initialisation of the first-order wave-functions :
  ireadwf=   0

--- !BeginCycle
iteration_state: {dtset: 1, }
solver: {iscf: 7, nstep: 2000, nline: 4, wfoptalg: 0, }
tolerances: {tolwfr: 1.00E-20, }
...

     iter   2DEtotal(Ha)        deltaE(Ha) residm    vres2
-ETOT  1  -44.694789763541     -4.469E+01 3.673E-02 0.000E+00
 ETOT  2  -44.754393840988     -5.960E-02 1.736E-03 0.000E+00
 ETOT  3  -44.754822598105     -4.288E-04 9.620E-05 0.000E+00
 ETOT  4  -44.754828713072     -6.115E-06 1.739E-05 0.000E+00
 ETOT  5  -44.754828818396     -1.053E-07 1.240E-06 0.000E+00
 ETOT  6  -44.754828820402     -2.006E-09 2.939E-07 0.000E+00
 ETOT  7  -44.754828820443     -4.115E-11 2.432E-08 0.000E+00
 ETOT  8  -44.754828820444     -8.953E-13 8.673E-09 0.000E+00
 ETOT  9  -44.754828820444      7.105E-15 6.921E-10 0.000E+00
 ETOT 10  -44.754828820444     -2.842E-14 2.806E-10 0.000E+00
 ETOT 11  -44.754828820444      3.553E-14 2.227E-11 0.000E+00
 ETOT 12  -44.754828820444      7.105E-15 9.519E-12 0.000E+00
 ETOT 13  -44.754828820444     -1.421E-14 7.479E-13 0.000E+00
 ETOT 14  -44.754828820444      2.132E-14 3.273E-13 0.000E+00
 ETOT 15  -44.754828820444     -1.421E-14 2.552E-14 0.000E+00
 ETOT 16  -44.754828820444     -7.105E-15 1.132E-14 0.000E+00
 ETOT 17  -44.754828820444     -7.105E-15 8.780E-16 0.000E+00
 ETOT 18  -44.754828820444      7.105E-15 3.933E-16 0.000E+00
 ETOT 19  -44.754828820444     -7.105E-15 3.040E-17 0.000E+00
 ETOT 20  -44.754828820444      0.000E+00 1.372E-17 0.000E+00
 ETOT 21  -44.754828820444      0.000E+00 1.057E-18 0.000E+00
 ETOT 22  -44.754828820444      7.105E-15 4.799E-19 0.000E+00
 ETOT 23  -44.754828820444     -7.105E-15 3.693E-20 0.000E+00
 ETOT 24  -44.754828820444      0.000E+00 1.684E-20 0.000E+00
 ETOT 25  -44.754828820444      7.105E-15 9.959E-21 0.000E+00

 At SCF step   25   max residual=  9.96E-21 < tolwfr=  1.00E-20 =>converged.

 ----iterations are completed or convergence reached----

 dfpt_looppert: DFPT cycle converged with prtwf=-1. Will skip output of the 1st-order WFK file.
 dfpt_looppert : ek2=    5.9778936308E+01
          f-sum rule ratio=    1.0524576927E+00
 prteigrs : about to open file /scratch/users/j/a/jabreu/flow_simple_10atoms/flow/w272/t1/tmpdata/tmp_1WF1_EIG
 Expectation of eigenvalue derivatives (hartree) for nkpt=   2  k points:
  (in case of degenerate eigenvalues, averaged derivative)
 kpt#   1, nband= 53, wtk=  0.50000, kpt=  0.0000  0.5000  0.0000 (reduced coord)
  -0.00000    0.00000    0.00000   -0.00000   -0.00000    0.00000   -0.00000    0.00000
  -0.00000   -0.00000    0.00000   -0.00000   -0.00000    0.00000   -0.00000    0.00000
   0.00000    0.00000    0.00000    0.00000   -0.00000    0.00000    0.00000   -0.00000
   0.00000   -0.00000   -0.00000    0.00000   -0.00000    0.00000    0.00000    0.00000
   0.00000    0.00000   -0.00000    0.00000    0.00000   -0.00000   -0.00000    0.00000
  -0.00000   -0.00000   -0.00000   -0.00000   -0.00000   -0.00000    0.00000   -0.00000
   0.00000   -0.00000   -0.00000    0.00000    0.00001
 prteigrs : prtvol=0 or 1, do not print more k-points.

 Eight components of 2nd-order total energy (hartree) are
 1,2,3: 0th-order hamiltonian combined with 1st-order wavefunctions
     kin0=   5.88412646E+01 eigvalue=   3.86410396E+00  local=  -3.20639405E+01
 4,5,6: 1st-order hamiltonian combined with 1st and 0th-order wfs
     kin1=  -6.29148014E+01  Hartree=   0.00000000E+00     xc=   0.00000000E+00
 7,8,9: eventually, occupation + non-local contributions
    edocc=   7.82619482E+00     enl0=   6.28720599E+00   enl1=  -2.65948563E+01
 1-9 gives the relaxation energy (to be shifted if some occ is /=2.0)
   erelax=  -4.47548288E+01
  No Ewald or frozen-wf contrib.: the relaxation energy is the total one
 2DEtotal=   -0.4475482882E+02 Ha. Also 2DEtotal=   -0.121784082662E+04 eV
    (  non-var. 2DEtotal :   -4.4754828820E+01 Ha)

 CALCULATION OF EFFECTIVE MASSES
 NOTE : Additional infos (eff. mass eigenvalues, eigenvectors and, if degenerate, average mass) are available in stdout.

 K-point ( 0.000, 0.500, 0.000) | band =    44
 Effective mass tensor:
            -15.2301867167             11.5924300422              0.0000015417
             11.5924300422            -10.5915871885             -0.0000010443
              0.0000015417             -0.0000010443             -7.6650779551
 Effective mass tensor eigenvalues:
            -24.7330519692             -7.6650779551             -1.0887219361
 Angular average effective mass 1/(<1/m>)=  -2.7538050875
 Angular average effective mass for Frohlich model (<m**0.5>)**2=  -4.2985298467
 Effective masses along directions: (cart. coord. / red. coord. -> eff. mass)
    1:   1.000000  0.000000  0.000000 /   0.836578 -0.547848  0.000000 ->  -2.5423400427
    2:   0.000000  1.000000  0.000000 /   0.000000  1.000000  0.000000 ->  -1.7680292912
    3:   0.000000  0.000000  1.000000 /   0.000000  0.000000  1.000000 ->  -7.6650779551
    4:   0.577350  0.577350  0.577350 /   0.775885  0.078268  0.626000 ->  -1.5381342287
    5:   0.000000  0.707107  0.707107 /   0.000000  0.683628  0.729831 ->  -2.8733017910
    6:   0.707107  0.000000  0.707107 /   0.693407 -0.454090  0.559455 ->  -3.8182492570
    7:   0.707107  0.707107  0.000000 /   0.994950  0.100367  0.000000 ->  -1.0989294319

 K-point ( 0.181, 0.181, 0.000) | band =    45
 Effective mass tensor:
              1.5543972345             -0.3569854356              0.0000019997
             -0.3569854356              0.9357269847              0.0000029784
              0.0000019997              0.0000029784              0.4390356536
 Effective mass tensor eigenvalues:
              0.4390356535              0.7726990917              1.7174251276
 Angular average effective mass 1/(<1/m>)=   0.7221691882
 Angular average effective mass for Frohlich model (<m**0.5>)**2=   0.7853673783
 Effective masses along directions: (cart. coord. / red. coord. -> eff. mass)
    1:   1.000000  0.000000  0.000000 /   0.836578 -0.547848  0.000000 ->   1.4182051578
    2:   0.000000  1.000000  0.000000 /   0.000000  1.000000  0.000000 ->   0.8537411200
    3:   0.000000  0.000000  1.000000 /   0.000000  0.000000  1.000000 ->   0.4390356536
    4:   0.577350  0.577350  0.577350 /   0.775885  0.078268  0.626000 ->   0.6393677690
    5:   0.000000  0.707107  0.707107 /   0.000000  0.683628  0.729831 ->   0.5798754923
    6:   0.707107  0.000000  0.707107 /   0.693407 -0.454090  0.559455 ->   0.6705051140
    7:   0.707107  0.707107  0.000000 /   0.994950  0.100367  0.000000 ->   0.8283479725

 END OF EFFECTIVE MASSES SECTION

 ---- first-order wavefunction calculations are completed ----

 Total localisation tensor (bohr^2) in cartesian coordinates
  WARNING : still subject to testing - especially symmetries.
      direction              matrix element
   alpha     beta       real part   imaginary part
     1        1       2.3575814387    0.0000000000
     1        2      -0.8067353734    0.0000000000
     1        3       0.0000000000    0.0000000000
     2        1      -0.8067353734    0.0000000000
     2        2       0.9310055898    0.0000000000
     2        3       0.0000000000    0.0000000000
     3        1       0.0000000000    0.0000000000
     3        2       0.0000000000    0.0000000000
     3        3       1.0867842161    0.0000000000

 respfn : d/dk was computed, but no 2DTE, so no DDB output.

== END DATASET(S) ==============================================================

 -outvars: echo values of variables after computation  --------
            acell      1.0000000000E+00  1.0000000000E+00  1.0000000000E+00 Bohr
              amu      1.37327000E+02  2.08980370E+02  3.54527000E+01
                       1.59994000E+01
             ecut      4.40000000E+01 Hartree
           etotal     -4.4754828820E+01
            fcart      0.0000000000E+00  0.0000000000E+00  0.0000000000E+00
                       0.0000000000E+00  0.0000000000E+00  0.0000000000E+00
                       0.0000000000E+00  0.0000000000E+00  0.0000000000E+00
                       0.0000000000E+00  0.0000000000E+00  0.0000000000E+00
                       0.0000000000E+00  0.0000000000E+00  0.0000000000E+00
                       0.0000000000E+00  0.0000000000E+00  0.0000000000E+00
                       0.0000000000E+00  0.0000000000E+00  0.0000000000E+00
                       0.0000000000E+00  0.0000000000E+00  0.0000000000E+00
                       0.0000000000E+00  0.0000000000E+00  0.0000000000E+00
                       0.0000000000E+00  0.0000000000E+00  0.0000000000E+00
-          fftalg         512
           irdden           1
           irdwfk           1
           istwfk        1    0
              ixc     -116133
              kpt      0.00000000E+00  5.00000000E-01  0.00000000E+00
                       1.81283404E-01  1.81283404E-01  0.00000000E+00
           kptopt           0
P           mkmem           2
P          mkqmem           2
P          mk1mem           2
            natom          10
            nband          53
           nbdbuf           4
            ngfft          80      80      72
             nkpt           2
            nstep        2000
             nsym           8
           ntypat           4
              occ      2.000000  2.000000  2.000000  2.000000  2.000000  2.000000
                       2.000000  2.000000  2.000000  2.000000  2.000000  2.000000
                       2.000000  2.000000  2.000000  2.000000  2.000000  2.000000
                       2.000000  2.000000  2.000000  2.000000  2.000000  2.000000
                       2.000000  2.000000  2.000000  2.000000  2.000000  2.000000
                       2.000000  2.000000  2.000000  2.000000  2.000000  2.000000
                       2.000000  2.000000  2.000000  2.000000  2.000000  2.000000
                       2.000000  2.000000  0.000000  0.000000  0.000000  0.000000
                       0.000000  0.000000  0.000000  0.000000  0.000000
        optdriver           1
            prtwf          -1
            rfdir           1       1       1
           rfelfd           2
            rprim      1.3362420479E+01  0.0000000000E+00  0.0000000000E+00
                      -8.7506139277E+00  1.0098566084E+01  0.0000000000E+00
                       0.0000000000E+00  0.0000000000E+00  1.0781076079E+01
          spgroup          63
           strten      0.0000000000E+00  0.0000000000E+00  0.0000000000E+00
                       0.0000000000E+00  0.0000000000E+00  0.0000000000E+00
           symrel      1  0  0   0  1  0   0  0  1      -1  0  0   0 -1  0   0  0 -1
                       0  1  0   1  0  0   0  0 -1       0 -1  0  -1  0  0   0  0  1
                      -1  0  0   0 -1  0   0  0  1       1  0  0   0  1  0   0  0 -1
                       0 -1  0  -1  0  0   0  0 -1       0  1  0   1  0  0   0  0  1
            tnons      0.0000000  0.0000000  0.0000000     0.0000000  0.0000000 -0.0000000
                       0.0000000 -0.0000000 -0.0000000     0.0000000  0.0000000  0.0000000
                       0.0000000  0.0000000  0.5000000     0.0000000  0.0000000  0.5000000
                       0.0000000  0.0000000  0.5000000     0.0000000 -0.0000000  0.5000000
           tolwfr      1.00000000E-20
            typat      1  1  2  2  3  3  4  4  4  4
           useylm           1
              wtk        0.50000    0.50000
           xangst     -3.2337567678E+00  4.7060099344E+00  4.2788248088E+00
                       5.6742196852E+00  6.3792107657E-01  1.4262749363E+00
                       3.1513899979E-01  3.0853025374E+00  4.2788248088E+00
                       2.1253239176E+00  2.2586284736E+00  1.4262749363E+00
                       4.1898455853E+00  1.3158040692E+00  4.2788248088E+00
                      -1.7493826679E+00  4.0281269417E+00  1.4262749363E+00
                       1.7796075235E+00  3.8968425886E+00  0.0000000000E+00
                       6.6085539386E-01  1.4470884224E+00  0.0000000000E+00
                       1.7796075235E+00  3.8968425886E+00  2.8525498725E+00
                       6.6085539386E-01  1.4470884224E+00  2.8525498725E+00
            xcart     -6.1109146715E+00  8.8930699546E+00  8.0858070592E+00
                       1.0722721223E+01  1.2054961291E+00  2.6952690197E+00
                       5.9552640339E-01  5.8303768327E+00  8.0858070592E+00
                       4.0162801479E+00  4.2681892510E+00  2.6952690197E+00
                       7.9176606952E+00  2.4865093354E+00  8.0858070592E+00
                      -3.3058541439E+00  7.6120567483E+00  2.6952690197E+00
                       3.3629708435E+00  7.3639652753E+00  0.0000000000E+00
                       1.2488357078E+00  2.7346008084E+00  0.0000000000E+00
                       3.3629708435E+00  7.3639652753E+00  5.3905380395E+00
                       1.2488357078E+00  2.7346008084E+00  5.3905380395E+00
             xred      1.1937300000E-01  8.8062700000E-01  7.5000000000E-01
                       8.8062700000E-01  1.1937300000E-01  2.5000000000E-01
                       4.2265300000E-01  5.7734700000E-01  7.5000000000E-01
                       5.7734700000E-01  4.2265300000E-01  2.5000000000E-01
                       7.5377600000E-01  2.4622400000E-01  7.5000000000E-01
                       2.4622400000E-01  7.5377600000E-01  2.5000000000E-01
                       7.2920900000E-01  7.2920900000E-01  0.0000000000E+00
                       2.7079100000E-01  2.7079100000E-01  0.0000000000E+00
                       7.2920900000E-01  7.2920900000E-01  5.0000000000E-01
                       2.7079100000E-01  2.7079100000E-01  5.0000000000E-01
            znucl       56.00000   83.00000   17.00000    8.00000

- Timing analysis has been suppressed with timopt=0

 Suggested references for the acknowledgment of ABINIT usage.

 Calculation completed.
.Delivered   2 WARNINGs and   5 COMMENTs to log file.