.Version 9.5.2 of ABINIT

 ABINIT is a project of the Universite Catholique de Louvain,
 Corning Inc. and other collaborators, see ~abinit/doc/developers/contributors.txt .
 acknowledgments of the ABINIT effort.

.Starting date : Wed 26 May 2021.
- ( at 03h09 )

- input  file    -> /scratch/users/j/a/jabreu/flow_simple_11atoms/flow/w287/t1/run.abi
- output file    -> /scratch/users/j/a/jabreu/flow_simple_11atoms/flow/w287/t1/run.abo
- root for input  files -> /scratch/users/j/a/jabreu/flow_simple_11atoms/flow/w287/t1/indata/in
- root for output files -> /scratch/users/j/a/jabreu/flow_simple_11atoms/flow/w287/t1/outdata/out

 Symmetries : space group Cm c 2_1 (# 36); Bravais oC (1-face-center ortho.)
     intxc =       0      iscf =       7    lmnmax =      18     lnmax =       6
     mgfft =      72  mpssoang =       3    mqgrid =    3057     natom =      12
  nloc_mem =       1    nspden =       1   nspinor =       1    nsppol =       1
      nsym =       4    n1xccc =    2501    ntypat =       3    occopt =       1
   xclevel =       2
-    mband =          59        mffmem =           1         mkmem =           2
-   mkqmem =           2        mk1mem =           2           mpw =       15733
      nfft =      311040          nkpt =           2
  Rough estimation (10% accuracy) of disk space for files :

------------- Echo of variables that govern the present computation ------------
-
- outvars: echo of selected default values
-   iomode0 =  0 , fftalg0 =512 , wfoptalg0 =  0
-
- outvars: echo of global parameters not present in the input file
-  max_nthreads =    0
-
 -outvars: echo values of preprocessed input variables --------
            acell      1.0000000000E+00  1.0000000000E+00  1.0000000000E+00 Bohr
              amu      2.29897680E+01  7.26100000E+01  1.59994000E+01
             ecut      4.40000000E+01 Hartree
-          fftalg         512
           irdden           1
           irdwfk           1
           istwfk        1    1
              ixc     -116133
              kpt      0.00000000E+00  0.00000000E+00  5.00000000E-01
                       0.00000000E+00  0.00000000E+00  0.00000000E+00
           kptopt           0
P           mkmem           2
P          mkqmem           2
P          mk1mem           2
            natom          12
            nband          59
           nbdbuf           4
            ngfft          72      72      60
             nkpt           2
            nstep        2000
             nsym           4
           ntypat           3
              occ      2.000000  2.000000  2.000000  2.000000  2.000000  2.000000
                       2.000000  2.000000  2.000000  2.000000  2.000000  2.000000
                       2.000000  2.000000  2.000000  2.000000  2.000000  2.000000
                       2.000000  2.000000  2.000000  2.000000  2.000000  2.000000
                       2.000000  2.000000  2.000000  2.000000  2.000000  2.000000
                       2.000000  2.000000  2.000000  2.000000  2.000000  2.000000
                       2.000000  2.000000  2.000000  2.000000  2.000000  2.000000
                       2.000000  2.000000  2.000000  2.000000  2.000000  2.000000
                       2.000000  2.000000  0.000000  0.000000  0.000000  0.000000
                       0.000000  0.000000  0.000000  0.000000  0.000000
        optdriver           1
            prtwf          -1
            rfdir           1       1       1
           rfelfd           2
            rprim      1.1839203051E+01  0.0000000000E+00  0.0000000000E+00
                      -5.9503185751E+00  1.0235254650E+01  0.0000000000E+00
                       0.0000000000E+00  0.0000000000E+00  9.2797595566E+00
          spgroup          36
           symrel      1  0  0   0  1  0   0  0  1       0 -1  0  -1  0  0   0  0  1
                      -1  0  0   0 -1  0   0  0  1       0  1  0   1  0  0   0  0  1
            tnons      0.0000000  0.0000000  0.0000000     0.0000000  0.0000000  0.5000000
                       0.0000000  0.0000000  0.5000000     0.0000000  0.0000000  0.0000000
           tolwfr      1.00000000E-20
            typat      1  1  1  1  2  2  3  3  3  3  3  3
           useylm           1
              wtk        0.50000    0.50000
           xangst      5.1927275735E+00  1.7768214850E+00  2.4552695229E+00
                      -1.0737346860E+00  5.3822493501E+00  2.4552695229E+00
                      -2.0764641247E+00  3.6394419998E+00  4.9105881522E+00
                       4.1899981348E+00  3.4014134684E-02  4.9105881522E+00
                       2.0690867445E+00  3.5962039684E+00  2.2854547759E+00
                       1.0471767043E+00  1.8200595164E+00  4.7407734051E+00
                       1.2280633324E+00  2.1344519466E+00  2.9436127557E+00
                       1.8882001164E+00  3.2818115381E+00  4.8829412644E-01
                       3.7707484276E+00  3.5713270702E+00  2.5794988243E+00
                      -6.5448497874E-01  1.8449364145E+00  1.2418019499E-01
                       1.1923342753E+00  5.0548253899E+00  2.5794988243E+00
                       1.9239291735E+00  3.6143809486E-01  1.2418019499E-01
            xcart      9.8128329966E+00  3.3577059936E+00  4.6397869807E+00
                      -2.0290644959E+00  1.0170977250E+01  4.6397869807E+00
                      -3.9239485204E+00  6.8775486561E+00  9.2796667590E+00
                       7.9179489721E+00  6.4277399200E-02  9.2796667590E+00
                       3.9100072924E+00  6.7958406182E+00  4.3188836155E+00
                       1.9788771838E+00  3.4394140315E+00  8.9587633938E+00
                       2.3207033721E+00  4.0335296229E+00  5.5626219496E+00
                       3.5681811041E+00  6.2017250268E+00  9.2274217127E-01
                       7.1256818441E+00  6.7488300936E+00  4.8745463380E+00
                      -1.2367973679E+00  3.4864245561E+00  2.3466655967E-01
                       2.2531852392E+00  9.5522356364E+00  4.8745463380E+00
                       3.6356992370E+00  6.8301901328E-01  2.3466655967E-01
             xred      9.9372000000E-01  3.2805300000E-01  4.9999000000E-01
                       3.2805300000E-01  9.9372000000E-01  4.9999000000E-01
                       6.2800000000E-03  6.7194700000E-01  9.9999000000E-01
                       6.7194700000E-01  6.2800000000E-03  9.9999000000E-01
                       6.6396400000E-01  6.6396400000E-01  4.6540900000E-01
                       3.3603600000E-01  3.3603600000E-01  9.6540900000E-01
                       3.9408200000E-01  3.9408200000E-01  5.9943600000E-01
                       6.0591800000E-01  6.0591800000E-01  9.9436000000E-02
                       9.3326800000E-01  6.5937100000E-01  5.2528800000E-01
                       6.6732000000E-02  3.4062900000E-01  2.5288000000E-02
                       6.5937100000E-01  9.3326800000E-01  5.2528800000E-01
                       3.4062900000E-01  6.6732000000E-02  2.5288000000E-02
            znucl       11.00000   32.00000    8.00000

 chkinp: Checking input parameters for consistency.

== DATASET  1 ==================================================================
-   mpi_nproc: 1, omp_nthreads: -1 (-1 if OMP is not activated)

--- !DatasetInfo
iteration_state: {dtset: 1, }
dimensions: {natom: 12, nkpt: 2, mband: 59, nsppol: 1, nspinor: 1, nspden: 1, mpw: 15733, }
cutoff_energies: {ecut:  44.0, pawecutdg:  -1.0, }
electrons: {nelect:   1.00000000E+02, charge:   0.00000000E+00, occopt:   1.00000000E+00, tsmear:   1.00000000E-02, }
meta: {optdriver: 1, rfelfd: 2, }
...

 Real(R)+Recip(G) space primitive vectors, cartesian coordinates (Bohr,Bohr^-1):
 R(1)= 11.8392031  0.0000000  0.0000000  G(1)=  0.0844651  0.0491043  0.0000000
 R(2)= -5.9503186 10.2352546  0.0000000  G(2)=  0.0000000  0.0977015  0.0000000
 R(3)=  0.0000000  0.0000000  9.2797596  G(3)=  0.0000000  0.0000000  0.1077614
 Unit cell volume ucvol=  1.1244958E+03 bohr^3
 Angles (23,13,12)=  9.00000000E+01  9.00000000E+01  1.20171801E+02 degrees

 getcut: wavevector=  0.0000  0.0000  0.0000  ngfft=  72  72  60
         ecut(hartree)=     44.000   => boxcut(ratio)=   2.03667

--- Pseudopotential description ------------------------------------------------
- pspini: atom type   1  psp file is /scratch/users/j/a/jabreu/pseudos/PBEsol/Na.psp8
- pspatm: opening atomic psp file    /scratch/users/j/a/jabreu/pseudos/PBEsol/Na.psp8
- Na    ONCVPSP-3.3.0  r_core=   1.20708   1.55069
- 11.00000   9.00000    180112                znucl, zion, pspdat
    8 -116133    1    4       400   0.00000   pspcod,pspxc,lmax,lloc,mmax,r2well
    3.99000000000000    0.00000000000000    0.00000000000000   rchrg,fchrg,qchrg
     nproj     2     2
     extension_switch     1
  pspatm : epsatm=    9.32878306
         --- l  ekb(1:nproj) -->
             0    2.657905   -0.678300
             1   -6.761319   -2.404728
 pspatm: atomic psp has been read  and splines computed

- pspini: atom type   2  psp file is /scratch/users/j/a/jabreu/pseudos/PBEsol/Ge.psp8
- pspatm: opening atomic psp file    /scratch/users/j/a/jabreu/pseudos/PBEsol/Ge.psp8
- Ge    ONCVPSP-3.3.0  r_core=   1.91022   1.82122   1.91022
- 32.00000  14.00000    180112                znucl, zion, pspdat
    8 -116133    2    4       600   0.00000   pspcod,pspxc,lmax,lloc,mmax,r2well
    5.99000000000000    5.00000000000000    0.00000000000000   rchrg,fchrg,qchrg
     nproj     2     2     2
     extension_switch     1
  pspatm : epsatm=   30.86751540
         --- l  ekb(1:nproj) -->
             0    6.339734    0.583066
             1    3.813259    0.738801
             2   -9.332373   -3.602819
 pspatm: atomic psp has been read  and splines computed

- pspini: atom type   3  psp file is /scratch/users/j/a/jabreu/pseudos/PBEsol/O.psp8
- pspatm: opening atomic psp file    /scratch/users/j/a/jabreu/pseudos/PBEsol/O.psp8
- O     ONCVPSP-3.3.0  r_core=   1.35509   1.45563   1.26150
-  8.00000   6.00000    180112                znucl, zion, pspdat
    8 -116133    2    4       600   0.00000   pspcod,pspxc,lmax,lloc,mmax,r2well
    5.99000000000000    4.00000000000000    0.00000000000000   rchrg,fchrg,qchrg
     nproj     2     2     1
     extension_switch     1
  pspatm : epsatm=    6.22910522
         --- l  ekb(1:nproj) -->
             0    6.050032    0.820363
             1   -4.739617   -1.153841
             2   -1.335834
 pspatm: atomic psp has been read  and splines computed

   1.36424794E+04                                ecore*ucvol(ha*bohr**3)

 ==>  initialize data related to q vector <==

 The list of irreducible perturbations for this q vector is:
    1)    idir= 1    ipert=  13
    2)    idir= 2    ipert=  13
    3)    idir= 3    ipert=  13

 Perturbation wavevector (in red.coord.)   0.000000  0.000000  0.000000
 Perturbation : derivative vs k along direction   1

 dfpt_looppert : COMMENT -
  In a d/dk calculation, iscf is set to -3 automatically.
 The set of symmetries contains only one element for this perturbation.
 symkpt : not enough symmetry to change the number of k points.

 Initialisation of the first-order wave-functions :
  ireadwf=   0

--- !BeginCycle
iteration_state: {dtset: 1, }
[...]
 ETOT 15  -70.694668785341      0.000E+00 2.022E-08 0.000E+00
 ETOT 16  -70.694668785341      1.421E-14 4.224E-09 0.000E+00
 ETOT 17  -70.694668785341     -1.421E-14 3.596E-09 0.000E+00
 ETOT 18  -70.694668785341      0.000E+00 7.479E-10 0.000E+00
 ETOT 19  -70.694668785341     -1.421E-14 6.389E-10 0.000E+00
 ETOT 20  -70.694668785341      0.000E+00 1.324E-10 0.000E+00
 ETOT 21  -70.694668785341      0.000E+00 1.135E-10 0.000E+00
 ETOT 22  -70.694668785341      0.000E+00 2.346E-11 0.000E+00
 ETOT 23  -70.694668785341      0.000E+00 2.014E-11 0.000E+00
 ETOT 24  -70.694668785341      0.000E+00 4.154E-12 0.000E+00
 ETOT 25  -70.694668785341     -1.421E-14 3.574E-12 0.000E+00
 ETOT 26  -70.694668785341      1.421E-14 7.357E-13 0.000E+00
 ETOT 27  -70.694668785341      0.000E+00 6.341E-13 0.000E+00
 ETOT 28  -70.694668785341     -1.421E-14 1.303E-13 0.000E+00
 ETOT 29  -70.694668785341      0.000E+00 1.125E-13 0.000E+00
 ETOT 30  -70.694668785341      2.842E-14 2.308E-14 0.000E+00
 ETOT 31  -70.694668785341     -1.421E-14 1.994E-14 0.000E+00
 ETOT 32  -70.694668785341      0.000E+00 4.088E-15 0.000E+00
 ETOT 33  -70.694668785341      0.000E+00 3.535E-15 0.000E+00
 ETOT 34  -70.694668785341      0.000E+00 7.241E-16 0.000E+00
 ETOT 35  -70.694668785341      0.000E+00 6.264E-16 0.000E+00
 ETOT 36  -70.694668785341      0.000E+00 1.283E-16 0.000E+00
 ETOT 37  -70.694668785341     -1.421E-14 1.110E-16 0.000E+00
 ETOT 38  -70.694668785341      1.421E-14 2.272E-17 0.000E+00
 ETOT 39  -70.694668785341      0.000E+00 1.966E-17 0.000E+00
 ETOT 40  -70.694668785341      0.000E+00 4.025E-18 0.000E+00
 ETOT 41  -70.694668785341      2.842E-14 3.481E-18 0.000E+00
 ETOT 42  -70.694668785341     -1.421E-14 7.132E-19 0.000E+00
 ETOT 43  -70.694668785341     -1.421E-14 6.165E-19 0.000E+00
 ETOT 44  -70.694668785341      0.000E+00 1.264E-19 0.000E+00
 ETOT 45  -70.694668785341      1.421E-14 1.092E-19 0.000E+00
 ETOT 46  -70.694668785341      0.000E+00 2.239E-20 0.000E+00
 ETOT 47  -70.694668785341     -1.421E-14 1.933E-20 0.000E+00
 ETOT 48  -70.694668785341      1.421E-14 9.895E-21 0.000E+00

 At SCF step   48   max residual=  9.90E-21 < tolwfr=  1.00E-20 =>converged.

 ----iterations are completed or convergence reached----

 dfpt_looppert: DFPT cycle converged with prtwf=-1. Will skip output of the 1st-order WFK file.
 dfpt_looppert : ek2=    9.1688799243E+01
          f-sum rule ratio=    1.0094413106E+00
 prteigrs : about to open file /scratch/users/j/a/jabreu/flow_simple_11atoms/flow/w287/t1/tmpdata/tmp_1WF1_EIG
 Expectation of eigenvalue derivatives (hartree) for nkpt=   2  k points:
  (in case of degenerate eigenvalues, averaged derivative)
 kpt#   1, nband= 59, wtk=  0.50000, kpt=  0.0000  0.0000  0.5000 (reduced coord)
  -0.00000   -0.00000   -0.00000   -0.00000    0.00000    0.00000   -0.00000   -0.00000
   0.00000    0.00000   -0.00000   -0.00000   -0.00000   -0.00000    0.00000    0.00000
  -0.00000   -0.00000   -0.00000   -0.00000   -0.00000   -0.00000    0.00000    0.00000
   0.00000    0.00000   -0.00000   -0.00000   -0.00000   -0.00000    0.00000    0.00000
   0.00000    0.00000   -0.00000   -0.00000   -0.00000   -0.00000    0.00000    0.00000
   0.00000    0.00000    0.00000    0.00000    0.00000    0.00000    0.00000    0.00000
   0.00000    0.00000    0.00000    0.00000   -0.00000   -0.00000    0.00000    0.00000
   0.04561   -0.04562   -0.05411
 prteigrs : prtvol=0 or 1, do not print more k-points.

 Eight components of 2nd-order total energy (hartree) are
 1,2,3: 0th-order hamiltonian combined with 1st-order wavefunctions
     kin0=   8.78780122E+01 eigvalue=   9.26250342E+00  local=  -3.22562405E+01
 4,5,6: 1st-order hamiltonian combined with 1st and 0th-order wfs
     kin1=  -9.25544617E+01  Hartree=   0.00000000E+00     xc=   0.00000000E+00
 7,8,9: eventually, occupation + non-local contributions
    edocc=   5.45189847E+00     enl0=   3.58495231E-01   enl1=  -4.88348759E+01
 1-9 gives the relaxation energy (to be shifted if some occ is /=2.0)
   erelax=  -7.06946688E+01
  No Ewald or frozen-wf contrib.: the relaxation energy is the total one
 2DEtotal=   -0.7069466879E+02 Ha. Also 2DEtotal=   -0.192369976917E+04 eV
    (  non-var. 2DEtotal :   -7.0694668785E+01 Ha)

 CALCULATION OF EFFECTIVE MASSES
 NOTE : Additional infos (eff. mass eigenvalues, eigenvectors and, if degenerate, average mass) are available in stdout.

--- !WARNING
src_file: m_efmas.F90
src_line: 0
message: |
    Effective masses calculations require given k-point(s) to be band extrema for given bands, but max abs gradient of band(s) was found to be greater than 1e-5. Abinit will continue anyway.
...

 COMMENTS:
 - At k-point ( 0.000, 0.000, 0.500), bands    49 through    50
   are DEGENERATE (effective mass tensor is therefore not defined).
   See Section IIIB Eqs. (67)-(70) and Appendix E of PRB 93 205147 (2016).
 - Angular average effective mass for Frohlich model is to be averaged over degenerate bands. See later.
 - Associated theta integrals calculated with ntheta=   1000 points.

 K-point ( 0.000, 0.000, 0.500) | band =    49
 Transport equivalent effective mass tensor:
             -3.7000685588             -0.2357562586             -0.0000047851
             -0.2357562586             -3.9712361224              0.0000005395
             -0.0000047851              0.0000005395             -2.3509197004
 Transport equivalent effective mass tensor eigenvalues:
             -4.1076155281             -3.5636891532             -2.3509197004
 Angular average effective mass 1/(<1/m>)=  -2.6697763827
 Angular average effective mass for Frohlich model (<m**0.5>)**2=  -2.7195413973
 Effective masses along directions: (cart. coord. / red. coord. -> eff. mass)
    1:   1.000000  0.000000  0.000000 /   0.893498 -0.449067  0.000000 ->  -3.1281359856
    2:   0.000000  1.000000  0.000000 /   0.000000  1.000000  0.000000 ->  -4.1677719388
    3:   0.000000  0.000000  1.000000 /   0.000000  0.000000  1.000000 ->  -2.8549866398
    4:   0.577350  0.577350  0.577350 /   0.756933  0.273955  0.593297 ->  -2.4364412328
    5:   0.000000  0.707107  0.707107 /   0.000000  0.740841  0.671681 ->  -2.2693391590
    6:   0.707107  0.000000  0.707107 /   0.731866 -0.367832  0.573648 ->  -2.3882516140
    7:   0.707107  0.707107  0.000000 /   0.940308  0.340324  0.000000 ->  -4.7344759028

 K-point ( 0.000, 0.000, 0.500) | band =    50
 Transport equivalent effective mass tensor:
             -7.7734692792             -3.2787607980             -0.0000289454
             -3.2787607980            -11.5892505996             -0.0000212705
             -0.0000289454             -0.0000212705             -7.7121219984
 Transport equivalent effective mass tensor eigenvalues:
            -13.4748173523             -7.7121219983             -5.8879025266
 Angular average effective mass 1/(<1/m>)=  -4.3099795825
 Angular average effective mass for Frohlich model (<m**0.5>)**2=  -4.7713626877
 Effective masses along directions: (cart. coord. / red. coord. -> eff. mass)
    1:   1.000000  0.000000  0.000000 /   0.893498 -0.449067  0.000000 ->  -3.1281668859
    2:   0.000000  1.000000  0.000000 /   0.000000  1.000000  0.000000 ->  -4.1679005509
    3:   0.000000  0.000000  1.000000 /   0.000000  0.000000  1.000000 ->  -2.8549916316
    4:   0.577350  0.577350  0.577350 /   0.756933  0.273955  0.593297 ->  -9.5515190305
    5:   0.000000  0.707107  0.707107 /   0.000000  0.740841  0.671681 ->  -6.6871365582
    6:   0.707107  0.000000  0.707107 /   0.731866 -0.367832  0.573648 ->  -3.9805057277
    7:   0.707107  0.707107  0.000000 /   0.940308  0.340324  0.000000 ->  -4.7345272245

 Angular average effective mass for Frohlich model, averaged over degenerate bands.
 Value of     (<<m**0.5>>)**2 =     3.673831E+00
 Absolute Value of <<m**0.5>> =     1.916724E+00

 K-point ( 0.000, 0.000, 0.000) | band =    51
 Effective mass tensor:
              0.4403171884             -0.0082568265              0.0000000059
             -0.0082568265              0.4307168854              0.0000000276
              0.0000000059              0.0000000276              0.3929538418
 Effective mass tensor eigenvalues:
              0.3929538418              0.4259662966              0.4450677771
 Angular average effective mass 1/(<1/m>)=   0.4202104105
 Angular average effective mass for Frohlich model (<m**0.5>)**2=   0.4205488250
 Effective masses along directions: (cart. coord. / red. coord. -> eff. mass)
    1:   1.000000  0.000000  0.000000 /   0.893498 -0.449067  0.000000 ->   0.4401589054
    2:   0.000000  1.000000  0.000000 /   0.000000  1.000000  0.000000 ->   0.4305620534
    3:   0.000000  0.000000  1.000000 /   0.000000  0.000000  1.000000 ->   0.3929538418
    4:   0.577350  0.577350  0.577350 /   0.756933  0.273955  0.593297 ->   0.4151453401
    5:   0.000000  0.707107  0.707107 /   0.000000  0.740841  0.671681 ->   0.4108992319
    6:   0.707107  0.000000  0.707107 /   0.731866 -0.367832  0.573648 ->   0.4152190351
    7:   0.707107  0.707107  0.000000 /   0.940308  0.340324  0.000000 ->   0.4272082887

 END OF EFFECTIVE MASSES SECTION

 ---- first-order wavefunction calculations are completed ----

 Total localisation tensor (bohr^2) in cartesian coordinates
  WARNING : still subject to testing - especially symmetries.
      direction              matrix element
   alpha     beta       real part   imaginary part
     1        1       0.8632259750    0.0000000000
     1        2      -0.2994374338    0.0000000000
     1        3       0.0000000000    0.0000000000
     2        1      -0.2994374338    0.0000000000
     2        2       0.5150679495    0.0000000000
     2        3       0.0000000000    0.0000000000
     3        1       0.0000000000    0.0000000000
     3        2       0.0000000000    0.0000000000
     3        3       0.5045240703    0.0000000000

 respfn : d/dk was computed, but no 2DTE, so no DDB output.

== END DATASET(S) ==============================================================

 -outvars: echo values of variables after computation  --------
            acell      1.0000000000E+00  1.0000000000E+00  1.0000000000E+00 Bohr
              amu      2.29897680E+01  7.26100000E+01  1.59994000E+01
             ecut      4.40000000E+01 Hartree
           etotal     -7.0694668785E+01
            fcart      0.0000000000E+00  0.0000000000E+00  0.0000000000E+00
                       0.0000000000E+00  0.0000000000E+00  0.0000000000E+00
                       0.0000000000E+00  0.0000000000E+00  0.0000000000E+00
                       0.0000000000E+00  0.0000000000E+00  0.0000000000E+00
                       0.0000000000E+00  0.0000000000E+00  0.0000000000E+00
                       0.0000000000E+00  0.0000000000E+00  0.0000000000E+00
                       0.0000000000E+00  0.0000000000E+00  0.0000000000E+00
                       0.0000000000E+00  0.0000000000E+00  0.0000000000E+00
                       0.0000000000E+00  0.0000000000E+00  0.0000000000E+00
                       0.0000000000E+00  0.0000000000E+00  0.0000000000E+00
                       0.0000000000E+00  0.0000000000E+00  0.0000000000E+00
                       0.0000000000E+00  0.0000000000E+00  0.0000000000E+00
-          fftalg         512
           irdden           1
           irdwfk           1
           istwfk        1    1
              ixc     -116133
              kpt      0.00000000E+00  0.00000000E+00  5.00000000E-01
                       0.00000000E+00  0.00000000E+00  0.00000000E+00
           kptopt           0
P           mkmem           2
P          mkqmem           2
P          mk1mem           2
            natom          12
            nband          59
           nbdbuf           4
            ngfft          72      72      60
             nkpt           2
            nstep        2000
             nsym           4
           ntypat           3
              occ      2.000000  2.000000  2.000000  2.000000  2.000000  2.000000
                       2.000000  2.000000  2.000000  2.000000  2.000000  2.000000
                       2.000000  2.000000  2.000000  2.000000  2.000000  2.000000
                       2.000000  2.000000  2.000000  2.000000  2.000000  2.000000
                       2.000000  2.000000  2.000000  2.000000  2.000000  2.000000
                       2.000000  2.000000  2.000000  2.000000  2.000000  2.000000
                       2.000000  2.000000  2.000000  2.000000  2.000000  2.000000
                       2.000000  2.000000  2.000000  2.000000  2.000000  2.000000
                       2.000000  2.000000  0.000000  0.000000  0.000000  0.000000
                       0.000000  0.000000  0.000000  0.000000  0.000000
        optdriver           1
            prtwf          -1
            rfdir           1       1       1
           rfelfd           2
            rprim      1.1839203051E+01  0.0000000000E+00  0.0000000000E+00
                      -5.9503185751E+00  1.0235254650E+01  0.0000000000E+00
                       0.0000000000E+00  0.0000000000E+00  9.2797595566E+00
          spgroup          36
           strten      0.0000000000E+00  0.0000000000E+00  0.0000000000E+00
                       0.0000000000E+00  0.0000000000E+00  0.0000000000E+00
           symrel      1  0  0   0  1  0   0  0  1       0 -1  0  -1  0  0   0  0  1
                      -1  0  0   0 -1  0   0  0  1       0  1  0   1  0  0   0  0  1
            tnons      0.0000000  0.0000000  0.0000000     0.0000000  0.0000000  0.5000000
                       0.0000000  0.0000000  0.5000000     0.0000000  0.0000000  0.0000000
           tolwfr      1.00000000E-20
            typat      1  1  1  1  2  2  3  3  3  3  3  3
           useylm           1
              wtk        0.50000    0.50000
           xangst      5.1927275735E+00  1.7768214850E+00  2.4552695229E+00
                      -1.0737346860E+00  5.3822493501E+00  2.4552695229E+00
                      -2.0764641247E+00  3.6394419998E+00  4.9105881522E+00
                       4.1899981348E+00  3.4014134684E-02  4.9105881522E+00
                       2.0690867445E+00  3.5962039684E+00  2.2854547759E+00
                       1.0471767043E+00  1.8200595164E+00  4.7407734051E+00
                       1.2280633324E+00  2.1344519466E+00  2.9436127557E+00
                       1.8882001164E+00  3.2818115381E+00  4.8829412644E-01
                       3.7707484276E+00  3.5713270702E+00  2.5794988243E+00
                      -6.5448497874E-01  1.8449364145E+00  1.2418019499E-01
                       1.1923342753E+00  5.0548253899E+00  2.5794988243E+00
                       1.9239291735E+00  3.6143809486E-01  1.2418019499E-01
            xcart      9.8128329966E+00  3.3577059936E+00  4.6397869807E+00
                      -2.0290644959E+00  1.0170977250E+01  4.6397869807E+00
                      -3.9239485204E+00  6.8775486561E+00  9.2796667590E+00
                       7.9179489721E+00  6.4277399200E-02  9.2796667590E+00
                       3.9100072924E+00  6.7958406182E+00  4.3188836155E+00
                       1.9788771838E+00  3.4394140315E+00  8.9587633938E+00
                       2.3207033721E+00  4.0335296229E+00  5.5626219496E+00
                       3.5681811041E+00  6.2017250268E+00  9.2274217127E-01
                       7.1256818441E+00  6.7488300936E+00  4.8745463380E+00
                      -1.2367973679E+00  3.4864245561E+00  2.3466655967E-01
                       2.2531852392E+00  9.5522356364E+00  4.8745463380E+00
                       3.6356992370E+00  6.8301901328E-01  2.3466655967E-01
             xred      9.9372000000E-01  3.2805300000E-01  4.9999000000E-01
                       3.2805300000E-01  9.9372000000E-01  4.9999000000E-01
                       6.2800000000E-03  6.7194700000E-01  9.9999000000E-01
                       6.7194700000E-01  6.2800000000E-03  9.9999000000E-01
                       6.6396400000E-01  6.6396400000E-01  4.6540900000E-01
                       3.3603600000E-01  3.3603600000E-01  9.6540900000E-01
                       3.9408200000E-01  3.9408200000E-01  5.9943600000E-01
                       6.0591800000E-01  6.0591800000E-01  9.9436000000E-02
                       9.3326800000E-01  6.5937100000E-01  5.2528800000E-01
                       6.6732000000E-02  3.4062900000E-01  2.5288000000E-02
                       6.5937100000E-01  9.3326800000E-01  5.2528800000E-01
                       3.4062900000E-01  6.6732000000E-02  2.5288000000E-02
            znucl       11.00000   32.00000    8.00000

- Timing analysis has been suppressed with timopt=0

 Suggested references for the acknowledgment of ABINIT usage.

 Calculation completed.
.Delivered   4 WARNINGs and   5 COMMENTs to log file.