.Version 9.4.3 of ABINIT

 ABINIT is a project of the Universite Catholique de Louvain,
 Corning Inc. and other collaborators, see ~abinit/doc/developers/contributors.txt .
 acknowledgments of the ABINIT effort.

.Starting date : Wed  2 Jun 2021.
- ( at 14h38 )

- input  file    -> /scratch/users/j/a/jabreu/flow_simple_11atoms/flow/w413/t1/run.abi
- output file    -> /scratch/users/j/a/jabreu/flow_simple_11atoms/flow/w413/t1/run.abo
- root for input  files -> /scratch/users/j/a/jabreu/flow_simple_11atoms/flow/w413/t1/indata/in
- root for output files -> /scratch/users/j/a/jabreu/flow_simple_11atoms/flow/w413/t1/outdata/out

 Symmetries : space group I4_1/a (# 88); Bravais tI (body-center tetrag.)
     intxc =       0      iscf =       7    lmnmax =      32     lnmax =       8
     mgfft =      90  mpssoang =       4    mqgrid =    3001     natom =      12
  nloc_mem =       1    nspden =       1   nspinor =       1    nsppol =       1
      nsym =       8    n1xccc =    2501    ntypat =       3    occopt =       1
   xclevel =       2
-    mband =          57        mffmem =           1         mkmem =           2
-   mkqmem =           2        mk1mem =           2           mpw =       19970
      nfft =      729000          nkpt =           2
  Rough estimation (10% accuracy) of disk space for files :

------------- Echo of variables that govern the present computation ------------
-
- outvars: echo of selected default values
-   iomode0 =  0 , fftalg0 =512 , wfoptalg0 =  0
-
- outvars: echo of global parameters not present in the input file
-  max_nthreads =    0
-
 -outvars: echo values of preprocessed input variables --------
            acell      1.0000000000E+00  1.0000000000E+00  1.0000000000E+00 Bohr
              amu      1.38905500E+02  9.29063800E+01  1.59994000E+01
             ecut      5.20000000E+01 Hartree
-          fftalg         512
           irdden           1
           irdwfk           1
              ixc     -116133
              kpt      3.18536068E-01  6.81463933E-01 -3.18536068E-01
                       3.75000000E-01  3.75000000E-01  7.04226965E-02
           kptopt           0
P           mkmem           2
P          mkqmem           2
P          mk1mem           2
            natom          12
            nband          57
           nbdbuf           4
            ngfft          90      90      90
             nkpt           2
            nstep        2000
             nsym           8
           ntypat           3
              occ      2.000000  2.000000  2.000000  2.000000  2.000000  2.000000
                       2.000000  2.000000  2.000000  2.000000  2.000000  2.000000
                       2.000000  2.000000  2.000000  2.000000  2.000000  2.000000
                       2.000000  2.000000  2.000000  2.000000  2.000000  2.000000
                       2.000000  2.000000  2.000000  2.000000  2.000000  2.000000
                       2.000000  2.000000  2.000000  2.000000  2.000000  2.000000
                       2.000000  2.000000  2.000000  2.000000  2.000000  2.000000
                       2.000000  2.000000  2.000000  2.000000  2.000000  2.000000
                       0.000000  0.000000  0.000000  0.000000  0.000000  0.000000
                       0.000000  0.000000  0.000000
        optdriver           1
            prtwf          -1
            rfdir           1       1       1
           rfelfd           2
            rprim      9.3384821470E+00  0.0000000000E+00 -9.0538125755E+00
                      -1.6733655715E+00  9.1873334801E+00 -9.0538125755E+00
                       0.0000000000E+00  0.0000000000E+00  1.3006873989E+01
          spgroup          88
           symrel      1  0  0   0  1  0   0  0  1      -1  0  0   0 -1  0   0  0 -1
                       0  1  0   1  0  0  -1 -1 -1       0 -1  0  -1  0  0   1  1  1
                       0  0  1  -1 -1 -1   0  1  0       0  0 -1   1  1  1   0 -1  0
                      -1 -1 -1   0  0  1   1  0  0       1  1  1   0  0 -1  -1  0  0
            tnons      0.0000000  0.0000000  0.0000000    -0.2500000  0.2500000  0.5000000
                       0.0000000  0.0000000  0.0000000    -0.2500000  0.2500000  0.5000000
                       0.0000000  0.0000000  0.0000000    -0.2500000  0.2500000  0.5000000
                       0.0000000  0.0000000  0.0000000    -0.2500000  0.2500000  0.5000000
           tolwfr      1.00000000E-20
            typat      1  1  2  2  3  3  3  3  3  3  3  3
           useylm           1
              wtk        0.50000    0.50000
           xangst      2.0281024965E+00  2.4308637427E+00 -4.7910712658E+00
                       5.7129778720E-01  3.6462956140E+00 -1.3496006308E+00
                       1.7759451199E-16 -3.3735011211E-17  1.0301056859E-17
                       3.4849072057E+00  1.2154318713E+00 -1.3496006308E+00
                       2.6468483453E+00  3.6390613635E+00 -2.7162432657E+00
                       2.1040482012E+00  1.9735246844E+00 -3.4959426567E-01
                       3.2731430999E+00  4.4715240220E+00 -5.4702281453E+00
                       7.0224045935E-01  3.7512360018E-01  1.6874921205E+00
                       2.7826667464E+00  8.4030827117E-01 -3.0370927513E+00
                       4.2679690988E+00  1.6056353348E+00 -5.4615150171E+00
                       4.9535208250E-01  4.1036346723E+00  1.0918636390E+00
                      -4.7448061611E-02  2.4380979932E+00  3.4585126390E+00
            xcart      3.8325582878E+00  4.5936667400E+00 -9.0538125755E+00
                       1.0795963581E+00  6.8905001101E+00 -2.5503755810E+00
                       3.3560499037E-16 -6.3749932278E-17  1.9466176342E-17
                       6.5855202174E+00  2.2968333700E+00 -2.5503755810E+00
                       5.0018184879E+00  6.8768293579E+00 -5.1329558824E+00
                       3.9760748706E+00  3.7294211701E+00 -6.6063741975E-01
                       6.1853440526E+00  8.4499557982E+00 -1.0337233079E+01
                       1.3270421476E+00  7.0888087032E-01  3.1888979591E+00
                       5.2584780698E+00  1.5879524997E+00 -5.7392735402E+00
                       8.0652927403E+00  3.0342110520E+00 -1.0320767653E+01
                       9.3607977527E-01  7.7547456800E+00  2.0633232521E+00
                      -8.9663841982E-02  4.6073374923E+00  6.5356417148E+00
             xred      5.0000000000E-01  5.0000000000E-01  2.0816681712E-17
                       2.5000000000E-01  7.5000000000E-01  5.0000000000E-01
                       3.4694469520E-17 -6.9388939039E-18  2.0816681712E-17
                       7.5000000000E-01  2.5000000000E-01  5.0000000000E-01
                       6.6973975000E-01  7.4851200000E-01  5.9258125000E-01
                       4.9851200000E-01  4.0593075000E-01  5.7877225000E-01
                       8.2715850000E-01  9.1973975000E-01  4.2122775000E-01
                       1.5593075000E-01  7.7158500000E-02  4.0741875000E-01
                       5.9406925000E-01  1.7284150000E-01  9.2581250000E-02
                       9.2284150000E-01  3.3026025000E-01  7.8772250000E-02
                       2.5148800000E-01  8.4406925000E-01  9.2122775000E-01
                       8.0260250000E-02  5.0148800000E-01  9.0741875000E-01
            znucl       57.00000   41.00000    8.00000

 chkinp: Checking input parameters for consistency.

== DATASET  1 ==================================================================
-   mpi_nproc: 1, omp_nthreads: -1 (-1 if OMP is not activated)

--- !DatasetInfo
iteration_state: {dtset: 1, }
dimensions: {natom: 12, nkpt: 2, mband: 57, nsppol: 1, nspinor: 1, nspden: 1, mpw: 19970, }
cutoff_energies: {ecut:  52.0, pawecutdg:  -1.0, }
electrons: {nelect:   9.60000000E+01, charge:   0.00000000E+00, occopt:   1.00000000E+00, tsmear:   1.00000000E-02, }
meta: {optdriver: 1, rfelfd: 2, }
...

 Real(R)+Recip(G) space primitive vectors, cartesian coordinates (Bohr,Bohr^-1):
 R(1)=  9.3384821  0.0000000 -9.0538126  G(1)=  0.1070838  0.0195041  0.0000000
 R(2)= -1.6733656  9.1873335 -9.0538126  G(2)=  0.0000000  0.1088455  0.0000000
 R(3)=  0.0000000  0.0000000 13.0068740  G(3)=  0.0745388  0.0893414  0.0768824
 Unit cell volume ucvol=  1.1159345E+03 bohr^3
 Angles (23,13,12)=  1.34113267E+02  1.34113267E+02  6.69111497E+01 degrees

 getcut: wavevector=  0.0000  0.0000  0.0000  ngfft=  90  90  90
         ecut(hartree)=     52.000   => boxcut(ratio)=   2.13185

--- Pseudopotential description ------------------------------------------------
- pspini: atom type   1  psp file is /scratch/users/j/a/jabreu/pseudos/PBEsol/La.psp8
- pspatm: opening atomic psp file    /scratch/users/j/a/jabreu/pseudos/PBEsol/La.psp8
- La    ONCVPSP-3.3.0  r_core=   2.11664   1.60878   1.85636   1.66739
- 57.00000  11.00000    180112                znucl, zion, pspdat
    8 -116133    3    4       600   0.00000   pspcod,pspxc,lmax,lloc,mmax,r2well
    5.99000000000000    5.00000000000000    0.00000000000000   rchrg,fchrg,qchrg
     nproj     2     2     2     2
     extension_switch     1
  pspatm : epsatm=   29.08531775
         --- l  ekb(1:nproj) -->
             0    6.695600    0.639047
             1    6.383649    1.151322
             2    3.612966    0.847811
             3  -13.718437   -4.858923
 pspatm: atomic psp has been read  and splines computed

- pspini: atom type   2  psp file is /scratch/users/j/a/jabreu/pseudos/PBEsol/Nb.psp8
- pspatm: opening atomic psp file    /scratch/users/j/a/jabreu/pseudos/PBEsol/Nb.psp8
- Nb    ONCVPSP-3.3.0  r_core=   1.50879   1.40458   1.40458
- 41.00000  13.00000    180112                znucl, zion, pspdat
    8 -116133    2    4       600   0.00000   pspcod,pspxc,lmax,lloc,mmax,r2well
    5.99000000000000    5.00000000000000    0.00000000000000   rchrg,fchrg,qchrg
     nproj     2     2     2
     extension_switch     1
  pspatm : epsatm=   15.66753381
         --- l  ekb(1:nproj) -->
             0   12.953547    1.345168
             1    7.772306    0.779703
             2    3.518917    1.091480
 pspatm: atomic psp has been read  and splines computed

- pspini: atom type   3  psp file is /scratch/users/j/a/jabreu/pseudos/PBEsol/O.psp8
- pspatm: opening atomic psp file    /scratch/users/j/a/jabreu/pseudos/PBEsol/O.psp8
- O     ONCVPSP-3.3.0  r_core=   1.35509   1.45563   1.26150
-  8.00000   6.00000    180112                znucl, zion, pspdat
    8 -116133    2    4       600   0.00000   pspcod,pspxc,lmax,lloc,mmax,r2well
    5.99000000000000    4.00000000000000    0.00000000000000   rchrg,fchrg,qchrg
     nproj     2     2     1
     extension_switch     1
  pspatm : epsatm=    6.22910522
         --- l  ekb(1:nproj) -->
             0    6.050032    0.820363
             1   -4.739617   -1.153841
             2   -1.335834
 pspatm: atomic psp has been read  and splines computed

   1.33765003E+04                                ecore*ucvol(ha*bohr**3)

-inwffil : will read wavefunctions from disk file /scratch/users/j/a/jabreu/flow_simple_11atoms/flow/w413/t1/indata/in_WFK

 ==>  initialize data related to q vector <==

 The list of irreducible perturbations for this q vector is:
    1)    idir= 1    ipert=  13
[...]
 ETOT 13  -76.180778198005     -8.343E-07 1.025E-03 0.000E+00
 ETOT 14  -76.180778498283     -3.003E-07 9.225E-04 0.000E+00
 ETOT 15  -76.180778607232     -1.089E-07 7.428E-04 0.000E+00
 ETOT 16  -76.180778647050     -3.982E-08 6.822E-04 0.000E+00
 ETOT 17  -76.180778661700     -1.465E-08 5.428E-04 0.000E+00
 ETOT 18  -76.180778667123     -5.423E-09 5.081E-04 0.000E+00
 ETOT 19  -76.180778669142     -2.019E-09 3.991E-04 0.000E+00
 ETOT 20  -76.180778669897     -7.555E-10 3.803E-04 0.000E+00
 ETOT 21  -76.180778670181     -2.840E-10 2.948E-04 0.000E+00
 ETOT 22  -76.180778670288     -1.073E-10 2.858E-04 0.000E+00
 ETOT 23  -76.180778670329     -4.064E-11 2.188E-04 0.000E+00
 ETOT 24  -76.180778670345     -1.563E-11 2.155E-04 0.000E+00
 ETOT 25  -76.180778670351     -5.869E-12 1.630E-04 0.000E+00
 ETOT 26  -76.180778670353     -2.288E-12 1.631E-04 0.000E+00
 ETOT 27  -76.180778670354     -8.811E-13 1.219E-04 0.000E+00
 ETOT 28  -76.180778670354     -4.121E-13 1.238E-04 0.000E+00
 ETOT 29  -76.180778670354     -2.842E-14 9.149E-05 0.000E+00
 ETOT 30  -76.180778670354     -1.847E-13 9.429E-05 0.000E+00
 ETOT 31  -76.180778670354      9.948E-14 6.892E-05 0.000E+00
 ETOT 32  -76.180778670354      1.421E-14 7.202E-05 0.000E+00
 ETOT 33  -76.180778670354      5.684E-14 5.211E-05 0.000E+00
 ETOT 34  -76.180778670354      1.421E-14 5.518E-05 0.000E+00
 ETOT 35  -76.180778670354      0.000E+00 3.954E-05 0.000E+00
 ETOT 36  -76.180778670354     -4.263E-14 4.240E-05 0.000E+00
 ETOT 37  -76.180778670354      1.421E-14 3.010E-05 0.000E+00
 ETOT 38  -76.180778670354      2.842E-14 3.267E-05 0.000E+00
 ETOT 39  -76.180778670354     -2.842E-14 2.310E-05 0.000E+00
 ETOT 40  -76.180778670354      7.105E-14 2.524E-05 0.000E+00
 ETOT 41  -76.180778670354      1.421E-14 1.781E-05 0.000E+00
 ETOT 42  -76.180778670354     -1.421E-14 1.955E-05 0.000E+00
 ETOT 43  -76.180778670354      0.000E+00 1.376E-05 0.000E+00
 ETOT 44  -76.180778670354      1.421E-14 1.519E-05 0.000E+00
 ETOT 45  -76.180778670354      1.421E-14 1.065E-05 0.000E+00
 ETOT 46  -76.180778670354      2.842E-14 1.182E-05 0.000E+00
 ETOT 47  -76.180778670354      0.000E+00 8.264E-06 0.000E+00
 ETOT 48  -76.180778670354     -5.684E-14 9.225E-06 0.000E+00
 ETOT 49  -76.180778670354      2.842E-14 6.428E-06 0.000E+00
 ETOT 50  -76.180778670354     -2.842E-14 7.213E-06 0.000E+00
 ETOT 51  -76.180778670354     -2.842E-14 5.012E-06 0.000E+00
 ETOT 52  -76.180778670354      2.842E-14 5.651E-06 0.000E+00
 ETOT 53  -76.180778670354      0.000E+00 3.917E-06 0.000E+00
 ETOT 54  -76.180778670354      4.263E-14 4.435E-06 0.000E+00
 ETOT 55  -76.180778670354     -4.263E-14 3.069E-06 0.000E+00
 ETOT 56  -76.180778670354      0.000E+00 3.487E-06 0.000E+00
 ETOT 57  -76.180778670354      2.842E-14 2.410E-06 0.000E+00
 ETOT 58  -76.180778670354      0.000E+00 2.746E-06 0.000E+00
 ETOT 59  -76.180778670354      0.000E+00 1.898E-06 0.000E+00
 ETOT 60  -76.180778670354      1.421E-14 2.166E-06 0.000E+00
 ETOT 61  -76.180778670354      1.421E-14 1.499E-06 0.000E+00
[...]
 ETOT  464  -76.180778670354     -2.842E-14 2.598E-20 0.000E+00
 ETOT  465  -76.180778670354      2.842E-14 2.727E-20 0.000E+00
 ETOT  466  -76.180778670354      0.000E+00 2.245E-20 0.000E+00
 ETOT  467  -76.180778670354      0.000E+00 2.355E-20 0.000E+00
 ETOT  468  -76.180778670354      0.000E+00 1.939E-20 0.000E+00
 ETOT  469  -76.180778670354     -2.842E-14 2.034E-20 0.000E+00
 ETOT  470  -76.180778670354      0.000E+00 1.676E-20 0.000E+00
 ETOT  471  -76.180778670354      0.000E+00 1.757E-20 0.000E+00
 ETOT  472  -76.180778670354      2.842E-14 1.448E-20 0.000E+00
 ETOT  473  -76.180778670354      0.000E+00 1.518E-20 0.000E+00
 ETOT  474  -76.180778670354     -1.421E-14 1.251E-20 0.000E+00
 ETOT  475  -76.180778670354      1.421E-14 1.311E-20 0.000E+00
 ETOT  476  -76.180778670354      0.000E+00 1.080E-20 0.000E+00
 ETOT  477  -76.180778670354      0.000E+00 1.132E-20 0.000E+00
 ETOT  478  -76.180778670354      4.263E-14 9.875E-21 0.000E+00

 At SCF step  478   max residual=  9.87E-21 < tolwfr=  1.00E-20 =>converged.

 ----iterations are completed or convergence reached----

 dfpt_looppert: DFPT cycle converged with prtwf=-1. Will skip output of the 1st-order WFK file.
 dfpt_looppert : ek2=    1.4741934290E+02
          f-sum rule ratio=    9.9992182483E-01
 prteigrs : about to open file /scratch/users/j/a/jabreu/flow_simple_11atoms/flow/w413/t1/tmpdata/tmp_1WF1_EIG
 Expectation of eigenvalue derivatives (hartree) for nkpt=   2  k points:
  (in case of degenerate eigenvalues, averaged derivative)
 kpt#   1, nband= 57, wtk=  0.50000, kpt=  0.3185  0.6815 -0.3185 (reduced coord)
  -0.00010    0.00010   -0.00019    0.00042   -0.00170   -0.00072   -0.00089    0.00223
  -0.00228    0.00350   -0.02301    0.00027    0.04991   -0.03114   -0.00579    0.00727
  -0.00372   -0.00954    0.02455    0.02589   -0.02657    0.03634   -0.01792   -0.02155
  -0.01545    0.03348    0.03097    0.09008    0.00570    0.01410   -0.09097   -0.07204
  -0.00370   -0.09804    0.01056    0.09951    0.05557    0.07079   -0.03831   -0.02729
   0.04824   -0.08146    0.01172    0.02579   -0.06952   -0.05788    0.00162    0.00251
   0.01253    0.04977   -0.01220   -0.00953    0.06212    0.02233    0.00573   -0.01287
  -0.01797
 prteigrs : prtvol=0 or 1, do not print more k-points.

 Eight components of 2nd-order total energy (hartree) are
 1,2,3: 0th-order hamiltonian combined with 1st-order wavefunctions
     kin0=   1.91103940E+02 eigvalue=  -3.42961300E+00  local=  -1.00393711E+02
 4,5,6: 1st-order hamiltonian combined with 1st and 0th-order wfs
     kin1=  -1.47407818E+02  Hartree=   0.00000000E+00     xc=   0.00000000E+00
 7,8,9: eventually, occupation + non-local contributions
    edocc=   9.28979912E+00     enl0=  -2.03896364E+01   enl1=  -4.95373897E+00
 1-9 gives the relaxation energy (to be shifted if some occ is /=2.0)
   erelax=  -7.61807787E+01
  No Ewald or frozen-wf contrib.: the relaxation energy is the total one
 2DEtotal=   -0.7618077867E+02 Ha. Also 2DEtotal=   -0.207298441115E+04 eV
    (  non-var. 2DEtotal :   -7.6180778670E+01 Ha)

 CALCULATION OF EFFECTIVE MASSES
 NOTE : Additional infos (eff. mass eigenvalues, eigenvectors and, if degenerate, average mass) are available in stdout.

 K-point ( 0.319, 0.681,-0.319) | band =    48
 Effective mass tensor:
             -3.4302783952              1.0350723329              0.1096445962
              1.0350723329             -2.3161590986              0.5055767023
              0.1096445962              0.5055767023             -2.1459982836
 Effective mass tensor eigenvalues:
             -4.0636944016             -2.4489162743             -1.3798251014
 Angular average effective mass 1/(<1/m>)=  -2.1752451139
 Angular average effective mass for Frohlich model (<m**0.5>)**2=  -2.3037150412
 Effective masses along directions: (cart. coord. / red. coord. -> eff. mass)
    1:   1.000000  0.000000  0.000000 /   0.984322 -0.176381  0.000000 ->  -2.9123911144
    2:   0.000000  1.000000  0.000000 /   0.000000  1.000000  0.000000 ->  -1.8684010895
    3:   0.000000  0.000000  1.000000 /  -0.496055 -0.496055  0.712642 ->  -1.9976928360
    4:   0.577350  0.577350  0.577350 /   0.021729 -0.117538  0.992831 ->  -1.4332868872
    5:   0.000000  0.707107  0.707107 /  -0.571280  0.008425  0.820712 ->  -1.5326600276
    6:   0.707107  0.000000  0.707107 /   0.016882 -0.636169  0.771365 ->  -2.0895445367
    7:   0.707107  0.707107  0.000000 /   0.779108  0.626889  0.000000 ->  -1.6526483768

--- !WARNING
src_file: m_efmas.F90
src_line: 0
message: |

    Band(s)    49,
    are not band extrema, but saddle points;
    the transport equivalent formalism breaks down in these conditions.
    The associated tensor(s) will therefore not be printed.
...

 K-point ( 0.375, 0.375, 0.070) | band =    49
 Effective mass tensor:
     *** SADDLE POINT: TRANSPORT EQV. EFF. MASS NOT DEFINED (see WARNING above) ***
 Angular average effective mass 1/(<1/m>)=   3.0127374264
 Angular average effective mass for Frohlich model (<m**0.5>)**2=   6.8549033668
 Effective masses along directions: (cart. coord. / red. coord. -> eff. mass)
    1:   1.000000  0.000000  0.000000 /   0.984322 -0.176381  0.000000 ->   3.0169388455
    2:   0.000000  1.000000  0.000000 /   0.000000  1.000000  0.000000 ->   3.3158153633
    3:   0.000000  0.000000  1.000000 /  -0.496055 -0.496055  0.712642 ->   2.7569065516
    4:   0.577350  0.577350  0.577350 /   0.021729 -0.117538  0.992831 ->   1.3768108391
    5:   0.000000  0.707107  0.707107 /  -0.571280  0.008425  0.820712 ->   2.1218810409
    6:   0.707107  0.000000  0.707107 /   0.016882 -0.636169  0.771365 ->   1.3653778852
    7:   0.707107  0.707107  0.000000 /   0.779108  0.626889  0.000000 ->   2.6063221624

 END OF EFFECTIVE MASSES SECTION

 ---- first-order wavefunction calculations are completed ----

 Total localisation tensor (bohr^2) in cartesian coordinates
  WARNING : still subject to testing - especially symmetries.
      direction              matrix element
   alpha     beta       real part   imaginary part
     1        1       0.8236850075    0.0000000000
     1        2      -0.1398010695    0.0000000000
     1        3      -0.6361199626    0.0000000000
     2        1      -0.1398010695    0.0000000000
     2        2       0.7675543634    0.0000000000
     2        3      -0.7563993800    0.0000000000
     3        1      -0.6361199626    0.0000000000
     3        2      -0.7563993800    0.0000000000
     3        3       4.0365101096    0.0000000000

 respfn : d/dk was computed, but no 2DTE, so no DDB output.

== END DATASET(S) ==============================================================

 -outvars: echo values of variables after computation  --------
            acell      1.0000000000E+00  1.0000000000E+00  1.0000000000E+00 Bohr
              amu      1.38905500E+02  9.29063800E+01  1.59994000E+01
             ecut      5.20000000E+01 Hartree
           etotal     -7.6180778670E+01
            fcart      0.0000000000E+00  0.0000000000E+00  0.0000000000E+00
                       0.0000000000E+00  0.0000000000E+00  0.0000000000E+00
                       0.0000000000E+00  0.0000000000E+00  0.0000000000E+00
                       0.0000000000E+00  0.0000000000E+00  0.0000000000E+00
                       0.0000000000E+00  0.0000000000E+00  0.0000000000E+00
                       0.0000000000E+00  0.0000000000E+00  0.0000000000E+00
                       0.0000000000E+00  0.0000000000E+00  0.0000000000E+00
                       0.0000000000E+00  0.0000000000E+00  0.0000000000E+00
                       0.0000000000E+00  0.0000000000E+00  0.0000000000E+00
                       0.0000000000E+00  0.0000000000E+00  0.0000000000E+00
                       0.0000000000E+00  0.0000000000E+00  0.0000000000E+00
                       0.0000000000E+00  0.0000000000E+00  0.0000000000E+00
-          fftalg         512
           irdden           1
           irdwfk           1
              ixc     -116133
              kpt      3.18536068E-01  6.81463933E-01 -3.18536068E-01
                       3.75000000E-01  3.75000000E-01  7.04226965E-02
           kptopt           0
P           mkmem           2
P          mkqmem           2
P          mk1mem           2
            natom          12
            nband          57
           nbdbuf           4
            ngfft          90      90      90
             nkpt           2
            nstep        2000
             nsym           8
           ntypat           3
              occ      2.000000  2.000000  2.000000  2.000000  2.000000  2.000000
                       2.000000  2.000000  2.000000  2.000000  2.000000  2.000000
                       2.000000  2.000000  2.000000  2.000000  2.000000  2.000000
                       2.000000  2.000000  2.000000  2.000000  2.000000  2.000000
                       2.000000  2.000000  2.000000  2.000000  2.000000  2.000000
                       2.000000  2.000000  2.000000  2.000000  2.000000  2.000000
                       2.000000  2.000000  2.000000  2.000000  2.000000  2.000000
                       2.000000  2.000000  2.000000  2.000000  2.000000  2.000000
                       0.000000  0.000000  0.000000  0.000000  0.000000  0.000000
                       0.000000  0.000000  0.000000
        optdriver           1
            prtwf          -1
            rfdir           1       1       1
           rfelfd           2
            rprim      9.3384821470E+00  0.0000000000E+00 -9.0538125755E+00
                      -1.6733655715E+00  9.1873334801E+00 -9.0538125755E+00
                       0.0000000000E+00  0.0000000000E+00  1.3006873989E+01
          spgroup          88
           strten      0.0000000000E+00  0.0000000000E+00  0.0000000000E+00
                       0.0000000000E+00  0.0000000000E+00  0.0000000000E+00
           symrel      1  0  0   0  1  0   0  0  1      -1  0  0   0 -1  0   0  0 -1
                       0  1  0   1  0  0  -1 -1 -1       0 -1  0  -1  0  0   1  1  1
                       0  0  1  -1 -1 -1   0  1  0       0  0 -1   1  1  1   0 -1  0
                      -1 -1 -1   0  0  1   1  0  0       1  1  1   0  0 -1  -1  0  0
            tnons      0.0000000  0.0000000  0.0000000    -0.2500000  0.2500000  0.5000000
                       0.0000000  0.0000000  0.0000000    -0.2500000  0.2500000  0.5000000
                       0.0000000  0.0000000  0.0000000    -0.2500000  0.2500000  0.5000000
                       0.0000000  0.0000000  0.0000000    -0.2500000  0.2500000  0.5000000
           tolwfr      1.00000000E-20
            typat      1  1  2  2  3  3  3  3  3  3  3  3
           useylm           1
              wtk        0.50000    0.50000
           xangst      2.0281024965E+00  2.4308637427E+00 -4.7910712658E+00
                       5.7129778720E-01  3.6462956140E+00 -1.3496006308E+00
                       1.7759451199E-16 -3.3735011211E-17  1.0301056859E-17
                       3.4849072057E+00  1.2154318713E+00 -1.3496006308E+00
                       2.6468483453E+00  3.6390613635E+00 -2.7162432657E+00
                       2.1040482012E+00  1.9735246844E+00 -3.4959426567E-01
                       3.2731430999E+00  4.4715240220E+00 -5.4702281453E+00
                       7.0224045935E-01  3.7512360018E-01  1.6874921205E+00
                       2.7826667464E+00  8.4030827117E-01 -3.0370927513E+00
                       4.2679690988E+00  1.6056353348E+00 -5.4615150171E+00
                       4.9535208250E-01  4.1036346723E+00  1.0918636390E+00
                      -4.7448061611E-02  2.4380979932E+00  3.4585126390E+00
            xcart      3.8325582878E+00  4.5936667400E+00 -9.0538125755E+00
                       1.0795963581E+00  6.8905001101E+00 -2.5503755810E+00
                       3.3560499037E-16 -6.3749932278E-17  1.9466176342E-17
                       6.5855202174E+00  2.2968333700E+00 -2.5503755810E+00
                       5.0018184879E+00  6.8768293579E+00 -5.1329558824E+00
                       3.9760748706E+00  3.7294211701E+00 -6.6063741975E-01
                       6.1853440526E+00  8.4499557982E+00 -1.0337233079E+01
                       1.3270421476E+00  7.0888087032E-01  3.1888979591E+00
                       5.2584780698E+00  1.5879524997E+00 -5.7392735402E+00
                       8.0652927403E+00  3.0342110520E+00 -1.0320767653E+01
                       9.3607977527E-01  7.7547456800E+00  2.0633232521E+00
                      -8.9663841982E-02  4.6073374923E+00  6.5356417148E+00
             xred      5.0000000000E-01  5.0000000000E-01  2.0816681712E-17
                       2.5000000000E-01  7.5000000000E-01  5.0000000000E-01
                       3.4694469520E-17 -6.9388939039E-18  2.0816681712E-17
                       7.5000000000E-01  2.5000000000E-01  5.0000000000E-01
                       6.6973975000E-01  7.4851200000E-01  5.9258125000E-01
                       4.9851200000E-01  4.0593075000E-01  5.7877225000E-01
                       8.2715850000E-01  9.1973975000E-01  4.2122775000E-01
                       1.5593075000E-01  7.7158500000E-02  4.0741875000E-01
                       5.9406925000E-01  1.7284150000E-01  9.2581250000E-02
                       9.2284150000E-01  3.3026025000E-01  7.8772250000E-02
                       2.5148800000E-01  8.4406925000E-01  9.2122775000E-01
                       8.0260250000E-02  5.0148800000E-01  9.0741875000E-01
            znucl       57.00000   41.00000    8.00000

- Timing analysis has been suppressed with timopt=0

 Suggested references for the acknowledgment of ABINIT usage.

 Calculation completed.
.Delivered  15 WARNINGs and   9 COMMENTs to log file.