.Version 9.5.2 of ABINIT

 ABINIT is a project of the Universite Catholique de Louvain,
 Corning Inc. and other collaborators, see ~abinit/doc/developers/contributors.txt .
 acknowledgments of the ABINIT effort.

.Starting date : Mon 24 May 2021.
- ( at 18h26 )

- input  file    -> /scratch/users/j/a/jabreu/flow_simple_10atoms/flow/w410/t1/run.abi
- output file    -> /scratch/users/j/a/jabreu/flow_simple_10atoms/flow/w410/t1/run.abo
- root for input  files -> /scratch/users/j/a/jabreu/flow_simple_10atoms/flow/w410/t1/indata/in
- root for output files -> /scratch/users/j/a/jabreu/flow_simple_10atoms/flow/w410/t1/outdata/out

 Symmetries : space group Fm -3 m (#225); Bravais cF (face-center cubic)
     intxc =       0      iscf =       7    lmnmax =      18     lnmax =       6
     mgfft =      75  mpssoang =       3    mqgrid =    3020     natom =      10
  nloc_mem =       1    nspden =       1   nspinor =       1    nsppol =       1
      nsym =      48    n1xccc =    2501    ntypat =       4    occopt =       1
   xclevel =       2
-    mband =          51        mffmem =           1         mkmem =           2
-   mkqmem =           2        mk1mem =           2           mpw =       18746
      nfft =      421875          nkpt =           2
  Rough estimation (10% accuracy) of disk space for files :

------------- Echo of variables that govern the present computation ------------
-
- outvars: echo of selected default values
-   iomode0 =  0 , fftalg0 =512 , wfoptalg0 =  0
-
- outvars: echo of global parameters not present in the input file
-  max_nthreads =    0
-
 -outvars: echo values of preprocessed input variables --------
            acell      1.0000000000E+00  1.0000000000E+00  1.0000000000E+00 Bohr
              amu      3.90983000E+01  8.54678000E+01  2.08980370E+02
                       1.89984032E+01
             ecut      4.20000000E+01 Hartree
-          fftalg         512
           irdden           1
           irdwfk           1
           istwfk        1    0
              ixc     -116133
              kpt      5.00000000E-01  5.00000000E-01  5.00000000E-01
                       2.00000000E-01  0.00000000E+00  2.00000000E-01
           kptopt           0
P           mkmem           2
P          mkqmem           2
P          mk1mem           2
            natom          10
            nband          51
           nbdbuf           4
            ngfft          75      75      75
             nkpt           2
            nstep        2000
             nsym          48
           ntypat           4
              occ      2.000000  2.000000  2.000000  2.000000  2.000000  2.000000
                       2.000000  2.000000  2.000000  2.000000  2.000000  2.000000
                       2.000000  2.000000  2.000000  2.000000  2.000000  2.000000
                       2.000000  2.000000  2.000000  2.000000  2.000000  2.000000
                       2.000000  2.000000  2.000000  2.000000  2.000000  2.000000
                       2.000000  2.000000  2.000000  2.000000  2.000000  2.000000
                       2.000000  2.000000  2.000000  2.000000  2.000000  2.000000
                       0.000000  0.000000  0.000000  0.000000  0.000000  0.000000
                       0.000000  0.000000  0.000000
        optdriver           1
            prtwf          -1
            rfdir           1       1       1
           rfelfd           2
            rprim      1.0977859016E+01  0.0000000000E+00  6.3380698581E+00
                       3.6592863387E+00  1.0350024738E+01  6.3380698581E+00
                       0.0000000000E+00  0.0000000000E+00  1.2676139716E+01
          spgroup         225
           symrel      1  0  0   0  1  0   0  0  1      -1  0  0   0 -1  0   0  0 -1
                       0 -1  1   0 -1  0   1 -1  0       0  1 -1   0  1  0  -1  1  0
                      -1  0  0  -1  0  1  -1  1  0       1  0  0   1  0 -1   1 -1  0
                       0  1 -1   1  0 -1   0  0 -1       0 -1  1  -1  0  1   0  0  1
                      -1  0  0  -1  1  0  -1  0  1       1  0  0   1 -1  0   1  0 -1
                       0 -1  1   1 -1  0   0 -1  0       0  1 -1  -1  1  0   0  1  0
                       1  0  0   0  0  1   0  1  0      -1  0  0   0  0 -1   0 -1  0
                       0  1 -1   0  0 -1   1  0 -1       0 -1  1   0  0  1  -1  0  1
                      -1  0  1  -1  1  0  -1  0  0       1  0 -1   1 -1  0   1  0  0
                       0 -1  0   1 -1  0   0 -1  1       0  1  0  -1  1  0   0  1 -1
                       1  0 -1   0  0 -1   0  1 -1      -1  0  1   0  0  1   0 -1  1
                       0  1  0   0  0  1   1  0  0       0 -1  0   0  0 -1  -1  0  0
                       1  0 -1   0  1 -1   0  0 -1      -1  0  1   0 -1  1   0  0  1
                       0 -1  0   0 -1  1   1 -1  0       0  1  0   0  1 -1  -1  1  0
                      -1  0  1  -1  0  0  -1  1  0       1  0 -1   1  0  0   1 -1  0
                       0  1  0   1  0  0   0  0  1       0 -1  0  -1  0  0   0  0 -1
                       0  0 -1   0  1 -1   1  0 -1       0  0  1   0 -1  1  -1  0  1
                       1 -1  0   0 -1  1   0 -1  0      -1  1  0   0  1 -1   0  1  0
                       0  0  1   1  0  0   0  1  0       0  0 -1  -1  0  0   0 -1  0
                      -1  1  0  -1  0  0  -1  0  1       1 -1  0   1  0  0   1  0 -1
                       0  0  1   0  1  0   1  0  0       0  0 -1   0 -1  0  -1  0  0
                       1 -1  0   0 -1  0   0 -1  1      -1  1  0   0  1  0   0  1 -1
                       0  0 -1   1  0 -1   0  1 -1       0  0  1  -1  0  1   0 -1  1
                      -1  1  0  -1  0  1  -1  0  0       1 -1  0   1  0 -1   1  0  0
           tolwfr      1.00000000E-20
            typat      1  2  2  3  4  4  4  4  4  4
           useylm           1
              wtk        0.50000    0.50000
           xangst      3.8728218603E+00  2.7384985997E+00  6.7079242307E+00
                       5.8092327904E+00  4.1077478996E+00  1.0061886346E+01
                       1.9364109301E+00  1.3692492999E+00  3.3539621153E+00
                       0.0000000000E+00  0.0000000000E+00  0.0000000000E+00
                       2.8537933539E+00  4.1796225339E+00  4.9429150833E+00
                       5.9108788730E+00  4.1796225339E+00  6.7079242307E+00
                       1.8347648476E+00  1.2973746656E+00  6.7079242307E+00
                       4.8918503666E+00  1.2973746656E+00  8.4729333780E+00
                       2.8537933539E+00  4.1796225339E+00  8.4729333780E+00
                       4.8918503666E+00  1.2973746656E+00  4.9429150833E+00
            xcart      7.3185726774E+00  5.1750123688E+00  1.2676139716E+01
                       1.0977859016E+01  7.7625185532E+00  1.9014209574E+01
                       3.6592863387E+00  2.5875061844E+00  6.3380698581E+00
                       0.0000000000E+00  0.0000000000E+00  0.0000000000E+00
                       5.3928878788E+00  7.8983419278E+00  9.3407558056E+00
                       1.1169942275E+01  7.8983419278E+00  1.2676139716E+01
                       3.4672030802E+00  2.4516828098E+00  1.2676139716E+01
                       9.2442574760E+00  2.4516828098E+00  1.6011523627E+01
                       5.3928878788E+00  7.8983419278E+00  1.6011523627E+01
                       9.2442574760E+00  2.4516828098E+00  9.3407558056E+00
             xred      5.0000000000E-01  5.0000000000E-01  5.0000000000E-01
                       7.5000000000E-01  7.5000000000E-01  7.5000000000E-01
                       2.5000000000E-01  2.5000000000E-01  2.5000000000E-01
                       0.0000000000E+00  0.0000000000E+00  0.0000000000E+00
                       2.3687700000E-01  7.6312300000E-01  2.3687700000E-01
                       7.6312300000E-01  7.6312300000E-01  2.3687700000E-01
                       2.3687700000E-01  2.3687700000E-01  7.6312300000E-01
                       7.6312300000E-01  2.3687700000E-01  7.6312300000E-01
                       2.3687700000E-01  7.6312300000E-01  7.6312300000E-01
                       7.6312300000E-01  2.3687700000E-01  2.3687700000E-01
            znucl       19.00000   37.00000   83.00000    9.00000

 chkinp: Checking input parameters for consistency.

== DATASET  1 ==================================================================
-   mpi_nproc: 1, omp_nthreads: -1 (-1 if OMP is not activated)

--- !DatasetInfo
iteration_state: {dtset: 1, }
dimensions: {natom: 10, nkpt: 2, mband: 51, nsppol: 1, nspinor: 1, nspden: 1, mpw: 18746, }
cutoff_energies: {ecut:  42.0, pawecutdg:  -1.0, }
electrons: {nelect:   8.40000000E+01, charge:   0.00000000E+00, occopt:   1.00000000E+00, tsmear:   1.00000000E-02, }
meta: {optdriver: 1, rfelfd: 2, }
...

 Real(R)+Recip(G) space primitive vectors, cartesian coordinates (Bohr,Bohr^-1):
 R(1)= 10.9778590  0.0000000  6.3380699  G(1)=  0.0910924 -0.0322060  0.0000000
 R(2)=  3.6592863 10.3500247  6.3380699  G(2)=  0.0000000  0.0966181  0.0000000
 R(3)=  0.0000000  0.0000000 12.6761397  G(3)= -0.0455462 -0.0322060  0.0788884
 Unit cell volume ucvol=  1.4402771E+03 bohr^3
 Angles (23,13,12)=  6.00000000E+01  6.00000000E+01  6.00000000E+01 degrees

 getcut: wavevector=  0.0000  0.0000  0.0000  ngfft=  75  75  75
         ecut(hartree)=     42.000   => boxcut(ratio)=   2.00140

--- Pseudopotential description ------------------------------------------------
- pspini: atom type   1  psp file is /scratch/users/j/a/jabreu/pseudos/PBEsol/K.psp8
- pspatm: opening atomic psp file    /scratch/users/j/a/jabreu/pseudos/PBEsol/K.psp8
- K     ONCVPSP-3.3.0  r_core=   1.36296   1.46408   1.61068
- 19.00000   9.00000    180112                znucl, zion, pspdat
    8 -116133    2    4       400   0.00000   pspcod,pspxc,lmax,lloc,mmax,r2well
    3.99000000000000    5.00000000000000    0.00000000000000   rchrg,fchrg,qchrg
     nproj     2     2     2
     extension_switch     1
  pspatm : epsatm=    8.32487830
         --- l  ekb(1:nproj) -->
             0   10.921326    0.816676
             1    4.431000    0.560368
             2   -3.384038   -1.043186
 pspatm: atomic psp has been read  and splines computed

- pspini: atom type   2  psp file is /scratch/users/j/a/jabreu/pseudos/PBEsol/Rb.psp8
- pspatm: opening atomic psp file    /scratch/users/j/a/jabreu/pseudos/PBEsol/Rb.psp8
- Rb    ONCVPSP-3.3.0  r_core=   1.71227   1.75361   1.90633
- 37.00000   9.00000    180112                znucl, zion, pspdat
    8 -116133    2    4       600   0.00000   pspcod,pspxc,lmax,lloc,mmax,r2well
    5.99000000000000    7.00000000000000    0.00000000000000   rchrg,fchrg,qchrg
     nproj     2     2     2
     extension_switch     1
  pspatm : epsatm=   34.48400912
         --- l  ekb(1:nproj) -->
             0    8.196957   -0.477221
             1    3.231347   -0.378736
             2   -1.047201    0.996637
 pspatm: atomic psp has been read  and splines computed

[...]

- pspini: atom type   4  psp file is /scratch/users/j/a/jabreu/pseudos/PBEsol/F.psp8
- pspatm: opening atomic psp file    /scratch/users/j/a/jabreu/pseudos/PBEsol/F.psp8
- F     ONCVPSP-3.3.0  r_core=   1.30942   1.45782   1.60379
[...]
   erelax=  -3.91132326E+01
  No Ewald or frozen-wf contrib.: the relaxation energy is the total one
 2DEtotal=   -0.3911323262E+02 Ha. Also 2DEtotal=   -0.106432518674E+04 eV
    (  non-var. 2DEtotal :   -3.9113232616E+01 Ha)

 Perturbation wavevector (in red.coord.)   0.000000  0.000000  0.000000
 Perturbation : derivative vs k along direction   2
 The set of symmetries contains only one element for this perturbation.
 symkpt : not enough symmetry to change the number of k points.

[...]

 Perturbation wavevector (in red.coord.)   0.000000  0.000000  0.000000
 Perturbation : derivative vs k along direction   3
 The set of symmetries contains only one element for this perturbation.
 symkpt : not enough symmetry to change the number of k points.

 Initialisation of the first-order wave-functions :
  ireadwf=   0

--- !BeginCycle
iteration_state: {dtset: 1, }
solver: {iscf: 7, nstep: 2000, nline: 4, wfoptalg: 0, }
tolerances: {tolwfr: 1.00E-20, }
...

     iter   2DEtotal(Ha)        deltaE(Ha) residm    vres2
-ETOT  1  -39.037920804971     -3.904E+01 6.640E-02 0.000E+00
 ETOT  2  -39.112513699475     -7.459E-02 1.423E-02 0.000E+00
 ETOT  3  -39.113314472694     -8.008E-04 2.120E-03 0.000E+00
 ETOT  4  -39.113329069592     -1.460E-05 8.964E-04 0.000E+00
 ETOT  5  -39.113329416360     -3.468E-07 1.242E-04 0.000E+00
 ETOT  6  -39.113329425739     -9.379E-09 6.614E-05 0.000E+00
 ETOT  7  -39.113329426015     -2.758E-10 1.049E-05 0.000E+00
 ETOT  8  -39.113329426023     -8.583E-12 5.929E-06 0.000E+00
 ETOT  9  -39.113329426024     -2.700E-13 9.465E-07 0.000E+00
 ETOT 10  -39.113329426024     -2.842E-14 5.411E-07 0.000E+00
 ETOT 11  -39.113329426024      7.105E-15 8.661E-08 0.000E+00
 ETOT 12  -39.113329426024     -3.553E-14 4.971E-08 0.000E+00
 ETOT 13  -39.113329426024      1.421E-14 7.981E-09 0.000E+00
 ETOT 14  -39.113329426024      7.105E-15 4.586E-09 0.000E+00
 ETOT 15  -39.113329426024     -7.105E-15 7.386E-10 0.000E+00
 ETOT 16  -39.113329426024      0.000E+00 4.241E-10 0.000E+00
 ETOT 17  -39.113329426024     -1.421E-14 6.854E-11 0.000E+00
 ETOT 18  -39.113329426024      0.000E+00 3.930E-11 0.000E+00
 ETOT 19  -39.113329426024      1.421E-14 6.374E-12 0.000E+00
 ETOT 20  -39.113329426024     -1.421E-14 3.645E-12 0.000E+00
 ETOT 21  -39.113329426024      0.000E+00 5.934E-13 0.000E+00
 ETOT 22  -39.113329426024      1.421E-14 3.384E-13 0.000E+00
 ETOT 23  -39.113329426024      0.000E+00 5.530E-14 0.000E+00
 ETOT 24  -39.113329426024      0.000E+00 3.143E-14 0.000E+00
 ETOT 25  -39.113329426024      1.421E-14 5.156E-15 0.000E+00
 ETOT 26  -39.113329426024     -2.842E-14 2.921E-15 0.000E+00
 ETOT 27  -39.113329426024      1.421E-14 4.810E-16 0.000E+00
 ETOT 28  -39.113329426024      7.105E-15 2.716E-16 0.000E+00
 ETOT 29  -39.113329426024      0.000E+00 4.489E-17 0.000E+00
 ETOT 30  -39.113329426024      0.000E+00 2.526E-17 0.000E+00
 ETOT 31  -39.113329426024     -7.105E-15 4.190E-18 0.000E+00
 ETOT 32  -39.113329426024      0.000E+00 2.350E-18 0.000E+00
 ETOT 33  -39.113329426024      0.000E+00 3.912E-19 0.000E+00
 ETOT 34  -39.113329426024      0.000E+00 2.187E-19 0.000E+00
 ETOT 35  -39.113329426024      0.000E+00 3.653E-20 0.000E+00
 ETOT 36  -39.113329426024      0.000E+00 2.036E-20 0.000E+00
 ETOT 37  -39.113329426024      0.000E+00 9.973E-21 0.000E+00

 At SCF step   37   max residual=  9.97E-21 < tolwfr=  1.00E-20 =>converged.

 ----iterations are completed or convergence reached----

 dfpt_looppert: DFPT cycle converged with prtwf=-1. Will skip output of the 1st-order WFK file.
 dfpt_looppert : ek2=    6.1913626489E+01
          f-sum rule ratio=    1.0142170005E+00
 prteigrs : about to open file /scratch/users/j/a/jabreu/flow_simple_10atoms/flow/w410/t1/tmpdata/tmp_1WF1_EIG
 Expectation of eigenvalue derivatives (hartree) for nkpt=   2  k points:
  (in case of degenerate eigenvalues, averaged derivative)
 kpt#   1, nband= 51, wtk=  0.50000, kpt=  0.5000  0.5000  0.5000 (reduced coord)
   0.00000   -0.00000    0.00000    0.00000    0.00000    0.00000   -0.00000   -0.00000
   0.00000    0.00000    0.00000    0.00000    0.00000    0.00000    0.00000   -0.00000
  -0.00000    0.00000    0.00000    0.00000   -0.00000   -0.00000   -0.00000    0.00000
  -0.00000   -0.00000   -0.00000   -0.00000    0.00000    0.00000    0.00000    0.00000
   0.00000   -0.00000   -0.00000   -0.00000   -0.00000   -0.00000   -0.00000   -0.00000
   0.00000    0.00000    0.00000   -0.00000   -0.00000    0.00000   -0.00000   -0.00000
  -0.00000   -0.00000   -0.00000
 prteigrs : prtvol=0 or 1, do not print more k-points.

 Eight components of 2nd-order total energy (hartree) are
 1,2,3: 0th-order hamiltonian combined with 1st-order wavefunctions
     kin0=   5.05180246E+01 eigvalue=   6.45805783E+00  local=  -2.51477542E+01
 4,5,6: 1st-order hamiltonian combined with 1st and 0th-order wfs
     kin1=  -6.27938525E+01  Hartree=   0.00000000E+00     xc=   0.00000000E+00
 7,8,9: eventually, occupation + non-local contributions
    edocc=   5.35796822E+00     enl0=   1.92703296E+00   enl1=  -1.54328063E+01
 1-9 gives the relaxation energy (to be shifted if some occ is /=2.0)
   erelax=  -3.91133294E+01
  No Ewald or frozen-wf contrib.: the relaxation energy is the total one
 2DEtotal=   -0.3911332943E+02 Ha. Also 2DEtotal=   -0.106432782105E+04 eV
    (  non-var. 2DEtotal :   -3.9113329426E+01 Ha)

 CALCULATION OF EFFECTIVE MASSES
 NOTE : Additional infos (eff. mass eigenvalues, eigenvectors and, if degenerate, average mass) are available in stdout.

 K-point ( 0.500, 0.500, 0.500) | band =    42
 Effective mass tensor:
             -2.2104602450              0.1989063483              0.4872188924
              0.1989063483             -2.3511082246              0.3445158143
              0.4872188924              0.3445158143             -1.6478683538
 Effective mass tensor eigenvalues:
             -2.4917562685             -2.4917561865             -1.2259243684
 Angular average effective mass 1/(<1/m>)=  -1.8537310534
 Angular average effective mass for Frohlich model (<m**0.5>)**2=  -1.9233031468
 Effective masses along directions: (cart. coord. / red. coord. -> eff. mass)
    1:   1.000000  0.000000  0.000000 /   0.948683  0.316228  0.000000 ->  -2.0267140630
    2:   0.000000  1.000000  0.000000 /   0.000000  1.000000  0.000000 ->  -2.2353039811
    3:   0.000000  0.000000  1.000000 /   0.408248  0.408248  0.816497 ->  -1.4758366134
    4:   0.577350  0.577350  0.577350 /   0.585539  0.688047  0.428644 ->  -1.3082457931
    5:   0.000000  0.707107  0.707107 /   0.289489  0.762222  0.578977 ->  -1.4809194951
    6:   0.707107  0.000000  0.707107 /   0.731423  0.422287  0.535439 ->  -1.3422935541
    7:   0.707107  0.707107  0.000000 /   0.616798  0.787122  0.000000 ->  -1.8674041110

 K-point ( 0.200, 0.000, 0.200) | band =    43
 Effective mass tensor:
              4.1037837713              0.8521703989             -1.0431435938
              0.8521703989              3.5012308599              1.4749198689
             -1.0431435938              1.4749198689              2.8982617810
 Effective mass tensor eigenvalues:
              1.0919285471              4.7049710930              4.7063767721
 Angular average effective mass 1/(<1/m>)=   2.2374206506
 Angular average effective mass for Frohlich model (<m**0.5>)**2=   2.6288370903
 Effective masses along directions: (cart. coord. / red. coord. -> eff. mass)
    1:   1.000000  0.000000  0.000000 /   0.948683  0.316228  0.000000 ->   3.0329510986
    2:   0.000000  1.000000  0.000000 /   0.000000  1.000000  0.000000 ->   2.2376147862
    3:   0.000000  0.000000  1.000000 /   0.408248  0.408248  0.816497 ->   1.7723791940
    4:   0.577350  0.577350  0.577350 /   0.585539  0.688047  0.428644 ->   3.5665506641
    5:   0.000000  0.707107  0.707107 /   0.289489  0.762222  0.578977 ->   4.5774376350
    6:   0.707107  0.000000  0.707107 /   0.731423  0.422287  0.535439 ->   1.5384680137
    7:   0.707107  0.707107  0.000000 /   0.616798  0.787122  0.000000 ->   4.4937929920

 END OF EFFECTIVE MASSES SECTION

 ---- first-order wavefunction calculations are completed ----

 Total localisation tensor (bohr^2) in cartesian coordinates
  WARNING : still subject to testing - especially symmetries.
      direction              matrix element
   alpha     beta       real part   imaginary part
     1        1       0.7631646678    0.0000000000
     1        2       0.2158568294    0.0000000000
     1        3       0.5287365080    0.0000000000
     2        1       0.2158568294    0.0000000000
     2        2       0.6105353113    0.0000000000
     2        3       0.3738749956    0.0000000000
     3        1       0.5287365080    0.0000000000
     3        2       0.3738749956    0.0000000000
     3        3       1.3737081334    0.0000000000

 respfn : d/dk was computed, but no 2DTE, so no DDB output.

== END DATASET(S) ==============================================================

 -outvars: echo values of variables after computation  --------
            acell      1.0000000000E+00  1.0000000000E+00  1.0000000000E+00 Bohr
              amu      3.90983000E+01  8.54678000E+01  2.08980370E+02
                       1.89984032E+01
             ecut      4.20000000E+01 Hartree
           etotal     -3.9113329426E+01
            fcart      0.0000000000E+00  0.0000000000E+00  0.0000000000E+00
                       0.0000000000E+00  0.0000000000E+00  0.0000000000E+00
                       0.0000000000E+00  0.0000000000E+00  0.0000000000E+00
                       0.0000000000E+00  0.0000000000E+00  0.0000000000E+00
                       0.0000000000E+00  0.0000000000E+00  0.0000000000E+00
                       0.0000000000E+00  0.0000000000E+00  0.0000000000E+00
                       0.0000000000E+00  0.0000000000E+00  0.0000000000E+00
                       0.0000000000E+00  0.0000000000E+00  0.0000000000E+00
                       0.0000000000E+00  0.0000000000E+00  0.0000000000E+00
                       0.0000000000E+00  0.0000000000E+00  0.0000000000E+00
-          fftalg         512
           irdden           1
           irdwfk           1
           istwfk        1    0
              ixc     -116133
              kpt      5.00000000E-01  5.00000000E-01  5.00000000E-01
                       2.00000000E-01  0.00000000E+00  2.00000000E-01
           kptopt           0
P           mkmem           2
P          mkqmem           2
P          mk1mem           2
            natom          10
            nband          51
           nbdbuf           4
            ngfft          75      75      75
             nkpt           2
            nstep        2000
             nsym          48
           ntypat           4
              occ      2.000000  2.000000  2.000000  2.000000  2.000000  2.000000
                       2.000000  2.000000  2.000000  2.000000  2.000000  2.000000
                       2.000000  2.000000  2.000000  2.000000  2.000000  2.000000
                       2.000000  2.000000  2.000000  2.000000  2.000000  2.000000
                       2.000000  2.000000  2.000000  2.000000  2.000000  2.000000
                       2.000000  2.000000  2.000000  2.000000  2.000000  2.000000
                       2.000000  2.000000  2.000000  2.000000  2.000000  2.000000
                       0.000000  0.000000  0.000000  0.000000  0.000000  0.000000
                       0.000000  0.000000  0.000000
        optdriver           1
            prtwf          -1
            rfdir           1       1       1
           rfelfd           2
            rprim      1.0977859016E+01  0.0000000000E+00  6.3380698581E+00
                       3.6592863387E+00  1.0350024738E+01  6.3380698581E+00
                       0.0000000000E+00  0.0000000000E+00  1.2676139716E+01
          spgroup         225
           strten      0.0000000000E+00  0.0000000000E+00  0.0000000000E+00
                       0.0000000000E+00  0.0000000000E+00  0.0000000000E+00
           symrel      1  0  0   0  1  0   0  0  1      -1  0  0   0 -1  0   0  0 -1
                       0 -1  1   0 -1  0   1 -1  0       0  1 -1   0  1  0  -1  1  0
                      -1  0  0  -1  0  1  -1  1  0       1  0  0   1  0 -1   1 -1  0
                       0  1 -1   1  0 -1   0  0 -1       0 -1  1  -1  0  1   0  0  1
                      -1  0  0  -1  1  0  -1  0  1       1  0  0   1 -1  0   1  0 -1
                       0 -1  1   1 -1  0   0 -1  0       0  1 -1  -1  1  0   0  1  0
                       1  0  0   0  0  1   0  1  0      -1  0  0   0  0 -1   0 -1  0
                       0  1 -1   0  0 -1   1  0 -1       0 -1  1   0  0  1  -1  0  1
                      -1  0  1  -1  1  0  -1  0  0       1  0 -1   1 -1  0   1  0  0
                       0 -1  0   1 -1  0   0 -1  1       0  1  0  -1  1  0   0  1 -1
                       1  0 -1   0  0 -1   0  1 -1      -1  0  1   0  0  1   0 -1  1
                       0  1  0   0  0  1   1  0  0       0 -1  0   0  0 -1  -1  0  0
                       1  0 -1   0  1 -1   0  0 -1      -1  0  1   0 -1  1   0  0  1
                       0 -1  0   0 -1  1   1 -1  0       0  1  0   0  1 -1  -1  1  0
                      -1  0  1  -1  0  0  -1  1  0       1  0 -1   1  0  0   1 -1  0
                       0  1  0   1  0  0   0  0  1       0 -1  0  -1  0  0   0  0 -1
                       0  0 -1   0  1 -1   1  0 -1       0  0  1   0 -1  1  -1  0  1
                       1 -1  0   0 -1  1   0 -1  0      -1  1  0   0  1 -1   0  1  0
                       0  0  1   1  0  0   0  1  0       0  0 -1  -1  0  0   0 -1  0
                      -1  1  0  -1  0  0  -1  0  1       1 -1  0   1  0  0   1  0 -1
                       0  0  1   0  1  0   1  0  0       0  0 -1   0 -1  0  -1  0  0
                       1 -1  0   0 -1  0   0 -1  1      -1  1  0   0  1  0   0  1 -1
                       0  0 -1   1  0 -1   0  1 -1       0  0  1  -1  0  1   0 -1  1
                      -1  1  0  -1  0  1  -1  0  0       1 -1  0   1  0 -1   1  0  0
           tolwfr      1.00000000E-20
            typat      1  2  2  3  4  4  4  4  4  4
           useylm           1
              wtk        0.50000    0.50000
           xangst      3.8728218603E+00  2.7384985997E+00  6.7079242307E+00
                       5.8092327904E+00  4.1077478996E+00  1.0061886346E+01
                       1.9364109301E+00  1.3692492999E+00  3.3539621153E+00
                       0.0000000000E+00  0.0000000000E+00  0.0000000000E+00
                       2.8537933539E+00  4.1796225339E+00  4.9429150833E+00
                       5.9108788730E+00  4.1796225339E+00  6.7079242307E+00
                       1.8347648476E+00  1.2973746656E+00  6.7079242307E+00
                       4.8918503666E+00  1.2973746656E+00  8.4729333780E+00
                       2.8537933539E+00  4.1796225339E+00  8.4729333780E+00
                       4.8918503666E+00  1.2973746656E+00  4.9429150833E+00
            xcart      7.3185726774E+00  5.1750123688E+00  1.2676139716E+01
                       1.0977859016E+01  7.7625185532E+00  1.9014209574E+01
                       3.6592863387E+00  2.5875061844E+00  6.3380698581E+00
                       0.0000000000E+00  0.0000000000E+00  0.0000000000E+00
                       5.3928878788E+00  7.8983419278E+00  9.3407558056E+00
                       1.1169942275E+01  7.8983419278E+00  1.2676139716E+01
                       3.4672030802E+00  2.4516828098E+00  1.2676139716E+01
                       9.2442574760E+00  2.4516828098E+00  1.6011523627E+01
                       5.3928878788E+00  7.8983419278E+00  1.6011523627E+01
                       9.2442574760E+00  2.4516828098E+00  9.3407558056E+00
             xred      5.0000000000E-01  5.0000000000E-01  5.0000000000E-01
                       7.5000000000E-01  7.5000000000E-01  7.5000000000E-01
                       2.5000000000E-01  2.5000000000E-01  2.5000000000E-01
                       0.0000000000E+00  0.0000000000E+00  0.0000000000E+00
                       2.3687700000E-01  7.6312300000E-01  2.3687700000E-01
                       7.6312300000E-01  7.6312300000E-01  2.3687700000E-01
                       2.3687700000E-01  2.3687700000E-01  7.6312300000E-01
                       7.6312300000E-01  2.3687700000E-01  7.6312300000E-01
                       2.3687700000E-01  7.6312300000E-01  7.6312300000E-01
                       7.6312300000E-01  2.3687700000E-01  2.3687700000E-01
            znucl       19.00000   37.00000   83.00000    9.00000

- Timing analysis has been suppressed with timopt=0

 Suggested references for the acknowledgment of ABINIT usage.

 Calculation completed.
.Delivered   2 WARNINGs and   5 COMMENTs to log file.