.Version 9.5.1 of ABINIT

 ABINIT is a project of the Universite Catholique de Louvain,
 Corning Inc. and other collaborators, see ~abinit/doc/developers/contributors.txt .
 acknowledgments of the ABINIT effort.

.Starting date : Tue  4 May 2021.
- ( at 19h32 )

- input  file    -> /scratch/users/j/a/jabreu/flow_simple_6atoms/flow/w198/t1/run.abi
- output file    -> /scratch/users/j/a/jabreu/flow_simple_6atoms/flow/w198/t1/run.abo
- root for input  files -> /scratch/users/j/a/jabreu/flow_simple_6atoms/flow/w198/t1/indata/in
- root for output files -> /scratch/users/j/a/jabreu/flow_simple_6atoms/flow/w198/t1/outdata/out

 Symmetries : space group R-3 m (#166); Bravais hR (rhombohedral)
     intxc =       0      iscf =       7    lmnmax =      18     lnmax =       6
     mgfft =     120  mpssoang =       3    mqgrid =    3001     natom =       6
  nloc_mem =       1    nspden =       1   nspinor =       1    nsppol =       1
      nsym =      12    n1xccc =    2501    ntypat =       4    occopt =       1
   xclevel =       2
-    mband =          38        mffmem =           1         mkmem =           2
-   mkqmem =           2        mk1mem =           2           mpw =       13085
      nfft =     1728000          nkpt =           2
  Rough estimation (10% accuracy) of disk space for files :

------------- Echo of variables that govern the present computation ------------
-
- outvars: echo of selected default values
-   iomode0 =  0 , fftalg0 =512 , wfoptalg0 =  0
-
- outvars: echo of global parameters not present in the input file
-  max_nthreads =    0
-
 -outvars: echo values of preprocessed input variables --------
            acell      1.0000000000E+00  1.0000000000E+00  1.0000000000E+00 Bohr
              amu      8.76200000E+01  6.35460000E+01  7.99040000E+01
                       1.59994000E+01
             ecut      4.60000000E+01 Hartree
-          fftalg         512
           irdden           1
           irdwfk           1
           istwfk        1    1
              ixc     -116133
              kpt      5.00000000E-01  0.00000000E+00 -2.77555756E-17
                       0.00000000E+00  0.00000000E+00  0.00000000E+00
           kptopt           0
P           mkmem           2
P          mkqmem           2
P          mk1mem           2
            natom           6
            nband          38
           nbdbuf           4
            ngfft         120     120     120
             nkpt           2
            nstep        1000
             nsym          12
           ntypat           4
              occ      2.000000  2.000000  2.000000  2.000000  2.000000  2.000000
                       2.000000  2.000000  2.000000  2.000000  2.000000  2.000000
                       2.000000  2.000000  2.000000  2.000000  2.000000  2.000000
                       2.000000  2.000000  2.000000  2.000000  2.000000  2.000000
                       2.000000  2.000000  2.000000  2.000000  2.000000  0.000000
                       0.000000  0.000000  0.000000  0.000000  0.000000  0.000000
                       0.000000  0.000000
        optdriver           1
            prtwf          -1
            rfdir           1       1       1
           rfelfd           2
            rprim      7.4043672563E+00  0.0000000000E+00  1.6640893643E+01
                       3.5351090769E+00  6.5059709714E+00  1.6640893643E+01
                       0.0000000000E+00  0.0000000000E+00  1.8213840773E+01
          spgroup         166
           symrel      1  0  0   0  1  0   0  0  1      -1  0  0   0 -1  0   0  0 -1
                       0  1  0   1  0  0   0  0  1       0 -1  0  -1  0  0   0  0 -1
                       0  0  1   1  0  0   0  1  0       0  0 -1  -1  0  0   0 -1  0
                       1  0  0   0  0  1   0  1  0      -1  0  0   0  0 -1   0 -1  0
                       0  1  0   0  0  1   1  0  0       0 -1  0   0  0 -1  -1  0  0
                       0  0  1   0  1  0   1  0  0       0  0 -1   0 -1  0  -1  0  0
           tolwfr      1.00000000E-20
            typat      1  1  2  3  4  4
           useylm           1
              wtk        0.50000    0.50000
           xangst      1.4634683123E+00  8.7035997587E-01  6.8890153048E+00
                       4.3254532371E+00  2.5724515819E+00  2.0361297406E+01
                       2.8944607747E+00  1.7214057789E+00  1.3625156355E+01
                       0.0000000000E+00  0.0000000000E+00  0.0000000000E+00
                       2.5255791157E+00  1.5020229408E+00  1.1888711929E+01
                       3.2633424337E+00  1.9407886170E+00  1.5361600782E+01
            xcart      2.7655543144E+00  1.6447419914E+00  1.3018352251E+01
                       8.1739220188E+00  4.8612289800E+00  3.8477275807E+01
                       5.4697381666E+00  3.2529854857E+00  2.5747814029E+01
                       0.0000000000E+00  0.0000000000E+00  0.0000000000E+00
                       4.7726528557E+00  2.8384120035E+00  2.2466409618E+01
                       6.1668234775E+00  3.6675589679E+00  2.9029218440E+01
             xred      2.5280500000E-01  2.5280500000E-01  2.5280500000E-01
                       7.4719500000E-01  7.4719500000E-01  7.4719500000E-01
                       5.0000000000E-01  5.0000000000E-01  5.0000000000E-01
                       0.0000000000E+00  0.0000000000E+00  0.0000000000E+00
                       4.3627800000E-01  4.3627800000E-01  4.3627800000E-01
                       5.6372200000E-01  5.6372200000E-01  5.6372200000E-01
            znucl       38.00000   29.00000   35.00000    8.00000

 chkinp: Checking input parameters for consistency.

== DATASET  1 ==================================================================
-   mpi_nproc: 1, omp_nthreads: -1 (-1 if OMP is not activated)

--- !DatasetInfo
iteration_state: {dtset: 1, }
dimensions: {natom: 6, nkpt: 2, mband: 38, nsppol: 1, nspinor: 1, nspden: 1, mpw: 13085, }
cutoff_energies: {ecut:  46.0, pawecutdg:  -1.0, }
electrons: {nelect:   5.80000000E+01, charge:   0.00000000E+00, occopt:   1.00000000E+00, tsmear:   1.00000000E-02, }
meta: {optdriver: 1, rfelfd: 2, }
...

 Real(R)+Recip(G) space primitive vectors, cartesian coordinates (Bohr,Bohr^-1):
 R(1)=  7.4043673  0.0000000 16.6408936  G(1)=  0.1350554 -0.0733842  0.0000000
 R(2)=  3.5351091  6.5059710 16.6408936  G(2)=  0.0000000  0.1537050  0.0000000
 R(3)=  0.0000000  0.0000000 18.2138408  G(3)= -0.1233920 -0.0733842  0.0549033
 Unit cell volume ucvol=  8.7740804E+02 bohr^3
 Angles (23,13,12)=  2.39866774E+01  2.39866774E+01  2.39866774E+01 degrees

 getcut: wavevector=  0.0000  0.0000  0.0000  ngfft= 120 120 120
         ecut(hartree)=     46.000   => boxcut(ratio)=   2.15800

--- Pseudopotential description ------------------------------------------------
- pspini: atom type   1  psp file is /scratch/users/j/a/jabreu/pseudos/PBEsol/Sr.psp8
- pspatm: opening atomic psp file    /scratch/users/j/a/jabreu/pseudos/PBEsol/Sr.psp8
- Sr    ONCVPSP-3.3.0  r_core=   1.66721   1.31335   1.51547
- 38.00000  10.00000    180112                znucl, zion, pspdat
    8 -116133    2    4       600   0.00000   pspcod,pspxc,lmax,lloc,mmax,r2well
    5.99000000000000    6.00000000000000    0.00000000000000   rchrg,fchrg,qchrg
     nproj     2     2     2
     extension_switch     1
  pspatm : epsatm=   12.46450977
         --- l  ekb(1:nproj) -->
             0   10.029206    1.044171
             1    7.472414    1.670829
             2    4.142950    0.968140
 pspatm: atomic psp has been read  and splines computed

- pspini: atom type   2  psp file is /scratch/users/j/a/jabreu/pseudos/PBEsol/Cu.psp8
- pspatm: opening atomic psp file    /scratch/users/j/a/jabreu/pseudos/PBEsol/Cu.psp8
- Cu    ONCVPSP-3.3.0  r_core=   1.26204   1.45626   1.76249
- 29.00000  19.00000    180112                znucl, zion, pspdat
    8 -116133    2    4       600   0.00000   pspcod,pspxc,lmax,lloc,mmax,r2well
    5.99000000000000    3.50000000000000    0.00000000000000   rchrg,fchrg,qchrg
     nproj     2     2     2
     extension_switch     1
  pspatm : epsatm=   21.63488701
         --- l  ekb(1:nproj) -->
             0    5.008230   -0.401634
             1   -3.496700   -0.765945
             2   -6.895851   -2.521180
 pspatm: atomic psp has been read  and splines computed

[...]

- pspini: atom type   4  psp file is /scratch/users/j/a/jabreu/pseudos/PBEsol/O.psp8
- pspatm: opening atomic psp file    /scratch/users/j/a/jabreu/pseudos/PBEsol/O.psp8
- O     ONCVPSP-3.3.0  r_core=   1.35509   1.45563   1.26150
-  8.00000   6.00000    180112                znucl, zion, pspdat
    8 -116133    2    4       600   0.00000   pspcod,pspxc,lmax,lloc,mmax,r2well
    5.99000000000000    4.00000000000000    0.00000000000000   rchrg,fchrg,qchrg
     nproj     2     2     1
     extension_switch     1
  pspatm : epsatm=    6.22910522
         --- l  ekb(1:nproj) -->
             0    6.050032    0.820363
             1   -4.739617   -1.153841
             2   -1.335834
 pspatm: atomic psp has been read  and splines computed

   4.05834397E+03                                ecore*ucvol(ha*bohr**3)

-inwffil : will read wavefunctions from disk file /scratch/users/j/a/jabreu/flow_simple_6atoms/flow/w198/t1/indata/in_WFK

 ==>  initialize data related to q vector <==

 The list of irreducible perturbations for this q vector is:
    1)    idir= 1    ipert=   7
    2)    idir= 2    ipert=   7
    3)    idir= 3    ipert=   7

 Perturbation wavevector (in red.coord.)   0.000000  0.000000  0.000000
 Perturbation : derivative vs k along direction   1

 dfpt_looppert : COMMENT -
  In a d/dk calculation, iscf is set to -3 automatically.
 The set of symmetries contains only one element for this perturbation.
 symkpt : not enough symmetry to change the number of k points.

[...]

 Initialisation of the first-order wave-functions :
  ireadwf=   0

--- !BeginCycle
iteration_state: {dtset: 1, }
solver: {iscf: 7, nstep: 1000, nline: 4, wfoptalg: 0, }
tolerances: {tolwfr: 1.00E-20, }
...

     iter   2DEtotal(Ha)        deltaE(Ha) residm    vres2
-ETOT  1  -59.822600283056     -5.982E+01 1.698E-01 0.000E+00
 ETOT  2  -59.958314162881     -1.357E-01 1.072E-02 0.000E+00
 ETOT  3  -59.961285609321     -2.971E-03 1.290E-03 0.000E+00
 ETOT  4  -59.961403602180     -1.180E-04 2.141E-04 0.000E+00
 ETOT  5  -59.961409194592     -5.592E-06 3.195E-05 0.000E+00
 ETOT  6  -59.961409491358     -2.968E-07 6.473E-06 0.000E+00
 ETOT  7  -59.961409509779     -1.842E-08 9.647E-07 0.000E+00
 ETOT  8  -59.961409511088     -1.309E-09 2.061E-07 0.000E+00
 ETOT  9  -59.961409511189     -1.013E-10 3.019E-08 0.000E+00
 ETOT 10  -59.961409511197     -8.242E-12 6.679E-09 0.000E+00
 ETOT 11  -59.961409511198     -6.466E-13 9.644E-10 0.000E+00
 ETOT 12  -59.961409511198     -1.066E-13 2.190E-10 0.000E+00
 ETOT 13  -59.961409511198     -2.842E-14 3.122E-11 0.000E+00
 ETOT 14  -59.961409511198      2.132E-14 7.234E-12 0.000E+00
 ETOT 15  -59.961409511198      4.974E-14 1.019E-12 0.000E+00
 ETOT 16  -59.961409511198     -3.553E-14 2.400E-13 0.000E+00
 ETOT 17  -59.961409511198     -1.421E-14 3.351E-14 0.000E+00
 ETOT 18  -59.961409511198      1.421E-14 7.989E-15 0.000E+00
 ETOT 19  -59.961409511198      0.000E+00 1.105E-15 0.000E+00
 ETOT 20  -59.961409511198     -2.842E-14 2.664E-16 0.000E+00
 ETOT 21  -59.961409511198      2.132E-14 3.661E-17 0.000E+00
 ETOT 22  -59.961409511198     -7.105E-15 8.893E-18 0.000E+00
 ETOT 23  -59.961409511198      7.105E-15 1.215E-18 0.000E+00
 ETOT 24  -59.961409511198     -7.105E-15 2.972E-19 0.000E+00
 ETOT 25  -59.961409511198     -7.105E-15 4.041E-20 0.000E+00
 ETOT 26  -59.961409511198      1.421E-14 9.986E-21 0.000E+00

 At SCF step   26   max residual=  9.99E-21 < tolwfr=  1.00E-20 =>converged.

 ----iterations are completed or convergence reached----

 dfpt_looppert: DFPT cycle converged with prtwf=-1. Will skip output of the 1st-order WFK file.
 dfpt_looppert : ek2=    1.0819158508E+02
          f-sum rule ratio=    1.0414591763E+00
 prteigrs : about to open file /scratch/users/j/a/jabreu/flow_simple_6atoms/flow/w198/t1/tmpdata/tmp_1WF1_EIG
 Expectation of eigenvalue derivatives (hartree) for nkpt=   2  k points:
  (in case of degenerate eigenvalues, averaged derivative)
 kpt#   1, nband= 38, wtk=  0.50000, kpt=  0.5000  0.0000  0.0000 (reduced coord)
  -0.00000    0.00000   -0.00000   -0.00000   -0.00000    0.00000   -0.00000    0.00000
  -0.00000   -0.00000   -0.00000    0.00000   -0.00000    0.00000    0.00000    0.00000
  -0.00000    0.00000   -0.00000    0.00000    0.00000    0.00000    0.00000   -0.00000
  -0.00000   -0.00000   -0.00000    0.00000   -0.00000   -0.00000    0.00000    0.00000
   0.00000    0.00000   -0.00000    0.00000   -0.00000   -0.00001
 prteigrs : prtvol=0 or 1, do not print more k-points.

 Eight components of 2nd-order total energy (hartree) are
 1,2,3: 0th-order hamiltonian combined with 1st-order wavefunctions
     kin0=   8.30240856E+01 eigvalue=   1.82274203E+00  local=  -4.09542958E+01
 4,5,6: 1st-order hamiltonian combined with 1st and 0th-order wfs
     kin1=  -1.12677119E+02  Hartree=   0.00000000E+00     xc=   0.00000000E+00
 7,8,9: eventually, occupation + non-local contributions
    edocc=   1.39558408E+01     enl0=   2.11303685E+00   enl1=  -7.24569994E+00
 1-9 gives the relaxation energy (to be shifted if some occ is /=2.0)
   erelax=  -5.99614095E+01
  No Ewald or frozen-wf contrib.: the relaxation energy is the total one
 2DEtotal=   -0.5996140951E+02 Ha. Also 2DEtotal=   -0.163163293100E+04 eV
    (  non-var. 2DEtotal :   -5.9961409511E+01 Ha)

 Perturbation wavevector (in red.coord.)   0.000000  0.000000  0.000000
 Perturbation : derivative vs k along direction   2
 The set of symmetries contains only one element for this perturbation.
 symkpt : not enough symmetry to change the number of k points.

[...]

 Perturbation wavevector (in red.coord.)   0.000000  0.000000  0.000000
 Perturbation : derivative vs k along direction   3
 The set of symmetries contains only one element for this perturbation.
 symkpt : not enough symmetry to change the number of k points.

-inwffil : will read wavefunctions from disk file /scratch/users/j/a/jabreu/flow_simple_6atoms/flow/w198/t1/indata/in_WFK

 Initialisation of the first-order wave-functions :
  ireadwf=   0

--- !BeginCycle
iteration_state: {dtset: 1, }
solver: {iscf: 7, nstep: 1000, nline: 4, wfoptalg: 0, }
tolerances: {tolwfr: 1.00E-20, }
...

     iter   2DEtotal(Ha)        deltaE(Ha) residm    vres2
-ETOT  1  -59.091268283267     -5.909E+01 5.934E-01 0.000E+00
 ETOT  2  -59.226551317126     -1.353E-01 1.881E-02 0.000E+00
 ETOT  3  -59.230668244942     -4.117E-03 4.478E-03 0.000E+00
 ETOT  4  -59.230928628098     -2.604E-04 3.306E-04 0.000E+00
 ETOT  5  -59.230949052186     -2.042E-05 8.039E-05 0.000E+00
 ETOT  6  -59.230950788643     -1.736E-06 7.465E-06 0.000E+00
 ETOT  7  -59.230950942080     -1.534E-07 1.813E-06 0.000E+00
 ETOT  8  -59.230950955916     -1.384E-08 1.837E-07 0.000E+00
 ETOT  9  -59.230950957180     -1.264E-09 4.356E-08 0.000E+00
 ETOT 10  -59.230950957296     -1.165E-10 4.595E-09 0.000E+00
 ETOT 11  -59.230950957307     -1.080E-11 1.077E-09 0.000E+00
 ETOT 12  -59.230950957308     -9.379E-13 1.160E-10 0.000E+00
 ETOT 13  -59.230950957308     -1.705E-13 2.702E-11 0.000E+00
 ETOT 14  -59.230950957308      2.842E-14 2.946E-12 0.000E+00
 ETOT 15  -59.230950957308      2.842E-14 6.836E-13 0.000E+00
 ETOT 16  -59.230950957308      0.000E+00 7.507E-14 0.000E+00
 ETOT 17  -59.230950957308     -1.421E-14 1.738E-14 0.000E+00
 ETOT 18  -59.230950957308      2.842E-14 1.917E-15 0.000E+00
 ETOT 19  -59.230950957308     -4.263E-14 4.430E-16 0.000E+00
 ETOT 20  -59.230950957308      3.553E-14 4.906E-17 0.000E+00
 ETOT 21  -59.230950957308     -4.263E-14 1.132E-17 0.000E+00
 ETOT 22  -59.230950957308      0.000E+00 1.257E-18 0.000E+00
 ETOT 23  -59.230950957308      3.553E-14 2.896E-19 0.000E+00
 ETOT 24  -59.230950957308     -7.105E-15 3.225E-20 0.000E+00
 ETOT 25  -59.230950957308      7.105E-15 9.988E-21 0.000E+00

 At SCF step   25   max residual=  9.99E-21 < tolwfr=  1.00E-20 =>converged.

 ----iterations are completed or convergence reached----

 dfpt_looppert: DFPT cycle converged with prtwf=-1. Will skip output of the 1st-order WFK file.
 dfpt_looppert : ek2=    1.0819158508E+02
          f-sum rule ratio=    1.0260740336E+00
 prteigrs : about to open file /scratch/users/j/a/jabreu/flow_simple_6atoms/flow/w198/t1/tmpdata/tmp_1WF1_EIG
 Expectation of eigenvalue derivatives (hartree) for nkpt=   2  k points:
  (in case of degenerate eigenvalues, averaged derivative)
 kpt#   1, nband= 38, wtk=  0.50000, kpt=  0.5000  0.0000  0.0000 (reduced coord)
  -0.00000    0.00000    0.00000   -0.00000    0.00000   -0.00000    0.00000    0.00000
  -0.00000   -0.00000   -0.00000    0.00000   -0.00000   -0.00000   -0.00000    0.00000
   0.00000   -0.00000    0.00000   -0.00000   -0.00000   -0.00000   -0.00000    0.00000
   0.00000    0.00000   -0.00000    0.00000    0.00000   -0.00000    0.00000    0.00000
  -0.00000    0.00000   -0.00000   -0.00000    0.00000    0.00005
 prteigrs : prtvol=0 or 1, do not print more k-points.

 Eight components of 2nd-order total energy (hartree) are
 1,2,3: 0th-order hamiltonian combined with 1st-order wavefunctions
     kin0=   7.91054341E+01 eigvalue=   1.62139965E+00  local=  -3.80769278E+01
 4,5,6: 1st-order hamiltonian combined with 1st and 0th-order wfs
     kin1=  -1.11012576E+02  Hartree=   0.00000000E+00     xc=   0.00000000E+00
 7,8,9: eventually, occupation + non-local contributions
    edocc=   1.47238731E+01     enl0=   1.85717190E+00   enl1=  -7.44932581E+00
 1-9 gives the relaxation energy (to be shifted if some occ is /=2.0)
   erelax=  -5.92309510E+01
  No Ewald or frozen-wf contrib.: the relaxation energy is the total one
 2DEtotal=   -0.5923095096E+02 Ha. Also 2DEtotal=   -0.161175614289E+04 eV
    (  non-var. 2DEtotal :   -5.9230950957E+01 Ha)

 CALCULATION OF EFFECTIVE MASSES
 NOTE : Additional infos (eff. mass eigenvalues, eigenvectors and, if degenerate, average mass) are available in stdout.

 K-point ( 0.500, 0.000,-0.000) | band =    29
 Effective mass tensor:
            -12.3376812352             -5.4681840610            -26.4193866350
             -5.4681840610             -9.8754120893             -9.1023569900
            -26.4193866350             -9.1023569900           -107.6708771239
 Effective mass tensor eigenvalues:
           -115.4851303875            -10.6459504872             -3.7528895737
 Angular average effective mass 1/(<1/m>)=  -8.1289159881
 Angular average effective mass for Frohlich model (<m**0.5>)**2= -11.4828215505
 Effective masses along directions: (cart. coord. / red. coord. -> eff. mass)
    1:   1.000000  0.000000  0.000000 /   0.902424  0.430849  0.000000 ->  -4.7060297111
    2:   0.000000  1.000000  0.000000 /   0.000000  1.000000  0.000000 ->  -7.3188507398
    3:   0.000000  0.000000  1.000000 /   0.559193  0.559193  0.612050 -> -50.1854909110
    4:   0.577350  0.577350  0.577350 /   0.597069  0.662542  0.452269 -> -21.3510219496
    5:   0.000000  0.707107  0.707107 /   0.491904  0.684220  0.538400 -> -11.7300987826
    6:   0.707107  0.000000  0.707107 /   0.662580  0.555961  0.501892 -> -14.1942145807
    7:   0.707107  0.707107  0.000000 /   0.593494  0.804838  0.000000 -> -10.0929882624

 K-point ( 0.000, 0.000, 0.000) | band =    30
 Effective mass tensor:
              0.6078605633             -0.0041761900             -0.0330551004
             -0.0041761900              0.6123989441             -0.0196586671
             -0.0330551004             -0.0196586671              0.4592816529
 Effective mass tensor eigenvalues:
              0.4497759099              0.6148826252              0.6148826252
 Angular average effective mass 1/(<1/m>)=   0.5478468741
 Angular average effective mass for Frohlich model (<m**0.5>)**2=   0.5516098028
 Effective masses along directions: (cart. coord. / red. coord. -> eff. mass)
    1:   1.000000  0.000000  0.000000 /   0.902424  0.430849  0.000000 ->   0.6054304294
    2:   0.000000  1.000000  0.000000 /   0.000000  1.000000  0.000000 ->   0.6115058647
    3:   0.000000  0.000000  1.000000 /   0.559193  0.559193  0.612050 ->   0.4568383768
    4:   0.577350  0.577350  0.577350 /   0.597069  0.662542  0.452269 ->   0.5095632351
    5:   0.000000  0.707107  0.707107 /   0.491904  0.684220  0.538400 ->   0.5042316100
    6:   0.707107  0.000000  0.707107 /   0.662580  0.555961  0.501892 ->   0.4902296473
    7:   0.707107  0.707107  0.000000 /   0.593494  0.804838  0.000000 ->   0.6029134400

 END OF EFFECTIVE MASSES SECTION

 ---- first-order wavefunction calculations are completed ----

 Total localisation tensor (bohr^2) in cartesian coordinates
  WARNING : still subject to testing - especially symmetries.
      direction              matrix element
   alpha     beta       real part   imaginary part
     1        1       1.3410058907    0.0000000000
     1        2       0.4266786120    0.0000000000
     1        3       3.5841366953    0.0000000000
     2        1       0.4266786120    0.0000000000
     2        2       0.7852540342    0.0000000000
     2        3       2.0085132447    0.0000000000
     3        1       3.5841366953    0.0000000000
     3        2       2.0085132447    0.0000000000
     3        3      16.8941875448    0.0000000000

 respfn : d/dk was computed, but no 2DTE, so no DDB output.

== END DATASET(S) ==============================================================

 -outvars: echo values of variables after computation  --------
            acell      1.0000000000E+00  1.0000000000E+00  1.0000000000E+00 Bohr
              amu      8.76200000E+01  6.35460000E+01  7.99040000E+01
                       1.59994000E+01
             ecut      4.60000000E+01 Hartree
           etotal     -5.9230950957E+01
            fcart      0.0000000000E+00  0.0000000000E+00  0.0000000000E+00
                       0.0000000000E+00  0.0000000000E+00  0.0000000000E+00
                       0.0000000000E+00  0.0000000000E+00  0.0000000000E+00
                       0.0000000000E+00  0.0000000000E+00  0.0000000000E+00
                       0.0000000000E+00  0.0000000000E+00  0.0000000000E+00
                       0.0000000000E+00  0.0000000000E+00  0.0000000000E+00
-          fftalg         512
           irdden           1
           irdwfk           1
           istwfk        1    1
              ixc     -116133
              kpt      5.00000000E-01  0.00000000E+00 -2.77555756E-17
                       0.00000000E+00  0.00000000E+00  0.00000000E+00
           kptopt           0
P           mkmem           2
P          mkqmem           2
P          mk1mem           2
            natom           6
            nband          38
           nbdbuf           4
            ngfft         120     120     120
             nkpt           2
            nstep        1000
             nsym          12
           ntypat           4
              occ      2.000000  2.000000  2.000000  2.000000  2.000000  2.000000
                       2.000000  2.000000  2.000000  2.000000  2.000000  2.000000
                       2.000000  2.000000  2.000000  2.000000  2.000000  2.000000
                       2.000000  2.000000  2.000000  2.000000  2.000000  2.000000
                       2.000000  2.000000  2.000000  2.000000  2.000000  0.000000
                       0.000000  0.000000  0.000000  0.000000  0.000000  0.000000
                       0.000000  0.000000
        optdriver           1
            prtwf          -1
            rfdir           1       1       1
           rfelfd           2
            rprim      7.4043672563E+00  0.0000000000E+00  1.6640893643E+01
                       3.5351090769E+00  6.5059709714E+00  1.6640893643E+01
                       0.0000000000E+00  0.0000000000E+00  1.8213840773E+01
          spgroup         166
           strten      0.0000000000E+00  0.0000000000E+00  0.0000000000E+00
                       0.0000000000E+00  0.0000000000E+00  0.0000000000E+00
           symrel      1  0  0   0  1  0   0  0  1      -1  0  0   0 -1  0   0  0 -1
                       0  1  0   1  0  0   0  0  1       0 -1  0  -1  0  0   0  0 -1
                       0  0  1   1  0  0   0  1  0       0  0 -1  -1  0  0   0 -1  0
                       1  0  0   0  0  1   0  1  0      -1  0  0   0  0 -1   0 -1  0
                       0  1  0   0  0  1   1  0  0       0 -1  0   0  0 -1  -1  0  0
                       0  0  1   0  1  0   1  0  0       0  0 -1   0 -1  0  -1  0  0
           tolwfr      1.00000000E-20
            typat      1  1  2  3  4  4
           useylm           1
              wtk        0.50000    0.50000
           xangst      1.4634683123E+00  8.7035997587E-01  6.8890153048E+00
                       4.3254532371E+00  2.5724515819E+00  2.0361297406E+01
                       2.8944607747E+00  1.7214057789E+00  1.3625156355E+01
                       0.0000000000E+00  0.0000000000E+00  0.0000000000E+00
                       2.5255791157E+00  1.5020229408E+00  1.1888711929E+01
                       3.2633424337E+00  1.9407886170E+00  1.5361600782E+01
            xcart      2.7655543144E+00  1.6447419914E+00  1.3018352251E+01
                       8.1739220188E+00  4.8612289800E+00  3.8477275807E+01
                       5.4697381666E+00  3.2529854857E+00  2.5747814029E+01
                       0.0000000000E+00  0.0000000000E+00  0.0000000000E+00
                       4.7726528557E+00  2.8384120035E+00  2.2466409618E+01
                       6.1668234775E+00  3.6675589679E+00  2.9029218440E+01
             xred      2.5280500000E-01  2.5280500000E-01  2.5280500000E-01
                       7.4719500000E-01  7.4719500000E-01  7.4719500000E-01
                       5.0000000000E-01  5.0000000000E-01  5.0000000000E-01
                       0.0000000000E+00  0.0000000000E+00  0.0000000000E+00
                       4.3627800000E-01  4.3627800000E-01  4.3627800000E-01
                       5.6372200000E-01  5.6372200000E-01  5.6372200000E-01
            znucl       38.00000   29.00000   35.00000    8.00000

- Timing analysis has been suppressed with timopt=0

 Suggested references for the acknowledgment of ABINIT usage.

 Calculation completed.
.Delivered  14 WARNINGs and   9 COMMENTs to log file.