.Version 9.5.2 of ABINIT

 ABINIT is a project of the Universite Catholique de Louvain,
 Corning Inc. and other collaborators, see ~abinit/doc/developers/contributors.txt .
 acknowledgments of the ABINIT effort.

.Starting date : Tue  1 Jun 2021.
- ( at 12h10 )

- input  file    -> /scratch/users/j/a/jabreu/flow_simple_11atoms/flow/w356/t1/run.abi
- output file    -> /scratch/users/j/a/jabreu/flow_simple_11atoms/flow/w356/t1/run.abo
- root for input  files -> /scratch/users/j/a/jabreu/flow_simple_11atoms/flow/w356/t1/indata/in
- root for output files -> /scratch/users/j/a/jabreu/flow_simple_11atoms/flow/w356/t1/outdata/out

 Symmetries : space group P6_3/m m c (#194); Bravais hP (primitive hexag.)
     intxc =       0      iscf =       7    lmnmax =      18     lnmax =       6
     mgfft =     250  mpssoang =       3    mqgrid =   12221     natom =      16
  nloc_mem =       1    nspden =       1   nspinor =       1    nsppol =       1
      nsym =      24    n1xccc =    2501    ntypat =       4    occopt =       1
   xclevel =       2
-    mband =         103        mffmem =           1         mkmem =           2
-   mkqmem =           2        mk1mem =           2           mpw =       29295
      nfft =      576000          nkpt =           2
  Rough estimation (10% accuracy) of disk space for files :

------------- Echo of variables that govern the present computation ------------
-
- outvars: echo of selected default values
-   iomode0 =  0 , fftalg0 =512 , wfoptalg0 =  0
-
- outvars: echo of global parameters not present in the input file
-  max_nthreads =    0
-
 -outvars: echo values of preprocessed input variables --------
            acell      1.0000000000E+00  1.0000000000E+00  1.0000000000E+00 Bohr
              amu      4.00780000E+01  6.53900000E+01  6.35460000E+01
                       3.09737620E+01
             ecut      4.60000000E+01 Hartree
-          fftalg         512
           irdden           1
           irdwfk           1
           istwfk        1    1
              ixc     -116133
              kpt      0.00000000E+00  0.00000000E+00  0.00000000E+00
                       5.00000000E-01  0.00000000E+00  0.00000000E+00
           kptopt           0
P           mkmem           2
P          mkqmem           2
P          mk1mem           2
            natom          16
            nband         103
           nbdbuf           4
            ngfft          48      48     250
             nkpt           2
            nstep        2000
             nsym          24
           ntypat           4
              occ      2.000000  2.000000  2.000000  2.000000  2.000000  2.000000
                       2.000000  2.000000  2.000000  2.000000  2.000000  2.000000
                       2.000000  2.000000  2.000000  2.000000  2.000000  2.000000
                       2.000000  2.000000  2.000000  2.000000  2.000000  2.000000
                       2.000000  2.000000  2.000000  2.000000  2.000000  2.000000
                       2.000000  2.000000  2.000000  2.000000  2.000000  2.000000
                       2.000000  2.000000  2.000000  2.000000  2.000000  2.000000
                       2.000000  2.000000  2.000000  2.000000  2.000000  2.000000
                       2.000000  2.000000  2.000000  2.000000  2.000000  2.000000
                       2.000000  2.000000  2.000000  2.000000  2.000000  2.000000
                       2.000000  2.000000  2.000000  2.000000  2.000000  2.000000
                       2.000000  2.000000  2.000000  2.000000  2.000000  2.000000
                       2.000000  2.000000  2.000000  2.000000  2.000000  2.000000
                       2.000000  2.000000  2.000000  2.000000  2.000000  2.000000
                       2.000000  2.000000  2.000000  2.000000  2.000000  2.000000
                       2.000000  2.000000  2.000000  2.000000  0.000000  0.000000
                       0.000000  0.000000  0.000000  0.000000  0.000000  0.000000
                       0.000000
        optdriver           1
            prtwf          -1
            rfdir           1       1       1
           rfelfd           2
            rprim      7.5272668549E+00  0.0000000000E+00  0.0000000000E+00
                      -3.7636334275E+00  6.5188043174E+00  0.0000000000E+00
                       0.0000000000E+00  0.0000000000E+00  4.0026838257E+01
          spgroup         194
           symrel      1  0  0   0  1  0   0  0  1      -1  0  0   0 -1  0   0  0 -1
                       0  1  0   1  0  0   0  0  1       0 -1  0  -1  0  0   0  0 -1
                       1  1  0  -1  0  0   0  0  1      -1 -1  0   1  0  0   0  0 -1
                      -1  0  0   1  1  0   0  0  1       1  0  0  -1 -1  0   0  0 -1
                       0  1  0  -1 -1  0   0  0  1       0 -1  0   1  1  0   0  0 -1
                      -1 -1  0   0  1  0   0  0  1       1  1  0   0 -1  0   0  0 -1
                      -1  0  0   0 -1  0   0  0  1       1  0  0   0  1  0   0  0 -1
                       0 -1  0  -1  0  0   0  0  1       0  1  0   1  0  0   0  0 -1
                      -1 -1  0   1  0  0   0  0  1       1  1  0  -1  0  0   0  0 -1
                       1  0  0  -1 -1  0   0  0  1      -1  0  0   1  1  0   0  0 -1
                       0 -1  0   1  1  0   0  0  1       0  1  0  -1 -1  0   0  0 -1
                       1  1  0   0 -1  0   0  0  1      -1 -1  0   0  1  0   0  0 -1
            tnons      0.0000000  0.0000000  0.0000000    -0.0000000 -0.0000000  0.0000000
                       0.0000000  0.0000000  0.5000000    -0.0000000 -0.0000000  0.5000000
                      -0.0000000  0.0000000  0.5000000     0.0000000 -0.0000000  0.5000000
                       0.0000000  0.0000000  0.0000000    -0.0000000 -0.0000000  0.0000000
                      -0.0000000 -0.0000000  0.0000000     0.0000000  0.0000000  0.0000000
                      -0.0000000  0.0000000  0.5000000     0.0000000 -0.0000000  0.5000000
                      -0.0000000 -0.0000000  0.5000000     0.0000000  0.0000000  0.5000000
                      -0.0000000 -0.0000000  0.0000000     0.0000000  0.0000000  0.0000000
                       0.0000000 -0.0000000  0.0000000    -0.0000000  0.0000000  0.0000000
                      -0.0000000 -0.0000000  0.5000000     0.0000000  0.0000000  0.5000000
                       0.0000000  0.0000000  0.5000000    -0.0000000 -0.0000000  0.5000000
                       0.0000000 -0.0000000  0.0000000    -0.0000000  0.0000000  0.0000000
           tolwfr      1.00000000E-20
            typat      1  1  1  1  2  2  2  2  3  3  4  4  4  4  4  4
           useylm           1
              wtk        0.50000    0.50000
           xangst      0.0000000000E+00  0.0000000000E+00  7.2319280282E+00
                       0.0000000000E+00  0.0000000000E+00  1.3949362509E+01
                       0.0000000000E+00  0.0000000000E+00  1.7822573297E+01
                       0.0000000000E+00  0.0000000000E+00  3.3587172405E+00
                       1.9916290313E+00  1.1498675573E+00  8.9893397041E-01
                      -1.7639241746E-11  2.2997351147E+00  1.1489579239E+01
                      -1.7639241746E-11  2.2997351147E+00  2.0282356567E+01
                       1.9916290313E+00  1.1498675573E+00  9.6917112983E+00
                      -1.7639241746E-11  2.2997351147E+00  5.2953226344E+00
                       1.9916290313E+00  1.1498675573E+00  1.5885967903E+01
                      -1.7639241746E-11  2.2997351147E+00  8.9884924525E+00
                       1.9916290313E+00  1.1498675573E+00  1.2192798085E+01
                       1.9916290313E+00  1.1498675573E+00  5.2953226344E+00
                      -1.7639241746E-11  2.2997351147E+00  1.6021528163E+00
                       1.9916290313E+00  1.1498675573E+00  1.9579137721E+01
                      -1.7639241746E-11  2.2997351147E+00  1.5885967903E+01
            xcart      0.0000000000E+00  0.0000000000E+00  1.3666363386E+01
                       0.0000000000E+00  0.0000000000E+00  2.6360474871E+01
                       0.0000000000E+00  0.0000000000E+00  3.3679782514E+01
                       0.0000000000E+00  0.0000000000E+00  6.3470557424E+00
                       3.7636334274E+00  2.1729347725E+00  1.6987390156E+00
                      -3.3333336091E-11  4.3458695449E+00  2.1712158144E+01
                      -3.3333336091E-11  4.3458695449E+00  3.8328099241E+01
                       3.7636334274E+00  2.1729347725E+00  1.8314680113E+01
                      -3.3333336091E-11  4.3458695449E+00  1.0006709564E+01
                       3.7636334274E+00  2.1729347725E+00  3.0020128693E+01
                      -3.3333336091E-11  4.3458695449E+00  1.6985789083E+01
                       3.7636334274E+00  2.1729347725E+00  2.3041049174E+01
                       3.7636334274E+00  2.1729347725E+00  1.0006709564E+01
                      -3.3333336091E-11  4.3458695449E+00  3.0276300457E+00
                       3.7636334274E+00  2.1729347725E+00  3.6999208211E+01
                      -3.3333336091E-11  4.3458695449E+00  3.0020128693E+01
             xred      0.0000000000E+00  0.0000000000E+00  3.4143000000E-01
                       0.0000000000E+00  0.0000000000E+00  6.5857000000E-01
                       0.0000000000E+00  0.0000000000E+00  8.4143000000E-01
                       0.0000000000E+00  0.0000000000E+00  1.5857000000E-01
                       6.6666666667E-01  3.3333333333E-01  4.2440000000E-02
                       3.3333333333E-01  6.6666666667E-01  5.4244000000E-01
                       3.3333333333E-01  6.6666666667E-01  9.5756000000E-01
                       6.6666666667E-01  3.3333333333E-01  4.5756000000E-01
                       3.3333333333E-01  6.6666666667E-01  2.5000000000E-01
                       6.6666666667E-01  3.3333333333E-01  7.5000000000E-01
                       3.3333333333E-01  6.6666666667E-01  4.2436000000E-01
                       6.6666666667E-01  3.3333333333E-01  5.7564000000E-01
                       6.6666666667E-01  3.3333333333E-01  2.5000000000E-01
                       3.3333333333E-01  6.6666666667E-01  7.5640000000E-02
                       6.6666666667E-01  3.3333333333E-01  9.2436000000E-01
                       3.3333333333E-01  6.6666666667E-01  7.5000000000E-01
            znucl       20.00000   30.00000   29.00000   15.00000

 chkinp: Checking input parameters for consistency.

== DATASET  1 ==================================================================
-   mpi_nproc: 1, omp_nthreads: -1 (-1 if OMP is not activated)

--- !DatasetInfo
iteration_state: {dtset: 1, }
dimensions: {natom: 16, nkpt: 2, mband: 103, nsppol: 1, nspinor: 1, nspden: 1, mpw: 29295, }
cutoff_energies: {ecut:  46.0, pawecutdg:  -1.0, }
electrons: {nelect:   1.88000000E+02, charge:   0.00000000E+00, occopt:   1.00000000E+00, tsmear:   1.00000000E-02, }
meta: {optdriver: 1, rfelfd: 2, }
...

 Real(R)+Recip(G) space primitive vectors, cartesian coordinates (Bohr,Bohr^-1):
 R(1)=  7.5272669  0.0000000  0.0000000  G(1)=  0.1328503  0.0767012  0.0000000
 R(2)= -3.7636334  6.5188043  0.0000000  G(2)=  0.0000000  0.1534024  0.0000000
[...]
 prteigrs : prtvol=0 or 1, do not print more k-points.

 Eight components of 2nd-order total energy (hartree) are
 1,2,3: 0th-order hamiltonian combined with 1st-order wavefunctions
     kin0=   1.05789344E+01 eigvalue=  -3.89265345E-01  local=  -4.96246078E+00
 4,5,6: 1st-order hamiltonian combined with 1st and 0th-order wfs
     kin1=  -9.39326572E+00  Hartree=   0.00000000E+00     xc=   0.00000000E+00
 7,8,9: eventually, occupation + non-local contributions
    edocc=   6.18854094E-01     enl0=  -6.67524961E-01   enl1=  -9.63809039E-01
 1-9 gives the relaxation energy (to be shifted if some occ is /=2.0)
   erelax=  -5.17853738E+00
  No Ewald or frozen-wf contrib.: the relaxation energy is the total one
 2DEtotal=   -0.5178537378E+01 Ha. Also 2DEtotal=   -0.140915168427E+03 eV
    (  non-var. 2DEtotal :   -5.1785373778E+00 Ha)

 CALCULATION OF EFFECTIVE MASSES
 NOTE : Additional infos (eff. mass eigenvalues, eigenvectors and, if degenerate, average mass) are available in stdout.

 COMMENTS:
 - At k-point ( 0.000, 0.000, 0.000), bands    93 through    94
   are DEGENERATE (effective mass tensor is therefore not defined).
   See Section IIIB Eqs. (67)-(70) and Appendix E of PRB 93 205147 (2016).
 - Angular average effective mass for Frohlich model is to be averaged over degenerate bands. See later.
 - Associated theta integrals calculated with ntheta=   1000 points.

 K-point ( 0.000, 0.000, 0.000) | band =    93
 Transport equivalent effective mass tensor:
             -0.0968212827             -0.0000002323             -0.0000066913
             -0.0000002323             -0.0968188747              0.0000033335
             -0.0000066913              0.0000033335             -1.2496088078
 Transport equivalent effective mass tensor eigenvalues:
             -1.2496088078             -0.0968213049             -0.0968188525
 Angular average effective mass 1/(<1/m>)=  -0.1398137078
 Angular average effective mass for Frohlich model (<m**0.5>)**2=  -0.1743031635
 Effective masses along directions: (cart. coord. / red. coord. -> eff. mass)
    1:   1.000000  0.000000  0.000000 /   0.894427 -0.447214  0.000000 ->  -0.0968097737
    2:   0.000000  1.000000  0.000000 /   0.000000  1.000000  0.000000 ->  -0.0968073660
    3:   0.000000  0.000000  1.000000 /   0.000000  0.000000  1.000000 ->  -1.2496087306
    4:   0.577350  0.577350  0.577350 /   0.184394  0.067493  0.980532 ->  -0.1398297101
    5:   0.000000  0.707107  0.707107 /   0.000000  0.160743  0.986996 ->  -0.1796945250
    6:   0.707107  0.000000  0.707107 /   0.184032 -0.092016  0.978604 ->  -0.1796998634
    7:   0.707107  0.707107  0.000000 /   0.939071  0.343724  0.000000 ->  -0.0968318175

 K-point ( 0.000, 0.000, 0.000) | band =    94
 Transport equivalent effective mass tensor:
             -0.3109799481             -0.0000000863             -0.0000214941
             -0.0000000863             -0.3109804684              0.0000107123
             -0.0000214941              0.0000107123             -1.2496094737
 Transport equivalent effective mass tensor eigenvalues:
             -1.2496094743             -0.3109804823             -0.3109799336
 Angular average effective mass 1/(<1/m>)=  -0.4148499522
 Angular average effective mass for Frohlich model (<m**0.5>)**2=  -0.4551559157
 Effective masses along directions: (cart. coord. / red. coord. -> eff. mass)
    1:   1.000000  0.000000  0.000000 /   0.894427 -0.447214  0.000000 ->  -0.3110985892
    2:   0.000000  1.000000  0.000000 /   0.000000  1.000000  0.000000 ->  -0.3110991074
    3:   0.000000  0.000000  1.000000 /   0.000000  0.000000  1.000000 ->  -1.2496087415
    4:   0.577350  0.577350  0.577350 /   0.184394  0.067493  0.980532 ->  -0.4147184364
    5:   0.000000  0.707107  0.707107 /   0.000000  0.160743  0.986996 ->  -0.4981551086
    6:   0.707107  0.000000  0.707107 /   0.184032 -0.092016  0.978604 ->  -0.4981864280
    7:   0.707107  0.707107  0.000000 /   0.939071  0.343724  0.000000 ->  -0.3108614957

 Angular average effective mass for Frohlich model, averaged over degenerate bands.
 Value of     (<<m**0.5>>)**2 =     2.981972E-01
 Absolute Value of <<m**0.5>> =     5.460744E-01

 K-point ( 0.500, 0.000, 0.000) | band =    95
 Effective mass tensor:
              0.7233919380             -0.3535675783             -0.0000000322
             -0.3535675783              1.1316565934             -0.0000000293
             -0.0000000322             -0.0000000293              0.3081308854
 Effective mass tensor eigenvalues:
              0.3081308854              0.5192595971              1.3357889343
 Angular average effective mass 1/(<1/m>)=   0.5067726461
 Angular average effective mass for Frohlich model (<m**0.5>)**2=   0.5563743787
 Effective masses along directions: (cart. coord. / red. coord. -> eff. mass)
    1:   1.000000  0.000000  0.000000 /   0.894427 -0.447214  0.000000 ->   0.6129255358
    2:   0.000000  1.000000  0.000000 /   0.000000  1.000000  0.000000 ->   0.9588456650
    3:   0.000000  0.000000  1.000000 /   0.000000  0.000000  1.000000 ->   0.3081308854
    4:   0.577350  0.577350  0.577350 /   0.184394  0.067493  0.980532 ->   0.4323203696
    5:   0.000000  0.707107  0.707107 /   0.000000  0.160743  0.986996 ->   0.4663858106
    6:   0.707107  0.000000  0.707107 /   0.184032 -0.092016  0.978604 ->   0.4100970727
    7:   0.707107  0.707107  0.000000 /   0.939071  0.343724  0.000000 ->   0.5414297399

 END OF EFFECTIVE MASSES SECTION

 ---- first-order wavefunction calculations are completed ----

 Total localisation tensor (bohr^2) in cartesian coordinates
  WARNING : still subject to testing - especially symmetries.
      direction              matrix element
   alpha     beta       real part   imaginary part
     1        1       4.3294510701    0.0000000000
     1        2      -1.6950884741    0.0000000000
     1        3       0.0000000000    0.0000000000
     2        1      -1.6950884741    0.0000000000
     2        2       2.9359793603    0.0000000000
     2        3       0.0000000000    0.0000000000
     3        1       0.0000000000    0.0000000000
     3        2       0.0000000000    0.0000000000
     3        3       1.0295497505    0.0000000000

 respfn : d/dk was computed, but no 2DTE, so no DDB output.

== END DATASET(S) ==============================================================

 -outvars: echo values of variables after computation  --------
            acell      1.0000000000E+00  1.0000000000E+00  1.0000000000E+00 Bohr
              amu      4.00780000E+01  6.53900000E+01  6.35460000E+01
                       3.09737620E+01
             ecut      4.60000000E+01 Hartree
           etotal     -5.1785373780E+00
            fcart      0.0000000000E+00  0.0000000000E+00  0.0000000000E+00
                       0.0000000000E+00  0.0000000000E+00  0.0000000000E+00
                       0.0000000000E+00  0.0000000000E+00  0.0000000000E+00
                       0.0000000000E+00  0.0000000000E+00  0.0000000000E+00
                       0.0000000000E+00  0.0000000000E+00  0.0000000000E+00
                       0.0000000000E+00  0.0000000000E+00  0.0000000000E+00
                       0.0000000000E+00  0.0000000000E+00  0.0000000000E+00
                       0.0000000000E+00  0.0000000000E+00  0.0000000000E+00
                       0.0000000000E+00  0.0000000000E+00  0.0000000000E+00
                       0.0000000000E+00  0.0000000000E+00  0.0000000000E+00
                       0.0000000000E+00  0.0000000000E+00  0.0000000000E+00
                       0.0000000000E+00  0.0000000000E+00  0.0000000000E+00
                       0.0000000000E+00  0.0000000000E+00  0.0000000000E+00
                       0.0000000000E+00  0.0000000000E+00  0.0000000000E+00
                       0.0000000000E+00  0.0000000000E+00  0.0000000000E+00
                       0.0000000000E+00  0.0000000000E+00  0.0000000000E+00
-          fftalg         512
           irdden           1
           irdwfk           1
           istwfk        1    1
              ixc     -116133
              kpt      0.00000000E+00  0.00000000E+00  0.00000000E+00
                       5.00000000E-01  0.00000000E+00  0.00000000E+00
           kptopt           0
P           mkmem           2
P          mkqmem           2
P          mk1mem           2
            natom          16
            nband         103
           nbdbuf           4
            ngfft          48      48     250
             nkpt           2
            nstep        2000
             nsym          24
           ntypat           4
              occ      2.000000  2.000000  2.000000  2.000000  2.000000  2.000000
                       2.000000  2.000000  2.000000  2.000000  2.000000  2.000000
                       2.000000  2.000000  2.000000  2.000000  2.000000  2.000000
                       2.000000  2.000000  2.000000  2.000000  2.000000  2.000000
                       2.000000  2.000000  2.000000  2.000000  2.000000  2.000000
                       2.000000  2.000000  2.000000  2.000000  2.000000  2.000000
                       2.000000  2.000000  2.000000  2.000000  2.000000  2.000000
                       2.000000  2.000000  2.000000  2.000000  2.000000  2.000000
                       2.000000  2.000000  2.000000  2.000000  2.000000  2.000000
                       2.000000  2.000000  2.000000  2.000000  2.000000  2.000000
                       2.000000  2.000000  2.000000  2.000000  2.000000  2.000000
                       2.000000  2.000000  2.000000  2.000000  2.000000  2.000000
                       2.000000  2.000000  2.000000  2.000000  2.000000  2.000000
                       2.000000  2.000000  2.000000  2.000000  2.000000  2.000000
                       2.000000  2.000000  2.000000  2.000000  2.000000  2.000000
                       2.000000  2.000000  2.000000  2.000000  0.000000  0.000000
                       0.000000  0.000000  0.000000  0.000000  0.000000  0.000000
                       0.000000
        optdriver           1
            prtwf          -1
            rfdir           1       1       1
           rfelfd           2
            rprim      7.5272668549E+00  0.0000000000E+00  0.0000000000E+00
                      -3.7636334275E+00  6.5188043174E+00  0.0000000000E+00
                       0.0000000000E+00  0.0000000000E+00  4.0026838257E+01
          spgroup         194
           strten      0.0000000000E+00  0.0000000000E+00  0.0000000000E+00
                       0.0000000000E+00  0.0000000000E+00  0.0000000000E+00
           symrel      1  0  0   0  1  0   0  0  1      -1  0  0   0 -1  0   0  0 -1
                       0  1  0   1  0  0   0  0  1       0 -1  0  -1  0  0   0  0 -1
                       1  1  0  -1  0  0   0  0  1      -1 -1  0   1  0  0   0  0 -1
                      -1  0  0   1  1  0   0  0  1       1  0  0  -1 -1  0   0  0 -1
                       0  1  0  -1 -1  0   0  0  1       0 -1  0   1  1  0   0  0 -1
                      -1 -1  0   0  1  0   0  0  1       1  1  0   0 -1  0   0  0 -1
                      -1  0  0   0 -1  0   0  0  1       1  0  0   0  1  0   0  0 -1
                       0 -1  0  -1  0  0   0  0  1       0  1  0   1  0  0   0  0 -1
                      -1 -1  0   1  0  0   0  0  1       1  1  0  -1  0  0   0  0 -1
                       1  0  0  -1 -1  0   0  0  1      -1  0  0   1  1  0   0  0 -1
                       0 -1  0   1  1  0   0  0  1       0  1  0  -1 -1  0   0  0 -1
                       1  1  0   0 -1  0   0  0  1      -1 -1  0   0  1  0   0  0 -1
            tnons      0.0000000  0.0000000  0.0000000    -0.0000000 -0.0000000  0.0000000
                       0.0000000  0.0000000  0.5000000    -0.0000000 -0.0000000  0.5000000
                      -0.0000000  0.0000000  0.5000000     0.0000000 -0.0000000  0.5000000
                       0.0000000  0.0000000  0.0000000    -0.0000000 -0.0000000  0.0000000
                      -0.0000000 -0.0000000  0.0000000     0.0000000  0.0000000  0.0000000
                      -0.0000000  0.0000000  0.5000000     0.0000000 -0.0000000  0.5000000
                      -0.0000000 -0.0000000  0.5000000     0.0000000  0.0000000  0.5000000
                      -0.0000000 -0.0000000  0.0000000     0.0000000  0.0000000  0.0000000
                       0.0000000 -0.0000000  0.0000000    -0.0000000  0.0000000  0.0000000
                      -0.0000000 -0.0000000  0.5000000     0.0000000  0.0000000  0.5000000
                       0.0000000  0.0000000  0.5000000    -0.0000000 -0.0000000  0.5000000
                       0.0000000 -0.0000000  0.0000000    -0.0000000  0.0000000  0.0000000
           tolwfr      1.00000000E-20
            typat      1  1  1  1  2  2  2  2  3  3  4  4  4  4  4  4
           useylm           1
              wtk        0.50000    0.50000
           xangst      0.0000000000E+00  0.0000000000E+00  7.2319280282E+00
                       0.0000000000E+00  0.0000000000E+00  1.3949362509E+01
                       0.0000000000E+00  0.0000000000E+00  1.7822573297E+01
                       0.0000000000E+00  0.0000000000E+00  3.3587172405E+00
                       1.9916290313E+00  1.1498675573E+00  8.9893397041E-01
                      -1.7639241746E-11  2.2997351147E+00  1.1489579239E+01
                      -1.7639241746E-11  2.2997351147E+00  2.0282356567E+01
                       1.9916290313E+00  1.1498675573E+00  9.6917112983E+00
                      -1.7639241746E-11  2.2997351147E+00  5.2953226344E+00
                       1.9916290313E+00  1.1498675573E+00  1.5885967903E+01
                      -1.7639241746E-11  2.2997351147E+00  8.9884924525E+00
                       1.9916290313E+00  1.1498675573E+00  1.2192798085E+01
                       1.9916290313E+00  1.1498675573E+00  5.2953226344E+00
                      -1.7639241746E-11  2.2997351147E+00  1.6021528163E+00
                       1.9916290313E+00  1.1498675573E+00  1.9579137721E+01
                      -1.7639241746E-11  2.2997351147E+00  1.5885967903E+01
            xcart      0.0000000000E+00  0.0000000000E+00  1.3666363386E+01
                       0.0000000000E+00  0.0000000000E+00  2.6360474871E+01
                       0.0000000000E+00  0.0000000000E+00  3.3679782514E+01
                       0.0000000000E+00  0.0000000000E+00  6.3470557424E+00
                       3.7636334274E+00  2.1729347725E+00  1.6987390156E+00
                      -3.3333336091E-11  4.3458695449E+00  2.1712158144E+01
                      -3.3333336091E-11  4.3458695449E+00  3.8328099241E+01
                       3.7636334274E+00  2.1729347725E+00  1.8314680113E+01
                      -3.3333336091E-11  4.3458695449E+00  1.0006709564E+01
                       3.7636334274E+00  2.1729347725E+00  3.0020128693E+01
                      -3.3333336091E-11  4.3458695449E+00  1.6985789083E+01
                       3.7636334274E+00  2.1729347725E+00  2.3041049174E+01
                       3.7636334274E+00  2.1729347725E+00  1.0006709564E+01
                      -3.3333336091E-11  4.3458695449E+00  3.0276300457E+00
                       3.7636334274E+00  2.1729347725E+00  3.6999208211E+01
                      -3.3333336091E-11  4.3458695449E+00  3.0020128693E+01
             xred      0.0000000000E+00  0.0000000000E+00  3.4143000000E-01
                       0.0000000000E+00  0.0000000000E+00  6.5857000000E-01
                       0.0000000000E+00  0.0000000000E+00  8.4143000000E-01
                       0.0000000000E+00  0.0000000000E+00  1.5857000000E-01
                       6.6666666667E-01  3.3333333333E-01  4.2440000000E-02
                       3.3333333333E-01  6.6666666667E-01  5.4244000000E-01
                       3.3333333333E-01  6.6666666667E-01  9.5756000000E-01
                       6.6666666667E-01  3.3333333333E-01  4.5756000000E-01
                       3.3333333333E-01  6.6666666667E-01  2.5000000000E-01
                       6.6666666667E-01  3.3333333333E-01  7.5000000000E-01
                       3.3333333333E-01  6.6666666667E-01  4.2436000000E-01
                       6.6666666667E-01  3.3333333333E-01  5.7564000000E-01
                       6.6666666667E-01  3.3333333333E-01  2.5000000000E-01
                       3.3333333333E-01  6.6666666667E-01  7.5640000000E-02
                       6.6666666667E-01  3.3333333333E-01  9.2436000000E-01
                       3.3333333333E-01  6.6666666667E-01  7.5000000000E-01
            znucl       20.00000   30.00000   29.00000   15.00000

- Timing analysis has been suppressed with timopt=0

 Suggested references for the acknowledgment of ABINIT usage.

 Calculation completed.
.Delivered   2 WARNINGs and   7 COMMENTs to log file.