.Version 9.5.2 of ABINIT

 ABINIT is a project of the Universite Catholique de Louvain,
 Corning Inc. and other collaborators, see ~abinit/doc/developers/contributors.txt .
 acknowledgments of the ABINIT effort.

.Starting date : Wed 26 May 2021.
- ( at 02h18 )

- input  file    -> /scratch/users/j/a/jabreu/flow_simple_11atoms/flow/w225/t1/run.abi
- output file    -> /scratch/users/j/a/jabreu/flow_simple_11atoms/flow/w225/t1/run.abo
- root for input  files -> /scratch/users/j/a/jabreu/flow_simple_11atoms/flow/w225/t1/indata/in
- root for output files -> /scratch/users/j/a/jabreu/flow_simple_11atoms/flow/w225/t1/outdata/out

 Symmetries : space group C2/m (# 12); Bravais mC (1-face-center monocl.)
     intxc =       0      iscf =       7    lmnmax =      18     lnmax =       6
     mgfft =      64  mpssoang =       3    mqgrid =    3001     natom =      11
  nloc_mem =       1    nspden =       1   nspinor =       1    nsppol =       1
      nsym =       4    n1xccc =    2501    ntypat =       3    occopt =       1
   xclevel =       2
-    mband =          45        mffmem =           1         mkmem =           2
-   mkqmem =           2        mk1mem =           2           mpw =       11842
      nfft =      221184          nkpt =           2
  Rough estimation (10% accuracy) of disk space for files :

------------- Echo of variables that govern the present computation ------------
-
- outvars: echo of selected default values
-   iomode0 =  0 , fftalg0 =512 , wfoptalg0 =  0
-
- outvars: echo of global parameters not present in the input file
-  max_nthreads =    0
-
 -outvars: echo values of preprocessed input variables --------
            acell      1.0000000000E+00  1.0000000000E+00  1.0000000000E+00 Bohr
              amu      4.49559100E+01  2.80855000E+01  1.59994000E+01
             ecut      4.40000000E+01 Hartree
-          fftalg         512
           irdden           1
           irdwfk           1
           istwfk        1    0
              ixc     -116133
              kpt      0.00000000E+00  0.00000000E+00  0.00000000E+00
                       5.00000000E-01 -5.00000000E-01  0.00000000E+00
           kptopt           0
P           mkmem           2
P          mkqmem           2
P          mk1mem           2
            natom          11
            nband          45
           nbdbuf           4
            ngfft          64      64      54
             nkpt           2
            nstep        2000
             nsym           4
           ntypat           3
              occ      2.000000  2.000000  2.000000  2.000000  2.000000  2.000000
                       2.000000  2.000000  2.000000  2.000000  2.000000  2.000000
                       2.000000  2.000000  2.000000  2.000000  2.000000  2.000000
                       2.000000  2.000000  2.000000  2.000000  2.000000  2.000000
                       2.000000  2.000000  2.000000  2.000000  2.000000  2.000000
                       2.000000  2.000000  2.000000  2.000000  2.000000  2.000000
                       0.000000  0.000000  0.000000  0.000000  0.000000  0.000000
                       0.000000  0.000000  0.000000
        optdriver           1
            prtwf          -1
            rfdir           1       1       1
           rfelfd           2
            rprim      9.9909862695E+00  0.0000000000E+00  1.3401707976E+00
                      -2.8622477447E+00  9.5722173233E+00  1.3401707976E+00
                       0.0000000000E+00  0.0000000000E+00  8.8623595336E+00
          spgroup          12
           symrel      1  0  0   0  1  0   0  0  1      -1  0  0   0 -1  0   0  0 -1
                       0 -1  0  -1  0  0   0  0 -1       0  1  0   1  0  0   0  0  1
           tolwfr      1.00000000E-20
            typat      1  1  2  2  3  3  3  3  3  3  3
           useylm           1
              wtk        0.50000    0.50000
           xangst      3.1818747054E+00  1.5677562620E+00  7.0918784171E-01
                       5.9049124790E-01  3.4976429812E+00  7.0918784171E-01
                       8.5287158419E-01  1.1452057225E+00  3.0998933879E+00
                       2.9194943691E+00  3.9201935207E+00  3.0082409751E+00
                       1.8008565672E+00  4.6717316102E+00  2.0771506909E+00
                      -1.8763674652E-01  2.0016532957E+00  4.0309836720E+00
                       1.9715093862E+00  3.9366763298E-01  4.0309836720E+00
                       3.9600026998E+00  3.0637459474E+00  2.0771506909E+00
                       0.0000000000E+00  0.0000000000E+00  2.3448793398E+00
                       2.2752798906E+00  3.0551651611E+00  4.2382358573E+00
                       1.4970860628E+00  2.0102340820E+00  1.8698985056E+00
            xcart      6.0128717824E+00  2.9626299782E+00  1.3401707976E+00
                       1.1158667424E+00  6.6095873451E+00  1.3401707976E+00
                       1.6116937206E+00  2.1641251813E+00  5.8579495442E+00
                       5.5170448042E+00  7.4080921420E+00  5.6847515846E+00
                       3.4031257165E+00  8.8282933096E+00  3.9252459425E+00
                      -3.5458206338E-01  3.7825765419E+00  7.6174551863E+00
                       3.7256128083E+00  7.4392401371E-01  7.6174551863E+00
                       7.4833205882E+00  5.7896407814E+00  3.9252459425E+00
                       0.0000000000E+00  0.0000000000E+00  4.4311797668E+00
                       4.2996558688E+00  5.7734254452E+00  8.0091050568E+00
                       2.8290826560E+00  3.7987918781E+00  3.5335960720E+00
             xred      6.9049700000E-01  3.0950300000E-01  1.3877787808E-17
                       3.0950300000E-01  6.9049700000E-01  6.9388939039E-18
                       2.2608400000E-01  2.2608400000E-01  5.9261500000E-01
                       7.7391600000E-01  7.7391600000E-01  4.0738500000E-01
                       6.0483800000E-01  9.2228300000E-01  2.1198000000E-01
                       7.7717000000E-02  3.9516200000E-01  7.8802000000E-01
                       3.9516200000E-01  7.7717000000E-02  7.8802000000E-01
                       9.2228300000E-01  6.0483800000E-01  2.1198000000E-01
                       0.0000000000E+00  0.0000000000E+00  5.0000000000E-01
                       6.0314400000E-01  6.0314400000E-01  7.2130600000E-01
                       3.9685600000E-01  3.9685600000E-01  2.7869400000E-01
            znucl       21.00000   14.00000    8.00000

 chkinp: Checking input parameters for consistency.

== DATASET  1 ==================================================================
-   mpi_nproc: 1, omp_nthreads: -1 (-1 if OMP is not activated)

--- !DatasetInfo
iteration_state: {dtset: 1, }
dimensions: {natom: 11, nkpt: 2, mband: 45, nsppol: 1, nspinor: 1, nspden: 1, mpw: 11842, }
cutoff_energies: {ecut:  44.0, pawecutdg:  -1.0, }
electrons: {nelect:   7.20000000E+01, charge:   0.00000000E+00, occopt:   1.00000000E+00, tsmear:   1.00000000E-02, }
meta: {optdriver: 1, rfelfd: 2, }
...

 Real(R)+Recip(G) space primitive vectors, cartesian coordinates (Bohr,Bohr^-1):
 R(1)=  9.9909863  0.0000000  1.3401708  G(1)=  0.1000902  0.0299286  0.0000000
 R(2)= -2.8622477  9.5722173  1.3401708  G(2)=  0.0000000  0.1044690  0.0000000
 R(3)=  0.0000000  0.0000000  8.8623595  G(3)= -0.0151357 -0.0203237  0.1128368
 Unit cell volume ucvol=  8.4755966E+02 bohr^3
 Angles (23,13,12)=  8.23600634E+01  8.23600634E+01  1.05292361E+02 degrees

 getcut: wavevector=  0.0000  0.0000  0.0000  ngfft=  64  64  54
         ecut(hartree)=     44.000   => boxcut(ratio)=   2.04060

--- Pseudopotential description ------------------------------------------------
- pspini: atom type   1  psp file is /scratch/users/j/a/jabreu/pseudos/PBEsol/Sc.psp8
- pspatm: opening atomic psp file    /scratch/users/j/a/jabreu/pseudos/PBEsol/Sc.psp8
- Sc    ONCVPSP-3.3.0  r_core=   1.35663   1.35663   1.66161
- 21.00000  11.00000    180112                znucl, zion, pspdat
    8 -116133    2    4       600   0.00000   pspcod,pspxc,lmax,lloc,mmax,r2well
    5.99000000000000    5.00000000000000    0.00000000000000   rchrg,fchrg,qchrg
     nproj     2     2     2
     extension_switch     1
  pspatm : epsatm=   13.58981094
         --- l  ekb(1:nproj) -->
             0   10.810997    0.948773
             1    2.871172    0.364831
             2   -4.789751   -1.321945
 pspatm: atomic psp has been read  and splines computed

- pspini: atom type   2  psp file is /scratch/users/j/a/jabreu/pseudos/PBEsol/Si.psp8
- pspatm: opening atomic psp file    /scratch/users/j/a/jabreu/pseudos/PBEsol/Si.psp8
- Si    ONCVPSP-3.3.0  r_core=   1.60303   1.72197   1.91712
- 14.00000   4.00000    180112                znucl, zion, pspdat
    8 -116133    2    4       600   0.00000   pspcod,pspxc,lmax,lloc,mmax,r2well
    5.99000000000000    4.00000000000000    0.00000000000000   rchrg,fchrg,qchrg
     nproj     2     2     2
     extension_switch     1
  pspatm : epsatm=    7.86468782
         --- l  ekb(1:nproj) -->
             0    5.384426    0.843824
             1    2.663259    0.615854
             2   -2.267219   -0.458043
 pspatm: atomic psp has been read  and splines computed

- pspini: atom type   3  psp file is /scratch/users/j/a/jabreu/pseudos/PBEsol/O.psp8
- pspatm: opening atomic psp file    /scratch/users/j/a/jabreu/pseudos/PBEsol/O.psp8
- O     ONCVPSP-3.3.0  r_core=   1.35509   1.45563   1.26150
-  8.00000   6.00000    180112                znucl, zion, pspdat
    8 -116133    2    4       600   0.00000   pspcod,pspxc,lmax,lloc,mmax,r2well
    5.99000000000000    4.00000000000000    0.00000000000000   rchrg,fchrg,qchrg
     nproj     2     2     1
     extension_switch     1
  pspatm : epsatm=    6.22910522
         --- l  ekb(1:nproj) -->
             0    6.050032    0.820363
             1   -4.739617   -1.153841
             2   -1.335834
 pspatm: atomic psp has been read  and splines computed

   6.22891685E+03                                ecore*ucvol(ha*bohr**3)

 ==>  initialize data related to q vector <==

 The list of irreducible perturbations for this q vector is:
    1)    idir= 1    ipert=  12
    2)    idir= 2    ipert=  12
    3)    idir= 3    ipert=  12

 Perturbation wavevector (in red.coord.)   0.000000  0.000000  0.000000
 Perturbation : derivative vs k along direction   1

 dfpt_looppert : COMMENT -
  In a d/dk calculation, iscf is set to -3 automatically.
 The set of symmetries contains only one element for this perturbation.
 symkpt : not enough symmetry to change the number of k points.

 Initialisation of the first-order wave-functions :
  ireadwf=   0

--- !BeginCycle
iteration_state: {dtset: 1, }
solver: {iscf: 7, nstep: 2000, nline: 4, wfoptalg: 0, }
tolerances: {tolwfr: 1.00E-20, }
...

     iter   2DEtotal(Ha)        deltaE(Ha) residm    vres2
-ETOT  1  -30.301880957661     -3.030E+01 4.595E-02 0.000E+00
 ETOT  2  -30.434217821872     -1.323E-01 5.328E-03 0.000E+00
 ETOT  3  -30.440475793769     -6.258E-03 1.209E-03 0.000E+00
 ETOT  4  -30.440898998330     -4.232E-04 3.765E-04 0.000E+00
 ETOT  5  -30.440933847820     -3.485E-05 1.752E-04 0.000E+00
 ETOT  6  -30.440936940268     -3.092E-06 6.476E-05 0.000E+00
[...]
   0.00000   -0.00000    0.00000    0.00002    0.00273
 prteigrs : prtvol=0 or 1, do not print more k-points.

 Eight components of 2nd-order total energy (hartree) are
 1,2,3: 0th-order hamiltonian combined with 1st-order wavefunctions
     kin0=   5.12258167E+01 eigvalue=   1.18774183E-01  local=  -2.43675101E+01
 4,5,6: 1st-order hamiltonian combined with 1st and 0th-order wfs
     kin1=  -6.26085969E+01  Hartree=   0.00000000E+00     xc=   0.00000000E+00
 7,8,9: eventually, occupation + non-local contributions
    edocc=   6.13405310E+00     enl0=  -2.67019661E+00   enl1=   1.72672242E+00
 1-9 gives the relaxation energy (to be shifted if some occ is /=2.0)
   erelax=  -3.04409373E+01
  No Ewald or frozen-wf contrib.: the relaxation energy is the total one
 2DEtotal=   -0.3044093726E+02 Ha. Also 2DEtotal=   -0.828340028872E+03 eV
    (  non-var. 2DEtotal :   -3.0440937261E+01 Ha)

 Perturbation wavevector (in red.coord.)   0.000000  0.000000  0.000000
 Perturbation : derivative vs k along direction   2
 The set of symmetries contains only one element for this perturbation.
 symkpt : not enough symmetry to change the number of k points.

[...]

 Perturbation wavevector (in red.coord.)   0.000000  0.000000  0.000000
 Perturbation : derivative vs k along direction   3
 The set of symmetries contains only one element for this perturbation.
 symkpt : not enough symmetry to change the number of k points.

 Initialisation of the first-order wave-functions :
  ireadwf=   0

--- !BeginCycle
iteration_state: {dtset: 1, }
solver: {iscf: 7, nstep: 2000, nline: 4, wfoptalg: 0, }
tolerances: {tolwfr: 1.00E-20, }
...

     iter   2DEtotal(Ha)        deltaE(Ha) residm    vres2
-ETOT  1  -36.491998495478     -3.649E+01 5.103E-02 0.000E+00
 ETOT  2  -36.627011949056     -1.350E-01 5.244E-03 0.000E+00
 ETOT  3  -36.631153689566     -4.142E-03 2.394E-04 0.000E+00
 ETOT  4  -36.631375155704     -2.215E-04 5.332E-05 0.000E+00
 ETOT  5  -36.631391222919     -1.607E-05 1.992E-05 0.000E+00
 ETOT  6  -36.631392447900     -1.225E-06 6.303E-06 0.000E+00
 ETOT  7  -36.631392547249     -9.935E-08 2.241E-06 0.000E+00
 ETOT  8  -36.631392555474     -8.225E-09 8.146E-07 0.000E+00
 ETOT  9  -36.631392556172     -6.985E-10 3.526E-07 0.000E+00
 ETOT 10  -36.631392556233     -6.040E-11 1.404E-07 0.000E+00
 ETOT 11  -36.631392556238     -5.365E-12 8.803E-08 0.000E+00
 ETOT 12  -36.631392556239     -4.334E-13 3.397E-08 0.000E+00
 ETOT 13  -36.631392556239     -7.816E-14 2.207E-08 0.000E+00
 ETOT 14  -36.631392556239     -7.105E-15 8.200E-09 0.000E+00
 ETOT 15  -36.631392556239      2.842E-14 5.551E-09 0.000E+00
 ETOT 16  -36.631392556239     -4.974E-14 1.987E-09 0.000E+00
 ETOT 17  -36.631392556239      3.553E-14 1.399E-09 0.000E+00
 ETOT 18  -36.631392556239      1.421E-14 4.855E-10 0.000E+00
 ETOT 19  -36.631392556239      0.000E+00 3.536E-10 0.000E+00
 ETOT 20  -36.631392556239     -7.105E-15 1.200E-10 0.000E+00
 ETOT 21  -36.631392556239      0.000E+00 8.950E-11 0.000E+00
 ETOT 22  -36.631392556239      0.000E+00 3.003E-11 0.000E+00
 ETOT 23  -36.631392556239      0.000E+00 2.270E-11 0.000E+00
 ETOT 24  -36.631392556239      0.000E+00 7.588E-12 0.000E+00
 ETOT 25  -36.631392556239      0.000E+00 5.768E-12 0.000E+00
 ETOT 26  -36.631392556239      0.000E+00 1.934E-12 0.000E+00
 ETOT 27  -36.631392556239      0.000E+00 1.469E-12 0.000E+00
 ETOT 28  -36.631392556239      0.000E+00 4.961E-13 0.000E+00
 ETOT 29  -36.631392556239      0.000E+00 3.753E-13 0.000E+00
 ETOT 30  -36.631392556239      0.000E+00 1.279E-13 0.000E+00
 ETOT 31  -36.631392556239      7.105E-15 9.612E-14 0.000E+00
 ETOT 32  -36.631392556239     -7.105E-15 3.310E-14 0.000E+00
 ETOT 33  -36.631392556239      7.105E-15 2.468E-14 0.000E+00
 ETOT 34  -36.631392556239     -7.105E-15 8.590E-15 0.000E+00
 ETOT 35  -36.631392556239      0.000E+00 6.351E-15 0.000E+00
 ETOT 36  -36.631392556239     -1.421E-14 2.233E-15 0.000E+00
 ETOT 37  -36.631392556239      2.132E-14 1.638E-15 0.000E+00
 ETOT 38  -36.631392556239     -7.105E-15 5.810E-16 0.000E+00
 ETOT 39  -36.631392556239      0.000E+00 4.229E-16 0.000E+00
 ETOT 40  -36.631392556239      0.000E+00 1.513E-16 0.000E+00
 ETOT 41  -36.631392556239      0.000E+00 1.094E-16 0.000E+00
 ETOT 42  -36.631392556239      0.000E+00 3.942E-17 0.000E+00
 ETOT 43  -36.631392556239      0.000E+00 2.832E-17 0.000E+00
 ETOT 44  -36.631392556239      0.000E+00 1.027E-17 0.000E+00
 ETOT 45  -36.631392556239      0.000E+00 7.339E-18 0.000E+00
 ETOT 46  -36.631392556239      0.000E+00 2.677E-18 0.000E+00
 ETOT 47  -36.631392556239      0.000E+00 1.903E-18 0.000E+00
 ETOT 48  -36.631392556239      0.000E+00 6.975E-19 0.000E+00
 ETOT 49  -36.631392556239      0.000E+00 4.938E-19 0.000E+00
 ETOT 50  -36.631392556239      0.000E+00 1.818E-19 0.000E+00
 ETOT 51  -36.631392556239      0.000E+00 1.282E-19 0.000E+00
 ETOT 52  -36.631392556239      0.000E+00 4.736E-20 0.000E+00
 ETOT 53  -36.631392556239      0.000E+00 3.330E-20 0.000E+00
 ETOT 54  -36.631392556239      0.000E+00 1.234E-20 0.000E+00
 ETOT 55  -36.631392556239      0.000E+00 9.830E-21 0.000E+00

 At SCF step   55   max residual=  9.83E-21 < tolwfr=  1.00E-20 =>converged.

 ----iterations are completed or convergence reached----

 dfpt_looppert: DFPT cycle converged with prtwf=-1. Will skip output of the 1st-order WFK file.
 dfpt_looppert : ek2=    7.6031323381E+01
          f-sum rule ratio=    9.9245668021E-01
 prteigrs : about to open file /scratch/users/j/a/jabreu/flow_simple_11atoms/flow/w225/t1/tmpdata/tmp_1WF1_EIG
 Expectation of eigenvalue derivatives (hartree) for nkpt=   2  k points:
  (in case of degenerate eigenvalues, averaged derivative)
 kpt#   1, nband= 45, wtk=  0.50000, kpt=  0.0000  0.0000  0.0000 (reduced coord)
   0.00000    0.00000    0.00000    0.00000   -0.00000    0.00000   -0.00000    0.00000
   0.00000    0.00000    0.00000    0.00000   -0.00000   -0.00000    0.00000    0.00000
  -0.00000    0.00000   -0.00000   -0.00000   -0.00000    0.00000    0.00000    0.00000
  -0.00000   -0.00000    0.00000   -0.00000   -0.00000    0.00000   -0.00000    0.00000
  -0.00000    0.00000   -0.00000    0.00000   -0.00000    0.00000   -0.00000   -0.00000
   0.00000    0.00000   -0.00000    0.00003   -0.00045
 prteigrs : prtvol=0 or 1, do not print more k-points.

 Eight components of 2nd-order total energy (hartree) are
 1,2,3: 0th-order hamiltonian combined with 1st-order wavefunctions
     kin0=   6.25118837E+01 eigvalue=   9.43449225E-02  local=  -2.94299724E+01
 4,5,6: 1st-order hamiltonian combined with 1st and 0th-order wfs
     kin1=  -7.54577948E+01  Hartree=   0.00000000E+00     xc=   0.00000000E+00
 7,8,9: eventually, occupation + non-local contributions
    edocc=   6.84143979E+00     enl0=  -3.38630344E+00   enl1=   2.19500968E+00
 1-9 gives the relaxation energy (to be shifted if some occ is /=2.0)
   erelax=  -3.66313926E+01
  No Ewald or frozen-wf contrib.: the relaxation energy is the total one
 2DEtotal=   -0.3663139256E+02 Ha. Also 2DEtotal=   -0.996790884174E+03 eV
    (  non-var. 2DEtotal :   -3.6631392556E+01 Ha)

 CALCULATION OF EFFECTIVE MASSES
 NOTE : Additional infos (eff. mass eigenvalues, eigenvectors and, if degenerate, average mass) are available in stdout.

--- !WARNING
src_file: m_efmas.F90
src_line: 0
message: |

    Band(s)    36,
    are not band extrema, but saddle points;
    the transport equivalent formalism breaks down in these conditions.
    The associated tensor(s) will therefore not be printed.
...

 K-point ( 0.000, 0.000, 0.000) | band =    36
 Effective mass tensor:
     *** SADDLE POINT: TRANSPORT EQV. EFF. MASS NOT DEFINED (see WARNING above) ***
 Angular average effective mass 1/(<1/m>)=  -3.1618950870
 Angular average effective mass for Frohlich model (<m**0.5>)**2= -13.5615451417
 Effective masses along directions: (cart. coord. / red. coord. -> eff. mass)
    1:   1.000000  0.000000  0.000000 /   0.961329 -0.275404  0.000000 ->  -8.5590790752
    2:   0.000000  1.000000  0.000000 /   0.000000  1.000000  0.000000 ->  -5.2343035854
    3:   0.000000  0.000000  1.000000 /   0.147877  0.147877  0.977888 ->  -1.5602675943
    4:   0.577350  0.577350  0.577350 /   0.687379  0.488344  0.537615 ->  -1.1884401772
    5:   0.000000  0.707107  0.707107 /   0.094903  0.772748  0.627578 ->  -1.2556947922
    6:   0.707107  0.000000  0.707107 /   0.783318 -0.105221  0.612651 ->  -1.5102100454
    7:   0.707107  0.707107  0.000000 /   0.830154  0.557534  0.000000 ->  -3.5967827991

 K-point ( 0.500,-0.500, 0.000) | band =    37
 Effective mass tensor:
              1.7010024078              0.0940450344              0.0079223661
              0.0940450344              1.7571912990              0.0106842139
              0.0079223661              0.0106842139              2.3413245769
 Effective mass tensor eigenvalues:
              1.6309451005              1.8269046925              2.3416684906
 Angular average effective mass 1/(<1/m>)=   1.8896908307
 Angular average effective mass for Frohlich model (<m**0.5>)**2=   1.9021861803
 Effective masses along directions: (cart. coord. / red. coord. -> eff. mass)
    1:   1.000000  0.000000  0.000000 /   0.961329 -0.275404  0.000000 ->   1.6959460316
    2:   0.000000  1.000000  0.000000 /   0.000000  1.000000  0.000000 ->   1.7519468958
    3:   0.000000  0.000000  1.000000 /   0.147877  0.147877  0.977888 ->   2.3412277557
    4:   0.577350  0.577350  0.577350 /   0.687379  0.488344  0.537615 ->   1.9791919699
    5:   0.000000  0.707107  0.707107 /   0.094903  0.772748  0.627578 ->   2.0142529771
    6:   0.707107  0.000000  0.707107 /   0.783318 -0.105221  0.612651 ->   1.9742064271
    7:   0.707107  0.707107  0.000000 /   0.830154  0.557534  0.000000 ->   1.8225855951

 END OF EFFECTIVE MASSES SECTION

 ---- first-order wavefunction calculations are completed ----

 Total localisation tensor (bohr^2) in cartesian coordinates
  WARNING : still subject to testing - especially symmetries.
      direction              matrix element
   alpha     beta       real part   imaginary part
     1        1       0.7543415697    0.0000000000
     1        2      -0.1913443370    0.0000000000
     1        3       0.0667217348    0.0000000000
     2        1      -0.1913443370    0.0000000000
     2        2       0.6399130127    0.0000000000
     2        3       0.0895918577    0.0000000000
     3        1       0.0667217348    0.0000000000
     3        2       0.0895918577    0.0000000000
     3        3       0.6394159250    0.0000000000

 respfn : d/dk was computed, but no 2DTE, so no DDB output.

== END DATASET(S) ==============================================================

 -outvars: echo values of variables after computation  --------
            acell      1.0000000000E+00  1.0000000000E+00  1.0000000000E+00 Bohr
              amu      4.49559100E+01  2.80855000E+01  1.59994000E+01
             ecut      4.40000000E+01 Hartree
           etotal     -3.6631392556E+01
            fcart      0.0000000000E+00  0.0000000000E+00  0.0000000000E+00
                       0.0000000000E+00  0.0000000000E+00  0.0000000000E+00
                       0.0000000000E+00  0.0000000000E+00  0.0000000000E+00
                       0.0000000000E+00  0.0000000000E+00  0.0000000000E+00
                       0.0000000000E+00  0.0000000000E+00  0.0000000000E+00
                       0.0000000000E+00  0.0000000000E+00  0.0000000000E+00
                       0.0000000000E+00  0.0000000000E+00  0.0000000000E+00
                       0.0000000000E+00  0.0000000000E+00  0.0000000000E+00
                       0.0000000000E+00  0.0000000000E+00  0.0000000000E+00
                       0.0000000000E+00  0.0000000000E+00  0.0000000000E+00
                       0.0000000000E+00  0.0000000000E+00  0.0000000000E+00
-          fftalg         512
           irdden           1
           irdwfk           1
           istwfk        1    0
              ixc     -116133
              kpt      0.00000000E+00  0.00000000E+00  0.00000000E+00
                       5.00000000E-01 -5.00000000E-01  0.00000000E+00
           kptopt           0
P           mkmem           2
P          mkqmem           2
P          mk1mem           2
            natom          11
            nband          45
           nbdbuf           4
            ngfft          64      64      54
             nkpt           2
            nstep        2000
             nsym           4
           ntypat           3
              occ      2.000000  2.000000  2.000000  2.000000  2.000000  2.000000
                       2.000000  2.000000  2.000000  2.000000  2.000000  2.000000
                       2.000000  2.000000  2.000000  2.000000  2.000000  2.000000
                       2.000000  2.000000  2.000000  2.000000  2.000000  2.000000
                       2.000000  2.000000  2.000000  2.000000  2.000000  2.000000
                       2.000000  2.000000  2.000000  2.000000  2.000000  2.000000
                       0.000000  0.000000  0.000000  0.000000  0.000000  0.000000
                       0.000000  0.000000  0.000000
        optdriver           1
            prtwf          -1
            rfdir           1       1       1
           rfelfd           2
            rprim      9.9909862695E+00  0.0000000000E+00  1.3401707976E+00
                      -2.8622477447E+00  9.5722173233E+00  1.3401707976E+00
                       0.0000000000E+00  0.0000000000E+00  8.8623595336E+00
          spgroup          12
           strten      0.0000000000E+00  0.0000000000E+00  0.0000000000E+00
                       0.0000000000E+00  0.0000000000E+00  0.0000000000E+00
           symrel      1  0  0   0  1  0   0  0  1      -1  0  0   0 -1  0   0  0 -1
                       0 -1  0  -1  0  0   0  0 -1       0  1  0   1  0  0   0  0  1
           tolwfr      1.00000000E-20
            typat      1  1  2  2  3  3  3  3  3  3  3
           useylm           1
              wtk        0.50000    0.50000
           xangst      3.1818747054E+00  1.5677562620E+00  7.0918784171E-01
                       5.9049124790E-01  3.4976429812E+00  7.0918784171E-01
                       8.5287158419E-01  1.1452057225E+00  3.0998933879E+00
                       2.9194943691E+00  3.9201935207E+00  3.0082409751E+00
                       1.8008565672E+00  4.6717316102E+00  2.0771506909E+00
                      -1.8763674652E-01  2.0016532957E+00  4.0309836720E+00
                       1.9715093862E+00  3.9366763298E-01  4.0309836720E+00
                       3.9600026998E+00  3.0637459474E+00  2.0771506909E+00
                       0.0000000000E+00  0.0000000000E+00  2.3448793398E+00
                       2.2752798906E+00  3.0551651611E+00  4.2382358573E+00
                       1.4970860628E+00  2.0102340820E+00  1.8698985056E+00
            xcart      6.0128717824E+00  2.9626299782E+00  1.3401707976E+00
                       1.1158667424E+00  6.6095873451E+00  1.3401707976E+00
                       1.6116937206E+00  2.1641251813E+00  5.8579495442E+00
                       5.5170448042E+00  7.4080921420E+00  5.6847515846E+00
                       3.4031257165E+00  8.8282933096E+00  3.9252459425E+00
                      -3.5458206338E-01  3.7825765419E+00  7.6174551863E+00
                       3.7256128083E+00  7.4392401371E-01  7.6174551863E+00
                       7.4833205882E+00  5.7896407814E+00  3.9252459425E+00
                       0.0000000000E+00  0.0000000000E+00  4.4311797668E+00
                       4.2996558688E+00  5.7734254452E+00  8.0091050568E+00
                       2.8290826560E+00  3.7987918781E+00  3.5335960720E+00
             xred      6.9049700000E-01  3.0950300000E-01  1.3877787808E-17
                       3.0950300000E-01  6.9049700000E-01  6.9388939039E-18
                       2.2608400000E-01  2.2608400000E-01  5.9261500000E-01
                       7.7391600000E-01  7.7391600000E-01  4.0738500000E-01
                       6.0483800000E-01  9.2228300000E-01  2.1198000000E-01
                       7.7717000000E-02  3.9516200000E-01  7.8802000000E-01
                       3.9516200000E-01  7.7717000000E-02  7.8802000000E-01
                       9.2228300000E-01  6.0483800000E-01  2.1198000000E-01
                       0.0000000000E+00  0.0000000000E+00  5.0000000000E-01
                       6.0314400000E-01  6.0314400000E-01  7.2130600000E-01
                       3.9685600000E-01  3.9685600000E-01  2.7869400000E-01
            znucl       21.00000   14.00000    8.00000

- Timing analysis has been suppressed with timopt=0

 Suggested references for the acknowledgment of ABINIT usage.

 Calculation completed.
.Delivered   3 WARNINGs and   5 COMMENTs to log file.