.Version 9.5.1 of ABINIT

 ABINIT is a project of the Universite Catholique de Louvain,
 Corning Inc. and other collaborators, see ~abinit/doc/developers/contributors.txt .
 acknowledgments of the ABINIT effort.

.Starting date : Fri  7 May 2021.
- ( at 11h47 )

- input  file    -> /scratch/users/j/a/jabreu/flow_simple_7atoms/flow/w186/t1/run.abi
- output file    -> /scratch/users/j/a/jabreu/flow_simple_7atoms/flow/w186/t1/run.abo
- root for input  files -> /scratch/users/j/a/jabreu/flow_simple_7atoms/flow/w186/t1/indata/in
- root for output files -> /scratch/users/j/a/jabreu/flow_simple_7atoms/flow/w186/t1/outdata/out

 Symmetries : space group I4/m m m (#139); Bravais tI (body-center tetrag.)
     intxc =       0      iscf =       7    lmnmax =      18     lnmax =       6
     mgfft =     100  mpssoang =       3    mqgrid =    3001     natom =       7
  nloc_mem =       1    nspden =       1   nspinor =       1    nsppol =       1
      nsym =      16    n1xccc =    2501    ntypat =       3    occopt =       1
   xclevel =       2
-    mband =          47        mffmem =           1         mkmem =           2
-   mkqmem =           2        mk1mem =           2           mpw =       17010
      nfft =     1000000          nkpt =           2
  Rough estimation (10% accuracy) of disk space for files :

------------- Echo of variables that govern the present computation ------------
-
- outvars: echo of selected default values
-   iomode0 =  0 , fftalg0 =512 , wfoptalg0 =  0
-
- outvars: echo of global parameters not present in the input file
-  max_nthreads =    0
-
 -outvars: echo values of preprocessed input variables --------
            acell      1.0000000000E+00  1.0000000000E+00  1.0000000000E+00 Bohr
              amu      4.00780000E+01  2.08980370E+02  1.59994000E+01
        autoparal           1
             ecut      4.40000000E+01 Hartree
-          fftalg         512
           irdden           1
           irdwfk           1
           istwfk        1    0
              ixc     -116133
              kpt      0.00000000E+00  0.00000000E+00  0.00000000E+00
                       5.00000000E-01  5.00000000E-01 -5.00000000E-01
           kptopt           0
P           mkmem           2
P          mkqmem           2
P          mk1mem           2
            natom           7
            nband          47
           nbdbuf           4
            ngfft         100     100     100
             nkpt           2
            nstep        2000
             nsym          16
           ntypat           3
              occ      2.000000  2.000000  2.000000  2.000000  2.000000  2.000000
                       2.000000  2.000000  2.000000  2.000000  2.000000  2.000000
                       2.000000  2.000000  2.000000  2.000000  2.000000  2.000000
                       2.000000  2.000000  2.000000  2.000000  2.000000  2.000000
                       2.000000  2.000000  2.000000  2.000000  2.000000  2.000000
                       2.000000  2.000000  2.000000  2.000000  2.000000  2.000000
                       2.000000  2.000000  0.000000  0.000000  0.000000  0.000000
                       0.000000  0.000000  0.000000  0.000000  0.000000
        optdriver           1
            prtwf          -1
            rfdir           1       1       1
           rfelfd           2
            rprim      8.5478119760E+00  0.0000000000E+00 -1.4320183015E+01
                      -6.4999750360E-01  8.5230624087E+00 -1.4320183015E+01
                       0.0000000000E+00  0.0000000000E+00  1.6677311869E+01
          spgroup         139
           symrel      1  0  0   0  1  0   0  0  1      -1  0  0   0 -1  0   0  0 -1
                      -1 -1 -1   0  0  1   0  1  0       1  1  1   0  0 -1   0 -1  0
                       0  1  0   1  0  0  -1 -1 -1       0 -1  0  -1  0  0   1  1  1
                       0  0  1  -1 -1 -1   1  0  0       0  0 -1   1  1  1  -1  0  0
                       0  1  0   1  0  0   0  0  1       0 -1  0  -1  0  0   0  0 -1
                      -1 -1 -1   0  0  1   1  0  0       1  1  1   0  0 -1  -1  0  0
                       1  0  0   0  1  0  -1 -1 -1      -1  0  0   0 -1  0   1  1  1
                       0  0  1  -1 -1 -1   0  1  0       0  0 -1   1  1  1   0 -1  0
           tolwfr      1.00000000E-20
            typat      1  1  1  1  2  2  3
           useylm           1
              wtk        0.50000    0.50000
           xangst      1.4100268818E+00  1.5216547760E+00 -5.1132735708E+00
                      -1.7198193227E-01  2.2551051870E+00  6.2366943349E-01
                       2.7693165346E+00  2.9885555981E+00 -1.0042555378E+01
                       2.2616536405E+00  0.0000000000E+00  6.2366943349E-01
                       5.8907009586E-01  6.3570513181E-01 -2.1361837787E+00
                       3.5902733206E+00  3.8745052423E+00 -1.3019645170E+01
                       2.0896717082E+00  2.2551051870E+00 -7.5779144744E+00
            xcart      2.6645646467E+00  2.8755107954E+00 -9.6626866913E+00
                      -3.2499875180E-01  4.2615312043E+00  1.1785644267E+00
                       5.2332498257E+00  5.6475516133E+00 -1.8977679339E+01
                       4.2739059880E+00  0.0000000000E+00  1.1785644268E+00
                       1.1131811543E+00  1.2013086004E+00 -4.0368023112E+00
                       6.7846333181E+00  7.3217538083E+00 -2.4603563719E+01
                       3.9489072362E+00  4.2615312043E+00 -1.4320183015E+01
             xred      3.3738000000E-01  3.3738000000E-01  0.0000000000E+00
                       0.0000000000E+00  5.0000000000E-01  5.0000000000E-01
                       6.6262000000E-01  6.6262000000E-01 -2.2204460493E-16
                       5.0000000000E-01  0.0000000000E+00  5.0000000000E-01
                       1.4094800000E-01  1.4094800000E-01 -2.7755575616E-17
                       8.5905200000E-01  8.5905200000E-01  0.0000000000E+00
                       5.0000000000E-01  5.0000000000E-01 -5.5511151231E-17
            znucl       20.00000   83.00000    8.00000

 chkinp: Checking input parameters for consistency.

== DATASET  1 ==================================================================
-   mpi_nproc: 1, omp_nthreads: -1 (-1 if OMP is not activated)

--- !DatasetInfo
iteration_state: {dtset: 1, }
dimensions: {natom: 7, nkpt: 2, mband: 47, nsppol: 1, nspinor: 1, nspden: 1, mpw: 17010, }
cutoff_energies: {ecut:  44.0, pawecutdg:  -1.0, }
electrons: {nelect:   7.60000000E+01, charge:   0.00000000E+00, occopt:   1.00000000E+00, tsmear:   1.00000000E-02, }
meta: {optdriver: 1, rfelfd: 2, }
...

 Real(R)+Recip(G) space primitive vectors, cartesian coordinates (Bohr,Bohr^-1):
 R(1)=  8.5478120  0.0000000-14.3201830  G(1)=  0.1169890  0.0089220  0.0000000
 R(2)= -0.6499975  8.5230624-14.3201830  G(2)=  0.0000000  0.1173287  0.0000000
 R(3)=  0.0000000  0.0000000 16.6773119  G(3)=  0.1004541  0.1084067  0.0599617
 Unit cell volume ucvol=  1.2150011E+03 bohr^3
 Angles (23,13,12)=  1.49166743E+02  1.49166743E+02  4.41659262E+01 degrees

 getcut: wavevector=  0.0000  0.0000  0.0000  ngfft= 100 100 100
         ecut(hartree)=     44.000   => boxcut(ratio)=   2.00810

--- Pseudopotential description ------------------------------------------------
- pspini: atom type   1  psp file is /scratch/users/j/a/jabreu/pseudos/PBEsol/Ca.psp8
- pspatm: opening atomic psp file    /scratch/users/j/a/jabreu/pseudos/PBEsol/Ca.psp8
- Ca    ONCVPSP-3.3.0  r_core=   1.45885   1.45885   1.85192
- 20.00000  10.00000    180112                znucl, zion, pspdat
    8 -116133    2    4       400   0.00000   pspcod,pspxc,lmax,lloc,mmax,r2well
    3.99000000000000    6.00000000000000    0.00000000000000   rchrg,fchrg,qchrg
     nproj     2     2     2
     extension_switch     1
  pspatm : epsatm=   12.46045226
         --- l  ekb(1:nproj) -->
             0   10.054847    0.973777
             1    2.998958    0.458102
             2   -3.447298   -1.091650
 pspatm: atomic psp has been read  and splines computed

- pspini: atom type   2  psp file is /scratch/users/j/a/jabreu/pseudos/PBEsol/Bi.psp8
- pspatm: opening atomic psp file    /scratch/users/j/a/jabreu/pseudos/PBEsol/Bi.psp8
- Bi    ONCVPSP-3.3.0  r_core=   2.42776   2.51622   2.10397
- 83.00000  15.00000    180112                znucl, zion, pspdat
    8 -116133    2    4       600   0.00000   pspcod,pspxc,lmax,lloc,mmax,r2well
    5.99000000000000    6.00000000000000    0.00000000000000   rchrg,fchrg,qchrg
     nproj     2     2     2
     extension_switch     1
  pspatm : epsatm=   42.90078186
         --- l  ekb(1:nproj) -->
             0    6.017688    0.961606
             1    4.379371    0.528498
             2   -3.458170   -0.753782
 pspatm: atomic psp has been read  and splines computed

- pspini: atom type   3  psp file is /scratch/users/j/a/jabreu/pseudos/PBEsol/O.psp8
- pspatm: opening atomic psp file    /scratch/users/j/a/jabreu/pseudos/PBEsol/O.psp8
- O     ONCVPSP-3.3.0  r_core=   1.35509   1.45563   1.26150
-  8.00000   6.00000    180112                znucl, zion, pspdat
    8 -116133    2    4       600   0.00000   pspcod,pspxc,lmax,lloc,mmax,r2well
    5.99000000000000    4.00000000000000    0.00000000000000   rchrg,fchrg,qchrg
     nproj     2     2     1
     extension_switch     1
  pspatm : epsatm=    6.22910522
         --- l  ekb(1:nproj) -->
             0    6.050032    0.820363
             1   -4.739617   -1.153841
             2   -1.335834
 pspatm: atomic psp has been read  and splines computed

   1.07823083E+04                                ecore*ucvol(ha*bohr**3)

-inwffil : will read wavefunctions from disk file /scratch/users/j/a/jabreu/flow_simple_7atoms/flow/w186/t1/indata/in_WFK

 ==>  initialize data related to q vector <==

 The list of irreducible perturbations for this q vector is:
    1)    idir= 1    ipert=   8
    2)    idir= 2    ipert=   8
    3)    idir= 3    ipert=   8

 Perturbation wavevector (in red.coord.)   0.000000  0.000000  0.000000
 Perturbation : derivative vs k along direction   1

 dfpt_looppert : COMMENT -
  In a d/dk calculation, iscf is set to -3 automatically.
 The set of symmetries contains only one element for this perturbation.
 symkpt : not enough symmetry to change the number of k points.

[...]

 Initialisation of the first-order wave-functions :
  ireadwf=   0

--- !BeginCycle
iteration_state: {dtset: 1, }
solver: {iscf: 7, nstep: 2000, nline: 4, wfoptalg: 0, }
tolerances: {tolwfr: 1.00E-20, }
...

     iter   2DEtotal(Ha)        deltaE(Ha) residm    vres2
-ETOT  1  -77.414458293752     -7.741E+01 1.653E-01 0.000E+00
 ETOT  2  -77.977965687012     -5.635E-01 2.937E-02 0.000E+00
 ETOT  3  -78.024253357557     -4.629E-02 9.599E-03 0.000E+00
 ETOT  4  -78.029544171623     -5.291E-03 1.584E-03 0.000E+00
 ETOT  5  -78.030239820048     -6.956E-04 7.368E-04 0.000E+00
 ETOT  6  -78.030338056570     -9.824E-05 1.663E-04 0.000E+00
 ETOT  7  -78.030352628868     -1.457E-05 9.400E-05 0.000E+00
 ETOT  8  -78.030354848847     -2.220E-06 3.138E-05 0.000E+00
 ETOT  9  -78.030355203790     -3.549E-07 1.843E-05 0.000E+00
 ETOT 10  -78.030355261464     -5.767E-08 7.937E-06 0.000E+00
[...]
 ETOT 11  -146.55991950010     -1.027E-08 2.331E-04 0.000E+00
 ETOT 12  -146.55991950179     -1.689E-09 8.878E-05 0.000E+00
 ETOT 13  -146.55991950207     -2.821E-10 6.654E-05 0.000E+00
 ETOT 14  -146.55991950212     -4.769E-11 2.472E-05 0.000E+00
 ETOT 15  -146.55991950212     -8.242E-12 1.917E-05 0.000E+00
 ETOT 16  -146.55991950213     -1.194E-12 6.982E-06 0.000E+00
 ETOT 17  -146.55991950213     -3.979E-13 5.546E-06 0.000E+00
 ETOT 18  -146.55991950213     -2.274E-13 1.989E-06 0.000E+00
 ETOT 19  -146.55991950213      3.411E-13 1.609E-06 0.000E+00
 ETOT 20  -146.55991950213      0.000E+00 5.700E-07 0.000E+00
 ETOT 21  -146.55991950213     -1.705E-13 4.670E-07 0.000E+00
 ETOT 22  -146.55991950213     -5.684E-14 1.640E-07 0.000E+00
 ETOT 23  -146.55991950213      1.137E-13 1.357E-07 0.000E+00
 ETOT 24  -146.55991950213      1.137E-13 4.728E-08 0.000E+00
 ETOT 25  -146.55991950213     -5.684E-14 3.943E-08 0.000E+00
 ETOT 26  -146.55991950213      1.137E-13 1.366E-08 0.000E+00
 ETOT 27  -146.55991950213      8.527E-14 1.146E-08 0.000E+00
 ETOT 28  -146.55991950213     -2.842E-14 3.950E-09 0.000E+00
 ETOT 29  -146.55991950213      2.842E-14 3.333E-09 0.000E+00
 ETOT 30  -146.55991950213     -8.527E-14 1.144E-09 0.000E+00
 ETOT 31  -146.55991950213      2.842E-14 9.693E-10 0.000E+00
 ETOT 32  -146.55991950213      2.842E-14 3.313E-10 0.000E+00
 ETOT 33  -146.55991950213      0.000E+00 2.819E-10 0.000E+00
 ETOT 34  -146.55991950213      0.000E+00 9.604E-11 0.000E+00
 ETOT 35  -146.55991950213      5.684E-14 8.197E-11 0.000E+00
 ETOT 36  -146.55991950213     -1.137E-13 2.785E-11 0.000E+00
 ETOT 37  -146.55991950213      8.527E-14 2.384E-11 0.000E+00
 ETOT 38  -146.55991950213     -2.842E-14 8.080E-12 0.000E+00
 ETOT 39  -146.55991950213      5.684E-14 6.934E-12 0.000E+00
 ETOT 40  -146.55991950213      0.000E+00 2.345E-12 0.000E+00
 ETOT 41  -146.55991950213     -2.842E-14 2.017E-12 0.000E+00
 ETOT 42  -146.55991950213      5.684E-14 6.806E-13 0.000E+00
 ETOT 43  -146.55991950213     -2.842E-14 5.867E-13 0.000E+00
 ETOT 44  -146.55991950213      0.000E+00 1.976E-13 0.000E+00
 ETOT 45  -146.55991950213     -2.842E-14 1.707E-13 0.000E+00
 ETOT 46  -146.55991950213      2.842E-14 5.741E-14 0.000E+00
 ETOT 47  -146.55991950213      0.000E+00 4.965E-14 0.000E+00
 ETOT 48  -146.55991950213      0.000E+00 1.668E-14 0.000E+00
 ETOT 49  -146.55991950213      0.000E+00 1.445E-14 0.000E+00
 ETOT 50  -146.55991950213      0.000E+00 4.847E-15 0.000E+00
 ETOT 51  -146.55991950213      0.000E+00 4.203E-15 0.000E+00
 ETOT 52  -146.55991950213      0.000E+00 1.409E-15 0.000E+00
 ETOT 53  -146.55991950213      0.000E+00 1.223E-15 0.000E+00
 ETOT 54  -146.55991950213     -5.684E-14 4.098E-16 0.000E+00
 ETOT 55  -146.55991950213      0.000E+00 3.561E-16 0.000E+00
 ETOT 56  -146.55991950213      5.684E-14 1.192E-16 0.000E+00
 ETOT 57  -146.55991950213      0.000E+00 1.037E-16 0.000E+00
 ETOT 58  -146.55991950213     -5.684E-14 3.470E-17 0.000E+00
 ETOT 59  -146.55991950213      5.684E-14 3.022E-17 0.000E+00
 ETOT 60  -146.55991950213      0.000E+00 1.010E-17 0.000E+00
 ETOT 61  -146.55991950213     -5.684E-14 8.815E-18 0.000E+00
 ETOT 62  -146.55991950213      0.000E+00 2.943E-18 0.000E+00
 ETOT 63  -146.55991950213      0.000E+00 2.574E-18 0.000E+00
 ETOT 64  -146.55991950213      5.684E-14 8.580E-19 0.000E+00
 ETOT 65  -146.55991950213     -5.684E-14 7.531E-19 0.000E+00
 ETOT 66  -146.55991950213      5.684E-14 2.504E-19 0.000E+00
 ETOT 67  -146.55991950213      0.000E+00 2.208E-19 0.000E+00
 ETOT 68  -146.55991950213     -2.842E-14 7.321E-20 0.000E+00
 ETOT 69  -146.55991950213     -2.842E-14 6.489E-20 0.000E+00
 ETOT 70  -146.55991950213      5.684E-14 2.144E-20 0.000E+00
 ETOT 71  -146.55991950213     -2.842E-14 1.911E-20 0.000E+00
 ETOT 72  -146.55991950213     -2.842E-14 9.766E-21 0.000E+00

 At SCF step   72   max residual=  9.77E-21 < tolwfr=  1.00E-20 =>converged.

 ----iterations are completed or convergence reached----

 dfpt_looppert: DFPT cycle converged with prtwf=-1. Will skip output of the 1st-order WFK file.
 dfpt_looppert : ek2=    1.5264899538E+02
          f-sum rule ratio=    1.4575114585E+00
 prteigrs : about to open file /scratch/users/j/a/jabreu/flow_simple_7atoms/flow/w186/t1/tmpdata/tmp_1WF1_EIG
 Expectation of eigenvalue derivatives (hartree) for nkpt=   2  k points:
  (in case of degenerate eigenvalues, averaged derivative)
 kpt#   1, nband= 47, wtk=  0.50000, kpt=  0.0000  0.0000  0.0000 (reduced coord)
   0.00000   -0.00000    0.00000    0.00000    0.00000    0.00000   -0.00000   -0.00000
  -0.00000   -0.00000    0.00000    0.00000    0.00000   -0.00000    0.00000   -0.00000
   0.00000    0.00000    0.00000   -0.00000   -0.00000   -0.00000   -0.00000   -0.00000
  -0.00000   -0.00000    0.00000    0.00000    0.00000    0.00000   -0.00000   -0.00000
   0.00000    0.00000    0.00000   -0.00000    0.00000    0.00000   -0.00000   -0.00000
  -0.00000    0.00000   -0.00000   -0.00000   -0.00000    0.00000    0.00005
 prteigrs : prtvol=0 or 1, do not print more k-points.

 Eight components of 2nd-order total energy (hartree) are
 1,2,3: 0th-order hamiltonian combined with 1st-order wavefunctions
     kin0=   2.19515438E+02 eigvalue=   9.45507168E+00  local=  -1.36806438E+02
 4,5,6: 1st-order hamiltonian combined with 1st and 0th-order wfs
     kin1=  -2.22487660E+02  Hartree=   0.00000000E+00     xc=   0.00000000E+00
 7,8,9: eventually, occupation + non-local contributions
    edocc=   5.07149329E+01     enl0=   3.68091520E+00   enl1=  -7.06321791E+01
 1-9 gives the relaxation energy (to be shifted if some occ is /=2.0)
   erelax=  -1.46559920E+02
  No Ewald or frozen-wf contrib.: the relaxation energy is the total one
 2DEtotal=   -0.1465599195E+03 Ha. Also 2DEtotal=   -0.398809822806E+04 eV
    (  non-var. 2DEtotal :   -1.4655991950E+02 Ha)

 CALCULATION OF EFFECTIVE MASSES
 NOTE : Additional infos (eff. mass eigenvalues, eigenvectors and, if degenerate, average mass) are available in stdout.

 COMMENTS:
 - At k-point ( 0.000, 0.000, 0.000), bands    37 through    38
   are DEGENERATE (effective mass tensor is therefore not defined).
   See Section IIIB Eqs. (67)-(70) and Appendix E of PRB 93 205147 (2016).
 - Angular average effective mass for Frohlich model is to be averaged over degenerate bands. See later.
 - Associated theta integrals calculated with ntheta=   1000 points.

 K-point ( 0.000, 0.000, 0.000) | band =    37
 Transport equivalent effective mass tensor:
             -0.1206536099             -0.0414599345              0.1393227028
             -0.0414599345             -0.1269778226              0.1503533317
              0.1393227028              0.1503533317             -0.5874687052
 Transport equivalent effective mass tensor eigenvalues:
             -0.6706317528             -0.0822353713             -0.0822330136
 Angular average effective mass 1/(<1/m>)=  -0.1118068097
 Angular average effective mass for Frohlich model (<m**0.5>)**2=  -0.1328752543
 Effective masses along directions: (cart. coord. / red. coord. -> eff. mass)
    1:   1.000000  0.000000  0.000000 /   0.997121 -0.075824  0.000000 ->  -0.0759869577
    2:   0.000000  1.000000  0.000000 /   0.000000  1.000000  0.000000 ->  -0.0764791186
    3:   0.000000  0.000000  1.000000 /  -0.545846 -0.545846  0.635693 ->  -0.3436662379
    4:   0.577350  0.577350  0.577350 /  -0.307224 -0.343137  0.887621 ->  -0.0952810850
    5:   0.000000  0.707107  0.707107 /  -0.629919 -0.255005  0.733604 ->  -0.0903502858
    6:   0.707107  0.000000  0.707107 /  -0.249431 -0.646879  0.720646 ->  -0.0904790309
    7:   0.707107  0.707107  0.000000 /   0.735542  0.677479  0.000000 ->  -0.1034264961

 K-point ( 0.000, 0.000, 0.000) | band =    38
 Transport equivalent effective mass tensor:
             -0.5291917154             -0.0579408796              0.1947066878
             -0.0579408796             -0.5380328226              0.2101268238
              0.1947066878              0.2101268238             -1.1815793203
 Transport equivalent effective mass tensor eigenvalues:
             -1.2978037180             -0.4755030084             -0.4754971320
 Angular average effective mass 1/(<1/m>)=  -0.3618264875
 Angular average effective mass for Frohlich model (<m**0.5>)**2=  -0.3920528924
 Effective masses along directions: (cart. coord. / red. coord. -> eff. mass)
    1:   1.000000  0.000000  0.000000 /   0.997121 -0.075824  0.000000 ->  -0.5047120009
    2:   0.000000  1.000000  0.000000 /   0.000000  1.000000  0.000000 ->  -0.5185834133
    3:   0.000000  0.000000  1.000000 /  -0.545846 -0.545846  0.635693 ->  -0.4835149210
    4:   0.577350  0.577350  0.577350 /  -0.307224 -0.343137  0.887621 ->  -0.2076665716
    5:   0.000000  0.707107  0.707107 /  -0.629919 -0.255005  0.733604 ->  -0.4552879969
    6:   0.707107  0.000000  0.707107 /  -0.249431 -0.646879  0.720646 ->  -0.4899991283
    7:   0.707107  0.707107  0.000000 /   0.735542  0.677479  0.000000 ->  -0.2221535666

 Angular average effective mass for Frohlich model, averaged over degenerate bands.
 Value of     (<<m**0.5>>)**2 =     2.453527E-01
 Absolute Value of <<m**0.5>> =     4.953309E-01

 K-point ( 0.500, 0.500,-0.500) | band =    39
 Effective mass tensor:
              0.1982185974              0.0661252329             -0.2222031013
              0.0661252329              0.2083044630             -0.2397942986
             -0.2222031013             -0.2397942986              0.9427340563
 Effective mass tensor eigenvalues:
              0.1369442801              0.1369442805              1.0753685560
 Angular average effective mass 1/(<1/m>)=   0.1931198638
 Angular average effective mass for Frohlich model (<m**0.5>)**2=   0.2282031701
 Effective masses along directions: (cart. coord. / red. coord. -> eff. mass)
    1:   1.000000  0.000000  0.000000 /   0.997121 -0.075824  0.000000 ->   0.1452188242
    2:   0.000000  1.000000  0.000000 /   0.000000  1.000000  0.000000 ->   0.1466776342
    3:   0.000000  0.000000  1.000000 /  -0.545846 -0.545846  0.635693 ->   0.5462802852
    4:   0.577350  0.577350  0.577350 /  -0.307224 -0.343137  0.887621 ->   0.1434672428
    5:   0.000000  0.707107  0.707107 /  -0.629919 -0.255005  0.733604 ->   0.1679986422
    6:   0.707107  0.000000  0.707107 /  -0.249431 -0.646879  0.720646 ->   0.1704384511
    7:   0.707107  0.707107  0.000000 /   0.735542  0.677479  0.000000 ->   0.1561793411

 END OF EFFECTIVE MASSES SECTION

 ---- first-order wavefunction calculations are completed ----

 Total localisation tensor (bohr^2) in cartesian coordinates
  WARNING : still subject to testing - especially symmetries.
      direction              matrix element
   alpha     beta       real part   imaginary part
     1        1       5.2684722323    0.0000000000
     1        2      -0.3971713462    0.0000000000
     1        3      -8.1082330359    0.0000000000
     2        1      -0.3971713462    0.0000000000
     2        2       5.2078910337    0.0000000000
     2        3      -8.7501357082    0.0000000000
     3        1      -8.1082330359    0.0000000000
     3        2      -8.7501357082    0.0000000000
     3        3      67.9441600778    0.0000000000

 respfn : d/dk was computed, but no 2DTE, so no DDB output.

== END DATASET(S) ==============================================================

 -outvars: echo values of variables after computation  --------
            acell      1.0000000000E+00  1.0000000000E+00  1.0000000000E+00 Bohr
              amu      4.00780000E+01  2.08980370E+02  1.59994000E+01
        autoparal           1
             ecut      4.40000000E+01 Hartree
           etotal     -1.4655991950E+02
            fcart      0.0000000000E+00  0.0000000000E+00  0.0000000000E+00
                       0.0000000000E+00  0.0000000000E+00  0.0000000000E+00
                       0.0000000000E+00  0.0000000000E+00  0.0000000000E+00
                       0.0000000000E+00  0.0000000000E+00  0.0000000000E+00
                       0.0000000000E+00  0.0000000000E+00  0.0000000000E+00
                       0.0000000000E+00  0.0000000000E+00  0.0000000000E+00
                       0.0000000000E+00  0.0000000000E+00  0.0000000000E+00
-          fftalg         512
           irdden           1
           irdwfk           1
           istwfk        1    0
              ixc     -116133
              kpt      0.00000000E+00  0.00000000E+00  0.00000000E+00
                       5.00000000E-01  5.00000000E-01 -5.00000000E-01
           kptopt           0
P           mkmem           2
P          mkqmem           2
P          mk1mem           2
            natom           7
            nband          47
           nbdbuf           4
            ngfft         100     100     100
             nkpt           2
            nstep        2000
             nsym          16
           ntypat           3
              occ      2.000000  2.000000  2.000000  2.000000  2.000000  2.000000
                       2.000000  2.000000  2.000000  2.000000  2.000000  2.000000
                       2.000000  2.000000  2.000000  2.000000  2.000000  2.000000
                       2.000000  2.000000  2.000000  2.000000  2.000000  2.000000
                       2.000000  2.000000  2.000000  2.000000  2.000000  2.000000
                       2.000000  2.000000  2.000000  2.000000  2.000000  2.000000
                       2.000000  2.000000  0.000000  0.000000  0.000000  0.000000
                       0.000000  0.000000  0.000000  0.000000  0.000000
        optdriver           1
            prtwf          -1
            rfdir           1       1       1
           rfelfd           2
            rprim      8.5478119760E+00  0.0000000000E+00 -1.4320183015E+01
                      -6.4999750360E-01  8.5230624087E+00 -1.4320183015E+01
                       0.0000000000E+00  0.0000000000E+00  1.6677311869E+01
          spgroup         139
           strten      0.0000000000E+00  0.0000000000E+00  0.0000000000E+00
                       0.0000000000E+00  0.0000000000E+00  0.0000000000E+00
           symrel      1  0  0   0  1  0   0  0  1      -1  0  0   0 -1  0   0  0 -1
                      -1 -1 -1   0  0  1   0  1  0       1  1  1   0  0 -1   0 -1  0
                       0  1  0   1  0  0  -1 -1 -1       0 -1  0  -1  0  0   1  1  1
                       0  0  1  -1 -1 -1   1  0  0       0  0 -1   1  1  1  -1  0  0
                       0  1  0   1  0  0   0  0  1       0 -1  0  -1  0  0   0  0 -1
                      -1 -1 -1   0  0  1   1  0  0       1  1  1   0  0 -1  -1  0  0
                       1  0  0   0  1  0  -1 -1 -1      -1  0  0   0 -1  0   1  1  1
                       0  0  1  -1 -1 -1   0  1  0       0  0 -1   1  1  1   0 -1  0
           tolwfr      1.00000000E-20
            typat      1  1  1  1  2  2  3
           useylm           1
              wtk        0.50000    0.50000
           xangst      1.4100268818E+00  1.5216547760E+00 -5.1132735708E+00
                      -1.7198193227E-01  2.2551051870E+00  6.2366943349E-01
                       2.7693165346E+00  2.9885555981E+00 -1.0042555378E+01
                       2.2616536405E+00  0.0000000000E+00  6.2366943349E-01
                       5.8907009586E-01  6.3570513181E-01 -2.1361837787E+00
                       3.5902733206E+00  3.8745052423E+00 -1.3019645170E+01
                       2.0896717082E+00  2.2551051870E+00 -7.5779144744E+00
            xcart      2.6645646467E+00  2.8755107954E+00 -9.6626866913E+00
                      -3.2499875180E-01  4.2615312043E+00  1.1785644267E+00
                       5.2332498257E+00  5.6475516133E+00 -1.8977679339E+01
                       4.2739059880E+00  0.0000000000E+00  1.1785644268E+00
                       1.1131811543E+00  1.2013086004E+00 -4.0368023112E+00
                       6.7846333181E+00  7.3217538083E+00 -2.4603563719E+01
                       3.9489072362E+00  4.2615312043E+00 -1.4320183015E+01
             xred      3.3738000000E-01  3.3738000000E-01  0.0000000000E+00
                       0.0000000000E+00  5.0000000000E-01  5.0000000000E-01
                       6.6262000000E-01  6.6262000000E-01 -2.2204460493E-16
                       5.0000000000E-01  0.0000000000E+00  5.0000000000E-01
                       1.4094800000E-01  1.4094800000E-01 -2.7755575616E-17
                       8.5905200000E-01  8.5905200000E-01  0.0000000000E+00
                       5.0000000000E-01  5.0000000000E-01 -5.5511151231E-17
            znucl       20.00000   83.00000    8.00000

- Timing analysis has been suppressed with timopt=0

 Suggested references for the acknowledgment of ABINIT usage.

 Calculation completed.
.Delivered  14 WARNINGs and   9 COMMENTs to log file.