.Version 9.5.1 of ABINIT

 ABINIT is a project of the Universite Catholique de Louvain,
 Corning Inc. and other collaborators, see ~abinit/doc/developers/contributors.txt .
 acknowledgments of the ABINIT effort.

.Starting date : Tue 27 Apr 2021.
- ( at 18h30 )

- input  file    -> /scratch/users/j/a/jabreu/flow_simple_4atoms/flow/w177/t1/run.abi
- output file    -> /scratch/users/j/a/jabreu/flow_simple_4atoms/flow/w177/t1/run.abo
- root for input  files -> /scratch/users/j/a/jabreu/flow_simple_4atoms/flow/w177/t1/indata/in
- root for output files -> /scratch/users/j/a/jabreu/flow_simple_4atoms/flow/w177/t1/outdata/out

 Symmetries : space group P6_3 m c (#186); Bravais hP (primitive hexag.)
     intxc =       0      iscf =       7    lmnmax =      18     lnmax =       6
     mgfft =      72  mpssoang =       3    mqgrid =    3422     natom =       4
  nloc_mem =       1    nspden =       1   nspinor =       1    nsppol =       1
      nsym =      12    n1xccc =    2501    ntypat =       2    occopt =       1
   xclevel =       2
-    mband =          35        mffmem =           1         mkmem =           1
-   mkqmem =           1        mk1mem =           1           mpw =        6719
      nfft =      145800          nkpt =           1
  Rough estimation (10% accuracy) of disk space for files :

------------- Echo of variables that govern the present computation ------------
-
- outvars: echo of selected default values
-   iomode0 =  0 , fftalg0 =512 , wfoptalg0 =  0
-
- outvars: echo of global parameters not present in the input file
-  max_nthreads =    0
-
 -outvars: echo values of preprocessed input variables --------
            acell      1.0000000000E+00  1.0000000000E+00  1.0000000000E+00 Bohr
              amu      6.53900000E+01  3.20660000E+01
             ecut      4.20000000E+01 Hartree
-          fftalg         512
           irdden           1
           irdwfk           1
           istwfk        1
              ixc     -116133
           kptopt           0
P           mkmem           1
P          mkqmem           1
P          mk1mem           1
            natom           4
            nband          35
           nbdbuf           4
            ngfft          45      45      72
             nkpt           1
            nstep         100
             nsym          12
           ntypat           2
              occ      2.000000  2.000000  2.000000  2.000000  2.000000  2.000000
                       2.000000  2.000000  2.000000  2.000000  2.000000  2.000000
                       2.000000  2.000000  2.000000  2.000000  2.000000  2.000000
                       2.000000  2.000000  2.000000  2.000000  2.000000  2.000000
                       2.000000  2.000000  0.000000  0.000000  0.000000  0.000000
                       0.000000  0.000000  0.000000  0.000000  0.000000
        optdriver           1
            prtwf          -1
            rfdir           1       1       1
           rfelfd           2
            rprim      7.1453292434E+00  0.0000000000E+00  0.0000000000E+00
                      -3.5726646217E+00  6.1880366432E+00  0.0000000000E+00
                       0.0000000000E+00  0.0000000000E+00  1.1727942062E+01
          spgroup         186
           symrel      1  0  0   0  1  0   0  0  1       0  1  0   1  0  0   0  0  1
                       1  1  0  -1  0  0   0  0  1      -1  0  0   1  1  0   0  0  1
                       0  1  0  -1 -1  0   0  0  1      -1 -1  0   0  1  0   0  0  1
                      -1  0  0   0 -1  0   0  0  1       0 -1  0  -1  0  0   0  0  1
                      -1 -1  0   1  0  0   0  0  1       1  0  0  -1 -1  0   0  0  1
                       0 -1  0   1  1  0   0  0  1       1  1  0   0 -1  0   0  0  1
            tnons      0.0000000  0.0000000  0.0000000     0.0000000  0.0000000  0.5000000
                       0.0000000  0.0000000  0.5000000     0.0000000  0.0000000  0.0000000
                       0.0000000  0.0000000  0.0000000     0.0000000  0.0000000  0.5000000
                       0.0000000  0.0000000  0.5000000     0.0000000  0.0000000  0.0000000
                       0.0000000  0.0000000  0.0000000     0.0000000  0.0000000  0.5000000
                       0.0000000  0.0000000  0.5000000     0.0000000  0.0000000  0.0000000
           tolwfr      1.00000000E-20
            typat      1  1  2  2
           useylm           1
           xangst      1.8905726917E+00  1.0915226525E+00  6.2035902928E+00
                       0.0000000000E+00  2.1830453050E+00  3.1005104713E+00
                       1.8905726917E+00  1.0915226525E+00  3.8814191269E+00
                       0.0000000000E+00  2.1830453050E+00  7.7833930545E-01
            xcart      3.5726646217E+00  2.0626788811E+00  1.1723086694E+01
                       0.0000000000E+00  4.1253577621E+00  5.8591156630E+00
                       3.5726646217E+00  2.0626788811E+00  7.3348191568E+00
                       0.0000000000E+00  4.1253577621E+00  1.4708481258E+00
             xred      6.6666666667E-01  3.3333333333E-01  9.9958600000E-01
                       3.3333333333E-01  6.6666666667E-01  4.9958600000E-01
                       6.6666666667E-01  3.3333333333E-01  6.2541400000E-01
                       3.3333333333E-01  6.6666666667E-01  1.2541400000E-01
            znucl       30.00000   16.00000

 chkinp: Checking input parameters for consistency.

== DATASET  1 ==================================================================
-   mpi_nproc: 1, omp_nthreads: -1 (-1 if OMP is not activated)

--- !DatasetInfo
iteration_state: {dtset: 1, }
dimensions: {natom: 4, nkpt: 1, mband: 35, nsppol: 1, nspinor: 1, nspden: 1, mpw: 6719, }
cutoff_energies: {ecut:  42.0, pawecutdg:  -1.0, }
electrons: {nelect:   5.20000000E+01, charge:   0.00000000E+00, occopt:   1.00000000E+00, tsmear:   1.00000000E-02, }
meta: {optdriver: 1, rfelfd: 2, }
...

 Real(R)+Recip(G) space primitive vectors, cartesian coordinates (Bohr,Bohr^-1):
 R(1)=  7.1453292  0.0000000  0.0000000  G(1)=  0.1399516  0.0808011  0.0000000
 R(2)= -3.5726646  6.1880366  0.0000000  G(2)=  0.0000000  0.1616021  0.0000000
 R(3)=  0.0000000  0.0000000 11.7279421  G(3)=  0.0000000  0.0000000  0.0852665
 Unit cell volume ucvol=  5.1855752E+02 bohr^3
 Angles (23,13,12)=  9.00000000E+01  9.00000000E+01  1.20000000E+02 degrees

 getcut: wavevector=  0.0000  0.0000  0.0000  ngfft=  45  45  72
         ecut(hartree)=     42.000   => boxcut(ratio)=   2.10436

--- Pseudopotential description ------------------------------------------------
- pspini: atom type   1  psp file is /scratch/users/j/a/jabreu/pseudos/PBEsol/Zn.psp8
- pspatm: opening atomic psp file    /scratch/users/j/a/jabreu/pseudos/PBEsol/Zn.psp8
- Zn    ONCVPSP-3.3.0  r_core=   1.35823   1.66358   1.85211
- 30.00000  20.00000    180112                znucl, zion, pspdat
    8 -116133    2    4       600   0.00000   pspcod,pspxc,lmax,lloc,mmax,r2well
    5.99000000000000    2.50000000000000    0.00000000000000   rchrg,fchrg,qchrg
     nproj     2     2     2
     extension_switch     1
  pspatm : epsatm=   26.57343589
         --- l  ekb(1:nproj) -->
             0    2.830835   -1.519107
             1   -4.626739   -1.324150
             2   -6.948510   -2.555500
 pspatm: atomic psp has been read  and splines computed

- pspini: atom type   2  psp file is /scratch/users/j/a/jabreu/pseudos/PBEsol/S.psp8
- pspatm: opening atomic psp file    /scratch/users/j/a/jabreu/pseudos/PBEsol/S.psp8
- S     ONCVPSP-3.3.0  r_core=   1.45376   1.45376   1.61851
- 16.00000   6.00000    180112                znucl, zion, pspdat
    8 -116133    2    4       600   0.00000   pspcod,pspxc,lmax,lloc,mmax,r2well
    5.99000000000000    6.00000000000000    0.00000000000000   rchrg,fchrg,qchrg
     nproj     2     2     2
     extension_switch     1
  pspatm : epsatm=    8.71840985
         --- l  ekb(1:nproj) -->
             0    6.834532    0.579453
             1    3.282851    0.896984
             2   -3.496974   -0.974265
 pspatm: atomic psp has been read  and splines computed

   3.67035196E+03                                ecore*ucvol(ha*bohr**3)

-inwffil : will read wavefunctions from disk file /scratch/users/j/a/jabreu/flow_simple_4atoms/flow/w177/t1/indata/in_WFK

 ==>  initialize data related to q vector <==

 The list of irreducible perturbations for this q vector is:
    1)    idir= 1    ipert=   5
    2)    idir= 2    ipert=   5
    3)    idir= 3    ipert=   5

 Perturbation wavevector (in red.coord.)   0.000000  0.000000  0.000000
 Perturbation : derivative vs k along direction   1

 dfpt_looppert : COMMENT -
  In a d/dk calculation, iscf is set to -3 automatically.
 The set of symmetries contains only one element for this perturbation.
 symkpt : not enough symmetry to change the number of k points.

[...]

 Initialisation of the first-order wave-functions :
  ireadwf=   0

--- !BeginCycle
iteration_state: {dtset: 1, }
solver: {iscf: 7, nstep: 100, nline: 4, wfoptalg: 0, }
tolerances: {tolwfr: 1.00E-20, }
...

     iter   2DEtotal(Ha)        deltaE(Ha) residm    vres2
-ETOT  1  -86.769227698666     -8.677E+01 5.303E-02 0.000E+00
 ETOT  2  -86.830044273131     -6.082E-02 3.823E-04 0.000E+00
 ETOT  3  -86.830356070218     -3.118E-04 2.737E-06 0.000E+00
 ETOT  4  -86.830359165060     -3.095E-06 2.601E-08 0.000E+00
 ETOT  5  -86.830359203795     -3.874E-08 3.601E-10 0.000E+00
 ETOT  6  -86.830359204337     -5.419E-10 7.061E-12 0.000E+00
 ETOT  7  -86.830359204345     -8.228E-12 2.020E-13 0.000E+00
 ETOT  8  -86.830359204345     -1.705E-13 4.260E-15 0.000E+00
 ETOT  9  -86.830359204345      2.842E-14 1.262E-16 0.000E+00
 ETOT 10  -86.830359204345     -7.105E-14 2.801E-18 0.000E+00
 ETOT 11  -86.830359204345     -2.842E-14 8.802E-20 0.000E+00
 ETOT 12  -86.830359204345      0.000E+00 9.696E-21 0.000E+00

 At SCF step   12   max residual=  9.70E-21 < tolwfr=  1.00E-20 =>converged.

 ----iterations are completed or convergence reached----

 dfpt_looppert: DFPT cycle converged with prtwf=-1. Will skip output of the 1st-order WFK file.
 dfpt_looppert : ek2=    1.0722284403E+02
          f-sum rule ratio=    1.4885137278E+00
 prteigrs : about to open file /scratch/users/j/a/jabreu/flow_simple_4atoms/flow/w177/t1/tmpdata/tmp_1WF1_EIG
 Expectation of eigenvalue derivatives (hartree) for nkpt=   1  k points:
  (in case of degenerate eigenvalues, averaged derivative)
 kpt#   1, nband= 35, wtk=  1.00000, kpt=  0.0000  0.0000  0.0000 (reduced coord)
   0.00000   -0.00000    0.00000    0.00000    0.00000    0.00000    0.00000   -0.00000
   0.00000   -0.00000    0.00000   -0.00000   -0.00000   -0.00000   -0.00000    0.00000
   0.00000   -0.00000   -0.00000   -0.00000    0.00000   -0.00000   -0.00000    0.00000
   0.00000    0.00000   -0.00000   -0.00000    0.00000    0.00000    0.00000   -0.00000
  -0.00000    0.00002   -0.00001

 Eight components of 2nd-order total energy (hartree) are
 1,2,3: 0th-order hamiltonian combined with 1st-order wavefunctions
     kin0=   7.79077882E+01 eigvalue=   1.79464921E+00  local=  -2.78991948E+01
 4,5,6: 1st-order hamiltonian combined with 1st and 0th-order wfs
     kin1=  -1.59602675E+02  Hartree=   0.00000000E+00     xc=   0.00000000E+00
 7,8,9: eventually, occupation + non-local contributions
    edocc=   3.69154960E+01     enl0=  -1.88837937E+00   enl1=  -1.40580431E+01
 1-9 gives the relaxation energy (to be shifted if some occ is /=2.0)
   erelax=  -8.68303592E+01
  No Ewald or frozen-wf contrib.: the relaxation energy is the total one
 2DEtotal=   -0.8683035920E+02 Ha. Also 2DEtotal=   -0.236277423501E+04 eV
    (  non-var. 2DEtotal :   -8.6830359204E+01 Ha)

 Perturbation wavevector (in red.coord.)   0.000000  0.000000  0.000000
 Perturbation : derivative vs k along direction   2
 The set of symmetries contains only one element for this perturbation.
 symkpt : not enough symmetry to change the number of k points.

[...]

 Perturbation wavevector (in red.coord.)   0.000000  0.000000  0.000000
 Perturbation : derivative vs k along direction   3
 The set of symmetries contains only one element for this perturbation.
 symkpt : not enough symmetry to change the number of k points.

-inwffil : will read wavefunctions from disk file /scratch/users/j/a/jabreu/flow_simple_4atoms/flow/w177/t1/indata/in_WFK

 Initialisation of the first-order wave-functions :
  ireadwf=   0

--- !BeginCycle
iteration_state: {dtset: 1, }
solver: {iscf: 7, nstep: 100, nline: 4, wfoptalg: 0, }
tolerances: {tolwfr: 1.00E-20, }
...

     iter   2DEtotal(Ha)        deltaE(Ha) residm    vres2
-ETOT  1  -20.645037406071     -2.065E+01 1.334E-02 0.000E+00
 ETOT  2  -20.660650308970     -1.561E-02 4.942E-05 0.000E+00
 ETOT  3  -20.660723238638     -7.293E-05 5.538E-07 0.000E+00
 ETOT  4  -20.660723788467     -5.498E-07 4.344E-09 0.000E+00
 ETOT  5  -20.660723793829     -5.361E-09 1.035E-10 0.000E+00
 ETOT  6  -20.660723793890     -6.133E-11 2.037E-12 0.000E+00
 ETOT  7  -20.660723793891     -8.811E-13 6.129E-14 0.000E+00
 ETOT  8  -20.660723793891     -3.197E-14 1.203E-15 0.000E+00
 ETOT  9  -20.660723793891      7.105E-15 4.348E-17 0.000E+00
 ETOT 10  -20.660723793891     -3.553E-15 8.446E-19 0.000E+00
 ETOT 11  -20.660723793891      1.066E-14 3.298E-20 0.000E+00
 ETOT 12  -20.660723793891     -7.105E-15 9.913E-21 0.000E+00

 At SCF step   12   max residual=  9.91E-21 < tolwfr=  1.00E-20 =>converged.

 ----iterations are completed or convergence reached----

 dfpt_looppert: DFPT cycle converged with prtwf=-1. Will skip output of the 1st-order WFK file.
 dfpt_looppert : ek2=    2.9850351699E+01
          f-sum rule ratio=    1.2262051418E+00
 prteigrs : about to open file /scratch/users/j/a/jabreu/flow_simple_4atoms/flow/w177/t1/tmpdata/tmp_1WF1_EIG
 Expectation of eigenvalue derivatives (hartree) for nkpt=   1  k points:
  (in case of degenerate eigenvalues, averaged derivative)
 kpt#   1, nband= 35, wtk=  1.00000, kpt=  0.0000  0.0000  0.0000 (reduced coord)
   0.00000   -0.00000    0.00000    0.00000   -0.00000   -0.00000    0.00000    0.00000
   0.00000   -0.00000   -0.00000   -0.00000   -0.00000   -0.00000   -0.00000    0.00000
   0.00000   -0.00000   -0.00000   -0.00000    0.00000    0.00000    0.00000    0.00000
  -0.00000   -0.00000   -0.00000    0.00000    0.00000    0.00000   -0.00000   -0.00000
  -0.00000    0.00003   -0.00000

 Eight components of 2nd-order total energy (hartree) are
 1,2,3: 0th-order hamiltonian combined with 1st-order wavefunctions
     kin0=   2.36042707E+01 eigvalue=   3.24464362E-01  local=  -8.59740274E+00
 4,5,6: 1st-order hamiltonian combined with 1st and 0th-order wfs
     kin1=  -3.66026547E+01  Hartree=   0.00000000E+00     xc=   0.00000000E+00
 7,8,9: eventually, occupation + non-local contributions
    edocc=   6.16228727E+00     enl0=  -8.32895787E-01   enl1=  -4.71879285E+00
 1-9 gives the relaxation energy (to be shifted if some occ is /=2.0)
   erelax=  -2.06607238E+01
  No Ewald or frozen-wf contrib.: the relaxation energy is the total one
 2DEtotal=   -0.2066072379E+02 Ha. Also 2DEtotal=   -0.562206885981E+03 eV
    (  non-var. 2DEtotal :   -2.0660723794E+01 Ha)

 CALCULATION OF EFFECTIVE MASSES
 NOTE : Additional infos (eff. mass eigenvalues, eigenvectors and, if degenerate, average mass) are available in stdout.

 COMMENTS:
 - At k-point ( 0.000, 0.000, 0.000), bands    25 through    26
   are DEGENERATE (effective mass tensor is therefore not defined).
   See Section IIIB Eqs. (67)-(70) and Appendix E of PRB 93 205147 (2016).
 - Angular average effective mass for Frohlich model is to be averaged over degenerate bands. See later.
 - Associated theta integrals calculated with ntheta=   1000 points.

 K-point ( 0.000, 0.000, 0.000) | band =    25
 Transport equivalent effective mass tensor:
             -0.1713167404             -0.0000000108             -0.0000000041
             -0.0000000108             -0.1713167520             -0.0000000091
             -0.0000000041             -0.0000000091             -1.5260683730
 Transport equivalent effective mass tensor eigenvalues:
             -1.5260683730             -0.1713167584             -0.1713167339
 Angular average effective mass 1/(<1/m>)=  -0.2433176735
 Angular average effective mass for Frohlich model (<m**0.5>)**2=  -0.2915503293
 Effective masses along directions: (cart. coord. / red. coord. -> eff. mass)
    1:   1.000000  0.000000  0.000000 /   0.894427 -0.447214  0.000000 ->  -0.1713167461
    2:   0.000000  1.000000  0.000000 /   0.000000  1.000000  0.000000 ->  -0.1713167462
    3:   0.000000  0.000000  1.000000 /   0.000000  0.000000  1.000000 ->  -1.5260679098
    4:   0.577350  0.577350  0.577350 /   0.511111  0.187079  0.838908 ->  -0.2433176785
    5:   0.000000  0.707107  0.707107 /   0.000000  0.466658  0.884438 ->  -0.3080515713
    6:   0.707107  0.000000  0.707107 /   0.503537 -0.251768  0.826477 ->  -0.3080515570
    7:   0.707107  0.707107  0.000000 /   0.939071  0.343724  0.000000 ->  -0.1713167462

 K-point ( 0.000, 0.000, 0.000) | band =    26
 Transport equivalent effective mass tensor:
             -1.5517767118              0.0000000975              0.0000000791
              0.0000000975             -1.5517766073             -0.0000000145
              0.0000000791             -0.0000000145             -1.5260683730
 Transport equivalent effective mass tensor eigenvalues:
             -1.5517767702             -1.5517765490             -1.5260683730
 Angular average effective mass 1/(<1/m>)=  -1.5431115271
 Angular average effective mass for Frohlich model (<m**0.5>)**2=  -1.5431403212
 Effective masses along directions: (cart. coord. / red. coord. -> eff. mass)
    1:   1.000000  0.000000  0.000000 /   0.894427 -0.447214  0.000000 ->  -1.5517766595
    2:   0.000000  1.000000  0.000000 /   0.000000  1.000000  0.000000 ->  -1.5517766595
    3:   0.000000  0.000000  1.000000 /   0.000000  0.000000  1.000000 ->  -1.5260688363
    4:   0.577350  0.577350  0.577350 /   0.511111  0.187079  0.838908 ->  -1.5431113644
    5:   0.000000  0.707107  0.707107 /   0.000000  0.466658  0.884438 ->  -1.5388150006
    6:   0.707107  0.000000  0.707107 /   0.503537 -0.251768  0.826477 ->  -1.5388152168
    7:   0.707107  0.707107  0.000000 /   0.939071  0.343724  0.000000 ->  -1.5517766594

 Angular average effective mass for Frohlich model, averaged over degenerate bands.
 Value of     (<<m**0.5>>)**2 =     7.940467E-01
 Absolute Value of <<m**0.5>> =     8.910930E-01

 K-point ( 0.000, 0.000, 0.000) | band =    27
 Effective mass tensor:
              0.1794150921             -0.0000000002             -0.0000000000
             -0.0000000002              0.1794150920             -0.0000000000
             -0.0000000000             -0.0000000000              0.1558488334
 Effective mass tensor eigenvalues:
              0.1558488334              0.1794150919              0.1794150923
 Angular average effective mass 1/(<1/m>)=   0.1708057811
 Angular average effective mass for Frohlich model (<m**0.5>)**2=   0.1710370924
 Effective masses along directions: (cart. coord. / red. coord. -> eff. mass)
    1:   1.000000  0.000000  0.000000 /   0.894427 -0.447214  0.000000 ->   0.1794150921
    2:   0.000000  1.000000  0.000000 /   0.000000  1.000000  0.000000 ->   0.1794150920
    3:   0.000000  0.000000  1.000000 /   0.000000  0.000000  1.000000 ->   0.1558488334
    4:   0.577350  0.577350  0.577350 /   0.511111  0.187079  0.838908 ->   0.1708057809
    5:   0.000000  0.707107  0.707107 /   0.000000  0.466658  0.884438 ->   0.1668037069
    6:   0.707107  0.000000  0.707107 /   0.503537 -0.251768  0.826477 ->   0.1668037070
    7:   0.707107  0.707107  0.000000 /   0.939071  0.343724  0.000000 ->   0.1794150919

 END OF EFFECTIVE MASSES SECTION

 ---- first-order wavefunction calculations are completed ----

 Total localisation tensor (bohr^2) in cartesian coordinates
  WARNING : still subject to testing - especially symmetries.
      direction              matrix element
   alpha     beta       real part   imaginary part
     1        1       3.9714775014    0.0000000000
     1        2      -1.3757602225    0.0000000000
     1        3       0.0000000000    0.0000000000
     2        1      -1.3757602225    0.0000000000
     2        2       2.3828866045    0.0000000000
     2        3       0.0000000000    0.0000000000
     3        1       0.0000000000    0.0000000000
     3        2       0.0000000000    0.0000000000
     3        3       1.8210088279    0.0000000000

 respfn : d/dk was computed, but no 2DTE, so no DDB output.

== END DATASET(S) ==============================================================

 -outvars: echo values of variables after computation  --------
            acell      1.0000000000E+00  1.0000000000E+00  1.0000000000E+00 Bohr
              amu      6.53900000E+01  3.20660000E+01
             ecut      4.20000000E+01 Hartree
           etotal     -2.0660723794E+01
            fcart      0.0000000000E+00  0.0000000000E+00  0.0000000000E+00
                       0.0000000000E+00  0.0000000000E+00  0.0000000000E+00
                       0.0000000000E+00  0.0000000000E+00  0.0000000000E+00
                       0.0000000000E+00  0.0000000000E+00  0.0000000000E+00
-          fftalg         512
           irdden           1
           irdwfk           1
           istwfk        1
              ixc     -116133
           kptopt           0
P           mkmem           1
P          mkqmem           1
P          mk1mem           1
            natom           4
            nband          35
           nbdbuf           4
            ngfft          45      45      72
             nkpt           1
            nstep         100
             nsym          12
           ntypat           2
              occ      2.000000  2.000000  2.000000  2.000000  2.000000  2.000000
                       2.000000  2.000000  2.000000  2.000000  2.000000  2.000000
                       2.000000  2.000000  2.000000  2.000000  2.000000  2.000000
                       2.000000  2.000000  2.000000  2.000000  2.000000  2.000000
                       2.000000  2.000000  0.000000  0.000000  0.000000  0.000000
                       0.000000  0.000000  0.000000  0.000000  0.000000
        optdriver           1
            prtwf          -1
            rfdir           1       1       1
           rfelfd           2
            rprim      7.1453292434E+00  0.0000000000E+00  0.0000000000E+00
                      -3.5726646217E+00  6.1880366432E+00  0.0000000000E+00
                       0.0000000000E+00  0.0000000000E+00  1.1727942062E+01
          spgroup         186
           strten      0.0000000000E+00  0.0000000000E+00  0.0000000000E+00
                       0.0000000000E+00  0.0000000000E+00  0.0000000000E+00
           symrel      1  0  0   0  1  0   0  0  1       0  1  0   1  0  0   0  0  1
                       1  1  0  -1  0  0   0  0  1      -1  0  0   1  1  0   0  0  1
                       0  1  0  -1 -1  0   0  0  1      -1 -1  0   0  1  0   0  0  1
                      -1  0  0   0 -1  0   0  0  1       0 -1  0  -1  0  0   0  0  1
                      -1 -1  0   1  0  0   0  0  1       1  0  0  -1 -1  0   0  0  1
                       0 -1  0   1  1  0   0  0  1       1  1  0   0 -1  0   0  0  1
            tnons      0.0000000  0.0000000  0.0000000     0.0000000  0.0000000  0.5000000
                       0.0000000  0.0000000  0.5000000     0.0000000  0.0000000  0.0000000
                       0.0000000  0.0000000  0.0000000     0.0000000  0.0000000  0.5000000
                       0.0000000  0.0000000  0.5000000     0.0000000  0.0000000  0.0000000
                       0.0000000  0.0000000  0.0000000     0.0000000  0.0000000  0.5000000
                       0.0000000  0.0000000  0.5000000     0.0000000  0.0000000  0.0000000
           tolwfr      1.00000000E-20
            typat      1  1  2  2
           useylm           1
           xangst      1.8905726917E+00  1.0915226525E+00  6.2035902928E+00
                       0.0000000000E+00  2.1830453050E+00  3.1005104713E+00
                       1.8905726917E+00  1.0915226525E+00  3.8814191269E+00
                       0.0000000000E+00  2.1830453050E+00  7.7833930545E-01
            xcart      3.5726646217E+00  2.0626788811E+00  1.1723086694E+01
                       0.0000000000E+00  4.1253577621E+00  5.8591156630E+00
                       3.5726646217E+00  2.0626788811E+00  7.3348191568E+00
                       0.0000000000E+00  4.1253577621E+00  1.4708481258E+00
             xred      6.6666666667E-01  3.3333333333E-01  9.9958600000E-01
                       3.3333333333E-01  6.6666666667E-01  4.9958600000E-01
                       6.6666666667E-01  3.3333333333E-01  6.2541400000E-01
                       3.3333333333E-01  6.6666666667E-01  1.2541400000E-01
            znucl       30.00000   16.00000

- Timing analysis has been suppressed with timopt=0

 Suggested references for the acknowledgment of ABINIT usage.

 Calculation completed.
.Delivered   6 WARNINGs and   5 COMMENTs to log file.