.Version 9.5.1 of ABINIT

 ABINIT is a project of the Universite Catholique de Louvain,
 Corning Inc. and other collaborators, see ~abinit/doc/developers/contributors.txt .
 acknowledgments of the ABINIT effort.

.Starting date : Wed 19 May 2021.
- ( at 13h12 )

- input  file    -> /scratch/users/j/a/jabreu/flow_simple_9atoms/flow/w163/t1/run.abi
- output file    -> /scratch/users/j/a/jabreu/flow_simple_9atoms/flow/w163/t1/run.abo
- root for input  files -> /scratch/users/j/a/jabreu/flow_simple_9atoms/flow/w163/t1/indata/in
- root for output files -> /scratch/users/j/a/jabreu/flow_simple_9atoms/flow/w163/t1/outdata/out

 Symmetries : space group P-6 2 m (#189); Bravais hP (primitive hexag.)
     intxc =       0      iscf =       7    lmnmax =      18     lnmax =       6
     mgfft =      96  mpssoang =       3    mqgrid =    3948     natom =       9
  nloc_mem =       1    nspden =       1   nspinor =       1    nsppol =       1
      nsym =      12    n1xccc =    2501    ntypat =       2    occopt =       1
   xclevel =       2
-    mband =          45        mffmem =           1         mkmem =           1
-   mkqmem =           1        mk1mem =           1           mpw =       24229
      nfft =      497664          nkpt =           1
  Rough estimation (10% accuracy) of disk space for files :

------------- Echo of variables that govern the present computation ------------
-
- outvars: echo of selected default values
-   iomode0 =  0 , fftalg0 =512 , wfoptalg0 =  0
-
- outvars: echo of global parameters not present in the input file
-  max_nthreads =    0
-
 -outvars: echo values of preprocessed input variables --------
            acell      1.0000000000E+00  1.0000000000E+00  1.0000000000E+00 Bohr
              amu      1.37327000E+02  1.26904470E+02
             ecut      3.50000000E+01 Hartree
-          fftalg         512
           irdden           1
           irdwfk           1
           istwfk        1
              ixc     -116133
           kptopt           0
P           mkmem           1
P          mkqmem           1
P          mk1mem           1
            natom           9
            nband          45
           nbdbuf           4
            ngfft          96      96      54
             nkpt           1
            nstep        2000
             nsym          12
           ntypat           2
              occ      2.000000  2.000000  2.000000  2.000000  2.000000  2.000000
                       2.000000  2.000000  2.000000  2.000000  2.000000  2.000000
                       2.000000  2.000000  2.000000  2.000000  2.000000  2.000000
                       2.000000  2.000000  2.000000  2.000000  2.000000  2.000000
                       2.000000  2.000000  2.000000  2.000000  2.000000  2.000000
                       2.000000  2.000000  2.000000  2.000000  2.000000  2.000000
                       0.000000  0.000000  0.000000  0.000000  0.000000  0.000000
                       0.000000  0.000000  0.000000
        optdriver           1
            prtwf          -1
            rfdir           1       1       1
           rfelfd           2
            rprim      1.7116543217E+01  0.0000000000E+00  0.0000000000E+00
                      -8.5582716086E+00  1.4823361251E+01  0.0000000000E+00
                       0.0000000000E+00  0.0000000000E+00  9.6345950562E+00
          spgroup         189
           symrel      1  0  0   0  1  0   0  0  1       0  1  0   1  0  0   0  0  1
                      -1 -1  0   1  0  0   0  0 -1       1  0  0  -1 -1  0   0  0 -1
                       0  1  0  -1 -1  0   0  0  1      -1 -1  0   0  1  0   0  0  1
                       1  0  0   0  1  0   0  0 -1       0  1  0   1  0  0   0  0 -1
                      -1 -1  0   1  0  0   0  0  1       1  0  0  -1 -1  0   0  0  1
                       0  1  0  -1 -1  0   0  0 -1      -1 -1  0   0  1  0   0  0 -1
           tolwfr      1.00000000E-20
            typat      1  1  1  2  2  2  2  2  2
           useylm           1
           xangst      0.0000000000E+00  0.0000000000E+00  0.0000000000E+00
                       4.5288422802E+00  2.6147283096E+00  2.5492040589E+00
                      -9.4000755373E-16  5.2294566192E+00  2.5492040589E+00
                      -1.8415721941E+00  3.1896966060E+00  0.0000000000E+00
                       6.7315805884E+00  0.0000000000E+00  2.5492040589E+00
                      -3.3657902942E+00  5.8297197972E+00  2.5492040589E+00
                       3.6831443882E+00  0.0000000000E+00  0.0000000000E+00
                       2.6872700861E+00  4.6544883228E+00  0.0000000000E+00
                       1.1630519860E+00  2.0144651316E+00  2.5492040589E+00
            xcart      0.0000000000E+00  0.0000000000E+00  0.0000000000E+00
                       8.5582716086E+00  4.9411204170E+00  4.8172975281E+00
                      -1.7763568394E-15  9.8822408341E+00  4.8172975281E+00
                      -3.4800671007E+00  6.0276530323E+00  0.0000000000E+00
                       1.2720843754E+01  0.0000000000E+00  4.8172975281E+00
                      -6.3604218768E+00  1.1016573848E+01  4.8172975281E+00
                       6.9601342015E+00  0.0000000000E+00  0.0000000000E+00
                       5.0782045079E+00  8.7957082188E+00  0.0000000000E+00
                       2.1978497318E+00  3.8067874029E+00  4.8172975281E+00
             xred      0.0000000000E+00  0.0000000000E+00  0.0000000000E+00
                       6.6666666667E-01  3.3333333333E-01  5.0000000000E-01
                       3.3333333333E-01  6.6666666667E-01  5.0000000000E-01
                       0.0000000000E+00  4.0663200000E-01  0.0000000000E+00
                       7.4319000000E-01  0.0000000000E+00  5.0000000000E-01
                       0.0000000000E+00  7.4319000000E-01  5.0000000000E-01
                       4.0663200000E-01  0.0000000000E+00  0.0000000000E+00
                       5.9336800000E-01  5.9336800000E-01  0.0000000000E+00
                       2.5681000000E-01  2.5681000000E-01  5.0000000000E-01
            znucl       56.00000   53.00000

 chkinp: Checking input parameters for consistency.

== DATASET  1 ==================================================================
-   mpi_nproc: 1, omp_nthreads: -1 (-1 if OMP is not activated)

--- !DatasetInfo
iteration_state: {dtset: 1, }
dimensions: {natom: 9, nkpt: 1, mband: 45, nsppol: 1, nspinor: 1, nspden: 1, mpw: 24229, }
cutoff_energies: {ecut:  35.0, pawecutdg:  -1.0, }
electrons: {nelect:   7.20000000E+01, charge:   0.00000000E+00, occopt:   1.00000000E+00, tsmear:   1.00000000E-02, }
meta: {optdriver: 1, rfelfd: 2, }
...

 Real(R)+Recip(G) space primitive vectors, cartesian coordinates (Bohr,Bohr^-1):
 R(1)= 17.1165432  0.0000000  0.0000000  G(1)=  0.0584230  0.0337305  0.0000000
 R(2)= -8.5582716 14.8233613  0.0000000  G(2)=  0.0000000  0.0674611  0.0000000
 R(3)=  0.0000000  0.0000000  9.6345951  G(3)=  0.0000000  0.0000000  0.1037926
 Unit cell volume ucvol=  2.4445348E+03 bohr^3
 Angles (23,13,12)=  9.00000000E+01  9.00000000E+01  1.20000000E+02 degrees

 getcut: wavevector=  0.0000  0.0000  0.0000  ngfft=  96  96  54
         ecut(hartree)=     35.000   => boxcut(ratio)=   2.10456

--- Pseudopotential description ------------------------------------------------
- pspini: atom type   1  psp file is /scratch/users/j/a/jabreu/pseudos/PBEsol/Ba.psp8
- pspatm: opening atomic psp file    /scratch/users/j/a/jabreu/pseudos/PBEsol/Ba.psp8
- Ba    ONCVPSP-3.3.0  r_core=   2.15444   1.91218   2.15444
- 56.00000  10.00000    180112                znucl, zion, pspdat
    8 -116133    2    4       600   0.00000   pspcod,pspxc,lmax,lloc,mmax,r2well
    5.99000000000000    5.00000000000000    0.00000000000000   rchrg,fchrg,qchrg
     nproj     2     2     2
     extension_switch     1
  pspatm : epsatm=   26.37418029
         --- l  ekb(1:nproj) -->
             0    6.652372    0.677024
             1    5.027722    0.408462
             2    2.543237    0.416854
 pspatm: atomic psp has been read  and splines computed

- pspini: atom type   2  psp file is /scratch/users/j/a/jabreu/pseudos/PBEsol/I.psp8
- pspatm: opening atomic psp file    /scratch/users/j/a/jabreu/pseudos/PBEsol/I.psp8
- I     ONCVPSP-3.3.0  r_core=   2.02042   2.17032   2.27639
- 53.00000   7.00000    180112                znucl, zion, pspdat
    8 -116133    2    4       600   0.00000   pspcod,pspxc,lmax,lloc,mmax,r2well
    5.99000000000000    4.00000000000000    0.00000000000000   rchrg,fchrg,qchrg
     nproj     2     2     2
     extension_switch     1
  pspatm : epsatm=   18.14229533
         --- l  ekb(1:nproj) -->
             0    6.015861    0.935228
             1    4.063749    0.754139
             2    4.149534    0.722940
 pspatm: atomic psp has been read  and splines computed

   1.35342945E+04                                ecore*ucvol(ha*bohr**3)

-inwffil : will read wavefunctions from disk file /scratch/users/j/a/jabreu/flow_simple_9atoms/flow/w163/t1/indata/in_WFK

 ==>  initialize data related to q vector <==

 The list of irreducible perturbations for this q vector is:
    1)    idir= 1    ipert=  10
    2)    idir= 2    ipert=  10
    3)    idir= 3    ipert=  10

 Perturbation wavevector (in red.coord.)   0.000000  0.000000  0.000000
 Perturbation : derivative vs k along direction   1

 dfpt_looppert : COMMENT -
  In a d/dk calculation, iscf is set to -3 automatically.
 The set of symmetries contains only one element for this perturbation.
 symkpt : not enough symmetry to change the number of k points.

[...]

 Initialisation of the first-order wave-functions :
  ireadwf=   0

--- !BeginCycle
iteration_state: {dtset: 1, }
solver: {iscf: 7, nstep: 2000, nline: 4, wfoptalg: 0, }
tolerances: {tolwfr: 1.00E-20, }
...

     iter   2DEtotal(Ha)        deltaE(Ha) residm    vres2
-ETOT  1  -15.204804102712     -1.520E+01 9.944E-03 0.000E+00
 ETOT  2  -15.214004764173     -9.201E-03 5.225E-04 0.000E+00
 ETOT  3  -15.214019804487     -1.504E-05 3.175E-05 0.000E+00
 ETOT  4  -15.214019859031     -5.454E-08 4.511E-06 0.000E+00
 ETOT  5  -15.214019859293     -2.618E-10 2.375E-07 0.000E+00
 ETOT  6  -15.214019859294     -1.460E-12 3.275E-08 0.000E+00
 ETOT  7  -15.214019859294     -7.105E-15 8.814E-09 0.000E+00
 ETOT  8  -15.214019859294      1.421E-14 6.689E-10 0.000E+00
 ETOT  9  -15.214019859294      1.954E-14 2.223E-10 0.000E+00
 ETOT 10  -15.214019859294     -1.776E-15 1.791E-11 0.000E+00
 ETOT 11  -15.214019859294     -3.553E-15 5.965E-12 0.000E+00
 ETOT 12  -15.214019859294      1.776E-15 4.967E-13 0.000E+00
 ETOT 13  -15.214019859294     -1.776E-15 1.634E-13 0.000E+00
 ETOT 14  -15.214019859294      3.553E-15 1.395E-14 0.000E+00
 ETOT 15  -15.214019859294     -3.553E-15 4.543E-15 0.000E+00
 ETOT 16  -15.214019859294      1.776E-15 3.966E-16 0.000E+00
 ETOT 17  -15.214019859294      1.776E-15 1.284E-16 0.000E+00
 ETOT 18  -15.214019859294      0.000E+00 1.146E-17 0.000E+00
 ETOT 19  -15.214019859294      0.000E+00 3.708E-18 0.000E+00
 ETOT 20  -15.214019859294      0.000E+00 3.405E-19 0.000E+00
 ETOT 21  -15.214019859294      0.000E+00 1.104E-19 0.000E+00
 ETOT 22  -15.214019859294      0.000E+00 1.055E-20 0.000E+00
 ETOT 23  -15.214019859294      0.000E+00 8.877E-21 0.000E+00

 At SCF step   23   max residual=  8.88E-21 < tolwfr=  1.00E-20 =>converged.

 ----iterations are completed or convergence reached----

 dfpt_looppert: DFPT cycle converged with prtwf=-1. Will skip output of the 1st-order WFK file.
 dfpt_looppert : ek2=    2.5871930951E+01
          f-sum rule ratio=    1.0264541529E+00
 prteigrs : about to open file /scratch/users/j/a/jabreu/flow_simple_9atoms/flow/w163/t1/tmpdata/tmp_1WF1_EIG
 Expectation of eigenvalue derivatives (hartree) for nkpt=   1  k points:
  (in case of degenerate eigenvalues, averaged derivative)
 kpt#   1, nband= 45, wtk=  1.00000, kpt=  0.0000  0.0000  0.0000 (reduced coord)
  -0.00000   -0.00000    0.00000   -0.00000   -0.00000   -0.00000   -0.00000   -0.00000
  -0.00000    0.00000    0.00000   -0.00000   -0.00000    0.00000    0.00000    0.00000
   0.00000    0.00000   -0.00000   -0.00000    0.00000    0.00000    0.00000    0.00000
   0.00000    0.00000    0.00000   -0.00000   -0.00000    0.00000    0.00000    0.00000
   0.00000    0.00000    0.00000    0.00000   -0.00000    0.00000    0.00000    0.00000
  -0.00000   -0.00000    0.00000    0.00000    0.00000

 Eight components of 2nd-order total energy (hartree) are
 1,2,3: 0th-order hamiltonian combined with 1st-order wavefunctions
     kin0=   1.74393302E+01 eigvalue=  -4.26636548E-02  local=  -1.12274995E+01
 4,5,6: 1st-order hamiltonian combined with 1st and 0th-order wfs
     kin1=  -2.65563510E+01  Hartree=   0.00000000E+00     xc=   0.00000000E+00
 7,8,9: eventually, occupation + non-local contributions
    edocc=   4.86608926E+00     enl0=   4.17876354E+00   enl1=  -3.87168875E+00
 1-9 gives the relaxation energy (to be shifted if some occ is /=2.0)
   erelax=  -1.52140199E+01
  No Ewald or frozen-wf contrib.: the relaxation energy is the total one
 2DEtotal=   -0.1521401986E+02 Ha. Also 2DEtotal=   -0.413994534445E+03 eV
    (  non-var. 2DEtotal :   -1.5214019859E+01 Ha)

 Perturbation wavevector (in red.coord.)   0.000000  0.000000  0.000000
 Perturbation : derivative vs k along direction   2
 The set of symmetries contains only one element for this perturbation.
 symkpt : not enough symmetry to change the number of k points.

[...]

 Perturbation wavevector (in red.coord.)   0.000000  0.000000  0.000000
 Perturbation : derivative vs k along direction   3
 The set of symmetries contains only one element for this perturbation.
 symkpt : not enough symmetry to change the number of k points.

-inwffil : will read wavefunctions from disk file /scratch/users/j/a/jabreu/flow_simple_9atoms/flow/w163/t1/indata/in_WFK

 Initialisation of the first-order wave-functions :
  ireadwf=   0

--- !BeginCycle
iteration_state: {dtset: 1, }
solver: {iscf: 7, nstep: 2000, nline: 4, wfoptalg: 0, }
tolerances: {tolwfr: 1.00E-20, }
...

     iter   2DEtotal(Ha)        deltaE(Ha) residm    vres2
-ETOT  1  -38.450357748521     -3.845E+01 1.397E-02 0.000E+00
 ETOT  2  -38.465009856372     -1.465E-02 1.524E-03 0.000E+00
 ETOT  3  -38.465019182213     -9.326E-06 2.693E-05 0.000E+00
 ETOT  4  -38.465019196383     -1.417E-08 3.439E-06 0.000E+00
 ETOT  5  -38.465019196415     -3.288E-11 7.496E-08 0.000E+00
 ETOT  6  -38.465019196415      4.263E-14 1.014E-08 0.000E+00
 ETOT  7  -38.465019196415     -4.263E-14 2.313E-10 0.000E+00
 ETOT  8  -38.465019196415      0.000E+00 3.300E-11 0.000E+00
 ETOT  9  -38.465019196415      1.421E-14 7.591E-13 0.000E+00
 ETOT 10  -38.465019196415      1.421E-14 1.130E-13 0.000E+00
 ETOT 11  -38.465019196415      0.000E+00 8.154E-15 0.000E+00
 ETOT 12  -38.465019196415      0.000E+00 5.733E-16 0.000E+00
 ETOT 13  -38.465019196415     -1.421E-14 4.669E-17 0.000E+00
 ETOT 14  -38.465019196415      0.000E+00 3.354E-18 0.000E+00
 ETOT 15  -38.465019196415      0.000E+00 2.744E-19 0.000E+00
 ETOT 16  -38.465019196415      7.105E-15 1.961E-20 0.000E+00
 ETOT 17  -38.465019196415      0.000E+00 9.973E-21 0.000E+00

 At SCF step   17   max residual=  9.97E-21 < tolwfr=  1.00E-20 =>converged.

 ----iterations are completed or convergence reached----

 dfpt_looppert: DFPT cycle converged with prtwf=-1. Will skip output of the 1st-order WFK file.
 dfpt_looppert : ek2=    6.1242836487E+01
          f-sum rule ratio=    1.1059663332E+00
 prteigrs : about to open file /scratch/users/j/a/jabreu/flow_simple_9atoms/flow/w163/t1/tmpdata/tmp_1WF1_EIG
 Expectation of eigenvalue derivatives (hartree) for nkpt=   1  k points:
  (in case of degenerate eigenvalues, averaged derivative)
 kpt#   1, nband= 45, wtk=  1.00000, kpt=  0.0000  0.0000  0.0000 (reduced coord)
   0.00000   -0.00000    0.00000    0.00000    0.00000    0.00000    0.00000   -0.00000
   0.00000   -0.00000   -0.00000    0.00000   -0.00000   -0.00000   -0.00000   -0.00000
   0.00000    0.00000    0.00000   -0.00000   -0.00000   -0.00000    0.00000    0.00000
   0.00000   -0.00000   -0.00000   -0.00000   -0.00000   -0.00000   -0.00000    0.00000
  -0.00000   -0.00000   -0.00000    0.00000    0.00000   -0.00000   -0.00000   -0.00000
   0.00000    0.00000    0.00000    0.00000    0.00000

 Eight components of 2nd-order total energy (hartree) are
 1,2,3: 0th-order hamiltonian combined with 1st-order wavefunctions
     kin0=   4.43820754E+01 eigvalue=   1.32889418E-01  local=  -2.92866161E+01
 4,5,6: 1st-order hamiltonian combined with 1st and 0th-order wfs
     kin1=  -6.77325153E+01  Hartree=   0.00000000E+00     xc=   0.00000000E+00
 7,8,9: eventually, occupation + non-local contributions
    edocc=   1.30157667E+01     enl0=   1.02209038E+01   enl1=  -9.19752309E+00
 1-9 gives the relaxation energy (to be shifted if some occ is /=2.0)
   erelax=  -3.84650192E+01
  No Ewald or frozen-wf contrib.: the relaxation energy is the total one
 2DEtotal=   -0.3846501920E+02 Ha. Also 2DEtotal=   -0.104668640254E+04 eV
    (  non-var. 2DEtotal :   -3.8465019196E+01 Ha)

 CALCULATION OF EFFECTIVE MASSES
 NOTE : Additional infos (eff. mass eigenvalues, eigenvectors and, if degenerate, average mass) are available in stdout.

 K-point ( 0.000, 0.000, 0.000) | band =    36
 Effective mass tensor:
             -1.0862125429             -0.0000000000             -0.0000000001
             -0.0000000000             -1.0862125430              0.0000000001
             -0.0000000001              0.0000000001             -0.3304469040
 Effective mass tensor eigenvalues:
             -1.0862125430             -1.0862125429             -0.3304469040
 Angular average effective mass 1/(<1/m>)=  -0.6163372454
 Angular average effective mass for Frohlich model (<m**0.5>)**2=  -0.6856962445
 Effective masses along directions: (cart. coord. / red. coord. -> eff. mass)
    1:   1.000000  0.000000  0.000000 /   0.894427 -0.447214  0.000000 ->  -1.0862125429
    2:   0.000000  1.000000  0.000000 /   0.000000  1.000000  0.000000 ->  -1.0862125430
    3:   0.000000  0.000000  1.000000 /   0.000000  0.000000  1.000000 ->  -0.3304469040
    4:   0.577350  0.577350  0.577350 /   0.830223  0.303883  0.467317 ->  -0.6163372454
    5:   0.000000  0.707107  0.707107 /   0.000000  0.838459  0.544965 ->  -0.5067351545
    6:   0.707107  0.000000  0.707107 /   0.798892 -0.399446  0.449682 ->  -0.5067351546
    7:   0.707107  0.707107  0.000000 /   0.939071  0.343724  0.000000 ->  -1.0862125430

 K-point ( 0.000, 0.000, 0.000) | band =    37
 Effective mass tensor:
              0.5171981567              0.0000000000             -0.0000000000
              0.0000000000              0.5171981567             -0.0000000000
             -0.0000000000             -0.0000000000              0.4923139153
 Effective mass tensor eigenvalues:
              0.4923139153              0.5171981567              0.5171981567
 Angular average effective mass 1/(<1/m>)=   0.5086285328
 Angular average effective mass for Frohlich model (<m**0.5>)**2=   0.5087116875
 Effective masses along directions: (cart. coord. / red. coord. -> eff. mass)
    1:   1.000000  0.000000  0.000000 /   0.894427 -0.447214  0.000000 ->   0.5171981567
    2:   0.000000  1.000000  0.000000 /   0.000000  1.000000  0.000000 ->   0.5171981567
    3:   0.000000  0.000000  1.000000 /   0.000000  0.000000  1.000000 ->   0.4923139153
    4:   0.577350  0.577350  0.577350 /   0.830223  0.303883  0.467317 ->   0.5086285328
    5:   0.000000  0.707107  0.707107 /   0.000000  0.838459  0.544965 ->   0.5044493406
    6:   0.707107  0.000000  0.707107 /   0.798892 -0.399446  0.449682 ->   0.5044493406
    7:   0.707107  0.707107  0.000000 /   0.939071  0.343724  0.000000 ->   0.5171981567

 END OF EFFECTIVE MASSES SECTION

 ---- first-order wavefunction calculations are completed ----

 Total localisation tensor (bohr^2) in cartesian coordinates
  WARNING : still subject to testing - especially symmetries.
      direction              matrix element
   alpha     beta       real part   imaginary part
     1        1       2.8333950905    0.0000000000
     1        2      -0.9815168508    0.0000000000
     1        3       0.0000000000    0.0000000000
     2        1      -0.9815168508    0.0000000000
     2        2       1.7000370541    0.0000000000
     2        3       0.0000000000    0.0000000000
     3        1       0.0000000000    0.0000000000
     3        2       0.0000000000    0.0000000000
     3        3       1.8923291720    0.0000000000

 respfn : d/dk was computed, but no 2DTE, so no DDB output.

== END DATASET(S) ==============================================================

 -outvars: echo values of variables after computation  --------
            acell      1.0000000000E+00  1.0000000000E+00  1.0000000000E+00 Bohr
              amu      1.37327000E+02  1.26904470E+02
             ecut      3.50000000E+01 Hartree
           etotal     -3.8465019196E+01
            fcart      0.0000000000E+00  0.0000000000E+00  0.0000000000E+00
                       0.0000000000E+00  0.0000000000E+00  0.0000000000E+00
                       0.0000000000E+00  0.0000000000E+00  0.0000000000E+00
                       0.0000000000E+00  0.0000000000E+00  0.0000000000E+00
                       0.0000000000E+00  0.0000000000E+00  0.0000000000E+00
                       0.0000000000E+00  0.0000000000E+00  0.0000000000E+00
                       0.0000000000E+00  0.0000000000E+00  0.0000000000E+00
                       0.0000000000E+00  0.0000000000E+00  0.0000000000E+00
                       0.0000000000E+00  0.0000000000E+00  0.0000000000E+00
-          fftalg         512
           irdden           1
           irdwfk           1
           istwfk        1
              ixc     -116133
           kptopt           0
P           mkmem           1
P          mkqmem           1
P          mk1mem           1
            natom           9
            nband          45
           nbdbuf           4
            ngfft          96      96      54
             nkpt           1
            nstep        2000
             nsym          12
           ntypat           2
              occ      2.000000  2.000000  2.000000  2.000000  2.000000  2.000000
                       2.000000  2.000000  2.000000  2.000000  2.000000  2.000000
                       2.000000  2.000000  2.000000  2.000000  2.000000  2.000000
                       2.000000  2.000000  2.000000  2.000000  2.000000  2.000000
                       2.000000  2.000000  2.000000  2.000000  2.000000  2.000000
                       2.000000  2.000000  2.000000  2.000000  2.000000  2.000000
                       0.000000  0.000000  0.000000  0.000000  0.000000  0.000000
                       0.000000  0.000000  0.000000
        optdriver           1
            prtwf          -1
            rfdir           1       1       1
           rfelfd           2
            rprim      1.7116543217E+01  0.0000000000E+00  0.0000000000E+00
                      -8.5582716086E+00  1.4823361251E+01  0.0000000000E+00
                       0.0000000000E+00  0.0000000000E+00  9.6345950562E+00
          spgroup         189
           strten      0.0000000000E+00  0.0000000000E+00  0.0000000000E+00
                       0.0000000000E+00  0.0000000000E+00  0.0000000000E+00
           symrel      1  0  0   0  1  0   0  0  1       0  1  0   1  0  0   0  0  1
                      -1 -1  0   1  0  0   0  0 -1       1  0  0  -1 -1  0   0  0 -1
                       0  1  0  -1 -1  0   0  0  1      -1 -1  0   0  1  0   0  0  1
                       1  0  0   0  1  0   0  0 -1       0  1  0   1  0  0   0  0 -1
                      -1 -1  0   1  0  0   0  0  1       1  0  0  -1 -1  0   0  0  1
                       0  1  0  -1 -1  0   0  0 -1      -1 -1  0   0  1  0   0  0 -1
           tolwfr      1.00000000E-20
            typat      1  1  1  2  2  2  2  2  2
           useylm           1
           xangst      0.0000000000E+00  0.0000000000E+00  0.0000000000E+00
                       4.5288422802E+00  2.6147283096E+00  2.5492040589E+00
                      -9.4000755373E-16  5.2294566192E+00  2.5492040589E+00
                      -1.8415721941E+00  3.1896966060E+00  0.0000000000E+00
                       6.7315805884E+00  0.0000000000E+00  2.5492040589E+00
                      -3.3657902942E+00  5.8297197972E+00  2.5492040589E+00
                       3.6831443882E+00  0.0000000000E+00  0.0000000000E+00
                       2.6872700861E+00  4.6544883228E+00  0.0000000000E+00
                       1.1630519860E+00  2.0144651316E+00  2.5492040589E+00
            xcart      0.0000000000E+00  0.0000000000E+00  0.0000000000E+00
                       8.5582716086E+00  4.9411204170E+00  4.8172975281E+00
                      -1.7763568394E-15  9.8822408341E+00  4.8172975281E+00
                      -3.4800671007E+00  6.0276530323E+00  0.0000000000E+00
                       1.2720843754E+01  0.0000000000E+00  4.8172975281E+00
                      -6.3604218768E+00  1.1016573848E+01  4.8172975281E+00
                       6.9601342015E+00  0.0000000000E+00  0.0000000000E+00
                       5.0782045079E+00  8.7957082188E+00  0.0000000000E+00
                       2.1978497318E+00  3.8067874029E+00  4.8172975281E+00
             xred      0.0000000000E+00  0.0000000000E+00  0.0000000000E+00
                       6.6666666667E-01  3.3333333333E-01  5.0000000000E-01
                       3.3333333333E-01  6.6666666667E-01  5.0000000000E-01
                       0.0000000000E+00  4.0663200000E-01  0.0000000000E+00
                       7.4319000000E-01  0.0000000000E+00  5.0000000000E-01
                       0.0000000000E+00  7.4319000000E-01  5.0000000000E-01
                       4.0663200000E-01  0.0000000000E+00  0.0000000000E+00
                       5.9336800000E-01  5.9336800000E-01  0.0000000000E+00
                       2.5681000000E-01  2.5681000000E-01  5.0000000000E-01
            znucl       56.00000   53.00000

- Timing analysis has been suppressed with timopt=0

 Suggested references for the acknowledgment of ABINIT usage.

 Calculation completed.
.Delivered   6 WARNINGs and   5 COMMENTs to log file.