.Version 9.5.1 of ABINIT

 ABINIT is a project of the Universite Catholique de Louvain,
 Corning Inc. and other collaborators, see ~abinit/doc/developers/contributors.txt .
 acknowledgments of the ABINIT effort.

.Starting date : Tue  4 May 2021.
- ( at 19h50 )

- input  file    -> /scratch/users/j/a/jabreu/flow_simple_6atoms/flow/w247/t1/run.abi
- output file    -> /scratch/users/j/a/jabreu/flow_simple_6atoms/flow/w247/t1/run.abo
- root for input  files -> /scratch/users/j/a/jabreu/flow_simple_6atoms/flow/w247/t1/indata/in
- root for output files -> /scratch/users/j/a/jabreu/flow_simple_6atoms/flow/w247/t1/outdata/out

 Symmetries : space group P4/n m m (#129); Bravais tP (primitive tetrag.)
     intxc =       0      iscf =       7    lmnmax =      32     lnmax =       8
     mgfft =     100  mpssoang =       4    mqgrid =    4804     natom =       6
  nloc_mem =       1    nspden =       1   nspinor =       1    nsppol =       1
      nsym =      16    n1xccc =    2501    ntypat =       3    occopt =       1
   xclevel =       2
-    mband =          43        mffmem =           1         mkmem =           2
-   mkqmem =           2        mk1mem =           2           mpw =       21993
      nfft =      360000          nkpt =           2
  Rough estimation (10% accuracy) of disk space for files :

------------- Echo of variables that govern the present computation ------------
-
- outvars: echo of selected default values
-   iomode0 =  0 , fftalg0 =512 , wfoptalg0 =  0
-
- outvars: echo of global parameters not present in the input file
-  max_nthreads =    0
-
 -outvars: echo values of preprocessed input variables --------
            acell      1.0000000000E+00  1.0000000000E+00  1.0000000000E+00 Bohr
              amu      1.32905430E+02  2.29897680E+01  1.27600000E+02
             ecut      4.40000000E+01 Hartree
-          fftalg         512
           irdden           1
           irdwfk           1
           istwfk        1    1
              ixc     -116133
              kpt      1.88602320E-17  1.88602320E-17  5.00000000E-01
                       0.00000000E+00  0.00000000E+00  0.00000000E+00
           kptopt           0
P           mkmem           2
P          mkqmem           2
P          mk1mem           2
            natom           6
            nband          43
           nbdbuf           4
            ngfft          60      60     100
             nkpt           2
            nstep        1000
             nsym          16
           ntypat           3
              occ      2.000000  2.000000  2.000000  2.000000  2.000000  2.000000
                       2.000000  2.000000  2.000000  2.000000  2.000000  2.000000
                       2.000000  2.000000  2.000000  2.000000  2.000000  2.000000
                       2.000000  2.000000  2.000000  2.000000  2.000000  2.000000
                       2.000000  2.000000  2.000000  2.000000  2.000000  2.000000
                       2.000000  2.000000  2.000000  2.000000  0.000000  0.000000
                       0.000000  0.000000  0.000000  0.000000  0.000000  0.000000
                       0.000000
        optdriver           1
            prtwf          -1
            rfdir           1       1       1
           rfelfd           2
            rprim      9.9095502073E+00  0.0000000000E+00  0.0000000000E+00
                       0.0000000000E+00  9.9095502073E+00  0.0000000000E+00
                       0.0000000000E+00  0.0000000000E+00  1.6086359549E+01
          spgroup         129
           symrel      1  0  0   0  1  0   0  0  1      -1  0  0   0 -1  0   0  0 -1
                      -1  0  0   0  1  0   0  0 -1       1  0  0   0 -1  0   0  0  1
                      -1  0  0   0 -1  0   0  0  1       1  0  0   0  1  0   0  0 -1
                       1  0  0   0 -1  0   0  0 -1      -1  0  0   0  1  0   0  0  1
                       0  1  0   1  0  0   0  0  1       0 -1  0  -1  0  0   0  0 -1
                       0 -1  0   1  0  0   0  0 -1       0  1  0  -1  0  0   0  0  1
                       0 -1  0  -1  0  0   0  0  1       0  1  0   1  0  0   0  0 -1
                       0  1  0  -1  0  0   0  0 -1       0 -1  0   1  0  0   0  0  1
            tnons      0.0000000  0.0000000  0.0000000     0.5000000  0.5000000 -0.0000000
                       0.5000000  0.5000000 -0.0000000     0.0000000  0.0000000  0.0000000
                       0.0000000  0.0000000  0.0000000     0.5000000  0.5000000 -0.0000000
                       0.5000000  0.5000000 -0.0000000     0.0000000  0.0000000  0.0000000
                       0.5000000  0.5000000  0.0000000     0.0000000  0.0000000 -0.0000000
                       0.0000000  0.0000000 -0.0000000     0.5000000  0.5000000  0.0000000
                       0.5000000  0.5000000  0.0000000     0.0000000  0.0000000 -0.0000000
                       0.0000000  0.0000000 -0.0000000     0.5000000  0.5000000  0.0000000
           tolwfr      1.00000000E-20
            typat      1  1  2  2  3  3
           useylm           1
              wtk        0.50000    0.50000
           xangst      2.6219540585E+00  0.0000000000E+00  5.5833630908E+00
                       0.0000000000E+00  2.6219540585E+00  2.9291717519E+00
                       2.6219540585E+00  2.6219540585E+00  0.0000000000E+00
                       0.0000000000E+00  0.0000000000E+00  0.0000000000E+00
                       2.6219540585E+00  0.0000000000E+00  1.7352546901E+00
                       0.0000000000E+00  2.6219540585E+00  6.7772801527E+00
            xcart      4.9547751037E+00  0.0000000000E+00  1.0551027142E+01
                       0.0000000000E+00  4.9547751037E+00  5.5353324073E+00
                       4.9547751037E+00  4.9547751037E+00  0.0000000000E+00
                       0.0000000000E+00  0.0000000000E+00  0.0000000000E+00
                       4.9547751037E+00  0.0000000000E+00  3.2791561351E+00
                       0.0000000000E+00  4.9547751037E+00  1.2807203414E+01
             xred      5.0000000000E-01  0.0000000000E+00  6.5589900000E-01
                       0.0000000000E+00  5.0000000000E-01  3.4410100000E-01
                       5.0000000000E-01  5.0000000000E-01  0.0000000000E+00
                       0.0000000000E+00  0.0000000000E+00  0.0000000000E+00
                       5.0000000000E-01  0.0000000000E+00  2.0384700000E-01
                       0.0000000000E+00  5.0000000000E-01  7.9615300000E-01
            znucl       55.00000   11.00000   52.00000

 chkinp: Checking input parameters for consistency.

== DATASET  1 ==================================================================
-   mpi_nproc: 1, omp_nthreads: -1 (-1 if OMP is not activated)

--- !DatasetInfo
iteration_state: {dtset: 1, }
dimensions: {natom: 6, nkpt: 2, mband: 43, nsppol: 1, nspinor: 1, nspden: 1, mpw: 21993, }
cutoff_energies: {ecut:  44.0, pawecutdg:  -1.0, }
electrons: {nelect:   6.80000000E+01, charge:   0.00000000E+00, occopt:   1.00000000E+00, tsmear:   1.00000000E-02, }
meta: {optdriver: 1, rfelfd: 2, }
...

 Real(R)+Recip(G) space primitive vectors, cartesian coordinates (Bohr,Bohr^-1):
 R(1)=  9.9095502  0.0000000  0.0000000  G(1)=  0.1009128  0.0000000  0.0000000
 R(2)=  0.0000000  9.9095502  0.0000000  G(2)=  0.0000000  0.1009128  0.0000000
 R(3)=  0.0000000  0.0000000 16.0863595  G(3)=  0.0000000  0.0000000  0.0621645
 Unit cell volume ucvol=  1.5796674E+03 bohr^3
 Angles (23,13,12)=  9.00000000E+01  9.00000000E+01  9.00000000E+01 degrees

 getcut: wavevector=  0.0000  0.0000  0.0000  ngfft=  60  60 100
         ecut(hartree)=     44.000   => boxcut(ratio)=   2.02771

--- Pseudopotential description ------------------------------------------------
- pspini: atom type   1  psp file is /scratch/users/j/a/jabreu/pseudos/PBEsol/Cs.psp8
- pspatm: opening atomic psp file    /scratch/users/j/a/jabreu/pseudos/PBEsol/Cs.psp8
- Cs    ONCVPSP-3.3.0  r_core=   2.27353   1.85623   2.01788   1.90105
- 55.00000   9.00000    180112                znucl, zion, pspdat
    8 -116133    3    4       600   0.00000   pspcod,pspxc,lmax,lloc,mmax,r2well
    5.99000000000000    5.00000000000000    0.00000000000000   rchrg,fchrg,qchrg
     nproj     2     2     2     2
     extension_switch     1
  pspatm : epsatm=   22.12462445
         --- l  ekb(1:nproj) -->
             0    6.214110    0.767882
             1    6.311966    0.793598
             2    3.769790    0.913105
             3   -9.247129   -2.432478
 pspatm: atomic psp has been read  and splines computed

- pspini: atom type   2  psp file is /scratch/users/j/a/jabreu/pseudos/PBEsol/Na.psp8
- pspatm: opening atomic psp file    /scratch/users/j/a/jabreu/pseudos/PBEsol/Na.psp8
- Na    ONCVPSP-3.3.0  r_core=   1.20708   1.55069
- 11.00000   9.00000    180112                znucl, zion, pspdat
    8 -116133    1    4       400   0.00000   pspcod,pspxc,lmax,lloc,mmax,r2well
    3.99000000000000    0.00000000000000    0.00000000000000   rchrg,fchrg,qchrg
     nproj     2     2
     extension_switch     1
  pspatm : epsatm=    9.32878306
         --- l  ekb(1:nproj) -->
             0    2.657905   -0.678300
             1   -6.761319   -2.404728
 pspatm: atomic psp has been read  and splines computed

- pspini: atom type   3  psp file is /scratch/users/j/a/jabreu/pseudos/PBEsol/Te.psp8
- pspatm: opening atomic psp file    /scratch/users/j/a/jabreu/pseudos/PBEsol/Te.psp8
- Te    ONCVPSP-3.3.0  r_core=   2.26547   1.91704   1.80604
- 52.00000  16.00000    180112                znucl, zion, pspdat
    8 -116133    2    4       600   0.00000   pspcod,pspxc,lmax,lloc,mmax,r2well
    5.99000000000000    5.00000000000000    0.00000000000000   rchrg,fchrg,qchrg
     nproj     2     2     2
     extension_switch     1
  pspatm : epsatm=   36.82679836
         --- l  ekb(1:nproj) -->
             0    6.345999    0.785432
             1    5.709019    1.070069
             2   -6.035173   -1.870937
 pspatm: atomic psp has been read  and splines computed

   9.28610800E+03                                ecore*ucvol(ha*bohr**3)

-inwffil : will read wavefunctions from disk file /scratch/users/j/a/jabreu/flow_simple_6atoms/flow/w247/t1/indata/in_WFK

 ==>  initialize data related to q vector <==

 The list of irreducible perturbations for this q vector is:
    1)    idir= 1    ipert=   7
    2)    idir= 2    ipert=   7
    3)    idir= 3    ipert=   7

 Perturbation wavevector (in red.coord.)   0.000000  0.000000  0.000000
 Perturbation : derivative vs k along direction   1

 dfpt_looppert : COMMENT -
  In a d/dk calculation, iscf is set to -3 automatically.
 The set of symmetries contains only one element for this perturbation.
 symkpt : not enough symmetry to change the number of k points.

[...]

 Initialisation of the first-order wave-functions :
  ireadwf=   0

--- !BeginCycle
iteration_state: {dtset: 1, }
solver: {iscf: 7, nstep: 1000, nline: 4, wfoptalg: 0, }
tolerances: {tolwfr: 1.00E-20, }
...

     iter   2DEtotal(Ha)        deltaE(Ha) residm    vres2
-ETOT  1  -50.890908020558     -5.089E+01 2.288E-02 0.000E+00
 ETOT  2  -50.922069147805     -3.116E-02 1.117E-03 0.000E+00
 ETOT  3  -50.922576963006     -5.078E-04 3.195E-05 0.000E+00
[...]
   0.00000    0.00000    0.00000
 prteigrs : prtvol=0 or 1, do not print more k-points.

 Eight components of 2nd-order total energy (hartree) are
 1,2,3: 0th-order hamiltonian combined with 1st-order wavefunctions
     kin0=   5.24063072E+01 eigvalue=   8.88260491E+00  local=  -2.72517186E+01
 4,5,6: 1st-order hamiltonian combined with 1st and 0th-order wfs
     kin1=  -6.21104382E+01  Hartree=   0.00000000E+00     xc=   0.00000000E+00
 7,8,9: eventually, occupation + non-local contributions
    edocc=   1.08070662E+01     enl0=   6.07836066E+00   enl1=  -3.97348025E+01
 1-9 gives the relaxation energy (to be shifted if some occ is /=2.0)
   erelax=  -5.09226204E+01
  No Ewald or frozen-wf contrib.: the relaxation energy is the total one
 2DEtotal=   -0.5092262039E+02 Ha. Also 2DEtotal=   -0.138567497055E+04 eV
    (  non-var. 2DEtotal :   -5.0922620388E+01 Ha)

 Perturbation wavevector (in red.coord.)   0.000000  0.000000  0.000000
 Perturbation : derivative vs k along direction   2
 The set of symmetries contains only one element for this perturbation.
 symkpt : not enough symmetry to change the number of k points.

[...]

 Perturbation wavevector (in red.coord.)   0.000000  0.000000  0.000000
 Perturbation : derivative vs k along direction   3
 The set of symmetries contains only one element for this perturbation.
 symkpt : not enough symmetry to change the number of k points.

-inwffil : will read wavefunctions from disk file /scratch/users/j/a/jabreu/flow_simple_6atoms/flow/w247/t1/indata/in_WFK

 Initialisation of the first-order wave-functions :
  ireadwf=   0

--- !BeginCycle
iteration_state: {dtset: 1, }
solver: {iscf: 7, nstep: 1000, nline: 4, wfoptalg: 0, }
tolerances: {tolwfr: 1.00E-20, }
...

     iter   2DEtotal(Ha)        deltaE(Ha) residm    vres2
-ETOT  1  -17.966140280349     -1.797E+01 4.865E-02 0.000E+00
 ETOT  2  -17.977516467908     -1.138E-02 5.235E-03 0.000E+00
 ETOT  3  -17.977619908273     -1.034E-04 3.488E-04 0.000E+00
 ETOT  4  -17.977624986157     -5.078E-06 1.132E-04 0.000E+00
 ETOT  5  -17.977625380698     -3.945E-07 1.349E-05 0.000E+00
 ETOT  6  -17.977625415439     -3.474E-08 4.742E-06 0.000E+00
 ETOT  7  -17.977625418636     -3.197E-09 5.775E-07 0.000E+00
 ETOT  8  -17.977625418936     -3.002E-10 2.062E-07 0.000E+00
 ETOT  9  -17.977625418965     -2.910E-11 2.507E-08 0.000E+00
 ETOT 10  -17.977625418968     -2.821E-12 9.110E-09 0.000E+00
 ETOT 11  -17.977625418968     -3.055E-13 1.097E-09 0.000E+00
 ETOT 12  -17.977625418968     -2.487E-14 4.061E-10 0.000E+00
 ETOT 13  -17.977625418968     -7.105E-15 4.822E-11 0.000E+00
 ETOT 14  -17.977625418968      1.776E-14 1.823E-11 0.000E+00
 ETOT 15  -17.977625418968     -1.421E-14 2.129E-12 0.000E+00
 ETOT 16  -17.977625418968     -3.553E-15 8.223E-13 0.000E+00
 ETOT 17  -17.977625418968      3.553E-15 9.425E-14 0.000E+00
 ETOT 18  -17.977625418968      3.553E-15 3.725E-14 0.000E+00
 ETOT 19  -17.977625418968     -3.553E-15 4.183E-15 0.000E+00
 ETOT 20  -17.977625418968      3.553E-15 1.693E-15 0.000E+00
 ETOT 21  -17.977625418968      0.000E+00 1.860E-16 0.000E+00
 ETOT 22  -17.977625418968      3.553E-15 7.712E-17 0.000E+00
 ETOT 23  -17.977625418968     -3.553E-15 8.289E-18 0.000E+00
 ETOT 24  -17.977625418968     -3.553E-15 3.521E-18 0.000E+00
 ETOT 25  -17.977625418968      0.000E+00 3.700E-19 0.000E+00
 ETOT 26  -17.977625418968      3.553E-15 1.611E-19 0.000E+00
 ETOT 27  -17.977625418968     -3.553E-15 1.654E-20 0.000E+00
 ETOT 28  -17.977625418968      3.553E-15 9.845E-21 0.000E+00

 At SCF step   28   max residual=  9.84E-21 < tolwfr=  1.00E-20 =>converged.

 ----iterations are completed or convergence reached----

 dfpt_looppert: DFPT cycle converged with prtwf=-1. Will skip output of the 1st-order WFK file.
 dfpt_looppert : ek2=    2.0748327867E+01
          f-sum rule ratio=    1.0118715162E+00
 prteigrs : about to open file /scratch/users/j/a/jabreu/flow_simple_6atoms/flow/w247/t1/tmpdata/tmp_1WF1_EIG
 Expectation of eigenvalue derivatives (hartree) for nkpt=   2  k points:
  (in case of degenerate eigenvalues, averaged derivative)
 kpt#   1, nband= 43, wtk=  0.50000, kpt=  0.0000  0.0000  0.5000 (reduced coord)
  -0.00000   -0.00000    0.00000    0.00000    0.00000    0.00000   -0.00000    0.00000
  -0.00000    0.00000    0.00000    0.00000    0.00000   -0.00000   -0.00000    0.00000
   0.00000    0.00000    0.00000   -0.00000    0.00000   -0.00000   -0.00000    0.00000
   0.00000    0.00000    0.00000   -0.00000   -0.00000    0.00000   -0.00000   -0.00000
   0.00000    0.00000   -0.00000    0.00000    0.00000    0.00000    0.00000   -0.00000
  -0.00000    0.00000    0.00000
 prteigrs : prtvol=0 or 1, do not print more k-points.

 Eight components of 2nd-order total energy (hartree) are
 1,2,3: 0th-order hamiltonian combined with 1st-order wavefunctions
     kin0=   2.15470685E+01 eigvalue=   3.37091552E+00  local=  -1.12044354E+01
 4,5,6: 1st-order hamiltonian combined with 1st and 0th-order wfs
     kin1=  -2.09946420E+01  Hartree=   0.00000000E+00     xc=   0.00000000E+00
 7,8,9: eventually, occupation + non-local contributions
    edocc=   2.08640864E+00     enl0=   2.17766813E+00   enl1=  -1.49606089E+01
 1-9 gives the relaxation energy (to be shifted if some occ is /=2.0)
   erelax=  -1.79776254E+01
  No Ewald or frozen-wf contrib.: the relaxation energy is the total one
 2DEtotal=   -0.1797762542E+02 Ha. Also 2DEtotal=   -0.489196066167E+03 eV
    (  non-var. 2DEtotal :   -1.7977625419E+01 Ha)

 CALCULATION OF EFFECTIVE MASSES
 NOTE : Additional infos (eff. mass eigenvalues, eigenvectors and, if degenerate, average mass) are available in stdout.

 COMMENTS:
 - At k-point ( 0.000, 0.000, 0.500), bands    33 through    34
   are DEGENERATE (effective mass tensor is therefore not defined).
   See Section IIIB Eqs. (67)-(70) and Appendix E of PRB 93 205147 (2016).
 - Angular average effective mass for Frohlich model is to be averaged over degenerate bands. See later.
 - Associated theta integrals calculated with ntheta=   1000 points.

 K-point ( 0.000, 0.000, 0.500) | band =    33
 Transport equivalent effective mass tensor:
             -0.3980018942              0.0000002450             -0.0000402275
              0.0000002450             -0.3980019100              0.0000221229
             -0.0000402275              0.0000221229             -2.6304388327
 Transport equivalent effective mass tensor eigenvalues:
             -2.6304388337             -0.3980021464             -0.3980016569
 Angular average effective mass 1/(<1/m>)=  -0.5543272289
 Angular average effective mass for Frohlich model (<m**0.5>)**2=  -0.6425875279
 Effective masses along directions: (cart. coord. / red. coord. -> eff. mass)
    1:   1.000000  0.000000  0.000000 /   1.000000  0.000000  0.000000 ->  -0.3891741838
    2:   0.000000  1.000000  0.000000 /   0.000000  1.000000  0.000000 ->  -0.3891741839
    3:   0.000000  0.000000  1.000000 /   0.000000  0.000000  1.000000 ->  -2.6254386578
    4:   0.577350  0.577350  0.577350 /   0.464480  0.464480  0.754000 ->  -0.5659742499
    5:   0.000000  0.707107  0.707107 /   0.000000  0.524491  0.851416 ->  -0.6778668582
    6:   0.707107  0.000000  0.707107 /   0.524491  0.000000  0.851416 ->  -0.6778668234
    7:   0.707107  0.707107  0.000000 /   0.707107  0.707107  0.000000 ->  -0.4065223560

 K-point ( 0.000, 0.000, 0.500) | band =    34
 Transport equivalent effective mass tensor:
             -1.4775702885              0.0000001837             -0.0001542567
              0.0000001837             -1.4775709501              0.0000848145
             -0.0001542567              0.0000848145             -2.6927201948
 Transport equivalent effective mass tensor eigenvalues:
             -2.6927202203             -1.4775709859             -1.4775702272
 Angular average effective mass 1/(<1/m>)=  -1.7083666580
 Angular average effective mass for Frohlich model (<m**0.5>)**2=  -1.7464104375
 Effective masses along directions: (cart. coord. / red. coord. -> eff. mass)
    1:   1.000000  0.000000  0.000000 /   1.000000  0.000000  0.000000 ->  -1.5783257258
    2:   0.000000  1.000000  0.000000 /   0.000000  1.000000  0.000000 ->  -1.5783265112
    3:   0.000000  0.000000  1.000000 /   0.000000  0.000000  1.000000 ->  -2.6254430620
    4:   0.577350  0.577350  0.577350 /   0.464480  0.464480  0.754000 ->  -1.6065410078
    5:   0.000000  0.707107  0.707107 /   0.000000  0.524491  0.851416 ->  -1.9712994265
    6:   0.707107  0.000000  0.707107 /   0.524491  0.000000  0.851416 ->  -1.9717828618
    7:   0.707107  0.707107  0.000000 /   0.707107  0.707107  0.000000 ->  -1.3454628528

 Angular average effective mass for Frohlich model, averaged over degenerate bands.
 Value of     (<<m**0.5>>)**2 =     1.126924E+00
 Absolute Value of <<m**0.5>> =     1.061567E+00

 K-point ( 0.000, 0.000, 0.000) | band =    35
 Effective mass tensor:
              0.2201394013              0.0000000000              0.0000000000
              0.0000000000              0.2201394013             -0.0000000000
              0.0000000000             -0.0000000000              0.2226331279
 Effective mass tensor eigenvalues:
              0.2201394013              0.2201394013              0.2226331279
 Angular average effective mass 1/(<1/m>)=   0.2209644131
 Angular average effective mass for Frohlich model (<m**0.5>)**2=   0.2209662785
 Effective masses along directions: (cart. coord. / red. coord. -> eff. mass)
    1:   1.000000  0.000000  0.000000 /   1.000000  0.000000  0.000000 ->   0.2201394013
    2:   0.000000  1.000000  0.000000 /   0.000000  1.000000  0.000000 ->   0.2201394013
    3:   0.000000  0.000000  1.000000 /   0.000000  0.000000  1.000000 ->   0.2226331279
    4:   0.577350  0.577350  0.577350 /   0.464480  0.464480  0.754000 ->   0.2209644131
    5:   0.000000  0.707107  0.707107 /   0.000000  0.524491  0.851416 ->   0.2213792422
    6:   0.707107  0.000000  0.707107 /   0.524491  0.000000  0.851416 ->   0.2213792422
    7:   0.707107  0.707107  0.000000 /   0.707107  0.707107  0.000000 ->   0.2201394013

 END OF EFFECTIVE MASSES SECTION

 ---- first-order wavefunction calculations are completed ----

 Total localisation tensor (bohr^2) in cartesian coordinates
  WARNING : still subject to testing - especially symmetries.
      direction              matrix element
   alpha     beta       real part   imaginary part
     1        1       1.6264948644    0.0000000000
     1        2       0.0000000000    0.0000000000
     1        3       0.0000000000    0.0000000000
     2        1       0.0000000000    0.0000000000
     2        2       1.6264948460    0.0000000000
     2        3       0.0000000000    0.0000000000
     3        1       0.0000000000    0.0000000000
     3        2       0.0000000000    0.0000000000
     3        3       1.0695328576    0.0000000000

 respfn : d/dk was computed, but no 2DTE, so no DDB output.

== END DATASET(S) ==============================================================

 -outvars: echo values of variables after computation  --------
            acell      1.0000000000E+00  1.0000000000E+00  1.0000000000E+00 Bohr
              amu      1.32905430E+02  2.29897680E+01  1.27600000E+02
             ecut      4.40000000E+01 Hartree
           etotal     -1.7977625419E+01
            fcart      0.0000000000E+00  0.0000000000E+00  0.0000000000E+00
                       0.0000000000E+00  0.0000000000E+00  0.0000000000E+00
                       0.0000000000E+00  0.0000000000E+00  0.0000000000E+00
                       0.0000000000E+00  0.0000000000E+00  0.0000000000E+00
                       0.0000000000E+00  0.0000000000E+00  0.0000000000E+00
                       0.0000000000E+00  0.0000000000E+00  0.0000000000E+00
-          fftalg         512
           irdden           1
           irdwfk           1
           istwfk        1    1
              ixc     -116133
              kpt      1.88602320E-17  1.88602320E-17  5.00000000E-01
                       0.00000000E+00  0.00000000E+00  0.00000000E+00
           kptopt           0
P           mkmem           2
P          mkqmem           2
P          mk1mem           2
            natom           6
            nband          43
           nbdbuf           4
            ngfft          60      60     100
             nkpt           2
            nstep        1000
             nsym          16
           ntypat           3
              occ      2.000000  2.000000  2.000000  2.000000  2.000000  2.000000
                       2.000000  2.000000  2.000000  2.000000  2.000000  2.000000
                       2.000000  2.000000  2.000000  2.000000  2.000000  2.000000
                       2.000000  2.000000  2.000000  2.000000  2.000000  2.000000
                       2.000000  2.000000  2.000000  2.000000  2.000000  2.000000
                       2.000000  2.000000  2.000000  2.000000  0.000000  0.000000
                       0.000000  0.000000  0.000000  0.000000  0.000000  0.000000
                       0.000000
        optdriver           1
            prtwf          -1
            rfdir           1       1       1
           rfelfd           2
            rprim      9.9095502073E+00  0.0000000000E+00  0.0000000000E+00
                       0.0000000000E+00  9.9095502073E+00  0.0000000000E+00
                       0.0000000000E+00  0.0000000000E+00  1.6086359549E+01
          spgroup         129
           strten      0.0000000000E+00  0.0000000000E+00  0.0000000000E+00
                       0.0000000000E+00  0.0000000000E+00  0.0000000000E+00
           symrel      1  0  0   0  1  0   0  0  1      -1  0  0   0 -1  0   0  0 -1
                      -1  0  0   0  1  0   0  0 -1       1  0  0   0 -1  0   0  0  1
                      -1  0  0   0 -1  0   0  0  1       1  0  0   0  1  0   0  0 -1
                       1  0  0   0 -1  0   0  0 -1      -1  0  0   0  1  0   0  0  1
                       0  1  0   1  0  0   0  0  1       0 -1  0  -1  0  0   0  0 -1
                       0 -1  0   1  0  0   0  0 -1       0  1  0  -1  0  0   0  0  1
                       0 -1  0  -1  0  0   0  0  1       0  1  0   1  0  0   0  0 -1
                       0  1  0  -1  0  0   0  0 -1       0 -1  0   1  0  0   0  0  1
            tnons      0.0000000  0.0000000  0.0000000     0.5000000  0.5000000 -0.0000000
                       0.5000000  0.5000000 -0.0000000     0.0000000  0.0000000  0.0000000
                       0.0000000  0.0000000  0.0000000     0.5000000  0.5000000 -0.0000000
                       0.5000000  0.5000000 -0.0000000     0.0000000  0.0000000  0.0000000
                       0.5000000  0.5000000  0.0000000     0.0000000  0.0000000 -0.0000000
                       0.0000000  0.0000000 -0.0000000     0.5000000  0.5000000  0.0000000
                       0.5000000  0.5000000  0.0000000     0.0000000  0.0000000 -0.0000000
                       0.0000000  0.0000000 -0.0000000     0.5000000  0.5000000  0.0000000
           tolwfr      1.00000000E-20
            typat      1  1  2  2  3  3
           useylm           1
              wtk        0.50000    0.50000
           xangst      2.6219540585E+00  0.0000000000E+00  5.5833630908E+00
                       0.0000000000E+00  2.6219540585E+00  2.9291717519E+00
                       2.6219540585E+00  2.6219540585E+00  0.0000000000E+00
                       0.0000000000E+00  0.0000000000E+00  0.0000000000E+00
                       2.6219540585E+00  0.0000000000E+00  1.7352546901E+00
                       0.0000000000E+00  2.6219540585E+00  6.7772801527E+00
            xcart      4.9547751037E+00  0.0000000000E+00  1.0551027142E+01
                       0.0000000000E+00  4.9547751037E+00  5.5353324073E+00
                       4.9547751037E+00  4.9547751037E+00  0.0000000000E+00
                       0.0000000000E+00  0.0000000000E+00  0.0000000000E+00
                       4.9547751037E+00  0.0000000000E+00  3.2791561351E+00
                       0.0000000000E+00  4.9547751037E+00  1.2807203414E+01
             xred      5.0000000000E-01  0.0000000000E+00  6.5589900000E-01
                       0.0000000000E+00  5.0000000000E-01  3.4410100000E-01
                       5.0000000000E-01  5.0000000000E-01  0.0000000000E+00
                       0.0000000000E+00  0.0000000000E+00  0.0000000000E+00
                       5.0000000000E-01  0.0000000000E+00  2.0384700000E-01
                       0.0000000000E+00  5.0000000000E-01  7.9615300000E-01
            znucl       55.00000   11.00000   52.00000

- Timing analysis has been suppressed with timopt=0

 Suggested references for the acknowledgment of ABINIT usage.

 Calculation completed.
.Delivered  14 WARNINGs and   9 COMMENTs to log file.