.Version 9.5.1 of ABINIT

 ABINIT is a project of the Universite Catholique de Louvain,
 Corning Inc. and other collaborators, see ~abinit/doc/developers/contributors.txt .
 acknowledgments of the ABINIT effort.

.Starting date : Tue 11 May 2021.
- ( at 21h50 )

- input  file    -> /scratch/users/j/a/jabreu/flow_simple_8atoms/flow/w366/t1/run.abi
- output file    -> /scratch/users/j/a/jabreu/flow_simple_8atoms/flow/w366/t1/run.abo
- root for input  files -> /scratch/users/j/a/jabreu/flow_simple_8atoms/flow/w366/t1/indata/in
- root for output files -> /scratch/users/j/a/jabreu/flow_simple_8atoms/flow/w366/t1/outdata/out

 Symmetries : space group P6_3/m m c (#194); Bravais hP (primitive hexag.)
     intxc =       0      iscf =       7    lmnmax =      32     lnmax =       8
     mgfft =     160  mpssoang =       4    mqgrid =    7605     natom =       8
  nloc_mem =       1    nspden =       1   nspinor =       1    nsppol =       1
      nsym =      24    n1xccc =    2501    ntypat =       3    occopt =       1
   xclevel =       2
-    mband =          41        mffmem =           1         mkmem =           2
-   mkqmem =           2        mk1mem =           2           mpw =       13488
      nfft =      256000          nkpt =           2
  Rough estimation (10% accuracy) of disk space for files :

------------- Echo of variables that govern the present computation ------------
-
- outvars: echo of selected default values
-   iomode0 =  0 , fftalg0 =512 , wfoptalg0 =  0
-
- outvars: echo of global parameters not present in the input file
-  max_nthreads =    0
-
 -outvars: echo values of preprocessed input variables --------
            acell      1.0000000000E+00  1.0000000000E+00  1.0000000000E+00 Bohr
              amu      1.32905430E+02  8.89058500E+01  1.59994000E+01
             ecut      4.40000000E+01 Hartree
-          fftalg         512
           irdden           1
           irdwfk           1
           istwfk        1    1
              ixc     -116133
              kpt      0.00000000E+00  0.00000000E+00  0.00000000E+00
                       5.00000000E-01  0.00000000E+00  0.00000000E+00
           kptopt           0
P           mkmem           2
P          mkqmem           2
P          mk1mem           2
            natom           8
            nband          41
           nbdbuf           4
            ngfft          40      40     160
             nkpt           2
            nstep        2000
             nsym          24
           ntypat           3
              occ      2.000000  2.000000  2.000000  2.000000  2.000000  2.000000
                       2.000000  2.000000  2.000000  2.000000  2.000000  2.000000
                       2.000000  2.000000  2.000000  2.000000  2.000000  2.000000
                       2.000000  2.000000  2.000000  2.000000  2.000000  2.000000
                       2.000000  2.000000  2.000000  2.000000  2.000000  2.000000
                       2.000000  2.000000  0.000000  0.000000  0.000000  0.000000
                       0.000000  0.000000  0.000000  0.000000  0.000000
        optdriver           1
            prtwf          -1
            rfdir           1       1       1
           rfelfd           2
            rprim      6.6173251188E+00  0.0000000000E+00  0.0000000000E+00
                      -3.3086625594E+00  5.7307716580E+00  0.0000000000E+00
                       0.0000000000E+00  0.0000000000E+00  2.5466129554E+01
          spgroup         194
           symrel      1  0  0   0  1  0   0  0  1      -1  0  0   0 -1  0   0  0 -1
                       0  1  0   1  0  0   0  0  1       0 -1  0  -1  0  0   0  0 -1
                       1  1  0  -1  0  0   0  0  1      -1 -1  0   1  0  0   0  0 -1
                      -1  0  0   1  1  0   0  0  1       1  0  0  -1 -1  0   0  0 -1
                       0  1  0  -1 -1  0   0  0  1       0 -1  0   1  1  0   0  0 -1
                      -1 -1  0   0  1  0   0  0  1       1  1  0   0 -1  0   0  0 -1
                      -1  0  0   0 -1  0   0  0  1       1  0  0   0  1  0   0  0 -1
                       0 -1  0  -1  0  0   0  0  1       0  1  0   1  0  0   0  0 -1
                      -1 -1  0   1  0  0   0  0  1       1  1  0  -1  0  0   0  0 -1
                       1  0  0  -1 -1  0   0  0  1      -1  0  0   1  1  0   0  0 -1
                       0 -1  0   1  1  0   0  0  1       0  1  0  -1 -1  0   0  0 -1
                       1  1  0   0 -1  0   0  0  1      -1 -1  0   0  1  0   0  0 -1
            tnons      0.0000000  0.0000000  0.0000000    -0.0000000 -0.0000000  0.0000000
                       0.0000000 -0.0000000  0.5000000    -0.0000000 -0.0000000  0.5000000
                      -0.0000000 -0.0000000  0.5000000     0.0000000 -0.0000000  0.5000000
                       0.0000000  0.0000000  0.0000000    -0.0000000 -0.0000000  0.0000000
                      -0.0000000 -0.0000000  0.0000000     0.0000000  0.0000000  0.0000000
                      -0.0000000  0.0000000  0.5000000     0.0000000 -0.0000000  0.5000000
                      -0.0000000 -0.0000000  0.5000000     0.0000000  0.0000000  0.5000000
                      -0.0000000 -0.0000000  0.0000000     0.0000000 -0.0000000  0.0000000
                       0.0000000 -0.0000000  0.0000000    -0.0000000 -0.0000000  0.0000000
                      -0.0000000 -0.0000000  0.5000000     0.0000000  0.0000000  0.5000000
                       0.0000000  0.0000000  0.5000000    -0.0000000 -0.0000000  0.5000000
                       0.0000000 -0.0000000  0.0000000    -0.0000000  0.0000000  0.0000000
           tolwfr      1.00000000E-20
            typat      1  1  2  2  3  3  3  3
           useylm           1
              wtk        0.50000    0.50000
           xangst      2.3500188843E-16  2.0217291660E+00  3.3690238378E+00
                       1.7508688173E+00  1.0108645830E+00  1.0107071513E+01
                       6.4795162471E-17 -3.3668554045E-16  6.7380476755E+00
                       6.4795162471E-17 -3.3668554045E-16  0.0000000000E+00
                       2.3500188843E-16  2.0217291660E+00  7.8565635897E+00
                       2.3500188843E-16  2.0217291660E+00  1.2357579437E+01
                       1.7508688173E+00  1.0108645830E+00  5.6195317614E+00
                       1.7508688173E+00  1.0108645830E+00  1.1185159141E+00
            xcart      4.4408920985E-16  3.8205144387E+00  6.3665323885E+00
                       3.3086625594E+00  1.9102572193E+00  1.9099597166E+01
                       1.2244511181E-16 -6.3624346436E-16  1.2733064777E+01
                       1.2244511181E-16 -6.3624346436E-16  0.0000000000E+00
                       4.4408920985E-16  3.8205144387E+00  1.4846753530E+01
                       4.4408920985E-16  3.8205144387E+00  2.3352440801E+01
                       3.3086625594E+00  1.9102572193E+00  1.0619376024E+01
                       3.3086625594E+00  1.9102572193E+00  2.1136887530E+00
             xred      3.3333333333E-01  6.6666666667E-01  2.5000000000E-01
                       6.6666666667E-01  3.3333333333E-01  7.5000000000E-01
                      -3.7007434154E-17 -1.1102230246E-16  5.0000000000E-01
                      -3.7007434154E-17 -1.1102230246E-16  0.0000000000E+00
                       3.3333333333E-01  6.6666666667E-01  5.8300000000E-01
                       3.3333333333E-01  6.6666666667E-01  9.1700000000E-01
                       6.6666666667E-01  3.3333333333E-01  4.1700000000E-01
                       6.6666666667E-01  3.3333333333E-01  8.3000000000E-02
            znucl       55.00000   39.00000    8.00000

 chkinp: Checking input parameters for consistency.

== DATASET  1 ==================================================================
-   mpi_nproc: 1, omp_nthreads: -1 (-1 if OMP is not activated)

--- !DatasetInfo
iteration_state: {dtset: 1, }
dimensions: {natom: 8, nkpt: 2, mband: 41, nsppol: 1, nspinor: 1, nspden: 1, mpw: 13488, }
cutoff_energies: {ecut:  44.0, pawecutdg:  -1.0, }
electrons: {nelect:   6.40000000E+01, charge:   0.00000000E+00, occopt:   1.00000000E+00, tsmear:   1.00000000E-02, }
meta: {optdriver: 1, rfelfd: 2, }
...

 Real(R)+Recip(G) space primitive vectors, cartesian coordinates (Bohr,Bohr^-1):
 R(1)=  6.6173251  0.0000000  0.0000000  G(1)=  0.1511185  0.0872483  0.0000000
 R(2)= -3.3086626  5.7307717  0.0000000  G(2)=  0.0000000  0.1744966  0.0000000
 R(3)=  0.0000000  0.0000000 25.4661296  G(3)=  0.0000000  0.0000000  0.0392678
 Unit cell volume ucvol=  9.6573622E+02 bohr^3
 Angles (23,13,12)=  9.00000000E+01  9.00000000E+01  1.20000000E+02 degrees

 getcut: wavevector=  0.0000  0.0000  0.0000  ngfft=  40  40 160
         ecut(hartree)=     44.000   => boxcut(ratio)=   2.02435

--- Pseudopotential description ------------------------------------------------
- pspini: atom type   1  psp file is /scratch/users/j/a/jabreu/pseudos/PBEsol/Cs.psp8
- pspatm: opening atomic psp file    /scratch/users/j/a/jabreu/pseudos/PBEsol/Cs.psp8
- Cs    ONCVPSP-3.3.0  r_core=   2.27353   1.85623   2.01788   1.90105
- 55.00000   9.00000    180112                znucl, zion, pspdat
    8 -116133    3    4       600   0.00000   pspcod,pspxc,lmax,lloc,mmax,r2well
    5.99000000000000    5.00000000000000    0.00000000000000   rchrg,fchrg,qchrg
     nproj     2     2     2     2
     extension_switch     1
  pspatm : epsatm=   22.12462445
         --- l  ekb(1:nproj) -->
             0    6.214110    0.767882
             1    6.311966    0.793598
             2    3.769790    0.913105
             3   -9.247129   -2.432478
 pspatm: atomic psp has been read  and splines computed

- pspini: atom type   2  psp file is /scratch/users/j/a/jabreu/pseudos/PBEsol/Y.psp8
- pspatm: opening atomic psp file    /scratch/users/j/a/jabreu/pseudos/PBEsol/Y.psp8
- Y     ONCVPSP-3.3.0  r_core=   1.60520   1.51226   1.56736
- 39.00000  11.00000    180112                znucl, zion, pspdat
    8 -116133    2    4       600   0.00000   pspcod,pspxc,lmax,lloc,mmax,r2well
    5.99000000000000    4.00000000000000    0.00000000000000   rchrg,fchrg,qchrg
     nproj     2     2     2
     extension_switch     1
  pspatm : epsatm=   18.54790046
         --- l  ekb(1:nproj) -->
             0   10.130768    0.866504
             1    5.598307    0.427135
             2    1.217602    0.315447
 pspatm: atomic psp has been read  and splines computed

- pspini: atom type   3  psp file is /scratch/users/j/a/jabreu/pseudos/PBEsol/O.psp8
- pspatm: opening atomic psp file    /scratch/users/j/a/jabreu/pseudos/PBEsol/O.psp8
- O     ONCVPSP-3.3.0  r_core=   1.35509   1.45563   1.26150
-  8.00000   6.00000    180112                znucl, zion, pspdat
    8 -116133    2    4       600   0.00000   pspcod,pspxc,lmax,lloc,mmax,r2well
    5.99000000000000    4.00000000000000    0.00000000000000   rchrg,fchrg,qchrg
     nproj     2     2     1
     extension_switch     1
  pspatm : epsatm=    6.22910522
         --- l  ekb(1:nproj) -->
             0    6.050032    0.820363
             1   -4.739617   -1.153841
             2   -1.335834
 pspatm: atomic psp has been read  and splines computed

[...]

 At SCF step   24   max residual=  9.79E-21 < tolwfr=  1.00E-20 =>converged.

 ----iterations are completed or convergence reached----

 dfpt_looppert: DFPT cycle converged with prtwf=-1. Will skip output of the 1st-order WFK file.
 dfpt_looppert : ek2=    1.5386629543E+02
          f-sum rule ratio=    1.0527554900E+00
 prteigrs : about to open file /scratch/users/j/a/jabreu/flow_simple_8atoms/flow/w366/t1/tmpdata/tmp_1WF1_EIG
 Expectation of eigenvalue derivatives (hartree) for nkpt=   2  k points:
  (in case of degenerate eigenvalues, averaged derivative)
 kpt#   1, nband= 41, wtk=  0.50000, kpt=  0.0000  0.0000  0.0000 (reduced coord)
  -0.00000    0.00000    0.00000    0.00000    0.00000   -0.00000   -0.00000   -0.00000
   0.00000    0.00000    0.00000    0.00000   -0.00000   -0.00000   -0.00000    0.00000
   0.00000    0.00000    0.00000    0.00000   -0.00000    0.00000    0.00000   -0.00000
  -0.00000   -0.00000   -0.00000   -0.00000   -0.00000    0.00000    0.00000    0.00000
  -0.00000   -0.00000    0.00000    0.00000    0.00000   -0.00000   -0.00000   -0.00000
   0.00000
 prteigrs : prtvol=0 or 1, do not print more k-points.

 Eight components of 2nd-order total energy (hartree) are
 1,2,3: 0th-order hamiltonian combined with 1st-order wavefunctions
     kin0=   1.26147548E+02 eigvalue=  -2.93084261E+00  local=  -6.73986906E+01
 4,5,6: 1st-order hamiltonian combined with 1st and 0th-order wfs
     kin1=  -1.61983587E+02  Hartree=   0.00000000E+00     xc=   0.00000000E+00
 7,8,9: eventually, occupation + non-local contributions
    edocc=   2.41584228E+01     enl0=   4.91766445E+00   enl1=  -7.80461646E+00
 1-9 gives the relaxation energy (to be shifted if some occ is /=2.0)
   erelax=  -8.48941018E+01
  No Ewald or frozen-wf contrib.: the relaxation energy is the total one
 2DEtotal=   -0.8489410185E+02 Ha. Also 2DEtotal=   -0.231008599288E+04 eV
    (  non-var. 2DEtotal :   -8.4894101849E+01 Ha)

 Perturbation wavevector (in red.coord.)   0.000000  0.000000  0.000000
 Perturbation : derivative vs k along direction   2
 The set of symmetries contains only one element for this perturbation.
 symkpt : not enough symmetry to change the number of k points.

[...]

 Perturbation wavevector (in red.coord.)   0.000000  0.000000  0.000000
 Perturbation : derivative vs k along direction   3
 The set of symmetries contains only one element for this perturbation.
 symkpt : not enough symmetry to change the number of k points.

-inwffil : will read wavefunctions from disk file /scratch/users/j/a/jabreu/flow_simple_8atoms/flow/w366/t1/indata/in_WFK

 Initialisation of the first-order wave-functions :
  ireadwf=   0

--- !BeginCycle
iteration_state: {dtset: 1, }
solver: {iscf: 7, nstep: 2000, nline: 4, wfoptalg: 0, }
tolerances: {tolwfr: 1.00E-20, }
...

     iter   2DEtotal(Ha)        deltaE(Ha) residm    vres2
-ETOT  1  -4.1078783821827     -4.108E+00 1.196E-02 0.000E+00
 ETOT  2  -4.1152851734129     -7.407E-03 3.051E-04 0.000E+00
 ETOT  3  -4.1154765849224     -1.914E-04 2.053E-05 0.000E+00
 ETOT  4  -4.1154866578219     -1.007E-05 1.165E-06 0.000E+00
 ETOT  5  -4.1154873640982     -7.063E-07 1.253E-07 0.000E+00
 ETOT  6  -4.1154874182975     -5.420E-08 8.597E-09 0.000E+00
 ETOT  7  -4.1154874226453     -4.348E-09 1.740E-09 0.000E+00
 ETOT  8  -4.1154874230010     -3.557E-10 1.557E-10 0.000E+00
 ETOT  9  -4.1154874230304     -2.941E-11 4.116E-11 0.000E+00
 ETOT 10  -4.1154874230329     -2.473E-12 3.728E-12 0.000E+00
 ETOT 11  -4.1154874230331     -1.990E-13 1.017E-12 0.000E+00
 ETOT 12  -4.1154874230331     -1.865E-14 9.209E-14 0.000E+00
 ETOT 13  -4.1154874230331     -1.776E-15 2.532E-14 0.000E+00
 ETOT 14  -4.1154874230331      1.776E-15 2.289E-15 0.000E+00
 ETOT 15  -4.1154874230331     -4.441E-15 6.335E-16 0.000E+00
 ETOT 16  -4.1154874230331      5.329E-15 5.716E-17 0.000E+00
 ETOT 17  -4.1154874230331     -3.553E-15 1.591E-17 0.000E+00
 ETOT 18  -4.1154874230331      0.000E+00 1.432E-18 0.000E+00
 ETOT 19  -4.1154874230331      0.000E+00 4.007E-19 0.000E+00
 ETOT 20  -4.1154874230331     -8.882E-16 3.599E-20 0.000E+00
 ETOT 21  -4.1154874230331      0.000E+00 1.011E-20 0.000E+00
 ETOT 22  -4.1154874230331      8.882E-16 9.964E-21 0.000E+00

 At SCF step   22   max residual=  9.96E-21 < tolwfr=  1.00E-20 =>converged.

 ----iterations are completed or convergence reached----

 dfpt_looppert: DFPT cycle converged with prtwf=-1. Will skip output of the 1st-order WFK file.
 dfpt_looppert : ek2=    7.7919080350E+00
          f-sum rule ratio=    1.0056518225E+00
 prteigrs : about to open file /scratch/users/j/a/jabreu/flow_simple_8atoms/flow/w366/t1/tmpdata/tmp_1WF1_EIG
 Expectation of eigenvalue derivatives (hartree) for nkpt=   2  k points:
  (in case of degenerate eigenvalues, averaged derivative)
 kpt#   1, nband= 41, wtk=  0.50000, kpt=  0.0000  0.0000  0.0000 (reduced coord)
   0.00000    0.00000   -0.00000    0.00000   -0.00000    0.00000    0.00000    0.00000
  -0.00000   -0.00000   -0.00000   -0.00000    0.00000   -0.00000   -0.00000   -0.00000
   0.00000    0.00000    0.00000    0.00000    0.00000    0.00000    0.00000   -0.00000
  -0.00000   -0.00000   -0.00000   -0.00000   -0.00000    0.00000    0.00000   -0.00000
  -0.00000    0.00000   -0.00000   -0.00000   -0.00000    0.00000    0.00000    0.00000
  -0.00000
 prteigrs : prtvol=0 or 1, do not print more k-points.

 Eight components of 2nd-order total energy (hartree) are
 1,2,3: 0th-order hamiltonian combined with 1st-order wavefunctions
     kin0=   6.43458578E+00 eigvalue=  -2.73330676E-01  local=  -3.33309284E+00
 4,5,6: 1st-order hamiltonian combined with 1st and 0th-order wfs
     kin1=  -7.83594652E+00  Hartree=   0.00000000E+00     xc=   0.00000000E+00
 7,8,9: eventually, occupation + non-local contributions
    edocc=   9.49658029E-01     enl0=   3.37667123E-01   enl1=  -3.95028329E-01
 1-9 gives the relaxation energy (to be shifted if some occ is /=2.0)
   erelax=  -4.11548742E+00
  No Ewald or frozen-wf contrib.: the relaxation energy is the total one
 2DEtotal=   -0.4115487423E+01 Ha. Also 2DEtotal=   -0.111988108039E+03 eV
    (  non-var. 2DEtotal :   -4.1154874230E+00 Ha)

 CALCULATION OF EFFECTIVE MASSES
 NOTE : Additional infos (eff. mass eigenvalues, eigenvectors and, if degenerate, average mass) are available in stdout.

 K-point ( 0.000, 0.000, 0.000) | band =    32
 Effective mass tensor:
             -2.3093515037             -0.0000000015             -0.0000000000
             -0.0000000015             -2.3093515049             -0.0000000001
             -0.0000000000             -0.0000000001             -0.4876645294
 Effective mass tensor eigenvalues:
             -2.3093515059             -2.3093515027             -0.4876645294
 Angular average effective mass 1/(<1/m>)=  -1.0285829561
 Angular average effective mass for Frohlich model (<m**0.5>)**2=  -1.2345662138
 Effective masses along directions: (cart. coord. / red. coord. -> eff. mass)
    1:   1.000000  0.000000  0.000000 /   0.894427 -0.447214  0.000000 ->  -2.3093515037
    2:   0.000000  1.000000  0.000000 /   0.000000  1.000000  0.000000 ->  -2.3093515049
    3:   0.000000  0.000000  1.000000 /   0.000000  0.000000  1.000000 ->  -0.4876645294
    4:   0.577350  0.577350  0.577350 /   0.250437  0.091666  0.963783 ->  -1.0285829564
    5:   0.000000  0.707107  0.707107 /   0.000000  0.219545  0.975602 ->  -0.8052787693
    6:   0.707107  0.000000  0.707107 /   0.249531 -0.124766  0.960296 ->  -0.8052787692
    7:   0.707107  0.707107  0.000000 /   0.939071  0.343724  0.000000 ->  -2.3093515058

 K-point ( 0.500, 0.000, 0.000) | band =    33
 Effective mass tensor:
              0.7955153974              0.3149853511              0.0000000014
              0.3149853511              0.4318016411              0.0000000003
              0.0000000014              0.0000000003              0.6818344356
 Effective mass tensor eigenvalues:
              0.2499447643              0.6818344356              0.9773722742
 Angular average effective mass 1/(<1/m>)=   0.4622020939
 Angular average effective mass for Frohlich model (<m**0.5>)**2=   0.5147350581
 Effective masses along directions: (cart. coord. / red. coord. -> eff. mass)
    1:   1.000000  0.000000  0.000000 /   0.894427 -0.447214  0.000000 ->   0.5657437570
    2:   0.000000  1.000000  0.000000 /   0.000000  1.000000  0.000000 ->   0.3070827837
    3:   0.000000  0.000000  1.000000 /   0.000000  0.000000  1.000000 ->   0.6818344356
    4:   0.577350  0.577350  0.577350 /   0.250437  0.091666  0.963783 ->   0.7668955952
    5:   0.000000  0.707107  0.707107 /   0.000000  0.219545  0.975602 ->   0.4234522614
    6:   0.707107  0.000000  0.707107 /   0.249531 -0.124766  0.960296 ->   0.6183878145
    7:   0.707107  0.707107  0.000000 /   0.939071  0.343724  0.000000 ->   0.8179143920

 END OF EFFECTIVE MASSES SECTION

 ---- first-order wavefunction calculations are completed ----

 Total localisation tensor (bohr^2) in cartesian coordinates
  WARNING : still subject to testing - especially symmetries.
      direction              matrix element
   alpha     beta       real part   imaginary part
     1        1       1.6361579848    0.0000000000
     1        2      -0.6328566339    0.0000000000
     1        3       0.0000000000    0.0000000000
     2        1      -0.6328566339    0.0000000000
     2        2       1.0961398439    0.0000000000
     2        3       0.0000000000    0.0000000000
     3        1       0.0000000000    0.0000000000
     3        2       0.0000000000    0.0000000000
     3        3       0.8432929326    0.0000000000

 respfn : d/dk was computed, but no 2DTE, so no DDB output.

== END DATASET(S) ==============================================================

 -outvars: echo values of variables after computation  --------
            acell      1.0000000000E+00  1.0000000000E+00  1.0000000000E+00 Bohr
              amu      1.32905430E+02  8.89058500E+01  1.59994000E+01
             ecut      4.40000000E+01 Hartree
           etotal     -4.1154874230E+00
            fcart      0.0000000000E+00  0.0000000000E+00  0.0000000000E+00
                       0.0000000000E+00  0.0000000000E+00  0.0000000000E+00
                       0.0000000000E+00  0.0000000000E+00  0.0000000000E+00
                       0.0000000000E+00  0.0000000000E+00  0.0000000000E+00
                       0.0000000000E+00  0.0000000000E+00  0.0000000000E+00
                       0.0000000000E+00  0.0000000000E+00  0.0000000000E+00
                       0.0000000000E+00  0.0000000000E+00  0.0000000000E+00
                       0.0000000000E+00  0.0000000000E+00  0.0000000000E+00
-          fftalg         512
           irdden           1
           irdwfk           1
           istwfk        1    1
              ixc     -116133
              kpt      0.00000000E+00  0.00000000E+00  0.00000000E+00
                       5.00000000E-01  0.00000000E+00  0.00000000E+00
           kptopt           0
P           mkmem           2
P          mkqmem           2
P          mk1mem           2
            natom           8
            nband          41
           nbdbuf           4
            ngfft          40      40     160
             nkpt           2
            nstep        2000
             nsym          24
           ntypat           3
              occ      2.000000  2.000000  2.000000  2.000000  2.000000  2.000000
                       2.000000  2.000000  2.000000  2.000000  2.000000  2.000000
                       2.000000  2.000000  2.000000  2.000000  2.000000  2.000000
                       2.000000  2.000000  2.000000  2.000000  2.000000  2.000000
                       2.000000  2.000000  2.000000  2.000000  2.000000  2.000000
                       2.000000  2.000000  0.000000  0.000000  0.000000  0.000000
                       0.000000  0.000000  0.000000  0.000000  0.000000
        optdriver           1
            prtwf          -1
            rfdir           1       1       1
           rfelfd           2
            rprim      6.6173251188E+00  0.0000000000E+00  0.0000000000E+00
                      -3.3086625594E+00  5.7307716580E+00  0.0000000000E+00
                       0.0000000000E+00  0.0000000000E+00  2.5466129554E+01
          spgroup         194
           strten      0.0000000000E+00  0.0000000000E+00  0.0000000000E+00
                       0.0000000000E+00  0.0000000000E+00  0.0000000000E+00
           symrel      1  0  0   0  1  0   0  0  1      -1  0  0   0 -1  0   0  0 -1
                       0  1  0   1  0  0   0  0  1       0 -1  0  -1  0  0   0  0 -1
                       1  1  0  -1  0  0   0  0  1      -1 -1  0   1  0  0   0  0 -1
                      -1  0  0   1  1  0   0  0  1       1  0  0  -1 -1  0   0  0 -1
                       0  1  0  -1 -1  0   0  0  1       0 -1  0   1  1  0   0  0 -1
                      -1 -1  0   0  1  0   0  0  1       1  1  0   0 -1  0   0  0 -1
                      -1  0  0   0 -1  0   0  0  1       1  0  0   0  1  0   0  0 -1
                       0 -1  0  -1  0  0   0  0  1       0  1  0   1  0  0   0  0 -1
                      -1 -1  0   1  0  0   0  0  1       1  1  0  -1  0  0   0  0 -1
                       1  0  0  -1 -1  0   0  0  1      -1  0  0   1  1  0   0  0 -1
                       0 -1  0   1  1  0   0  0  1       0  1  0  -1 -1  0   0  0 -1
                       1  1  0   0 -1  0   0  0  1      -1 -1  0   0  1  0   0  0 -1
            tnons      0.0000000  0.0000000  0.0000000    -0.0000000 -0.0000000  0.0000000
                       0.0000000 -0.0000000  0.5000000    -0.0000000 -0.0000000  0.5000000
                      -0.0000000 -0.0000000  0.5000000     0.0000000 -0.0000000  0.5000000
                       0.0000000  0.0000000  0.0000000    -0.0000000 -0.0000000  0.0000000
                      -0.0000000 -0.0000000  0.0000000     0.0000000  0.0000000  0.0000000
                      -0.0000000  0.0000000  0.5000000     0.0000000 -0.0000000  0.5000000
                      -0.0000000 -0.0000000  0.5000000     0.0000000  0.0000000  0.5000000
                      -0.0000000 -0.0000000  0.0000000     0.0000000 -0.0000000  0.0000000
                       0.0000000 -0.0000000  0.0000000    -0.0000000 -0.0000000  0.0000000
                      -0.0000000 -0.0000000  0.5000000     0.0000000  0.0000000  0.5000000
                       0.0000000  0.0000000  0.5000000    -0.0000000 -0.0000000  0.5000000
                       0.0000000 -0.0000000  0.0000000    -0.0000000  0.0000000  0.0000000
           tolwfr      1.00000000E-20
            typat      1  1  2  2  3  3  3  3
           useylm           1
              wtk        0.50000    0.50000
           xangst      2.3500188843E-16  2.0217291660E+00  3.3690238378E+00
                       1.7508688173E+00  1.0108645830E+00  1.0107071513E+01
                       6.4795162471E-17 -3.3668554045E-16  6.7380476755E+00
                       6.4795162471E-17 -3.3668554045E-16  0.0000000000E+00
                       2.3500188843E-16  2.0217291660E+00  7.8565635897E+00
                       2.3500188843E-16  2.0217291660E+00  1.2357579437E+01
                       1.7508688173E+00  1.0108645830E+00  5.6195317614E+00
                       1.7508688173E+00  1.0108645830E+00  1.1185159141E+00
            xcart      4.4408920985E-16  3.8205144387E+00  6.3665323885E+00
                       3.3086625594E+00  1.9102572193E+00  1.9099597166E+01
                       1.2244511181E-16 -6.3624346436E-16  1.2733064777E+01
                       1.2244511181E-16 -6.3624346436E-16  0.0000000000E+00
                       4.4408920985E-16  3.8205144387E+00  1.4846753530E+01
                       4.4408920985E-16  3.8205144387E+00  2.3352440801E+01
                       3.3086625594E+00  1.9102572193E+00  1.0619376024E+01
                       3.3086625594E+00  1.9102572193E+00  2.1136887530E+00
             xred      3.3333333333E-01  6.6666666667E-01  2.5000000000E-01
                       6.6666666667E-01  3.3333333333E-01  7.5000000000E-01
                      -3.7007434154E-17 -1.1102230246E-16  5.0000000000E-01
                      -3.7007434154E-17 -1.1102230246E-16  0.0000000000E+00
                       3.3333333333E-01  6.6666666667E-01  5.8300000000E-01
                       3.3333333333E-01  6.6666666667E-01  9.1700000000E-01
                       6.6666666667E-01  3.3333333333E-01  4.1700000000E-01
                       6.6666666667E-01  3.3333333333E-01  8.3000000000E-02
            znucl       55.00000   39.00000    8.00000

- Timing analysis has been suppressed with timopt=0

 Suggested references for the acknowledgment of ABINIT usage.

 Calculation completed.
.Delivered  14 WARNINGs and   9 COMMENTs to log file.