.Version 9.5.1 of ABINIT

 ABINIT is a project of the Universite Catholique de Louvain,
 Corning Inc. and other collaborators, see ~abinit/doc/developers/contributors.txt .
 acknowledgments of the ABINIT effort.

.Starting date : Wed 19 May 2021.
- ( at 15h34 )

- input  file    -> /scratch/users/j/a/jabreu/flow_simple_9atoms/flow/w200/t1/run.abi
- output file    -> /scratch/users/j/a/jabreu/flow_simple_9atoms/flow/w200/t1/run.abo
- root for input  files -> /scratch/users/j/a/jabreu/flow_simple_9atoms/flow/w200/t1/indata/in
- root for output files -> /scratch/users/j/a/jabreu/flow_simple_9atoms/flow/w200/t1/outdata/out

 Symmetries : space group I4/m (# 87); Bravais tI (body-center tetrag.)
     intxc =       0      iscf =       7    lmnmax =      18     lnmax =       6
     mgfft =      90  mpssoang =       3    mqgrid =    3333     natom =       9
  nloc_mem =       1    nspden =       1   nspinor =       1    nsppol =       1
      nsym =       8    n1xccc =    2501    ntypat =       3    occopt =       1
   xclevel =       2
-    mband =          47        mffmem =           1         mkmem =           2
-   mkqmem =           2        mk1mem =           2           mpw =       25224
      nfft =      729000          nkpt =           2
  Rough estimation (10% accuracy) of disk space for files :

------------- Echo of variables that govern the present computation ------------
-
- outvars: echo of selected default values
-   iomode0 =  0 , fftalg0 =512 , wfoptalg0 =  0
-
- outvars: echo of global parameters not present in the input file
-  max_nthreads =    0
-
 -outvars: echo values of preprocessed input variables --------
            acell      1.0000000000E+00  1.0000000000E+00  1.0000000000E+00 Bohr
              amu      8.54678000E+01  1.27600000E+02  7.99040000E+01
             ecut      4.00000000E+01 Hartree
-          fftalg         512
           irdden           1
           irdwfk           1
           istwfk        0    1
              ixc     -116133
              kpt      2.50000000E-01  2.50000000E-01  2.50000000E-01
                       0.00000000E+00  5.00000000E-01  0.00000000E+00
           kptopt           0
P           mkmem           2
P          mkqmem           2
P          mk1mem           2
            natom           9
            nband          47
           nbdbuf           4
            ngfft          90      90      90
             nkpt           2
            nstep        2000
             nsym           8
           ntypat           3
              occ      2.000000  2.000000  2.000000  2.000000  2.000000  2.000000
                       2.000000  2.000000  2.000000  2.000000  2.000000  2.000000
                       2.000000  2.000000  2.000000  2.000000  2.000000  2.000000
                       2.000000  2.000000  2.000000  2.000000  2.000000  2.000000
                       2.000000  2.000000  2.000000  2.000000  2.000000  2.000000
                       2.000000  2.000000  2.000000  2.000000  2.000000  2.000000
                       2.000000  2.000000  0.000000  0.000000  0.000000  0.000000
                       0.000000  0.000000  0.000000  0.000000  0.000000
        optdriver           1
            prtwf          -1
            rfdir           1       1       1
           rfelfd           2
            rprim      1.2340911256E+01  0.0000000000E+00 -7.4816973290E+00
                      -3.9140139607E+00  1.1703785086E+01 -7.4816973290E+00
                       0.0000000000E+00  0.0000000000E+00  1.4431697251E+01
          spgroup          87
           symrel      1  0  0   0  1  0   0  0  1      -1  0  0   0 -1  0   0  0 -1
                       0  1  0   1  0  0  -1 -1 -1       0 -1  0  -1  0  0   1  1  1
                      -1 -1 -1   0  0  1   1  0  0       1  1  1   0  0 -1  -1  0  0
                       0  0  1  -1 -1 -1   0  1  0       0  0 -1   1  1  1   0 -1  0
           tolwfr      1.00000000E-20
            typat      1  1  2  3  3  3  3  3  3
           useylm           1
              wtk        0.50000    0.50000
           xangst      7.9227005898E-02  4.6450322414E+00 -1.4068107477E-01
                       4.3800949819E+00  1.5483440805E+00 -1.4068107477E-01
                       0.0000000000E+00  0.0000000000E+00  0.0000000000E+00
                       3.6450406128E+00  4.4017130658E+00 -2.1413082282E+00
                       1.0999809547E+00  1.5277201373E+00 -1.9532039569E+00
                       4.1930439390E+00  1.3404819843E+00  3.4098588498E+00
                       2.6627804880E-01  4.8528943375E+00 -3.6912209993E+00
                       3.3593410331E+00  4.6656561845E+00 -5.9650834592E+00
                       8.1428137496E-01  1.7916632560E+00  1.8599460787E+00
            xcart      1.4971734347E-01  8.7778388146E+00 -2.6584870340E-01
                       8.2771799518E+00  2.9259462715E+00 -2.6584870340E-01
                       0.0000000000E+00  0.0000000000E+00  0.0000000000E+00
                       6.8881285015E+00  8.3180322100E+00 -4.0464861175E+00
                       2.0786627558E+00  2.8869726672E+00 -3.6910205603E+00
                       7.9237047079E+00  2.5331438365E+00  6.4436993779E+00
                       5.0319258744E-01  9.1706412497E+00 -6.9753967847E+00
                       6.3482345395E+00  8.8168124190E+00 -1.1272374098E+01
                       1.5387687938E+00  3.3857528762E+00  3.5147887107E+00
             xred      2.5000000000E-01  7.5000000000E-01  5.0000000000E-01
                       7.5000000000E-01  2.5000000000E-01  5.0000000000E-01
                       0.0000000000E+00  0.0000000000E+00  0.0000000000E+00
                       7.8356200000E-01  7.1071300000E-01  4.9427500000E-01
                       2.4667000000E-01  2.4667000000E-01  2.7755575616E-17
                       7.1071300000E-01  2.1643800000E-01  9.2715100000E-01
                       2.8928700000E-01  7.8356200000E-01  7.2849000000E-02
                       7.5333000000E-01  7.5333000000E-01 -5.5511151231E-17
                       2.1643800000E-01  2.8928700000E-01  5.0572500000E-01
            znucl       37.00000   52.00000   35.00000

 chkinp: Checking input parameters for consistency.

== DATASET  1 ==================================================================
-   mpi_nproc: 1, omp_nthreads: -1 (-1 if OMP is not activated)

--- !DatasetInfo
iteration_state: {dtset: 1, }
dimensions: {natom: 9, nkpt: 2, mband: 47, nsppol: 1, nspinor: 1, nspden: 1, mpw: 25224, }
cutoff_energies: {ecut:  40.0, pawecutdg:  -1.0, }
electrons: {nelect:   7.60000000E+01, charge:   0.00000000E+00, occopt:   1.00000000E+00, tsmear:   1.00000000E-02, }
meta: {optdriver: 1, rfelfd: 2, }
...

 Real(R)+Recip(G) space primitive vectors, cartesian coordinates (Bohr,Bohr^-1):
 R(1)= 12.3409113  0.0000000 -7.4816973  G(1)=  0.0810313  0.0270987  0.0000000
 R(2)= -3.9140140 11.7037851 -7.4816973  G(2)=  0.0000000  0.0854424  0.0000000
 R(3)=  0.0000000  0.0000000 14.4316973  G(3)=  0.0420083  0.0583437  0.0692919
 Unit cell volume ucvol=  2.0844476E+03 bohr^3
 Angles (23,13,12)=  1.21226406E+02  1.21226406E+02  8.78886119E+01 degrees

 getcut: wavevector=  0.0000  0.0000  0.0000  ngfft=  90  90  90
         ecut(hartree)=     40.000   => boxcut(ratio)=   2.19067

--- Pseudopotential description ------------------------------------------------
- pspini: atom type   1  psp file is /scratch/users/j/a/jabreu/pseudos/PBEsol/Rb.psp8
- pspatm: opening atomic psp file    /scratch/users/j/a/jabreu/pseudos/PBEsol/Rb.psp8
- Rb    ONCVPSP-3.3.0  r_core=   1.71227   1.75361   1.90633
- 37.00000   9.00000    180112                znucl, zion, pspdat
    8 -116133    2    4       600   0.00000   pspcod,pspxc,lmax,lloc,mmax,r2well
    5.99000000000000    7.00000000000000    0.00000000000000   rchrg,fchrg,qchrg
     nproj     2     2     2
     extension_switch     1
  pspatm : epsatm=   34.48400912
         --- l  ekb(1:nproj) -->
             0    8.196957   -0.477221
             1    3.231347   -0.378736
             2   -1.047201    0.996637
 pspatm: atomic psp has been read  and splines computed

- pspini: atom type   2  psp file is /scratch/users/j/a/jabreu/pseudos/PBEsol/Te.psp8
- pspatm: opening atomic psp file    /scratch/users/j/a/jabreu/pseudos/PBEsol/Te.psp8
- Te    ONCVPSP-3.3.0  r_core=   2.26547   1.91704   1.80604
- 52.00000  16.00000    180112                znucl, zion, pspdat
    8 -116133    2    4       600   0.00000   pspcod,pspxc,lmax,lloc,mmax,r2well
    5.99000000000000    5.00000000000000    0.00000000000000   rchrg,fchrg,qchrg
     nproj     2     2     2
     extension_switch     1
  pspatm : epsatm=   36.82679836
         --- l  ekb(1:nproj) -->
             0    6.345999    0.785432
             1    5.709019    1.070069
             2   -6.035173   -1.870937
 pspatm: atomic psp has been read  and splines computed

- pspini: atom type   3  psp file is /scratch/users/j/a/jabreu/pseudos/PBEsol/Br.psp8
- pspatm: opening atomic psp file    /scratch/users/j/a/jabreu/pseudos/PBEsol/Br.psp8
- Br    ONCVPSP-3.3.0  r_core=   1.81012   1.51356   1.92136
- 35.00000   7.00000    180112                znucl, zion, pspdat
    8 -116133    2    4       600   0.00000   pspcod,pspxc,lmax,lloc,mmax,r2well
    5.99000000000000    8.00000000000000    0.00000000000000   rchrg,fchrg,qchrg
     nproj     2     2     2
     extension_switch     1
  pspatm : epsatm=   10.94933070
         --- l  ekb(1:nproj) -->
             0    8.508690    0.897946
             1    5.393311    0.892021
             2    2.527513    0.394763
 pspatm: atomic psp has been read  and splines computed

   1.30333009E+04                                ecore*ucvol(ha*bohr**3)

-inwffil : will read wavefunctions from disk file /scratch/users/j/a/jabreu/flow_simple_9atoms/flow/w200/t1/indata/in_WFK

 ==>  initialize data related to q vector <==

 The list of irreducible perturbations for this q vector is:
    1)    idir= 1    ipert=  10
    2)    idir= 2    ipert=  10
    3)    idir= 3    ipert=  10

 Perturbation wavevector (in red.coord.)   0.000000  0.000000  0.000000
 Perturbation : derivative vs k along direction   1

 dfpt_looppert : COMMENT -
  In a d/dk calculation, iscf is set to -3 automatically.
 The set of symmetries contains only one element for this perturbation.
 symkpt : not enough symmetry to change the number of k points.

[...]

 Initialisation of the first-order wave-functions :
  ireadwf=   0

--- !BeginCycle
iteration_state: {dtset: 1, }
solver: {iscf: 7, nstep: 2000, nline: 4, wfoptalg: 0, }
tolerances: {tolwfr: 1.00E-20, }
...

     iter   2DEtotal(Ha)        deltaE(Ha) residm    vres2
-ETOT  1  -29.102392557837     -2.910E+01 6.038E-02 0.000E+00
 ETOT  2  -29.114364706409     -1.197E-02 1.273E-02 0.000E+00
 ETOT  3  -29.114378698814     -1.399E-05 2.154E-03 0.000E+00
 ETOT  4  -29.114378735848     -3.703E-08 4.556E-04 0.000E+00
 ETOT  5  -29.114378735979     -1.302E-10 8.906E-05 0.000E+00
 ETOT  6  -29.114378735979     -5.045E-13 2.103E-05 0.000E+00
 ETOT  7  -29.114378735979      7.105E-15 5.108E-06 0.000E+00
 ETOT  8  -29.114378735979      3.553E-15 1.244E-06 0.000E+00
[...]
 ETOT 28  -29.114378735979      7.105E-15 1.431E-17 0.000E+00
 ETOT 29  -29.114378735979      0.000E+00 4.417E-18 0.000E+00
 ETOT 30  -29.114378735979     -1.066E-14 1.233E-18 0.000E+00
 ETOT 31  -29.114378735979      3.553E-15 3.809E-19 0.000E+00
 ETOT 32  -29.114378735979      7.105E-15 1.063E-19 0.000E+00
 ETOT 33  -29.114378735979     -7.105E-15 3.290E-20 0.000E+00
 ETOT 34  -29.114378735979      0.000E+00 9.852E-21 0.000E+00

 At SCF step   34   max residual=  9.85E-21 < tolwfr=  1.00E-20 =>converged.

 ----iterations are completed or convergence reached----

 dfpt_looppert: DFPT cycle converged with prtwf=-1. Will skip output of the 1st-order WFK file.
 dfpt_looppert : ek2=    4.3807719731E+01
          f-sum rule ratio=    1.0087468765E+00
 prteigrs : about to open file /scratch/users/j/a/jabreu/flow_simple_9atoms/flow/w200/t1/tmpdata/tmp_1WF1_EIG
 Expectation of eigenvalue derivatives (hartree) for nkpt=   2  k points:
  (in case of degenerate eigenvalues, averaged derivative)
 kpt#   1, nband= 47, wtk=  0.50000, kpt=  0.2500  0.2500  0.2500 (reduced coord)
  -0.00000   -0.00000   -0.00000    0.00000    0.00000    0.00000    0.00000   -0.00000
  -0.00000    0.00000    0.00000    0.00000   -0.00000   -0.00000   -0.00000    0.00000
   0.00000    0.00000   -0.00000    0.00000    0.00000   -0.00000   -0.00000   -0.00000
  -0.00000    0.00000   -0.00000    0.00000    0.00000   -0.00000    0.00000    0.00000
  -0.00000    0.00000   -0.00000    0.00000    0.00000    0.00000    0.00000   -0.00000
  -0.00000   -0.00000    0.00000    0.00000   -0.00000    0.01806   -0.01824
 prteigrs : prtvol=0 or 1, do not print more k-points.

 Eight components of 2nd-order total energy (hartree) are
 1,2,3: 0th-order hamiltonian combined with 1st-order wavefunctions
     kin0=   3.27543133E+01 eigvalue=   4.49736861E+00  local=  -1.84734945E+01
 4,5,6: 1st-order hamiltonian combined with 1st and 0th-order wfs
     kin1=  -4.41909004E+01  Hartree=   0.00000000E+00     xc=   0.00000000E+00
 7,8,9: eventually, occupation + non-local contributions
    edocc=   6.63144866E+00     enl0=   3.70474270E+00   enl1=  -1.40378570E+01
 1-9 gives the relaxation energy (to be shifted if some occ is /=2.0)
   erelax=  -2.91143787E+01
  No Ewald or frozen-wf contrib.: the relaxation energy is the total one
 2DEtotal=   -0.2911437874E+02 Ha. Also 2DEtotal=   -0.792242535630E+03 eV
    (  non-var. 2DEtotal :   -2.9114378736E+01 Ha)

 Perturbation wavevector (in red.coord.)   0.000000  0.000000  0.000000
 Perturbation : derivative vs k along direction   2
 The set of symmetries contains only one element for this perturbation.
 symkpt : not enough symmetry to change the number of k points.

[...]

 Perturbation wavevector (in red.coord.)   0.000000  0.000000  0.000000
 Perturbation : derivative vs k along direction   3
 The set of symmetries contains only one element for this perturbation.
 symkpt : not enough symmetry to change the number of k points.

-inwffil : will read wavefunctions from disk file /scratch/users/j/a/jabreu/flow_simple_9atoms/flow/w200/t1/indata/in_WFK

 Initialisation of the first-order wave-functions :
  ireadwf=   0

--- !BeginCycle
iteration_state: {dtset: 1, }
solver: {iscf: 7, nstep: 2000, nline: 4, wfoptalg: 0, }
tolerances: {tolwfr: 1.00E-20, }
...

     iter   2DEtotal(Ha)        deltaE(Ha) residm    vres2
-ETOT  1  -38.932892394889     -3.893E+01 1.049E-01 0.000E+00
 ETOT  2  -38.948730914294     -1.584E-02 1.923E-02 0.000E+00
 ETOT  3  -38.948747334023     -1.642E-05 3.103E-03 0.000E+00
 ETOT  4  -38.948747370754     -3.673E-08 5.613E-04 0.000E+00
 ETOT  5  -38.948747370867     -1.129E-10 1.754E-04 0.000E+00
 ETOT  6  -38.948747370867     -4.547E-13 3.388E-05 0.000E+00
 ETOT  7  -38.948747370867      3.553E-14 1.073E-05 0.000E+00
 ETOT  8  -38.948747370867     -2.132E-14 2.254E-06 0.000E+00
 ETOT  9  -38.948747370867      0.000E+00 7.142E-07 0.000E+00
 ETOT 10  -38.948747370867      2.132E-14 1.580E-07 0.000E+00
 ETOT 11  -38.948747370867     -2.132E-14 5.112E-08 0.000E+00
 ETOT 12  -38.948747370867      7.105E-15 1.172E-08 0.000E+00
 ETOT 13  -38.948747370867      7.105E-15 3.902E-09 0.000E+00
 ETOT 14  -38.948747370867      0.000E+00 9.167E-10 0.000E+00
 ETOT 15  -38.948747370867     -7.105E-15 3.144E-10 0.000E+00
 ETOT 16  -38.948747370867      0.000E+00 7.508E-11 0.000E+00
 ETOT 17  -38.948747370867     -7.105E-15 2.647E-11 0.000E+00
 ETOT 18  -38.948747370867      0.000E+00 6.388E-12 0.000E+00
 ETOT 19  -38.948747370867      1.421E-14 2.306E-12 0.000E+00
 ETOT 20  -38.948747370867     -7.105E-15 5.603E-13 0.000E+00
 ETOT 21  -38.948747370867      0.000E+00 2.063E-13 0.000E+00
 ETOT 22  -38.948747370867      1.421E-14 5.031E-14 0.000E+00
 ETOT 23  -38.948747370867      0.000E+00 1.882E-14 0.000E+00
 ETOT 24  -38.948747370867      0.000E+00 4.597E-15 0.000E+00
 ETOT 25  -38.948747370867     -2.132E-14 1.741E-15 0.000E+00
 ETOT 26  -38.948747370867      1.421E-14 4.255E-16 0.000E+00
 ETOT 27  -38.948747370867      0.000E+00 1.626E-16 0.000E+00
 ETOT 28  -38.948747370867     -7.105E-15 3.976E-17 0.000E+00
 ETOT 29  -38.948747370867      7.105E-15 1.530E-17 0.000E+00
 ETOT 30  -38.948747370867      7.105E-15 3.740E-18 0.000E+00
 ETOT 31  -38.948747370867      0.000E+00 1.447E-18 0.000E+00
 ETOT 32  -38.948747370867      0.000E+00 3.536E-19 0.000E+00
 ETOT 33  -38.948747370867     -1.421E-14 1.374E-19 0.000E+00
 ETOT 34  -38.948747370867      7.105E-15 3.354E-20 0.000E+00
 ETOT 35  -38.948747370867      0.000E+00 9.994E-21 0.000E+00

 At SCF step   35   max residual=  9.99E-21 < tolwfr=  1.00E-20 =>converged.

 ----iterations are completed or convergence reached----

 dfpt_looppert: DFPT cycle converged with prtwf=-1. Will skip output of the 1st-order WFK file.
 dfpt_looppert : ek2=    5.9827535803E+01
          f-sum rule ratio=    9.8204594180E-01
 prteigrs : about to open file /scratch/users/j/a/jabreu/flow_simple_9atoms/flow/w200/t1/tmpdata/tmp_1WF1_EIG
 Expectation of eigenvalue derivatives (hartree) for nkpt=   2  k points:
  (in case of degenerate eigenvalues, averaged derivative)
 kpt#   1, nband= 47, wtk=  0.50000, kpt=  0.2500  0.2500  0.2500 (reduced coord)
  -0.00000   -0.00000    0.00000    0.00000   -0.00000    0.00000    0.00000   -0.00000
  -0.00000    0.00000    0.00000   -0.00000    0.00000   -0.00000   -0.00000   -0.00000
  -0.00000   -0.00000    0.00000    0.00000    0.00000   -0.00000   -0.00000   -0.00000
  -0.00000    0.00000    0.00000    0.00000    0.00000    0.00000   -0.00000   -0.00000
   0.00000    0.00000    0.00000    0.00000    0.00000   -0.00000    0.00000   -0.00000
  -0.00000   -0.00000   -0.00000   -0.00000    0.00000   -0.00000    0.00023
 prteigrs : prtvol=0 or 1, do not print more k-points.

 Eight components of 2nd-order total energy (hartree) are
 1,2,3: 0th-order hamiltonian combined with 1st-order wavefunctions
     kin0=   4.59354830E+01 eigvalue=   6.27335803E+00  local=  -2.60855660E+01
 4,5,6: 1st-order hamiltonian combined with 1st and 0th-order wfs
     kin1=  -5.87533887E+01  Hartree=   0.00000000E+00     xc=   0.00000000E+00
 7,8,9: eventually, occupation + non-local contributions
    edocc=   7.55394810E+00     enl0=   5.27152423E+00   enl1=  -1.91441060E+01
 1-9 gives the relaxation energy (to be shifted if some occ is /=2.0)
   erelax=  -3.89487474E+01
  No Ewald or frozen-wf contrib.: the relaxation energy is the total one
 2DEtotal=   -0.3894874737E+02 Ha. Also 2DEtotal=   -0.105984931557E+04 eV
    (  non-var. 2DEtotal :   -3.8948747371E+01 Ha)

 CALCULATION OF EFFECTIVE MASSES
 NOTE : Additional infos (eff. mass eigenvalues, eigenvectors and, if degenerate, average mass) are available in stdout.

 K-point ( 0.250, 0.250, 0.250) | band =    38
 Effective mass tensor:
             -2.2821311983             -1.7860954869              2.2835168182
             -1.7860954869             -3.4766755423              3.1714364269
              2.2835168182              3.1714364269             -5.0507543616
 Effective mass tensor eigenvalues:
             -8.8173878460             -0.9960936741             -0.9960795821
 Angular average effective mass 1/(<1/m>)=  -1.4142472812
 Angular average effective mass for Frohlich model (<m**0.5>)**2=  -1.6934230675
 Effective masses along directions: (cart. coord. / red. coord. -> eff. mass)
    1:   1.000000  0.000000  0.000000 /   0.953207 -0.302317  0.000000 ->  -1.1661843977
    2:   0.000000  1.000000  0.000000 /   0.000000  1.000000  0.000000 ->  -1.3860048910
    3:   0.000000  0.000000  1.000000 /  -0.418092 -0.418092  0.806472 ->  -1.8440852909
    4:   0.577350  0.577350  0.577350 /   0.319036  0.020227  0.947527 ->  -1.0146347355
    5:   0.000000  0.707107  0.707107 /  -0.445469  0.251388  0.859280 ->  -1.0070670928
    6:   0.707107  0.000000  0.707107 /   0.255484 -0.599154  0.758777 ->  -1.0417973242
    7:   0.707107  0.707107  0.000000 /   0.845628  0.533773  0.000000 ->  -1.7060848826

 K-point ( 0.000, 0.500, 0.000) | band =    39
 Effective mass tensor:
              0.3709604695             -0.0175522269              0.0204120882
             -0.0175522269              0.6999686465              0.0060038972
              0.0204120882              0.0060038972              0.4016253961
 Effective mass tensor eigenvalues:
              0.3597698602              0.4118013454              0.7009833065
 Angular average effective mass 1/(<1/m>)=   0.4521833086
 Angular average effective mass for Frohlich model (<m**0.5>)**2=   0.4624031463
 Effective masses along directions: (cart. coord. / red. coord. -> eff. mass)
    1:   1.000000  0.000000  0.000000 /   0.953207 -0.302317  0.000000 ->   0.3694674221
    2:   0.000000  1.000000  0.000000 /   0.000000  1.000000  0.000000 ->   0.6990168621
    3:   0.000000  0.000000  1.000000 /  -0.418092 -0.418092  0.806472 ->   0.4004327406
    4:   0.577350  0.577350  0.577350 /   0.319036  0.020227  0.947527 ->   0.4654323131
    5:   0.000000  0.707107  0.707107 /  -0.445469  0.251388  0.859280 ->   0.5157180792
    6:   0.707107  0.000000  0.707107 /   0.255484 -0.599154  0.758777 ->   0.4059501365
    7:   0.707107  0.707107  0.000000 /   0.845628  0.533773  0.000000 ->   0.4678037978

 END OF EFFECTIVE MASSES SECTION

 ---- first-order wavefunction calculations are completed ----

 Total localisation tensor (bohr^2) in cartesian coordinates
  WARNING : still subject to testing - especially symmetries.
      direction              matrix element
   alpha     beta       real part   imaginary part
     1        1       1.5682357264    0.0000000000
     1        2      -0.3796556301    0.0000000000
     1        3      -0.6310757986    0.0000000000
     2        1      -0.3796556301    0.0000000000
     2        2       1.1352560174    0.0000000000
     2        3      -0.7257175222    0.0000000000
     3        1      -0.6310757986    0.0000000000
     3        2      -0.7257175222    0.0000000000
     3        3       3.5331497097    0.0000000000

 respfn : d/dk was computed, but no 2DTE, so no DDB output.

== END DATASET(S) ==============================================================

 -outvars: echo values of variables after computation  --------
            acell      1.0000000000E+00  1.0000000000E+00  1.0000000000E+00 Bohr
              amu      8.54678000E+01  1.27600000E+02  7.99040000E+01
             ecut      4.00000000E+01 Hartree
           etotal     -3.8948747371E+01
            fcart      0.0000000000E+00  0.0000000000E+00  0.0000000000E+00
                       0.0000000000E+00  0.0000000000E+00  0.0000000000E+00
                       0.0000000000E+00  0.0000000000E+00  0.0000000000E+00
                       0.0000000000E+00  0.0000000000E+00  0.0000000000E+00
                       0.0000000000E+00  0.0000000000E+00  0.0000000000E+00
                       0.0000000000E+00  0.0000000000E+00  0.0000000000E+00
                       0.0000000000E+00  0.0000000000E+00  0.0000000000E+00
                       0.0000000000E+00  0.0000000000E+00  0.0000000000E+00
                       0.0000000000E+00  0.0000000000E+00  0.0000000000E+00
-          fftalg         512
           irdden           1
           irdwfk           1
           istwfk        0    1
              ixc     -116133
              kpt      2.50000000E-01  2.50000000E-01  2.50000000E-01
                       0.00000000E+00  5.00000000E-01  0.00000000E+00
           kptopt           0
P           mkmem           2
P          mkqmem           2
P          mk1mem           2
            natom           9
            nband          47
           nbdbuf           4
            ngfft          90      90      90
             nkpt           2
            nstep        2000
             nsym           8
           ntypat           3
              occ      2.000000  2.000000  2.000000  2.000000  2.000000  2.000000
                       2.000000  2.000000  2.000000  2.000000  2.000000  2.000000
                       2.000000  2.000000  2.000000  2.000000  2.000000  2.000000
                       2.000000  2.000000  2.000000  2.000000  2.000000  2.000000
                       2.000000  2.000000  2.000000  2.000000  2.000000  2.000000
                       2.000000  2.000000  2.000000  2.000000  2.000000  2.000000
                       2.000000  2.000000  0.000000  0.000000  0.000000  0.000000
                       0.000000  0.000000  0.000000  0.000000  0.000000
        optdriver           1
            prtwf          -1
            rfdir           1       1       1
           rfelfd           2
            rprim      1.2340911256E+01  0.0000000000E+00 -7.4816973290E+00
                      -3.9140139607E+00  1.1703785086E+01 -7.4816973290E+00
                       0.0000000000E+00  0.0000000000E+00  1.4431697251E+01
          spgroup          87
           strten      0.0000000000E+00  0.0000000000E+00  0.0000000000E+00
                       0.0000000000E+00  0.0000000000E+00  0.0000000000E+00
           symrel      1  0  0   0  1  0   0  0  1      -1  0  0   0 -1  0   0  0 -1
                       0  1  0   1  0  0  -1 -1 -1       0 -1  0  -1  0  0   1  1  1
                      -1 -1 -1   0  0  1   1  0  0       1  1  1   0  0 -1  -1  0  0
                       0  0  1  -1 -1 -1   0  1  0       0  0 -1   1  1  1   0 -1  0
           tolwfr      1.00000000E-20
            typat      1  1  2  3  3  3  3  3  3
           useylm           1
              wtk        0.50000    0.50000
           xangst      7.9227005898E-02  4.6450322414E+00 -1.4068107477E-01
                       4.3800949819E+00  1.5483440805E+00 -1.4068107477E-01
                       0.0000000000E+00  0.0000000000E+00  0.0000000000E+00
                       3.6450406128E+00  4.4017130658E+00 -2.1413082282E+00
                       1.0999809547E+00  1.5277201373E+00 -1.9532039569E+00
                       4.1930439390E+00  1.3404819843E+00  3.4098588498E+00
                       2.6627804880E-01  4.8528943375E+00 -3.6912209993E+00
                       3.3593410331E+00  4.6656561845E+00 -5.9650834592E+00
                       8.1428137496E-01  1.7916632560E+00  1.8599460787E+00
            xcart      1.4971734347E-01  8.7778388146E+00 -2.6584870340E-01
                       8.2771799518E+00  2.9259462715E+00 -2.6584870340E-01
                       0.0000000000E+00  0.0000000000E+00  0.0000000000E+00
                       6.8881285015E+00  8.3180322100E+00 -4.0464861175E+00
                       2.0786627558E+00  2.8869726672E+00 -3.6910205603E+00
                       7.9237047079E+00  2.5331438365E+00  6.4436993779E+00
                       5.0319258744E-01  9.1706412497E+00 -6.9753967847E+00
                       6.3482345395E+00  8.8168124190E+00 -1.1272374098E+01
                       1.5387687938E+00  3.3857528762E+00  3.5147887107E+00
             xred      2.5000000000E-01  7.5000000000E-01  5.0000000000E-01
                       7.5000000000E-01  2.5000000000E-01  5.0000000000E-01
                       0.0000000000E+00  0.0000000000E+00  0.0000000000E+00
                       7.8356200000E-01  7.1071300000E-01  4.9427500000E-01
                       2.4667000000E-01  2.4667000000E-01  2.7755575616E-17
                       7.1071300000E-01  2.1643800000E-01  9.2715100000E-01
                       2.8928700000E-01  7.8356200000E-01  7.2849000000E-02
                       7.5333000000E-01  7.5333000000E-01 -5.5511151231E-17
                       2.1643800000E-01  2.8928700000E-01  5.0572500000E-01
            znucl       37.00000   52.00000   35.00000

- Timing analysis has been suppressed with timopt=0

 Suggested references for the acknowledgment of ABINIT usage.

 Calculation completed.
.Delivered  14 WARNINGs and  11 COMMENTs to log file.