.Version 9.5.1 of ABINIT

 ABINIT is a project of the Universite Catholique de Louvain,
 Corning Inc. and other collaborators, see ~abinit/doc/developers/contributors.txt .
 acknowledgments of the ABINIT effort.

.Starting date : Wed 19 May 2021.
- ( at 15h34 )

- input  file    -> /scratch/users/j/a/jabreu/flow_simple_9atoms/flow/w189/t1/run.abi
- output file    -> /scratch/users/j/a/jabreu/flow_simple_9atoms/flow/w189/t1/run.abo
- root for input  files -> /scratch/users/j/a/jabreu/flow_simple_9atoms/flow/w189/t1/indata/in
- root for output files -> /scratch/users/j/a/jabreu/flow_simple_9atoms/flow/w189/t1/outdata/out

 Symmetries : space group Fm -3 m (#225); Bravais cF (face-center cubic)
     intxc =       0      iscf =       7    lmnmax =      32     lnmax =       8
     mgfft =      90  mpssoang =       4    mqgrid =    3605     natom =       9
  nloc_mem =       1    nspden =       1   nspinor =       1    nsppol =       1
      nsym =      48    n1xccc =    2501    ntypat =       3    occopt =       1
   xclevel =       2
-    mband =          47        mffmem =           1         mkmem =           2
-   mkqmem =           2        mk1mem =           2           mpw =       31879
      nfft =      729000          nkpt =           2
  Rough estimation (10% accuracy) of disk space for files :

------------- Echo of variables that govern the present computation ------------
-
- outvars: echo of selected default values
-   iomode0 =  0 , fftalg0 =512 , wfoptalg0 =  0
-
- outvars: echo of global parameters not present in the input file
-  max_nthreads =    0
-
 -outvars: echo values of preprocessed input variables --------
            acell      1.0000000000E+00  1.0000000000E+00  1.0000000000E+00 Bohr
              amu      1.32905430E+02  1.27600000E+02  1.26904470E+02
             ecut      4.00000000E+01 Hartree
-          fftalg         512
           irdden           1
           irdwfk           1
           istwfk        1    1
              ixc     -116133
              kpt      0.00000000E+00  0.00000000E+00  0.00000000E+00
                       5.00000000E-01  5.00000000E-01  5.00000000E-01
           kptopt           0
P           mkmem           2
P          mkqmem           2
P          mk1mem           2
            natom           9
            nband          47
           nbdbuf           4
            ngfft          90      90      90
             nkpt           2
            nstep        2000
             nsym          48
           ntypat           3
              occ      2.000000  2.000000  2.000000  2.000000  2.000000  2.000000
                       2.000000  2.000000  2.000000  2.000000  2.000000  2.000000
                       2.000000  2.000000  2.000000  2.000000  2.000000  2.000000
                       2.000000  2.000000  2.000000  2.000000  2.000000  2.000000
                       2.000000  2.000000  2.000000  2.000000  2.000000  2.000000
                       2.000000  2.000000  2.000000  2.000000  2.000000  2.000000
                       2.000000  2.000000  0.000000  0.000000  0.000000  0.000000
                       0.000000  0.000000  0.000000  0.000000  0.000000
        optdriver           1
            prtwf          -1
            rfdir           1       1       1
           rfelfd           2
            rprim      1.3427172327E+01  0.0000000000E+00  7.7521815575E+00
                       4.4757241090E+00  1.2659259473E+01  7.7521815575E+00
                       0.0000000000E+00  0.0000000000E+00  1.5504363115E+01
          spgroup         225
           symrel      1  0  0   0  1  0   0  0  1      -1  0  0   0 -1  0   0  0 -1
                       0 -1  1   0 -1  0   1 -1  0       0  1 -1   0  1  0  -1  1  0
                      -1  0  0  -1  0  1  -1  1  0       1  0  0   1  0 -1   1 -1  0
                       0  1 -1   1  0 -1   0  0 -1       0 -1  1  -1  0  1   0  0  1
                      -1  0  0  -1  1  0  -1  0  1       1  0  0   1 -1  0   1  0 -1
                       0 -1  1   1 -1  0   0 -1  0       0  1 -1  -1  1  0   0  1  0
                       1  0  0   0  0  1   0  1  0      -1  0  0   0  0 -1   0 -1  0
                       0  1 -1   0  0 -1   1  0 -1       0 -1  1   0  0  1  -1  0  1
                      -1  0  1  -1  1  0  -1  0  0       1  0 -1   1 -1  0   1  0  0
                       0 -1  0   1 -1  0   0 -1  1       0  1  0  -1  1  0   0  1 -1
                       1  0 -1   0  0 -1   0  1 -1      -1  0  1   0  0  1   0 -1  1
                       0  1  0   0  0  1   1  0  0       0 -1  0   0  0 -1  -1  0  0
                       1  0 -1   0  1 -1   0  0 -1      -1  0  1   0 -1  1   0  0  1
                       0 -1  0   0 -1  1   1 -1  0       0  1  0   0  1 -1  -1  1  0
                      -1  0  1  -1  0  0  -1  1  0       1  0 -1   1  0  0   1 -1  0
                       0  1  0   1  0  0   0  0  1       0 -1  0  -1  0  0   0  0 -1
                       0  0 -1   0  1 -1   1  0 -1       0  0  1   0 -1  1  -1  0  1
                       1 -1  0   0 -1  1   0 -1  0      -1  1  0   0  1 -1   0  1  0
                       0  0  1   1  0  0   0  1  0       0  0 -1  -1  0  0   0 -1  0
                      -1  1  0  -1  0  0  -1  0  1       1 -1  0   1  0  0   1  0 -1
                       0  0  1   0  1  0   1  0  0       0  0 -1   0 -1  0  -1  0  0
                       1 -1  0   0 -1  0   0 -1  1      -1  1  0   0  1  0   0  1 -1
                       0  0 -1   1  0 -1   0  1 -1       0  0  1  -1  0  1   0 -1  1
                      -1  1  0  -1  0  1  -1  0  0       1 -1  0   1  0 -1   1  0  0
           tolwfr      1.00000000E-20
            typat      1  1  2  3  3  3  3  3  3
           useylm           1
              wtk        0.50000    0.50000
           xangst      7.1053535713E+00  5.0242436930E+00  1.2306833391E+01
                       2.3684511904E+00  1.6747478977E+00  4.1022777971E+00
                       0.0000000000E+00  0.0000000000E+00  0.0000000000E+00
                       5.9069646380E+00  1.6947778825E+00  1.0231162871E+01
                       2.3967778667E+00  1.6947778825E+00  8.2045555942E+00
                       7.0770268951E+00  5.0042137081E+00  8.2045555942E+00
                       5.9069646380E+00  1.6947778825E+00  6.1779483168E+00
                       3.5668401238E+00  5.0042137081E+00  1.0231162871E+01
                       3.5668401238E+00  5.0042137081E+00  6.1779483168E+00
            xcart      1.3427172327E+01  9.4944446046E+00  2.3256544672E+01
                       4.4757241090E+00  3.1648148682E+00  7.7521815575E+00
                       0.0000000000E+00  0.0000000000E+00  0.0000000000E+00
                       1.1162545442E+01  3.2026660540E+00  1.9334095848E+01
                       4.5292537694E+00  3.2026660540E+00  1.5504363115E+01
                       1.3373642667E+01  9.4565934188E+00  1.5504363115E+01
                       1.1162545442E+01  3.2026660540E+00  1.1674630382E+01
                       6.7403509937E+00  9.4565934188E+00  1.9334095848E+01
                       6.7403509937E+00  9.4565934188E+00  1.1674630382E+01
             xred      7.5000000000E-01  7.5000000000E-01  7.5000000000E-01
                       2.5000000000E-01  2.5000000000E-01  2.5000000000E-01
                       0.0000000000E+00  0.0000000000E+00  0.0000000000E+00
                       7.4701000000E-01  2.5299000000E-01  7.4701000000E-01
                       2.5299000000E-01  2.5299000000E-01  7.4701000000E-01
                       7.4701000000E-01  7.4701000000E-01  2.5299000000E-01
                       7.4701000000E-01  2.5299000000E-01  2.5299000000E-01
                       2.5299000000E-01  7.4701000000E-01  7.4701000000E-01
                       2.5299000000E-01  7.4701000000E-01  2.5299000000E-01
            znucl       55.00000   52.00000   53.00000

 chkinp: Checking input parameters for consistency.

== DATASET  1 ==================================================================
-   mpi_nproc: 1, omp_nthreads: -1 (-1 if OMP is not activated)

--- !DatasetInfo
iteration_state: {dtset: 1, }
dimensions: {natom: 9, nkpt: 2, mband: 47, nsppol: 1, nspinor: 1, nspden: 1, mpw: 31879, }
cutoff_energies: {ecut:  40.0, pawecutdg:  -1.0, }
electrons: {nelect:   7.60000000E+01, charge:   0.00000000E+00, occopt:   1.00000000E+00, tsmear:   1.00000000E-02, }
meta: {optdriver: 1, rfelfd: 2, }
...

 Real(R)+Recip(G) space primitive vectors, cartesian coordinates (Bohr,Bohr^-1):
 R(1)= 13.4271723  0.0000000  7.7521816  G(1)=  0.0744758 -0.0263312  0.0000000
 R(2)=  4.4757241 12.6592595  7.7521816  G(2)=  0.0000000  0.0789936  0.0000000
 R(3)=  0.0000000  0.0000000 15.5043631  G(3)= -0.0372379 -0.0263312  0.0644980
 Unit cell volume ucvol=  2.6354015E+03 bohr^3
 Angles (23,13,12)=  6.00000000E+01  6.00000000E+01  6.00000000E+01 degrees

 getcut: wavevector=  0.0000  0.0000  0.0000  ngfft=  90  90  90
         ecut(hartree)=     40.000   => boxcut(ratio)=   2.03914

--- Pseudopotential description ------------------------------------------------
- pspini: atom type   1  psp file is /scratch/users/j/a/jabreu/pseudos/PBEsol/Cs.psp8
- pspatm: opening atomic psp file    /scratch/users/j/a/jabreu/pseudos/PBEsol/Cs.psp8
- Cs    ONCVPSP-3.3.0  r_core=   2.27353   1.85623   2.01788   1.90105
- 55.00000   9.00000    180112                znucl, zion, pspdat
    8 -116133    3    4       600   0.00000   pspcod,pspxc,lmax,lloc,mmax,r2well
    5.99000000000000    5.00000000000000    0.00000000000000   rchrg,fchrg,qchrg
     nproj     2     2     2     2
     extension_switch     1
  pspatm : epsatm=   22.12462445
         --- l  ekb(1:nproj) -->
             0    6.214110    0.767882
             1    6.311966    0.793598
             2    3.769790    0.913105
             3   -9.247129   -2.432478
 pspatm: atomic psp has been read  and splines computed

- pspini: atom type   2  psp file is /scratch/users/j/a/jabreu/pseudos/PBEsol/Te.psp8
- pspatm: opening atomic psp file    /scratch/users/j/a/jabreu/pseudos/PBEsol/Te.psp8
- Te    ONCVPSP-3.3.0  r_core=   2.26547   1.91704   1.80604
- 52.00000  16.00000    180112                znucl, zion, pspdat
    8 -116133    2    4       600   0.00000   pspcod,pspxc,lmax,lloc,mmax,r2well
    5.99000000000000    5.00000000000000    0.00000000000000   rchrg,fchrg,qchrg
     nproj     2     2     2
     extension_switch     1
  pspatm : epsatm=   36.82679836
         --- l  ekb(1:nproj) -->
             0    6.345999    0.785432
             1    5.709019    1.070069
             2   -6.035173   -1.870937
 pspatm: atomic psp has been read  and splines computed

- pspini: atom type   3  psp file is /scratch/users/j/a/jabreu/pseudos/PBEsol/I.psp8
- pspatm: opening atomic psp file    /scratch/users/j/a/jabreu/pseudos/PBEsol/I.psp8
- I     ONCVPSP-3.3.0  r_core=   2.02042   2.17032   2.27639
- 53.00000   7.00000    180112                znucl, zion, pspdat
    8 -116133    2    4       600   0.00000   pspcod,pspxc,lmax,lloc,mmax,r2well
    5.99000000000000    4.00000000000000    0.00000000000000   rchrg,fchrg,qchrg
     nproj     2     2     2
     extension_switch     1
  pspatm : epsatm=   18.14229533
[...]

 Initialisation of the first-order wave-functions :
  ireadwf=   0

--- !BeginCycle
iteration_state: {dtset: 1, }
solver: {iscf: 7, nstep: 2000, nline: 4, wfoptalg: 0, }
tolerances: {tolwfr: 1.00E-20, }
...

     iter   2DEtotal(Ha)        deltaE(Ha) residm    vres2
-ETOT  1  -29.597251632745     -2.960E+01 1.189E-02 0.000E+00
 ETOT  2  -29.607373262888     -1.012E-02 3.104E-04 0.000E+00
 ETOT  3  -29.607549636296     -1.764E-04 1.892E-05 0.000E+00
 ETOT  4  -29.607565973900     -1.634E-05 2.941E-06 0.000E+00
 ETOT  5  -29.607567690172     -1.716E-06 6.077E-07 0.000E+00
 ETOT  6  -29.607567883359     -1.932E-07 1.018E-07 0.000E+00
 ETOT  7  -29.607567906002     -2.264E-08 2.131E-08 0.000E+00
 ETOT  8  -29.607567908737     -2.736E-09 4.116E-09 0.000E+00
 ETOT  9  -29.607567909075     -3.380E-10 7.615E-10 0.000E+00
 ETOT 10  -29.607567909118     -4.259E-11 1.691E-10 0.000E+00
 ETOT 11  -29.607567909123     -5.485E-12 2.755E-11 0.000E+00
 ETOT 12  -29.607567909124     -6.750E-13 7.013E-12 0.000E+00
 ETOT 13  -29.607567909124     -1.066E-13 1.112E-12 0.000E+00
 ETOT 14  -29.607567909124     -7.105E-15 2.926E-13 0.000E+00
 ETOT 15  -29.607567909124      1.421E-14 4.641E-14 0.000E+00
 ETOT 16  -29.607567909124      0.000E+00 1.225E-14 0.000E+00
 ETOT 17  -29.607567909124     -1.421E-14 1.942E-15 0.000E+00
 ETOT 18  -29.607567909124      3.553E-15 5.142E-16 0.000E+00
 ETOT 19  -29.607567909124     -1.066E-14 8.141E-17 0.000E+00
 ETOT 20  -29.607567909124      1.421E-14 2.162E-17 0.000E+00
 ETOT 21  -29.607567909124     -1.776E-14 3.417E-18 0.000E+00
 ETOT 22  -29.607567909124      3.553E-15 9.099E-19 0.000E+00
 ETOT 23  -29.607567909124      3.553E-15 1.436E-19 0.000E+00
 ETOT 24  -29.607567909124     -3.553E-15 3.833E-20 0.000E+00
 ETOT 25  -29.607567909124      0.000E+00 9.945E-21 0.000E+00

 At SCF step   25   max residual=  9.95E-21 < tolwfr=  1.00E-20 =>converged.

 ----iterations are completed or convergence reached----

 dfpt_looppert: DFPT cycle converged with prtwf=-1. Will skip output of the 1st-order WFK file.
 dfpt_looppert : ek2=    3.7444386688E+01
          f-sum rule ratio=    1.1553632390E+00
 prteigrs : about to open file /scratch/users/j/a/jabreu/flow_simple_9atoms/flow/w189/t1/tmpdata/tmp_1WF1_EIG
 Expectation of eigenvalue derivatives (hartree) for nkpt=   2  k points:
  (in case of degenerate eigenvalues, averaged derivative)
 kpt#   1, nband= 47, wtk=  0.50000, kpt=  0.0000  0.0000  0.0000 (reduced coord)
   0.00000    0.00000    0.00000    0.00000    0.00000    0.00000    0.00000   -0.00000
  -0.00000   -0.00000   -0.00000   -0.00000   -0.00000   -0.00000    0.00000    0.00000
   0.00000   -0.00000   -0.00000   -0.00000    0.00000    0.00000    0.00000   -0.00000
  -0.00000   -0.00000    0.00000   -0.00000   -0.00000   -0.00000   -0.00000   -0.00000
  -0.00000   -0.00000   -0.00000    0.00000    0.00000    0.00000   -0.00000   -0.00000
  -0.00000   -0.00000    0.00000    0.00000    0.00000   -0.00000   -0.00000
 prteigrs : prtvol=0 or 1, do not print more k-points.

 Eight components of 2nd-order total energy (hartree) are
 1,2,3: 0th-order hamiltonian combined with 1st-order wavefunctions
     kin0=   3.04691919E+01 eigvalue=   2.53624464E+00  local=  -1.85156435E+01
 4,5,6: 1st-order hamiltonian combined with 1st and 0th-order wfs
     kin1=  -4.32618679E+01  Hartree=   0.00000000E+00     xc=   0.00000000E+00
 7,8,9: eventually, occupation + non-local contributions
    edocc=   8.78501093E+00     enl0=   6.33276394E+00   enl1=  -1.59532679E+01
 1-9 gives the relaxation energy (to be shifted if some occ is /=2.0)
   erelax=  -2.96075679E+01
  No Ewald or frozen-wf contrib.: the relaxation energy is the total one
 2DEtotal=   -0.2960756791E+02 Ha. Also 2DEtotal=   -0.805662895536E+03 eV
    (  non-var. 2DEtotal :   -2.9607567909E+01 Ha)

 CALCULATION OF EFFECTIVE MASSES
 NOTE : Additional infos (eff. mass eigenvalues, eigenvectors and, if degenerate, average mass) are available in stdout.

 COMMENTS:
 - At k-point ( 0.000, 0.000, 0.000), bands    36 through    38
   are DEGENERATE (effective mass tensor is therefore not defined).
   See Section IIIB Eqs. (67)-(70) and Appendix E of PRB 93 205147 (2016).
 - Angular average effective mass for Frohlich model is to be averaged over degenerate bands. See later.
 - Associated theta integrals calculated with ntheta=   1000 points.

 K-point ( 0.000, 0.000, 0.000) | band =    36
 Transport equivalent effective mass tensor:
             -0.5465451940             -0.0000001442              0.0000000000
             -0.0000001442             -0.5465450599              0.0000000000
              0.0000000000              0.0000000000             -0.5465444499
 Transport equivalent effective mass tensor eigenvalues:
             -0.5465452860             -0.5465449679             -0.5465444499
 Angular average effective mass 1/(<1/m>)=  -0.5261133589
 Angular average effective mass for Frohlich model (<m**0.5>)**2=  -0.5269216909
 Effective masses along directions: (cart. coord. / red. coord. -> eff. mass)
    1:   1.000000  0.000000  0.000000 /   0.948683  0.316228  0.000000 ->  -0.5546887957
    2:   0.000000  1.000000  0.000000 /   0.000000  1.000000  0.000000 ->  -0.6153259778
    3:   0.000000  0.000000  1.000000 /   0.408248  0.408248  0.816497 ->  -0.5049305139
    4:   0.577350  0.577350  0.577350 /   0.585539  0.688047  0.428644 ->  -0.5393870872
    5:   0.000000  0.707107  0.707107 /   0.289489  0.762222  0.578977 ->  -0.5079210282
    6:   0.707107  0.000000  0.707107 /   0.731423  0.422287  0.535439 ->  -0.5209658400
    7:   0.707107  0.707107  0.000000 /   0.616798  0.787122  0.000000 ->  -0.5088463206

[...]

 K-point ( 0.000, 0.000, 0.000) | band =    38
 Transport equivalent effective mass tensor:
            -28.4031753937             -0.0000000010              0.0000000012
             -0.0000000010            -28.4031753946             -0.0000000001
              0.0000000012             -0.0000000001            -28.4031753958
 Transport equivalent effective mass tensor eigenvalues:
            -28.4031753964            -28.4031753950            -28.4031753927
 Angular average effective mass 1/(<1/m>)=  -2.1837896755
 Angular average effective mass for Frohlich model (<m**0.5>)**2=  -2.7161081232
 Effective masses along directions: (cart. coord. / red. coord. -> eff. mass)
    1:   1.000000  0.000000  0.000000 /   0.948683  0.316228  0.000000 ->  -1.8498693133
    2:   0.000000  1.000000  0.000000 /   0.000000  1.000000  0.000000 ->  -1.2879317343
    3:   0.000000  0.000000  1.000000 /   0.408248  0.408248  0.816497 ->  -1.6700601390
    4:   0.577350  0.577350  0.577350 /   0.585539  0.688047  0.428644 ->  -1.7964746456
    5:   0.000000  0.707107  0.707107 /   0.289489  0.762222  0.578977 ->  -3.0931484908
    6:   0.707107  0.000000  0.707107 /   0.731423  0.422287  0.535439 ->  -1.7600064478
    7:   0.707107  0.707107  0.000000 /   0.616798  0.787122  0.000000 ->  -9.1214109700

 Angular average effective mass for Frohlich model, averaged over degenerate bands.
 Value of     (<<m**0.5>>)**2 =     1.102804E+00
 Absolute Value of <<m**0.5>> =     1.050145E+00

 K-point ( 0.500, 0.500, 0.500) | band =    39
 Effective mass tensor:
              0.2365892266              0.0220314579              0.0539658301
              0.0220314579              0.2210106334              0.0381596044
              0.0539658301              0.0381596044              0.2989035997
 Effective mass tensor eigenvalues:
              0.2054320401              0.2054320401              0.3456393795
 Angular average effective mass 1/(<1/m>)=   0.2375528530
 Angular average effective mass for Frohlich model (<m**0.5>)**2=   0.2414442986
 Effective masses along directions: (cart. coord. / red. coord. -> eff. mass)
    1:   1.000000  0.000000  0.000000 /   0.948683  0.316228  0.000000 ->   0.2257851301
    2:   0.000000  1.000000  0.000000 /   0.000000  1.000000  0.000000 ->   0.2151282607
    3:   0.000000  0.000000  1.000000 /   0.408248  0.408248  0.816497 ->   0.2815799530
    4:   0.577350  0.577350  0.577350 /   0.585539  0.688047  0.428644 ->   0.3186971277
    5:   0.000000  0.707107  0.707107 /   0.289489  0.762222  0.578977 ->   0.2807040282
    6:   0.707107  0.000000  0.707107 /   0.731423  0.422287  0.535439 ->   0.3095816963
    7:   0.707107  0.707107  0.000000 /   0.616798  0.787122  0.000000 ->   0.2364954549

 END OF EFFECTIVE MASSES SECTION

 ---- first-order wavefunction calculations are completed ----

 Total localisation tensor (bohr^2) in cartesian coordinates
  WARNING : still subject to testing - especially symmetries.
      direction              matrix element
   alpha     beta       real part   imaginary part
     1        1       3.0895328679    0.0000000000
     1        2       0.8738518566    0.0000000000
     1        3       2.1404911595    0.0000000000
     2        1       0.8738518566    0.0000000000
     2        2       2.4716262942    0.0000000000
     2        3       1.5135558139    0.0000000000
     3        1       2.1404911595    0.0000000000
     3        2       1.5135558139    0.0000000000
     3        3       5.5611591614    0.0000000000

 respfn : d/dk was computed, but no 2DTE, so no DDB output.

== END DATASET(S) ==============================================================

 -outvars: echo values of variables after computation  --------
            acell      1.0000000000E+00  1.0000000000E+00  1.0000000000E+00 Bohr
              amu      1.32905430E+02  1.27600000E+02  1.26904470E+02
             ecut      4.00000000E+01 Hartree
           etotal     -2.9607567909E+01
            fcart      0.0000000000E+00  0.0000000000E+00  0.0000000000E+00
                       0.0000000000E+00  0.0000000000E+00  0.0000000000E+00
                       0.0000000000E+00  0.0000000000E+00  0.0000000000E+00
                       0.0000000000E+00  0.0000000000E+00  0.0000000000E+00
                       0.0000000000E+00  0.0000000000E+00  0.0000000000E+00
                       0.0000000000E+00  0.0000000000E+00  0.0000000000E+00
                       0.0000000000E+00  0.0000000000E+00  0.0000000000E+00
                       0.0000000000E+00  0.0000000000E+00  0.0000000000E+00
                       0.0000000000E+00  0.0000000000E+00  0.0000000000E+00
-          fftalg         512
           irdden           1
           irdwfk           1
           istwfk        1    1
              ixc     -116133
              kpt      0.00000000E+00  0.00000000E+00  0.00000000E+00
                       5.00000000E-01  5.00000000E-01  5.00000000E-01
           kptopt           0
P           mkmem           2
P          mkqmem           2
P          mk1mem           2
            natom           9
            nband          47
           nbdbuf           4
            ngfft          90      90      90
             nkpt           2
            nstep        2000
             nsym          48
           ntypat           3
              occ      2.000000  2.000000  2.000000  2.000000  2.000000  2.000000
                       2.000000  2.000000  2.000000  2.000000  2.000000  2.000000
                       2.000000  2.000000  2.000000  2.000000  2.000000  2.000000
                       2.000000  2.000000  2.000000  2.000000  2.000000  2.000000
                       2.000000  2.000000  2.000000  2.000000  2.000000  2.000000
                       2.000000  2.000000  2.000000  2.000000  2.000000  2.000000
                       2.000000  2.000000  0.000000  0.000000  0.000000  0.000000
                       0.000000  0.000000  0.000000  0.000000  0.000000
        optdriver           1
            prtwf          -1
            rfdir           1       1       1
           rfelfd           2
            rprim      1.3427172327E+01  0.0000000000E+00  7.7521815575E+00
                       4.4757241090E+00  1.2659259473E+01  7.7521815575E+00
                       0.0000000000E+00  0.0000000000E+00  1.5504363115E+01
          spgroup         225
           strten      0.0000000000E+00  0.0000000000E+00  0.0000000000E+00
                       0.0000000000E+00  0.0000000000E+00  0.0000000000E+00
           symrel      1  0  0   0  1  0   0  0  1      -1  0  0   0 -1  0   0  0 -1
                       0 -1  1   0 -1  0   1 -1  0       0  1 -1   0  1  0  -1  1  0
                      -1  0  0  -1  0  1  -1  1  0       1  0  0   1  0 -1   1 -1  0
                       0  1 -1   1  0 -1   0  0 -1       0 -1  1  -1  0  1   0  0  1
                      -1  0  0  -1  1  0  -1  0  1       1  0  0   1 -1  0   1  0 -1
                       0 -1  1   1 -1  0   0 -1  0       0  1 -1  -1  1  0   0  1  0
                       1  0  0   0  0  1   0  1  0      -1  0  0   0  0 -1   0 -1  0
                       0  1 -1   0  0 -1   1  0 -1       0 -1  1   0  0  1  -1  0  1
                      -1  0  1  -1  1  0  -1  0  0       1  0 -1   1 -1  0   1  0  0
                       0 -1  0   1 -1  0   0 -1  1       0  1  0  -1  1  0   0  1 -1
                       1  0 -1   0  0 -1   0  1 -1      -1  0  1   0  0  1   0 -1  1
                       0  1  0   0  0  1   1  0  0       0 -1  0   0  0 -1  -1  0  0
                       1  0 -1   0  1 -1   0  0 -1      -1  0  1   0 -1  1   0  0  1
                       0 -1  0   0 -1  1   1 -1  0       0  1  0   0  1 -1  -1  1  0
                      -1  0  1  -1  0  0  -1  1  0       1  0 -1   1  0  0   1 -1  0
                       0  1  0   1  0  0   0  0  1       0 -1  0  -1  0  0   0  0 -1
                       0  0 -1   0  1 -1   1  0 -1       0  0  1   0 -1  1  -1  0  1
                       1 -1  0   0 -1  1   0 -1  0      -1  1  0   0  1 -1   0  1  0
                       0  0  1   1  0  0   0  1  0       0  0 -1  -1  0  0   0 -1  0
                      -1  1  0  -1  0  0  -1  0  1       1 -1  0   1  0  0   1  0 -1
                       0  0  1   0  1  0   1  0  0       0  0 -1   0 -1  0  -1  0  0
                       1 -1  0   0 -1  0   0 -1  1      -1  1  0   0  1  0   0  1 -1
                       0  0 -1   1  0 -1   0  1 -1       0  0  1  -1  0  1   0 -1  1
                      -1  1  0  -1  0  1  -1  0  0       1 -1  0   1  0 -1   1  0  0
           tolwfr      1.00000000E-20
            typat      1  1  2  3  3  3  3  3  3
           useylm           1
              wtk        0.50000    0.50000
           xangst      7.1053535713E+00  5.0242436930E+00  1.2306833391E+01
                       2.3684511904E+00  1.6747478977E+00  4.1022777971E+00
                       0.0000000000E+00  0.0000000000E+00  0.0000000000E+00
                       5.9069646380E+00  1.6947778825E+00  1.0231162871E+01
                       2.3967778667E+00  1.6947778825E+00  8.2045555942E+00
                       7.0770268951E+00  5.0042137081E+00  8.2045555942E+00
                       5.9069646380E+00  1.6947778825E+00  6.1779483168E+00
                       3.5668401238E+00  5.0042137081E+00  1.0231162871E+01
                       3.5668401238E+00  5.0042137081E+00  6.1779483168E+00
            xcart      1.3427172327E+01  9.4944446046E+00  2.3256544672E+01
                       4.4757241090E+00  3.1648148682E+00  7.7521815575E+00
                       0.0000000000E+00  0.0000000000E+00  0.0000000000E+00
                       1.1162545442E+01  3.2026660540E+00  1.9334095848E+01
                       4.5292537694E+00  3.2026660540E+00  1.5504363115E+01
                       1.3373642667E+01  9.4565934188E+00  1.5504363115E+01
                       1.1162545442E+01  3.2026660540E+00  1.1674630382E+01
                       6.7403509937E+00  9.4565934188E+00  1.9334095848E+01
                       6.7403509937E+00  9.4565934188E+00  1.1674630382E+01
             xred      7.5000000000E-01  7.5000000000E-01  7.5000000000E-01
                       2.5000000000E-01  2.5000000000E-01  2.5000000000E-01
                       0.0000000000E+00  0.0000000000E+00  0.0000000000E+00
                       7.4701000000E-01  2.5299000000E-01  7.4701000000E-01
                       2.5299000000E-01  2.5299000000E-01  7.4701000000E-01
                       7.4701000000E-01  7.4701000000E-01  2.5299000000E-01
                       7.4701000000E-01  2.5299000000E-01  2.5299000000E-01
                       2.5299000000E-01  7.4701000000E-01  7.4701000000E-01
                       2.5299000000E-01  7.4701000000E-01  2.5299000000E-01
            znucl       55.00000   52.00000   53.00000

- Timing analysis has been suppressed with timopt=0

 Suggested references for the acknowledgment of ABINIT usage.

 Calculation completed.
.Delivered  14 WARNINGs and  11 COMMENTs to log file.