.Version 9.5.1 of ABINIT

 ABINIT is a project of the Universite Catholique de Louvain,
 Corning Inc. and other collaborators, see ~abinit/doc/developers/contributors.txt .
 acknowledgments of the ABINIT effort.

.Starting date : Wed 19 May 2021.
- ( at 01h37 )

- input  file    -> /scratch/users/j/a/jabreu/flow_simple_8atoms/flow/w459/t1/run.abi
- output file    -> /scratch/users/j/a/jabreu/flow_simple_8atoms/flow/w459/t1/run.abo
- root for input  files -> /scratch/users/j/a/jabreu/flow_simple_8atoms/flow/w459/t1/indata/in
- root for output files -> /scratch/users/j/a/jabreu/flow_simple_8atoms/flow/w459/t1/outdata/out

 Symmetries : space group R-3 (#148); Bravais hR (rhombohedral)
     intxc =       0      iscf =       7    lmnmax =      32     lnmax =       8
     mgfft =      72  mpssoang =       4    mqgrid =    3001     natom =       8
  nloc_mem =       1    nspden =       1   nspinor =       1    nsppol =       1
      nsym =       6    n1xccc =    2501    ntypat =       3    occopt =       1
   xclevel =       2
-    mband =          49        mffmem =           1         mkmem =           1
-   mkqmem =           1        mk1mem =           1           mpw =       13066
      nfft =      373248          nkpt =           1
  Rough estimation (10% accuracy) of disk space for files :

------------- Echo of variables that govern the present computation ------------
-
- outvars: echo of selected default values
-   iomode0 =  0 , fftalg0 =512 , wfoptalg0 =  0
-
- outvars: echo of global parameters not present in the input file
-  max_nthreads =    0
-
 -outvars: echo values of preprocessed input variables --------
            acell      1.0000000000E+00  1.0000000000E+00  1.0000000000E+00 Bohr
              amu      1.12411000E+02  1.95080000E+02  1.89984032E+01
             ecut      5.10000000E+01 Hartree
-          fftalg         512
           irdden           1
           irdwfk           1
           istwfk        1
              ixc     -116133
              kpt      5.00000000E-01  5.00000000E-01 -5.55111512E-17
           kptopt           0
P           mkmem           1
P          mkqmem           1
P          mk1mem           1
            natom           8
            nband          49
           nbdbuf           4
            ngfft          72      72      72
             nkpt           1
            nstep        2000
             nsym           6
           ntypat           3
              occ      2.000000  2.000000  2.000000  2.000000  2.000000  2.000000
                       2.000000  2.000000  2.000000  2.000000  2.000000  2.000000
                       2.000000  2.000000  2.000000  2.000000  2.000000  2.000000
                       2.000000  2.000000  2.000000  2.000000  2.000000  2.000000
                       2.000000  2.000000  2.000000  2.000000  2.000000  2.000000
                       2.000000  2.000000  2.000000  2.000000  2.000000  2.000000
                       2.000000  2.000000  2.000000  2.000000  0.000000  0.000000
                       0.000000  0.000000  0.000000  0.000000  0.000000  0.000000
                       0.000000
        optdriver           1
            prtwf          -1
            rfdir           1       1       1
           rfelfd           2
            rprim      8.6845830610E+00  0.0000000000E+00  6.3199291478E+00
                       3.2171042297E+00  8.0667356048E+00  6.3199291478E+00
                       0.0000000000E+00  0.0000000000E+00  1.0740739610E+01
          spgroup         148
           symrel      1  0  0   0  1  0   0  0  1      -1  0  0   0 -1  0   0  0 -1
                       0  0  1   1  0  0   0  1  0       0  0 -1  -1  0  0   0 -1  0
                       0  1  0   0  0  1   1  0  0       0 -1  0   0  0 -1  -1  0  0
           tolwfr      1.00000000E-20
            typat      1  2  3  3  3  3  3  3
           useylm           1
           xangst      0.0000000000E+00  0.0000000000E+00  0.0000000000E+00
                       3.1490508290E+00  2.1343663149E+00  6.1862397675E+00
                       3.5153291812E+00  4.8296867847E-01  5.2350741328E+00
                       1.2504048936E+00  1.8315552283E+00  5.9227267555E+00
                       3.0954019379E+00  1.1824047886E+00  7.8764708459E+00
                       5.0476967644E+00  2.4371774014E+00  6.4497527795E+00
                       2.7827724768E+00  3.7857639513E+00  7.1374054022E+00
                       3.2026997201E+00  3.0863278412E+00  4.4960086891E+00
            xcart      0.0000000000E+00  0.0000000000E+00  0.0000000000E+00
                       5.9508436453E+00  4.0333678024E+00  1.1690298953E+01
                       6.6430094194E+00  9.1267853306E-01  9.8928563964E+00
                       2.3629228042E+00  3.4611377788E+00  1.1192331528E+01
                       5.8494619339E+00  2.2344212286E+00  1.4884372792E+01
                       9.5387644865E+00  4.6055978260E+00  1.2188266378E+01
                       5.2586778713E+00  7.1540570717E+00  1.3487741509E+01
                       6.0522253568E+00  5.8323143762E+00  8.4962251135E+00
             xred      0.0000000000E+00  0.0000000000E+00  0.0000000000E+00
                       5.0000000000E-01  5.0000000000E-01  5.0000000000E-01
                       7.2300800000E-01  1.1314100000E-01  4.2906300000E-01
                       1.1314100000E-01  4.2906300000E-01  7.2300800000E-01
                       5.7093700000E-01  2.7699200000E-01  8.8685900000E-01
                       8.8685900000E-01  5.7093700000E-01  2.7699200000E-01
                       2.7699200000E-01  8.8685900000E-01  5.7093700000E-01
                       4.2906300000E-01  7.2300800000E-01  1.1314100000E-01
            znucl       48.00000   78.00000    9.00000

 chkinp: Checking input parameters for consistency.

== DATASET  1 ==================================================================
-   mpi_nproc: 1, omp_nthreads: -1 (-1 if OMP is not activated)

--- !DatasetInfo
iteration_state: {dtset: 1, }
dimensions: {natom: 8, nkpt: 1, mband: 49, nsppol: 1, nspinor: 1, nspden: 1, mpw: 13066, }
cutoff_energies: {ecut:  51.0, pawecutdg:  -1.0, }
electrons: {nelect:   8.00000000E+01, charge:   0.00000000E+00, occopt:   1.00000000E+00, tsmear:   1.00000000E-02, }
meta: {optdriver: 1, rfelfd: 2, }
...

 Real(R)+Recip(G) space primitive vectors, cartesian coordinates (Bohr,Bohr^-1):
 R(1)=  8.6845831  0.0000000  6.3199291  G(1)=  0.1151466 -0.0459217  0.0000000
 R(2)=  3.2171042  8.0667356  6.3199291  G(2)=  0.0000000  0.1239659  0.0000000
 R(3)=  0.0000000  0.0000000 10.7407396  G(3)= -0.0677531 -0.0459217  0.0931035
 Unit cell volume ucvol=  7.5245578E+02 bohr^3
 Angles (23,13,12)=  5.39559363E+01  5.39559363E+01  5.39559363E+01 degrees

 getcut: wavevector=  0.0000  0.0000  0.0000  ngfft=  72  72  72
         ecut(hartree)=     51.000   => boxcut(ratio)=   2.08526

--- Pseudopotential description ------------------------------------------------
- pspini: atom type   1  psp file is /scratch/users/j/a/jabreu/pseudos/PBEsol/Cd.psp8
- pspatm: opening atomic psp file    /scratch/users/j/a/jabreu/pseudos/PBEsol/Cd.psp8
- Cd    ONCVPSP-3.3.0  r_core=   1.25838   1.30423   1.35174
- 48.00000  20.00000    180112                znucl, zion, pspdat
    8 -116133    2    4       600   0.00000   pspcod,pspxc,lmax,lloc,mmax,r2well
    5.99000000000000    6.00000000000000    0.00000000000000   rchrg,fchrg,qchrg
     nproj     2     2     2
     extension_switch     1
  pspatm : epsatm=   23.26728021
         --- l  ekb(1:nproj) -->
             0   63.701523    3.700425
             1    8.703569    1.290373
             2    0.983656   -0.721725
 pspatm: atomic psp has been read  and splines computed

- pspini: atom type   2  psp file is /scratch/users/j/a/jabreu/pseudos/PBEsol/Pt.psp8
- pspatm: opening atomic psp file    /scratch/users/j/a/jabreu/pseudos/PBEsol/Pt.psp8
- Pt    ONCVPSP-3.3.0  r_core=   1.45722   1.45722   1.45722   1.91724
- 78.00000  18.00000    180112                znucl, zion, pspdat
    8 -116133    3    4       500   0.00000   pspcod,pspxc,lmax,lloc,mmax,r2well
    4.99000000000000    5.00000000000000    0.00000000000000   rchrg,fchrg,qchrg
     nproj     2     2     2     2
     extension_switch     1
  pspatm : epsatm=   26.54019552
         --- l  ekb(1:nproj) -->
             0   18.149684    1.747248
             1    8.048135    1.208190
             2    2.365973    0.348456
             3    3.491561    0.381218
 pspatm: atomic psp has been read  and splines computed

- pspini: atom type   3  psp file is /scratch/users/j/a/jabreu/pseudos/PBEsol/F.psp8
- pspatm: opening atomic psp file    /scratch/users/j/a/jabreu/pseudos/PBEsol/F.psp8
- F     ONCVPSP-3.3.0  r_core=   1.30942   1.45782   1.60379
-  9.00000   7.00000    180112                znucl, zion, pspdat
    8 -116133    2    4       600   0.00000   pspcod,pspxc,lmax,lloc,mmax,r2well
    5.99000000000000    2.50000000000000    0.00000000000000   rchrg,fchrg,qchrg
     nproj     2     2     1
     extension_switch     1
  pspatm : epsatm=    4.89824824
         --- l  ekb(1:nproj) -->
             0    6.506434    1.065875
             1   -3.978753   -1.295852
             2   -2.394754
 pspatm: atomic psp has been read  and splines computed

   6.33575721E+03                                ecore*ucvol(ha*bohr**3)

-inwffil : will read wavefunctions from disk file /scratch/users/j/a/jabreu/flow_simple_8atoms/flow/w459/t1/indata/in_WFK

 ==>  initialize data related to q vector <==

 The list of irreducible perturbations for this q vector is:
    1)    idir= 1    ipert=   9
    2)    idir= 2    ipert=   9
    3)    idir= 3    ipert=   9

 Perturbation wavevector (in red.coord.)   0.000000  0.000000  0.000000
 Perturbation : derivative vs k along direction   1

 dfpt_looppert : COMMENT -
  In a d/dk calculation, iscf is set to -3 automatically.
 The set of symmetries contains only one element for this perturbation.
 symkpt : not enough symmetry to change the number of k points.

[...]

 Initialisation of the first-order wave-functions :
  ireadwf=   0

--- !BeginCycle
iteration_state: {dtset: 1, }
solver: {iscf: 7, nstep: 2000, nline: 4, wfoptalg: 0, }
tolerances: {tolwfr: 1.00E-20, }
...

     iter   2DEtotal(Ha)        deltaE(Ha) residm    vres2
-ETOT  1  -50.405231638687     -5.041E+01 1.276E-01 0.000E+00
 ETOT  2  -50.530409585519     -1.252E-01 2.781E-03 0.000E+00
 ETOT  3  -50.531603648598     -1.194E-03 6.312E-05 0.000E+00
 ETOT  4  -50.531624309207     -2.066E-05 9.398E-06 0.000E+00
 ETOT  5  -50.531624784051     -4.748E-07 1.932E-07 0.000E+00
 ETOT  6  -50.531624796985     -1.293E-08 4.009E-08 0.000E+00
 ETOT  7  -50.531624797375     -3.897E-10 9.053E-10 0.000E+00
 ETOT  8  -50.531624797387     -1.254E-11 1.915E-10 0.000E+00
 ETOT  9  -50.531624797387     -4.050E-13 4.516E-12 0.000E+00
 ETOT 10  -50.531624797387     -1.421E-14 9.747E-13 0.000E+00
 ETOT 11  -50.531624797387      7.105E-15 2.396E-14 0.000E+00
 ETOT 12  -50.531624797387      2.132E-14 5.285E-15 0.000E+00
 ETOT 13  -50.531624797387      2.132E-14 1.357E-16 0.000E+00
 ETOT 14  -50.531624797387     -3.553E-14 3.068E-17 0.000E+00
 ETOT 15  -50.531624797387      1.421E-14 8.215E-19 0.000E+00
 ETOT 16  -50.531624797387      0.000E+00 1.907E-19 0.000E+00
 ETOT 17  -50.531624797387      0.000E+00 9.569E-21 0.000E+00

 At SCF step   17   max residual=  9.57E-21 < tolwfr=  1.00E-20 =>converged.

 ----iterations are completed or convergence reached----

 dfpt_looppert: DFPT cycle converged with prtwf=-1. Will skip output of the 1st-order WFK file.
 dfpt_looppert : ek2=    9.7069786378E+01
          f-sum rule ratio=    9.8948245984E-01
 prteigrs : about to open file /scratch/users/j/a/jabreu/flow_simple_8atoms/flow/w459/t1/tmpdata/tmp_1WF1_EIG
 Expectation of eigenvalue derivatives (hartree) for nkpt=   1  k points:
  (in case of degenerate eigenvalues, averaged derivative)
 kpt#   1, nband= 49, wtk=  1.00000, kpt=  0.5000  0.5000  0.0000 (reduced coord)
   0.00000    0.00000   -0.00000    0.00000    0.00000    0.00000    0.00000    0.00000
  -0.00000    0.00000    0.00000    0.00000   -0.00000   -0.00000    0.00000   -0.00000
   0.00000    0.00000    0.00000    0.00000   -0.00000   -0.00000    0.00000   -0.00000
  -0.00000    0.00000   -0.00000    0.00000    0.00000    0.00000    0.00000    0.00000
  -0.00000    0.00000   -0.00000   -0.00000    0.00000   -0.00000    0.00000    0.00000
   0.00000   -0.00000    0.00000    0.00000    0.00000    0.00000    0.00000    0.00000
  -0.01139

 Eight components of 2nd-order total energy (hartree) are
 1,2,3: 0th-order hamiltonian combined with 1st-order wavefunctions
     kin0=   7.56776201E+01 eigvalue=   2.41027059E+00  local=  -3.56610670E+01
 4,5,6: 1st-order hamiltonian combined with 1st and 0th-order wfs
     kin1=  -9.60488510E+01  Hartree=   0.00000000E+00     xc=   0.00000000E+00
 7,8,9: eventually, occupation + non-local contributions
    edocc=   6.52289897E+00     enl0=   1.58190206E+00   enl1=  -5.01439859E+00
 1-9 gives the relaxation energy (to be shifted if some occ is /=2.0)
   erelax=  -5.05316248E+01
  No Ewald or frozen-wf contrib.: the relaxation energy is the total one
 2DEtotal=   -0.5053162480E+02 Ha. Also 2DEtotal=   -0.137503543943E+04 eV
    (  non-var. 2DEtotal :   -5.0531624797E+01 Ha)

 Perturbation wavevector (in red.coord.)   0.000000  0.000000  0.000000
 Perturbation : derivative vs k along direction   2
 The set of symmetries contains only one element for this perturbation.
 symkpt : not enough symmetry to change the number of k points.

[...]

 Perturbation wavevector (in red.coord.)   0.000000  0.000000  0.000000
 Perturbation : derivative vs k along direction   3
 The set of symmetries contains only one element for this perturbation.
 symkpt : not enough symmetry to change the number of k points.

-inwffil : will read wavefunctions from disk file /scratch/users/j/a/jabreu/flow_simple_8atoms/flow/w459/t1/indata/in_WFK

 Initialisation of the first-order wave-functions :
  ireadwf=   0

--- !BeginCycle
iteration_state: {dtset: 1, }
solver: {iscf: 7, nstep: 2000, nline: 4, wfoptalg: 0, }
tolerances: {tolwfr: 1.00E-20, }
...

     iter   2DEtotal(Ha)        deltaE(Ha) residm    vres2
-ETOT  1  -50.238204200012     -5.024E+01 9.871E-02 0.000E+00
 ETOT  2  -50.339172407986     -1.010E-01 2.267E-03 0.000E+00
 ETOT  3  -50.340347450378     -1.175E-03 6.860E-05 0.000E+00
 ETOT  4  -50.340372181401     -2.473E-05 4.185E-06 0.000E+00
 ETOT  5  -50.340372854060     -6.727E-07 1.758E-07 0.000E+00
 ETOT  6  -50.340372874707     -2.065E-08 3.693E-08 0.000E+00
 ETOT  7  -50.340372875383     -6.757E-10 1.669E-09 0.000E+00
 ETOT  8  -50.340372875406     -2.298E-11 3.392E-10 0.000E+00
 ETOT  9  -50.340372875407     -8.455E-13 1.585E-11 0.000E+00
 ETOT 10  -50.340372875407      2.132E-14 3.214E-12 0.000E+00
 ETOT 11  -50.340372875407     -1.421E-14 1.538E-13 0.000E+00
 ETOT 12  -50.340372875407     -7.105E-15 3.118E-14 0.000E+00
 ETOT 13  -50.340372875407      0.000E+00 1.520E-15 0.000E+00
 ETOT 14  -50.340372875407      0.000E+00 3.077E-16 0.000E+00
 ETOT 15  -50.340372875407      7.105E-15 1.523E-17 0.000E+00
 ETOT 16  -50.340372875407      0.000E+00 3.076E-18 0.000E+00
 ETOT 17  -50.340372875407      0.000E+00 1.540E-19 0.000E+00
 ETOT 18  -50.340372875407      0.000E+00 3.100E-20 0.000E+00
 ETOT 19  -50.340372875407      1.421E-14 9.191E-21 0.000E+00

 At SCF step   19   max residual=  9.19E-21 < tolwfr=  1.00E-20 =>converged.

 ----iterations are completed or convergence reached----

 dfpt_looppert: DFPT cycle converged with prtwf=-1. Will skip output of the 1st-order WFK file.
 dfpt_looppert : ek2=    9.7069786379E+01
          f-sum rule ratio=    9.8514023211E-01
 prteigrs : about to open file /scratch/users/j/a/jabreu/flow_simple_8atoms/flow/w459/t1/tmpdata/tmp_1WF1_EIG
 Expectation of eigenvalue derivatives (hartree) for nkpt=   1  k points:
  (in case of degenerate eigenvalues, averaged derivative)
 kpt#   1, nband= 49, wtk=  1.00000, kpt=  0.5000  0.5000  0.0000 (reduced coord)
   0.00000    0.00000    0.00000    0.00000    0.00000    0.00000   -0.00000    0.00000
   0.00000   -0.00000   -0.00000    0.00000   -0.00000   -0.00000   -0.00000   -0.00000
  -0.00000    0.00000    0.00000   -0.00000    0.00000    0.00000   -0.00000   -0.00000
  -0.00000   -0.00000   -0.00000    0.00000   -0.00000   -0.00000    0.00000   -0.00000
   0.00000   -0.00000   -0.00000   -0.00000    0.00000    0.00000   -0.00000   -0.00000
   0.00000    0.00000   -0.00000   -0.00000    0.00000   -0.00000    0.00000    0.00000
   0.00690

 Eight components of 2nd-order total energy (hartree) are
 1,2,3: 0th-order hamiltonian combined with 1st-order wavefunctions
     kin0=   7.63236534E+01 eigvalue=   2.44644294E+00  local=  -3.60156748E+01
 4,5,6: 1st-order hamiltonian combined with 1st and 0th-order wfs
     kin1=  -9.56273519E+01  Hartree=   0.00000000E+00     xc=   0.00000000E+00
 7,8,9: eventually, occupation + non-local contributions
    edocc=   6.04047574E+00     enl0=   1.54547557E+00   enl1=  -5.05339387E+00
 1-9 gives the relaxation energy (to be shifted if some occ is /=2.0)
   erelax=  -5.03403729E+01
  No Ewald or frozen-wf contrib.: the relaxation energy is the total one
 2DEtotal=   -0.5034037288E+02 Ha. Also 2DEtotal=   -0.136983120997E+04 eV
    (  non-var. 2DEtotal :   -5.0340372875E+01 Ha)

 CALCULATION OF EFFECTIVE MASSES
 NOTE : Additional infos (eff. mass eigenvalues, eigenvectors and, if degenerate, average mass) are available in stdout.

 K-point ( 0.500, 0.500,-0.000) | band =    40
 Effective mass tensor:
             -2.8701605802             -1.1078763822              1.1332119483
             -1.1078763822             -6.9465249210              1.4534364287
              1.1332119483              1.4534364287             -3.9861091612
 Effective mass tensor eigenvalues:
             -7.9632874131             -3.6830691882             -2.1564380611
 Angular average effective mass 1/(<1/m>)=  -3.4850627678
 Angular average effective mass for Frohlich model (<m**0.5>)**2=  -3.7651642766
 Effective masses along directions: (cart. coord. / red. coord. -> eff. mass)
    1:   1.000000  0.000000  0.000000 /   0.937728  0.347371  0.000000 ->  -2.4727912752
    2:   0.000000  1.000000  0.000000 /   0.000000  1.000000  0.000000 ->  -6.2271701716
    3:   0.000000  0.000000  1.000000 /   0.452294  0.452294  0.768675 ->  -3.3803340617
    4:   0.577350  0.577350  0.577350 /   0.588348  0.690269  0.421160 ->  -2.8209430682
    5:   0.000000  0.707107  0.707107 /   0.332039  0.755853  0.564302 ->  -3.6454459351
    6:   0.707107  0.000000  0.707107 /   0.722362  0.459141  0.517091 ->  -2.2265843231
    7:   0.707107  0.707107  0.000000 /   0.609918  0.792464  0.000000 ->  -4.1891463459

 K-point ( 0.500, 0.500,-0.000) | band =    41
 Effective mass tensor:
              2.0926776849              0.7267131629             -0.7069741759
              0.7267131629              6.2653248188             -1.8593786807
             -0.7069741759             -1.8593786807              2.7062452459
 Effective mass tensor eigenvalues:
              1.5562470485              2.2735929308              7.2344077704
 Angular average effective mass 1/(<1/m>)=   2.4577426225
 Angular average effective mass for Frohlich model (<m**0.5>)**2=   2.7133185205
 Effective masses along directions: (cart. coord. / red. coord. -> eff. mass)
    1:   1.000000  0.000000  0.000000 /   0.937728  0.347371  0.000000 ->   1.8963471710
    2:   0.000000  1.000000  0.000000 /   0.000000  1.000000  0.000000 ->   4.9573682982
    3:   0.000000  0.000000  1.000000 /   0.452294  0.452294  0.768675 ->   2.0342454962
    4:   0.577350  0.577350  0.577350 /   0.588348  0.690269  0.421160 ->   1.7920416174
    5:   0.000000  0.707107  0.707107 /   0.332039  0.755853  0.564302 ->   2.0894645303
    6:   0.707107  0.000000  0.707107 /   0.722362  0.459141  0.517091 ->   1.5880311903
    7:   0.707107  0.707107  0.000000 /   0.609918  0.792464  0.000000 ->   2.9494331043

 END OF EFFECTIVE MASSES SECTION

 ---- first-order wavefunction calculations are completed ----

 Total localisation tensor (bohr^2) in cartesian coordinates
  WARNING : still subject to testing - especially symmetries.
      direction              matrix element
   alpha     beta       real part   imaginary part
     1        1       0.5832275427    0.0000000000
     1        2       0.1743892164    0.0000000000
     1        3       0.5104398925    0.0000000000
     2        1       0.1743892164    0.0000000000
     2        2       0.4372726530    0.0000000000
     2        3       0.3425837068    0.0000000000
     3        1       0.5104398925    0.0000000000
     3        2       0.3425837068    0.0000000000
     3        3       1.3149073279    0.0000000000

 respfn : d/dk was computed, but no 2DTE, so no DDB output.

== END DATASET(S) ==============================================================

 -outvars: echo values of variables after computation  --------
            acell      1.0000000000E+00  1.0000000000E+00  1.0000000000E+00 Bohr
              amu      1.12411000E+02  1.95080000E+02  1.89984032E+01
             ecut      5.10000000E+01 Hartree
           etotal     -5.0340372875E+01
            fcart      0.0000000000E+00  0.0000000000E+00  0.0000000000E+00
                       0.0000000000E+00  0.0000000000E+00  0.0000000000E+00
                       0.0000000000E+00  0.0000000000E+00  0.0000000000E+00
                       0.0000000000E+00  0.0000000000E+00  0.0000000000E+00
                       0.0000000000E+00  0.0000000000E+00  0.0000000000E+00
                       0.0000000000E+00  0.0000000000E+00  0.0000000000E+00
                       0.0000000000E+00  0.0000000000E+00  0.0000000000E+00
                       0.0000000000E+00  0.0000000000E+00  0.0000000000E+00
-          fftalg         512
           irdden           1
           irdwfk           1
           istwfk        1
              ixc     -116133
              kpt      5.00000000E-01  5.00000000E-01 -5.55111512E-17
           kptopt           0
P           mkmem           1
P          mkqmem           1
P          mk1mem           1
            natom           8
            nband          49
           nbdbuf           4
            ngfft          72      72      72
             nkpt           1
            nstep        2000
             nsym           6
           ntypat           3
              occ      2.000000  2.000000  2.000000  2.000000  2.000000  2.000000
                       2.000000  2.000000  2.000000  2.000000  2.000000  2.000000
                       2.000000  2.000000  2.000000  2.000000  2.000000  2.000000
                       2.000000  2.000000  2.000000  2.000000  2.000000  2.000000
                       2.000000  2.000000  2.000000  2.000000  2.000000  2.000000
                       2.000000  2.000000  2.000000  2.000000  2.000000  2.000000
                       2.000000  2.000000  2.000000  2.000000  0.000000  0.000000
                       0.000000  0.000000  0.000000  0.000000  0.000000  0.000000
                       0.000000
        optdriver           1
            prtwf          -1
            rfdir           1       1       1
           rfelfd           2
            rprim      8.6845830610E+00  0.0000000000E+00  6.3199291478E+00
                       3.2171042297E+00  8.0667356048E+00  6.3199291478E+00
                       0.0000000000E+00  0.0000000000E+00  1.0740739610E+01
          spgroup         148
           strten      0.0000000000E+00  0.0000000000E+00  0.0000000000E+00
                       0.0000000000E+00  0.0000000000E+00  0.0000000000E+00
           symrel      1  0  0   0  1  0   0  0  1      -1  0  0   0 -1  0   0  0 -1
                       0  0  1   1  0  0   0  1  0       0  0 -1  -1  0  0   0 -1  0
                       0  1  0   0  0  1   1  0  0       0 -1  0   0  0 -1  -1  0  0
           tolwfr      1.00000000E-20
            typat      1  2  3  3  3  3  3  3
           useylm           1
           xangst      0.0000000000E+00  0.0000000000E+00  0.0000000000E+00
                       3.1490508290E+00  2.1343663149E+00  6.1862397675E+00
                       3.5153291812E+00  4.8296867847E-01  5.2350741328E+00
                       1.2504048936E+00  1.8315552283E+00  5.9227267555E+00
                       3.0954019379E+00  1.1824047886E+00  7.8764708459E+00
                       5.0476967644E+00  2.4371774014E+00  6.4497527795E+00
                       2.7827724768E+00  3.7857639513E+00  7.1374054022E+00
                       3.2026997201E+00  3.0863278412E+00  4.4960086891E+00
            xcart      0.0000000000E+00  0.0000000000E+00  0.0000000000E+00
                       5.9508436453E+00  4.0333678024E+00  1.1690298953E+01
                       6.6430094194E+00  9.1267853306E-01  9.8928563964E+00
                       2.3629228042E+00  3.4611377788E+00  1.1192331528E+01
                       5.8494619339E+00  2.2344212286E+00  1.4884372792E+01
                       9.5387644865E+00  4.6055978260E+00  1.2188266378E+01
                       5.2586778713E+00  7.1540570717E+00  1.3487741509E+01
                       6.0522253568E+00  5.8323143762E+00  8.4962251135E+00
             xred      0.0000000000E+00  0.0000000000E+00  0.0000000000E+00
                       5.0000000000E-01  5.0000000000E-01  5.0000000000E-01
                       7.2300800000E-01  1.1314100000E-01  4.2906300000E-01
                       1.1314100000E-01  4.2906300000E-01  7.2300800000E-01
                       5.7093700000E-01  2.7699200000E-01  8.8685900000E-01
                       8.8685900000E-01  5.7093700000E-01  2.7699200000E-01
                       2.7699200000E-01  8.8685900000E-01  5.7093700000E-01
                       4.2906300000E-01  7.2300800000E-01  1.1314100000E-01
            znucl       48.00000   78.00000    9.00000

- Timing analysis has been suppressed with timopt=0

 Suggested references for the acknowledgment of ABINIT usage.

 Calculation completed.
.Delivered   6 WARNINGs and   5 COMMENTs to log file.