.Version 9.5.2 of ABINIT

 ABINIT is a project of the Universite Catholique de Louvain,
 Corning Inc. and other collaborators, see ~abinit/doc/developers/contributors.txt .
 acknowledgments of the ABINIT effort.

.Starting date : Mon 24 May 2021.
- ( at 11h45 )

- input  file    -> /scratch/users/j/a/jabreu/flow_simple_10atoms/flow/w362/t1/run.abi
- output file    -> /scratch/users/j/a/jabreu/flow_simple_10atoms/flow/w362/t1/run.abo
- root for input  files -> /scratch/users/j/a/jabreu/flow_simple_10atoms/flow/w362/t1/indata/in
- root for output files -> /scratch/users/j/a/jabreu/flow_simple_10atoms/flow/w362/t1/outdata/out

 Symmetries : space group R-3 (#148); Bravais hR (rhombohedral)
     intxc =       0      iscf =       7    lmnmax =      18     lnmax =       6
     mgfft =      80  mpssoang =       3    mqgrid =    3001     natom =      10
  nloc_mem =       1    nspden =       1   nspinor =       1    nsppol =       1
      nsym =       6    n1xccc =    2501    ntypat =       3    occopt =       1
   xclevel =       2
-    mband =          51        mffmem =           1         mkmem =           2
-   mkqmem =           2        mk1mem =           2           mpw =       14567
      nfft =      512000          nkpt =           2
  Rough estimation (10% accuracy) of disk space for files :

------------- Echo of variables that govern the present computation ------------
-
- outvars: echo of selected default values
-   iomode0 =  0 , fftalg0 =512 , wfoptalg0 =  0
-
- outvars: echo of global parameters not present in the input file
-  max_nthreads =    0
-
 -outvars: echo values of preprocessed input variables --------
            acell      1.0000000000E+00  1.0000000000E+00  1.0000000000E+00 Bohr
              amu      3.90983000E+01  1.21753000E+02  1.59994000E+01
             ecut      4.40000000E+01 Hartree
-          fftalg         512
           irdden           1
           irdwfk           1
           istwfk        0    1
              ixc     -116133
              kpt      6.37602676E-01  5.00000000E-01  3.62397324E-01
                       0.00000000E+00  0.00000000E+00  0.00000000E+00
           kptopt           0
P           mkmem           2
P          mkqmem           2
P          mk1mem           2
            natom          10
            nband          51
           nbdbuf           4
            ngfft          80      80      80
             nkpt           2
            nstep        2000
             nsym           6
           ntypat           3
              occ      2.000000  2.000000  2.000000  2.000000  2.000000  2.000000
                       2.000000  2.000000  2.000000  2.000000  2.000000  2.000000
                       2.000000  2.000000  2.000000  2.000000  2.000000  2.000000
                       2.000000  2.000000  2.000000  2.000000  2.000000  2.000000
                       2.000000  2.000000  2.000000  2.000000  2.000000  2.000000
                       2.000000  2.000000  2.000000  2.000000  2.000000  2.000000
                       2.000000  2.000000  2.000000  2.000000  2.000000  2.000000
                       0.000000  0.000000  0.000000  0.000000  0.000000  0.000000
                       0.000000  0.000000  0.000000
        optdriver           1
            prtwf          -1
            rfdir           1       1       1
           rfelfd           2
            rprim      9.4127181311E+00  0.0000000000E+00  8.8414149774E+00
                       3.8253451599E+00  8.6003486571E+00  8.8414149774E+00
                       0.0000000000E+00  0.0000000000E+00  1.2913941359E+01
          spgroup         148
           symrel      1  0  0   0  1  0   0  0  1      -1  0  0   0 -1  0   0  0 -1
                       0  0  1   1  0  0   0  1  0       0  0 -1  -1  0  0   0 -1  0
                       0  1  0   0  0  1   1  0  0       0 -1  0   0  0 -1  -1  0  0
           tolwfr      1.00000000E-20
            typat      1  1  2  2  3  3  3  3  3  3
           useylm           1
              wtk        0.50000    0.50000
           xangst      4.4860771162E+00  2.9144616137E+00  1.0368546562E+01
                       2.5192042633E+00  1.6366468815E+00  5.8225674739E+00
                       1.1476402220E+00  7.4558534924E-01  2.6525092569E+00
                       5.8576411575E+00  3.8055231460E+00  1.3538604779E+01
                       5.0406380620E+00  2.0122771723E+00  6.2067444032E+00
                       1.9646433175E+00  2.5388313230E+00  9.9843696324E+00
                       2.2746537250E+00  1.6255194213E-01  7.9234143444E+00
                       4.7306276544E+00  4.3885565531E+00  8.2676996912E+00
                       1.8626846176E+00  3.7878102318E+00  7.0826454972E+00
                       5.1425967619E+00  7.6329826350E-01  9.1084685383E+00
            xcart      8.4774571606E+00  5.5075342748E+00  1.9593713398E+01
                       4.7606061304E+00  3.0928143823E+00  1.1003057916E+01
                       2.1687257186E+00  1.4089521187E+00  5.0125160605E+00
                       1.1069337572E+01  7.1913965384E+00  2.5584255253E+01
                       9.5254254721E+00  3.8026527591E+00  1.1729047099E+01
                       3.7126378189E+00  4.7976958980E+00  1.8867724215E+01
                       4.2984725875E+00  3.0717865299E-01  1.4973083148E+01
                       8.9395907035E+00  8.2931700041E+00  1.5623688165E+01
                       3.5199637992E+00  7.1579239814E+00  1.3384260286E+01
                       9.7180994918E+00  1.4424246757E+00  1.7212511027E+01
             xred      6.4038500000E-01  6.4038500000E-01  6.4038500000E-01
                       3.5961500000E-01  3.5961500000E-01  3.5961500000E-01
                       1.6382500000E-01  1.6382500000E-01  1.6382500000E-01
                       8.3617500000E-01  8.3617500000E-01  8.3617500000E-01
                       8.3228300000E-01  4.4215100000E-01  3.5717000000E-02
                       1.6771700000E-01  5.5784900000E-01  9.6428300000E-01
                       4.4215100000E-01  3.5717000000E-02  8.3228300000E-01
                       5.5784900000E-01  9.6428300000E-01  1.6771700000E-01
                       3.5717000000E-02  8.3228300000E-01  4.4215100000E-01
                       9.6428300000E-01  1.6771700000E-01  5.5784900000E-01
            znucl       19.00000   51.00000    8.00000

 chkinp: Checking input parameters for consistency.

== DATASET  1 ==================================================================
-   mpi_nproc: 1, omp_nthreads: -1 (-1 if OMP is not activated)

--- !DatasetInfo
iteration_state: {dtset: 1, }
dimensions: {natom: 10, nkpt: 2, mband: 51, nsppol: 1, nspinor: 1, nspden: 1, mpw: 14567, }
cutoff_energies: {ecut:  44.0, pawecutdg:  -1.0, }
electrons: {nelect:   8.40000000E+01, charge:   0.00000000E+00, occopt:   1.00000000E+00, tsmear:   1.00000000E-02, }
meta: {optdriver: 1, rfelfd: 2, }
...

 Real(R)+Recip(G) space primitive vectors, cartesian coordinates (Bohr,Bohr^-1):
 R(1)=  9.4127181  0.0000000  8.8414150  G(1)=  0.1062392 -0.0472541  0.0000000
 R(2)=  3.8253452  8.6003487  8.8414150  G(2)=  0.0000000  0.1162744  0.0000000
 R(3)=  0.0000000  0.0000000 12.9139414  G(3)= -0.0727357 -0.0472541  0.0774357
 Unit cell volume ucvol=  1.0454179E+03 bohr^3
 Angles (23,13,12)=  4.67926120E+01  4.67926120E+01  4.67926120E+01 degrees

 getcut: wavevector=  0.0000  0.0000  0.0000  ngfft=  80  80  80
         ecut(hartree)=     44.000   => boxcut(ratio)=   2.07488

--- Pseudopotential description ------------------------------------------------
- pspini: atom type   1  psp file is /scratch/users/j/a/jabreu/pseudos/PBEsol/K.psp8
- pspatm: opening atomic psp file    /scratch/users/j/a/jabreu/pseudos/PBEsol/K.psp8
- K     ONCVPSP-3.3.0  r_core=   1.36296   1.46408   1.61068
- 19.00000   9.00000    180112                znucl, zion, pspdat
    8 -116133    2    4       400   0.00000   pspcod,pspxc,lmax,lloc,mmax,r2well
    3.99000000000000    5.00000000000000    0.00000000000000   rchrg,fchrg,qchrg
     nproj     2     2     2
     extension_switch     1
  pspatm : epsatm=    8.32487830
         --- l  ekb(1:nproj) -->
             0   10.921326    0.816676
             1    4.431000    0.560368
             2   -3.384038   -1.043186
 pspatm: atomic psp has been read  and splines computed

- pspini: atom type   2  psp file is /scratch/users/j/a/jabreu/pseudos/PBEsol/Sb.psp8
- pspatm: opening atomic psp file    /scratch/users/j/a/jabreu/pseudos/PBEsol/Sb.psp8
- Sb    ONCVPSP-3.3.0  r_core=   1.81962   2.12485   1.81962
- 51.00000  15.00000    180112                znucl, zion, pspdat
    8 -116133    2    4       600   0.00000   pspcod,pspxc,lmax,lloc,mmax,r2well
    5.99000000000000    5.00000000000000    0.00000000000000   rchrg,fchrg,qchrg
     nproj     2     2     2
     extension_switch     1
  pspatm : epsatm=   26.35641246
         --- l  ekb(1:nproj) -->
             0    9.727814    1.485032
             1    5.505335    0.704623
             2   -4.710637   -1.436443
 pspatm: atomic psp has been read  and splines computed

- pspini: atom type   3  psp file is /scratch/users/j/a/jabreu/pseudos/PBEsol/O.psp8
- pspatm: opening atomic psp file    /scratch/users/j/a/jabreu/pseudos/PBEsol/O.psp8
- O     ONCVPSP-3.3.0  r_core=   1.35509   1.45563   1.26150
-  8.00000   6.00000    180112                znucl, zion, pspdat
    8 -116133    2    4       600   0.00000   pspcod,pspxc,lmax,lloc,mmax,r2well
    5.99000000000000    4.00000000000000    0.00000000000000   rchrg,fchrg,qchrg
     nproj     2     2     1
     extension_switch     1
  pspatm : epsatm=    6.22910522
         --- l  ekb(1:nproj) -->
             0    6.050032    0.820363
             1   -4.739617   -1.153841
             2   -1.335834
 pspatm: atomic psp has been read  and splines computed

   8.96592588E+03                                ecore*ucvol(ha*bohr**3)

 ==>  initialize data related to q vector <==

 The list of irreducible perturbations for this q vector is:
    1)    idir= 1    ipert=  11
    2)    idir= 2    ipert=  11
    3)    idir= 3    ipert=  11

 Perturbation wavevector (in red.coord.)   0.000000  0.000000  0.000000
 Perturbation : derivative vs k along direction   1

 dfpt_looppert : COMMENT -
  In a d/dk calculation, iscf is set to -3 automatically.
 The set of symmetries contains only one element for this perturbation.
 symkpt : not enough symmetry to change the number of k points.

 Initialisation of the first-order wave-functions :
  ireadwf=   0

--- !BeginCycle
iteration_state: {dtset: 1, }
solver: {iscf: 7, nstep: 2000, nline: 4, wfoptalg: 0, }
tolerances: {tolwfr: 1.00E-20, }
...

     iter   2DEtotal(Ha)        deltaE(Ha) residm    vres2
-ETOT  1  -64.232332685034     -6.423E+01 9.243E-02 0.000E+00
 ETOT  2  -64.398431912163     -1.661E-01 2.798E-02 0.000E+00
 ETOT  3  -64.400526959850     -2.095E-03 2.884E-03 0.000E+00
 ETOT  4  -64.400574833909     -4.787E-05 1.765E-03 0.000E+00
 ETOT  5  -64.400576169016     -1.335E-06 2.590E-04 0.000E+00
 ETOT  6  -64.400576210602     -4.159E-08 1.574E-04 0.000E+00
 ETOT  7  -64.400576211980     -1.377E-09 2.342E-05 0.000E+00
[...]

 At SCF step   38   max residual=  9.99E-21 < tolwfr=  1.00E-20 =>converged.

 ----iterations are completed or convergence reached----

 dfpt_looppert: DFPT cycle converged with prtwf=-1. Will skip output of the 1st-order WFK file.
 dfpt_looppert : ek2=    8.9667880167E+01
          f-sum rule ratio=    1.0299040868E+00
 prteigrs : about to open file /scratch/users/j/a/jabreu/flow_simple_10atoms/flow/w362/t1/tmpdata/tmp_1WF1_EIG
 Expectation of eigenvalue derivatives (hartree) for nkpt=   2  k points:
  (in case of degenerate eigenvalues, averaged derivative)
 kpt#   1, nband= 51, wtk=  0.50000, kpt=  0.6376  0.5000  0.3624 (reduced coord)
  -0.00618   -0.00009    0.00137    0.00720   -0.00263   -0.00215   -0.00156    0.00126
   0.00172    0.00116    0.00481   -0.00471    0.04886   -0.07935   -0.01002    0.02607
  -0.03337    0.01150   -0.00789    0.00384   -0.00672    0.01101    0.00232    0.00505
   0.11667   -0.09884    0.03756   -0.00605    0.00031    0.03427    0.08167   -0.12541
  -0.03966   -0.00782   -0.03176   -0.02820    0.03154   -0.00176   -0.01588    0.01445
  -0.00485    0.00237    0.11228   -0.00547    0.10845   -0.12968    0.01403   -0.00337
   0.02626    0.03860   -0.08320
 prteigrs : prtvol=0 or 1, do not print more k-points.

 Eight components of 2nd-order total energy (hartree) are
 1,2,3: 0th-order hamiltonian combined with 1st-order wavefunctions
     kin0=   8.69472367E+01 eigvalue=   7.90178219E+00  local=  -4.56123166E+01
 4,5,6: 1st-order hamiltonian combined with 1st and 0th-order wfs
     kin1=  -9.23493162E+01  Hartree=   0.00000000E+00     xc=   0.00000000E+00
 7,8,9: eventually, occupation + non-local contributions
    edocc=   9.28128735E+00     enl0=   5.88258652E+00   enl1=  -3.64518362E+01
 1-9 gives the relaxation energy (to be shifted if some occ is /=2.0)
   erelax=  -6.44005762E+01
  No Ewald or frozen-wf contrib.: the relaxation energy is the total one
 2DEtotal=   -0.6440057621E+02 Ha. Also 2DEtotal=   -0.175242880011E+04 eV
    (  non-var. 2DEtotal :   -6.4400576212E+01 Ha)

 Perturbation wavevector (in red.coord.)   0.000000  0.000000  0.000000
 Perturbation : derivative vs k along direction   2
 The set of symmetries contains only one element for this perturbation.
 symkpt : not enough symmetry to change the number of k points.

[...]

 Perturbation wavevector (in red.coord.)   0.000000  0.000000  0.000000
 Perturbation : derivative vs k along direction   3
 The set of symmetries contains only one element for this perturbation.
 symkpt : not enough symmetry to change the number of k points.

 Initialisation of the first-order wave-functions :
  ireadwf=   0

--- !BeginCycle
iteration_state: {dtset: 1, }
solver: {iscf: 7, nstep: 2000, nline: 4, wfoptalg: 0, }
tolerances: {tolwfr: 1.00E-20, }
...

     iter   2DEtotal(Ha)        deltaE(Ha) residm    vres2
-ETOT  1  -64.227823384278     -6.423E+01 6.498E-02 0.000E+00
 ETOT  2  -64.388061080654     -1.602E-01 1.646E-02 0.000E+00
 ETOT  3  -64.390136616182     -2.076E-03 1.548E-03 0.000E+00
 ETOT  4  -64.390185452260     -4.884E-05 8.195E-04 0.000E+00
 ETOT  5  -64.390186851092     -1.399E-06 1.225E-04 0.000E+00
 ETOT  6  -64.390186895879     -4.479E-08 6.717E-05 0.000E+00
 ETOT  7  -64.390186897398     -1.519E-09 1.020E-05 0.000E+00
 ETOT  8  -64.390186897451     -5.348E-11 5.890E-06 0.000E+00
 ETOT  9  -64.390186897453     -1.990E-12 9.083E-07 0.000E+00
 ETOT 10  -64.390186897454     -4.263E-14 5.466E-07 0.000E+00
 ETOT 11  -64.390186897454      0.000E+00 8.506E-08 0.000E+00
 ETOT 12  -64.390186897454     -4.263E-14 5.275E-08 0.000E+00
 ETOT 13  -64.390186897453      8.527E-14 8.256E-09 0.000E+00
 ETOT 14  -64.390186897453      0.000E+00 5.231E-09 0.000E+00
 ETOT 15  -64.390186897453      0.000E+00 8.215E-10 0.000E+00
 ETOT 16  -64.390186897453     -1.421E-14 5.284E-10 0.000E+00
 ETOT 17  -64.390186897453      0.000E+00 8.314E-11 0.000E+00
 ETOT 18  -64.390186897453      0.000E+00 5.404E-11 0.000E+00
 ETOT 19  -64.390186897453      0.000E+00 8.511E-12 0.000E+00
 ETOT 20  -64.390186897453      0.000E+00 5.572E-12 0.000E+00
 ETOT 21  -64.390186897453      0.000E+00 8.780E-13 0.000E+00
 ETOT 22  -64.390186897453      0.000E+00 5.777E-13 0.000E+00
 ETOT 23  -64.390186897454     -1.421E-14 9.104E-14 0.000E+00
 ETOT 24  -64.390186897454      0.000E+00 6.011E-14 0.000E+00
 ETOT 25  -64.390186897453      2.842E-14 9.474E-15 0.000E+00
 ETOT 26  -64.390186897454     -2.842E-14 6.270E-15 0.000E+00
 ETOT 27  -64.390186897453      2.842E-14 9.884E-16 0.000E+00
 ETOT 28  -64.390186897453      0.000E+00 6.551E-16 0.000E+00
 ETOT 29  -64.390186897453     -1.421E-14 1.033E-16 0.000E+00
 ETOT 30  -64.390186897453      0.000E+00 6.854E-17 0.000E+00
 ETOT 31  -64.390186897453      0.000E+00 1.081E-17 0.000E+00
 ETOT 32  -64.390186897453      1.421E-14 7.178E-18 0.000E+00
 ETOT 33  -64.390186897453      0.000E+00 1.133E-18 0.000E+00
 ETOT 34  -64.390186897454     -2.842E-14 7.523E-19 0.000E+00
 ETOT 35  -64.390186897453      1.421E-14 1.188E-19 0.000E+00
 ETOT 36  -64.390186897453      0.000E+00 7.890E-20 0.000E+00
 ETOT 37  -64.390186897454     -2.842E-14 1.247E-20 0.000E+00
 ETOT 38  -64.390186897454      0.000E+00 9.991E-21 0.000E+00

 At SCF step   38   max residual=  9.99E-21 < tolwfr=  1.00E-20 =>converged.

 ----iterations are completed or convergence reached----

 dfpt_looppert: DFPT cycle converged with prtwf=-1. Will skip output of the 1st-order WFK file.
 dfpt_looppert : ek2=    8.9667880167E+01
          f-sum rule ratio=    1.0298224095E+00
 prteigrs : about to open file /scratch/users/j/a/jabreu/flow_simple_10atoms/flow/w362/t1/tmpdata/tmp_1WF1_EIG
 Expectation of eigenvalue derivatives (hartree) for nkpt=   2  k points:
  (in case of degenerate eigenvalues, averaged derivative)
 kpt#   1, nband= 51, wtk=  0.50000, kpt=  0.6376  0.5000  0.3624 (reduced coord)
   0.00616    0.00014   -0.00149   -0.00709    0.00272    0.00167    0.00196   -0.00161
  -0.00131   -0.00123   -0.00480    0.00470   -0.04890    0.07985    0.01018   -0.02671
   0.03227   -0.01044    0.00987   -0.00426    0.00692   -0.01148   -0.00010   -0.00858
  -0.11704    0.09935   -0.03675    0.00775   -0.01895   -0.01503   -0.08700    0.12823
   0.04934    0.02288    0.00366    0.03005   -0.03256    0.00880   -0.00294   -0.00174
   0.00479   -0.00246   -0.11009    0.00483   -0.10421    0.04423    0.05480    0.05952
  -0.10445   -0.00817    0.02857
 prteigrs : prtvol=0 or 1, do not print more k-points.

 Eight components of 2nd-order total energy (hartree) are
 1,2,3: 0th-order hamiltonian combined with 1st-order wavefunctions
     kin0=   8.68088856E+01 eigvalue=   7.87550086E+00  local=  -4.55677606E+01
 4,5,6: 1st-order hamiltonian combined with 1st and 0th-order wfs
     kin1=  -9.23419924E+01  Hartree=   0.00000000E+00     xc=   0.00000000E+00
 7,8,9: eventually, occupation + non-local contributions
    edocc=   9.32136932E+00     enl0=   5.95219174E+00   enl1=  -3.64383814E+01
 1-9 gives the relaxation energy (to be shifted if some occ is /=2.0)
   erelax=  -6.43901869E+01
  No Ewald or frozen-wf contrib.: the relaxation energy is the total one
 2DEtotal=   -0.6439018690E+02 Ha. Also 2DEtotal=   -0.175214609248E+04 eV
    (  non-var. 2DEtotal :   -6.4390186897E+01 Ha)

 CALCULATION OF EFFECTIVE MASSES
 NOTE : Additional infos (eff. mass eigenvalues, eigenvectors and, if degenerate, average mass) are available in stdout.

 K-point ( 0.638, 0.500, 0.362) | band =    42
 Effective mass tensor:
             -8.2522522694             -2.5681323290            -12.6208882792
             -2.5681323290             -8.9008890183             -7.3558648074
            -12.6208882792             -7.3558648074            -27.4966352940
 Effective mass tensor eigenvalues:
            -35.9566421637             -6.8671603924             -1.8259740255
 Angular average effective mass 1/(<1/m>)=  -4.1603984081
 Angular average effective mass for Frohlich model (<m**0.5>)**2=  -5.7977293097
 Effective masses along directions: (cart. coord. / red. coord. -> eff. mass)
    1:   1.000000  0.000000  0.000000 /   0.926418  0.376498  0.000000 ->  -2.3650839588
    2:   0.000000  1.000000  0.000000 /   0.000000  1.000000  0.000000 ->  -6.6674636250
    3:   0.000000  0.000000  1.000000 /   0.491865  0.491865  0.718427 ->  -6.7437820057
    4:   0.577350  0.577350  0.577350 /   0.591535  0.689172  0.418483 -> -10.7275811023
    5:   0.000000  0.707107  0.707107 /   0.377289  0.744291  0.551075 -> -11.5757847343
    6:   0.707107  0.000000  0.707107 /   0.710310  0.492892  0.502511 -> -12.7724641322
    7:   0.707107  0.707107  0.000000 /   0.603830  0.797113  0.000000 ->  -2.9789546747

 K-point ( 0.000, 0.000, 0.000) | band =    43
 Effective mass tensor:
              0.4218187879              0.0300455501              0.1068906460
              0.0300455501              0.3950908950              0.0694434528
              0.1068906460              0.0694434528              0.6226246648
 Effective mass tensor eigenvalues:
              0.3755712567              0.3755712568              0.6883918342
 Angular average effective mass 1/(<1/m>)=   0.4426161320
 Angular average effective mass for Frohlich model (<m**0.5>)**2=   0.4522837622
 Effective masses along directions: (cart. coord. / red. coord. -> eff. mass)
    1:   1.000000  0.000000  0.000000 /   0.926418  0.376498  0.000000 ->   0.4026200732
    2:   0.000000  1.000000  0.000000 /   0.000000  1.000000  0.000000 ->   0.3865315196
    3:   0.000000  0.000000  1.000000 /   0.491865  0.491865  0.718427 ->   0.5858093721
    4:   0.577350  0.577350  0.577350 /   0.591535  0.689172  0.418483 ->   0.5789960366
    5:   0.000000  0.707107  0.707107 /   0.377289  0.744291  0.551075 ->   0.5323460797
    6:   0.707107  0.000000  0.707107 /   0.710310  0.492892  0.502511 ->   0.5945492907
    7:   0.707107  0.707107  0.000000 /   0.603830  0.797113  0.000000 ->   0.4133582811

 END OF EFFECTIVE MASSES SECTION

 ---- first-order wavefunction calculations are completed ----

 Total localisation tensor (bohr^2) in cartesian coordinates
  WARNING : still subject to testing - especially symmetries.
      direction              matrix element
   alpha     beta       real part   imaginary part
     1        1       1.0230744337    0.0000000000
     1        2       0.3330295773    0.0000000000
     1        3       1.1642059955    0.0000000000
     2        1       0.3330295773    0.0000000000
     2        2       0.7487351751    0.0000000000
     2        3       0.7697220956    0.0000000000
     3        1       1.1642059955    0.0000000000
     3        2       0.7697220956    0.0000000000
     3        3       3.2086380825    0.0000000000

 respfn : d/dk was computed, but no 2DTE, so no DDB output.

== END DATASET(S) ==============================================================

 -outvars: echo values of variables after computation  --------
            acell      1.0000000000E+00  1.0000000000E+00  1.0000000000E+00 Bohr
              amu      3.90983000E+01  1.21753000E+02  1.59994000E+01
             ecut      4.40000000E+01 Hartree
           etotal     -6.4390186897E+01
            fcart      0.0000000000E+00  0.0000000000E+00  0.0000000000E+00
                       0.0000000000E+00  0.0000000000E+00  0.0000000000E+00
                       0.0000000000E+00  0.0000000000E+00  0.0000000000E+00
                       0.0000000000E+00  0.0000000000E+00  0.0000000000E+00
                       0.0000000000E+00  0.0000000000E+00  0.0000000000E+00
                       0.0000000000E+00  0.0000000000E+00  0.0000000000E+00
                       0.0000000000E+00  0.0000000000E+00  0.0000000000E+00
                       0.0000000000E+00  0.0000000000E+00  0.0000000000E+00
                       0.0000000000E+00  0.0000000000E+00  0.0000000000E+00
                       0.0000000000E+00  0.0000000000E+00  0.0000000000E+00
-          fftalg         512
           irdden           1
           irdwfk           1
           istwfk        0    1
              ixc     -116133
              kpt      6.37602676E-01  5.00000000E-01  3.62397324E-01
                       0.00000000E+00  0.00000000E+00  0.00000000E+00
           kptopt           0
P           mkmem           2
P          mkqmem           2
P          mk1mem           2
            natom          10
            nband          51
           nbdbuf           4
            ngfft          80      80      80
             nkpt           2
            nstep        2000
             nsym           6
           ntypat           3
              occ      2.000000  2.000000  2.000000  2.000000  2.000000  2.000000
                       2.000000  2.000000  2.000000  2.000000  2.000000  2.000000
                       2.000000  2.000000  2.000000  2.000000  2.000000  2.000000
                       2.000000  2.000000  2.000000  2.000000  2.000000  2.000000
                       2.000000  2.000000  2.000000  2.000000  2.000000  2.000000
                       2.000000  2.000000  2.000000  2.000000  2.000000  2.000000
                       2.000000  2.000000  2.000000  2.000000  2.000000  2.000000
                       0.000000  0.000000  0.000000  0.000000  0.000000  0.000000
                       0.000000  0.000000  0.000000
        optdriver           1
            prtwf          -1
            rfdir           1       1       1
           rfelfd           2
            rprim      9.4127181311E+00  0.0000000000E+00  8.8414149774E+00
                       3.8253451599E+00  8.6003486571E+00  8.8414149774E+00
                       0.0000000000E+00  0.0000000000E+00  1.2913941359E+01
          spgroup         148
           strten      0.0000000000E+00  0.0000000000E+00  0.0000000000E+00
                       0.0000000000E+00  0.0000000000E+00  0.0000000000E+00
           symrel      1  0  0   0  1  0   0  0  1      -1  0  0   0 -1  0   0  0 -1
                       0  0  1   1  0  0   0  1  0       0  0 -1  -1  0  0   0 -1  0
                       0  1  0   0  0  1   1  0  0       0 -1  0   0  0 -1  -1  0  0
           tolwfr      1.00000000E-20
            typat      1  1  2  2  3  3  3  3  3  3
           useylm           1
              wtk        0.50000    0.50000
           xangst      4.4860771162E+00  2.9144616137E+00  1.0368546562E+01
                       2.5192042633E+00  1.6366468815E+00  5.8225674739E+00
                       1.1476402220E+00  7.4558534924E-01  2.6525092569E+00
                       5.8576411575E+00  3.8055231460E+00  1.3538604779E+01
                       5.0406380620E+00  2.0122771723E+00  6.2067444032E+00
                       1.9646433175E+00  2.5388313230E+00  9.9843696324E+00
                       2.2746537250E+00  1.6255194213E-01  7.9234143444E+00
                       4.7306276544E+00  4.3885565531E+00  8.2676996912E+00
                       1.8626846176E+00  3.7878102318E+00  7.0826454972E+00
                       5.1425967619E+00  7.6329826350E-01  9.1084685383E+00
            xcart      8.4774571606E+00  5.5075342748E+00  1.9593713398E+01
                       4.7606061304E+00  3.0928143823E+00  1.1003057916E+01
                       2.1687257186E+00  1.4089521187E+00  5.0125160605E+00
                       1.1069337572E+01  7.1913965384E+00  2.5584255253E+01
                       9.5254254721E+00  3.8026527591E+00  1.1729047099E+01
                       3.7126378189E+00  4.7976958980E+00  1.8867724215E+01
                       4.2984725875E+00  3.0717865299E-01  1.4973083148E+01
                       8.9395907035E+00  8.2931700041E+00  1.5623688165E+01
                       3.5199637992E+00  7.1579239814E+00  1.3384260286E+01
                       9.7180994918E+00  1.4424246757E+00  1.7212511027E+01
             xred      6.4038500000E-01  6.4038500000E-01  6.4038500000E-01
                       3.5961500000E-01  3.5961500000E-01  3.5961500000E-01
                       1.6382500000E-01  1.6382500000E-01  1.6382500000E-01
                       8.3617500000E-01  8.3617500000E-01  8.3617500000E-01
                       8.3228300000E-01  4.4215100000E-01  3.5717000000E-02
                       1.6771700000E-01  5.5784900000E-01  9.6428300000E-01
                       4.4215100000E-01  3.5717000000E-02  8.3228300000E-01
                       5.5784900000E-01  9.6428300000E-01  1.6771700000E-01
                       3.5717000000E-02  8.3228300000E-01  4.4215100000E-01
                       9.6428300000E-01  1.6771700000E-01  5.5784900000E-01
            znucl       19.00000   51.00000    8.00000

- Timing analysis has been suppressed with timopt=0

 Suggested references for the acknowledgment of ABINIT usage.

 Calculation completed.
.Delivered   2 WARNINGs and   5 COMMENTs to log file.