.Version 9.5.2 of ABINIT

 ABINIT is a project of the Universite Catholique de Louvain,
 Corning Inc. and other collaborators, see ~abinit/doc/developers/contributors.txt .
 acknowledgments of the ABINIT effort.

.Starting date : Mon 31 May 2021.
- ( at 21h51 )

- input  file    -> /scratch/users/j/a/jabreu/flow_simple_11atoms/flow/w304/t1/run.abi
- output file    -> /scratch/users/j/a/jabreu/flow_simple_11atoms/flow/w304/t1/run.abo
- root for input  files -> /scratch/users/j/a/jabreu/flow_simple_11atoms/flow/w304/t1/indata/in
- root for output files -> /scratch/users/j/a/jabreu/flow_simple_11atoms/flow/w304/t1/outdata/out

 Symmetries : space group P2_1 (#  4); Bravais mP (primitive monocl.)
     intxc =       0      iscf =       7    lmnmax =      32     lnmax =       8
     mgfft =      96  mpssoang =       4    mqgrid =    4350     natom =      12
  nloc_mem =       1    nspden =       1   nspinor =       1    nsppol =       1
      nsym =       2    n1xccc =    2501    ntypat =       3    occopt =       1
   xclevel =       2
-    mband =          61        mffmem =           1         mkmem =           1
-   mkqmem =           1        mk1mem =           1           mpw =       21854
      nfft =      388800          nkpt =           1
  Rough estimation (10% accuracy) of disk space for files :

------------- Echo of variables that govern the present computation ------------
-
- outvars: echo of selected default values
-   iomode0 =  0 , fftalg0 =512 , wfoptalg0 =  0
-
- outvars: echo of global parameters not present in the input file
-  max_nthreads =    0
-
 -outvars: echo values of preprocessed input variables --------
            acell      1.0000000000E+00  1.0000000000E+00  1.0000000000E+00 Bohr
              amu      1.32905430E+02  7.49215900E+01  1.89984032E+01
             ecut      4.20000000E+01 Hartree
-          fftalg         512
           irdden           1
           irdwfk           1
              ixc     -116133
              kpt      4.25000000E-01  0.00000000E+00  5.00000000E-01
           kptopt           0
P           mkmem           1
P          mkqmem           1
P          mk1mem           1
            natom          12
            nband          61
           nbdbuf           4
            ngfft          54      75      96
             nkpt           1
            nstep        2000
             nsym           2
           ntypat           3
              occ      2.000000  2.000000  2.000000  2.000000  2.000000  2.000000
                       2.000000  2.000000  2.000000  2.000000  2.000000  2.000000
                       2.000000  2.000000  2.000000  2.000000  2.000000  2.000000
                       2.000000  2.000000  2.000000  2.000000  2.000000  2.000000
                       2.000000  2.000000  2.000000  2.000000  2.000000  2.000000
                       2.000000  2.000000  2.000000  2.000000  2.000000  2.000000
                       2.000000  2.000000  2.000000  2.000000  2.000000  2.000000
                       2.000000  2.000000  2.000000  2.000000  2.000000  2.000000
                       2.000000  2.000000  2.000000  2.000000  0.000000  0.000000
                       0.000000  0.000000  0.000000  0.000000  0.000000  0.000000
                       0.000000
        optdriver           1
            prtwf          -1
            rfdir           1       1       1
           rfelfd           2
            rprim      8.9920805771E+00  0.0000000000E+00  0.0000000000E+00
                       0.0000000000E+00  1.1581716088E+01  4.8444764632E+00
                       0.0000000000E+00  0.0000000000E+00  1.6159295287E+01
          spgroup           4
           symrel      1  0  0   0  1  0   0  0  1       1  0  0   0 -1  0   0  0 -1
            tnons      0.0000000  0.0000000  0.0000000     0.5000000  0.0000000  0.0000000
           tolwfr      1.00000000E-20
            typat      1  1  2  2  3  3  3  3  3  3  3  3
           useylm           1
           xangst      1.4401738263E+00  2.4679310781E+00  7.7345846982E+00
                       3.8193758759E+00  3.6608491118E+00  3.3801326063E+00
                       3.8563153669E+00  5.9130348696E+00  8.3712119730E+00
                       1.4771133173E+00  2.1574532024E-01  2.7435053315E+00
                       3.7918865754E+00  4.0330621903E+00  8.8093323444E+00
                       1.4126845258E+00  2.0957179996E+00  2.3053849601E+00
                       2.0746641873E+00  5.8857005100E+00  8.5219420210E+00
                       4.4538662369E+00  2.4307967989E-01  2.5927752834E+00
                       1.3352081902E+00  4.4326525299E+00  5.3886263776E+00
                       3.7144102398E+00  1.6961276600E+00  5.7260909268E+00
                       1.7902924415E+00  6.0883670133E+00  3.5795305727E+00
                       4.1694944911E+00  4.0413176572E-02  7.5351867318E+00
            xcart      2.7215341154E+00  4.6637138524E+00  1.4616246831E+01
                       7.2175744039E+00  6.9180022351E+00  6.3875249187E+00
                       7.2873799255E+00  1.1174016518E+01  1.5819298029E+01
                       2.7913396369E+00  4.0769956971E-01  5.1844737206E+00
                       7.1656271544E+00  7.6213830165E+00  1.6647225544E+01
                       2.6695868659E+00  3.9603330710E+00  4.3565462054E+00
                       3.9205471316E+00  1.1122362064E+01  1.6104136540E+01
                       8.4165874202E+00  4.5935402346E-01  4.8996352098E+00
                       2.5231778099E+00  8.3764993237E+00  1.0183028086E+01
                       7.0192180985E+00  3.2052167638E+00  1.0820743664E+01
                       3.3831624122E+00  1.1505346252E+01  6.7643324666E+00
                       7.8792027007E+00  7.6369835881E-02  1.4239439283E+01
             xred      3.0265900000E-01  4.0267900000E-01  7.8378900000E-01
                       8.0265900000E-01  5.9732100000E-01  2.1621100000E-01
                       8.1042200000E-01  9.6479800000E-01  6.8971800000E-01
                       3.1042200000E-01  3.5202000000E-02  3.1028200000E-01
                       7.9688200000E-01  6.5805300000E-01  8.3291400000E-01
                       2.9688200000E-01  3.4194700000E-01  1.6708600000E-01
                       4.3600000000E-01  9.6033800000E-01  7.0868200000E-01
                       9.3600000000E-01  3.9662000000E-02  2.9131800000E-01
                       2.8060000000E-01  7.2325200000E-01  4.1333800000E-01
                       7.8060000000E-01  2.7674800000E-01  5.8666200000E-01
                       3.7623800000E-01  9.9340600000E-01  1.2078500000E-01
                       8.7623800000E-01  6.5940000000E-03  8.7921500000E-01
            znucl       55.00000   33.00000    9.00000

 chkinp: Checking input parameters for consistency.

== DATASET  1 ==================================================================
-   mpi_nproc: 1, omp_nthreads: -1 (-1 if OMP is not activated)

--- !DatasetInfo
iteration_state: {dtset: 1, }
dimensions: {natom: 12, nkpt: 1, mband: 61, nsppol: 1, nspinor: 1, nspden: 1, mpw: 21854, }
cutoff_energies: {ecut:  42.0, pawecutdg:  -1.0, }
electrons: {nelect:   1.04000000E+02, charge:   0.00000000E+00, occopt:   1.00000000E+00, tsmear:   1.00000000E-02, }
meta: {optdriver: 1, rfelfd: 2, }
...

 Real(R)+Recip(G) space primitive vectors, cartesian coordinates (Bohr,Bohr^-1):
 R(1)=  8.9920806  0.0000000  0.0000000  G(1)=  0.1112090  0.0000000  0.0000000
 R(2)=  0.0000000 11.5817161  4.8444765  G(2)=  0.0000000  0.0863430  0.0000000
 R(3)=  0.0000000  0.0000000 16.1592953  G(3)=  0.0000000 -0.0258852  0.0618839
 Unit cell volume ucvol=  1.6828892E+03 bohr^3
 Angles (23,13,12)=  6.73010961E+01  9.00000000E+01  9.00000000E+01 degrees

 getcut: wavevector=  0.0000  0.0000  0.0000  ngfft=  54  75  96
         ecut(hartree)=     42.000   => boxcut(ratio)=   2.02057

--- Pseudopotential description ------------------------------------------------
- pspini: atom type   1  psp file is /scratch/users/j/a/jabreu/pseudos/PBEsol/Cs.psp8
- pspatm: opening atomic psp file    /scratch/users/j/a/jabreu/pseudos/PBEsol/Cs.psp8
- Cs    ONCVPSP-3.3.0  r_core=   2.27353   1.85623   2.01788   1.90105
- 55.00000   9.00000    180112                znucl, zion, pspdat
    8 -116133    3    4       600   0.00000   pspcod,pspxc,lmax,lloc,mmax,r2well
    5.99000000000000    5.00000000000000    0.00000000000000   rchrg,fchrg,qchrg
     nproj     2     2     2     2
     extension_switch     1
  pspatm : epsatm=   22.12462445
         --- l  ekb(1:nproj) -->
             0    6.214110    0.767882
             1    6.311966    0.793598
             2    3.769790    0.913105
             3   -9.247129   -2.432478
 pspatm: atomic psp has been read  and splines computed

- pspini: atom type   2  psp file is /scratch/users/j/a/jabreu/pseudos/PBEsol/As.psp8
- pspatm: opening atomic psp file    /scratch/users/j/a/jabreu/pseudos/PBEsol/As.psp8
- As    ONCVPSP-3.3.0  r_core=   1.76603   1.70395   1.80867
- 33.00000  15.00000    180112                znucl, zion, pspdat
    8 -116133    2    4       600   0.00000   pspcod,pspxc,lmax,lloc,mmax,r2well
    5.99000000000000    5.00000000000000    0.00000000000000   rchrg,fchrg,qchrg
     nproj     2     2     2
     extension_switch     1
  pspatm : epsatm=   28.79155382
         --- l  ekb(1:nproj) -->
             0    8.270760    0.868950
             1    4.919053    0.756587
             2  -10.048665   -4.076802
 pspatm: atomic psp has been read  and splines computed

- pspini: atom type   3  psp file is /scratch/users/j/a/jabreu/pseudos/PBEsol/F.psp8
- pspatm: opening atomic psp file    /scratch/users/j/a/jabreu/pseudos/PBEsol/F.psp8
- F     ONCVPSP-3.3.0  r_core=   1.30942   1.45782   1.60379
-  9.00000   7.00000    180112                znucl, zion, pspdat
    8 -116133    2    4       600   0.00000   pspcod,pspxc,lmax,lloc,mmax,r2well
    5.99000000000000    2.50000000000000    0.00000000000000   rchrg,fchrg,qchrg
     nproj     2     2     1
     extension_switch     1
  pspatm : epsatm=    4.89824824
         --- l  ekb(1:nproj) -->
             0    6.506434    1.065875
             1   -3.978753   -1.295852
             2   -2.394754
 pspatm: atomic psp has been read  and splines computed

   1.46659076E+04                                ecore*ucvol(ha*bohr**3)

 ==>  initialize data related to q vector <==

 The list of irreducible perturbations for this q vector is:
    1)    idir= 1    ipert=  13
    2)    idir= 2    ipert=  13
    3)    idir= 3    ipert=  13

 Perturbation wavevector (in red.coord.)   0.000000  0.000000  0.000000
 Perturbation : derivative vs k along direction   1

 dfpt_looppert : COMMENT -
  In a d/dk calculation, iscf is set to -3 automatically.
 The set of symmetries contains only one element for this perturbation.
 symkpt : not enough symmetry to change the number of k points.

 Initialisation of the first-order wave-functions :
  ireadwf=   0

--- !BeginCycle
iteration_state: {dtset: 1, }
solver: {iscf: 7, nstep: 2000, nline: 4, wfoptalg: 0, }
tolerances: {tolwfr: 1.00E-20, }
...

     iter   2DEtotal(Ha)        deltaE(Ha) residm    vres2
[...]
 ETOT 27  -78.030870106787      0.000E+00 9.987E-21 0.000E+00

 At SCF step   27   max residual=  9.99E-21 < tolwfr=  1.00E-20 =>converged.

 ----iterations are completed or convergence reached----

 dfpt_looppert: DFPT cycle converged with prtwf=-1. Will skip output of the 1st-order WFK file.
 dfpt_looppert : ek2=    1.0155532302E+02
          f-sum rule ratio=    1.0273760905E+00
 prteigrs : about to open file /scratch/users/j/a/jabreu/flow_simple_11atoms/flow/w304/t1/tmpdata/tmp_1WF1_EIG
 Expectation of eigenvalue derivatives (hartree) for nkpt=   1  k points:
  (in case of degenerate eigenvalues, averaged derivative)
 kpt#   1, nband= 61, wtk=  1.00000, kpt=  0.4250  0.0000  0.5000 (reduced coord)
   0.00004    0.00001    0.00004   -0.00001   -0.00000   -0.00000    0.00002   -0.00002
   0.00000   -0.00000    0.00445    0.00202   -0.00238   -0.00421    0.00072   -0.00035
   0.00006    0.00000    0.00001   -0.00055   -0.01402   -0.01503    0.00876   -0.02437
  -0.00073   -0.00687    0.00802   -0.00227    0.01591    0.01110    0.02099   -0.01468
   0.04162   -0.00314    0.00445   -0.00390    0.01467    0.00772    0.00071   -0.01205
   0.00164   -0.01830    0.00073   -0.00812   -0.00593   -0.00686    0.00457    0.00534
   0.00781    0.00596    0.02600   -0.00010    0.00848   -0.11806    0.02837   -0.02822
  -0.01736   -0.03736   -0.01578   -0.02182    0.05748

 Eight components of 2nd-order total energy (hartree) are
 1,2,3: 0th-order hamiltonian combined with 1st-order wavefunctions
     kin0=   9.47322990E+01 eigvalue=   1.12756799E+01  local=  -4.19977761E+01
 4,5,6: 1st-order hamiltonian combined with 1st and 0th-order wfs
     kin1=  -1.04335511E+02  Hartree=   0.00000000E+00     xc=   0.00000000E+00
 7,8,9: eventually, occupation + non-local contributions
    edocc=   7.79987878E+00     enl0=   6.22078853E+00   enl1=  -5.17262295E+01
 1-9 gives the relaxation energy (to be shifted if some occ is /=2.0)
   erelax=  -7.80308701E+01
  No Ewald or frozen-wf contrib.: the relaxation energy is the total one
 2DEtotal=   -0.7803087011E+02 Ha. Also 2DEtotal=   -0.212332795941E+04 eV
    (  non-var. 2DEtotal :   -7.8030870107E+01 Ha)

 Perturbation wavevector (in red.coord.)   0.000000  0.000000  0.000000
 Perturbation : derivative vs k along direction   2
 The set of symmetries contains only one element for this perturbation.
 symkpt : not enough symmetry to change the number of k points.

[...]

 Perturbation wavevector (in red.coord.)   0.000000  0.000000  0.000000
 Perturbation : derivative vs k along direction   3
 The set of symmetries contains only one element for this perturbation.
 symkpt : not enough symmetry to change the number of k points.

 Initialisation of the first-order wave-functions :
  ireadwf=   0

--- !BeginCycle
iteration_state: {dtset: 1, }
solver: {iscf: 7, nstep: 2000, nline: 4, wfoptalg: 0, }
tolerances: {tolwfr: 1.00E-20, }
...

     iter   2DEtotal(Ha)        deltaE(Ha) residm    vres2
-ETOT  1  -27.877795238020     -2.788E+01 4.255E-02 0.000E+00
 ETOT  2  -27.924889089677     -4.709E-02 2.939E-03 0.000E+00
 ETOT  3  -27.925330237755     -4.411E-04 2.147E-04 0.000E+00
 ETOT  4  -27.925358137546     -2.790E-05 3.815E-05 0.000E+00
 ETOT  5  -27.925360318418     -2.181E-06 3.571E-06 0.000E+00
 ETOT  6  -27.925360498059     -1.796E-07 8.749E-07 0.000E+00
 ETOT  7  -27.925360513694     -1.563E-08 9.364E-08 0.000E+00
 ETOT  8  -27.925360515095     -1.401E-09 2.633E-08 0.000E+00
 ETOT  9  -27.925360515225     -1.297E-10 3.115E-09 0.000E+00
 ETOT 10  -27.925360515237     -1.226E-11 9.246E-10 0.000E+00
 ETOT 11  -27.925360515238     -1.183E-12 1.143E-10 0.000E+00
 ETOT 12  -27.925360515238     -1.101E-13 3.473E-11 0.000E+00
 ETOT 13  -27.925360515238     -1.776E-14 4.334E-12 0.000E+00
 ETOT 14  -27.925360515238     -4.263E-14 1.340E-12 0.000E+00
 ETOT 15  -27.925360515238      2.487E-14 1.665E-13 0.000E+00
 ETOT 16  -27.925360515238     -2.132E-14 5.232E-14 0.000E+00
 ETOT 17  -27.925360515238      2.132E-14 6.457E-15 0.000E+00
 ETOT 18  -27.925360515238      0.000E+00 2.058E-15 0.000E+00
 ETOT 19  -27.925360515238     -7.105E-15 2.521E-16 0.000E+00
 ETOT 20  -27.925360515238     -3.553E-15 8.132E-17 0.000E+00
 ETOT 21  -27.925360515238      3.553E-15 9.894E-18 0.000E+00
 ETOT 22  -27.925360515238      0.000E+00 3.226E-18 0.000E+00
 ETOT 23  -27.925360515238     -3.553E-15 3.901E-19 0.000E+00
 ETOT 24  -27.925360515238      7.105E-15 1.283E-19 0.000E+00
 ETOT 25  -27.925360515238     -1.421E-14 1.544E-20 0.000E+00
 ETOT 26  -27.925360515238      1.066E-14 9.949E-21 0.000E+00

 At SCF step   26   max residual=  9.95E-21 < tolwfr=  1.00E-20 =>converged.

 ----iterations are completed or convergence reached----

 dfpt_looppert: DFPT cycle converged with prtwf=-1. Will skip output of the 1st-order WFK file.
 dfpt_looppert : ek2=    3.6948998778E+01
          f-sum rule ratio=    9.9842906349E-01
 prteigrs : about to open file /scratch/users/j/a/jabreu/flow_simple_11atoms/flow/w304/t1/tmpdata/tmp_1WF1_EIG
 Expectation of eigenvalue derivatives (hartree) for nkpt=   1  k points:
  (in case of degenerate eigenvalues, averaged derivative)
 kpt#   1, nband= 61, wtk=  1.00000, kpt=  0.4250  0.0000  0.5000 (reduced coord)
   0.00000   -0.00000    0.00000   -0.00000    0.00000   -0.00000    0.00000   -0.00000
   0.00000    0.00000    0.00000    0.00000    0.00000   -0.00000    0.00000   -0.00000
  -0.00000    0.00000   -0.00000   -0.00000    0.00000   -0.00000   -0.00000    0.00000
  -0.00000    0.00000    0.00000    0.00000    0.00000   -0.00000   -0.00000    0.00000
  -0.00000   -0.00000    0.00000    0.00000   -0.00000   -0.00000   -0.00000   -0.00000
  -0.00000   -0.00000   -0.00000    0.00000   -0.00000   -0.00000    0.00000   -0.00000
  -0.00000    0.00000    0.00000    0.00000   -0.00000   -0.00000    0.00000    0.00000
   0.00000    0.00000    0.00000   -0.00000   -0.00507

 Eight components of 2nd-order total energy (hartree) are
 1,2,3: 0th-order hamiltonian combined with 1st-order wavefunctions
     kin0=   3.43776146E+01 eigvalue=   4.05457510E+00  local=  -1.51834906E+01
 4,5,6: 1st-order hamiltonian combined with 1st and 0th-order wfs
     kin1=  -3.68909542E+01  Hartree=   0.00000000E+00     xc=   0.00000000E+00
 7,8,9: eventually, occupation + non-local contributions
    edocc=   2.54113755E+00     enl0=   2.13552382E+00   enl1=  -1.89597668E+01
 1-9 gives the relaxation energy (to be shifted if some occ is /=2.0)
   erelax=  -2.79253605E+01
  No Ewald or frozen-wf contrib.: the relaxation energy is the total one
 2DEtotal=   -0.2792536052E+02 Ha. Also 2DEtotal=   -0.759887704409E+03 eV
    (  non-var. 2DEtotal :   -2.7925360515E+01 Ha)

 CALCULATION OF EFFECTIVE MASSES
 NOTE : Additional infos (eff. mass eigenvalues, eigenvectors and, if degenerate, average mass) are available in stdout.

--- !WARNING
src_file: m_efmas.F90
src_line: 0
message: |

    Band(s)    52,
    are not band extrema, but saddle points;
    the transport equivalent formalism breaks down in these conditions.
    The associated tensor(s) will therefore not be printed.
...

 K-point ( 0.425, 0.000, 0.500) | band =    52
 Effective mass tensor:
     *** SADDLE POINT: TRANSPORT EQV. EFF. MASS NOT DEFINED (see WARNING above) ***
 Angular average effective mass 1/(<1/m>)=  -6.1670510379
 Angular average effective mass for Frohlich model (<m**0.5>)**2= -14.7971003508
 Effective masses along directions: (cart. coord. / red. coord. -> eff. mass)
    1:   1.000000  0.000000  0.000000 /   1.000000  0.000000  0.000000 ->  -2.4818780514
    2:   0.000000  1.000000  0.000000 /   0.000000  1.000000  0.000000 -> -11.7672447673
    3:   0.000000  0.000000  1.000000 /   0.000000  0.287168  0.957880 -> 691.4777001613
    4:   0.577350  0.577350  0.577350 /   0.363543  0.664098  0.653307 ->  -6.9605034933
    5:   0.000000  0.707107  0.707107 /   0.000000  0.712875  0.701292 -> -71.1867025416
    6:   0.707107  0.000000  0.707107 /   0.470378  0.253416  0.845296 ->  -4.9817059407
    7:   0.707107  0.707107  0.000000 /   0.613264  0.789878  0.000000 ->  -4.0992390094

 K-point ( 0.425, 0.000, 0.500) | band =    53
 Effective mass tensor:
              0.5894079382             -0.0000065092              0.0000122456
             -0.0000065092              4.5263713851             -0.7355566698
              0.0000122456             -0.7355566698              6.2780770134
 Effective mass tensor eigenvalues:
              0.5894079382              4.2584752030              6.5459731956
 Angular average effective mass 1/(<1/m>)=   1.4393947794
 Angular average effective mass for Frohlich model (<m**0.5>)**2=   2.0453223480
 Effective masses along directions: (cart. coord. / red. coord. -> eff. mass)
    1:   1.000000  0.000000  0.000000 /   1.000000  0.000000  0.000000 ->   0.5894079382
    2:   0.000000  1.000000  0.000000 /   0.000000  1.000000  0.000000 ->   4.4401915543
    3:   0.000000  0.000000  1.000000 /   0.000000  0.287168  0.957880 ->   6.1585455898
    4:   0.577350  0.577350  0.577350 /   0.363543  0.664098  0.653307 ->   1.4038497985
    5:   0.000000  0.707107  0.707107 /   0.000000  0.712875  0.701292 ->   4.5416845481
    6:   0.707107  0.000000  0.707107 /   0.470378  0.253416  0.845296 ->   1.0758543845
    7:   0.707107  0.707107  0.000000 /   0.613264  0.789878  0.000000 ->   1.0406708813

 END OF EFFECTIVE MASSES SECTION

 ---- first-order wavefunction calculations are completed ----

 Total localisation tensor (bohr^2) in cartesian coordinates
  WARNING : still subject to testing - especially symmetries.
      direction              matrix element
   alpha     beta       real part   imaginary part
     1        1       0.6062842287    0.0000000000
     1        2       0.0000000000    0.0000000000
     1        3       0.0000000000    0.0000000000
     2        1       0.0000000000    0.0000000000
     2        2       0.5803615838    0.0000000000
     2        3       0.2427574646    0.0000000000
     3        1       0.0000000000    0.0000000000
     3        2       0.2427574646    0.0000000000
     3        3       0.7543210292    0.0000000000

 respfn : d/dk was computed, but no 2DTE, so no DDB output.

== END DATASET(S) ==============================================================

 -outvars: echo values of variables after computation  --------
            acell      1.0000000000E+00  1.0000000000E+00  1.0000000000E+00 Bohr
              amu      1.32905430E+02  7.49215900E+01  1.89984032E+01
             ecut      4.20000000E+01 Hartree
           etotal     -2.7925360515E+01
            fcart      0.0000000000E+00  0.0000000000E+00  0.0000000000E+00
                       0.0000000000E+00  0.0000000000E+00  0.0000000000E+00
                       0.0000000000E+00  0.0000000000E+00  0.0000000000E+00
                       0.0000000000E+00  0.0000000000E+00  0.0000000000E+00
                       0.0000000000E+00  0.0000000000E+00  0.0000000000E+00
                       0.0000000000E+00  0.0000000000E+00  0.0000000000E+00
                       0.0000000000E+00  0.0000000000E+00  0.0000000000E+00
                       0.0000000000E+00  0.0000000000E+00  0.0000000000E+00
                       0.0000000000E+00  0.0000000000E+00  0.0000000000E+00
                       0.0000000000E+00  0.0000000000E+00  0.0000000000E+00
                       0.0000000000E+00  0.0000000000E+00  0.0000000000E+00
                       0.0000000000E+00  0.0000000000E+00  0.0000000000E+00
-          fftalg         512
           irdden           1
           irdwfk           1
              ixc     -116133
              kpt      4.25000000E-01  0.00000000E+00  5.00000000E-01
           kptopt           0
P           mkmem           1
P          mkqmem           1
P          mk1mem           1
            natom          12
            nband          61
           nbdbuf           4
            ngfft          54      75      96
             nkpt           1
            nstep        2000
             nsym           2
           ntypat           3
              occ      2.000000  2.000000  2.000000  2.000000  2.000000  2.000000
                       2.000000  2.000000  2.000000  2.000000  2.000000  2.000000
                       2.000000  2.000000  2.000000  2.000000  2.000000  2.000000
                       2.000000  2.000000  2.000000  2.000000  2.000000  2.000000
                       2.000000  2.000000  2.000000  2.000000  2.000000  2.000000
                       2.000000  2.000000  2.000000  2.000000  2.000000  2.000000
                       2.000000  2.000000  2.000000  2.000000  2.000000  2.000000
                       2.000000  2.000000  2.000000  2.000000  2.000000  2.000000
                       2.000000  2.000000  2.000000  2.000000  0.000000  0.000000
                       0.000000  0.000000  0.000000  0.000000  0.000000  0.000000
                       0.000000
        optdriver           1
            prtwf          -1
            rfdir           1       1       1
           rfelfd           2
            rprim      8.9920805771E+00  0.0000000000E+00  0.0000000000E+00
                       0.0000000000E+00  1.1581716088E+01  4.8444764632E+00
                       0.0000000000E+00  0.0000000000E+00  1.6159295287E+01
          spgroup           4
           strten      0.0000000000E+00  0.0000000000E+00  0.0000000000E+00
                       0.0000000000E+00  0.0000000000E+00  0.0000000000E+00
           symrel      1  0  0   0  1  0   0  0  1       1  0  0   0 -1  0   0  0 -1
            tnons      0.0000000  0.0000000  0.0000000     0.5000000  0.0000000  0.0000000
           tolwfr      1.00000000E-20
            typat      1  1  2  2  3  3  3  3  3  3  3  3
           useylm           1
           xangst      1.4401738263E+00  2.4679310781E+00  7.7345846982E+00
                       3.8193758759E+00  3.6608491118E+00  3.3801326063E+00
                       3.8563153669E+00  5.9130348696E+00  8.3712119730E+00
                       1.4771133173E+00  2.1574532024E-01  2.7435053315E+00
                       3.7918865754E+00  4.0330621903E+00  8.8093323444E+00
                       1.4126845258E+00  2.0957179996E+00  2.3053849601E+00
                       2.0746641873E+00  5.8857005100E+00  8.5219420210E+00
                       4.4538662369E+00  2.4307967989E-01  2.5927752834E+00
                       1.3352081902E+00  4.4326525299E+00  5.3886263776E+00
                       3.7144102398E+00  1.6961276600E+00  5.7260909268E+00
                       1.7902924415E+00  6.0883670133E+00  3.5795305727E+00
                       4.1694944911E+00  4.0413176572E-02  7.5351867318E+00
            xcart      2.7215341154E+00  4.6637138524E+00  1.4616246831E+01
                       7.2175744039E+00  6.9180022351E+00  6.3875249187E+00
                       7.2873799255E+00  1.1174016518E+01  1.5819298029E+01
                       2.7913396369E+00  4.0769956971E-01  5.1844737206E+00
                       7.1656271544E+00  7.6213830165E+00  1.6647225544E+01
                       2.6695868659E+00  3.9603330710E+00  4.3565462054E+00
                       3.9205471316E+00  1.1122362064E+01  1.6104136540E+01
                       8.4165874202E+00  4.5935402346E-01  4.8996352098E+00
                       2.5231778099E+00  8.3764993237E+00  1.0183028086E+01
                       7.0192180985E+00  3.2052167638E+00  1.0820743664E+01
                       3.3831624122E+00  1.1505346252E+01  6.7643324666E+00
                       7.8792027007E+00  7.6369835881E-02  1.4239439283E+01
             xred      3.0265900000E-01  4.0267900000E-01  7.8378900000E-01
                       8.0265900000E-01  5.9732100000E-01  2.1621100000E-01
                       8.1042200000E-01  9.6479800000E-01  6.8971800000E-01
                       3.1042200000E-01  3.5202000000E-02  3.1028200000E-01
                       7.9688200000E-01  6.5805300000E-01  8.3291400000E-01
                       2.9688200000E-01  3.4194700000E-01  1.6708600000E-01
                       4.3600000000E-01  9.6033800000E-01  7.0868200000E-01
                       9.3600000000E-01  3.9662000000E-02  2.9131800000E-01
                       2.8060000000E-01  7.2325200000E-01  4.1333800000E-01
                       7.8060000000E-01  2.7674800000E-01  5.8666200000E-01
                       3.7623800000E-01  9.9340600000E-01  1.2078500000E-01
                       8.7623800000E-01  6.5940000000E-03  8.7921500000E-01
            znucl       55.00000   33.00000    9.00000

- Timing analysis has been suppressed with timopt=0

 Suggested references for the acknowledgment of ABINIT usage.

 Calculation completed.
.Delivered   3 WARNINGs and   5 COMMENTs to log file.