.Version 9.5.2 of ABINIT

 ABINIT is a project of the Universite Catholique de Louvain,
 Corning Inc. and other collaborators, see ~abinit/doc/developers/contributors.txt .
 acknowledgments of the ABINIT effort.

.Starting date : Mon 31 May 2021.
- ( at 22h13 )

- input  file    -> /scratch/users/j/a/jabreu/flow_simple_11atoms/flow/w348/t1/run.abi
- output file    -> /scratch/users/j/a/jabreu/flow_simple_11atoms/flow/w348/t1/run.abo
- root for input  files -> /scratch/users/j/a/jabreu/flow_simple_11atoms/flow/w348/t1/indata/in
- root for output files -> /scratch/users/j/a/jabreu/flow_simple_11atoms/flow/w348/t1/outdata/out

 Symmetries : space group R3 2 (#155); Bravais hR (rhombohedral)
     intxc =       0      iscf =       7    lmnmax =      18     lnmax =       6
     mgfft =     108  mpssoang =       3    mqgrid =    3001     natom =      12
  nloc_mem =       1    nspden =       1   nspinor =       1    nsppol =       1
      nsym =       6    n1xccc =    2501    ntypat =       4    occopt =       1
   xclevel =       2
-    mband =          50        mffmem =           1         mkmem =           2
-   mkqmem =           2        mk1mem =           2           mpw =       17074
      nfft =     1259712          nkpt =           2
  Rough estimation (10% accuracy) of disk space for files :

------------- Echo of variables that govern the present computation ------------
-
- outvars: echo of selected default values
-   iomode0 =  0 , fftalg0 =512 , wfoptalg0 =  0
-
- outvars: echo of global parameters not present in the input file
-  max_nthreads =    0
-
 -outvars: echo values of preprocessed input variables --------
            acell      1.0000000000E+00  1.0000000000E+00  1.0000000000E+00 Bohr
              amu      8.54678000E+01  2.04383300E+02  3.20660000E+01
                       1.59994000E+01
             ecut      4.40000000E+01 Hartree
-          fftalg         512
           irdden           1
           irdwfk           1
           istwfk        0    1
              ixc     -116133
              kpt      1.81818182E-01  1.81818182E-01  1.81818182E-01
                       0.00000000E+00  0.00000000E+00  0.00000000E+00
           kptopt           0
P           mkmem           2
P          mkqmem           2
P          mk1mem           2
            natom          12
            nband          50
           nbdbuf           4
            ngfft         108     108     108
             nkpt           2
            nstep        2000
             nsym           6
           ntypat           4
              occ      2.000000  2.000000  2.000000  2.000000  2.000000  2.000000
                       2.000000  2.000000  2.000000  2.000000  2.000000  2.000000
                       2.000000  2.000000  2.000000  2.000000  2.000000  2.000000
                       2.000000  2.000000  2.000000  2.000000  2.000000  2.000000
                       2.000000  2.000000  2.000000  2.000000  2.000000  2.000000
                       2.000000  2.000000  2.000000  2.000000  2.000000  2.000000
                       2.000000  2.000000  2.000000  2.000000  2.000000  0.000000
                       0.000000  0.000000  0.000000  0.000000  0.000000  0.000000
                       0.000000  0.000000
        optdriver           1
            prtwf          -1
            rfdir           1       1       1
           rfelfd           2
            rprim      8.9376128044E+00  0.0000000000E+00  1.4819182428E+01
                       4.1229067834E+00  7.9298526024E+00  1.4819182428E+01
                       0.0000000000E+00  0.0000000000E+00  1.7305753104E+01
          spgroup         155
           symrel      1  0  0   0  1  0   0  0  1       0 -1  0  -1  0  0   0  0 -1
                       0  0  1   1  0  0   0  1  0      -1  0  0   0  0 -1   0 -1  0
                       0  1  0   0  0  1   1  0  0       0  0 -1   0 -1  0  -1  0  0
           tolwfr      1.00000000E-20
            typat      1  2  3  3  4  4  4  4  4  4  4  4
           useylm           1
              wtk        0.50000    0.50000
           xangst      0.0000000000E+00  0.0000000000E+00  0.0000000000E+00
                       3.4556646491E+00  2.0981486323E+00  1.2420878651E+01
                       5.2471226712E+00  3.1858540611E+00  1.8860011194E+01
                       1.6642066270E+00  1.0104432035E+00  5.9817461078E+00
                       4.8615603436E+00  2.9517552256E+00  1.7474164080E+01
                       2.0497689546E+00  1.2445420391E+00  7.3675932224E+00
                       2.1785882595E+00  2.1237838123E+00  1.4278959066E+01
                       4.0220333005E+00  3.2430537891E+00  1.0562798236E+01
                       3.8050834778E+00  2.8828981838E-01  1.1122278770E+01
                       4.9002665411E+00  9.5324347553E-01  1.3719478532E+01
                       4.4255435207E+00  3.9080074463E+00  1.3352431196E+01
                       1.4024727950E+00  2.0725134523E+00  1.1489326106E+01
            xcart      0.0000000000E+00  0.0000000000E+00  0.0000000000E+00
                       6.5302597939E+00  3.9649263012E+00  2.3472058980E+01
                       9.9156248342E+00  6.0203916749E+00  3.5640256020E+01
                       3.1448947536E+00  1.9094609275E+00  1.1303861940E+01
                       9.1870176279E+00  5.5780089877E+00  3.3021384512E+01
                       3.8735019599E+00  2.3518436147E+00  1.3922733449E+01
                       4.1169351667E+00  4.0133697707E+00  2.6983322097E+01
                       7.6005414353E+00  6.1284834957E+00  1.9960795863E+01
                       7.1905656858E+00  5.4478880364E-01  2.1018060849E+01
                       9.2601617408E+00  1.8013691067E+00  2.5926057112E+01
                       8.3630652433E+00  7.3850637988E+00  2.5232438168E+01
                       2.6502894914E+00  3.9164828317E+00  2.1711679792E+01
             xred      0.0000000000E+00  0.0000000000E+00  0.0000000000E+00
                       5.0000000000E-01  5.0000000000E-01  5.0000000000E-01
                       7.5920600000E-01  7.5920600000E-01  7.5920600000E-01
                       2.4079400000E-01  2.4079400000E-01  2.4079400000E-01
                       7.0341900000E-01  7.0341900000E-01  7.0341900000E-01
                       2.9658100000E-01  2.9658100000E-01  2.9658100000E-01
                       2.2716300000E-01  5.0610900000E-01  9.3129900000E-01
                       4.9389100000E-01  7.7283700000E-01  6.8701000000E-02
                       7.7283700000E-01  6.8701000000E-02  4.9389100000E-01
                       9.3129900000E-01  2.2716300000E-01  5.0610900000E-01
                       5.0610900000E-01  9.3129900000E-01  2.2716300000E-01
                       6.8701000000E-02  4.9389100000E-01  7.7283700000E-01
            znucl       37.00000   81.00000   16.00000    8.00000

 chkinp: Checking input parameters for consistency.

== DATASET  1 ==================================================================
-   mpi_nproc: 1, omp_nthreads: -1 (-1 if OMP is not activated)

--- !DatasetInfo
iteration_state: {dtset: 1, }
dimensions: {natom: 12, nkpt: 2, mband: 50, nsppol: 1, nspinor: 1, nspden: 1, mpw: 17074, }
cutoff_energies: {ecut:  44.0, pawecutdg:  -1.0, }
electrons: {nelect:   8.20000000E+01, charge:   0.00000000E+00, occopt:   1.00000000E+00, tsmear:   1.00000000E-02, }
meta: {optdriver: 1, rfelfd: 2, }
...

 Real(R)+Recip(G) space primitive vectors, cartesian coordinates (Bohr,Bohr^-1):
 R(1)=  8.9376128  0.0000000 14.8191824  G(1)=  0.1118867 -0.0581724  0.0000000
 R(2)=  4.1229068  7.9298526 14.8191824  G(2)=  0.0000000  0.1261057  0.0000000
 R(3)=  0.0000000  0.0000000 17.3057531  G(3)= -0.0958103 -0.0581724  0.0577843
 Unit cell volume ucvol=  1.2265271E+03 bohr^3
 Angles (23,13,12)=  3.10946432E+01  3.10946432E+01  3.10946432E+01 degrees

 getcut: wavevector=  0.0000  0.0000  0.0000  ngfft= 108 108 108
         ecut(hartree)=     44.000   => boxcut(ratio)=   2.09009

--- Pseudopotential description ------------------------------------------------
- pspini: atom type   1  psp file is /scratch/users/j/a/jabreu/pseudos/PBEsol/Rb.psp8
- pspatm: opening atomic psp file    /scratch/users/j/a/jabreu/pseudos/PBEsol/Rb.psp8
- Rb    ONCVPSP-3.3.0  r_core=   1.71227   1.75361   1.90633
- 37.00000   9.00000    180112                znucl, zion, pspdat
    8 -116133    2    4       600   0.00000   pspcod,pspxc,lmax,lloc,mmax,r2well
    5.99000000000000    7.00000000000000    0.00000000000000   rchrg,fchrg,qchrg
     nproj     2     2     2
     extension_switch     1
  pspatm : epsatm=   34.48400912
         --- l  ekb(1:nproj) -->
             0    8.196957   -0.477221
             1    3.231347   -0.378736
             2   -1.047201    0.996637
 pspatm: atomic psp has been read  and splines computed

- pspini: atom type   2  psp file is /scratch/users/j/a/jabreu/pseudos/PBEsol/Tl.psp8
- pspatm: opening atomic psp file    /scratch/users/j/a/jabreu/pseudos/PBEsol/Tl.psp8
- Tl    ONCVPSP-3.3.0  r_core=   2.10510   2.60929   2.00701
- 81.00000  13.00000    180112                znucl, zion, pspdat
    8 -116133    2    4       600   0.00000   pspcod,pspxc,lmax,lloc,mmax,r2well
    5.99000000000000    7.00000000000000    0.00000000000000   rchrg,fchrg,qchrg
     nproj     2     2     2
     extension_switch     1
  pspatm : epsatm=   37.24354552
         --- l  ekb(1:nproj) -->
             0    6.297242    0.908324
             1    4.393460    0.899003
             2   -2.697741   -0.589563
 pspatm: atomic psp has been read  and splines computed

[...]

- pspini: atom type   4  psp file is /scratch/users/j/a/jabreu/pseudos/PBEsol/O.psp8
- pspatm: opening atomic psp file    /scratch/users/j/a/jabreu/pseudos/PBEsol/O.psp8
- O     ONCVPSP-3.3.0  r_core=   1.35509   1.45563   1.26150
-  8.00000   6.00000    180112                znucl, zion, pspdat
    8 -116133    2    4       600   0.00000   pspcod,pspxc,lmax,lloc,mmax,r2well
    5.99000000000000    4.00000000000000    0.00000000000000   rchrg,fchrg,qchrg
     nproj     2     2     1
     extension_switch     1
  pspatm : epsatm=    6.22910522
         --- l  ekb(1:nproj) -->
             0    6.050032    0.820363
             1   -4.739617   -1.153841
             2   -1.335834
 pspatm: atomic psp has been read  and splines computed

   1.13977717E+04                                ecore*ucvol(ha*bohr**3)

 ==>  initialize data related to q vector <==

 The list of irreducible perturbations for this q vector is:
    1)    idir= 1    ipert=  13
    2)    idir= 2    ipert=  13
    3)    idir= 3    ipert=  13

 Perturbation wavevector (in red.coord.)   0.000000  0.000000  0.000000
 Perturbation : derivative vs k along direction   1

 dfpt_looppert : COMMENT -
  In a d/dk calculation, iscf is set to -3 automatically.
 The set of symmetries contains only one element for this perturbation.
 symkpt : not enough symmetry to change the number of k points.

 Initialisation of the first-order wave-functions :
  ireadwf=   0

--- !BeginCycle
iteration_state: {dtset: 1, }
solver: {iscf: 7, nstep: 2000, nline: 4, wfoptalg: 0, }
tolerances: {tolwfr: 1.00E-20, }
...

[...]
  -0.00072   -0.00000    0.00002    0.00040   -0.00001   -0.00001    0.00047   -0.00048
  -0.00153   -0.00035    0.00010    0.00002    0.00132   -0.00176   -0.00137    0.00123
  -0.00049    0.00687   -0.00087    0.00190    0.00007    0.00208   -0.00819   -0.00335
  -0.00389    0.00266    0.00263    0.00283   -0.00168   -0.00064    0.00457   -0.00505
   0.00000    0.00429   -0.02396    0.02882    0.00310    0.00685   -0.00303    0.00508
  -0.01259   -0.00114
 prteigrs : prtvol=0 or 1, do not print more k-points.

 Eight components of 2nd-order total energy (hartree) are
 1,2,3: 0th-order hamiltonian combined with 1st-order wavefunctions
     kin0=   8.95828793E+01 eigvalue=   6.62969096E+00  local=  -4.34078506E+01
 4,5,6: 1st-order hamiltonian combined with 1st and 0th-order wfs
     kin1=  -1.06227679E+02  Hartree=   0.00000000E+00     xc=   0.00000000E+00
 7,8,9: eventually, occupation + non-local contributions
    edocc=   1.07173585E+01     enl0=  -3.57671573E-01   enl1=  -2.01011344E+01
 1-9 gives the relaxation energy (to be shifted if some occ is /=2.0)
   erelax=  -6.31644066E+01
  No Ewald or frozen-wf contrib.: the relaxation energy is the total one
 2DEtotal=   -0.6316440659E+02 Ha. Also 2DEtotal=   -0.171879091413E+04 eV
    (  non-var. 2DEtotal :   -6.3164406594E+01 Ha)

 Perturbation wavevector (in red.coord.)   0.000000  0.000000  0.000000
 Perturbation : derivative vs k along direction   2
 The set of symmetries contains only one element for this perturbation.
 symkpt : not enough symmetry to change the number of k points.

[...]

 Perturbation wavevector (in red.coord.)   0.000000  0.000000  0.000000
 Perturbation : derivative vs k along direction   3
 The set of symmetries contains only one element for this perturbation.
 symkpt : not enough symmetry to change the number of k points.

 Initialisation of the first-order wave-functions :
  ireadwf=   0

--- !BeginCycle
iteration_state: {dtset: 1, }
solver: {iscf: 7, nstep: 2000, nline: 4, wfoptalg: 0, }
tolerances: {tolwfr: 1.00E-20, }
...

     iter   2DEtotal(Ha)        deltaE(Ha) residm    vres2
-ETOT  1  -63.026245313442     -6.303E+01 1.432E-01 0.000E+00
 ETOT  2  -63.162213776489     -1.360E-01 1.846E-02 0.000E+00
 ETOT  3  -63.164238628024     -2.025E-03 3.319E-03 0.000E+00
 ETOT  4  -63.164293961690     -5.533E-05 7.423E-04 0.000E+00
 ETOT  5  -63.164295911674     -1.950E-06 2.729E-04 0.000E+00
 ETOT  6  -63.164295993763     -8.209E-08 5.825E-05 0.000E+00
 ETOT  7  -63.164295997637     -3.874E-09 2.547E-05 0.000E+00
 ETOT  8  -63.164295997840     -2.026E-10 5.847E-06 0.000E+00
 ETOT  9  -63.164295997851     -1.130E-11 2.603E-06 0.000E+00
 ETOT 10  -63.164295997852     -7.674E-13 6.155E-07 0.000E+00
 ETOT 11  -63.164295997852     -2.842E-14 2.758E-07 0.000E+00
 ETOT 12  -63.164295997852      2.842E-14 6.602E-08 0.000E+00
 ETOT 13  -63.164295997852      2.842E-14 2.974E-08 0.000E+00
 ETOT 14  -63.164295997852     -2.842E-14 7.161E-09 0.000E+00
 ETOT 15  -63.164295997852      7.105E-15 3.239E-09 0.000E+00
 ETOT 16  -63.164295997852     -2.132E-14 7.829E-10 0.000E+00
 ETOT 17  -63.164295997852      0.000E+00 3.553E-10 0.000E+00
 ETOT 18  -63.164295997852     -1.421E-14 8.614E-11 0.000E+00
 ETOT 19  -63.164295997852      0.000E+00 3.918E-11 0.000E+00
 ETOT 20  -63.164295997852      0.000E+00 9.525E-12 0.000E+00
 ETOT 21  -63.164295997852     -1.421E-14 4.338E-12 0.000E+00
 ETOT 22  -63.164295997852      4.263E-14 1.058E-12 0.000E+00
 ETOT 23  -63.164295997852     -2.842E-14 4.820E-13 0.000E+00
 ETOT 24  -63.164295997852     -7.105E-15 1.178E-13 0.000E+00
 ETOT 25  -63.164295997852      4.974E-14 5.369E-14 0.000E+00
 ETOT 26  -63.164295997852     -5.684E-14 1.317E-14 0.000E+00
 ETOT 27  -63.164295997852      3.553E-14 5.995E-15 0.000E+00
 ETOT 28  -63.164295997852     -3.553E-14 1.475E-15 0.000E+00
 ETOT 29  -63.164295997852      2.132E-14 6.708E-16 0.000E+00
 ETOT 30  -63.164295997852     -7.105E-15 1.655E-16 0.000E+00
 ETOT 31  -63.164295997852      0.000E+00 7.519E-17 0.000E+00
 ETOT 32  -63.164295997852     -7.105E-15 1.861E-17 0.000E+00
 ETOT 33  -63.164295997852      0.000E+00 8.442E-18 0.000E+00
 ETOT 34  -63.164295997852      0.000E+00 2.096E-18 0.000E+00
 ETOT 35  -63.164295997852      2.842E-14 9.492E-19 0.000E+00
 ETOT 36  -63.164295997852      2.132E-14 2.364E-19 0.000E+00
 ETOT 37  -63.164295997852     -2.842E-14 1.069E-19 0.000E+00
 ETOT 38  -63.164295997852      7.105E-15 2.669E-20 0.000E+00
 ETOT 39  -63.164295997852      0.000E+00 9.902E-21 0.000E+00

 At SCF step   39   max residual=  9.90E-21 < tolwfr=  1.00E-20 =>converged.

 ----iterations are completed or convergence reached----

 dfpt_looppert: DFPT cycle converged with prtwf=-1. Will skip output of the 1st-order WFK file.
 dfpt_looppert : ek2=    1.0296114297E+02
          f-sum rule ratio=    1.0317228541E+00
 prteigrs : about to open file /scratch/users/j/a/jabreu/flow_simple_11atoms/flow/w348/t1/tmpdata/tmp_1WF1_EIG
 Expectation of eigenvalue derivatives (hartree) for nkpt=   2  k points:
  (in case of degenerate eigenvalues, averaged derivative)
 kpt#   1, nband= 50, wtk=  0.50000, kpt=  0.1818  0.1818  0.1818 (reduced coord)
   0.00005   -0.00079    0.00075   -0.00000    0.00000    0.00070   -0.00000    0.00000
  -0.00072   -0.00000    0.00002    0.00040   -0.00001   -0.00001    0.00047   -0.00048
  -0.00153   -0.00035    0.00010    0.00002    0.00132   -0.00176   -0.00137    0.00123
  -0.00049    0.00687   -0.00087    0.00190    0.00007    0.00208   -0.00819   -0.00335
  -0.00389    0.00266    0.00263    0.00283   -0.00168   -0.00064    0.00457   -0.00505
   0.00000    0.00429   -0.02396    0.02882    0.00310    0.00685   -0.00303    0.00508
  -0.01259   -0.00193
 prteigrs : prtvol=0 or 1, do not print more k-points.

 Eight components of 2nd-order total energy (hartree) are
 1,2,3: 0th-order hamiltonian combined with 1st-order wavefunctions
     kin0=   8.95987254E+01 eigvalue=   6.63134799E+00  local=  -4.34210692E+01
 4,5,6: 1st-order hamiltonian combined with 1st and 0th-order wfs
     kin1=  -1.06227364E+02  Hartree=   0.00000000E+00     xc=   0.00000000E+00
 7,8,9: eventually, occupation + non-local contributions
    edocc=   1.07123232E+01     enl0=  -3.57031450E-01   enl1=  -2.01012277E+01
 1-9 gives the relaxation energy (to be shifted if some occ is /=2.0)
   erelax=  -6.31642960E+01
  No Ewald or frozen-wf contrib.: the relaxation energy is the total one
 2DEtotal=   -0.6316429600E+02 Ha. Also 2DEtotal=   -0.171878790464E+04 eV
    (  non-var. 2DEtotal :   -6.3164295998E+01 Ha)

 CALCULATION OF EFFECTIVE MASSES
 NOTE : Additional infos (eff. mass eigenvalues, eigenvectors and, if degenerate, average mass) are available in stdout.

 K-point ( 0.182, 0.182, 0.182) | band =    41
 Effective mass tensor:
             -3.4370799970              0.0711876579              0.4204230900
              0.0711876579             -3.5107391799              0.2558435204
              0.4204230900              0.2558435204             -2.0431172132
 Effective mass tensor eigenvalues:
             -3.5540637424             -3.5540599208             -1.8828127269
 Angular average effective mass 1/(<1/m>)=  -2.7425896440
 Angular average effective mass for Frohlich model (<m**0.5>)**2=  -2.8242973220
 Effective masses along directions: (cart. coord. / red. coord. -> eff. mass)
    1:   1.000000  0.000000  0.000000 /   0.908042  0.418878  0.000000 ->  -3.3461590940
    2:   0.000000  1.000000  0.000000 /   0.000000  1.000000  0.000000 ->  -3.4741251150
    3:   0.000000  0.000000  1.000000 /   0.545241  0.545241  0.636729 ->  -1.9717475388
    4:   0.577350  0.577350  0.577350 /   0.596540  0.674762  0.434552 ->  -2.2774609119
    5:   0.000000  0.707107  0.707107 /   0.460273  0.706568  0.537504 ->  -2.2949642828
    6:   0.707107  0.000000  0.707107 /   0.679410  0.541716  0.494920 ->  -2.1466812254
    7:   0.707107  0.707107  0.000000 /   0.595642  0.803250  0.000000 ->  -3.2896406662

 K-point ( 0.000, 0.000, 0.000) | band =    42
 Effective mass tensor:
              1.2544315096              0.0179213408              0.1060955473
              0.0179213408              1.2357953604              0.0644187152
              0.1060955473              0.0644187152              1.6062537235
 Effective mass tensor eigenvalues:
              1.2249125501              1.2249146772              1.6466533663
 Angular average effective mass 1/(<1/m>)=   1.3392495081
 Angular average effective mass for Frohlich model (<m**0.5>)**2=   1.3466576144
 Effective masses along directions: (cart. coord. / red. coord. -> eff. mass)
    1:   1.000000  0.000000  0.000000 /   0.908042  0.418878  0.000000 ->   1.2472722842
    2:   0.000000  1.000000  0.000000 /   0.000000  1.000000  0.000000 ->   1.2330621269
    3:   0.000000  0.000000  1.000000 /   0.545241  0.545241  0.636729 ->   1.5940780465
    4:   0.577350  0.577350  0.577350 /   0.596540  0.674762  0.434552 ->   1.4611237986
    5:   0.000000  0.707107  0.707107 /   0.460273  0.706568  0.537504 ->   1.4551429814
    6:   0.707107  0.000000  0.707107 /   0.679410  0.541716  0.494920 ->   1.5107218131
    7:   0.707107  0.707107  0.000000 /   0.595642  0.803250  0.000000 ->   1.2539430133

 END OF EFFECTIVE MASSES SECTION

 ---- first-order wavefunction calculations are completed ----

 Total localisation tensor (bohr^2) in cartesian coordinates
  WARNING : still subject to testing - especially symmetries.
      direction              matrix element
   alpha     beta       real part   imaginary part
     1        1       1.1321662191    0.0000000000
     1        2       0.3820733157    0.0000000000
     1        3       2.2618498517    0.0000000000
     2        1       0.3820733157    0.0000000000
     2        2       0.7348662573    0.0000000000
     2        3       1.3733063744    0.0000000000
     3        1       2.2618498517    0.0000000000
     3        2       1.3733063744    0.0000000000
     3        3       8.6327498267    0.0000000000

 respfn : d/dk was computed, but no 2DTE, so no DDB output.

== END DATASET(S) ==============================================================

 -outvars: echo values of variables after computation  --------
            acell      1.0000000000E+00  1.0000000000E+00  1.0000000000E+00 Bohr
              amu      8.54678000E+01  2.04383300E+02  3.20660000E+01
                       1.59994000E+01
             ecut      4.40000000E+01 Hartree
           etotal     -6.3164295998E+01
            fcart      0.0000000000E+00  0.0000000000E+00  0.0000000000E+00
                       0.0000000000E+00  0.0000000000E+00  0.0000000000E+00
                       0.0000000000E+00  0.0000000000E+00  0.0000000000E+00
                       0.0000000000E+00  0.0000000000E+00  0.0000000000E+00
                       0.0000000000E+00  0.0000000000E+00  0.0000000000E+00
                       0.0000000000E+00  0.0000000000E+00  0.0000000000E+00
                       0.0000000000E+00  0.0000000000E+00  0.0000000000E+00
                       0.0000000000E+00  0.0000000000E+00  0.0000000000E+00
                       0.0000000000E+00  0.0000000000E+00  0.0000000000E+00
                       0.0000000000E+00  0.0000000000E+00  0.0000000000E+00
                       0.0000000000E+00  0.0000000000E+00  0.0000000000E+00
                       0.0000000000E+00  0.0000000000E+00  0.0000000000E+00
-          fftalg         512
           irdden           1
           irdwfk           1
           istwfk        0    1
              ixc     -116133
              kpt      1.81818182E-01  1.81818182E-01  1.81818182E-01
                       0.00000000E+00  0.00000000E+00  0.00000000E+00
           kptopt           0
P           mkmem           2
P          mkqmem           2
P          mk1mem           2
            natom          12
            nband          50
           nbdbuf           4
            ngfft         108     108     108
             nkpt           2
            nstep        2000
             nsym           6
           ntypat           4
              occ      2.000000  2.000000  2.000000  2.000000  2.000000  2.000000
                       2.000000  2.000000  2.000000  2.000000  2.000000  2.000000
                       2.000000  2.000000  2.000000  2.000000  2.000000  2.000000
                       2.000000  2.000000  2.000000  2.000000  2.000000  2.000000
                       2.000000  2.000000  2.000000  2.000000  2.000000  2.000000
                       2.000000  2.000000  2.000000  2.000000  2.000000  2.000000
                       2.000000  2.000000  2.000000  2.000000  2.000000  0.000000
                       0.000000  0.000000  0.000000  0.000000  0.000000  0.000000
                       0.000000  0.000000
        optdriver           1
            prtwf          -1
            rfdir           1       1       1
           rfelfd           2
            rprim      8.9376128044E+00  0.0000000000E+00  1.4819182428E+01
                       4.1229067834E+00  7.9298526024E+00  1.4819182428E+01
                       0.0000000000E+00  0.0000000000E+00  1.7305753104E+01
          spgroup         155
           strten      0.0000000000E+00  0.0000000000E+00  0.0000000000E+00
                       0.0000000000E+00  0.0000000000E+00  0.0000000000E+00
           symrel      1  0  0   0  1  0   0  0  1       0 -1  0  -1  0  0   0  0 -1
                       0  0  1   1  0  0   0  1  0      -1  0  0   0  0 -1   0 -1  0
                       0  1  0   0  0  1   1  0  0       0  0 -1   0 -1  0  -1  0  0
           tolwfr      1.00000000E-20
            typat      1  2  3  3  4  4  4  4  4  4  4  4
           useylm           1
              wtk        0.50000    0.50000
           xangst      0.0000000000E+00  0.0000000000E+00  0.0000000000E+00
                       3.4556646491E+00  2.0981486323E+00  1.2420878651E+01
                       5.2471226712E+00  3.1858540611E+00  1.8860011194E+01
                       1.6642066270E+00  1.0104432035E+00  5.9817461078E+00
                       4.8615603436E+00  2.9517552256E+00  1.7474164080E+01
                       2.0497689546E+00  1.2445420391E+00  7.3675932224E+00
                       2.1785882595E+00  2.1237838123E+00  1.4278959066E+01
                       4.0220333005E+00  3.2430537891E+00  1.0562798236E+01
                       3.8050834778E+00  2.8828981838E-01  1.1122278770E+01
                       4.9002665411E+00  9.5324347553E-01  1.3719478532E+01
                       4.4255435207E+00  3.9080074463E+00  1.3352431196E+01
                       1.4024727950E+00  2.0725134523E+00  1.1489326106E+01
            xcart      0.0000000000E+00  0.0000000000E+00  0.0000000000E+00
                       6.5302597939E+00  3.9649263012E+00  2.3472058980E+01
                       9.9156248342E+00  6.0203916749E+00  3.5640256020E+01
                       3.1448947536E+00  1.9094609275E+00  1.1303861940E+01
                       9.1870176279E+00  5.5780089877E+00  3.3021384512E+01
                       3.8735019599E+00  2.3518436147E+00  1.3922733449E+01
                       4.1169351667E+00  4.0133697707E+00  2.6983322097E+01
                       7.6005414353E+00  6.1284834957E+00  1.9960795863E+01
                       7.1905656858E+00  5.4478880364E-01  2.1018060849E+01
                       9.2601617408E+00  1.8013691067E+00  2.5926057112E+01
                       8.3630652433E+00  7.3850637988E+00  2.5232438168E+01
                       2.6502894914E+00  3.9164828317E+00  2.1711679792E+01
             xred      0.0000000000E+00  0.0000000000E+00  0.0000000000E+00
                       5.0000000000E-01  5.0000000000E-01  5.0000000000E-01
                       7.5920600000E-01  7.5920600000E-01  7.5920600000E-01
                       2.4079400000E-01  2.4079400000E-01  2.4079400000E-01
                       7.0341900000E-01  7.0341900000E-01  7.0341900000E-01
                       2.9658100000E-01  2.9658100000E-01  2.9658100000E-01
                       2.2716300000E-01  5.0610900000E-01  9.3129900000E-01
                       4.9389100000E-01  7.7283700000E-01  6.8701000000E-02
                       7.7283700000E-01  6.8701000000E-02  4.9389100000E-01
                       9.3129900000E-01  2.2716300000E-01  5.0610900000E-01
                       5.0610900000E-01  9.3129900000E-01  2.2716300000E-01
                       6.8701000000E-02  4.9389100000E-01  7.7283700000E-01
            znucl       37.00000   81.00000   16.00000    8.00000

- Timing analysis has been suppressed with timopt=0

 Suggested references for the acknowledgment of ABINIT usage.

 Calculation completed.
.Delivered   2 WARNINGs and   5 COMMENTs to log file.