.Version 9.5.2 of ABINIT

 ABINIT is a project of the Universite Catholique de Louvain,
 Corning Inc. and other collaborators, see ~abinit/doc/developers/contributors.txt .
 acknowledgments of the ABINIT effort.

.Starting date : Mon 24 May 2021.
- ( at 10h51 )

- input  file    -> /scratch/users/j/a/jabreu/flow_simple_10atoms/flow/w266/t1/run.abi
- output file    -> /scratch/users/j/a/jabreu/flow_simple_10atoms/flow/w266/t1/run.abo
- root for input  files -> /scratch/users/j/a/jabreu/flow_simple_10atoms/flow/w266/t1/indata/in
- root for output files -> /scratch/users/j/a/jabreu/flow_simple_10atoms/flow/w266/t1/outdata/out

 Symmetries : space group C2/m (# 12); Bravais mC (1-face-center monocl.)
     intxc =       0      iscf =       7    lmnmax =      18     lnmax =       6
     mgfft =      96  mpssoang =       3    mqgrid =    3983     natom =      10
  nloc_mem =       1    nspden =       1   nspinor =       1    nsppol =       1
      nsym =       4    n1xccc =    2501    ntypat =       4    occopt =       1
   xclevel =       2
-    mband =          53        mffmem =           1         mkmem =           1
-   mkqmem =           1        mk1mem =           1           mpw =       11861
      nfft =      393216          nkpt =           1
  Rough estimation (10% accuracy) of disk space for files :

------------- Echo of variables that govern the present computation ------------
-
- outvars: echo of selected default values
-   iomode0 =  0 , fftalg0 =512 , wfoptalg0 =  0
-
- outvars: echo of global parameters not present in the input file
-  max_nthreads =    0
-
 -outvars: echo values of preprocessed input variables --------
            acell      1.0000000000E+00  1.0000000000E+00  1.0000000000E+00 Bohr
              amu      3.90983000E+01  6.94100000E+00  6.53900000E+01
                       1.59994000E+01
             ecut      4.40000000E+01 Hartree
-          fftalg         512
           irdden           1
           irdwfk           1
           istwfk        1
              ixc     -116133
           kptopt           0
P           mkmem           1
P          mkqmem           1
P          mk1mem           1
            natom          10
            nband          53
           nbdbuf           4
            ngfft          64      64      96
             nkpt           1
            nstep        2000
             nsym           4
           ntypat           4
              occ      2.000000  2.000000  2.000000  2.000000  2.000000  2.000000
                       2.000000  2.000000  2.000000  2.000000  2.000000  2.000000
                       2.000000  2.000000  2.000000  2.000000  2.000000  2.000000
                       2.000000  2.000000  2.000000  2.000000  2.000000  2.000000
                       2.000000  2.000000  2.000000  2.000000  2.000000  2.000000
                       2.000000  2.000000  2.000000  2.000000  2.000000  2.000000
                       2.000000  2.000000  2.000000  2.000000  2.000000  2.000000
                       2.000000  2.000000  0.000000  0.000000  0.000000  0.000000
                       0.000000  0.000000  0.000000  0.000000  0.000000
        optdriver           1
            prtwf          -1
            rfdir           1       1       1
           rfelfd           2
            rprim      9.3284511075E+00  0.0000000000E+00  5.0979643119E+00
                       7.2141916750E+00  5.9140035966E+00  5.0979643119E+00
                       0.0000000000E+00  0.0000000000E+00  1.5420595127E+01
          spgroup          12
           symrel      1  0  0   0  1  0   0  0  1      -1  0  0   0 -1  0   0  0 -1
                       0 -1  0  -1  0  0   0  0 -1       0  1  0   1  0  0   0  0  1
           tolwfr      1.00000000E-20
            typat      1  1  2  2  3  3  4  4  4  4
           useylm           1
           xangst      1.4316186938E+00  5.1180444476E-01  7.9777990368E+00
                       7.3223708365E+00  2.6177514701E+00  5.5778814956E+00
                       5.7607028743E+00  2.0594543427E+00  8.0844029163E+00
                       2.9932866561E+00  1.0701015722E+00  5.4712776161E+00
                       8.3637016611E+00  2.9900277939E+00  1.0730361278E+01
                       3.9028786922E-01  1.3952812091E-01  2.8253192548E+00
                       4.7092874538E+00  1.6835727704E+00  4.4796188911E+00
                       4.0447020766E+00  1.4459831444E+00  9.0760616414E+00
                       1.4216216378E+00  5.0823049190E-01  4.4438323641E+00
                       7.3323678926E+00  2.6213254229E+00  9.1118481683E+00
            xcart      2.7053672580E+00  9.6717023418E-01  1.5075855323E+01
                       1.3837275524E+01  4.9468333624E+00  1.0540668428E+01
                       1.0886150765E+01  3.8918046908E+00  1.5277307460E+01
                       5.6564920172E+00  2.0221989058E+00  1.0339216291E+01
                       1.5805105597E+01  5.6503336602E+00  2.0277444122E+01
                       7.3753718581E-01  2.6366993635E-01  5.3390796296E+00
                       8.8992635686E+00  3.1814914608E+00  8.4652528838E+00
                       7.6433792139E+00  2.7325121358E+00  1.7151270867E+01
                       2.6864755599E+00  9.6041644208E-01  8.3976261486E+00
                       1.3856167223E+01  4.9535871545E+00  1.7218897603E+01
             xred      1.6353900000E-01  1.6353900000E-01  8.6951400000E-01
                       8.3646100000E-01  8.3646100000E-01  1.3048600000E-01
                       6.5806600000E-01  6.5806600000E-01  5.5560200000E-01
                       3.4193400000E-01  3.4193400000E-01  4.4439800000E-01
                       9.5541600000E-01  9.5541600000E-01  6.8324800000E-01
                       4.4584000000E-02  4.4584000000E-02  3.1675200000E-01
                       5.3795900000E-01  5.3795900000E-01  1.9326500000E-01
                       4.6204100000E-01  4.6204100000E-01  8.0673500000E-01
                       1.6239700000E-01  1.6239700000E-01  4.3719700000E-01
                       8.3760300000E-01  8.3760300000E-01  5.6280300000E-01
            znucl       19.00000    3.00000   30.00000    8.00000

 chkinp: Checking input parameters for consistency.

== DATASET  1 ==================================================================
-   mpi_nproc: 1, omp_nthreads: -1 (-1 if OMP is not activated)

--- !DatasetInfo
iteration_state: {dtset: 1, }
dimensions: {natom: 10, nkpt: 1, mband: 53, nsppol: 1, nspinor: 1, nspden: 1, mpw: 11861, }
cutoff_energies: {ecut:  44.0, pawecutdg:  -1.0, }
electrons: {nelect:   8.80000000E+01, charge:   0.00000000E+00, occopt:   1.00000000E+00, tsmear:   1.00000000E-02, }
meta: {optdriver: 1, rfelfd: 2, }
...

 Real(R)+Recip(G) space primitive vectors, cartesian coordinates (Bohr,Bohr^-1):
 R(1)=  9.3284511  0.0000000  5.0979643  G(1)=  0.1071989 -0.1307665  0.0000000
 R(2)=  7.2141917  5.9140036  5.0979643  G(2)=  0.0000000  0.1690902  0.0000000
 R(3)=  0.0000000  0.0000000 15.4205951  G(3)= -0.0354394 -0.0126696  0.0648483
 Unit cell volume ucvol=  8.5073100E+02 bohr^3
 Angles (23,13,12)=  6.13435574E+01  6.13435574E+01  3.43631670E+01 degrees

 getcut: wavevector=  0.0000  0.0000  0.0000  ngfft=  64  64  96
         ecut(hartree)=     44.000   => boxcut(ratio)=   2.01673

--- Pseudopotential description ------------------------------------------------
- pspini: atom type   1  psp file is /scratch/users/j/a/jabreu/pseudos/PBEsol/K.psp8
- pspatm: opening atomic psp file    /scratch/users/j/a/jabreu/pseudos/PBEsol/K.psp8
- K     ONCVPSP-3.3.0  r_core=   1.36296   1.46408   1.61068
- 19.00000   9.00000    180112                znucl, zion, pspdat
    8 -116133    2    4       400   0.00000   pspcod,pspxc,lmax,lloc,mmax,r2well
    3.99000000000000    5.00000000000000    0.00000000000000   rchrg,fchrg,qchrg
     nproj     2     2     2
     extension_switch     1
  pspatm : epsatm=    8.32487830
         --- l  ekb(1:nproj) -->
             0   10.921326    0.816676
             1    4.431000    0.560368
             2   -3.384038   -1.043186
 pspatm: atomic psp has been read  and splines computed

- pspini: atom type   2  psp file is /scratch/users/j/a/jabreu/pseudos/PBEsol/Li.psp8
- pspatm: opening atomic psp file    /scratch/users/j/a/jabreu/pseudos/PBEsol/Li.psp8
- Li    ONCVPSP-3.3.0  r_core=   1.40824   1.10935
-  3.00000   3.00000    180112                znucl, zion, pspdat
    8 -116133    1    4       400   0.00000   pspcod,pspxc,lmax,lloc,mmax,r2well
    3.99000000000000    0.00000000000000    0.00000000000000   rchrg,fchrg,qchrg
     nproj     2     2
     extension_switch     1
  pspatm : epsatm=    2.60859637
         --- l  ekb(1:nproj) -->
             0   -4.855856   -1.482423
             1   -2.171544   -0.427615
 pspatm: atomic psp has been read  and splines computed

[...]

- pspini: atom type   4  psp file is /scratch/users/j/a/jabreu/pseudos/PBEsol/O.psp8
- pspatm: opening atomic psp file    /scratch/users/j/a/jabreu/pseudos/PBEsol/O.psp8
- O     ONCVPSP-3.3.0  r_core=   1.35509   1.45563   1.26150
-  8.00000   6.00000    180112                znucl, zion, pspdat
    8 -116133    2    4       600   0.00000   pspcod,pspxc,lmax,lloc,mmax,r2well
    5.99000000000000    4.00000000000000    0.00000000000000   rchrg,fchrg,qchrg
     nproj     2     2     1
     extension_switch     1
  pspatm : epsatm=    6.22910522
         --- l  ekb(1:nproj) -->
             0    6.050032    0.820363
             1   -4.739617   -1.153841
             2   -1.335834
 pspatm: atomic psp has been read  and splines computed

   8.79386129E+03                                ecore*ucvol(ha*bohr**3)

 ==>  initialize data related to q vector <==

 The list of irreducible perturbations for this q vector is:
    1)    idir= 1    ipert=  11
    2)    idir= 2    ipert=  11
    3)    idir= 3    ipert=  11

 Perturbation wavevector (in red.coord.)   0.000000  0.000000  0.000000
 Perturbation : derivative vs k along direction   1

 dfpt_looppert : COMMENT -
  In a d/dk calculation, iscf is set to -3 automatically.
 The set of symmetries contains only one element for this perturbation.
 symkpt : not enough symmetry to change the number of k points.

 Initialisation of the first-order wave-functions :
  ireadwf=   0

--- !BeginCycle
iteration_state: {dtset: 1, }
solver: {iscf: 7, nstep: 2000, nline: 4, wfoptalg: 0, }
tolerances: {tolwfr: 1.00E-20, }
...

     iter   2DEtotal(Ha)        deltaE(Ha) residm    vres2
-ETOT  1  -123.35398424983     -1.234E+02 6.316E-02 0.000E+00
 ETOT  2  -123.59310162506     -2.391E-01 2.374E-03 0.000E+00
 ETOT  3  -123.59574350511     -2.642E-03 4.886E-05 0.000E+00
 ETOT  4  -123.59578636335     -4.286E-05 4.426E-06 0.000E+00
 ETOT  5  -123.59578718730     -8.240E-07 2.310E-07 0.000E+00
 ETOT  6  -123.59578720461     -1.731E-08 2.594E-08 0.000E+00
 ETOT  7  -123.59578720500     -3.887E-10 1.488E-09 0.000E+00
 ETOT  8  -123.59578720501     -9.038E-12 1.831E-10 0.000E+00
 ETOT  9  -123.59578720501     -2.416E-13 1.030E-11 0.000E+00
 ETOT 10  -123.59578720501      4.263E-14 1.366E-12 0.000E+00
 ETOT 11  -123.59578720501      8.527E-14 7.382E-14 0.000E+00
 ETOT 12  -123.59578720501     -2.842E-14 1.047E-14 0.000E+00
 ETOT 13  -123.59578720501     -9.948E-14 5.418E-16 0.000E+00
 ETOT 14  -123.59578720501      2.842E-14 8.156E-17 0.000E+00
 ETOT 15  -123.59578720501      0.000E+00 4.067E-18 0.000E+00
 ETOT 16  -123.59578720501      0.000E+00 6.419E-19 0.000E+00
 ETOT 17  -123.59578720501     -1.421E-14 3.112E-20 0.000E+00
 ETOT 18  -123.59578720501     -1.421E-14 9.520E-21 0.000E+00

 At SCF step   18   max residual=  9.52E-21 < tolwfr=  1.00E-20 =>converged.

 ----iterations are completed or convergence reached----

 dfpt_looppert: DFPT cycle converged with prtwf=-1. Will skip output of the 1st-order WFK file.
 dfpt_looppert : ek2=    1.9865945327E+02
          f-sum rule ratio=    1.1695706086E+00
 prteigrs : about to open file /scratch/users/j/a/jabreu/flow_simple_10atoms/flow/w266/t1/tmpdata/tmp_1WF1_EIG
 Expectation of eigenvalue derivatives (hartree) for nkpt=   1  k points:
  (in case of degenerate eigenvalues, averaged derivative)
 kpt#   1, nband= 53, wtk=  1.00000, kpt=  0.0000  0.0000  0.0000 (reduced coord)
  -0.00000    0.00000   -0.00000    0.00000   -0.00000    0.00000   -0.00000   -0.00000
  -0.00000    0.00000   -0.00000    0.00000    0.00000   -0.00000   -0.00000    0.00000
   0.00000    0.00000    0.00000    0.00000    0.00000   -0.00000   -0.00000   -0.00000
  -0.00000   -0.00000   -0.00000    0.00000   -0.00000   -0.00000   -0.00000   -0.00000
  -0.00000    0.00000   -0.00000    0.00000   -0.00000   -0.00000   -0.00000    0.00000
  -0.00000    0.00000    0.00000    0.00000    0.00000    0.00000   -0.00000   -0.00000
   0.00000   -0.00000   -0.00000    0.00000   -0.00002

 Eight components of 2nd-order total energy (hartree) are
 1,2,3: 0th-order hamiltonian combined with 1st-order wavefunctions
     kin0=   1.81134266E+02 eigvalue=   3.23622568E+00  local=  -7.15948730E+01
 4,5,6: 1st-order hamiltonian combined with 1st and 0th-order wfs
     kin1=  -2.32346258E+02  Hartree=   0.00000000E+00     xc=   0.00000000E+00
 7,8,9: eventually, occupation + non-local contributions
    edocc=   2.20441312E+01     enl0=  -1.12239630E+01   enl1=  -1.48453167E+01
 1-9 gives the relaxation energy (to be shifted if some occ is /=2.0)
   erelax=  -1.23595787E+02
  No Ewald or frozen-wf contrib.: the relaxation energy is the total one
 2DEtotal=   -0.1235957872E+03 Ha. Also 2DEtotal=   -0.336321240911E+04 eV
    (  non-var. 2DEtotal :   -1.2359578720E+02 Ha)

 Perturbation wavevector (in red.coord.)   0.000000  0.000000  0.000000
 Perturbation : derivative vs k along direction   2
 The set of symmetries contains only one element for this perturbation.
 symkpt : not enough symmetry to change the number of k points.

[...]

 Perturbation wavevector (in red.coord.)   0.000000  0.000000  0.000000
 Perturbation : derivative vs k along direction   3
 The set of symmetries contains only one element for this perturbation.
 symkpt : not enough symmetry to change the number of k points.

 Initialisation of the first-order wave-functions :
  ireadwf=   0

--- !BeginCycle
iteration_state: {dtset: 1, }
solver: {iscf: 7, nstep: 2000, nline: 4, wfoptalg: 0, }
tolerances: {tolwfr: 1.00E-20, }
...

     iter   2DEtotal(Ha)        deltaE(Ha) residm    vres2
-ETOT  1  -22.210563738286     -2.221E+01 3.291E-02 0.000E+00
 ETOT  2  -22.248428555209     -3.786E-02 9.305E-04 0.000E+00
 ETOT  3  -22.248755968528     -3.274E-04 1.817E-05 0.000E+00
 ETOT  4  -22.248760268467     -4.300E-06 1.783E-06 0.000E+00
 ETOT  5  -22.248760337860     -6.939E-08 4.417E-08 0.000E+00
 ETOT  6  -22.248760339091     -1.231E-09 4.113E-09 0.000E+00
 ETOT  7  -22.248760339115     -2.352E-11 1.226E-10 0.000E+00
 ETOT  8  -22.248760339115     -4.867E-13 1.064E-11 0.000E+00
 ETOT  9  -22.248760339115      1.421E-14 3.488E-13 0.000E+00
 ETOT 10  -22.248760339115      1.066E-14 2.936E-14 0.000E+00
 ETOT 11  -22.248760339115     -2.842E-14 1.015E-15 0.000E+00
 ETOT 12  -22.248760339115     -3.553E-15 8.357E-17 0.000E+00
 ETOT 13  -22.248760339115      3.553E-15 2.960E-18 0.000E+00
 ETOT 14  -22.248760339115      1.066E-14 2.412E-19 0.000E+00
 ETOT 15  -22.248760339115     -7.105E-15 9.970E-21 0.000E+00

 At SCF step   15   max residual=  9.97E-21 < tolwfr=  1.00E-20 =>converged.

 ----iterations are completed or convergence reached----

 dfpt_looppert: DFPT cycle converged with prtwf=-1. Will skip output of the 1st-order WFK file.
 dfpt_looppert : ek2=    3.9061229583E+01
          f-sum rule ratio=    1.0431661025E+00
 prteigrs : about to open file /scratch/users/j/a/jabreu/flow_simple_10atoms/flow/w266/t1/tmpdata/tmp_1WF1_EIG
 Expectation of eigenvalue derivatives (hartree) for nkpt=   1  k points:
  (in case of degenerate eigenvalues, averaged derivative)
 kpt#   1, nband= 53, wtk=  1.00000, kpt=  0.0000  0.0000  0.0000 (reduced coord)
  -0.00000    0.00000   -0.00000   -0.00000   -0.00000    0.00000    0.00000    0.00000
   0.00000   -0.00000    0.00000    0.00000   -0.00000    0.00000   -0.00000    0.00000
   0.00000   -0.00000    0.00000   -0.00000    0.00000   -0.00000   -0.00000   -0.00000
   0.00000    0.00000   -0.00000    0.00000    0.00000    0.00000    0.00000    0.00000
   0.00000   -0.00000    0.00000   -0.00000    0.00000    0.00000   -0.00000   -0.00000
   0.00000    0.00000   -0.00000   -0.00000    0.00000   -0.00000   -0.00000   -0.00000
   0.00000    0.00000    0.00000    0.00000    0.00000

 Eight components of 2nd-order total energy (hartree) are
 1,2,3: 0th-order hamiltonian combined with 1st-order wavefunctions
     kin0=   3.30636057E+01 eigvalue=   8.28191715E-01  local=  -1.29219219E+01
 4,5,6: 1st-order hamiltonian combined with 1st and 0th-order wfs
     kin1=  -4.07473506E+01  Hartree=   0.00000000E+00     xc=   0.00000000E+00
 7,8,9: eventually, occupation + non-local contributions
    edocc=   3.08040226E+00     enl0=  -1.80151746E+00   enl1=  -3.75017006E+00
 1-9 gives the relaxation energy (to be shifted if some occ is /=2.0)
   erelax=  -2.22487603E+01
  No Ewald or frozen-wf contrib.: the relaxation energy is the total one
 2DEtotal=   -0.2224876034E+02 Ha. Also 2DEtotal=   -0.605419557997E+03 eV
    (  non-var. 2DEtotal :   -2.2248760339E+01 Ha)

 CALCULATION OF EFFECTIVE MASSES
 NOTE : Additional infos (eff. mass eigenvalues, eigenvectors and, if degenerate, average mass) are available in stdout.

 K-point ( 0.000, 0.000, 0.000) | band =    44
 Effective mass tensor:
             -3.9680611622             -0.4628597728              1.8678880423
             -0.4628597728             -2.8388277999              0.6677716718
              1.8678880423              0.6677716718             -1.6291900140
 Effective mass tensor eigenvalues:
             -5.2271796850             -2.6733546469             -0.5355446442
 Angular average effective mass 1/(<1/m>)=  -1.2332343998
 Angular average effective mass for Frohlich model (<m**0.5>)**2=  -1.6333292503
 Effective masses along directions: (cart. coord. / red. coord. -> eff. mass)
    1:   1.000000  0.000000  0.000000 /   0.791045  0.611758  0.000000 ->  -1.7907705630
    2:   0.000000  1.000000  0.000000 /   0.000000  1.000000  0.000000 ->  -2.5149400622
    3:   0.000000  0.000000  1.000000 /   0.299480  0.299480  0.905883 ->  -0.6772383803
    4:   0.577350  0.577350  0.577350 /   0.517176  0.653394  0.552816 ->  -0.6855538605
    5:   0.000000  0.707107  0.707107 /   0.259800  0.561187  0.785858 ->  -0.8505960886
    6:   0.707107  0.000000  0.707107 /   0.590184  0.503690  0.630856 ->  -0.5935596380
    7:   0.707107  0.707107  0.000000 /   0.579229  0.815165  0.000000 ->  -1.8384756709

 K-point ( 0.000, 0.000, 0.000) | band =    45
 Effective mass tensor:
              0.4118731911              0.0320531147             -0.0109820843
              0.0320531147              0.3336732683             -0.0039261006
             -0.0109820843             -0.0039261006              0.3809910374
 Effective mass tensor eigenvalues:
              0.3222142627              0.3779911002              0.4263321339
 Angular average effective mass 1/(<1/m>)=   0.3706138336
 Angular average effective mass for Frohlich model (<m**0.5>)**2=   0.3720904904
 Effective masses along directions: (cart. coord. / red. coord. -> eff. mass)
    1:   1.000000  0.000000  0.000000 /   0.791045  0.611758  0.000000 ->   0.4084988990
    2:   0.000000  1.000000  0.000000 /   0.000000  1.000000  0.000000 ->   0.3311540258
    3:   0.000000  0.000000  1.000000 /   0.299480  0.299480  0.905883 ->   0.3806697284
    4:   0.577350  0.577350  0.577350 /   0.517176  0.653394  0.552816 ->   0.3840741656
    5:   0.000000  0.707107  0.707107 /   0.259800  0.561187  0.785858 ->   0.3511594724
    6:   0.707107  0.000000  0.707107 /   0.590184  0.503690  0.630856 ->   0.3837863510
    7:   0.707107  0.707107  0.000000 /   0.579229  0.815165  0.000000 ->   0.4000784519

 END OF EFFECTIVE MASSES SECTION

 ---- first-order wavefunction calculations are completed ----

 Total localisation tensor (bohr^2) in cartesian coordinates
  WARNING : still subject to testing - especially symmetries.
      direction              matrix element
   alpha     beta       real part   imaginary part
     1        1       3.3478006174    0.0000000000
     1        2       1.0270990736    0.0000000000
     1        3       2.0302279065    0.0000000000
     2        1       1.0270990736    0.0000000000
     2        2       0.8419886647    0.0000000000
     2        3       0.7258074997    0.0000000000
     3        1       2.0302279065    0.0000000000
     3        2       0.7258074997    0.0000000000
     3        3       2.1071163184    0.0000000000

 respfn : d/dk was computed, but no 2DTE, so no DDB output.

== END DATASET(S) ==============================================================

 -outvars: echo values of variables after computation  --------
            acell      1.0000000000E+00  1.0000000000E+00  1.0000000000E+00 Bohr
              amu      3.90983000E+01  6.94100000E+00  6.53900000E+01
                       1.59994000E+01
             ecut      4.40000000E+01 Hartree
           etotal     -2.2248760339E+01
            fcart      0.0000000000E+00  0.0000000000E+00  0.0000000000E+00
                       0.0000000000E+00  0.0000000000E+00  0.0000000000E+00
                       0.0000000000E+00  0.0000000000E+00  0.0000000000E+00
                       0.0000000000E+00  0.0000000000E+00  0.0000000000E+00
                       0.0000000000E+00  0.0000000000E+00  0.0000000000E+00
                       0.0000000000E+00  0.0000000000E+00  0.0000000000E+00
                       0.0000000000E+00  0.0000000000E+00  0.0000000000E+00
                       0.0000000000E+00  0.0000000000E+00  0.0000000000E+00
                       0.0000000000E+00  0.0000000000E+00  0.0000000000E+00
                       0.0000000000E+00  0.0000000000E+00  0.0000000000E+00
-          fftalg         512
           irdden           1
           irdwfk           1
           istwfk        1
              ixc     -116133
           kptopt           0
P           mkmem           1
P          mkqmem           1
P          mk1mem           1
            natom          10
            nband          53
           nbdbuf           4
            ngfft          64      64      96
             nkpt           1
            nstep        2000
             nsym           4
           ntypat           4
              occ      2.000000  2.000000  2.000000  2.000000  2.000000  2.000000
                       2.000000  2.000000  2.000000  2.000000  2.000000  2.000000
                       2.000000  2.000000  2.000000  2.000000  2.000000  2.000000
                       2.000000  2.000000  2.000000  2.000000  2.000000  2.000000
                       2.000000  2.000000  2.000000  2.000000  2.000000  2.000000
                       2.000000  2.000000  2.000000  2.000000  2.000000  2.000000
                       2.000000  2.000000  2.000000  2.000000  2.000000  2.000000
                       2.000000  2.000000  0.000000  0.000000  0.000000  0.000000
                       0.000000  0.000000  0.000000  0.000000  0.000000
        optdriver           1
            prtwf          -1
            rfdir           1       1       1
           rfelfd           2
            rprim      9.3284511075E+00  0.0000000000E+00  5.0979643119E+00
                       7.2141916750E+00  5.9140035966E+00  5.0979643119E+00
                       0.0000000000E+00  0.0000000000E+00  1.5420595127E+01
          spgroup          12
           strten      0.0000000000E+00  0.0000000000E+00  0.0000000000E+00
                       0.0000000000E+00  0.0000000000E+00  0.0000000000E+00
           symrel      1  0  0   0  1  0   0  0  1      -1  0  0   0 -1  0   0  0 -1
                       0 -1  0  -1  0  0   0  0 -1       0  1  0   1  0  0   0  0  1
           tolwfr      1.00000000E-20
            typat      1  1  2  2  3  3  4  4  4  4
           useylm           1
           xangst      1.4316186938E+00  5.1180444476E-01  7.9777990368E+00
                       7.3223708365E+00  2.6177514701E+00  5.5778814956E+00
                       5.7607028743E+00  2.0594543427E+00  8.0844029163E+00
                       2.9932866561E+00  1.0701015722E+00  5.4712776161E+00
                       8.3637016611E+00  2.9900277939E+00  1.0730361278E+01
                       3.9028786922E-01  1.3952812091E-01  2.8253192548E+00
                       4.7092874538E+00  1.6835727704E+00  4.4796188911E+00
                       4.0447020766E+00  1.4459831444E+00  9.0760616414E+00
                       1.4216216378E+00  5.0823049190E-01  4.4438323641E+00
                       7.3323678926E+00  2.6213254229E+00  9.1118481683E+00
            xcart      2.7053672580E+00  9.6717023418E-01  1.5075855323E+01
                       1.3837275524E+01  4.9468333624E+00  1.0540668428E+01
                       1.0886150765E+01  3.8918046908E+00  1.5277307460E+01
                       5.6564920172E+00  2.0221989058E+00  1.0339216291E+01
                       1.5805105597E+01  5.6503336602E+00  2.0277444122E+01
                       7.3753718581E-01  2.6366993635E-01  5.3390796296E+00
                       8.8992635686E+00  3.1814914608E+00  8.4652528838E+00
                       7.6433792139E+00  2.7325121358E+00  1.7151270867E+01
                       2.6864755599E+00  9.6041644208E-01  8.3976261486E+00
                       1.3856167223E+01  4.9535871545E+00  1.7218897603E+01
             xred      1.6353900000E-01  1.6353900000E-01  8.6951400000E-01
                       8.3646100000E-01  8.3646100000E-01  1.3048600000E-01
                       6.5806600000E-01  6.5806600000E-01  5.5560200000E-01
                       3.4193400000E-01  3.4193400000E-01  4.4439800000E-01
                       9.5541600000E-01  9.5541600000E-01  6.8324800000E-01
                       4.4584000000E-02  4.4584000000E-02  3.1675200000E-01
                       5.3795900000E-01  5.3795900000E-01  1.9326500000E-01
                       4.6204100000E-01  4.6204100000E-01  8.0673500000E-01
                       1.6239700000E-01  1.6239700000E-01  4.3719700000E-01
                       8.3760300000E-01  8.3760300000E-01  5.6280300000E-01
            znucl       19.00000    3.00000   30.00000    8.00000

- Timing analysis has been suppressed with timopt=0

 Suggested references for the acknowledgment of ABINIT usage.

 Calculation completed.
.Delivered   2 WARNINGs and   5 COMMENTs to log file.