.Version 9.5.1 of ABINIT

 ABINIT is a project of the Universite Catholique de Louvain,
 Corning Inc. and other collaborators, see ~abinit/doc/developers/contributors.txt .
 acknowledgments of the ABINIT effort.

.Starting date : Tue 27 Apr 2021.
- ( at 15h42 )

- input  file    -> /scratch/users/j/a/jabreu/flow_simple/flow/w171/t1/run.abi
- output file    -> /scratch/users/j/a/jabreu/flow_simple/flow/w171/t1/run.abo
- root for input  files -> /scratch/users/j/a/jabreu/flow_simple/flow/w171/t1/indata/in
- root for output files -> /scratch/users/j/a/jabreu/flow_simple/flow/w171/t1/outdata/out

 Symmetries : space group F-4 3 m (#216); Bravais cF (face-center cubic)
     intxc =       0      iscf =       7    lmnmax =      18     lnmax =       6
     mgfft =      50  mpssoang =       3    mqgrid =    3001     natom =       3
  nloc_mem =       1    nspden =       1   nspinor =       1    nsppol =       1
      nsym =      24    n1xccc =    2501    ntypat =       3    occopt =       1
   xclevel =       2
-    mband =          31        mffmem =           1         mkmem =           2
-   mkqmem =           2        mk1mem =           2           mpw =        5577
      nfft =      125000          nkpt =           2
  Rough estimation (10% accuracy) of disk space for files :

------------- Echo of variables that govern the present computation ------------
-
- outvars: echo of selected default values
-   iomode0 =  0 , fftalg0 =512 , wfoptalg0 =  0
-
- outvars: echo of global parameters not present in the input file
-  max_nthreads =    0
-
 -outvars: echo values of preprocessed input variables --------
            acell      1.0000000000E+00  1.0000000000E+00  1.0000000000E+00 Bohr
              amu      4.49559100E+01  1.21753000E+02  1.06420000E+02
             ecut      4.20000000E+01 Hartree
-          fftalg         512
           irdden           1
           irdwfk           1
           istwfk        1    1
              ixc     -116133
              kpt      0.00000000E+00  0.00000000E+00  0.00000000E+00
                       5.00000000E-01  2.78025712E-17  5.00000000E-01
           kptopt           0
P           mkmem           2
P          mkqmem           2
P          mk1mem           2
            natom           3
            nband          31
           nbdbuf           4
            ngfft          50      50      50
             nkpt           2
            nstep         100
             nsym          24
           ntypat           3
              occ      2.000000  2.000000  2.000000  2.000000  2.000000  2.000000
                       2.000000  2.000000  2.000000  2.000000  2.000000  2.000000
                       2.000000  2.000000  2.000000  2.000000  2.000000  2.000000
                       2.000000  2.000000  2.000000  2.000000  0.000000  0.000000
                       0.000000  0.000000  0.000000  0.000000  0.000000  0.000000
                       0.000000
        optdriver           1
            prtwf          -1
            rfdir           1       1       1
           rfelfd           2
            rprim      7.2833149954E+00  0.0000000000E+00  4.2050238732E+00
                       2.4277716651E+00  6.8667752304E+00  4.2050238732E+00
                       0.0000000000E+00  0.0000000000E+00  8.4100477464E+00
          spgroup         216
           symrel      1  0  0   0  1  0   0  0  1       0 -1  1   0 -1  0   1 -1  0
                      -1  0  0  -1  0  1  -1  1  0       0  1 -1   1  0 -1   0  0 -1
                      -1  0  0  -1  1  0  -1  0  1       0 -1  1   1 -1  0   0 -1  0
                       1  0  0   0  0  1   0  1  0       0  1 -1   0  0 -1   1  0 -1
                      -1  0  1  -1  1  0  -1  0  0       0 -1  0   1 -1  0   0 -1  1
                       1  0 -1   0  0 -1   0  1 -1       0  1  0   0  0  1   1  0  0
                       1  0 -1   0  1 -1   0  0 -1       0 -1  0   0 -1  1   1 -1  0
                      -1  0  1  -1  0  0  -1  1  0       0  1  0   1  0  0   0  0  1
                       0  0 -1   0  1 -1   1  0 -1       1 -1  0   0 -1  1   0 -1  0
                       0  0  1   1  0  0   0  1  0      -1  1  0  -1  0  0  -1  0  1
                       0  0  1   0  1  0   1  0  0       1 -1  0   0 -1  0   0 -1  1
                       0  0 -1   1  0 -1   0  1 -1      -1  1  0  -1  0  1  -1  0  0
           tolwfr      1.00000000E-20
            typat      1  2  3
           useylm           1
              wtk        0.50000    0.50000
           xangst      2.5694428657E+00  1.8168704742E+00  4.4504055905E+00
                       0.0000000000E+00  0.0000000000E+00  0.0000000000E+00
                       1.2847214328E+00  9.0843523711E-01  2.2252027953E+00
            xcart      4.8555433303E+00  3.4333876152E+00  8.4100477464E+00
                       0.0000000000E+00  0.0000000000E+00  0.0000000000E+00
                       2.4277716651E+00  1.7166938076E+00  4.2050238732E+00
             xred      5.0000000000E-01  5.0000000000E-01  5.0000000000E-01
                       0.0000000000E+00  0.0000000000E+00  0.0000000000E+00
                       2.5000000000E-01  2.5000000000E-01  2.5000000000E-01
            znucl       21.00000   51.00000   46.00000

 chkinp: Checking input parameters for consistency.

== DATASET  1 ==================================================================
-   mpi_nproc: 1, omp_nthreads: -1 (-1 if OMP is not activated)

--- !DatasetInfo
iteration_state: {dtset: 1, }
dimensions: {natom: 3, nkpt: 2, mband: 31, nsppol: 1, nspinor: 1, nspden: 1, mpw: 5577, }
cutoff_energies: {ecut:  42.0, pawecutdg:  -1.0, }
electrons: {nelect:   4.40000000E+01, charge:   0.00000000E+00, occopt:   1.00000000E+00, tsmear:   1.00000000E-02, }
meta: {optdriver: 1, rfelfd: 2, }
...

 Real(R)+Recip(G) space primitive vectors, cartesian coordinates (Bohr,Bohr^-1):
 R(1)=  7.2833150  0.0000000  4.2050239  G(1)=  0.1373001 -0.0485429  0.0000000
 R(2)=  2.4277717  6.8667752  4.2050239  G(2)=  0.0000000  0.1456288  0.0000000
 R(3)=  0.0000000  0.0000000  8.4100477  G(3)= -0.0686501 -0.0485429  0.1189054
 Unit cell volume ucvol=  4.2061077E+02 bohr^3
 Angles (23,13,12)=  6.00000000E+01  6.00000000E+01  6.00000000E+01 degrees

 getcut: wavevector=  0.0000  0.0000  0.0000  ngfft=  50  50  50
         ecut(hartree)=     42.000   => boxcut(ratio)=   2.03871

--- Pseudopotential description ------------------------------------------------
- pspini: atom type   1  psp file is /scratch/users/j/a/jabreu/pseudos/PBEsol/Sc.psp8
- pspatm: opening atomic psp file    /scratch/users/j/a/jabreu/pseudos/PBEsol/Sc.psp8
- Sc    ONCVPSP-3.3.0  r_core=   1.35663   1.35663   1.66161
- 21.00000  11.00000    180112                znucl, zion, pspdat
    8 -116133    2    4       600   0.00000   pspcod,pspxc,lmax,lloc,mmax,r2well
    5.99000000000000    5.00000000000000    0.00000000000000   rchrg,fchrg,qchrg
     nproj     2     2     2
     extension_switch     1
  pspatm : epsatm=   13.58981094
         --- l  ekb(1:nproj) -->
             0   10.810997    0.948773
             1    2.871172    0.364831
             2   -4.789751   -1.321945
 pspatm: atomic psp has been read  and splines computed

- pspini: atom type   2  psp file is /scratch/users/j/a/jabreu/pseudos/PBEsol/Sb.psp8
- pspatm: opening atomic psp file    /scratch/users/j/a/jabreu/pseudos/PBEsol/Sb.psp8
- Sb    ONCVPSP-3.3.0  r_core=   1.81962   2.12485   1.81962
- 51.00000  15.00000    180112                znucl, zion, pspdat
    8 -116133    2    4       600   0.00000   pspcod,pspxc,lmax,lloc,mmax,r2well
    5.99000000000000    5.00000000000000    0.00000000000000   rchrg,fchrg,qchrg
     nproj     2     2     2
     extension_switch     1
  pspatm : epsatm=   26.35641246
         --- l  ekb(1:nproj) -->
             0    9.727814    1.485032
             1    5.505335    0.704623
             2   -4.710637   -1.436443
 pspatm: atomic psp has been read  and splines computed

- pspini: atom type   3  psp file is /scratch/users/j/a/jabreu/pseudos/PBEsol/Pd.psp8
- pspatm: opening atomic psp file    /scratch/users/j/a/jabreu/pseudos/PBEsol/Pd.psp8
- Pd    ONCVPSP-3.3.0  r_core=   1.41052   1.46191   1.55175
- 46.00000  18.00000    180112                znucl, zion, pspdat
    8 -116133    2    4       600   0.00000   pspcod,pspxc,lmax,lloc,mmax,r2well
    5.99000000000000    7.00000000000000    0.00000000000000   rchrg,fchrg,qchrg
     nproj     2     2     2
     extension_switch     1
  pspatm : epsatm=   26.17262427
         --- l  ekb(1:nproj) -->
             0    7.952303   -2.096627
             1    3.304793   -0.572651
             2   -1.185452   -0.410427
 pspatm: atomic psp has been read  and splines computed

   2.90922930E+03                                ecore*ucvol(ha*bohr**3)

-inwffil : will read wavefunctions from disk file /scratch/users/j/a/jabreu/flow_simple/flow/w171/t1/indata/in_WFK

 ==>  initialize data related to q vector <==

 The list of irreducible perturbations for this q vector is:
    1)    idir= 1    ipert=   4
    2)    idir= 2    ipert=   4
    3)    idir= 3    ipert=   4

 Perturbation wavevector (in red.coord.)   0.000000  0.000000  0.000000
 Perturbation : derivative vs k along direction   1

 dfpt_looppert : COMMENT -
  In a d/dk calculation, iscf is set to -3 automatically.
 The set of symmetries contains only one element for this perturbation.
 symkpt : not enough symmetry to change the number of k points.

[...]

 Initialisation of the first-order wave-functions :
  ireadwf=   0

--- !BeginCycle
iteration_state: {dtset: 1, }
solver: {iscf: 7, nstep: 100, nline: 4, wfoptalg: 0, }
tolerances: {tolwfr: 1.00E-20, }
...

     iter   2DEtotal(Ha)        deltaE(Ha) residm    vres2
-ETOT  1  -60.085843641463     -6.009E+01 7.552E-02 0.000E+00
 ETOT  2  -60.147845645338     -6.200E-02 1.332E-02 0.000E+00
 ETOT  3  -60.148574878580     -7.292E-04 2.323E-04 0.000E+00
 ETOT  4  -60.148603865387     -2.899E-05 4.766E-05 0.000E+00
 ETOT  5  -60.148605355655     -1.490E-06 1.633E-06 0.000E+00
 ETOT  6  -60.148605439263     -8.361E-08 2.826E-07 0.000E+00
 ETOT  7  -60.148605444249     -4.986E-09 1.277E-08 0.000E+00
 ETOT  8  -60.148605444559     -3.092E-10 2.154E-09 0.000E+00
 ETOT  9  -60.148605444578     -1.970E-11 1.015E-10 0.000E+00
 ETOT 10  -60.148605444580     -1.293E-12 1.710E-11 0.000E+00
 ETOT 11  -60.148605444580     -1.563E-13 8.433E-13 0.000E+00
 ETOT 12  -60.148605444580      6.395E-14 1.410E-13 0.000E+00
 ETOT 13  -60.148605444580     -5.684E-14 7.443E-15 0.000E+00
 ETOT 14  -60.148605444580      3.553E-14 1.180E-15 0.000E+00
 ETOT 15  -60.148605444580     -7.105E-15 1.017E-16 0.000E+00
 ETOT 16  -60.148605444580      2.132E-14 2.360E-17 0.000E+00
 ETOT 17  -60.148605444580      1.421E-14 2.108E-18 0.000E+00
 ETOT 18  -60.148605444580     -7.105E-15 4.931E-19 0.000E+00
 ETOT 19  -60.148605444580      0.000E+00 4.383E-20 0.000E+00
 ETOT 20  -60.148605444580     -1.421E-14 1.034E-20 0.000E+00
 ETOT 21  -60.148605444580      4.263E-14 9.951E-21 0.000E+00

 At SCF step   21   max residual=  9.95E-21 < tolwfr=  1.00E-20 =>converged.

 ----iterations are completed or convergence reached----

 dfpt_looppert: DFPT cycle converged with prtwf=-1. Will skip output of the 1st-order WFK file.
 dfpt_looppert : ek2=    7.3677816220E+01
          f-sum rule ratio=    1.2341460575E+00
 prteigrs : about to open file /scratch/users/j/a/jabreu/flow_simple/flow/w171/t1/tmpdata/tmp_1WF1_EIG
 Expectation of eigenvalue derivatives (hartree) for nkpt=   2  k points:
  (in case of degenerate eigenvalues, averaged derivative)
 kpt#   1, nband= 31, wtk=  0.50000, kpt=  0.0000  0.0000  0.0000 (reduced coord)
   0.00000    0.00000    0.00000    0.00000   -0.00000    0.00000    0.00000    0.00000
   0.00000    0.00000   -0.00000   -0.00000   -0.00000    0.00000   -0.00000   -0.00000
  -0.00000    0.00000    0.00000    0.00000    0.00000    0.00000   -0.00000    0.00000
   0.00000    0.00000   -0.00000   -0.00000   -0.00000   -0.00003    0.00016
 prteigrs : prtvol=0 or 1, do not print more k-points.

 Eight components of 2nd-order total energy (hartree) are
 1,2,3: 0th-order hamiltonian combined with 1st-order wavefunctions
     kin0=   5.77091467E+01 eigvalue=   2.74492612E+00  local=  -2.92684446E+01
 4,5,6: 1st-order hamiltonian combined with 1st and 0th-order wfs
     kin1=  -9.09291864E+01  Hartree=   0.00000000E+00     xc=   0.00000000E+00
 7,8,9: eventually, occupation + non-local contributions
    edocc=   2.29573503E+01     enl0=   6.00562689E+00   enl1=  -2.93680245E+01
 1-9 gives the relaxation energy (to be shifted if some occ is /=2.0)
   erelax=  -6.01486054E+01
  No Ewald or frozen-wf contrib.: the relaxation energy is the total one
 2DEtotal=   -0.6014860544E+02 Ha. Also 2DEtotal=   -0.163672679140E+04 eV
    (  non-var. 2DEtotal :   -6.0148605444E+01 Ha)

 Perturbation wavevector (in red.coord.)   0.000000  0.000000  0.000000
 Perturbation : derivative vs k along direction   2
 The set of symmetries contains only one element for this perturbation.
 symkpt : not enough symmetry to change the number of k points.

[...]

 Perturbation wavevector (in red.coord.)   0.000000  0.000000  0.000000
 Perturbation : derivative vs k along direction   3
 The set of symmetries contains only one element for this perturbation.
 symkpt : not enough symmetry to change the number of k points.

-inwffil : will read wavefunctions from disk file /scratch/users/j/a/jabreu/flow_simple/flow/w171/t1/indata/in_WFK

 Initialisation of the first-order wave-functions :
  ireadwf=   0

--- !BeginCycle
iteration_state: {dtset: 1, }
solver: {iscf: 7, nstep: 100, nline: 4, wfoptalg: 0, }
tolerances: {tolwfr: 1.00E-20, }
...

     iter   2DEtotal(Ha)        deltaE(Ha) residm    vres2
-ETOT  1  -60.076705645765     -6.008E+01 2.054E-01 0.000E+00
 ETOT  2  -60.147815040909     -7.111E-02 1.919E-02 0.000E+00
 ETOT  3  -60.148543438371     -7.284E-04 1.232E-03 0.000E+00
 ETOT  4  -60.148566085665     -2.265E-05 1.036E-04 0.000E+00
 ETOT  5  -60.148567102359     -1.017E-06 8.835E-06 0.000E+00
 ETOT  6  -60.148567153977     -5.162E-08 7.512E-07 0.000E+00
 ETOT  7  -60.148567156792     -2.815E-09 7.667E-08 0.000E+00
 ETOT  8  -60.148567156952     -1.600E-10 6.481E-09 0.000E+00
 ETOT  9  -60.148567156961     -9.386E-12 6.577E-10 0.000E+00
 ETOT 10  -60.148567156962     -6.679E-13 5.681E-11 0.000E+00
 ETOT 11  -60.148567156962      0.000E+00 6.027E-12 0.000E+00
 ETOT 12  -60.148567156962     -2.132E-14 5.198E-13 0.000E+00
 ETOT 13  -60.148567156962      0.000E+00 5.542E-14 0.000E+00
 ETOT 14  -60.148567156962      2.842E-14 4.798E-15 0.000E+00
 ETOT 15  -60.148567156962      0.000E+00 5.181E-16 0.000E+00
 ETOT 16  -60.148567156962     -2.842E-14 4.490E-17 0.000E+00
 ETOT 17  -60.148567156962      7.105E-14 4.871E-18 0.000E+00
 ETOT 18  -60.148567156962     -2.842E-14 5.151E-19 0.000E+00
 ETOT 19  -60.148567156962     -2.132E-14 4.611E-20 0.000E+00
 ETOT 20  -60.148567156962      2.132E-14 1.066E-20 0.000E+00
 ETOT 21  -60.148567156962     -7.105E-15 9.875E-21 0.000E+00

 At SCF step   21   max residual=  9.87E-21 < tolwfr=  1.00E-20 =>converged.

 ----iterations are completed or convergence reached----

 dfpt_looppert: DFPT cycle converged with prtwf=-1. Will skip output of the 1st-order WFK file.
 dfpt_looppert : ek2=    7.3677816220E+01
          f-sum rule ratio=    1.2341455459E+00
 prteigrs : about to open file /scratch/users/j/a/jabreu/flow_simple/flow/w171/t1/tmpdata/tmp_1WF1_EIG
 Expectation of eigenvalue derivatives (hartree) for nkpt=   2  k points:
  (in case of degenerate eigenvalues, averaged derivative)
 kpt#   1, nband= 31, wtk=  0.50000, kpt=  0.0000  0.0000  0.0000 (reduced coord)
  -0.00000   -0.00000   -0.00000   -0.00000   -0.00000   -0.00000   -0.00000    0.00000
   0.00000    0.00000   -0.00000   -0.00000   -0.00000   -0.00000    0.00000    0.00000
   0.00000   -0.00000   -0.00000   -0.00000   -0.00000   -0.00000   -0.00000   -0.00000
  -0.00000   -0.00000   -0.00000   -0.00000    0.00001   -0.00001   -0.00012
 prteigrs : prtvol=0 or 1, do not print more k-points.

 Eight components of 2nd-order total energy (hartree) are
 1,2,3: 0th-order hamiltonian combined with 1st-order wavefunctions
     kin0=   5.78524396E+01 eigvalue=   2.76608154E+00  local=  -2.93285317E+01
 4,5,6: 1st-order hamiltonian combined with 1st and 0th-order wfs
     kin1=  -9.09291487E+01  Hartree=   0.00000000E+00     xc=   0.00000000E+00
 7,8,9: eventually, occupation + non-local contributions
    edocc=   2.28769224E+01     enl0=   5.98165534E+00   enl1=  -2.93679856E+01
 1-9 gives the relaxation energy (to be shifted if some occ is /=2.0)
   erelax=  -6.01485672E+01
  No Ewald or frozen-wf contrib.: the relaxation energy is the total one
 2DEtotal=   -0.6014856716E+02 Ha. Also 2DEtotal=   -0.163672574954E+04 eV
    (  non-var. 2DEtotal :   -6.0148567157E+01 Ha)

 CALCULATION OF EFFECTIVE MASSES
 NOTE : Additional infos (eff. mass eigenvalues, eigenvectors and, if degenerate, average mass) are available in stdout.

 COMMENTS:
 - At k-point ( 0.000, 0.000, 0.000), bands    20 through    22
   are DEGENERATE (effective mass tensor is therefore not defined).
   See Section IIIB Eqs. (67)-(70) and Appendix E of PRB 93 205147 (2016).
 - Angular average effective mass for Frohlich model is to be averaged over degenerate bands. See later.
 - Associated theta integrals calculated with ntheta=   1000 points.

 K-point ( 0.000, 0.000, 0.000) | band =    20
 Transport equivalent effective mass tensor:
             -0.2132924241              0.0000000141             -0.0000000037
              0.0000000141             -0.2132924091              0.0000000374
             -0.0000000037              0.0000000374             -0.2132924774
 Transport equivalent effective mass tensor eigenvalues:
             -0.2132924951             -0.2132924267             -0.2132923889
 Angular average effective mass 1/(<1/m>)=  -0.1642371059
 Angular average effective mass for Frohlich model (<m**0.5>)**2=  -0.1667227639
 Effective masses along directions: (cart. coord. / red. coord. -> eff. mass)
    1:   1.000000  0.000000  0.000000 /   0.948683  0.316228  0.000000 ->  -0.1502175777
    2:   0.000000  1.000000  0.000000 /   0.000000  1.000000  0.000000 ->  -0.1376317712
    3:   0.000000  0.000000  1.000000 /   0.408248  0.408248  0.816497 ->  -0.1580288708
    4:   0.577350  0.577350  0.577350 /   0.585539  0.688047  0.428644 ->  -0.1507901648
    5:   0.000000  0.707107  0.707107 /   0.289489  0.762222  0.578977 ->  -0.1764762807
    6:   0.707107  0.000000  0.707107 /   0.731423  0.422287  0.535439 ->  -0.1537434689
    7:   0.707107  0.707107  0.000000 /   0.616798  0.787122  0.000000 ->  -0.2277922900

[...]

 K-point ( 0.000, 0.000, 0.000) | band =    22
 Transport equivalent effective mass tensor:
             -8.1568870081              0.0000130766             -0.0000037257
              0.0000130766             -8.1568876484              0.0000056251
             -0.0000037257              0.0000056251             -8.1568717661
 Transport equivalent effective mass tensor eigenvalues:
             -8.1569018708             -8.1568745990             -8.1568699528
 Angular average effective mass 1/(<1/m>)=  -0.9262486767
 Angular average effective mass for Frohlich model (<m**0.5>)**2=  -1.1004519377
 Effective masses along directions: (cart. coord. / red. coord. -> eff. mass)
    1:   1.000000  0.000000  0.000000 /   0.948683  0.316228  0.000000 ->  -1.0178946155
    2:   0.000000  1.000000  0.000000 /   0.000000  1.000000  0.000000 ->  -0.7625040871
    3:   0.000000  0.000000  1.000000 /   0.408248  0.408248  0.816497 ->  -2.6761870390
    4:   0.577350  0.577350  0.577350 /   0.585539  0.688047  0.428644 ->  -1.1987198711
    5:   0.000000  0.707107  0.707107 /   0.289489  0.762222  0.578977 ->  -0.8906731209
    6:   0.707107  0.000000  0.707107 /   0.731423  0.422287  0.535439 ->  -1.6175246488
    7:   0.707107  0.707107  0.000000 /   0.616798  0.787122  0.000000 ->  -0.4180401820

 Angular average effective mass for Frohlich model, averaged over degenerate bands.
 Value of     (<<m**0.5>>)**2 =     4.767756E-01
 Absolute Value of <<m**0.5>> =     6.904894E-01

 K-point ( 0.500, 0.000, 0.500) | band =    23
 Effective mass tensor:
              1.7878633961             -1.7334278376              2.1230073666
             -1.7334278376              3.0135812567             -3.0023851463
              2.1230073666             -3.0023851463              4.2393012754
 Effective mass tensor eigenvalues:
              0.5621445531              0.5621446189              7.9164567562
 Angular average effective mass 1/(<1/m>)=   0.8143051301
 Angular average effective mass for Frohlich model (<m**0.5>)**2=   1.0243117653
 Effective masses along directions: (cart. coord. / red. coord. -> eff. mass)
    1:   1.000000  0.000000  0.000000 /   0.948683  0.316228  0.000000 ->   0.6651273928
    2:   0.000000  1.000000  0.000000 /   0.000000  1.000000  0.000000 ->   0.8143050644
    3:   0.000000  0.000000  1.000000 /   0.408248  0.408248  0.816497 ->   1.0497471963
    4:   0.577350  0.577350  0.577350 /   0.585539  0.688047  0.428644 ->   0.6174915433
    5:   0.000000  0.707107  0.707107 /   0.289489  0.762222  0.578977 ->   0.5665755806
    6:   0.707107  0.000000  0.707107 /   0.731423  0.422287  0.535439 ->   1.3315912335
    7:   0.707107  0.707107  0.000000 /   0.616798  0.787122  0.000000 ->   0.5697117511

 END OF EFFECTIVE MASSES SECTION

 ---- first-order wavefunction calculations are completed ----

 Total localisation tensor (bohr^2) in cartesian coordinates
  WARNING : still subject to testing - especially symmetries.
      direction              matrix element
   alpha     beta       real part   imaginary part
     1        1       3.5788706228    0.0000000000
     1        2       1.0122568640    0.0000000000
     1        3       2.4795140517    0.0000000000
     2        1       1.0122568640    0.0000000000
     2        2       2.8630947714    0.0000000000
     2        3       1.7532803188    0.0000000000
     3        1       2.4795140517    0.0000000000
     3        2       1.7532803188    0.0000000000
     3        3       6.4419658486    0.0000000000

 respfn : d/dk was computed, but no 2DTE, so no DDB output.

== END DATASET(S) ==============================================================

 -outvars: echo values of variables after computation  --------
            acell      1.0000000000E+00  1.0000000000E+00  1.0000000000E+00 Bohr
              amu      4.49559100E+01  1.21753000E+02  1.06420000E+02
             ecut      4.20000000E+01 Hartree
           etotal     -6.0148567157E+01
            fcart      0.0000000000E+00  0.0000000000E+00  0.0000000000E+00
                       0.0000000000E+00  0.0000000000E+00  0.0000000000E+00
                       0.0000000000E+00  0.0000000000E+00  0.0000000000E+00
-          fftalg         512
           irdden           1
           irdwfk           1
           istwfk        1    1
              ixc     -116133
              kpt      0.00000000E+00  0.00000000E+00  0.00000000E+00
                       5.00000000E-01  2.78025712E-17  5.00000000E-01
           kptopt           0
P           mkmem           2
P          mkqmem           2
P          mk1mem           2
            natom           3
            nband          31
           nbdbuf           4
            ngfft          50      50      50
             nkpt           2
            nstep         100
             nsym          24
           ntypat           3
              occ      2.000000  2.000000  2.000000  2.000000  2.000000  2.000000
                       2.000000  2.000000  2.000000  2.000000  2.000000  2.000000
                       2.000000  2.000000  2.000000  2.000000  2.000000  2.000000
                       2.000000  2.000000  2.000000  2.000000  0.000000  0.000000
                       0.000000  0.000000  0.000000  0.000000  0.000000  0.000000
                       0.000000
        optdriver           1
            prtwf          -1
            rfdir           1       1       1
           rfelfd           2
            rprim      7.2833149954E+00  0.0000000000E+00  4.2050238732E+00
                       2.4277716651E+00  6.8667752304E+00  4.2050238732E+00
                       0.0000000000E+00  0.0000000000E+00  8.4100477464E+00
          spgroup         216
           strten      0.0000000000E+00  0.0000000000E+00  0.0000000000E+00
                       0.0000000000E+00  0.0000000000E+00  0.0000000000E+00
           symrel      1  0  0   0  1  0   0  0  1       0 -1  1   0 -1  0   1 -1  0
                      -1  0  0  -1  0  1  -1  1  0       0  1 -1   1  0 -1   0  0 -1
                      -1  0  0  -1  1  0  -1  0  1       0 -1  1   1 -1  0   0 -1  0
                       1  0  0   0  0  1   0  1  0       0  1 -1   0  0 -1   1  0 -1
                      -1  0  1  -1  1  0  -1  0  0       0 -1  0   1 -1  0   0 -1  1
                       1  0 -1   0  0 -1   0  1 -1       0  1  0   0  0  1   1  0  0
                       1  0 -1   0  1 -1   0  0 -1       0 -1  0   0 -1  1   1 -1  0
                      -1  0  1  -1  0  0  -1  1  0       0  1  0   1  0  0   0  0  1
                       0  0 -1   0  1 -1   1  0 -1       1 -1  0   0 -1  1   0 -1  0
                       0  0  1   1  0  0   0  1  0      -1  1  0  -1  0  0  -1  0  1
                       0  0  1   0  1  0   1  0  0       1 -1  0   0 -1  0   0 -1  1
                       0  0 -1   1  0 -1   0  1 -1      -1  1  0  -1  0  1  -1  0  0
           tolwfr      1.00000000E-20
            typat      1  2  3
           useylm           1
              wtk        0.50000    0.50000
           xangst      2.5694428657E+00  1.8168704742E+00  4.4504055905E+00
                       0.0000000000E+00  0.0000000000E+00  0.0000000000E+00
                       1.2847214328E+00  9.0843523711E-01  2.2252027953E+00
            xcart      4.8555433303E+00  3.4333876152E+00  8.4100477464E+00
                       0.0000000000E+00  0.0000000000E+00  0.0000000000E+00
                       2.4277716651E+00  1.7166938076E+00  4.2050238732E+00
             xred      5.0000000000E-01  5.0000000000E-01  5.0000000000E-01
                       0.0000000000E+00  0.0000000000E+00  0.0000000000E+00
                       2.5000000000E-01  2.5000000000E-01  2.5000000000E-01
            znucl       21.00000   51.00000   46.00000

- Timing analysis has been suppressed with timopt=0

 Suggested references for the acknowledgment of ABINIT usage.

 Calculation completed.
.Delivered  14 WARNINGs and   9 COMMENTs to log file.