.Version 9.5.1 of ABINIT

 ABINIT is a project of the Universite Catholique de Louvain,
 Corning Inc. and other collaborators, see ~abinit/doc/developers/contributors.txt .
 acknowledgments of the ABINIT effort.

.Starting date : Wed 19 May 2021.
- ( at 13h43 )

- input  file    -> /scratch/users/j/a/jabreu/flow_simple_9atoms/flow/w165/t1/run.abi
- output file    -> /scratch/users/j/a/jabreu/flow_simple_9atoms/flow/w165/t1/run.abo
- root for input  files -> /scratch/users/j/a/jabreu/flow_simple_9atoms/flow/w165/t1/indata/in
- root for output files -> /scratch/users/j/a/jabreu/flow_simple_9atoms/flow/w165/t1/outdata/out

 Symmetries : space group Fm m m (# 69); Bravais oF (face-center ortho.)
     intxc =       0      iscf =       7    lmnmax =      32     lnmax =       8
     mgfft =      96  mpssoang =       4    mqgrid =    3001     natom =       9
  nloc_mem =       1    nspden =       1   nspinor =       1    nsppol =       1
      nsym =       8    n1xccc =    2501    ntypat =       3    occopt =       1
   xclevel =       2
-    mband =          57        mffmem =           1         mkmem =           2
-   mkqmem =           2        mk1mem =           2           mpw =       19790
      nfft =      884736          nkpt =           2
  Rough estimation (10% accuracy) of disk space for files :

------------- Echo of variables that govern the present computation ------------
-
- outvars: echo of selected default values
-   iomode0 =  0 , fftalg0 =512 , wfoptalg0 =  0
-
- outvars: echo of global parameters not present in the input file
-  max_nthreads =    0
-
 -outvars: echo values of preprocessed input variables --------
            acell      1.0000000000E+00  1.0000000000E+00  1.0000000000E+00 Bohr
              amu      1.32905430E+02  1.06420000E+02  3.20660000E+01
             ecut      4.10000000E+01 Hartree
-          fftalg         512
           irdden           1
           irdwfk           1
              ixc     -116133
              kpt      1.00000000E+00  5.00000000E-01  5.00000000E-01
                       5.00000000E-01  6.91558930E-01  1.91558930E-01
           kptopt           0
P           mkmem           2
P          mkqmem           2
P          mk1mem           2
            natom           9
            nband          57
           nbdbuf           4
            ngfft          96      96      96
             nkpt           2
            nstep        2000
             nsym           8
           ntypat           3
              occ      2.000000  2.000000  2.000000  2.000000  2.000000  2.000000
                       2.000000  2.000000  2.000000  2.000000  2.000000  2.000000
                       2.000000  2.000000  2.000000  2.000000  2.000000  2.000000
                       2.000000  2.000000  2.000000  2.000000  2.000000  2.000000
                       2.000000  2.000000  2.000000  2.000000  2.000000  2.000000
                       2.000000  2.000000  2.000000  2.000000  2.000000  2.000000
                       2.000000  2.000000  2.000000  2.000000  2.000000  2.000000
                       2.000000  2.000000  2.000000  2.000000  2.000000  2.000000
                       0.000000  0.000000  0.000000  0.000000  0.000000  0.000000
                       0.000000  0.000000  0.000000
        optdriver           1
            prtwf          -1
            rfdir           1       1       1
           rfelfd           2
            rprim      1.4208717314E+01  0.0000000000E+00  8.6336781424E+00
                       1.0552633143E+01  9.5147034250E+00  3.0084666992E+00
                       0.0000000000E+00  0.0000000000E+00  1.1642144849E+01
          spgroup          69
           symrel      1  0  0   0  1  0   0  0  1      -1  0  0   0 -1  0   0  0 -1
                       0 -1  1   0 -1  0   1 -1  0       0  1 -1   0  1  0  -1  1  0
                      -1  0  0  -1  0  1  -1  1  0       1  0  0   1  0 -1   1 -1  0
                       0  1 -1   1  0 -1   0  0 -1       0 -1  1  -1  0  1   0  0  1
           tolwfr      1.00000000E-20
            typat      1  1  2  2  2  3  3  3  3
           useylm           1
              wtk        0.50000    0.50000
           xangst      2.0909732445E+00  8.0346951695E-01  6.1607577125E+00
                       1.1012169072E+01  4.2314946821E+00  6.1607577099E+00
                       6.5515711581E+00  2.5174820995E+00  6.1607577112E+00
                       0.0000000000E+00  0.0000000000E+00  3.0803788565E+00
                       6.5515711581E+00  2.5174820995E+00  3.0803788546E+00
                       4.8180825136E+00  2.8227922586E+00  4.6246403257E+00
                       5.4685786711E+00  1.1299214907E+00  7.6968750975E+00
                       8.2850598025E+00  2.2121719404E+00  7.6968750967E+00
                       7.6345636450E+00  3.9050427083E+00  4.6246403249E+00
            xcart      3.9513667833E+00  1.5183373432E+00  1.1642144848E+01
                       2.0809983674E+01  7.9963660818E+00  1.1642144843E+01
                       1.2380675229E+01  4.7573517125E+00  1.1642144845E+01
                       0.0000000000E+00  0.0000000000E+00  5.8210724244E+00
                       1.2380675229E+01  4.7573517125E+00  5.8210724208E+00
                       9.1048564363E+00  5.3343042988E+00  8.7393036787E+00
                       1.0334116025E+01  2.1352421691E+00  1.4544986013E+01
                       1.5656494021E+01  4.1803991262E+00  1.4544986012E+01
                       1.4427234433E+01  7.3794612559E+00  8.7393036771E+00
             xred      1.5957800000E-01  1.5957800000E-01  8.4042200000E-01
                       8.4042200000E-01  8.4042200000E-01  1.5957800000E-01
                       5.0000000000E-01  5.0000000000E-01  5.0000000000E-01
                       0.0000000000E+00  0.0000000000E+00  5.0000000000E-01
                       5.0000000000E-01  5.0000000000E-01  0.0000000000E+00
                       2.2441500000E-01  5.6063800000E-01  4.3936200000E-01
                       5.6063800000E-01  2.2441500000E-01  7.7558500000E-01
                       7.7558500000E-01  4.3936200000E-01  5.6063800000E-01
                       4.3936200000E-01  7.7558500000E-01  2.2441500000E-01
            znucl       55.00000   46.00000   16.00000

 chkinp: Checking input parameters for consistency.

== DATASET  1 ==================================================================
-   mpi_nproc: 1, omp_nthreads: -1 (-1 if OMP is not activated)

--- !DatasetInfo
iteration_state: {dtset: 1, }
dimensions: {natom: 9, nkpt: 2, mband: 57, nsppol: 1, nspinor: 1, nspden: 1, mpw: 19790, }
cutoff_energies: {ecut:  41.0, pawecutdg:  -1.0, }
electrons: {nelect:   9.60000000E+01, charge:   0.00000000E+00, occopt:   1.00000000E+00, tsmear:   1.00000000E-02, }
meta: {optdriver: 1, rfelfd: 2, }
...

 Real(R)+Recip(G) space primitive vectors, cartesian coordinates (Bohr,Bohr^-1):
 R(1)= 14.2087173  0.0000000  8.6336781  G(1)=  0.0703793 -0.0780568  0.0000000
 R(2)= 10.5526331  9.5147034  3.0084667  G(2)=  0.0000000  0.1051005  0.0000000
 R(3)=  0.0000000  0.0000000 11.6421448  G(3)= -0.0521925  0.0307268  0.0858948
 Unit cell volume ucvol=  1.5739217E+03 bohr^3
 Angles (23,13,12)=  7.80451067E+01  5.87157753E+01  4.32391180E+01 degrees

 getcut: wavevector=  0.0000  0.0000  0.0000  ngfft=  96  96  96
         ecut(hartree)=     41.000   => boxcut(ratio)=   2.00358

--- Pseudopotential description ------------------------------------------------
- pspini: atom type   1  psp file is /scratch/users/j/a/jabreu/pseudos/PBEsol/Cs.psp8
- pspatm: opening atomic psp file    /scratch/users/j/a/jabreu/pseudos/PBEsol/Cs.psp8
- Cs    ONCVPSP-3.3.0  r_core=   2.27353   1.85623   2.01788   1.90105
- 55.00000   9.00000    180112                znucl, zion, pspdat
    8 -116133    3    4       600   0.00000   pspcod,pspxc,lmax,lloc,mmax,r2well
    5.99000000000000    5.00000000000000    0.00000000000000   rchrg,fchrg,qchrg
     nproj     2     2     2     2
     extension_switch     1
  pspatm : epsatm=   22.12462445
         --- l  ekb(1:nproj) -->
             0    6.214110    0.767882
             1    6.311966    0.793598
             2    3.769790    0.913105
             3   -9.247129   -2.432478
 pspatm: atomic psp has been read  and splines computed

- pspini: atom type   2  psp file is /scratch/users/j/a/jabreu/pseudos/PBEsol/Pd.psp8
- pspatm: opening atomic psp file    /scratch/users/j/a/jabreu/pseudos/PBEsol/Pd.psp8
- Pd    ONCVPSP-3.3.0  r_core=   1.41052   1.46191   1.55175
- 46.00000  18.00000    180112                znucl, zion, pspdat
    8 -116133    2    4       600   0.00000   pspcod,pspxc,lmax,lloc,mmax,r2well
    5.99000000000000    7.00000000000000    0.00000000000000   rchrg,fchrg,qchrg
     nproj     2     2     2
     extension_switch     1
  pspatm : epsatm=   26.17262427
         --- l  ekb(1:nproj) -->
             0    7.952303   -2.096627
             1    3.304793   -0.572651
             2   -1.185452   -0.410427
 pspatm: atomic psp has been read  and splines computed

- pspini: atom type   3  psp file is /scratch/users/j/a/jabreu/pseudos/PBEsol/S.psp8
- pspatm: opening atomic psp file    /scratch/users/j/a/jabreu/pseudos/PBEsol/S.psp8
- S     ONCVPSP-3.3.0  r_core=   1.45376   1.45376   1.61851
- 16.00000   6.00000    180112                znucl, zion, pspdat
    8 -116133    2    4       600   0.00000   pspcod,pspxc,lmax,lloc,mmax,r2well
    5.99000000000000    6.00000000000000    0.00000000000000   rchrg,fchrg,qchrg
     nproj     2     2     2
     extension_switch     1
  pspatm : epsatm=    8.71840985
         --- l  ekb(1:nproj) -->
             0    6.834532    0.579453
             1    3.282851    0.896984
             2   -3.496974   -0.974265
 pspatm: atomic psp has been read  and splines computed

   1.51335131E+04                                ecore*ucvol(ha*bohr**3)

-inwffil : will read wavefunctions from disk file /scratch/users/j/a/jabreu/flow_simple_9atoms/flow/w165/t1/indata/in_WFK

 ==>  initialize data related to q vector <==

 The list of irreducible perturbations for this q vector is:
    1)    idir= 1    ipert=  10
    2)    idir= 2    ipert=  10
    3)    idir= 3    ipert=  10

 Perturbation wavevector (in red.coord.)   0.000000  0.000000  0.000000
 Perturbation : derivative vs k along direction   1

 dfpt_looppert : COMMENT -
  In a d/dk calculation, iscf is set to -3 automatically.
 The set of symmetries contains only one element for this perturbation.
 symkpt : not enough symmetry to change the number of k points.

[...]

 Initialisation of the first-order wave-functions :
  ireadwf=   0

--- !BeginCycle
iteration_state: {dtset: 1, }
solver: {iscf: 7, nstep: 2000, nline: 4, wfoptalg: 0, }
tolerances: {tolwfr: 1.00E-20, }
...

     iter   2DEtotal(Ha)        deltaE(Ha) residm    vres2
-ETOT  1  -42.823461193354     -4.282E+01 9.600E-02 0.000E+00
 ETOT  2  -42.934376967007     -1.109E-01 6.863E-03 0.000E+00
 ETOT  3  -42.936636653607     -2.260E-03 2.371E-04 0.000E+00
 ETOT  4  -42.936752836793     -1.162E-04 4.090E-05 0.000E+00
 ETOT  5  -42.936760712083     -7.875E-06 2.702E-06 0.000E+00
[...]
 ETOT 13  -42.936761385700     -2.132E-14 1.000E-12 0.000E+00
 ETOT 14  -42.936761385700     -2.842E-14 1.443E-13 0.000E+00
 ETOT 15  -42.936761385699      4.974E-14 2.653E-14 0.000E+00
 ETOT 16  -42.936761385700     -4.974E-14 3.763E-15 0.000E+00
 ETOT 17  -42.936761385700      1.421E-14 7.075E-16 0.000E+00
 ETOT 18  -42.936761385699      3.553E-14 9.870E-17 0.000E+00
 ETOT 19  -42.936761385700     -1.421E-14 1.895E-17 0.000E+00
 ETOT 20  -42.936761385699      7.105E-15 2.601E-18 0.000E+00
 ETOT 21  -42.936761385699      0.000E+00 5.095E-19 0.000E+00
 ETOT 22  -42.936761385699      0.000E+00 6.880E-20 0.000E+00
 ETOT 23  -42.936761385699      0.000E+00 1.374E-20 0.000E+00
 ETOT 24  -42.936761385700     -7.105E-15 9.958E-21 0.000E+00

 At SCF step   24   max residual=  9.96E-21 < tolwfr=  1.00E-20 =>converged.

 ----iterations are completed or convergence reached----

 dfpt_looppert: DFPT cycle converged with prtwf=-1. Will skip output of the 1st-order WFK file.
 dfpt_looppert : ek2=    8.3727949104E+01
          f-sum rule ratio=    1.0029110539E+00
 prteigrs : about to open file /scratch/users/j/a/jabreu/flow_simple_9atoms/flow/w165/t1/tmpdata/tmp_1WF1_EIG
 Expectation of eigenvalue derivatives (hartree) for nkpt=   2  k points:
  (in case of degenerate eigenvalues, averaged derivative)
 kpt#   1, nband= 57, wtk=  0.50000, kpt=  1.0000  0.5000  0.5000 (reduced coord)
   0.00000   -0.00000   -0.00000   -0.00000   -0.00000   -0.00000    0.00000   -0.00000
   0.00000   -0.00000   -0.00000   -0.00000   -0.00000    0.00000    0.00000    0.00000
   0.00000   -0.00000   -0.00000   -0.00000   -0.00000   -0.00000    0.00000    0.00000
  -0.00000   -0.00000    0.00000   -0.00000   -0.00000   -0.00000    0.00000   -0.00000
  -0.00000    0.00000    0.00000   -0.00000   -0.00000   -0.00000   -0.00000    0.00000
  -0.00000    0.00000    0.00000    0.00000    0.00000    0.00000   -0.00000    0.00000
   0.00000    0.00000    0.00000    0.00000    0.00000    0.00000   -0.00000    0.00000
   0.00000
 prteigrs : prtvol=0 or 1, do not print more k-points.

 Eight components of 2nd-order total energy (hartree) are
 1,2,3: 0th-order hamiltonian combined with 1st-order wavefunctions
     kin0=   6.74685528E+01 eigvalue=  -1.32561985E+00  local=  -3.79036956E+01
 4,5,6: 1st-order hamiltonian combined with 1st and 0th-order wfs
     kin1=  -8.39716857E+01  Hartree=   0.00000000E+00     xc=   0.00000000E+00
 7,8,9: eventually, occupation + non-local contributions
    edocc=   9.59912790E+00     enl0=   5.09839620E+00   enl1=  -1.90183710E+00
 1-9 gives the relaxation energy (to be shifted if some occ is /=2.0)
   erelax=  -4.29367614E+01
  No Ewald or frozen-wf contrib.: the relaxation energy is the total one
 2DEtotal=   -0.4293676139E+02 Ha. Also 2DEtotal=   -0.116836869577E+04 eV
    (  non-var. 2DEtotal :   -4.2936761386E+01 Ha)

 Perturbation wavevector (in red.coord.)   0.000000  0.000000  0.000000
 Perturbation : derivative vs k along direction   2
 The set of symmetries contains only one element for this perturbation.
 symkpt : not enough symmetry to change the number of k points.

[...]

 Perturbation wavevector (in red.coord.)   0.000000  0.000000  0.000000
 Perturbation : derivative vs k along direction   3
 The set of symmetries contains only one element for this perturbation.
 symkpt : not enough symmetry to change the number of k points.

-inwffil : will read wavefunctions from disk file /scratch/users/j/a/jabreu/flow_simple_9atoms/flow/w165/t1/indata/in_WFK

 Initialisation of the first-order wave-functions :
  ireadwf=   0

--- !BeginCycle
iteration_state: {dtset: 1, }
solver: {iscf: 7, nstep: 2000, nline: 4, wfoptalg: 0, }
tolerances: {tolwfr: 1.00E-20, }
...

     iter   2DEtotal(Ha)        deltaE(Ha) residm    vres2
-ETOT  1  -42.823150198511     -4.282E+01 9.589E-02 0.000E+00
 ETOT  2  -42.934844774468     -1.117E-01 6.856E-03 0.000E+00
 ETOT  3  -42.937139652837     -2.295E-03 2.365E-04 0.000E+00
 ETOT  4  -42.937258369192     -1.187E-04 4.082E-05 0.000E+00
 ETOT  5  -42.937266475439     -8.106E-06 2.690E-06 0.000E+00
 ETOT  6  -42.937267114840     -6.394E-07 5.438E-07 0.000E+00
 ETOT  7  -42.937267168346     -5.351E-08 6.207E-08 0.000E+00
 ETOT  8  -42.937267172997     -4.652E-09 1.027E-08 0.000E+00
 ETOT  9  -42.937267173412     -4.147E-10 1.515E-09 0.000E+00
 ETOT 10  -42.937267173449     -3.762E-11 2.442E-10 0.000E+00
 ETOT 11  -42.937267173453     -3.475E-12 3.859E-11 0.000E+00
 ETOT 12  -42.937267173453     -3.624E-13 5.888E-12 0.000E+00
 ETOT 13  -42.937267173453     -2.842E-14 1.006E-12 0.000E+00
 ETOT 14  -42.937267173453     -1.421E-14 1.443E-13 0.000E+00
 ETOT 15  -42.937267173453     -2.842E-14 2.642E-14 0.000E+00
 ETOT 16  -42.937267173453      7.105E-14 3.717E-15 0.000E+00
 ETOT 17  -42.937267173453     -3.553E-14 6.979E-16 0.000E+00
 ETOT 18  -42.937267173453      7.105E-15 9.633E-17 0.000E+00
 ETOT 19  -42.937267173453     -7.105E-15 1.852E-17 0.000E+00
 ETOT 20  -42.937267173453      0.000E+00 2.509E-18 0.000E+00
 ETOT 21  -42.937267173453      0.000E+00 4.934E-19 0.000E+00
 ETOT 22  -42.937267173453      7.105E-15 6.560E-20 0.000E+00
 ETOT 23  -42.937267173453     -7.105E-15 1.318E-20 0.000E+00
 ETOT 24  -42.937267173453      0.000E+00 9.983E-21 0.000E+00

 At SCF step   24   max residual=  9.98E-21 < tolwfr=  1.00E-20 =>converged.

 ----iterations are completed or convergence reached----

 dfpt_looppert: DFPT cycle converged with prtwf=-1. Will skip output of the 1st-order WFK file.
 dfpt_looppert : ek2=    8.3727949021E+01
          f-sum rule ratio=    1.0029218992E+00
 prteigrs : about to open file /scratch/users/j/a/jabreu/flow_simple_9atoms/flow/w165/t1/tmpdata/tmp_1WF1_EIG
 Expectation of eigenvalue derivatives (hartree) for nkpt=   2  k points:
  (in case of degenerate eigenvalues, averaged derivative)
 kpt#   1, nband= 57, wtk=  0.50000, kpt=  1.0000  0.5000  0.5000 (reduced coord)
  -0.00000    0.00000    0.00000    0.00000    0.00000    0.00000   -0.00000   -0.00000
  -0.00000    0.00000    0.00000    0.00000    0.00000    0.00000   -0.00000   -0.00000
   0.00000   -0.00000    0.00000    0.00000   -0.00000   -0.00000    0.00000   -0.00000
  -0.00000   -0.00000   -0.00000   -0.00000    0.00000    0.00000   -0.00000   -0.00000
   0.00000    0.00000   -0.00000   -0.00000   -0.00000   -0.00000    0.00000    0.00000
   0.00000   -0.00000   -0.00000   -0.00000   -0.00000   -0.00000    0.00000   -0.00000
  -0.00000   -0.00000   -0.00000    0.00000    0.00000   -0.00000    0.00000   -0.00000
   0.00000
 prteigrs : prtvol=0 or 1, do not print more k-points.

 Eight components of 2nd-order total energy (hartree) are
 1,2,3: 0th-order hamiltonian combined with 1st-order wavefunctions
     kin0=   6.74112520E+01 eigvalue=  -1.34439580E+00  local=  -3.78717269E+01
 4,5,6: 1st-order hamiltonian combined with 1st and 0th-order wfs
     kin1=  -8.39725936E+01  Hartree=   0.00000000E+00     xc=   0.00000000E+00
 7,8,9: eventually, occupation + non-local contributions
    edocc=   9.66731456E+00     enl0=   5.07482329E+00   enl1=  -1.90194070E+00
 1-9 gives the relaxation energy (to be shifted if some occ is /=2.0)
   erelax=  -4.29372672E+01
  No Ewald or frozen-wf contrib.: the relaxation energy is the total one
 2DEtotal=   -0.4293726717E+02 Ha. Also 2DEtotal=   -0.116838245896E+04 eV
    (  non-var. 2DEtotal :   -4.2937267173E+01 Ha)

 CALCULATION OF EFFECTIVE MASSES
 NOTE : Additional infos (eff. mass eigenvalues, eigenvectors and, if degenerate, average mass) are available in stdout.

 K-point ( 1.000, 0.500, 0.500) | band =    48
 Effective mass tensor:
             -1.5271526586              0.3512789129              0.2021699051
              0.3512789129             -2.3063462496             -0.5261307686
              0.2021699051             -0.5261307686             -1.8192177256
 Effective mass tensor eigenvalues:
             -2.7740441356             -1.4865014822             -1.3921710159
 Angular average effective mass 1/(<1/m>)=  -1.7128101780
 Angular average effective mass for Frohlich model (<m**0.5>)**2=  -1.7567951332
 Effective masses along directions: (cart. coord. / red. coord. -> eff. mass)
    1:   1.000000  0.000000  0.000000 /   0.802809  0.596236  0.000000 ->  -1.4648849917
    2:   0.000000  1.000000  0.000000 /   0.000000  1.000000  0.000000 ->  -2.0972050212
    3:   0.000000  0.000000  1.000000 /   0.583236  0.203233  0.786468 ->  -1.6890892586
    4:   0.577350  0.577350  0.577350 /   0.662222  0.668988  0.337516 ->  -1.6854289676
    5:   0.000000  0.707107  0.707107 /   0.450730  0.653785  0.607790 ->  -2.4579653915
    6:   0.707107  0.000000  0.707107 /   0.787567  0.467564  0.401401 ->  -1.4569432583
    7:   0.707107  0.707107  0.000000 /   0.577864  0.816133  0.000000 ->  -1.4869316941

 K-point ( 0.500, 0.692, 0.192) | band =    49
 Effective mass tensor:
              2.2833904840              0.3078015361              0.6318442675
              0.3078015361              1.6007855110             -1.6446077686
              0.6318442675             -1.6446077686              3.4270776080
 Effective mass tensor eigenvalues:
              0.4424932206              2.4016847390              4.4670756433
 Angular average effective mass 1/(<1/m>)=   1.0344270739
 Angular average effective mass for Frohlich model (<m**0.5>)**2=   1.3919284791
 Effective masses along directions: (cart. coord. / red. coord. -> eff. mass)
    1:   1.000000  0.000000  0.000000 /   0.802809  0.596236  0.000000 ->   1.7068721192
    2:   0.000000  1.000000  0.000000 /   0.000000  1.000000  0.000000 ->   0.6392686758
    3:   0.000000  0.000000  1.000000 /   0.583236  0.203233  0.786468 ->   1.3333304226
    4:   0.577350  0.577350  0.577350 /   0.662222  0.668988  0.337516 ->   0.9859991822
    5:   0.000000  0.707107  0.707107 /   0.450730  0.653785  0.607790 ->   0.5027277314
    6:   0.707107  0.000000  0.707107 /   0.787567  0.467564  0.401401 ->   2.8715442519
    7:   0.707107  0.707107  0.000000 /   0.577864  0.816133  0.000000 ->   1.5773255307

 END OF EFFECTIVE MASSES SECTION

 ---- first-order wavefunction calculations are completed ----

 Total localisation tensor (bohr^2) in cartesian coordinates
  WARNING : still subject to testing - especially symmetries.
      direction              matrix element
   alpha     beta       real part   imaginary part
     1        1       3.6628619279    0.0000000000
     1        2       1.1740515931    0.0000000000
     1        3       1.8056852022    0.0000000000
     2        1       1.1740515931    0.0000000000
     2        2       1.0585749132    0.0000000000
     2        3       0.3347122062    0.0000000000
     3        1       1.8056852022    0.0000000000
     3        2       0.3347122062    0.0000000000
     3        3       2.5623892975    0.0000000000

 respfn : d/dk was computed, but no 2DTE, so no DDB output.

== END DATASET(S) ==============================================================

 -outvars: echo values of variables after computation  --------
            acell      1.0000000000E+00  1.0000000000E+00  1.0000000000E+00 Bohr
              amu      1.32905430E+02  1.06420000E+02  3.20660000E+01
             ecut      4.10000000E+01 Hartree
           etotal     -4.2937267173E+01
            fcart      0.0000000000E+00  0.0000000000E+00  0.0000000000E+00
                       0.0000000000E+00  0.0000000000E+00  0.0000000000E+00
                       0.0000000000E+00  0.0000000000E+00  0.0000000000E+00
                       0.0000000000E+00  0.0000000000E+00  0.0000000000E+00
                       0.0000000000E+00  0.0000000000E+00  0.0000000000E+00
                       0.0000000000E+00  0.0000000000E+00  0.0000000000E+00
                       0.0000000000E+00  0.0000000000E+00  0.0000000000E+00
                       0.0000000000E+00  0.0000000000E+00  0.0000000000E+00
                       0.0000000000E+00  0.0000000000E+00  0.0000000000E+00
-          fftalg         512
           irdden           1
           irdwfk           1
              ixc     -116133
              kpt      1.00000000E+00  5.00000000E-01  5.00000000E-01
                       5.00000000E-01  6.91558930E-01  1.91558930E-01
           kptopt           0
P           mkmem           2
P          mkqmem           2
P          mk1mem           2
            natom           9
            nband          57
           nbdbuf           4
            ngfft          96      96      96
             nkpt           2
            nstep        2000
             nsym           8
           ntypat           3
              occ      2.000000  2.000000  2.000000  2.000000  2.000000  2.000000
                       2.000000  2.000000  2.000000  2.000000  2.000000  2.000000
                       2.000000  2.000000  2.000000  2.000000  2.000000  2.000000
                       2.000000  2.000000  2.000000  2.000000  2.000000  2.000000
                       2.000000  2.000000  2.000000  2.000000  2.000000  2.000000
                       2.000000  2.000000  2.000000  2.000000  2.000000  2.000000
                       2.000000  2.000000  2.000000  2.000000  2.000000  2.000000
                       2.000000  2.000000  2.000000  2.000000  2.000000  2.000000
                       0.000000  0.000000  0.000000  0.000000  0.000000  0.000000
                       0.000000  0.000000  0.000000
        optdriver           1
            prtwf          -1
            rfdir           1       1       1
           rfelfd           2
            rprim      1.4208717314E+01  0.0000000000E+00  8.6336781424E+00
                       1.0552633143E+01  9.5147034250E+00  3.0084666992E+00
                       0.0000000000E+00  0.0000000000E+00  1.1642144849E+01
          spgroup          69
           strten      0.0000000000E+00  0.0000000000E+00  0.0000000000E+00
                       0.0000000000E+00  0.0000000000E+00  0.0000000000E+00
           symrel      1  0  0   0  1  0   0  0  1      -1  0  0   0 -1  0   0  0 -1
                       0 -1  1   0 -1  0   1 -1  0       0  1 -1   0  1  0  -1  1  0
                      -1  0  0  -1  0  1  -1  1  0       1  0  0   1  0 -1   1 -1  0
                       0  1 -1   1  0 -1   0  0 -1       0 -1  1  -1  0  1   0  0  1
           tolwfr      1.00000000E-20
            typat      1  1  2  2  2  3  3  3  3
           useylm           1
              wtk        0.50000    0.50000
           xangst      2.0909732445E+00  8.0346951695E-01  6.1607577125E+00
                       1.1012169072E+01  4.2314946821E+00  6.1607577099E+00
                       6.5515711581E+00  2.5174820995E+00  6.1607577112E+00
                       0.0000000000E+00  0.0000000000E+00  3.0803788565E+00
                       6.5515711581E+00  2.5174820995E+00  3.0803788546E+00
                       4.8180825136E+00  2.8227922586E+00  4.6246403257E+00
                       5.4685786711E+00  1.1299214907E+00  7.6968750975E+00
                       8.2850598025E+00  2.2121719404E+00  7.6968750967E+00
                       7.6345636450E+00  3.9050427083E+00  4.6246403249E+00
            xcart      3.9513667833E+00  1.5183373432E+00  1.1642144848E+01
                       2.0809983674E+01  7.9963660818E+00  1.1642144843E+01
                       1.2380675229E+01  4.7573517125E+00  1.1642144845E+01
                       0.0000000000E+00  0.0000000000E+00  5.8210724244E+00
                       1.2380675229E+01  4.7573517125E+00  5.8210724208E+00
                       9.1048564363E+00  5.3343042988E+00  8.7393036787E+00
                       1.0334116025E+01  2.1352421691E+00  1.4544986013E+01
                       1.5656494021E+01  4.1803991262E+00  1.4544986012E+01
                       1.4427234433E+01  7.3794612559E+00  8.7393036771E+00
             xred      1.5957800000E-01  1.5957800000E-01  8.4042200000E-01
                       8.4042200000E-01  8.4042200000E-01  1.5957800000E-01
                       5.0000000000E-01  5.0000000000E-01  5.0000000000E-01
                       0.0000000000E+00  0.0000000000E+00  5.0000000000E-01
                       5.0000000000E-01  5.0000000000E-01  0.0000000000E+00
                       2.2441500000E-01  5.6063800000E-01  4.3936200000E-01
                       5.6063800000E-01  2.2441500000E-01  7.7558500000E-01
                       7.7558500000E-01  4.3936200000E-01  5.6063800000E-01
                       4.3936200000E-01  7.7558500000E-01  2.2441500000E-01
            znucl       55.00000   46.00000   16.00000

- Timing analysis has been suppressed with timopt=0

 Suggested references for the acknowledgment of ABINIT usage.

 Calculation completed.
.Delivered  14 WARNINGs and   9 COMMENTs to log file.