.Version 9.5.1 of ABINIT

 ABINIT is a project of the Universite Catholique de Louvain,
 Corning Inc. and other collaborators, see ~abinit/doc/developers/contributors.txt .
 acknowledgments of the ABINIT effort.

.Starting date : Wed 19 May 2021.
- ( at 02h10 )

- input  file    -> /scratch/users/j/a/jabreu/flow_simple_8atoms/flow/w494/t1/run.abi
- output file    -> /scratch/users/j/a/jabreu/flow_simple_8atoms/flow/w494/t1/run.abo
- root for input  files -> /scratch/users/j/a/jabreu/flow_simple_8atoms/flow/w494/t1/indata/in
- root for output files -> /scratch/users/j/a/jabreu/flow_simple_8atoms/flow/w494/t1/outdata/out

 Symmetries : space group P4/n m m (#129); Bravais tP (primitive tetrag.)
     intxc =       0      iscf =       7    lmnmax =      32     lnmax =       8
     mgfft =     108  mpssoang =       4    mqgrid =    5297     natom =       8
  nloc_mem =       1    nspden =       1   nspinor =       1    nsppol =       1
      nsym =      16    n1xccc =    2501    ntypat =       4    occopt =       1
   xclevel =       2
-    mband =          61        mffmem =           1         mkmem =           1
-   mkqmem =           1        mk1mem =           1           mpw =       16885
      nfft =      270000          nkpt =           1
  Rough estimation (10% accuracy) of disk space for files :

------------- Echo of variables that govern the present computation ------------
-
- outvars: echo of selected default values
-   iomode0 =  0 , fftalg0 =512 , wfoptalg0 =  0
-
- outvars: echo of global parameters not present in the input file
-  max_nthreads =    0
-
 -outvars: echo values of preprocessed input variables --------
            acell      1.0000000000E+00  1.0000000000E+00  1.0000000000E+00 Bohr
              amu      1.38905500E+02  6.35460000E+01  7.89600000E+01
                       1.59994000E+01
             ecut      5.20000000E+01 Hartree
-          fftalg         512
           irdden           1
           irdwfk           1
           istwfk        1
              ixc     -116133
           kptopt           0
P           mkmem           1
P          mkqmem           1
P          mk1mem           1
            natom           8
            nband          61
           nbdbuf           4
            ngfft          50      50     108
             nkpt           1
            nstep        2000
             nsym          16
           ntypat           4
              occ      2.000000  2.000000  2.000000  2.000000  2.000000  2.000000
                       2.000000  2.000000  2.000000  2.000000  2.000000  2.000000
                       2.000000  2.000000  2.000000  2.000000  2.000000  2.000000
                       2.000000  2.000000  2.000000  2.000000  2.000000  2.000000
                       2.000000  2.000000  2.000000  2.000000  2.000000  2.000000
                       2.000000  2.000000  2.000000  2.000000  2.000000  2.000000
                       2.000000  2.000000  2.000000  2.000000  2.000000  2.000000
                       2.000000  2.000000  2.000000  2.000000  2.000000  2.000000
                       2.000000  2.000000  2.000000  2.000000  0.000000  0.000000
                       0.000000  0.000000  0.000000  0.000000  0.000000  0.000000
                       0.000000
        optdriver           1
            prtwf          -1
            rfdir           1       1       1
           rfelfd           2
            rprim      7.5835420107E+00  0.0000000000E+00  0.0000000000E+00
                       0.0000000000E+00  7.5835420107E+00  0.0000000000E+00
                       0.0000000000E+00  0.0000000000E+00  1.6315799041E+01
          spgroup         129
           symrel      1  0  0   0  1  0   0  0  1      -1  0  0   0 -1  0   0  0 -1
                      -1  0  0   0  1  0   0  0 -1       1  0  0   0 -1  0   0  0  1
                      -1  0  0   0 -1  0   0  0  1       1  0  0   0  1  0   0  0 -1
                       1  0  0   0 -1  0   0  0 -1      -1  0  0   0  1  0   0  0  1
                       0  1  0   1  0  0   0  0  1       0 -1  0  -1  0  0   0  0 -1
                       0 -1  0   1  0  0   0  0 -1       0  1  0  -1  0  0   0  0  1
                       0 -1  0  -1  0  0   0  0  1       0  1  0   1  0  0   0  0 -1
                       0  1  0  -1  0  0   0  0 -1       0 -1  0   1  0  0   0  0  1
            tnons      0.0000000  0.0000000  0.0000000     0.5000000  0.5000000 -0.0000000
                       0.5000000  0.5000000 -0.0000000     0.0000000 -0.0000000  0.0000000
                       0.0000000 -0.0000000  0.0000000     0.5000000  0.5000000 -0.0000000
                       0.5000000  0.5000000 -0.0000000     0.0000000  0.0000000  0.0000000
                       0.5000000  0.5000000  0.0000000    -0.0000000  0.0000000 -0.0000000
                       0.0000000  0.0000000 -0.0000000     0.5000000  0.5000000  0.0000000
                       0.5000000  0.5000000  0.0000000     0.0000000  0.0000000 -0.0000000
                      -0.0000000  0.0000000 -0.0000000     0.5000000  0.5000000  0.0000000
           tolwfr      1.00000000E-20
            typat      1  1  2  2  3  3  4  4
           useylm           1
           xangst      0.0000000000E+00  2.0065187962E+00  7.4028601073E+00
                       2.0065187962E+00  0.0000000000E+00  1.2310888850E+00
                       2.0065187962E+00  2.0065187962E+00  4.3169744961E+00
                       0.0000000000E+00  0.0000000000E+00  4.3169744961E+00
                       0.0000000000E+00  2.0065187962E+00  2.8610834813E+00
                       2.0065187962E+00  0.0000000000E+00  5.7728655110E+00
                       2.0065187962E+00  2.0065187962E+00  0.0000000000E+00
                       0.0000000000E+00  0.0000000000E+00  0.0000000000E+00
            xcart      0.0000000000E+00  3.7917710053E+00  1.3989378203E+01
                       3.7917710053E+00  0.0000000000E+00  2.3264208378E+00
                       3.7917710053E+00  3.7917710053E+00  8.1578995203E+00
                       0.0000000000E+00  0.0000000000E+00  8.1578995203E+00
                       0.0000000000E+00  3.7917710053E+00  5.4066642229E+00
                       3.7917710053E+00  0.0000000000E+00  1.0909134818E+01
                       3.7917710053E+00  3.7917710053E+00  0.0000000000E+00
                       0.0000000000E+00  0.0000000000E+00  0.0000000000E+00
             xred      0.0000000000E+00  5.0000000000E-01  8.5741300000E-01
                       5.0000000000E-01  0.0000000000E+00  1.4258700000E-01
                       5.0000000000E-01  5.0000000000E-01  5.0000000000E-01
                       0.0000000000E+00  0.0000000000E+00  5.0000000000E-01
                       0.0000000000E+00  5.0000000000E-01  3.3137600000E-01
                       5.0000000000E-01  0.0000000000E+00  6.6862400000E-01
                       5.0000000000E-01  5.0000000000E-01  0.0000000000E+00
                       0.0000000000E+00  0.0000000000E+00  0.0000000000E+00
            znucl       57.00000   29.00000   34.00000    8.00000

 chkinp: Checking input parameters for consistency.

== DATASET  1 ==================================================================
-   mpi_nproc: 1, omp_nthreads: -1 (-1 if OMP is not activated)

--- !DatasetInfo
iteration_state: {dtset: 1, }
dimensions: {natom: 8, nkpt: 1, mband: 61, nsppol: 1, nspinor: 1, nspden: 1, mpw: 16885, }
cutoff_energies: {ecut:  52.0, pawecutdg:  -1.0, }
electrons: {nelect:   1.04000000E+02, charge:   0.00000000E+00, occopt:   1.00000000E+00, tsmear:   1.00000000E-02, }
meta: {optdriver: 1, rfelfd: 2, }
...

 Real(R)+Recip(G) space primitive vectors, cartesian coordinates (Bohr,Bohr^-1):
 R(1)=  7.5835420  0.0000000  0.0000000  G(1)=  0.1318645  0.0000000  0.0000000
 R(2)=  0.0000000  7.5835420  0.0000000  G(2)=  0.0000000  0.1318645  0.0000000
 R(3)=  0.0000000  0.0000000 16.3157990  G(3)=  0.0000000  0.0000000  0.0612903
 Unit cell volume ucvol=  9.3832339E+02 bohr^3
 Angles (23,13,12)=  9.00000000E+01  9.00000000E+01  9.00000000E+01 degrees

 getcut: wavevector=  0.0000  0.0000  0.0000  ngfft=  50  50 108
         ecut(hartree)=     52.000   => boxcut(ratio)=   2.03110

--- Pseudopotential description ------------------------------------------------
- pspini: atom type   1  psp file is /scratch/users/j/a/jabreu/pseudos/PBEsol/La.psp8
- pspatm: opening atomic psp file    /scratch/users/j/a/jabreu/pseudos/PBEsol/La.psp8
- La    ONCVPSP-3.3.0  r_core=   2.11664   1.60878   1.85636   1.66739
- 57.00000  11.00000    180112                znucl, zion, pspdat
    8 -116133    3    4       600   0.00000   pspcod,pspxc,lmax,lloc,mmax,r2well
    5.99000000000000    5.00000000000000    0.00000000000000   rchrg,fchrg,qchrg
     nproj     2     2     2     2
     extension_switch     1
  pspatm : epsatm=   29.08531775
         --- l  ekb(1:nproj) -->
             0    6.695600    0.639047
             1    6.383649    1.151322
             2    3.612966    0.847811
             3  -13.718437   -4.858923
 pspatm: atomic psp has been read  and splines computed

- pspini: atom type   2  psp file is /scratch/users/j/a/jabreu/pseudos/PBEsol/Cu.psp8
- pspatm: opening atomic psp file    /scratch/users/j/a/jabreu/pseudos/PBEsol/Cu.psp8
- Cu    ONCVPSP-3.3.0  r_core=   1.26204   1.45626   1.76249
- 29.00000  19.00000    180112                znucl, zion, pspdat
    8 -116133    2    4       600   0.00000   pspcod,pspxc,lmax,lloc,mmax,r2well
    5.99000000000000    3.50000000000000    0.00000000000000   rchrg,fchrg,qchrg
     nproj     2     2     2
     extension_switch     1
  pspatm : epsatm=   21.63488701
         --- l  ekb(1:nproj) -->
             0    5.008230   -0.401634
             1   -3.496700   -0.765945
             2   -6.895851   -2.521180
 pspatm: atomic psp has been read  and splines computed

[...]

- pspini: atom type   4  psp file is /scratch/users/j/a/jabreu/pseudos/PBEsol/O.psp8
- pspatm: opening atomic psp file    /scratch/users/j/a/jabreu/pseudos/PBEsol/O.psp8
- O     ONCVPSP-3.3.0  r_core=   1.35509   1.45563   1.26150
-  8.00000   6.00000    180112                znucl, zion, pspdat
    8 -116133    2    4       600   0.00000   pspcod,pspxc,lmax,lloc,mmax,r2well
    5.99000000000000    4.00000000000000    0.00000000000000   rchrg,fchrg,qchrg
     nproj     2     2     1
     extension_switch     1
  pspatm : epsatm=    6.22910522
         --- l  ekb(1:nproj) -->
             0    6.050032    0.820363
             1   -4.739617   -1.153841
             2   -1.335834
 pspatm: atomic psp has been read  and splines computed

   1.79146095E+04                                ecore*ucvol(ha*bohr**3)

-inwffil : will read wavefunctions from disk file /scratch/users/j/a/jabreu/flow_simple_8atoms/flow/w494/t1/indata/in_WFK

 ==>  initialize data related to q vector <==

 The list of irreducible perturbations for this q vector is:
    1)    idir= 1    ipert=   9
    2)    idir= 2    ipert=   9
    3)    idir= 3    ipert=   9

 Perturbation wavevector (in red.coord.)   0.000000  0.000000  0.000000
 Perturbation : derivative vs k along direction   1

 dfpt_looppert : COMMENT -
[...]
 ETOT 35  -24.839386473218     -4.737E-11 2.690E-06 0.000E+00
 ETOT 36  -24.839386473245     -2.742E-11 3.159E-06 0.000E+00
 ETOT 37  -24.839386473261     -1.593E-11 2.371E-06 0.000E+00
 ETOT 38  -24.839386473270     -9.219E-12 2.777E-06 0.000E+00
 ETOT 39  -24.839386473276     -5.375E-12 2.090E-06 0.000E+00
 ETOT 40  -24.839386473279     -3.105E-12 2.442E-06 0.000E+00
 ETOT 41  -24.839386473281     -1.815E-12 1.842E-06 0.000E+00
 ETOT 42  -24.839386473282     -1.062E-12 2.147E-06 0.000E+00
 ETOT 43  -24.839386473282     -6.430E-13 1.623E-06 0.000E+00
 ETOT 44  -24.839386473283     -3.304E-13 1.888E-06 0.000E+00
 ETOT 45  -24.839386473283     -1.883E-13 1.430E-06 0.000E+00
 ETOT 46  -24.839386473283     -1.137E-13 1.661E-06 0.000E+00
 ETOT 47  -24.839386473283     -8.527E-14 1.261E-06 0.000E+00
 ETOT 48  -24.839386473283     -3.553E-14 1.461E-06 0.000E+00
 ETOT 49  -24.839386473283     -4.974E-14 1.111E-06 0.000E+00
 ETOT 50  -24.839386473283     -7.105E-15 1.286E-06 0.000E+00
 ETOT 51  -24.839386473283      0.000E+00 9.793E-07 0.000E+00
 ETOT 52  -24.839386473283      1.421E-14 1.132E-06 0.000E+00
 ETOT 53  -24.839386473283     -7.105E-15 8.635E-07 0.000E+00
 ETOT 54  -24.839386473283     -2.132E-14 9.969E-07 0.000E+00
 ETOT 55  -24.839386473283     -2.132E-14 7.616E-07 0.000E+00
 ETOT 56  -24.839386473283     -3.553E-15 8.782E-07 0.000E+00
 ETOT 57  -24.839386473283      2.132E-14 6.720E-07 0.000E+00
 ETOT 58  -24.839386473283      4.619E-14 7.737E-07 0.000E+00
 ETOT 59  -24.839386473283     -3.197E-14 5.929E-07 0.000E+00
 ETOT 60  -24.839386473283     -3.553E-15 6.815E-07 0.000E+00
 ETOT 61  -24.839386473283      0.000E+00 5.232E-07 0.000E+00
[...]
 ETOT  548  -24.839386473283      1.776E-14 2.709E-20 0.000E+00
 ETOT  549  -24.839386473283     -1.066E-14 2.168E-20 0.000E+00
 ETOT  550  -24.839386473283      1.776E-14 2.387E-20 0.000E+00
 ETOT  551  -24.839386473283     -2.132E-14 1.911E-20 0.000E+00
 ETOT  552  -24.839386473283      7.105E-15 2.103E-20 0.000E+00
 ETOT  553  -24.839386473283     -3.553E-15 1.685E-20 0.000E+00
 ETOT  554  -24.839386473283      7.105E-15 1.853E-20 0.000E+00
 ETOT  555  -24.839386473283     -1.066E-14 1.486E-20 0.000E+00
 ETOT  556  -24.839386473283      1.776E-14 1.632E-20 0.000E+00
 ETOT  557  -24.839386473283     -3.553E-15 1.310E-20 0.000E+00
 ETOT  558  -24.839386473283      3.553E-15 1.438E-20 0.000E+00
 ETOT  559  -24.839386473283     -3.553E-15 1.155E-20 0.000E+00
 ETOT  560  -24.839386473283      7.105E-15 1.267E-20 0.000E+00
 ETOT  561  -24.839386473283     -1.066E-14 1.018E-20 0.000E+00
 ETOT  562  -24.839386473283     -7.105E-15 9.995E-21 0.000E+00

 At SCF step  562   max residual=  1.00E-20 < tolwfr=  1.00E-20 =>converged.

 ----iterations are completed or convergence reached----

 dfpt_looppert: DFPT cycle converged with prtwf=-1. Will skip output of the 1st-order WFK file.
 dfpt_looppert : ek2=    3.0846534284E+01
          f-sum rule ratio=    1.0457167307E+00
 prteigrs : about to open file /scratch/users/j/a/jabreu/flow_simple_8atoms/flow/w494/t1/tmpdata/tmp_1WF1_EIG
 Expectation of eigenvalue derivatives (hartree) for nkpt=   1  k points:
  (in case of degenerate eigenvalues, averaged derivative)
 kpt#   1, nband= 61, wtk=  1.00000, kpt=  0.0000  0.0000  0.0000 (reduced coord)
   0.00000    0.00000    0.00000   -0.00000   -0.00000   -0.00000   -0.00000   -0.00000
   0.00000    0.00000   -0.00000   -0.00000    0.00000   -0.00000    0.00000    0.00000
  -0.00000   -0.00000    0.00000   -0.00000    0.00000   -0.00000   -0.00000   -0.00000
   0.00000   -0.00000   -0.00000    0.00000    0.00000    0.00000   -0.00000   -0.00000
   0.00000    0.00000    0.00000   -0.00000   -0.00000   -0.00000   -0.00000   -0.00000
   0.00000   -0.00000   -0.00000   -0.00000    0.00000   -0.00000    0.00000    0.00000
   0.00000   -0.00000    0.00000    0.00000    0.00000   -0.00000    0.00000   -0.00000
   0.00000    0.00000    0.00000   -0.00000    0.00001

 Eight components of 2nd-order total energy (hartree) are
 1,2,3: 0th-order hamiltonian combined with 1st-order wavefunctions
     kin0=   4.67617294E+01 eigvalue=  -3.76167582E-01  local=  -1.99721237E+01
 4,5,6: 1st-order hamiltonian combined with 1st and 0th-order wfs
     kin1=  -3.22567370E+01  Hartree=   0.00000000E+00     xc=   0.00000000E+00
 7,8,9: eventually, occupation + non-local contributions
    edocc=   1.78081939E+00     enl0=  -3.35487097E+00   enl1=  -1.74220360E+01
 1-9 gives the relaxation energy (to be shifted if some occ is /=2.0)
   erelax=  -2.48393865E+01
  No Ewald or frozen-wf contrib.: the relaxation energy is the total one
 2DEtotal=   -0.2483938647E+02 Ha. Also 2DEtotal=   -0.675914080171E+03 eV
    (  non-var. 2DEtotal :   -2.4839386473E+01 Ha)

 CALCULATION OF EFFECTIVE MASSES
 NOTE : Additional infos (eff. mass eigenvalues, eigenvectors and, if degenerate, average mass) are available in stdout.

 COMMENTS:
 - At k-point ( 0.000, 0.000, 0.000), bands    51 through    52
   are DEGENERATE (effective mass tensor is therefore not defined).
   See Section IIIB Eqs. (67)-(70) and Appendix E of PRB 93 205147 (2016).
 - Angular average effective mass for Frohlich model is to be averaged over degenerate bands. See later.
 - Associated theta integrals calculated with ntheta=   1000 points.

 K-point ( 0.000, 0.000, 0.000) | band =    51
 Transport equivalent effective mass tensor:
             -0.2997403904             -0.0000000015              0.0000001712
             -0.0000000015             -0.2997403891             -0.0000000266
              0.0000001712             -0.0000000266             -1.9874618722
 Transport equivalent effective mass tensor eigenvalues:
             -1.9874618722             -0.2997403914             -0.2997403881
 Angular average effective mass 1/(<1/m>)=  -0.3636177123
 Angular average effective mass for Frohlich model (<m**0.5>)**2=  -0.4228293940
 Effective masses along directions: (cart. coord. / red. coord. -> eff. mass)
    1:   1.000000  0.000000  0.000000 /   1.000000  0.000000  0.000000 ->  -0.2224474051
    2:   0.000000  1.000000  0.000000 /   0.000000  1.000000  0.000000 ->  -0.2224474072
    3:   0.000000  0.000000  1.000000 /   0.000000  0.000000  1.000000 ->  -1.5960663764
    4:   0.577350  0.577350  0.577350 /   0.388402  0.388402  0.835636 ->  -0.4798796021
    5:   0.000000  0.707107  0.707107 /   0.000000  0.421493  0.906832 ->  -0.3904736266
    6:   0.707107  0.000000  0.707107 /   0.421493  0.000000  0.906832 ->  -0.3904735694
    7:   0.707107  0.707107  0.000000 /   0.707107  0.707107  0.000000 ->  -0.3555538412

 K-point ( 0.000, 0.000, 0.000) | band =    52
 Transport equivalent effective mass tensor:
             -2.2350010336             -0.0000000009              0.0000002921
             -0.0000000009             -2.2350012849              0.0000000032
              0.0000002921              0.0000000032             -6.6334204791
 Transport equivalent effective mass tensor eigenvalues:
             -6.6334204791             -2.2350012849             -2.2350010336
 Angular average effective mass 1/(<1/m>)=  -1.0118067036
 Angular average effective mass for Frohlich model (<m**0.5>)**2=  -1.1546301533
 Effective masses along directions: (cart. coord. / red. coord. -> eff. mass)
    1:   1.000000  0.000000  0.000000 /   1.000000  0.000000  0.000000 ->  -2.0587855377
    2:   0.000000  1.000000  0.000000 /   0.000000  1.000000  0.000000 ->  -2.0587855367
    3:   0.000000  0.000000  1.000000 /   0.000000  0.000000  1.000000 ->  -1.5960666824
    4:   0.577350  0.577350  0.577350 /   0.388402  0.388402  0.835636 ->  -0.6043697152
    5:   0.000000  0.707107  0.707107 /   0.000000  0.421493  0.906832 ->  -1.7981349792
    6:   0.707107  0.000000  0.707107 /   0.421493  0.000000  0.906832 ->  -1.7981349066
    7:   0.707107  0.707107  0.000000 /   0.707107  0.707107  0.000000 ->  -0.4611154359

 Angular average effective mass for Frohlich model, averaged over degenerate bands.
 Value of     (<<m**0.5>>)**2 =     7.437256E-01
 Absolute Value of <<m**0.5>> =     8.623953E-01

 K-point ( 0.000, 0.000, 0.000) | band =    53
 Effective mass tensor:
              0.3925560571             -0.0000000029             -0.0000000736
             -0.0000000029              0.3925560421             -0.0000000235
             -0.0000000736             -0.0000000235              5.0542824773
 Effective mass tensor eigenvalues:
              0.3925560415              0.3925560576              5.0542824773
 Angular average effective mass 1/(<1/m>)=   0.5668221027
 Angular average effective mass for Frohlich model (<m**0.5>)**2=   0.7064694820
 Effective masses along directions: (cart. coord. / red. coord. -> eff. mass)
    1:   1.000000  0.000000  0.000000 /   1.000000  0.000000  0.000000 ->   0.3925560571
    2:   0.000000  1.000000  0.000000 /   0.000000  1.000000  0.000000 ->   0.3925560421
    3:   0.000000  0.000000  1.000000 /   0.000000  0.000000  1.000000 ->   5.0542824773
    4:   0.577350  0.577350  0.577350 /   0.388402  0.388402  0.835636 ->   0.5668220882
    5:   0.000000  0.707107  0.707107 /   0.000000  0.421493  0.906832 ->   0.7285287054
    6:   0.707107  0.000000  0.707107 /   0.421493  0.000000  0.906832 ->   0.7285287179
    7:   0.707107  0.707107  0.000000 /   0.707107  0.707107  0.000000 ->   0.3925560467

 END OF EFFECTIVE MASSES SECTION

 ---- first-order wavefunction calculations are completed ----

 Total localisation tensor (bohr^2) in cartesian coordinates
  WARNING : still subject to testing - especially symmetries.
      direction              matrix element
   alpha     beta       real part   imaginary part
     1        1       1.5148775364    0.0000000000
     1        2       0.0000000000    0.0000000000
     1        3       0.0000000000    0.0000000000
     2        1       0.0000000000    0.0000000000
     2        2       1.5148769946    0.0000000000
     2        3       0.0000000000    0.0000000000
     3        1       0.0000000000    0.0000000000
     3        2       0.0000000000    0.0000000000
     3        3       0.9550946203    0.0000000000

 respfn : d/dk was computed, but no 2DTE, so no DDB output.

== END DATASET(S) ==============================================================

 -outvars: echo values of variables after computation  --------
            acell      1.0000000000E+00  1.0000000000E+00  1.0000000000E+00 Bohr
              amu      1.38905500E+02  6.35460000E+01  7.89600000E+01
                       1.59994000E+01
             ecut      5.20000000E+01 Hartree
           etotal     -2.4839386473E+01
            fcart      0.0000000000E+00  0.0000000000E+00  0.0000000000E+00
                       0.0000000000E+00  0.0000000000E+00  0.0000000000E+00
                       0.0000000000E+00  0.0000000000E+00  0.0000000000E+00
                       0.0000000000E+00  0.0000000000E+00  0.0000000000E+00
                       0.0000000000E+00  0.0000000000E+00  0.0000000000E+00
                       0.0000000000E+00  0.0000000000E+00  0.0000000000E+00
                       0.0000000000E+00  0.0000000000E+00  0.0000000000E+00
                       0.0000000000E+00  0.0000000000E+00  0.0000000000E+00
-          fftalg         512
           irdden           1
           irdwfk           1
           istwfk        1
              ixc     -116133
           kptopt           0
P           mkmem           1
P          mkqmem           1
P          mk1mem           1
            natom           8
            nband          61
           nbdbuf           4
            ngfft          50      50     108
             nkpt           1
            nstep        2000
             nsym          16
           ntypat           4
              occ      2.000000  2.000000  2.000000  2.000000  2.000000  2.000000
                       2.000000  2.000000  2.000000  2.000000  2.000000  2.000000
                       2.000000  2.000000  2.000000  2.000000  2.000000  2.000000
                       2.000000  2.000000  2.000000  2.000000  2.000000  2.000000
                       2.000000  2.000000  2.000000  2.000000  2.000000  2.000000
                       2.000000  2.000000  2.000000  2.000000  2.000000  2.000000
                       2.000000  2.000000  2.000000  2.000000  2.000000  2.000000
                       2.000000  2.000000  2.000000  2.000000  2.000000  2.000000
                       2.000000  2.000000  2.000000  2.000000  0.000000  0.000000
                       0.000000  0.000000  0.000000  0.000000  0.000000  0.000000
                       0.000000
        optdriver           1
            prtwf          -1
            rfdir           1       1       1
           rfelfd           2
            rprim      7.5835420107E+00  0.0000000000E+00  0.0000000000E+00
                       0.0000000000E+00  7.5835420107E+00  0.0000000000E+00
                       0.0000000000E+00  0.0000000000E+00  1.6315799041E+01
          spgroup         129
           strten      0.0000000000E+00  0.0000000000E+00  0.0000000000E+00
                       0.0000000000E+00  0.0000000000E+00  0.0000000000E+00
           symrel      1  0  0   0  1  0   0  0  1      -1  0  0   0 -1  0   0  0 -1
                      -1  0  0   0  1  0   0  0 -1       1  0  0   0 -1  0   0  0  1
                      -1  0  0   0 -1  0   0  0  1       1  0  0   0  1  0   0  0 -1
                       1  0  0   0 -1  0   0  0 -1      -1  0  0   0  1  0   0  0  1
                       0  1  0   1  0  0   0  0  1       0 -1  0  -1  0  0   0  0 -1
                       0 -1  0   1  0  0   0  0 -1       0  1  0  -1  0  0   0  0  1
                       0 -1  0  -1  0  0   0  0  1       0  1  0   1  0  0   0  0 -1
                       0  1  0  -1  0  0   0  0 -1       0 -1  0   1  0  0   0  0  1
            tnons      0.0000000  0.0000000  0.0000000     0.5000000  0.5000000 -0.0000000
                       0.5000000  0.5000000 -0.0000000     0.0000000 -0.0000000  0.0000000
                       0.0000000 -0.0000000  0.0000000     0.5000000  0.5000000 -0.0000000
                       0.5000000  0.5000000 -0.0000000     0.0000000  0.0000000  0.0000000
                       0.5000000  0.5000000  0.0000000    -0.0000000  0.0000000 -0.0000000
                       0.0000000  0.0000000 -0.0000000     0.5000000  0.5000000  0.0000000
                       0.5000000  0.5000000  0.0000000     0.0000000  0.0000000 -0.0000000
                      -0.0000000  0.0000000 -0.0000000     0.5000000  0.5000000  0.0000000
           tolwfr      1.00000000E-20
            typat      1  1  2  2  3  3  4  4
           useylm           1
           xangst      0.0000000000E+00  2.0065187962E+00  7.4028601073E+00
                       2.0065187962E+00  0.0000000000E+00  1.2310888850E+00
                       2.0065187962E+00  2.0065187962E+00  4.3169744961E+00
                       0.0000000000E+00  0.0000000000E+00  4.3169744961E+00
                       0.0000000000E+00  2.0065187962E+00  2.8610834813E+00
                       2.0065187962E+00  0.0000000000E+00  5.7728655110E+00
                       2.0065187962E+00  2.0065187962E+00  0.0000000000E+00
                       0.0000000000E+00  0.0000000000E+00  0.0000000000E+00
            xcart      0.0000000000E+00  3.7917710053E+00  1.3989378203E+01
                       3.7917710053E+00  0.0000000000E+00  2.3264208378E+00
                       3.7917710053E+00  3.7917710053E+00  8.1578995203E+00
                       0.0000000000E+00  0.0000000000E+00  8.1578995203E+00
                       0.0000000000E+00  3.7917710053E+00  5.4066642229E+00
                       3.7917710053E+00  0.0000000000E+00  1.0909134818E+01
                       3.7917710053E+00  3.7917710053E+00  0.0000000000E+00
                       0.0000000000E+00  0.0000000000E+00  0.0000000000E+00
             xred      0.0000000000E+00  5.0000000000E-01  8.5741300000E-01
                       5.0000000000E-01  0.0000000000E+00  1.4258700000E-01
                       5.0000000000E-01  5.0000000000E-01  5.0000000000E-01
                       0.0000000000E+00  0.0000000000E+00  5.0000000000E-01
                       0.0000000000E+00  5.0000000000E-01  3.3137600000E-01
                       5.0000000000E-01  0.0000000000E+00  6.6862400000E-01
                       5.0000000000E-01  5.0000000000E-01  0.0000000000E+00
                       0.0000000000E+00  0.0000000000E+00  0.0000000000E+00
            znucl       57.00000   29.00000   34.00000    8.00000

- Timing analysis has been suppressed with timopt=0

 Suggested references for the acknowledgment of ABINIT usage.

 Calculation completed.
.Delivered   6 WARNINGs and   5 COMMENTs to log file.