.Version 9.5.2 of ABINIT

 ABINIT is a project of the Universite Catholique de Louvain,
 Corning Inc. and other collaborators, see ~abinit/doc/developers/contributors.txt .
 acknowledgments of the ABINIT effort.

.Starting date : Mon 24 May 2021.
- ( at 23h06 )

- input  file    -> /scratch/users/j/a/jabreu/flow_simple_10atoms/flow/w472/t1/run.abi
- output file    -> /scratch/users/j/a/jabreu/flow_simple_10atoms/flow/w472/t1/run.abo
- root for input  files -> /scratch/users/j/a/jabreu/flow_simple_10atoms/flow/w472/t1/indata/in
- root for output files -> /scratch/users/j/a/jabreu/flow_simple_10atoms/flow/w472/t1/outdata/out

 Symmetries : space group Ib a m (# 72); Bravais oI (body-center ortho.)
     intxc =       0      iscf =       7    lmnmax =      18     lnmax =       6
     mgfft =     100  mpssoang =       3    mqgrid =    3703     natom =      10
  nloc_mem =       1    nspden =       1   nspinor =       1    nsppol =       1
      nsym =       8    n1xccc =    2501    ntypat =       3    occopt =       1
   xclevel =       2
-    mband =          49        mffmem =           1         mkmem =           2
-   mkqmem =           2        mk1mem =           2           mpw =       32885
      nfft =     1000000          nkpt =           2
  Rough estimation (10% accuracy) of disk space for files :

------------- Echo of variables that govern the present computation ------------
-
- outvars: echo of selected default values
-   iomode0 =  0 , fftalg0 =512 , wfoptalg0 =  0
-
- outvars: echo of global parameters not present in the input file
-  max_nthreads =    0
-
 -outvars: echo values of preprocessed input variables --------
            acell      1.0000000000E+00  1.0000000000E+00  1.0000000000E+00 Bohr
              amu      1.37327000E+02  1.26904470E+02  1.59994000E+01
             ecut      4.40000000E+01 Hartree
-          fftalg         512
           irdden           1
           irdwfk           1
           istwfk        1    0
              ixc     -116133
              kpt      0.00000000E+00  0.00000000E+00  0.00000000E+00
                       5.00000000E-01  5.00000000E-01 -5.00000000E-01
           kptopt           0
P           mkmem           2
P          mkqmem           2
P          mk1mem           2
            natom          10
            nband          49
           nbdbuf           4
            ngfft         100     100     100
             nkpt           2
            nstep        2000
             nsym           8
           ntypat           3
              occ      2.000000  2.000000  2.000000  2.000000  2.000000  2.000000
                       2.000000  2.000000  2.000000  2.000000  2.000000  2.000000
                       2.000000  2.000000  2.000000  2.000000  2.000000  2.000000
                       2.000000  2.000000  2.000000  2.000000  2.000000  2.000000
                       2.000000  2.000000  2.000000  2.000000  2.000000  2.000000
                       2.000000  2.000000  2.000000  2.000000  2.000000  2.000000
                       2.000000  2.000000  2.000000  2.000000  0.000000  0.000000
                       0.000000  0.000000  0.000000  0.000000  0.000000  0.000000
                       0.000000
        optdriver           1
            prtwf          -1
            rfdir           1       1       1
           rfelfd           2
            rprim      1.2675325940E+01  0.0000000000E+00 -1.0071067135E+01
                      -2.4319372647E+00  1.1481964303E+01 -1.1150805253E+01
                       0.0000000000E+00  0.0000000000E+00  1.6189202603E+01
          spgroup          72
           symrel      1  0  0   0  1  0   0  0  1      -1  0  0   0 -1  0   0  0 -1
                       0  0  1  -1 -1 -1   1  0  0       0  0 -1   1  1  1  -1  0  0
                      -1 -1 -1   0  0  1   0  1  0       1  1  1   0  0 -1   0 -1  0
                       0  1  0   1  0  0  -1 -1 -1       0 -1  0  -1  0  0   1  1  1
            tnons      0.0000000  0.0000000  0.0000000    -0.0000000 -0.0000000 -0.0000000
                      -0.0000000  0.5000000  0.5000000    -0.0000000  0.5000000  0.5000000
                      -0.0000000  0.0000000  0.0000000     0.0000000 -0.0000000 -0.0000000
                      -0.0000000  0.5000000  0.5000000    -0.0000000  0.5000000  0.5000000
           tolwfr      1.00000000E-20
            typat      1  1  1  1  2  2  2  2  3  3
           useylm           1
              wtk        0.50000    0.50000
           xangst      5.3972996347E+00  3.6097965358E+00 -5.6211646038E+00
                       2.3268190854E-02  2.4661972832E+00  2.9579904550E+00
                       3.7335991542E+00  5.5041941926E+00 -2.1743717089E+00
                       1.6869686713E+00  5.7179962631E-01 -4.8880243987E-01
                       2.4602353094E+00  3.9468121659E+00  7.6010582862E-01
                       5.2253555575E+00  9.0881525647E-01  4.5108641177E-01
                       1.9521226808E-01  5.1671785625E+00 -3.1142605606E+00
                       2.9603325161E+00  2.1291816530E+00 -3.4232799774E+00
                      -9.6519432990E-01  4.5569953642E+00  1.9996537838E+00
                      -3.2173144330E-01  1.5189984547E+00  6.6655126127E-01
            xcart      1.0199418167E+01  6.8215268481E+00 -1.0622461649E+01
                       4.3970508321E-02  4.6604374548E+00  5.5897918636E+00
                       7.0554798915E+00  1.0401419606E+01 -4.1089670410E+00
                       3.1879087835E+00  1.0805446966E+00 -9.2370274444E-01
                       4.6491709572E+00  7.4583940916E+00  1.4363918481E+00
                       9.8744909506E+00  1.7174119401E+00  8.5242978051E-01
                       3.6889772445E-01  9.7645523628E+00 -5.8850995659E+00
                       5.5942177178E+00  4.0235702113E+00 -6.4690616335E+00
                      -1.8239529485E+00  8.6114732272E+00  3.7787980120E+00
                      -6.0798431617E-01  2.8704910757E+00  1.2595993373E+00
             xred      9.1865500000E-01  5.9410800000E-01  3.2454700000E-01
                       8.1345000000E-02  4.0589200000E-01  6.7545300000E-01
                       7.3043900000E-01  9.0589200000E-01  8.2454700000E-01
                       2.6956100000E-01  9.4108000000E-02  1.7545300000E-01
                       4.9141900000E-01  6.4957475000E-01  8.4184425000E-01
                       8.0773050000E-01  1.4957475000E-01  6.5815575000E-01
                       1.9226950000E-01  8.5042525000E-01  3.4184425000E-01
                       5.0858100000E-01  3.5042525000E-01  1.5815575000E-01
                      -3.4694469520E-18  7.5000000000E-01  7.5000000000E-01
                      -3.4694469520E-18  2.5000000000E-01  2.5000000000E-01
            znucl       56.00000   53.00000    8.00000

 chkinp: Checking input parameters for consistency.

== DATASET  1 ==================================================================
-   mpi_nproc: 1, omp_nthreads: -1 (-1 if OMP is not activated)

--- !DatasetInfo
iteration_state: {dtset: 1, }
dimensions: {natom: 10, nkpt: 2, mband: 49, nsppol: 1, nspinor: 1, nspden: 1, mpw: 32885, }
cutoff_energies: {ecut:  44.0, pawecutdg:  -1.0, }
electrons: {nelect:   8.00000000E+01, charge:   0.00000000E+00, occopt:   1.00000000E+00, tsmear:   1.00000000E-02, }
meta: {optdriver: 1, rfelfd: 2, }
...

 Real(R)+Recip(G) space primitive vectors, cartesian coordinates (Bohr,Bohr^-1):
 R(1)= 12.6753259  0.0000000-10.0710671  G(1)=  0.0788934  0.0167100  0.0000000
 R(2)= -2.4319373 11.4819643-11.1508053  G(2)=  0.0000000  0.0870931  0.0000000
 R(3)=  0.0000000  0.0000000 16.1892026  G(3)=  0.0490785  0.0703831  0.0617696
 Unit cell volume ucvol=  2.3561383E+03 bohr^3
 Angles (23,13,12)=  1.33533643E+02  1.28468584E+02  7.18885833E+01 degrees

 getcut: wavevector=  0.0000  0.0000  0.0000  ngfft= 100 100 100
         ecut(hartree)=     44.000   => boxcut(ratio)=   2.06881

--- Pseudopotential description ------------------------------------------------
- pspini: atom type   1  psp file is /scratch/users/j/a/jabreu/pseudos/PBEsol/Ba.psp8
- pspatm: opening atomic psp file    /scratch/users/j/a/jabreu/pseudos/PBEsol/Ba.psp8
- Ba    ONCVPSP-3.3.0  r_core=   2.15444   1.91218   2.15444
- 56.00000  10.00000    180112                znucl, zion, pspdat
    8 -116133    2    4       600   0.00000   pspcod,pspxc,lmax,lloc,mmax,r2well
    5.99000000000000    5.00000000000000    0.00000000000000   rchrg,fchrg,qchrg
     nproj     2     2     2
     extension_switch     1
  pspatm : epsatm=   26.37418029
         --- l  ekb(1:nproj) -->
             0    6.652372    0.677024
             1    5.027722    0.408462
             2    2.543237    0.416854
 pspatm: atomic psp has been read  and splines computed

- pspini: atom type   2  psp file is /scratch/users/j/a/jabreu/pseudos/PBEsol/I.psp8
- pspatm: opening atomic psp file    /scratch/users/j/a/jabreu/pseudos/PBEsol/I.psp8
- I     ONCVPSP-3.3.0  r_core=   2.02042   2.17032   2.27639
- 53.00000   7.00000    180112                znucl, zion, pspdat
    8 -116133    2    4       600   0.00000   pspcod,pspxc,lmax,lloc,mmax,r2well
    5.99000000000000    4.00000000000000    0.00000000000000   rchrg,fchrg,qchrg
     nproj     2     2     2
     extension_switch     1
  pspatm : epsatm=   18.14229533
         --- l  ekb(1:nproj) -->
             0    6.015861    0.935228
             1    4.063749    0.754139
             2    4.149534    0.722940
 pspatm: atomic psp has been read  and splines computed

- pspini: atom type   3  psp file is /scratch/users/j/a/jabreu/pseudos/PBEsol/O.psp8
- pspatm: opening atomic psp file    /scratch/users/j/a/jabreu/pseudos/PBEsol/O.psp8
- O     ONCVPSP-3.3.0  r_core=   1.35509   1.45563   1.26150
-  8.00000   6.00000    180112                znucl, zion, pspdat
    8 -116133    2    4       600   0.00000   pspcod,pspxc,lmax,lloc,mmax,r2well
    5.99000000000000    4.00000000000000    0.00000000000000   rchrg,fchrg,qchrg
     nproj     2     2     1
     extension_switch     1
  pspatm : epsatm=    6.22910522
         --- l  ekb(1:nproj) -->
             0    6.050032    0.820363
             1   -4.739617   -1.153841
             2   -1.335834
 pspatm: atomic psp has been read  and splines computed

   1.52419290E+04                                ecore*ucvol(ha*bohr**3)

 ==>  initialize data related to q vector <==

 The list of irreducible perturbations for this q vector is:
    1)    idir= 1    ipert=  11
    2)    idir= 2    ipert=  11
    3)    idir= 3    ipert=  11

 Perturbation wavevector (in red.coord.)   0.000000  0.000000  0.000000
 Perturbation : derivative vs k along direction   1

 dfpt_looppert : COMMENT -
  In a d/dk calculation, iscf is set to -3 automatically.
 The set of symmetries contains only one element for this perturbation.
 symkpt : not enough symmetry to change the number of k points.

 Initialisation of the first-order wave-functions :
  ireadwf=   0

--- !BeginCycle
iteration_state: {dtset: 1, }
solver: {iscf: 7, nstep: 2000, nline: 4, wfoptalg: 0, }
tolerances: {tolwfr: 1.00E-20, }
...

     iter   2DEtotal(Ha)        deltaE(Ha) residm    vres2
[...]
 ETOT 24  -24.054846540663      3.553E-15 1.804E-19 0.000E+00
 ETOT 25  -24.054846540663      0.000E+00 2.665E-20 0.000E+00
 ETOT 26  -24.054846540663      3.553E-15 9.969E-21 0.000E+00

 At SCF step   26   max residual=  9.97E-21 < tolwfr=  1.00E-20 =>converged.

 ----iterations are completed or convergence reached----

 dfpt_looppert: DFPT cycle converged with prtwf=-1. Will skip output of the 1st-order WFK file.
 dfpt_looppert : ek2=    4.1079023652E+01
          f-sum rule ratio=    1.0488857474E+00
 prteigrs : about to open file /scratch/users/j/a/jabreu/flow_simple_10atoms/flow/w472/t1/tmpdata/tmp_1WF1_EIG
 Expectation of eigenvalue derivatives (hartree) for nkpt=   2  k points:
  (in case of degenerate eigenvalues, averaged derivative)
 kpt#   1, nband= 49, wtk=  0.50000, kpt=  0.0000  0.0000  0.0000 (reduced coord)
  -0.00000   -0.00000    0.00000   -0.00000    0.00000    0.00000    0.00000   -0.00000
  -0.00000   -0.00000    0.00000    0.00000    0.00000    0.00000    0.00000   -0.00000
   0.00000    0.00000    0.00000    0.00000   -0.00000   -0.00000   -0.00000   -0.00000
   0.00000   -0.00000    0.00000    0.00000    0.00000   -0.00000   -0.00000    0.00000
  -0.00000    0.00000    0.00000   -0.00000    0.00000   -0.00000    0.00000   -0.00000
   0.00000   -0.00000   -0.00000    0.00000   -0.00000    0.00000   -0.00000   -0.00000
   0.00002
 prteigrs : prtvol=0 or 1, do not print more k-points.

 Eight components of 2nd-order total energy (hartree) are
 1,2,3: 0th-order hamiltonian combined with 1st-order wavefunctions
     kin0=   3.03211288E+01 eigvalue=   5.86141395E-01  local=  -1.87974824E+01
 4,5,6: 1st-order hamiltonian combined with 1st and 0th-order wfs
     kin1=  -4.30872024E+01  Hartree=   0.00000000E+00     xc=   0.00000000E+00
 7,8,9: eventually, occupation + non-local contributions
    edocc=   7.25179182E+00     enl0=   4.69326693E+00   enl1=  -5.02249065E+00
 1-9 gives the relaxation energy (to be shifted if some occ is /=2.0)
   erelax=  -2.40548465E+01
  No Ewald or frozen-wf contrib.: the relaxation energy is the total one
 2DEtotal=   -0.2405484654E+02 Ha. Also 2DEtotal=   -0.654565662911E+03 eV
    (  non-var. 2DEtotal :   -2.4054846540E+01 Ha)

 Perturbation wavevector (in red.coord.)   0.000000  0.000000  0.000000
 Perturbation : derivative vs k along direction   2
 The set of symmetries contains only one element for this perturbation.
 symkpt : not enough symmetry to change the number of k points.

[...]

 Perturbation wavevector (in red.coord.)   0.000000  0.000000  0.000000
 Perturbation : derivative vs k along direction   3
 The set of symmetries contains only one element for this perturbation.
 symkpt : not enough symmetry to change the number of k points.

 Initialisation of the first-order wave-functions :
  ireadwf=   0

--- !BeginCycle
iteration_state: {dtset: 1, }
solver: {iscf: 7, nstep: 2000, nline: 4, wfoptalg: 0, }
tolerances: {tolwfr: 1.00E-20, }
...

     iter   2DEtotal(Ha)        deltaE(Ha) residm    vres2
-ETOT  1  -41.054536837770     -4.105E+01 5.456E-02 0.000E+00
 ETOT  2  -41.118991399112     -6.445E-02 6.479E-03 0.000E+00
 ETOT  3  -41.119528928728     -5.375E-04 7.271E-04 0.000E+00
 ETOT  4  -41.119535772924     -6.844E-06 1.647E-04 0.000E+00
 ETOT  5  -41.119535886593     -1.137E-07 2.422E-05 0.000E+00
 ETOT  6  -41.119535888760     -2.167E-09 6.235E-06 0.000E+00
 ETOT  7  -41.119535888807     -4.673E-11 9.573E-07 0.000E+00
 ETOT  8  -41.119535888808     -1.023E-12 2.507E-07 0.000E+00
 ETOT  9  -41.119535888808     -6.395E-14 3.894E-08 0.000E+00
 ETOT 10  -41.119535888808      2.132E-14 1.026E-08 0.000E+00
 ETOT 11  -41.119535888808      1.421E-14 1.602E-09 0.000E+00
 ETOT 12  -41.119535888808     -1.421E-14 4.230E-10 0.000E+00
 ETOT 13  -41.119535888808      2.132E-14 6.634E-11 0.000E+00
 ETOT 14  -41.119535888808      0.000E+00 1.754E-11 0.000E+00
 ETOT 15  -41.119535888808      0.000E+00 2.761E-12 0.000E+00
 ETOT 16  -41.119535888808     -1.421E-14 7.312E-13 0.000E+00
 ETOT 17  -41.119535888808      1.421E-14 1.154E-13 0.000E+00
 ETOT 18  -41.119535888808      7.105E-15 3.060E-14 0.000E+00
 ETOT 19  -41.119535888808      0.000E+00 4.847E-15 0.000E+00
 ETOT 20  -41.119535888808      0.000E+00 1.286E-15 0.000E+00
 ETOT 21  -41.119535888808     -7.105E-15 2.043E-16 0.000E+00
 ETOT 22  -41.119535888808     -7.105E-15 5.422E-17 0.000E+00
 ETOT 23  -41.119535888808     -1.421E-14 8.640E-18 0.000E+00
 ETOT 24  -41.119535888808      7.105E-15 2.295E-18 0.000E+00
 ETOT 25  -41.119535888808      2.132E-14 3.667E-19 0.000E+00
 ETOT 26  -41.119535888808      0.000E+00 9.750E-20 0.000E+00
 ETOT 27  -41.119535888808      0.000E+00 1.562E-20 0.000E+00
 ETOT 28  -41.119535888808      0.000E+00 9.947E-21 0.000E+00

 At SCF step   28   max residual=  9.95E-21 < tolwfr=  1.00E-20 =>converged.

 ----iterations are completed or convergence reached----

 dfpt_looppert: DFPT cycle converged with prtwf=-1. Will skip output of the 1st-order WFK file.
 dfpt_looppert : ek2=    7.0606065137E+01
          f-sum rule ratio=    1.0430046566E+00
 prteigrs : about to open file /scratch/users/j/a/jabreu/flow_simple_10atoms/flow/w472/t1/tmpdata/tmp_1WF1_EIG
 Expectation of eigenvalue derivatives (hartree) for nkpt=   2  k points:
  (in case of degenerate eigenvalues, averaged derivative)
 kpt#   1, nband= 49, wtk=  0.50000, kpt=  0.0000  0.0000  0.0000 (reduced coord)
  -0.00000    0.00000    0.00000    0.00000    0.00000    0.00000    0.00000   -0.00000
   0.00000    0.00000    0.00000   -0.00000    0.00000    0.00000    0.00000    0.00000
   0.00000    0.00000    0.00000   -0.00000   -0.00000    0.00000    0.00000    0.00000
   0.00000   -0.00000    0.00000    0.00000    0.00000   -0.00000   -0.00000   -0.00000
  -0.00000   -0.00000    0.00000   -0.00000    0.00000   -0.00000    0.00000   -0.00000
   0.00000   -0.00000   -0.00000    0.00000   -0.00000    0.00000    0.00000    0.00000
   0.00000
 prteigrs : prtvol=0 or 1, do not print more k-points.

 Eight components of 2nd-order total energy (hartree) are
 1,2,3: 0th-order hamiltonian combined with 1st-order wavefunctions
     kin0=   5.63678176E+01 eigvalue=   8.43607270E-01  local=  -3.57850701E+01
 4,5,6: 1st-order hamiltonian combined with 1st and 0th-order wfs
     kin1=  -7.36424547E+01  Hartree=   0.00000000E+00     xc=   0.00000000E+00
 7,8,9: eventually, occupation + non-local contributions
    edocc=   1.06960013E+01     enl0=   8.99717985E+00   enl1=  -8.59661705E+00
 1-9 gives the relaxation energy (to be shifted if some occ is /=2.0)
   erelax=  -4.11195359E+01
  No Ewald or frozen-wf contrib.: the relaxation energy is the total one
 2DEtotal=   -0.4111953589E+02 Ha. Also 2DEtotal=   -0.111891947522E+04 eV
    (  non-var. 2DEtotal :   -4.1119535888E+01 Ha)

 CALCULATION OF EFFECTIVE MASSES
 NOTE : Additional infos (eff. mass eigenvalues, eigenvectors and, if degenerate, average mass) are available in stdout.

 K-point ( 0.000, 0.000, 0.000) | band =    40
 Effective mass tensor:
             -0.9342881946             -0.2126943728              0.6656373647
             -0.2126943728             -1.5475420113              0.4406519331
              0.6656373647              0.4406519331             -1.9920374086
 Effective mass tensor eigenvalues:
             -2.5517404168             -1.3091299395             -0.6129972582
 Angular average effective mass 1/(<1/m>)=  -1.0763937555
 Angular average effective mass for Frohlich model (<m**0.5>)**2=  -1.1873912701
 Effective masses along directions: (cart. coord. / red. coord. -> eff. mass)
    1:   1.000000  0.000000  0.000000 /   0.982087 -0.188427  0.000000 ->  -0.7089118881
    2:   0.000000  1.000000  0.000000 /   0.000000  1.000000  0.000000 ->  -1.4440491272
    3:   0.000000  0.000000  1.000000 /  -0.455963 -0.504847  0.732958 ->  -1.4620429896
    4:   0.577350  0.577350  0.577350 /   0.157534 -0.127078  0.979303 ->  -0.7816358528
    5:   0.000000  0.707107  0.707107 /  -0.528138  0.017366  0.848981 ->  -1.2192958473
    6:   0.707107  0.000000  0.707107 /   0.122310 -0.637917  0.760330 ->  -0.6646443608
    7:   0.707107  0.707107  0.000000 /   0.813848  0.581078  0.000000 ->  -1.0122638276

 K-point ( 0.500, 0.500,-0.500) | band =    41
 Effective mass tensor:
              0.7346005802              0.0100330514              0.1345657279
              0.0100330514              0.4196892153             -0.0207860987
              0.1345657279             -0.0207860987              0.5207645861
 Effective mass tensor eigenvalues:
              0.4084430232              0.4670584951              0.7995528634
 Angular average effective mass 1/(<1/m>)=   0.5136915594
 Angular average effective mass for Frohlich model (<m**0.5>)**2=   0.5254727736
 Effective masses along directions: (cart. coord. / red. coord. -> eff. mass)
    1:   1.000000  0.000000  0.000000 /   0.982087 -0.188427  0.000000 ->   0.6992622432
    2:   0.000000  1.000000  0.000000 /   0.000000  1.000000  0.000000 ->   0.4185204798
    3:   0.000000  0.000000  1.000000 /  -0.455963 -0.504847  0.732958 ->   0.4948945666
    4:   0.577350  0.577350  0.577350 /   0.157534 -0.127078  0.979303 ->   0.5758653218
    5:   0.000000  0.707107  0.707107 /  -0.528138  0.017366  0.848981 ->   0.4321592780
    6:   0.707107  0.000000  0.707107 /   0.122310 -0.637917  0.760330 ->   0.7387032715
    7:   0.707107  0.707107  0.000000 /   0.813848  0.581078  0.000000 ->   0.5384650605

 END OF EFFECTIVE MASSES SECTION

 ---- first-order wavefunction calculations are completed ----

 Total localisation tensor (bohr^2) in cartesian coordinates
  WARNING : still subject to testing - especially symmetries.
      direction              matrix element
   alpha     beta       real part   imaginary part
     1        1       1.5407796084    0.0000000000
     1        2      -0.2926448995    0.0000000000
     1        3      -0.8907596049    0.0000000000
     2        1      -0.2926448995    0.0000000000
     2        2       1.3816714511    0.0000000000
     2        3      -1.3418217362    0.0000000000
     3        1      -0.8907596049    0.0000000000
     3        2      -1.3418217362    0.0000000000
     3        3       6.3600673289    0.0000000000

 respfn : d/dk was computed, but no 2DTE, so no DDB output.

== END DATASET(S) ==============================================================

 -outvars: echo values of variables after computation  --------
            acell      1.0000000000E+00  1.0000000000E+00  1.0000000000E+00 Bohr
              amu      1.37327000E+02  1.26904470E+02  1.59994000E+01
             ecut      4.40000000E+01 Hartree
           etotal     -4.1119535889E+01
            fcart      0.0000000000E+00  0.0000000000E+00  0.0000000000E+00
                       0.0000000000E+00  0.0000000000E+00  0.0000000000E+00
                       0.0000000000E+00  0.0000000000E+00  0.0000000000E+00
                       0.0000000000E+00  0.0000000000E+00  0.0000000000E+00
                       0.0000000000E+00  0.0000000000E+00  0.0000000000E+00
                       0.0000000000E+00  0.0000000000E+00  0.0000000000E+00
                       0.0000000000E+00  0.0000000000E+00  0.0000000000E+00
                       0.0000000000E+00  0.0000000000E+00  0.0000000000E+00
                       0.0000000000E+00  0.0000000000E+00  0.0000000000E+00
                       0.0000000000E+00  0.0000000000E+00  0.0000000000E+00
-          fftalg         512
           irdden           1
           irdwfk           1
           istwfk        1    0
              ixc     -116133
              kpt      0.00000000E+00  0.00000000E+00  0.00000000E+00
                       5.00000000E-01  5.00000000E-01 -5.00000000E-01
           kptopt           0
P           mkmem           2
P          mkqmem           2
P          mk1mem           2
            natom          10
            nband          49
           nbdbuf           4
            ngfft         100     100     100
             nkpt           2
            nstep        2000
             nsym           8
           ntypat           3
              occ      2.000000  2.000000  2.000000  2.000000  2.000000  2.000000
                       2.000000  2.000000  2.000000  2.000000  2.000000  2.000000
                       2.000000  2.000000  2.000000  2.000000  2.000000  2.000000
                       2.000000  2.000000  2.000000  2.000000  2.000000  2.000000
                       2.000000  2.000000  2.000000  2.000000  2.000000  2.000000
                       2.000000  2.000000  2.000000  2.000000  2.000000  2.000000
                       2.000000  2.000000  2.000000  2.000000  0.000000  0.000000
                       0.000000  0.000000  0.000000  0.000000  0.000000  0.000000
                       0.000000
        optdriver           1
            prtwf          -1
            rfdir           1       1       1
           rfelfd           2
            rprim      1.2675325940E+01  0.0000000000E+00 -1.0071067135E+01
                      -2.4319372647E+00  1.1481964303E+01 -1.1150805253E+01
                       0.0000000000E+00  0.0000000000E+00  1.6189202603E+01
          spgroup          72
           strten      0.0000000000E+00  0.0000000000E+00  0.0000000000E+00
                       0.0000000000E+00  0.0000000000E+00  0.0000000000E+00
           symrel      1  0  0   0  1  0   0  0  1      -1  0  0   0 -1  0   0  0 -1
                       0  0  1  -1 -1 -1   1  0  0       0  0 -1   1  1  1  -1  0  0
                      -1 -1 -1   0  0  1   0  1  0       1  1  1   0  0 -1   0 -1  0
                       0  1  0   1  0  0  -1 -1 -1       0 -1  0  -1  0  0   1  1  1
            tnons      0.0000000  0.0000000  0.0000000    -0.0000000 -0.0000000 -0.0000000
                      -0.0000000  0.5000000  0.5000000    -0.0000000  0.5000000  0.5000000
                      -0.0000000  0.0000000  0.0000000     0.0000000 -0.0000000 -0.0000000
                      -0.0000000  0.5000000  0.5000000    -0.0000000  0.5000000  0.5000000
           tolwfr      1.00000000E-20
            typat      1  1  1  1  2  2  2  2  3  3
           useylm           1
              wtk        0.50000    0.50000
           xangst      5.3972996347E+00  3.6097965358E+00 -5.6211646038E+00
                       2.3268190854E-02  2.4661972832E+00  2.9579904550E+00
                       3.7335991542E+00  5.5041941926E+00 -2.1743717089E+00
                       1.6869686713E+00  5.7179962631E-01 -4.8880243987E-01
                       2.4602353094E+00  3.9468121659E+00  7.6010582862E-01
                       5.2253555575E+00  9.0881525647E-01  4.5108641177E-01
                       1.9521226808E-01  5.1671785625E+00 -3.1142605606E+00
                       2.9603325161E+00  2.1291816530E+00 -3.4232799774E+00
                      -9.6519432990E-01  4.5569953642E+00  1.9996537838E+00
                      -3.2173144330E-01  1.5189984547E+00  6.6655126127E-01
            xcart      1.0199418167E+01  6.8215268481E+00 -1.0622461649E+01
                       4.3970508321E-02  4.6604374548E+00  5.5897918636E+00
                       7.0554798915E+00  1.0401419606E+01 -4.1089670410E+00
                       3.1879087835E+00  1.0805446966E+00 -9.2370274444E-01
                       4.6491709572E+00  7.4583940916E+00  1.4363918481E+00
                       9.8744909506E+00  1.7174119401E+00  8.5242978051E-01
                       3.6889772445E-01  9.7645523628E+00 -5.8850995659E+00
                       5.5942177178E+00  4.0235702113E+00 -6.4690616335E+00
                      -1.8239529485E+00  8.6114732272E+00  3.7787980120E+00
                      -6.0798431617E-01  2.8704910757E+00  1.2595993373E+00
             xred      9.1865500000E-01  5.9410800000E-01  3.2454700000E-01
                       8.1345000000E-02  4.0589200000E-01  6.7545300000E-01
                       7.3043900000E-01  9.0589200000E-01  8.2454700000E-01
                       2.6956100000E-01  9.4108000000E-02  1.7545300000E-01
                       4.9141900000E-01  6.4957475000E-01  8.4184425000E-01
                       8.0773050000E-01  1.4957475000E-01  6.5815575000E-01
                       1.9226950000E-01  8.5042525000E-01  3.4184425000E-01
                       5.0858100000E-01  3.5042525000E-01  1.5815575000E-01
                      -3.4694469520E-18  7.5000000000E-01  7.5000000000E-01
                      -3.4694469520E-18  2.5000000000E-01  2.5000000000E-01
            znucl       56.00000   53.00000    8.00000

- Timing analysis has been suppressed with timopt=0

 Suggested references for the acknowledgment of ABINIT usage.

 Calculation completed.
.Delivered   2 WARNINGs and   5 COMMENTs to log file.