.Version 9.5.2 of ABINIT

 ABINIT is a project of the Universite Catholique de Louvain,
 Corning Inc. and other collaborators, see ~abinit/doc/developers/contributors.txt .
 acknowledgments of the ABINIT effort.

.Starting date : Mon 31 May 2021.
- ( at 22h03 )

- input  file    -> /scratch/users/j/a/jabreu/flow_simple_11atoms/flow/w334/t1/run.abi
- output file    -> /scratch/users/j/a/jabreu/flow_simple_11atoms/flow/w334/t1/run.abo
- root for input  files -> /scratch/users/j/a/jabreu/flow_simple_11atoms/flow/w334/t1/indata/in
- root for output files -> /scratch/users/j/a/jabreu/flow_simple_11atoms/flow/w334/t1/outdata/out

 Symmetries : space group I4_1/a m d (#141); Bravais tI (body-center tetrag.)
     intxc =       0      iscf =       7    lmnmax =      18     lnmax =       6
     mgfft =      64  mpssoang =       3    mqgrid =    3001     natom =      12
  nloc_mem =       1    nspden =       1   nspinor =       1    nsppol =       1
      nsym =      16    n1xccc =    2501    ntypat =       3    occopt =       1
   xclevel =       2
-    mband =          59        mffmem =           1         mkmem =           2
-   mkqmem =           2        mk1mem =           2           mpw =       12917
      nfft =      262144          nkpt =           2
  Rough estimation (10% accuracy) of disk space for files :

------------- Echo of variables that govern the present computation ------------
-
- outvars: echo of selected default values
-   iomode0 =  0 , fftalg0 =512 , wfoptalg0 =  0
-
- outvars: echo of global parameters not present in the input file
-  max_nthreads =    0
-
 -outvars: echo values of preprocessed input variables --------
            acell      1.0000000000E+00  1.0000000000E+00  1.0000000000E+00 Bohr
              amu      4.49559100E+01  7.49215900E+01  1.59994000E+01
             ecut      4.40000000E+01 Hartree
-          fftalg         512
           irdden           1
           irdwfk           1
           istwfk        0    1
              ixc     -116133
              kpt      7.86729062E-02  7.86729062E-02 -7.86729062E-02
                       0.00000000E+00  0.00000000E+00  0.00000000E+00
           kptopt           0
P           mkmem           2
P          mkqmem           2
P          mk1mem           2
            natom          12
            nband          59
           nbdbuf           4
            ngfft          64      64      64
             nkpt           2
            nstep        2000
             nsym          16
           ntypat           3
              occ      2.000000  2.000000  2.000000  2.000000  2.000000  2.000000
                       2.000000  2.000000  2.000000  2.000000  2.000000  2.000000
                       2.000000  2.000000  2.000000  2.000000  2.000000  2.000000
                       2.000000  2.000000  2.000000  2.000000  2.000000  2.000000
                       2.000000  2.000000  2.000000  2.000000  2.000000  2.000000
                       2.000000  2.000000  2.000000  2.000000  2.000000  2.000000
                       2.000000  2.000000  2.000000  2.000000  2.000000  2.000000
                       2.000000  2.000000  2.000000  2.000000  2.000000  2.000000
                       2.000000  2.000000  0.000000  0.000000  0.000000  0.000000
                       0.000000  0.000000  0.000000  0.000000  0.000000
        optdriver           1
            prtwf          -1
            rfdir           1       1       1
           rfelfd           2
            rprim      1.0202703156E+01  0.0000000000E+00 -3.1159745229E+00
                      -5.5898746967E+00  8.5351304949E+00 -3.1159745229E+00
                       0.0000000000E+00  0.0000000000E+00  1.0667916803E+01
          spgroup         141
           symrel      1  0  0   0  1  0   0  0  1      -1  0  0   0 -1  0   0  0 -1
                      -1 -1 -1   0  0  1   0  1  0       1  1  1   0  0 -1   0 -1  0
                       0  1  0   1  0  0  -1 -1 -1       0 -1  0  -1  0  0   1  1  1
                       0  0  1  -1 -1 -1   1  0  0       0  0 -1   1  1  1  -1  0  0
                       0  1  0   1  0  0   0  0  1       0 -1  0  -1  0  0   0  0 -1
                      -1 -1 -1   0  0  1   1  0  0       1  1  1   0  0 -1  -1  0  0
                       1  0  0   0  1  0  -1 -1 -1      -1  0  0   0 -1  0   1  1  1
                       0  0  1  -1 -1 -1   0  1  0       0  0 -1   1  1  1   0 -1  0
            tnons      0.0000000  0.0000000  0.0000000     0.2500000 -0.2500000  0.5000000
                       0.2500000 -0.2500000  0.5000000     0.0000000  0.0000000  0.0000000
                       0.0000000  0.0000000  0.0000000     0.2500000 -0.2500000  0.5000000
                       0.2500000 -0.2500000  0.5000000     0.0000000  0.0000000  0.0000000
                       0.2500000 -0.2500000  0.5000000     0.0000000  0.0000000  0.0000000
                       0.0000000  0.0000000  0.0000000     0.2500000 -0.2500000  0.5000000
                       0.2500000 -0.2500000  0.5000000     0.0000000  0.0000000  0.0000000
                       0.0000000  0.0000000  0.0000000     0.2500000 -0.2500000  0.5000000
           tolwfr      1.00000000E-20
            typat      1  1  2  2  3  3  3  3  3  3  3  3
           useylm           1
              wtk        0.50000    0.50000
           xangst      1.2205018439E+00  2.2582982651E+00 -1.6489027001E+00
                       3.3097699100E+00  1.1291491326E+00  1.1737065176E+00
                      -8.6876622223E-01  3.3874473977E+00  1.1737065176E+00
                       3.7463351700E-17  0.0000000000E+00  6.6901582681E-17
                       3.0669669265E+00  2.5469866947E+00 -6.0843989833E-01
                      -3.1391875275E-01  2.5469866947E+00  2.5342796291E+00
                       2.5396293988E+00  2.8319873232E+00  2.2141693193E+00
                       1.4633048275E+00  8.4046070299E-01  1.3324371586E-01
                       4.3919549072E+00  3.6878010669E-03 -2.8832958856E-01
                       1.9906423551E+00  5.5546007448E-01  2.9558529335E+00
                       4.8441905067E+00  8.4046070299E-01  2.6357426238E+00
                       1.3831684672E-01  3.3837595966E+00 -1.8686659390E-01
            xcart      2.3064142297E+00  4.2675652475E+00 -3.1159745229E+00
                       6.2545586928E+00  2.1337826237E+00  2.2179838787E+00
                      -1.6417302335E+00  6.4013478712E+00  2.2179838787E+00
                       7.0795474733E-17  0.0000000000E+00  1.2642566912E-16
                       5.7957275497E+00  4.8131073171E+00 -1.1497847762E+00
                      -5.9322047068E-01  4.8131073171E+00  4.7890944432E+00
                       4.7992040427E+00  5.3516804527E+00  4.1841736254E+00
                       2.7652453728E+00  1.5882405541E+00  2.5179413191E-01
                       8.2995919626E+00  6.9689340491E-03 -5.4486395838E-01
                       3.7617688798E+00  1.0496674185E+00  5.5857525335E+00
                       9.1541933932E+00  1.5882405541E+00  4.9808317157E+00
                       2.6138095987E-01  6.3943789371E+00 -3.5312668587E-01
             xred      5.0000000000E-01  5.0000000000E-01  6.9388939039E-18
                       7.5000000000E-01  2.5000000000E-01  5.0000000000E-01
                       2.5000000000E-01  7.5000000000E-01  5.0000000000E-01
                       6.9388939039E-18  0.0000000000E+00  1.3877787808E-17
                       8.7701800000E-01  5.6391725000E-01  3.1310075000E-01
                       2.5081650000E-01  5.6391725000E-01  6.8689925000E-01
                       8.1391725000E-01  6.2701800000E-01  8.1310075000E-01
                       3.7298200000E-01  1.8608275000E-01  1.8689925000E-01
                       8.1391725000E-01  8.1650000000E-04  1.8689925000E-01
                       4.3608275000E-01  1.2298200000E-01  6.8689925000E-01
                       9.9918350000E-01  1.8608275000E-01  8.1310075000E-01
                       4.3608275000E-01  7.4918350000E-01  3.1310075000E-01
            znucl       21.00000   33.00000    8.00000

 chkinp: Checking input parameters for consistency.

== DATASET  1 ==================================================================
-   mpi_nproc: 1, omp_nthreads: -1 (-1 if OMP is not activated)

--- !DatasetInfo
iteration_state: {dtset: 1, }
dimensions: {natom: 12, nkpt: 2, mband: 59, nsppol: 1, nspinor: 1, nspden: 1, mpw: 12917, }
cutoff_energies: {ecut:  44.0, pawecutdg:  -1.0, }
electrons: {nelect:   1.00000000E+02, charge:   0.00000000E+00, occopt:   1.00000000E+00, tsmear:   1.00000000E-02, }
meta: {optdriver: 1, rfelfd: 2, }
...

 Real(R)+Recip(G) space primitive vectors, cartesian coordinates (Bohr,Bohr^-1):
 R(1)= 10.2027032  0.0000000 -3.1159745  G(1)=  0.0980132  0.0641914  0.0000000
 R(2)= -5.5898747  8.5351305 -3.1159745  G(2)=  0.0000000  0.1171628  0.0000000
 R(3)=  0.0000000  0.0000000 10.6679168  G(3)=  0.0286285  0.0529715  0.0937390
 Unit cell volume ucvol=  9.2897716E+02 bohr^3
 Angles (23,13,12)=  1.06983026E+02  1.06983026E+02  1.14571171E+02 degrees

 getcut: wavevector=  0.0000  0.0000  0.0000  ngfft=  64  64  64
         ecut(hartree)=     44.000   => boxcut(ratio)=   2.00959

--- Pseudopotential description ------------------------------------------------
- pspini: atom type   1  psp file is /scratch/users/j/a/jabreu/pseudos/PBEsol/Sc.psp8
- pspatm: opening atomic psp file    /scratch/users/j/a/jabreu/pseudos/PBEsol/Sc.psp8
- Sc    ONCVPSP-3.3.0  r_core=   1.35663   1.35663   1.66161
- 21.00000  11.00000    180112                znucl, zion, pspdat
    8 -116133    2    4       600   0.00000   pspcod,pspxc,lmax,lloc,mmax,r2well
    5.99000000000000    5.00000000000000    0.00000000000000   rchrg,fchrg,qchrg
     nproj     2     2     2
     extension_switch     1
  pspatm : epsatm=   13.58981094
         --- l  ekb(1:nproj) -->
             0   10.810997    0.948773
             1    2.871172    0.364831
             2   -4.789751   -1.321945
 pspatm: atomic psp has been read  and splines computed

- pspini: atom type   2  psp file is /scratch/users/j/a/jabreu/pseudos/PBEsol/As.psp8
- pspatm: opening atomic psp file    /scratch/users/j/a/jabreu/pseudos/PBEsol/As.psp8
- As    ONCVPSP-3.3.0  r_core=   1.76603   1.70395   1.80867
- 33.00000  15.00000    180112                znucl, zion, pspdat
    8 -116133    2    4       600   0.00000   pspcod,pspxc,lmax,lloc,mmax,r2well
    5.99000000000000    5.00000000000000    0.00000000000000   rchrg,fchrg,qchrg
     nproj     2     2     2
     extension_switch     1
  pspatm : epsatm=   28.79155382
         --- l  ekb(1:nproj) -->
             0    8.270760    0.868950
             1    4.919053    0.756587
             2  -10.048665   -4.076802
 pspatm: atomic psp has been read  and splines computed

- pspini: atom type   3  psp file is /scratch/users/j/a/jabreu/pseudos/PBEsol/O.psp8
- pspatm: opening atomic psp file    /scratch/users/j/a/jabreu/pseudos/PBEsol/O.psp8
- O     ONCVPSP-3.3.0  r_core=   1.35509   1.45563   1.26150
-  8.00000   6.00000    180112                znucl, zion, pspdat
    8 -116133    2    4       600   0.00000   pspcod,pspxc,lmax,lloc,mmax,r2well
[...]
 ETOT 26  -74.576455308725     -1.421E-14 7.870E-07 0.000E+00
 ETOT 27  -74.576455308725      0.000E+00 8.792E-07 0.000E+00
 ETOT 28  -74.576455308725      0.000E+00 4.159E-07 0.000E+00
 ETOT 29  -74.576455308725     -1.421E-14 4.662E-07 0.000E+00
 ETOT 30  -74.576455308725      1.421E-14 2.198E-07 0.000E+00
 ETOT 31  -74.576455308725     -4.263E-14 2.472E-07 0.000E+00
 ETOT 32  -74.576455308725      4.263E-14 1.162E-07 0.000E+00
 ETOT 33  -74.576455308725     -2.842E-14 1.311E-07 0.000E+00
 ETOT 34  -74.576455308725      0.000E+00 6.138E-08 0.000E+00
 ETOT 35  -74.576455308725      2.842E-14 6.951E-08 0.000E+00
 ETOT 36  -74.576455308725      0.000E+00 3.243E-08 0.000E+00
 ETOT 37  -74.576455308725      0.000E+00 3.686E-08 0.000E+00
 ETOT 38  -74.576455308725      0.000E+00 1.714E-08 0.000E+00
 ETOT 39  -74.576455308725      0.000E+00 1.954E-08 0.000E+00
 ETOT 40  -74.576455308725      0.000E+00 9.054E-09 0.000E+00
 ETOT 41  -74.576455308725     -2.842E-14 1.036E-08 0.000E+00
 ETOT 42  -74.576455308725      2.842E-14 4.784E-09 0.000E+00
 ETOT 43  -74.576455308725      1.421E-14 5.492E-09 0.000E+00
 ETOT 44  -74.576455308725      0.000E+00 2.527E-09 0.000E+00
 ETOT 45  -74.576455308725     -1.421E-14 2.912E-09 0.000E+00
 ETOT 46  -74.576455308725      2.842E-14 1.335E-09 0.000E+00
 ETOT 47  -74.576455308725      0.000E+00 1.543E-09 0.000E+00
 ETOT 48  -74.576455308725     -2.842E-14 7.056E-10 0.000E+00
 ETOT 49  -74.576455308725      2.842E-14 8.179E-10 0.000E+00
 ETOT 50  -74.576455308725      0.000E+00 3.728E-10 0.000E+00
 ETOT 51  -74.576455308725     -1.421E-14 4.335E-10 0.000E+00
 ETOT 52  -74.576455308725      1.421E-14 1.970E-10 0.000E+00
 ETOT 53  -74.576455308725      0.000E+00 2.297E-10 0.000E+00
 ETOT 54  -74.576455308725      0.000E+00 1.041E-10 0.000E+00
 ETOT 55  -74.576455308725     -4.263E-14 1.217E-10 0.000E+00
 ETOT 56  -74.576455308725      1.421E-14 5.500E-11 0.000E+00
 ETOT 57  -74.576455308725      2.842E-14 6.451E-11 0.000E+00
 ETOT 58  -74.576455308725      0.000E+00 2.907E-11 0.000E+00
 ETOT 59  -74.576455308725      0.000E+00 3.418E-11 0.000E+00
 ETOT 60  -74.576455308725     -2.842E-14 1.536E-11 0.000E+00
 ETOT 61  -74.576455308725     -2.842E-14 1.811E-11 0.000E+00
[...]
 ETOT  114  -74.576455308725      0.000E+00 5.290E-19 0.000E+00
 ETOT  115  -74.576455308725      0.000E+00 6.485E-19 0.000E+00
 ETOT  116  -74.576455308725      0.000E+00 2.802E-19 0.000E+00
 ETOT  117  -74.576455308725      1.421E-14 3.437E-19 0.000E+00
 ETOT  118  -74.576455308725     -1.421E-14 1.484E-19 0.000E+00
 ETOT  119  -74.576455308725      0.000E+00 1.822E-19 0.000E+00
 ETOT  120  -74.576455308725      0.000E+00 7.863E-20 0.000E+00
 ETOT  121  -74.576455308725      1.421E-14 9.658E-20 0.000E+00
 ETOT  122  -74.576455308725      0.000E+00 4.165E-20 0.000E+00
 ETOT  123  -74.576455308725      1.421E-14 5.120E-20 0.000E+00
 ETOT  124  -74.576455308725      0.000E+00 2.207E-20 0.000E+00
 ETOT  125  -74.576455308725      0.000E+00 2.714E-20 0.000E+00
 ETOT  126  -74.576455308725     -1.421E-14 1.169E-20 0.000E+00
 ETOT  127  -74.576455308725      1.421E-14 1.439E-20 0.000E+00
 ETOT  128  -74.576455308725     -1.421E-14 9.993E-21 0.000E+00

 At SCF step  128   max residual=  9.99E-21 < tolwfr=  1.00E-20 =>converged.

 ----iterations are completed or convergence reached----

 dfpt_looppert: DFPT cycle converged with prtwf=-1. Will skip output of the 1st-order WFK file.
 dfpt_looppert : ek2=    9.8005726048E+01
          f-sum rule ratio=    1.0753746695E+00
 prteigrs : about to open file /scratch/users/j/a/jabreu/flow_simple_11atoms/flow/w334/t1/tmpdata/tmp_1WF1_EIG
 Expectation of eigenvalue derivatives (hartree) for nkpt=   2  k points:
  (in case of degenerate eigenvalues, averaged derivative)
 kpt#   1, nband= 59, wtk=  0.50000, kpt=  0.0787  0.0787 -0.0787 (reduced coord)
  -0.00000    0.00000   -0.00000   -0.00000   -0.00000   -0.00000   -0.00000   -0.00000
  -0.00000   -0.00000    0.00000   -0.00000    0.00000    0.00000   -0.00000    0.00000
   0.00000    0.00000    0.00000   -0.00000   -0.00000    0.00000   -0.00000   -0.00000
  -0.00000   -0.00000    0.00000   -0.00000    0.00000   -0.00000   -0.00000    0.00000
  -0.00000   -0.00000    0.00000    0.00000    0.00000    0.00000   -0.00000   -0.00000
  -0.00000   -0.00000    0.00000    0.00000    0.00000   -0.00000   -0.00000   -0.00000
  -0.00000   -0.00000   -0.00000    0.00000    0.00000   -0.00000   -0.00000    0.00000
   0.00003    0.00003   -0.00000
 prteigrs : prtvol=0 or 1, do not print more k-points.

 Eight components of 2nd-order total energy (hartree) are
 1,2,3: 0th-order hamiltonian combined with 1st-order wavefunctions
     kin0=   1.17196909E+02 eigvalue=   5.78306578E+00  local=  -5.46506010E+01
 4,5,6: 1st-order hamiltonian combined with 1st and 0th-order wfs
     kin1=  -1.05392875E+02  Hartree=   0.00000000E+00     xc=   0.00000000E+00
 7,8,9: eventually, occupation + non-local contributions
    edocc=   7.45997955E+00     enl0=  -1.21289823E+00   enl1=  -4.37600354E+01
 1-9 gives the relaxation energy (to be shifted if some occ is /=2.0)
   erelax=  -7.45764553E+01
  No Ewald or frozen-wf contrib.: the relaxation energy is the total one
 2DEtotal=   -0.7457645531E+02 Ha. Also 2DEtotal=   -0.202932855232E+04 eV
    (  non-var. 2DEtotal :   -7.4576455308E+01 Ha)

 CALCULATION OF EFFECTIVE MASSES
 NOTE : Additional infos (eff. mass eigenvalues, eigenvectors and, if degenerate, average mass) are available in stdout.

 K-point ( 0.079, 0.079,-0.079) | band =    50
 Effective mass tensor:
             -2.5299512645             -1.2539137853              0.9155473875
             -1.2539137853             -4.1723920484              1.6940381502
              0.9155473875              1.6940381502             -3.0891740302
 Effective mass tensor eigenvalues:
             -6.0869758816             -1.8522717293             -1.8522697322
 Angular average effective mass 1/(<1/m>)=  -2.4114961678
 Angular average effective mass for Frohlich model (<m**0.5>)**2=  -2.5909192853
 Effective masses along directions: (cart. coord. / red. coord. -> eff. mass)
    1:   1.000000  0.000000  0.000000 /   0.876999 -0.480492  0.000000 ->  -2.0843244865
    2:   0.000000  1.000000  0.000000 /   0.000000  1.000000  0.000000 ->  -2.9931418560
    3:   0.000000  0.000000  1.000000 /  -0.269963 -0.269963  0.924251 ->  -2.3246509154
    4:   0.577350  0.577350  0.577350 /   0.553287 -0.013329  0.832884 ->  -2.0208536860
    5:   0.000000  0.707107  0.707107 /  -0.252010  0.438283  0.862786 ->  -1.8783382064
    6:   0.707107  0.000000  0.707107 /   0.457620 -0.562173  0.688872 ->  -1.8650606555
    7:   0.707107  0.707107  0.000000 /   0.960769  0.277349  0.000000 ->  -3.3815775563

 K-point ( 0.000, 0.000, 0.000) | band =    51
 Effective mass tensor:
              0.5485361606             -0.0352428745              0.0257326818
             -0.0352428745              0.5023732455              0.0476132593
              0.0257326818              0.0476132593              0.5328182900
 Effective mass tensor eigenvalues:
              0.4485612104              0.5675832425              0.5675832431
 Angular average effective mass 1/(<1/m>)=   0.5214614091
 Angular average effective mass for Frohlich model (<m**0.5>)**2=   0.5234651191
 Effective masses along directions: (cart. coord. / red. coord. -> eff. mass)
    1:   1.000000  0.000000  0.000000 /   0.876999 -0.480492  0.000000 ->   0.5444638823
    2:   0.000000  1.000000  0.000000 /   0.000000  1.000000  0.000000 ->   0.4955431962
    3:   0.000000  0.000000  1.000000 /  -0.269963 -0.269963  0.924251 ->   0.5267578000
    4:   0.577350  0.577350  0.577350 /   0.553287 -0.013329  0.832884 ->   0.5500811938
    5:   0.000000  0.707107  0.707107 /  -0.252010  0.438283  0.862786 ->   0.5645948657
    6:   0.707107  0.000000  0.707107 /   0.457620 -0.562173  0.688872 ->   0.5661024456
    7:   0.707107  0.707107  0.000000 /   0.960769  0.277349  0.000000 ->   0.4840844900

 END OF EFFECTIVE MASSES SECTION

 ---- first-order wavefunction calculations are completed ----

 Total localisation tensor (bohr^2) in cartesian coordinates
  WARNING : still subject to testing - especially symmetries.
      direction              matrix element
   alpha     beta       real part   imaginary part
     1        1       1.2853038541    0.0000000000
     1        2      -0.4530915199    0.0000000000
     1        3      -0.1365007089    0.0000000000
     2        1      -0.4530915199    0.0000000000
     2        2       0.6918214554    0.0000000000
     2        3      -0.2525676708    0.0000000000
     3        1      -0.1365007089    0.0000000000
     3        2      -0.2525676708    0.0000000000
     3        3       1.1410754773    0.0000000000

 respfn : d/dk was computed, but no 2DTE, so no DDB output.

== END DATASET(S) ==============================================================

 -outvars: echo values of variables after computation  --------
            acell      1.0000000000E+00  1.0000000000E+00  1.0000000000E+00 Bohr
              amu      4.49559100E+01  7.49215900E+01  1.59994000E+01
             ecut      4.40000000E+01 Hartree
           etotal     -7.4576455309E+01
            fcart      0.0000000000E+00  0.0000000000E+00  0.0000000000E+00
                       0.0000000000E+00  0.0000000000E+00  0.0000000000E+00
                       0.0000000000E+00  0.0000000000E+00  0.0000000000E+00
                       0.0000000000E+00  0.0000000000E+00  0.0000000000E+00
                       0.0000000000E+00  0.0000000000E+00  0.0000000000E+00
                       0.0000000000E+00  0.0000000000E+00  0.0000000000E+00
                       0.0000000000E+00  0.0000000000E+00  0.0000000000E+00
                       0.0000000000E+00  0.0000000000E+00  0.0000000000E+00
                       0.0000000000E+00  0.0000000000E+00  0.0000000000E+00
                       0.0000000000E+00  0.0000000000E+00  0.0000000000E+00
                       0.0000000000E+00  0.0000000000E+00  0.0000000000E+00
                       0.0000000000E+00  0.0000000000E+00  0.0000000000E+00
-          fftalg         512
           irdden           1
           irdwfk           1
           istwfk        0    1
              ixc     -116133
              kpt      7.86729062E-02  7.86729062E-02 -7.86729062E-02
                       0.00000000E+00  0.00000000E+00  0.00000000E+00
           kptopt           0
P           mkmem           2
P          mkqmem           2
P          mk1mem           2
            natom          12
            nband          59
           nbdbuf           4
            ngfft          64      64      64
             nkpt           2
            nstep        2000
             nsym          16
           ntypat           3
              occ      2.000000  2.000000  2.000000  2.000000  2.000000  2.000000
                       2.000000  2.000000  2.000000  2.000000  2.000000  2.000000
                       2.000000  2.000000  2.000000  2.000000  2.000000  2.000000
                       2.000000  2.000000  2.000000  2.000000  2.000000  2.000000
                       2.000000  2.000000  2.000000  2.000000  2.000000  2.000000
                       2.000000  2.000000  2.000000  2.000000  2.000000  2.000000
                       2.000000  2.000000  2.000000  2.000000  2.000000  2.000000
                       2.000000  2.000000  2.000000  2.000000  2.000000  2.000000
                       2.000000  2.000000  0.000000  0.000000  0.000000  0.000000
                       0.000000  0.000000  0.000000  0.000000  0.000000
        optdriver           1
            prtwf          -1
            rfdir           1       1       1
           rfelfd           2
            rprim      1.0202703156E+01  0.0000000000E+00 -3.1159745229E+00
                      -5.5898746967E+00  8.5351304949E+00 -3.1159745229E+00
                       0.0000000000E+00  0.0000000000E+00  1.0667916803E+01
          spgroup         141
           strten      0.0000000000E+00  0.0000000000E+00  0.0000000000E+00
                       0.0000000000E+00  0.0000000000E+00  0.0000000000E+00
           symrel      1  0  0   0  1  0   0  0  1      -1  0  0   0 -1  0   0  0 -1
                      -1 -1 -1   0  0  1   0  1  0       1  1  1   0  0 -1   0 -1  0
                       0  1  0   1  0  0  -1 -1 -1       0 -1  0  -1  0  0   1  1  1
                       0  0  1  -1 -1 -1   1  0  0       0  0 -1   1  1  1  -1  0  0
                       0  1  0   1  0  0   0  0  1       0 -1  0  -1  0  0   0  0 -1
                      -1 -1 -1   0  0  1   1  0  0       1  1  1   0  0 -1  -1  0  0
                       1  0  0   0  1  0  -1 -1 -1      -1  0  0   0 -1  0   1  1  1
                       0  0  1  -1 -1 -1   0  1  0       0  0 -1   1  1  1   0 -1  0
            tnons      0.0000000  0.0000000  0.0000000     0.2500000 -0.2500000  0.5000000
                       0.2500000 -0.2500000  0.5000000     0.0000000  0.0000000  0.0000000
                       0.0000000  0.0000000  0.0000000     0.2500000 -0.2500000  0.5000000
                       0.2500000 -0.2500000  0.5000000     0.0000000  0.0000000  0.0000000
                       0.2500000 -0.2500000  0.5000000     0.0000000  0.0000000  0.0000000
                       0.0000000  0.0000000  0.0000000     0.2500000 -0.2500000  0.5000000
                       0.2500000 -0.2500000  0.5000000     0.0000000  0.0000000  0.0000000
                       0.0000000  0.0000000  0.0000000     0.2500000 -0.2500000  0.5000000
           tolwfr      1.00000000E-20
            typat      1  1  2  2  3  3  3  3  3  3  3  3
           useylm           1
              wtk        0.50000    0.50000
           xangst      1.2205018439E+00  2.2582982651E+00 -1.6489027001E+00
                       3.3097699100E+00  1.1291491326E+00  1.1737065176E+00
                      -8.6876622223E-01  3.3874473977E+00  1.1737065176E+00
                       3.7463351700E-17  0.0000000000E+00  6.6901582681E-17
                       3.0669669265E+00  2.5469866947E+00 -6.0843989833E-01
                      -3.1391875275E-01  2.5469866947E+00  2.5342796291E+00
                       2.5396293988E+00  2.8319873232E+00  2.2141693193E+00
                       1.4633048275E+00  8.4046070299E-01  1.3324371586E-01
                       4.3919549072E+00  3.6878010669E-03 -2.8832958856E-01
                       1.9906423551E+00  5.5546007448E-01  2.9558529335E+00
                       4.8441905067E+00  8.4046070299E-01  2.6357426238E+00
                       1.3831684672E-01  3.3837595966E+00 -1.8686659390E-01
            xcart      2.3064142297E+00  4.2675652475E+00 -3.1159745229E+00
                       6.2545586928E+00  2.1337826237E+00  2.2179838787E+00
                      -1.6417302335E+00  6.4013478712E+00  2.2179838787E+00
                       7.0795474733E-17  0.0000000000E+00  1.2642566912E-16
                       5.7957275497E+00  4.8131073171E+00 -1.1497847762E+00
                      -5.9322047068E-01  4.8131073171E+00  4.7890944432E+00
                       4.7992040427E+00  5.3516804527E+00  4.1841736254E+00
                       2.7652453728E+00  1.5882405541E+00  2.5179413191E-01
                       8.2995919626E+00  6.9689340491E-03 -5.4486395838E-01
                       3.7617688798E+00  1.0496674185E+00  5.5857525335E+00
                       9.1541933932E+00  1.5882405541E+00  4.9808317157E+00
                       2.6138095987E-01  6.3943789371E+00 -3.5312668587E-01
             xred      5.0000000000E-01  5.0000000000E-01  6.9388939039E-18
                       7.5000000000E-01  2.5000000000E-01  5.0000000000E-01
                       2.5000000000E-01  7.5000000000E-01  5.0000000000E-01
                       6.9388939039E-18  0.0000000000E+00  1.3877787808E-17
                       8.7701800000E-01  5.6391725000E-01  3.1310075000E-01
                       2.5081650000E-01  5.6391725000E-01  6.8689925000E-01
                       8.1391725000E-01  6.2701800000E-01  8.1310075000E-01
                       3.7298200000E-01  1.8608275000E-01  1.8689925000E-01
                       8.1391725000E-01  8.1650000000E-04  1.8689925000E-01
                       4.3608275000E-01  1.2298200000E-01  6.8689925000E-01
                       9.9918350000E-01  1.8608275000E-01  8.1310075000E-01
                       4.3608275000E-01  7.4918350000E-01  3.1310075000E-01
            znucl       21.00000   33.00000    8.00000

- Timing analysis has been suppressed with timopt=0

 Suggested references for the acknowledgment of ABINIT usage.

 Calculation completed.
.Delivered   2 WARNINGs and   5 COMMENTs to log file.