.Version 9.5.2 of ABINIT

 ABINIT is a project of the Universite Catholique de Louvain,
 Corning Inc. and other collaborators, see ~abinit/doc/developers/contributors.txt .
 acknowledgments of the ABINIT effort.

.Starting date : Mon 31 May 2021.
- ( at 22h38 )

- input  file    -> /scratch/users/j/a/jabreu/flow_simple_11atoms/flow/w376/t1/run.abi
- output file    -> /scratch/users/j/a/jabreu/flow_simple_11atoms/flow/w376/t1/run.abo
- root for input  files -> /scratch/users/j/a/jabreu/flow_simple_11atoms/flow/w376/t1/indata/in
- root for output files -> /scratch/users/j/a/jabreu/flow_simple_11atoms/flow/w376/t1/outdata/out

 Symmetries : space group C2/m (# 12); Bravais mC (1-face-center monocl.)
     intxc =       0      iscf =       7    lmnmax =      32     lnmax =       8
     mgfft =     100  mpssoang =       4    mqgrid =    4960     natom =      12
  nloc_mem =       1    nspden =       1   nspinor =       1    nsppol =       1
      nsym =       4    n1xccc =    2501    ntypat =       4    occopt =       1
   xclevel =       2
-    mband =          49        mffmem =           1         mkmem =           2
-   mkqmem =           2        mk1mem =           2           mpw =       19137
      nfft =      360000          nkpt =           2
  Rough estimation (10% accuracy) of disk space for files :

------------- Echo of variables that govern the present computation ------------
-
- outvars: echo of selected default values
-   iomode0 =  0 , fftalg0 =512 , wfoptalg0 =  0
-
- outvars: echo of global parameters not present in the input file
-  max_nthreads =    0
-
 -outvars: echo values of preprocessed input variables --------
            acell      1.0000000000E+00  1.0000000000E+00  1.0000000000E+00 Bohr
              amu      1.32905430E+02  9.29063800E+01  3.09737620E+01
                       1.59994000E+01
             ecut      4.40000000E+01 Hartree
-          fftalg         512
           irdden           1
           irdwfk           1
           istwfk        1    1
              ixc     -116133
              kpt      5.00000000E-01  5.00000000E-01  0.00000000E+00
                       0.00000000E+00  0.00000000E+00  0.00000000E+00
           kptopt           0
P           mkmem           2
P          mkqmem           2
P          mk1mem           2
            natom          12
            nband          49
           nbdbuf           4
            ngfft          60      60     100
             nkpt           2
            nstep        2000
             nsym           4
           ntypat           4
              occ      2.000000  2.000000  2.000000  2.000000  2.000000  2.000000
                       2.000000  2.000000  2.000000  2.000000  2.000000  2.000000
                       2.000000  2.000000  2.000000  2.000000  2.000000  2.000000
                       2.000000  2.000000  2.000000  2.000000  2.000000  2.000000
                       2.000000  2.000000  2.000000  2.000000  2.000000  2.000000
                       2.000000  2.000000  2.000000  2.000000  2.000000  2.000000
                       2.000000  2.000000  2.000000  2.000000  0.000000  0.000000
                       0.000000  0.000000  0.000000  0.000000  0.000000  0.000000
                       0.000000
        optdriver           1
            prtwf          -1
            rfdir           1       1       1
           rfelfd           2
            rprim      9.6796953044E+00  0.0000000000E+00  4.1672941720E-01
                       4.5917928657E+00  8.5212639593E+00  4.1672941720E-01
                       0.0000000000E+00  0.0000000000E+00  1.6628565401E+01
          spgroup          12
           symrel      1  0  0   0  1  0   0  0  1      -1  0  0   0 -1  0   0  0 -1
                       0 -1  0  -1  0  0   0  0 -1       0  1  0   1  0  0   0  0  1
           tolwfr      1.00000000E-20
            typat      1  2  3  3  4  4  4  4  4  4  4  4
           useylm           1
              wtk        0.50000    0.50000
           xangst      0.0000000000E+00  0.0000000000E+00  0.0000000000E+00
                       0.0000000000E+00  0.0000000000E+00  4.3997289108E+00
                       2.6664589408E+00  1.5920974884E+00  2.8374007039E+00
                       4.8856873315E+00  2.9171611873E+00  6.4031045371E+00
                       4.8201058231E+00  1.4302286297E+00  5.9391391377E+00
                       5.9965325267E+00  3.5804280459E+00  5.5240339631E+00
                       5.1182556759E+00  3.0560238082E+00  7.8610032008E+00
                       3.5455954064E+00  3.5647899368E+00  5.9391391377E+00
                       2.4338905963E+00  1.4532348675E+00  1.3795020402E+00
                       1.5556137456E+00  9.2883062978E-01  3.7164712779E+00
                       4.0065508659E+00  9.4446873887E-01  3.3013661033E+00
                       2.7320404492E+00  3.0790300459E+00  3.3013661033E+00
            xcart      0.0000000000E+00  0.0000000000E+00  0.0000000000E+00
                       0.0000000000E+00  0.0000000000E+00  8.3142827003E+00
                       5.0388771427E+00  3.0086282299E+00  5.3619102597E+00
                       9.2326110274E+00  5.5126357294E+00  1.2100113975E+01
                       9.1086799372E+00  2.7027404176E+00  1.1223346435E+01
                       1.1331804222E+01  6.7660284452E+00  1.0438911339E+01
                       9.6721015056E+00  5.7750480530E+00  1.4855143179E+01
                       6.7002042961E+00  6.7364767018E+00  1.1223346435E+01
                       4.5993866645E+00  2.7462159063E+00  2.6068810557E+00
                       2.9396839477E+00  1.7552355141E+00  7.0231128960E+00
                       7.5712838740E+00  1.7847872575E+00  6.2386777997E+00
                       5.1628082329E+00  5.8185235417E+00  6.2386777997E+00
             xred      0.0000000000E+00  0.0000000000E+00  0.0000000000E+00
                       0.0000000000E+00  0.0000000000E+00  5.0000000000E-01
                       3.5307300000E-01  3.5307300000E-01  3.0475500000E-01
                       6.4692700000E-01  6.4692700000E-01  6.9524500000E-01
                       7.9054900000E-01  3.1717600000E-01  6.4718300000E-01
                       7.9401700000E-01  7.9401700000E-01  5.8797200000E-01
                       6.7772200000E-01  6.7772200000E-01  8.5938200000E-01
                       3.1717600000E-01  7.9054900000E-01  6.4718300000E-01
                       3.2227800000E-01  3.2227800000E-01  1.4061800000E-01
                       2.0598300000E-01  2.0598300000E-01  4.1202800000E-01
                       6.8282400000E-01  2.0945100000E-01  3.5281700000E-01
                       2.0945100000E-01  6.8282400000E-01  3.5281700000E-01
            znucl       55.00000   41.00000   15.00000    8.00000

 chkinp: Checking input parameters for consistency.

== DATASET  1 ==================================================================
-   mpi_nproc: 1, omp_nthreads: -1 (-1 if OMP is not activated)

--- !DatasetInfo
iteration_state: {dtset: 1, }
dimensions: {natom: 12, nkpt: 2, mband: 49, nsppol: 1, nspinor: 1, nspden: 1, mpw: 19137, }
cutoff_energies: {ecut:  44.0, pawecutdg:  -1.0, }
electrons: {nelect:   8.00000000E+01, charge:   0.00000000E+00, occopt:   1.00000000E+00, tsmear:   1.00000000E-02, }
meta: {optdriver: 1, rfelfd: 2, }
...

 Real(R)+Recip(G) space primitive vectors, cartesian coordinates (Bohr,Bohr^-1):
 R(1)=  9.6796953  0.0000000  0.4167294  G(1)=  0.1033090 -0.0556694  0.0000000
 R(2)=  4.5917929  8.5212640  0.4167294  G(2)=  0.0000000  0.1173535  0.0000000
 R(3)=  0.0000000  0.0000000 16.6285654  G(3)= -0.0025890 -0.0015459  0.0601375
 Unit cell volume ucvol=  1.3715779E+03 bohr^3
 Angles (23,13,12)=  8.75348293E+01  8.75348293E+01  6.16181112E+01 degrees

 getcut: wavevector=  0.0000  0.0000  0.0000  ngfft=  60  60 100
         ecut(hartree)=     44.000   => boxcut(ratio)=   2.01408

--- Pseudopotential description ------------------------------------------------
- pspini: atom type   1  psp file is /scratch/users/j/a/jabreu/pseudos/PBEsol/Cs.psp8
- pspatm: opening atomic psp file    /scratch/users/j/a/jabreu/pseudos/PBEsol/Cs.psp8
- Cs    ONCVPSP-3.3.0  r_core=   2.27353   1.85623   2.01788   1.90105
- 55.00000   9.00000    180112                znucl, zion, pspdat
    8 -116133    3    4       600   0.00000   pspcod,pspxc,lmax,lloc,mmax,r2well
    5.99000000000000    5.00000000000000    0.00000000000000   rchrg,fchrg,qchrg
     nproj     2     2     2     2
     extension_switch     1
  pspatm : epsatm=   22.12462445
         --- l  ekb(1:nproj) -->
             0    6.214110    0.767882
             1    6.311966    0.793598
             2    3.769790    0.913105
             3   -9.247129   -2.432478
 pspatm: atomic psp has been read  and splines computed

- pspini: atom type   2  psp file is /scratch/users/j/a/jabreu/pseudos/PBEsol/Nb.psp8
- pspatm: opening atomic psp file    /scratch/users/j/a/jabreu/pseudos/PBEsol/Nb.psp8
- Nb    ONCVPSP-3.3.0  r_core=   1.50879   1.40458   1.40458
- 41.00000  13.00000    180112                znucl, zion, pspdat
    8 -116133    2    4       600   0.00000   pspcod,pspxc,lmax,lloc,mmax,r2well
    5.99000000000000    5.00000000000000    0.00000000000000   rchrg,fchrg,qchrg
     nproj     2     2     2
     extension_switch     1
  pspatm : epsatm=   15.66753381
         --- l  ekb(1:nproj) -->
             0   12.953547    1.345168
             1    7.772306    0.779703
             2    3.518917    1.091480
 pspatm: atomic psp has been read  and splines computed

[...]

- pspini: atom type   4  psp file is /scratch/users/j/a/jabreu/pseudos/PBEsol/O.psp8
- pspatm: opening atomic psp file    /scratch/users/j/a/jabreu/pseudos/PBEsol/O.psp8
- O     ONCVPSP-3.3.0  r_core=   1.35509   1.45563   1.26150
-  8.00000   6.00000    180112                znucl, zion, pspdat
    8 -116133    2    4       600   0.00000   pspcod,pspxc,lmax,lloc,mmax,r2well
    5.99000000000000    4.00000000000000    0.00000000000000   rchrg,fchrg,qchrg
     nproj     2     2     1
     extension_switch     1
  pspatm : epsatm=    6.22910522
         --- l  ekb(1:nproj) -->
             0    6.050032    0.820363
             1   -4.739617   -1.153841
             2   -1.335834
 pspatm: atomic psp has been read  and splines computed

   8.17995374E+03                                ecore*ucvol(ha*bohr**3)

 ==>  initialize data related to q vector <==

 The list of irreducible perturbations for this q vector is:
    1)    idir= 1    ipert=  13
    2)    idir= 2    ipert=  13
    3)    idir= 3    ipert=  13

 Perturbation wavevector (in red.coord.)   0.000000  0.000000  0.000000
 Perturbation : derivative vs k along direction   1

 dfpt_looppert : COMMENT -
  In a d/dk calculation, iscf is set to -3 automatically.
 The set of symmetries contains only one element for this perturbation.
 symkpt : not enough symmetry to change the number of k points.

 Initialisation of the first-order wave-functions :
  ireadwf=   0

--- !BeginCycle
iteration_state: {dtset: 1, }
solver: {iscf: 7, nstep: 2000, nline: 4, wfoptalg: 0, }
tolerances: {tolwfr: 1.00E-20, }
...

[...]
 ETOT 40  -46.666272390308      0.000E+00 3.270E-20 0.000E+00
 ETOT 41  -46.666272390308      1.421E-14 9.755E-21 0.000E+00

 At SCF step   41   max residual=  9.75E-21 < tolwfr=  1.00E-20 =>converged.

 ----iterations are completed or convergence reached----

 dfpt_looppert: DFPT cycle converged with prtwf=-1. Will skip output of the 1st-order WFK file.
 dfpt_looppert : ek2=    8.6990471034E+01
          f-sum rule ratio=    1.0570881119E+00
 prteigrs : about to open file /scratch/users/j/a/jabreu/flow_simple_11atoms/flow/w376/t1/tmpdata/tmp_1WF1_EIG
 Expectation of eigenvalue derivatives (hartree) for nkpt=   2  k points:
  (in case of degenerate eigenvalues, averaged derivative)
 kpt#   1, nband= 49, wtk=  0.50000, kpt=  0.5000  0.5000  0.0000 (reduced coord)
   0.00000   -0.00000   -0.00000   -0.00000   -0.00000    0.00000   -0.00000   -0.00000
  -0.00000   -0.00000   -0.00000   -0.00000   -0.00000    0.00000    0.00000   -0.00000
   0.00000    0.00000   -0.00000    0.00000   -0.00000   -0.00000   -0.00000   -0.00000
  -0.00000   -0.00000   -0.00000   -0.00000    0.00000    0.00000   -0.00000    0.00000
  -0.00000    0.00000    0.00000   -0.00000    0.00000    0.00000   -0.00000    0.00000
  -0.00000    0.00000   -0.00000    0.00000   -0.00000   -0.00000    0.00000   -0.00000
  -0.00000
 prteigrs : prtvol=0 or 1, do not print more k-points.

 Eight components of 2nd-order total energy (hartree) are
 1,2,3: 0th-order hamiltonian combined with 1st-order wavefunctions
     kin0=   6.65669798E+01 eigvalue=   3.69165159E+00  local=  -3.41875799E+01
 4,5,6: 1st-order hamiltonian combined with 1st and 0th-order wfs
     kin1=  -9.19565928E+01  Hartree=   0.00000000E+00     xc=   0.00000000E+00
 7,8,9: eventually, occupation + non-local contributions
    edocc=   1.01701467E+01     enl0=   4.25074127E-01   enl1=  -1.37595200E+00
 1-9 gives the relaxation energy (to be shifted if some occ is /=2.0)
   erelax=  -4.66662724E+01
  No Ewald or frozen-wf contrib.: the relaxation energy is the total one
 2DEtotal=   -0.4666627239E+02 Ha. Also 2DEtotal=   -0.126985385133E+04 eV
    (  non-var. 2DEtotal :   -4.6666272390E+01 Ha)

 Perturbation wavevector (in red.coord.)   0.000000  0.000000  0.000000
 Perturbation : derivative vs k along direction   2
 The set of symmetries contains only one element for this perturbation.
 symkpt : not enough symmetry to change the number of k points.

[...]

 Perturbation wavevector (in red.coord.)   0.000000  0.000000  0.000000
 Perturbation : derivative vs k along direction   3
 The set of symmetries contains only one element for this perturbation.
 symkpt : not enough symmetry to change the number of k points.

 Initialisation of the first-order wave-functions :
  ireadwf=   0

--- !BeginCycle
iteration_state: {dtset: 1, }
solver: {iscf: 7, nstep: 2000, nline: 4, wfoptalg: 0, }
tolerances: {tolwfr: 1.00E-20, }
...

     iter   2DEtotal(Ha)        deltaE(Ha) residm    vres2
-ETOT  1  -11.767049434656     -1.177E+01 1.723E-02 0.000E+00
 ETOT  2  -11.787392280099     -2.034E-02 6.001E-03 0.000E+00
 ETOT  3  -11.787574450634     -1.822E-04 2.663E-04 0.000E+00
 ETOT  4  -11.787579425904     -4.975E-06 1.477E-04 0.000E+00
 ETOT  5  -11.787579653251     -2.273E-07 1.000E-05 0.000E+00
 ETOT  6  -11.787579666337     -1.309E-08 5.260E-06 0.000E+00
 ETOT  7  -11.787579667195     -8.578E-10 3.792E-07 0.000E+00
 ETOT  8  -11.787579667254     -5.973E-11 2.098E-07 0.000E+00
 ETOT  9  -11.787579667259     -4.338E-12 1.525E-08 0.000E+00
 ETOT 10  -11.787579667259     -3.144E-13 8.604E-09 0.000E+00
 ETOT 11  -11.787579667259     -4.086E-14 6.253E-10 0.000E+00
 ETOT 12  -11.787579667259      5.329E-15 3.560E-10 0.000E+00
 ETOT 13  -11.787579667259     -5.329E-15 2.589E-11 0.000E+00
 ETOT 14  -11.787579667259      3.553E-15 1.479E-11 0.000E+00
 ETOT 15  -11.787579667259      0.000E+00 1.077E-12 0.000E+00
 ETOT 16  -11.787579667259      7.105E-15 6.156E-13 0.000E+00
 ETOT 17  -11.787579667259      0.000E+00 4.496E-14 0.000E+00
 ETOT 18  -11.787579667259     -1.776E-15 2.567E-14 0.000E+00
 ETOT 19  -11.787579667259      0.000E+00 1.880E-15 0.000E+00
 ETOT 20  -11.787579667259      1.776E-15 1.072E-15 0.000E+00
 ETOT 21  -11.787579667259      0.000E+00 7.877E-17 0.000E+00
 ETOT 22  -11.787579667259     -1.776E-15 4.483E-17 0.000E+00
 ETOT 23  -11.787579667259      1.776E-15 3.304E-18 0.000E+00
 ETOT 24  -11.787579667259      0.000E+00 1.877E-18 0.000E+00
 ETOT 25  -11.787579667259      0.000E+00 1.388E-19 0.000E+00
 ETOT 26  -11.787579667259      0.000E+00 7.866E-20 0.000E+00
 ETOT 27  -11.787579667259     -7.105E-15 9.890E-21 0.000E+00

 At SCF step   27   max residual=  9.89E-21 < tolwfr=  1.00E-20 =>converged.

 ----iterations are completed or convergence reached----

 dfpt_looppert: DFPT cycle converged with prtwf=-1. Will skip output of the 1st-order WFK file.
 dfpt_looppert : ek2=    2.2901330031E+01
          f-sum rule ratio=    1.0072279901E+00
 prteigrs : about to open file /scratch/users/j/a/jabreu/flow_simple_11atoms/flow/w376/t1/tmpdata/tmp_1WF1_EIG
 Expectation of eigenvalue derivatives (hartree) for nkpt=   2  k points:
  (in case of degenerate eigenvalues, averaged derivative)
 kpt#   1, nband= 49, wtk=  0.50000, kpt=  0.5000  0.5000  0.0000 (reduced coord)
   0.00000    0.00000   -0.00000    0.00000    0.00000   -0.00000   -0.00000    0.00000
   0.00000    0.00000    0.00000   -0.00000   -0.00000    0.00000    0.00000   -0.00000
  -0.00000    0.00000    0.00000   -0.00000    0.00000    0.00000    0.00000    0.00000
   0.00000    0.00000   -0.00000   -0.00000   -0.00000    0.00000   -0.00000    0.00000
   0.00000    0.00000   -0.00000    0.00000   -0.00000   -0.00000   -0.00000   -0.00000
  -0.00000    0.00000   -0.00000   -0.00000   -0.00000    0.00000   -0.00000   -0.00000
   0.00000
 prteigrs : prtvol=0 or 1, do not print more k-points.

 Eight components of 2nd-order total energy (hartree) are
 1,2,3: 0th-order hamiltonian combined with 1st-order wavefunctions
     kin0=   1.75368778E+01 eigvalue=   9.45011318E-01  local=  -9.08637103E+00
 4,5,6: 1st-order hamiltonian combined with 1st and 0th-order wfs
     kin1=  -2.30668606E+01  Hartree=   0.00000000E+00     xc=   0.00000000E+00
 7,8,9: eventually, occupation + non-local contributions
    edocc=   2.46389992E+00     enl0=  -7.18383570E-02   enl1=  -5.08298716E-01
 1-9 gives the relaxation energy (to be shifted if some occ is /=2.0)
   erelax=  -1.17875797E+01
  No Ewald or frozen-wf contrib.: the relaxation energy is the total one
 2DEtotal=   -0.1178757967E+02 Ha. Also 2DEtotal=   -0.320756355106E+03 eV
    (  non-var. 2DEtotal :   -1.1787579667E+01 Ha)

 CALCULATION OF EFFECTIVE MASSES
 NOTE : Additional infos (eff. mass eigenvalues, eigenvectors and, if degenerate, average mass) are available in stdout.

--- !WARNING
src_file: m_efmas.F90
src_line: 0
message: |

    Band(s)    40,
    are not band extrema, but saddle points;
    the transport equivalent formalism breaks down in these conditions.
    The associated tensor(s) will therefore not be printed.
...

 K-point ( 0.500, 0.500, 0.000) | band =    40
 Effective mass tensor:
     *** SADDLE POINT: TRANSPORT EQV. EFF. MASS NOT DEFINED (see WARNING above) ***
 Angular average effective mass 1/(<1/m>)=  -4.6902348613
 Angular average effective mass for Frohlich model (<m**0.5>)**2= -10.2954326563
 Effective masses along directions: (cart. coord. / red. coord. -> eff. mass)
    1:   1.000000  0.000000  0.000000 /   0.903497  0.428595  0.000000 ->  -4.7969832991
    2:   0.000000  1.000000  0.000000 /   0.000000  1.000000  0.000000 ->  -2.3915829099
    3:   0.000000  0.000000  1.000000 /   0.025045  0.025045  0.999373 -> -76.7497458737
    4:   0.577350  0.577350  0.577350 /   0.426081  0.570973  0.701745 ->  -5.0410450572
    5:   0.000000  0.707107  0.707107 /   0.022069  0.473334  0.880607 ->  -3.5715073960
    6:   0.707107  0.000000  0.707107 /   0.502607  0.249328  0.827781 ->  -4.5740293013
    7:   0.707107  0.707107  0.000000 /   0.593892  0.804544  0.000000 ->  -8.4209593620

 K-point ( 0.000, 0.000, 0.000) | band =    41
 Effective mass tensor:
              1.0380749850              0.2594502599             -0.1993572533
              0.2594502599              0.7584587547             -0.1190328409
             -0.1993572533             -0.1190328409              6.5012689343
 Effective mass tensor eigenvalues:
              0.6035453973              1.1828514677              6.5114058091
 Angular average effective mass 1/(<1/m>)=   1.1295744048
 Angular average effective mass for Frohlich model (<m**0.5>)**2=   1.3818467360
 Effective masses along directions: (cart. coord. / red. coord. -> eff. mass)
    1:   1.000000  0.000000  0.000000 /   0.903497  0.428595  0.000000 ->   0.9454412289
    2:   0.000000  1.000000  0.000000 /   0.000000  1.000000  0.000000 ->   0.6928722304
    3:   0.000000  0.000000  1.000000 /   0.025045  0.025045  0.999373 ->   6.4560781058
    4:   0.577350  0.577350  0.577350 /   0.426081  0.570973  0.701745 ->   1.4829188504
    5:   0.000000  0.707107  0.707107 /   0.022069  0.473334  0.880607 ->   1.2276944590
    6:   0.707107  0.000000  0.707107 /   0.502607  0.249328  0.827781 ->   1.5818185931
    7:   0.707107  0.707107  0.000000 /   0.593892  0.804544  0.000000 ->   1.1201548493

 END OF EFFECTIVE MASSES SECTION

 ---- first-order wavefunction calculations are completed ----

 Total localisation tensor (bohr^2) in cartesian coordinates
  WARNING : still subject to testing - especially symmetries.
      direction              matrix element
   alpha     beta       real part   imaginary part
     1        1       1.3272569789    0.0000000000
     1        2       0.4524505004    0.0000000000
     1        3       0.0687714521    0.0000000000
     2        1       0.4524505004    0.0000000000
     2        2       0.8396393861    0.0000000000
     2        3       0.0410622689    0.0000000000
     3        1       0.0687714521    0.0000000000
     3        2       0.0410622689    0.0000000000
     3        3       0.7182548227    0.0000000000

 respfn : d/dk was computed, but no 2DTE, so no DDB output.

== END DATASET(S) ==============================================================

 -outvars: echo values of variables after computation  --------
            acell      1.0000000000E+00  1.0000000000E+00  1.0000000000E+00 Bohr
              amu      1.32905430E+02  9.29063800E+01  3.09737620E+01
                       1.59994000E+01
             ecut      4.40000000E+01 Hartree
           etotal     -1.1787579667E+01
            fcart      0.0000000000E+00  0.0000000000E+00  0.0000000000E+00
                       0.0000000000E+00  0.0000000000E+00  0.0000000000E+00
                       0.0000000000E+00  0.0000000000E+00  0.0000000000E+00
                       0.0000000000E+00  0.0000000000E+00  0.0000000000E+00
                       0.0000000000E+00  0.0000000000E+00  0.0000000000E+00
                       0.0000000000E+00  0.0000000000E+00  0.0000000000E+00
                       0.0000000000E+00  0.0000000000E+00  0.0000000000E+00
                       0.0000000000E+00  0.0000000000E+00  0.0000000000E+00
                       0.0000000000E+00  0.0000000000E+00  0.0000000000E+00
                       0.0000000000E+00  0.0000000000E+00  0.0000000000E+00
                       0.0000000000E+00  0.0000000000E+00  0.0000000000E+00
                       0.0000000000E+00  0.0000000000E+00  0.0000000000E+00
-          fftalg         512
           irdden           1
           irdwfk           1
           istwfk        1    1
              ixc     -116133
              kpt      5.00000000E-01  5.00000000E-01  0.00000000E+00
                       0.00000000E+00  0.00000000E+00  0.00000000E+00
           kptopt           0
P           mkmem           2
P          mkqmem           2
P          mk1mem           2
            natom          12
            nband          49
           nbdbuf           4
            ngfft          60      60     100
             nkpt           2
            nstep        2000
             nsym           4
           ntypat           4
              occ      2.000000  2.000000  2.000000  2.000000  2.000000  2.000000
                       2.000000  2.000000  2.000000  2.000000  2.000000  2.000000
                       2.000000  2.000000  2.000000  2.000000  2.000000  2.000000
                       2.000000  2.000000  2.000000  2.000000  2.000000  2.000000
                       2.000000  2.000000  2.000000  2.000000  2.000000  2.000000
                       2.000000  2.000000  2.000000  2.000000  2.000000  2.000000
                       2.000000  2.000000  2.000000  2.000000  0.000000  0.000000
                       0.000000  0.000000  0.000000  0.000000  0.000000  0.000000
                       0.000000
        optdriver           1
            prtwf          -1
            rfdir           1       1       1
           rfelfd           2
            rprim      9.6796953044E+00  0.0000000000E+00  4.1672941720E-01
                       4.5917928657E+00  8.5212639593E+00  4.1672941720E-01
                       0.0000000000E+00  0.0000000000E+00  1.6628565401E+01
          spgroup          12
           strten      0.0000000000E+00  0.0000000000E+00  0.0000000000E+00
                       0.0000000000E+00  0.0000000000E+00  0.0000000000E+00
           symrel      1  0  0   0  1  0   0  0  1      -1  0  0   0 -1  0   0  0 -1
                       0 -1  0  -1  0  0   0  0 -1       0  1  0   1  0  0   0  0  1
           tolwfr      1.00000000E-20
            typat      1  2  3  3  4  4  4  4  4  4  4  4
           useylm           1
              wtk        0.50000    0.50000
           xangst      0.0000000000E+00  0.0000000000E+00  0.0000000000E+00
                       0.0000000000E+00  0.0000000000E+00  4.3997289108E+00
                       2.6664589408E+00  1.5920974884E+00  2.8374007039E+00
                       4.8856873315E+00  2.9171611873E+00  6.4031045371E+00
                       4.8201058231E+00  1.4302286297E+00  5.9391391377E+00
                       5.9965325267E+00  3.5804280459E+00  5.5240339631E+00
                       5.1182556759E+00  3.0560238082E+00  7.8610032008E+00
                       3.5455954064E+00  3.5647899368E+00  5.9391391377E+00
                       2.4338905963E+00  1.4532348675E+00  1.3795020402E+00
                       1.5556137456E+00  9.2883062978E-01  3.7164712779E+00
                       4.0065508659E+00  9.4446873887E-01  3.3013661033E+00
                       2.7320404492E+00  3.0790300459E+00  3.3013661033E+00
            xcart      0.0000000000E+00  0.0000000000E+00  0.0000000000E+00
                       0.0000000000E+00  0.0000000000E+00  8.3142827003E+00
                       5.0388771427E+00  3.0086282299E+00  5.3619102597E+00
                       9.2326110274E+00  5.5126357294E+00  1.2100113975E+01
                       9.1086799372E+00  2.7027404176E+00  1.1223346435E+01
                       1.1331804222E+01  6.7660284452E+00  1.0438911339E+01
                       9.6721015056E+00  5.7750480530E+00  1.4855143179E+01
                       6.7002042961E+00  6.7364767018E+00  1.1223346435E+01
                       4.5993866645E+00  2.7462159063E+00  2.6068810557E+00
                       2.9396839477E+00  1.7552355141E+00  7.0231128960E+00
                       7.5712838740E+00  1.7847872575E+00  6.2386777997E+00
                       5.1628082329E+00  5.8185235417E+00  6.2386777997E+00
             xred      0.0000000000E+00  0.0000000000E+00  0.0000000000E+00
                       0.0000000000E+00  0.0000000000E+00  5.0000000000E-01
                       3.5307300000E-01  3.5307300000E-01  3.0475500000E-01
                       6.4692700000E-01  6.4692700000E-01  6.9524500000E-01
                       7.9054900000E-01  3.1717600000E-01  6.4718300000E-01
                       7.9401700000E-01  7.9401700000E-01  5.8797200000E-01
                       6.7772200000E-01  6.7772200000E-01  8.5938200000E-01
                       3.1717600000E-01  7.9054900000E-01  6.4718300000E-01
                       3.2227800000E-01  3.2227800000E-01  1.4061800000E-01
                       2.0598300000E-01  2.0598300000E-01  4.1202800000E-01
                       6.8282400000E-01  2.0945100000E-01  3.5281700000E-01
                       2.0945100000E-01  6.8282400000E-01  3.5281700000E-01
            znucl       55.00000   41.00000   15.00000    8.00000

- Timing analysis has been suppressed with timopt=0

 Suggested references for the acknowledgment of ABINIT usage.

 Calculation completed.
.Delivered   3 WARNINGs and   5 COMMENTs to log file.