.Version 9.5.2 of ABINIT

 ABINIT is a project of the Universite Catholique de Louvain,
 Corning Inc. and other collaborators, see ~abinit/doc/developers/contributors.txt .
 acknowledgments of the ABINIT effort.

.Starting date : Mon 24 May 2021.
- ( at 22h48 )

- input  file    -> /scratch/users/j/a/jabreu/flow_simple_10atoms/flow/w433/t1/run.abi
- output file    -> /scratch/users/j/a/jabreu/flow_simple_10atoms/flow/w433/t1/run.abo
- root for input  files -> /scratch/users/j/a/jabreu/flow_simple_10atoms/flow/w433/t1/indata/in
- root for output files -> /scratch/users/j/a/jabreu/flow_simple_10atoms/flow/w433/t1/outdata/out

 Symmetries : space group P3 m 1 (#156); Bravais hP (primitive hexag.)
     intxc =       0      iscf =       7    lmnmax =      18     lnmax =       6
     mgfft =     144  mpssoang =       3    mqgrid =    6861     natom =      10
  nloc_mem =       1    nspden =       1   nspinor =       1    nsppol =       1
      nsym =       6    n1xccc =    2501    ntypat =       2    occopt =       1
   xclevel =       2
-    mband =          29        mffmem =           1         mkmem =           2
-   mkqmem =           2        mk1mem =           2           mpw =        8811
      nfft =      186624          nkpt =           2
  Rough estimation (10% accuracy) of disk space for files :

------------- Echo of variables that govern the present computation ------------
-
- outvars: echo of selected default values
-   iomode0 =  0 , fftalg0 =512 , wfoptalg0 =  0
-
- outvars: echo of global parameters not present in the input file
-  max_nthreads =    0
-
 -outvars: echo values of preprocessed input variables --------
            acell      1.0000000000E+00  1.0000000000E+00  1.0000000000E+00 Bohr
              amu      2.80855000E+01  1.20110000E+01
             ecut      4.10000000E+01 Hartree
-          fftalg         512
           irdden           1
           irdwfk           1
           istwfk        1    1
              ixc     -116133
              kpt      0.00000000E+00  0.00000000E+00  0.00000000E+00
                       5.00000000E-01  0.00000000E+00  5.00000000E-01
           kptopt           0
P           mkmem           2
P          mkqmem           2
P          mk1mem           2
            natom          10
            nband          29
           nbdbuf           4
            ngfft          36      36     144
             nkpt           2
            nstep        2000
             nsym           6
           ntypat           2
              occ      2.000000  2.000000  2.000000  2.000000  2.000000  2.000000
                       2.000000  2.000000  2.000000  2.000000  2.000000  2.000000
                       2.000000  2.000000  2.000000  2.000000  2.000000  2.000000
                       2.000000  2.000000  0.000000  0.000000  0.000000  0.000000
                       0.000000  0.000000  0.000000  0.000000  0.000000
        optdriver           1
            prtwf          -1
            rfdir           1       1       1
           rfelfd           2
            rprim      5.8188977654E+00  0.0000000000E+00  0.0000000000E+00
                      -2.9094488827E+00  5.0393132868E+00  0.0000000000E+00
                       0.0000000000E+00  0.0000000000E+00  2.3802320811E+01
          spgroup         156
           symrel      1  0  0   0  1  0   0  0  1      -1  0  0   1  1  0   0  0  1
                       0  1  0  -1 -1  0   0  0  1       0 -1  0  -1  0  0   0  0  1
                      -1 -1  0   1  0  0   0  0  1       1  1  0   0 -1  0   0  0  1
           tolwfr      1.00000000E-20
            typat      1  1  1  1  1  2  2  2  2  2
           useylm           1
              wtk        0.50000    0.50000
           xangst      0.0000000000E+00  0.0000000000E+00  7.5617581000E+00
                       0.0000000000E+00  0.0000000000E+00  2.5173405553E+00
                       1.5396140383E+00  8.8889657944E-01  1.2593302895E+01
                       0.0000000000E+00  1.7777931589E+00  1.0077499008E+01
                       1.5396140383E+00  8.8889657944E-01  5.0412938246E+00
                       0.0000000000E+00  0.0000000000E+00  6.2343407882E-01
                       0.0000000000E+00  1.7777931589E+00  8.1879506252E+00
                       1.5396140383E+00  8.8889657944E-01  1.0704623611E+01
                       0.0000000000E+00  0.0000000000E+00  5.6724994168E+00
                       1.5396140383E+00  8.8889657944E-01  3.1474503263E+00
            xcart      0.0000000000E+00  0.0000000000E+00  1.4289651892E+01
                       0.0000000000E+00  0.0000000000E+00  4.7570842327E+00
                       2.9094488827E+00  1.6797710956E+00  2.3797893580E+01
                       0.0000000000E+00  3.3595421912E+00  1.9043713230E+01
                       2.9094488827E+00  1.6797710956E+00  9.5266646839E+00
                       0.0000000000E+00  0.0000000000E+00  1.1781196709E+00
                       0.0000000000E+00  3.3595421912E+00  1.5472984271E+01
                       2.9094488827E+00  1.6797710956E+00  2.0228806981E+01
                       0.0000000000E+00  0.0000000000E+00  1.0719470387E+01
                       2.9094488827E+00  1.6797710956E+00  5.9478191336E+00
             xred      0.0000000000E+00  0.0000000000E+00  6.0034700000E-01
                       0.0000000000E+00  0.0000000000E+00  1.9985800000E-01
                       6.6666666667E-01  3.3333333333E-01  9.9981400000E-01
                       3.3333333333E-01  6.6666666667E-01  8.0007800000E-01
                       6.6666666667E-01  3.3333333333E-01  4.0024100000E-01
                       0.0000000000E+00  0.0000000000E+00  4.9496000000E-02
                       3.3333333333E-01  6.6666666667E-01  6.5006200000E-01
                       6.6666666667E-01  3.3333333333E-01  8.4986700000E-01
                       0.0000000000E+00  0.0000000000E+00  4.5035400000E-01
                       6.6666666667E-01  3.3333333333E-01  2.4988400000E-01
            znucl       14.00000    6.00000

 chkinp: Checking input parameters for consistency.

== DATASET  1 ==================================================================
-   mpi_nproc: 1, omp_nthreads: -1 (-1 if OMP is not activated)

--- !DatasetInfo
iteration_state: {dtset: 1, }
dimensions: {natom: 10, nkpt: 2, mband: 29, nsppol: 1, nspinor: 1, nspden: 1, mpw: 8811, }
cutoff_energies: {ecut:  41.0, pawecutdg:  -1.0, }
electrons: {nelect:   4.00000000E+01, charge:   0.00000000E+00, occopt:   1.00000000E+00, tsmear:   1.00000000E-02, }
meta: {optdriver: 1, rfelfd: 2, }
...

 Real(R)+Recip(G) space primitive vectors, cartesian coordinates (Bohr,Bohr^-1):
 R(1)=  5.8188978  0.0000000  0.0000000  G(1)=  0.1718539  0.0992199  0.0000000
 R(2)= -2.9094489  5.0393133  0.0000000  G(2)=  0.0000000  0.1984397  0.0000000
 R(3)=  0.0000000  0.0000000 23.8023208  G(3)=  0.0000000  0.0000000  0.0420127
 Unit cell volume ucvol=  6.9796138E+02 bohr^3
 Angles (23,13,12)=  9.00000000E+01  9.00000000E+01  1.20000000E+02 degrees

 getcut: wavevector=  0.0000  0.0000  0.0000  ngfft=  36  36 144
         ecut(hartree)=     41.000   => boxcut(ratio)=   2.09887

--- Pseudopotential description ------------------------------------------------
- pspini: atom type   1  psp file is /scratch/users/j/a/jabreu/pseudos/PBEsol/Si.psp8
- pspatm: opening atomic psp file    /scratch/users/j/a/jabreu/pseudos/PBEsol/Si.psp8
- Si    ONCVPSP-3.3.0  r_core=   1.60303   1.72197   1.91712
- 14.00000   4.00000    180112                znucl, zion, pspdat
    8 -116133    2    4       600   0.00000   pspcod,pspxc,lmax,lloc,mmax,r2well
    5.99000000000000    4.00000000000000    0.00000000000000   rchrg,fchrg,qchrg
     nproj     2     2     2
     extension_switch     1
  pspatm : epsatm=    7.86468782
         --- l  ekb(1:nproj) -->
             0    5.384426    0.843824
             1    2.663259    0.615854
             2   -2.267219   -0.458043
 pspatm: atomic psp has been read  and splines computed

- pspini: atom type   2  psp file is /scratch/users/j/a/jabreu/pseudos/PBEsol/C.psp8
- pspatm: opening atomic psp file    /scratch/users/j/a/jabreu/pseudos/PBEsol/C.psp8
- C     ONCVPSP-3.3.0  r_core=   1.20440   1.26326
-  6.00000   4.00000    180112                znucl, zion, pspdat
    8 -116133    1    4       600   0.00000   pspcod,pspxc,lmax,lloc,mmax,r2well
    5.99000000000000    4.00000000000000    0.00000000000000   rchrg,fchrg,qchrg
     nproj     2     2
     extension_switch     1
  pspatm : epsatm=    4.34909529
         --- l  ekb(1:nproj) -->
             0    6.468939    0.390031
             1   -4.179695   -0.878453
 pspatm: atomic psp has been read  and splines computed

   2.44275662E+03                                ecore*ucvol(ha*bohr**3)

 ==>  initialize data related to q vector <==

 The list of irreducible perturbations for this q vector is:
    1)    idir= 1    ipert=  11
    2)    idir= 2    ipert=  11
    3)    idir= 3    ipert=  11

 Perturbation wavevector (in red.coord.)   0.000000  0.000000  0.000000
 Perturbation : derivative vs k along direction   1

 dfpt_looppert : COMMENT -
  In a d/dk calculation, iscf is set to -3 automatically.
 The set of symmetries contains only one element for this perturbation.
 symkpt : not enough symmetry to change the number of k points.

 Initialisation of the first-order wave-functions :
  ireadwf=   0

--- !BeginCycle
iteration_state: {dtset: 1, }
solver: {iscf: 7, nstep: 2000, nline: 4, wfoptalg: 0, }
tolerances: {tolwfr: 1.00E-20, }
...

     iter   2DEtotal(Ha)        deltaE(Ha) residm    vres2
-ETOT  1  -83.518924223961     -8.352E+01 1.794E-01 0.000E+00
 ETOT  2  -83.590390334460     -7.147E-02 2.974E-03 0.000E+00
 ETOT  3  -83.590808716014     -4.184E-04 8.162E-04 0.000E+00
 ETOT  4  -83.590812532878     -3.817E-06 7.141E-05 0.000E+00
 ETOT  5  -83.590812574166     -4.129E-08 2.190E-05 0.000E+00
 ETOT  6  -83.590812574636     -4.704E-10 2.483E-06 0.000E+00
 ETOT  7  -83.590812574642     -5.855E-12 7.976E-07 0.000E+00
 ETOT  8  -83.590812574642      5.684E-14 9.643E-08 0.000E+00
 ETOT  9  -83.590812574642      8.527E-14 3.217E-08 0.000E+00
 ETOT 10  -83.590812574642     -3.411E-13 3.986E-09 0.000E+00
 ETOT 11  -83.590812574642      1.279E-13 1.362E-09 0.000E+00
 ETOT 12  -83.590812574642     -1.421E-14 1.717E-10 0.000E+00
 ETOT 13  -83.590812574642      0.000E+00 5.938E-11 0.000E+00
 ETOT 14  -83.590812574642     -2.842E-14 7.591E-12 0.000E+00
 ETOT 15  -83.590812574642      2.842E-14 2.640E-12 0.000E+00
 ETOT 16  -83.590812574642     -2.842E-14 3.413E-13 0.000E+00
 ETOT 17  -83.590812574642      0.000E+00 1.189E-13 0.000E+00
 ETOT 18  -83.590812574642      2.842E-14 1.551E-14 0.000E+00
 ETOT 19  -83.590812574642     -2.842E-14 5.414E-15 0.000E+00
 ETOT 20  -83.590812574642      2.842E-14 7.114E-16 0.000E+00
 ETOT 21  -83.590812574642      0.000E+00 2.488E-16 0.000E+00
 ETOT 22  -83.590812574642      0.000E+00 3.291E-17 0.000E+00
 ETOT 23  -83.590812574642      0.000E+00 1.157E-17 0.000E+00
 ETOT 24  -83.590812574642      0.000E+00 1.540E-18 0.000E+00
 ETOT 25  -83.590812574642      0.000E+00 5.461E-19 0.000E+00
[...]
   0.00000   -0.00000   -0.00000   -0.00000   -0.00000   -0.00000   -0.00000    0.00000
   0.00000   -0.00000   -0.00000   -0.00000    0.00000   -0.00000   -0.00000   -0.00000
   0.00000   -0.00000   -0.00000    0.00003   -0.00211
 prteigrs : prtvol=0 or 1, do not print more k-points.

 Eight components of 2nd-order total energy (hartree) are
 1,2,3: 0th-order hamiltonian combined with 1st-order wavefunctions
     kin0=   1.04385869E+02 eigvalue=  -1.90517122E+01  local=  -4.98817794E+01
 4,5,6: 1st-order hamiltonian combined with 1st and 0th-order wfs
     kin1=  -1.76186878E+02  Hartree=   0.00000000E+00     xc=   0.00000000E+00
 7,8,9: eventually, occupation + non-local contributions
    edocc=   4.29215063E+01     enl0=   5.21692875E+00   enl1=   9.00525329E+00
 1-9 gives the relaxation energy (to be shifted if some occ is /=2.0)
   erelax=  -8.35908126E+01
  No Ewald or frozen-wf contrib.: the relaxation energy is the total one
 2DEtotal=   -0.8359081257E+02 Ha. Also 2DEtotal=   -0.227462168814E+04 eV
    (  non-var. 2DEtotal :   -8.3590812574E+01 Ha)

 Perturbation wavevector (in red.coord.)   0.000000  0.000000  0.000000
 Perturbation : derivative vs k along direction   2
 The set of symmetries contains only one element for this perturbation.
 symkpt : not enough symmetry to change the number of k points.

[...]

 Perturbation wavevector (in red.coord.)   0.000000  0.000000  0.000000
 Perturbation : derivative vs k along direction   3
 The set of symmetries contains only one element for this perturbation.
 symkpt : not enough symmetry to change the number of k points.

 Initialisation of the first-order wave-functions :
  ireadwf=   0

--- !BeginCycle
iteration_state: {dtset: 1, }
solver: {iscf: 7, nstep: 2000, nline: 4, wfoptalg: 0, }
tolerances: {tolwfr: 1.00E-20, }
...

     iter   2DEtotal(Ha)        deltaE(Ha) residm    vres2
-ETOT  1  -2.8332265454288     -2.833E+00 4.765E-03 0.000E+00
 ETOT  2  -2.8353045386823     -2.078E-03 1.084E-03 0.000E+00
 ETOT  3  -2.8353134130069     -8.874E-06 1.765E-04 0.000E+00
 ETOT  4  -2.8353134749126     -6.191E-08 3.714E-05 0.000E+00
 ETOT  5  -2.8353134754493     -5.367E-10 6.632E-06 0.000E+00
 ETOT  6  -2.8353134754546     -5.248E-12 2.378E-06 0.000E+00
 ETOT  7  -2.8353134754546     -6.040E-14 3.762E-07 0.000E+00
 ETOT  8  -2.8353134754546      4.441E-15 1.680E-07 0.000E+00
 ETOT  9  -2.8353134754546     -5.773E-15 2.695E-08 0.000E+00
 ETOT 10  -2.8353134754546      2.665E-15 1.203E-08 0.000E+00
 ETOT 11  -2.8353134754546      8.882E-16 1.940E-09 0.000E+00
 ETOT 12  -2.8353134754546      4.441E-16 8.658E-10 0.000E+00
 ETOT 13  -2.8353134754546     -8.882E-16 1.401E-10 0.000E+00
 ETOT 14  -2.8353134754546      4.441E-16 6.254E-11 0.000E+00
 ETOT 15  -2.8353134754546      0.000E+00 1.016E-11 0.000E+00
 ETOT 16  -2.8353134754546      0.000E+00 4.534E-12 0.000E+00
 ETOT 17  -2.8353134754546      0.000E+00 7.387E-13 0.000E+00
 ETOT 18  -2.8353134754546      0.000E+00 3.298E-13 0.000E+00
 ETOT 19  -2.8353134754546      0.000E+00 5.385E-14 0.000E+00
 ETOT 20  -2.8353134754546      8.882E-16 2.406E-14 0.000E+00
 ETOT 21  -2.8353134754546      0.000E+00 3.936E-15 0.000E+00
 ETOT 22  -2.8353134754546     -4.441E-16 1.760E-15 0.000E+00
 ETOT 23  -2.8353134754546      0.000E+00 2.882E-16 0.000E+00
 ETOT 24  -2.8353134754546     -4.441E-16 1.291E-16 0.000E+00
 ETOT 25  -2.8353134754546      0.000E+00 2.115E-17 0.000E+00
 ETOT 26  -2.8353134754546     -4.441E-16 9.482E-18 0.000E+00
 ETOT 27  -2.8353134754546      4.441E-16 1.554E-18 0.000E+00
 ETOT 28  -2.8353134754546      4.441E-16 6.980E-19 0.000E+00
 ETOT 29  -2.8353134754546      0.000E+00 1.144E-19 0.000E+00
 ETOT 30  -2.8353134754546     -8.882E-16 5.146E-20 0.000E+00
 ETOT 31  -2.8353134754546      0.000E+00 9.823E-21 0.000E+00

 At SCF step   31   max residual=  9.82E-21 < tolwfr=  1.00E-20 =>converged.

 ----iterations are completed or convergence reached----

 dfpt_looppert: DFPT cycle converged with prtwf=-1. Will skip output of the 1st-order WFK file.
 dfpt_looppert : ek2=    5.5745666840E+00
          f-sum rule ratio=    1.0318408415E+00
 prteigrs : about to open file /scratch/users/j/a/jabreu/flow_simple_10atoms/flow/w433/t1/tmpdata/tmp_1WF1_EIG
 Expectation of eigenvalue derivatives (hartree) for nkpt=   2  k points:
  (in case of degenerate eigenvalues, averaged derivative)
 kpt#   1, nband= 29, wtk=  0.50000, kpt=  0.0000  0.0000  0.0000 (reduced coord)
  -0.00000   -0.00000   -0.00000   -0.00000   -0.00000   -0.00000    0.00000   -0.00000
   0.00000    0.00000    0.00000   -0.00000   -0.00000    0.00000    0.00000   -0.00000
  -0.00000   -0.00000   -0.00000   -0.00000   -0.00000    0.00000   -0.00000    0.00000
   0.00000   -0.00000   -0.00000    0.00001   -0.00002
 prteigrs : prtvol=0 or 1, do not print more k-points.

 Eight components of 2nd-order total energy (hartree) are
 1,2,3: 0th-order hamiltonian combined with 1st-order wavefunctions
     kin0=   4.02129841E+00 eigvalue=  -5.76963845E-01  local=  -1.85592009E+00
 4,5,6: 1st-order hamiltonian combined with 1st and 0th-order wfs
     kin1=  -5.75206558E+00  Hartree=   0.00000000E+00     xc=   0.00000000E+00
 7,8,9: eventually, occupation + non-local contributions
    edocc=   1.16452411E+00     enl0=   8.23748904E-02   enl1=   8.14386273E-02
 1-9 gives the relaxation energy (to be shifted if some occ is /=2.0)
   erelax=  -2.83531348E+00
  No Ewald or frozen-wf contrib.: the relaxation energy is the total one
 2DEtotal=   -0.2835313475E+01 Ha. Also 2DEtotal=   -0.771528033440E+02 eV
    (  non-var. 2DEtotal :   -2.8353134754E+00 Ha)

 CALCULATION OF EFFECTIVE MASSES
 NOTE : Additional infos (eff. mass eigenvalues, eigenvectors and, if degenerate, average mass) are available in stdout.

 COMMENTS:
 - At k-point ( 0.000, 0.000, 0.000), bands    19 through    20
   are DEGENERATE (effective mass tensor is therefore not defined).
   See Section IIIB Eqs. (67)-(70) and Appendix E of PRB 93 205147 (2016).
 - Angular average effective mass for Frohlich model is to be averaged over degenerate bands. See later.
 - Associated theta integrals calculated with ntheta=   1000 points.

 K-point ( 0.000, 0.000, 0.000) | band =    19
 Transport equivalent effective mass tensor:
             -0.3215521446             -0.0000139410              0.0000114556
             -0.0000139410             -0.3215984199             -0.0000276606
              0.0000114556             -0.0000276606             -1.7008439425
 Transport equivalent effective mass tensor eigenvalues:
             -1.7008439432             -0.3216022949             -0.3215482690
 Angular average effective mass 1/(<1/m>)=  -0.3753445678
 Angular average effective mass for Frohlich model (<m**0.5>)**2=  -0.4244625963
 Effective masses along directions: (cart. coord. / red. coord. -> eff. mass)
    1:   1.000000  0.000000  0.000000 /   0.894427 -0.447214  0.000000 ->  -0.2759848806
    2:   0.000000  1.000000  0.000000 /   0.000000  1.000000  0.000000 ->  -0.2760278832
    3:   0.000000  0.000000  1.000000 /   0.000000  0.000000  1.000000 ->  -1.6656086739
    4:   0.577350  0.577350  0.577350 /   0.236582  0.086595  0.967745 ->  -0.4210596393
    5:   0.000000  0.707107  0.707107 /   0.000000  0.207124  0.978315 ->  -0.3893045894
    6:   0.707107  0.000000  0.707107 /   0.235818 -0.117909  0.964618 ->  -0.4462583837
    7:   0.707107  0.707107  0.000000 /   0.939071  0.343724  0.000000 ->  -0.2760130344

 K-point ( 0.000, 0.000, 0.000) | band =    20
 Transport equivalent effective mass tensor:
             -6.9462259897             -0.0000761944             -0.0000507976
             -0.0000761944             -6.9465694816             -0.0001021579
             -0.0000507976             -0.0001021579            -15.9282447553
 Transport equivalent effective mass tensor eigenvalues:
            -15.9282447568             -6.9465856232             -6.9462098466
 Angular average effective mass 1/(<1/m>)=  -1.7320743933
 Angular average effective mass for Frohlich model (<m**0.5>)**2=  -2.0044992817
 Effective masses along directions: (cart. coord. / red. coord. -> eff. mass)
    1:   1.000000  0.000000  0.000000 /   0.894427 -0.447214  0.000000 ->  -1.5652811771
    2:   0.000000  1.000000  0.000000 /   0.000000  1.000000  0.000000 ->  -1.5652798032
    3:   0.000000  0.000000  1.000000 /   0.000000  0.000000  1.000000 ->  -1.6656492347
    4:   0.577350  0.577350  0.577350 /   0.236582  0.086595  0.967745 ->  -1.1541185393
    5:   0.000000  0.707107  0.707107 /   0.000000  0.207124  0.978315 ->  -6.1552643376
    6:   0.707107  0.000000  0.707107 /   0.235818 -0.117909  0.964618 ->  -2.0380004117
    7:   0.707107  0.707107  0.000000 /   0.939071  0.343724  0.000000 ->  -1.5654804385

 Angular average effective mass for Frohlich model, averaged over degenerate bands.
 Value of     (<<m**0.5>>)**2 =     1.068444E+00
 Absolute Value of <<m**0.5>> =     1.033656E+00

 K-point ( 0.500, 0.000, 0.500) | band =    21
 Effective mass tensor:
              0.5375187276              0.1863902075              0.2477191640
              0.1863902075              0.3222937662              0.1430208024
              0.2477191640              0.1430208024              0.5967556904
 Effective mass tensor eigenvalues:
              0.2146813518              0.3338810882              0.9080057443
 Angular average effective mass 1/(<1/m>)=   0.3426824981
 Angular average effective mass for Frohlich model (<m**0.5>)**2=   0.3747187143
 Effective masses along directions: (cart. coord. / red. coord. -> eff. mass)
    1:   1.000000  0.000000  0.000000 /   0.894427 -0.447214  0.000000 ->   0.3786694643
    2:   0.000000  1.000000  0.000000 /   0.000000  1.000000  0.000000 ->   0.2508998805
    3:   0.000000  0.000000  1.000000 /   0.000000  0.000000  1.000000 ->   0.4699291760
    4:   0.577350  0.577350  0.577350 /   0.236582  0.086595  0.967745 ->   0.7797430790
    5:   0.000000  0.707107  0.707107 /   0.000000  0.207124  0.978315 ->   0.3868383822
    6:   0.707107  0.000000  0.707107 /   0.235818 -0.117909  0.964618 ->   0.6380416854
    7:   0.707107  0.707107  0.000000 /   0.939071  0.343724  0.000000 ->   0.4654224548

 END OF EFFECTIVE MASSES SECTION

 ---- first-order wavefunction calculations are completed ----

 Total localisation tensor (bohr^2) in cartesian coordinates
  WARNING : still subject to testing - especially symmetries.
      direction              matrix element
   alpha     beta       real part   imaginary part
     1        1       3.7504907458    0.0000000000
     1        2      -1.7928452121    0.0000000000
     1        3       0.0000000000    0.0000000000
     2        1      -1.7928452121    0.0000000000
     2        2       3.1052989975    0.0000000000
     2        3       0.0000000000    0.0000000000
     3        1       0.0000000000    0.0000000000
     3        2       0.0000000000    0.0000000000
     3        3       1.3701493714    0.0000000000

 respfn : d/dk was computed, but no 2DTE, so no DDB output.

== END DATASET(S) ==============================================================

 -outvars: echo values of variables after computation  --------
            acell      1.0000000000E+00  1.0000000000E+00  1.0000000000E+00 Bohr
              amu      2.80855000E+01  1.20110000E+01
             ecut      4.10000000E+01 Hartree
           etotal     -2.8353134755E+00
            fcart      0.0000000000E+00  0.0000000000E+00  0.0000000000E+00
                       0.0000000000E+00  0.0000000000E+00  0.0000000000E+00
                       0.0000000000E+00  0.0000000000E+00  0.0000000000E+00
                       0.0000000000E+00  0.0000000000E+00  0.0000000000E+00
                       0.0000000000E+00  0.0000000000E+00  0.0000000000E+00
                       0.0000000000E+00  0.0000000000E+00  0.0000000000E+00
                       0.0000000000E+00  0.0000000000E+00  0.0000000000E+00
                       0.0000000000E+00  0.0000000000E+00  0.0000000000E+00
                       0.0000000000E+00  0.0000000000E+00  0.0000000000E+00
                       0.0000000000E+00  0.0000000000E+00  0.0000000000E+00
-          fftalg         512
           irdden           1
           irdwfk           1
           istwfk        1    1
              ixc     -116133
              kpt      0.00000000E+00  0.00000000E+00  0.00000000E+00
                       5.00000000E-01  0.00000000E+00  5.00000000E-01
           kptopt           0
P           mkmem           2
P          mkqmem           2
P          mk1mem           2
            natom          10
            nband          29
           nbdbuf           4
            ngfft          36      36     144
             nkpt           2
            nstep        2000
             nsym           6
           ntypat           2
              occ      2.000000  2.000000  2.000000  2.000000  2.000000  2.000000
                       2.000000  2.000000  2.000000  2.000000  2.000000  2.000000
                       2.000000  2.000000  2.000000  2.000000  2.000000  2.000000
                       2.000000  2.000000  0.000000  0.000000  0.000000  0.000000
                       0.000000  0.000000  0.000000  0.000000  0.000000
        optdriver           1
            prtwf          -1
            rfdir           1       1       1
           rfelfd           2
            rprim      5.8188977654E+00  0.0000000000E+00  0.0000000000E+00
                      -2.9094488827E+00  5.0393132868E+00  0.0000000000E+00
                       0.0000000000E+00  0.0000000000E+00  2.3802320811E+01
          spgroup         156
           strten      0.0000000000E+00  0.0000000000E+00  0.0000000000E+00
                       0.0000000000E+00  0.0000000000E+00  0.0000000000E+00
           symrel      1  0  0   0  1  0   0  0  1      -1  0  0   1  1  0   0  0  1
                       0  1  0  -1 -1  0   0  0  1       0 -1  0  -1  0  0   0  0  1
                      -1 -1  0   1  0  0   0  0  1       1  1  0   0 -1  0   0  0  1
           tolwfr      1.00000000E-20
            typat      1  1  1  1  1  2  2  2  2  2
           useylm           1
              wtk        0.50000    0.50000
           xangst      0.0000000000E+00  0.0000000000E+00  7.5617581000E+00
                       0.0000000000E+00  0.0000000000E+00  2.5173405553E+00
                       1.5396140383E+00  8.8889657944E-01  1.2593302895E+01
                       0.0000000000E+00  1.7777931589E+00  1.0077499008E+01
                       1.5396140383E+00  8.8889657944E-01  5.0412938246E+00
                       0.0000000000E+00  0.0000000000E+00  6.2343407882E-01
                       0.0000000000E+00  1.7777931589E+00  8.1879506252E+00
                       1.5396140383E+00  8.8889657944E-01  1.0704623611E+01
                       0.0000000000E+00  0.0000000000E+00  5.6724994168E+00
                       1.5396140383E+00  8.8889657944E-01  3.1474503263E+00
            xcart      0.0000000000E+00  0.0000000000E+00  1.4289651892E+01
                       0.0000000000E+00  0.0000000000E+00  4.7570842327E+00
                       2.9094488827E+00  1.6797710956E+00  2.3797893580E+01
                       0.0000000000E+00  3.3595421912E+00  1.9043713230E+01
                       2.9094488827E+00  1.6797710956E+00  9.5266646839E+00
                       0.0000000000E+00  0.0000000000E+00  1.1781196709E+00
                       0.0000000000E+00  3.3595421912E+00  1.5472984271E+01
                       2.9094488827E+00  1.6797710956E+00  2.0228806981E+01
                       0.0000000000E+00  0.0000000000E+00  1.0719470387E+01
                       2.9094488827E+00  1.6797710956E+00  5.9478191336E+00
             xred      0.0000000000E+00  0.0000000000E+00  6.0034700000E-01
                       0.0000000000E+00  0.0000000000E+00  1.9985800000E-01
                       6.6666666667E-01  3.3333333333E-01  9.9981400000E-01
                       3.3333333333E-01  6.6666666667E-01  8.0007800000E-01
                       6.6666666667E-01  3.3333333333E-01  4.0024100000E-01
                       0.0000000000E+00  0.0000000000E+00  4.9496000000E-02
                       3.3333333333E-01  6.6666666667E-01  6.5006200000E-01
                       6.6666666667E-01  3.3333333333E-01  8.4986700000E-01
                       0.0000000000E+00  0.0000000000E+00  4.5035400000E-01
                       6.6666666667E-01  3.3333333333E-01  2.4988400000E-01
            znucl       14.00000    6.00000

- Timing analysis has been suppressed with timopt=0

 Suggested references for the acknowledgment of ABINIT usage.

 Calculation completed.
.Delivered   2 WARNINGs and   5 COMMENTs to log file.