.Version 9.5.2 of ABINIT

 ABINIT is a project of the Universite Catholique de Louvain,
 Corning Inc. and other collaborators, see ~abinit/doc/developers/contributors.txt .
 acknowledgments of the ABINIT effort.

.Starting date : Mon 24 May 2021.
- ( at 22h55 )

- input  file    -> /scratch/users/j/a/jabreu/flow_simple_10atoms/flow/w451/t1/run.abi
- output file    -> /scratch/users/j/a/jabreu/flow_simple_10atoms/flow/w451/t1/run.abo
- root for input  files -> /scratch/users/j/a/jabreu/flow_simple_10atoms/flow/w451/t1/indata/in
- root for output files -> /scratch/users/j/a/jabreu/flow_simple_10atoms/flow/w451/t1/outdata/out

 Symmetries : space group Cm c m (# 63); Bravais oC (1-face-center ortho.)
     intxc =       0      iscf =       7    lmnmax =      32     lnmax =       8
     mgfft =      96  mpssoang =       4    mqgrid =    4072     natom =      10
  nloc_mem =       1    nspden =       1   nspinor =       1    nsppol =       1
      nsym =       8    n1xccc =    2501    ntypat =       3    occopt =       1
   xclevel =       2
-    mband =          59        mffmem =           1         mkmem =           1
-   mkqmem =           1        mk1mem =           1           mpw =       39539
      nfft =      829440          nkpt =           1
  Rough estimation (10% accuracy) of disk space for files :

------------- Echo of variables that govern the present computation ------------
-
- outvars: echo of selected default values
-   iomode0 =  0 , fftalg0 =512 , wfoptalg0 =  0
-
- outvars: echo of global parameters not present in the input file
-  max_nthreads =    0
-
 -outvars: echo values of preprocessed input variables --------
            acell      1.0000000000E+00  1.0000000000E+00  1.0000000000E+00 Bohr
              amu      1.32905430E+02  1.12411000E+02  7.99040000E+01
             ecut      5.10000000E+01 Hartree
-          fftalg         512
           irdden           1
           irdwfk           1
           istwfk        1
              ixc     -116133
           kptopt           0
P           mkmem           1
P          mkqmem           1
P          mk1mem           1
            natom          10
            nband          59
           nbdbuf           4
            ngfft          96      96      90
             nkpt           1
            nstep        2000
             nsym           8
           ntypat           3
              occ      2.000000  2.000000  2.000000  2.000000  2.000000  2.000000
                       2.000000  2.000000  2.000000  2.000000  2.000000  2.000000
                       2.000000  2.000000  2.000000  2.000000  2.000000  2.000000
                       2.000000  2.000000  2.000000  2.000000  2.000000  2.000000
                       2.000000  2.000000  2.000000  2.000000  2.000000  2.000000
                       2.000000  2.000000  2.000000  2.000000  2.000000  2.000000
                       2.000000  2.000000  2.000000  2.000000  2.000000  2.000000
                       2.000000  2.000000  2.000000  2.000000  2.000000  2.000000
                       2.000000  2.000000  0.000000  0.000000  0.000000  0.000000
                       0.000000  0.000000  0.000000  0.000000  0.000000
        optdriver           1
            prtwf          -1
            rfdir           1       1       1
           rfelfd           2
            rprim      1.4395228013E+01  0.0000000000E+00  0.0000000000E+00
                      -7.1976140063E+00  1.2466633152E+01  0.0000000000E+00
                       0.0000000000E+00  0.0000000000E+00  1.2665648845E+01
          spgroup          63
           symrel      1  0  0   0  1  0   0  0  1      -1  0  0   0 -1  0   0  0 -1
                       0  1  0   1  0  0   0  0  1       0 -1  0  -1  0  0   0  0 -1
                      -1  0  0   0 -1  0   0  0  1       1  0  0   0  1  0   0  0 -1
                       0 -1  0  -1  0  0   0  0  1       0  1  0   1  0  0   0  0 -1
            tnons      0.0000000  0.0000000  0.0000000    -0.0000000 -0.0000000  0.0000000
                      -0.0000000  0.0000000  0.5000000    -0.0000000 -0.0000000  0.5000000
                      -0.0000000 -0.0000000  0.5000000     0.0000000  0.0000000  0.5000000
                      -0.0000000 -0.0000000  0.0000000    -0.0000000  0.0000000  0.0000000
           tolwfr      1.00000000E-20
            typat      1  1  2  2  3  3  3  3  3  3
           useylm           1
           xangst      3.8088132887E+00  2.1990193771E+00  1.6755931752E+00
                      -3.8088166070E-10  4.3980387548E+00  5.0267795255E+00
                       0.0000000000E+00  0.0000000000E+00  0.0000000000E+00
                       0.0000000000E+00  0.0000000000E+00  3.3511863504E+00
                       1.9044510801E+00  1.0994327230E+00  5.0267795255E+00
                      -1.9045399526E+00  5.4976254090E+00  1.6755931752E+00
                      -8.8872183101E-05  2.1990193771E+00  1.6755931752E+00
                       3.8089021605E+00  4.3980387548E+00  5.0267795255E+00
                       5.7133532410E+00  1.0994327230E+00  5.0267795255E+00
                       1.9043622083E+00  5.4976254090E+00  1.6755931752E+00
            xcart      7.1976140070E+00  4.1555443836E+00  3.1664122112E+00
                      -7.1976202776E-10  8.3110887685E+00  9.4992366337E+00
                       0.0000000000E+00  0.0000000000E+00  0.0000000000E+00
                       0.0000000000E+00  0.0000000000E+00  6.3328244224E+00
                       3.5988909748E+00  2.0776267480E+00  9.4992366337E+00
                      -3.5990589196E+00  1.0389006404E+01  3.1664122112E+00
                      -1.6794408689E-04  4.1555443836E+00  3.1664122112E+00
                       7.1977819504E+00  8.3110887685E+00  9.4992366337E+00
                       1.0796672926E+01  2.0776267480E+00  9.4992366337E+00
                       3.5987230315E+00  1.0389006404E+01  3.1664122112E+00
             xred      6.6666666670E-01  3.3333333330E-01  2.5000000000E-01
                       3.3333333330E-01  6.6666666670E-01  7.5000000000E-01
                       0.0000000000E+00  0.0000000000E+00  0.0000000000E+00
                       0.0000000000E+00  0.0000000000E+00  5.0000000000E-01
                       3.3333333330E-01  1.6665500000E-01  7.5000000000E-01
                       1.6665500000E-01  8.3334500000E-01  2.5000000000E-01
                       1.6665500000E-01  3.3333333330E-01  2.5000000000E-01
                       8.3334500000E-01  6.6666666670E-01  7.5000000000E-01
                       8.3334500000E-01  1.6665500000E-01  7.5000000000E-01
                       6.6666666670E-01  8.3334500000E-01  2.5000000000E-01
            znucl       55.00000   48.00000   35.00000

 chkinp: Checking input parameters for consistency.

== DATASET  1 ==================================================================
-   mpi_nproc: 1, omp_nthreads: -1 (-1 if OMP is not activated)

--- !DatasetInfo
iteration_state: {dtset: 1, }
dimensions: {natom: 10, nkpt: 1, mband: 59, nsppol: 1, nspinor: 1, nspden: 1, mpw: 39539, }
cutoff_energies: {ecut:  51.0, pawecutdg:  -1.0, }
electrons: {nelect:   1.00000000E+02, charge:   0.00000000E+00, occopt:   1.00000000E+00, tsmear:   1.00000000E-02, }
meta: {optdriver: 1, rfelfd: 2, }
...

 Real(R)+Recip(G) space primitive vectors, cartesian coordinates (Bohr,Bohr^-1):
 R(1)= 14.3952280  0.0000000  0.0000000  G(1)=  0.0694675  0.0401071  0.0000000
 R(2)= -7.1976140 12.4666332  0.0000000  G(2)=  0.0000000  0.0802141  0.0000000
 R(3)=  0.0000000  0.0000000 12.6656488  G(3)=  0.0000000  0.0000000  0.0789537
 Unit cell volume ucvol=  2.2729777E+03 bohr^3
 Angles (23,13,12)=  9.00000000E+01  9.00000000E+01  1.20000000E+02 degrees

 getcut: wavevector=  0.0000  0.0000  0.0000  ngfft=  96  96  90
         ecut(hartree)=     51.000   => boxcut(ratio)=   2.07445

--- Pseudopotential description ------------------------------------------------
- pspini: atom type   1  psp file is /scratch/users/j/a/jabreu/pseudos/PBEsol/Cs.psp8
- pspatm: opening atomic psp file    /scratch/users/j/a/jabreu/pseudos/PBEsol/Cs.psp8
- Cs    ONCVPSP-3.3.0  r_core=   2.27353   1.85623   2.01788   1.90105
- 55.00000   9.00000    180112                znucl, zion, pspdat
    8 -116133    3    4       600   0.00000   pspcod,pspxc,lmax,lloc,mmax,r2well
    5.99000000000000    5.00000000000000    0.00000000000000   rchrg,fchrg,qchrg
     nproj     2     2     2     2
     extension_switch     1
  pspatm : epsatm=   22.12462445
         --- l  ekb(1:nproj) -->
             0    6.214110    0.767882
             1    6.311966    0.793598
             2    3.769790    0.913105
             3   -9.247129   -2.432478
 pspatm: atomic psp has been read  and splines computed

- pspini: atom type   2  psp file is /scratch/users/j/a/jabreu/pseudos/PBEsol/Cd.psp8
- pspatm: opening atomic psp file    /scratch/users/j/a/jabreu/pseudos/PBEsol/Cd.psp8
- Cd    ONCVPSP-3.3.0  r_core=   1.25838   1.30423   1.35174
- 48.00000  20.00000    180112                znucl, zion, pspdat
    8 -116133    2    4       600   0.00000   pspcod,pspxc,lmax,lloc,mmax,r2well
    5.99000000000000    6.00000000000000    0.00000000000000   rchrg,fchrg,qchrg
     nproj     2     2     2
     extension_switch     1
  pspatm : epsatm=   23.26728021
         --- l  ekb(1:nproj) -->
             0   63.701523    3.700425
             1    8.703569    1.290373
             2    0.983656   -0.721725
 pspatm: atomic psp has been read  and splines computed

- pspini: atom type   3  psp file is /scratch/users/j/a/jabreu/pseudos/PBEsol/Br.psp8
- pspatm: opening atomic psp file    /scratch/users/j/a/jabreu/pseudos/PBEsol/Br.psp8
- Br    ONCVPSP-3.3.0  r_core=   1.81012   1.51356   1.92136
- 35.00000   7.00000    180112                znucl, zion, pspdat
    8 -116133    2    4       600   0.00000   pspcod,pspxc,lmax,lloc,mmax,r2well
    5.99000000000000    8.00000000000000    0.00000000000000   rchrg,fchrg,qchrg
     nproj     2     2     2
     extension_switch     1
  pspatm : epsatm=   10.94933070
         --- l  ekb(1:nproj) -->
             0    8.508690    0.897946
             1    5.393311    0.892021
             2    2.527513    0.394763
 pspatm: atomic psp has been read  and splines computed

   1.56479794E+04                                ecore*ucvol(ha*bohr**3)

 ==>  initialize data related to q vector <==

 The list of irreducible perturbations for this q vector is:
    1)    idir= 1    ipert=  11
    2)    idir= 2    ipert=  11
    3)    idir= 3    ipert=  11

 Perturbation wavevector (in red.coord.)   0.000000  0.000000  0.000000
 Perturbation : derivative vs k along direction   1

 dfpt_looppert : COMMENT -
  In a d/dk calculation, iscf is set to -3 automatically.
 The set of symmetries contains only one element for this perturbation.
 symkpt : not enough symmetry to change the number of k points.

 Initialisation of the first-order wave-functions :
  ireadwf=   0

--- !BeginCycle
iteration_state: {dtset: 1, }
solver: {iscf: 7, nstep: 2000, nline: 4, wfoptalg: 0, }
tolerances: {tolwfr: 1.00E-20, }
...

     iter   2DEtotal(Ha)        deltaE(Ha) residm    vres2
[...]
 ETOT 31  -26.081572827794      3.553E-15 2.016E-09 0.000E+00
 ETOT 32  -26.081572827794     -1.421E-14 1.188E-10 0.000E+00
 ETOT 33  -26.081572827794      7.105E-15 7.866E-10 0.000E+00
 ETOT 34  -26.081572827794      0.000E+00 4.638E-11 0.000E+00
 ETOT 35  -26.081572827794      7.105E-15 3.069E-10 0.000E+00
 ETOT 36  -26.081572827794      3.553E-15 1.810E-11 0.000E+00
 ETOT 37  -26.081572827794     -3.553E-15 1.198E-10 0.000E+00
 ETOT 38  -26.081572827794      0.000E+00 7.065E-12 0.000E+00
 ETOT 39  -26.081572827794      0.000E+00 4.674E-11 0.000E+00
 ETOT 40  -26.081572827794     -3.553E-15 2.758E-12 0.000E+00
 ETOT 41  -26.081572827794      3.553E-15 1.824E-11 0.000E+00
 ETOT 42  -26.081572827794      0.000E+00 1.076E-12 0.000E+00
 ETOT 43  -26.081572827794     -3.553E-15 7.118E-12 0.000E+00
 ETOT 44  -26.081572827794      3.553E-15 4.201E-13 0.000E+00
 ETOT 45  -26.081572827794      0.000E+00 2.778E-12 0.000E+00
 ETOT 46  -26.081572827794      3.553E-15 1.639E-13 0.000E+00
 ETOT 47  -26.081572827794      0.000E+00 1.084E-12 0.000E+00
 ETOT 48  -26.081572827794     -3.553E-15 6.398E-14 0.000E+00
 ETOT 49  -26.081572827794      0.000E+00 4.230E-13 0.000E+00
 ETOT 50  -26.081572827794     -7.105E-15 2.497E-14 0.000E+00
 ETOT 51  -26.081572827794      0.000E+00 1.651E-13 0.000E+00
 ETOT 52  -26.081572827794      1.066E-14 9.745E-15 0.000E+00
 ETOT 53  -26.081572827794      3.553E-15 6.442E-14 0.000E+00
 ETOT 54  -26.081572827794      0.000E+00 3.803E-15 0.000E+00
 ETOT 55  -26.081572827794     -1.421E-14 2.514E-14 0.000E+00
 ETOT 56  -26.081572827794      7.105E-15 1.484E-15 0.000E+00
 ETOT 57  -26.081572827794      7.105E-15 9.811E-15 0.000E+00
 ETOT 58  -26.081572827794     -7.105E-15 5.792E-16 0.000E+00
 ETOT 59  -26.081572827794     -1.421E-14 3.829E-15 0.000E+00
 ETOT 60  -26.081572827794      1.066E-14 2.260E-16 0.000E+00
 ETOT 61  -26.081572827794     -1.421E-14 1.494E-15 0.000E+00
[...]
 ETOT 68  -26.081572827794     -3.553E-15 5.242E-18 0.000E+00
 ETOT 69  -26.081572827794      1.066E-14 3.466E-17 0.000E+00
 ETOT 70  -26.081572827794     -7.105E-15 2.046E-18 0.000E+00
 ETOT 71  -26.081572827794      0.000E+00 1.353E-17 0.000E+00
 ETOT 72  -26.081572827794      1.066E-14 7.983E-19 0.000E+00
 ETOT 73  -26.081572827794      3.553E-15 5.275E-18 0.000E+00
 ETOT 74  -26.081572827794      0.000E+00 3.115E-19 0.000E+00
 ETOT 75  -26.081572827794     -3.553E-15 2.060E-18 0.000E+00
 ETOT 76  -26.081572827794      0.000E+00 1.216E-19 0.000E+00
 ETOT 77  -26.081572827794     -1.421E-14 8.039E-19 0.000E+00
 ETOT 78  -26.081572827794      3.553E-15 4.744E-20 0.000E+00
 ETOT 79  -26.081572827794      7.105E-15 3.137E-19 0.000E+00
 ETOT 80  -26.081572827794      3.553E-15 1.851E-20 0.000E+00
 ETOT 81  -26.081572827794      0.000E+00 1.228E-19 0.000E+00
 ETOT 82  -26.081572827794     -1.776E-14 9.929E-21 0.000E+00

 At SCF step   82   max residual=  9.93E-21 < tolwfr=  1.00E-20 =>converged.

 ----iterations are completed or convergence reached----

 dfpt_looppert: DFPT cycle converged with prtwf=-1. Will skip output of the 1st-order WFK file.
 dfpt_looppert : ek2=    4.9219233525E+01
          f-sum rule ratio=    9.9989682404E-01
 prteigrs : about to open file /scratch/users/j/a/jabreu/flow_simple_10atoms/flow/w451/t1/tmpdata/tmp_1WF1_EIG
 Expectation of eigenvalue derivatives (hartree) for nkpt=   1  k points:
  (in case of degenerate eigenvalues, averaged derivative)
 kpt#   1, nband= 59, wtk=  1.00000, kpt=  0.0000  0.0000  0.0000 (reduced coord)
   0.00000    0.00000    0.00000   -0.00000   -0.00000    0.00000   -0.00000   -0.00000
   0.00000    0.00000    0.00000    0.00000    0.00000    0.00000   -0.00000   -0.00000
  -0.00000    0.00000   -0.00000    0.00000   -0.00000   -0.00000    0.00000   -0.00000
   0.00000   -0.00000   -0.00000   -0.00000    0.00000   -0.00000   -0.00000   -0.00000
  -0.00000   -0.00000    0.00000   -0.00000    0.00000   -0.00000   -0.00000    0.00000
  -0.00000    0.00000   -0.00000   -0.00000   -0.00000   -0.00000    0.00000   -0.00000
   0.00000   -0.00000   -0.00000    0.00000   -0.00000    0.00000   -0.00000   -0.00000
  -0.00000    0.00000   -0.00000

 Eight components of 2nd-order total energy (hartree) are
 1,2,3: 0th-order hamiltonian combined with 1st-order wavefunctions
     kin0=   4.00086964E+01 eigvalue=   1.50121633E+00  local=  -2.42029911E+01
 4,5,6: 1st-order hamiltonian combined with 1st and 0th-order wfs
     kin1=  -4.92141553E+01  Hartree=   0.00000000E+00     xc=   0.00000000E+00
 7,8,9: eventually, occupation + non-local contributions
    edocc=   3.98308845E+00     enl0=   4.79156273E+00   enl1=  -2.94899037E+00
 1-9 gives the relaxation energy (to be shifted if some occ is /=2.0)
   erelax=  -2.60815728E+01
  No Ewald or frozen-wf contrib.: the relaxation energy is the total one
 2DEtotal=   -0.2608157283E+02 Ha. Also 2DEtotal=   -0.709715689890E+03 eV
    (  non-var. 2DEtotal :   -2.6081572828E+01 Ha)

 CALCULATION OF EFFECTIVE MASSES
 NOTE : Additional infos (eff. mass eigenvalues, eigenvectors and, if degenerate, average mass) are available in stdout.

 COMMENTS:
 - At k-point ( 0.000, 0.000, 0.000), bands    49 through    50
   are DEGENERATE (effective mass tensor is therefore not defined).
   See Section IIIB Eqs. (67)-(70) and Appendix E of PRB 93 205147 (2016).
 - Angular average effective mass for Frohlich model is to be averaged over degenerate bands. See later.
 - Associated theta integrals calculated with ntheta=   1000 points.

 K-point ( 0.000, 0.000, 0.000) | band =    49
 Transport equivalent effective mass tensor:
             -0.3883744610              0.0000068855             -0.0000000000
              0.0000068855             -0.3883665104              0.0000000000
             -0.0000000000              0.0000000000             -2.2811705568
 Transport equivalent effective mass tensor eigenvalues:
             -2.2811705568             -0.3883784363             -0.3883625350
 Angular average effective mass 1/(<1/m>)=  -0.5368559386
 Angular average effective mass for Frohlich model (<m**0.5>)**2=  -0.6141436612
 Effective masses along directions: (cart. coord. / red. coord. -> eff. mass)
    1:   1.000000  0.000000  0.000000 /   0.894427 -0.447214  0.000000 ->  -0.3883946657
    2:   0.000000  1.000000  0.000000 /   0.000000  1.000000  0.000000 ->  -0.3883760678
    3:   0.000000  0.000000  1.000000 /   0.000000  0.000000  1.000000 ->  -2.2809205913
    4:   0.577350  0.577350  0.577350 /   0.723933  0.264978  0.636952 ->  -0.5368206627
    5:   0.000000  0.707107  0.707107 /   0.000000  0.701485  0.712684 ->  -0.6637525055
    6:   0.707107  0.000000  0.707107 /   0.702878 -0.351439  0.618428 ->  -0.6637690724
    7:   0.707107  0.707107  0.000000 /   0.939071  0.343724  0.000000 ->  -0.3883398061

 K-point ( 0.000, 0.000, 0.000) | band =    50
 Transport equivalent effective mass tensor:
             -4.0348124804              0.0013392733             -0.0000000000
              0.0013392733             -4.0332660223             -0.0000000000
             -0.0000000000             -0.0000000000             -2.2811766830
 Transport equivalent effective mass tensor eigenvalues:
             -4.0355857106             -4.0324927921             -2.2811766830
 Angular average effective mass 1/(<1/m>)=  -3.2114558928
 Angular average effective mass for Frohlich model (<m**0.5>)**2=  -3.2877523854
 Effective masses along directions: (cart. coord. / red. coord. -> eff. mass)
    1:   1.000000  0.000000  0.000000 /   0.894427 -0.447214  0.000000 ->  -4.0331398603
    2:   0.000000  1.000000  0.000000 /   0.000000  1.000000  0.000000 ->  -4.0317072686
    3:   0.000000  0.000000  1.000000 /   0.000000  0.000000  1.000000 ->  -2.2814209305
    4:   0.577350  0.577350  0.577350 /   0.723933  0.264978  0.636952 ->  -3.2114595378
    5:   0.000000  0.707107  0.707107 /   0.000000  0.701485  0.712684 ->  -2.9136284538
    6:   0.707107  0.000000  0.707107 /   0.702878 -0.351439  0.618428 ->  -2.9142066426
    7:   0.707107  0.707107  0.000000 /   0.939071  0.343724  0.000000 ->  -4.0343593532

 Angular average effective mass for Frohlich model, averaged over degenerate bands.
 Value of     (<<m**0.5>>)**2 =     1.685958E+00
 Absolute Value of <<m**0.5>> =     1.298445E+00

 K-point ( 0.000, 0.000, 0.000) | band =    51
 Effective mass tensor:
              0.2838110226              0.0000067734              0.0000000000
              0.0000067734              0.2838188439             -0.0000000000
              0.0000000000             -0.0000000000              0.3542229047
 Effective mass tensor eigenvalues:
              0.2838071120              0.2838227545              0.3542229047
 Angular average effective mass 1/(<1/m>)=   0.3039536253
 Angular average effective mass for Frohlich model (<m**0.5>)**2=   0.3049099234
 Effective masses along directions: (cart. coord. / red. coord. -> eff. mass)
    1:   1.000000  0.000000  0.000000 /   0.894427 -0.447214  0.000000 ->   0.2838110225
    2:   0.000000  1.000000  0.000000 /   0.000000  1.000000  0.000000 ->   0.2838188437
    3:   0.000000  0.000000  1.000000 /   0.000000  0.000000  1.000000 ->   0.3542229047
    4:   0.577350  0.577350  0.577350 /   0.723933  0.264978  0.636952 ->   0.3039588046
    5:   0.000000  0.707107  0.707107 /   0.000000  0.701485  0.712684 ->   0.3151365423
    6:   0.707107  0.000000  0.707107 /   0.702878 -0.351439  0.618428 ->   0.3151317210
    7:   0.707107  0.707107  0.000000 /   0.939071  0.343724  0.000000 ->   0.2838217066

 END OF EFFECTIVE MASSES SECTION

 ---- first-order wavefunction calculations are completed ----

 Total localisation tensor (bohr^2) in cartesian coordinates
  WARNING : still subject to testing - especially symmetries.
      direction              matrix element
   alpha     beta       real part   imaginary part
     1        1       2.2421300942    0.0000000000
     1        2      -0.7766965417    0.0000000000
     1        3       0.0000000000    0.0000000000
     2        1      -0.7766965417    0.0000000000
     2        2       1.3452778723    0.0000000000
     2        3       0.0000000000    0.0000000000
     3        1       0.0000000000    0.0000000000
     3        2       0.0000000000    0.0000000000
     3        3       0.9886340837    0.0000000000

 respfn : d/dk was computed, but no 2DTE, so no DDB output.

== END DATASET(S) ==============================================================

 -outvars: echo values of variables after computation  --------
            acell      1.0000000000E+00  1.0000000000E+00  1.0000000000E+00 Bohr
              amu      1.32905430E+02  1.12411000E+02  7.99040000E+01
             ecut      5.10000000E+01 Hartree
           etotal     -2.6081572828E+01
            fcart      0.0000000000E+00  0.0000000000E+00  0.0000000000E+00
                       0.0000000000E+00  0.0000000000E+00  0.0000000000E+00
                       0.0000000000E+00  0.0000000000E+00  0.0000000000E+00
                       0.0000000000E+00  0.0000000000E+00  0.0000000000E+00
                       0.0000000000E+00  0.0000000000E+00  0.0000000000E+00
                       0.0000000000E+00  0.0000000000E+00  0.0000000000E+00
                       0.0000000000E+00  0.0000000000E+00  0.0000000000E+00
                       0.0000000000E+00  0.0000000000E+00  0.0000000000E+00
                       0.0000000000E+00  0.0000000000E+00  0.0000000000E+00
                       0.0000000000E+00  0.0000000000E+00  0.0000000000E+00
-          fftalg         512
           irdden           1
           irdwfk           1
           istwfk        1
              ixc     -116133
           kptopt           0
P           mkmem           1
P          mkqmem           1
P          mk1mem           1
            natom          10
            nband          59
           nbdbuf           4
            ngfft          96      96      90
             nkpt           1
            nstep        2000
             nsym           8
           ntypat           3
              occ      2.000000  2.000000  2.000000  2.000000  2.000000  2.000000
                       2.000000  2.000000  2.000000  2.000000  2.000000  2.000000
                       2.000000  2.000000  2.000000  2.000000  2.000000  2.000000
                       2.000000  2.000000  2.000000  2.000000  2.000000  2.000000
                       2.000000  2.000000  2.000000  2.000000  2.000000  2.000000
                       2.000000  2.000000  2.000000  2.000000  2.000000  2.000000
                       2.000000  2.000000  2.000000  2.000000  2.000000  2.000000
                       2.000000  2.000000  2.000000  2.000000  2.000000  2.000000
                       2.000000  2.000000  0.000000  0.000000  0.000000  0.000000
                       0.000000  0.000000  0.000000  0.000000  0.000000
        optdriver           1
            prtwf          -1
            rfdir           1       1       1
           rfelfd           2
            rprim      1.4395228013E+01  0.0000000000E+00  0.0000000000E+00
                      -7.1976140063E+00  1.2466633152E+01  0.0000000000E+00
                       0.0000000000E+00  0.0000000000E+00  1.2665648845E+01
          spgroup          63
           strten      0.0000000000E+00  0.0000000000E+00  0.0000000000E+00
                       0.0000000000E+00  0.0000000000E+00  0.0000000000E+00
           symrel      1  0  0   0  1  0   0  0  1      -1  0  0   0 -1  0   0  0 -1
                       0  1  0   1  0  0   0  0  1       0 -1  0  -1  0  0   0  0 -1
                      -1  0  0   0 -1  0   0  0  1       1  0  0   0  1  0   0  0 -1
                       0 -1  0  -1  0  0   0  0  1       0  1  0   1  0  0   0  0 -1
            tnons      0.0000000  0.0000000  0.0000000    -0.0000000 -0.0000000  0.0000000
                      -0.0000000  0.0000000  0.5000000    -0.0000000 -0.0000000  0.5000000
                      -0.0000000 -0.0000000  0.5000000     0.0000000  0.0000000  0.5000000
                      -0.0000000 -0.0000000  0.0000000    -0.0000000  0.0000000  0.0000000
           tolwfr      1.00000000E-20
            typat      1  1  2  2  3  3  3  3  3  3
           useylm           1
           xangst      3.8088132887E+00  2.1990193771E+00  1.6755931752E+00
                      -3.8088166070E-10  4.3980387548E+00  5.0267795255E+00
                       0.0000000000E+00  0.0000000000E+00  0.0000000000E+00
                       0.0000000000E+00  0.0000000000E+00  3.3511863504E+00
                       1.9044510801E+00  1.0994327230E+00  5.0267795255E+00
                      -1.9045399526E+00  5.4976254090E+00  1.6755931752E+00
                      -8.8872183101E-05  2.1990193771E+00  1.6755931752E+00
                       3.8089021605E+00  4.3980387548E+00  5.0267795255E+00
                       5.7133532410E+00  1.0994327230E+00  5.0267795255E+00
                       1.9043622083E+00  5.4976254090E+00  1.6755931752E+00
            xcart      7.1976140070E+00  4.1555443836E+00  3.1664122112E+00
                      -7.1976202776E-10  8.3110887685E+00  9.4992366337E+00
                       0.0000000000E+00  0.0000000000E+00  0.0000000000E+00
                       0.0000000000E+00  0.0000000000E+00  6.3328244224E+00
                       3.5988909748E+00  2.0776267480E+00  9.4992366337E+00
                      -3.5990589196E+00  1.0389006404E+01  3.1664122112E+00
                      -1.6794408689E-04  4.1555443836E+00  3.1664122112E+00
                       7.1977819504E+00  8.3110887685E+00  9.4992366337E+00
                       1.0796672926E+01  2.0776267480E+00  9.4992366337E+00
                       3.5987230315E+00  1.0389006404E+01  3.1664122112E+00
             xred      6.6666666670E-01  3.3333333330E-01  2.5000000000E-01
                       3.3333333330E-01  6.6666666670E-01  7.5000000000E-01
                       0.0000000000E+00  0.0000000000E+00  0.0000000000E+00
                       0.0000000000E+00  0.0000000000E+00  5.0000000000E-01
                       3.3333333330E-01  1.6665500000E-01  7.5000000000E-01
                       1.6665500000E-01  8.3334500000E-01  2.5000000000E-01
                       1.6665500000E-01  3.3333333330E-01  2.5000000000E-01
                       8.3334500000E-01  6.6666666670E-01  7.5000000000E-01
                       8.3334500000E-01  1.6665500000E-01  7.5000000000E-01
                       6.6666666670E-01  8.3334500000E-01  2.5000000000E-01
            znucl       55.00000   48.00000   35.00000

- Timing analysis has been suppressed with timopt=0

 Suggested references for the acknowledgment of ABINIT usage.

 Calculation completed.
.Delivered   2 WARNINGs and   6 COMMENTs to log file.