.Version 9.5.1 of ABINIT

 ABINIT is a project of the Universite Catholique de Louvain,
 Corning Inc. and other collaborators, see ~abinit/doc/developers/contributors.txt .
 acknowledgments of the ABINIT effort.

.Starting date : Tue 27 Apr 2021.
- ( at 18h39 )

- input  file    -> /scratch/users/j/a/jabreu/flow_simple_4atoms/flow/w229/t1/run.abi
- output file    -> /scratch/users/j/a/jabreu/flow_simple_4atoms/flow/w229/t1/run.abo
- root for input  files -> /scratch/users/j/a/jabreu/flow_simple_4atoms/flow/w229/t1/indata/in
- root for output files -> /scratch/users/j/a/jabreu/flow_simple_4atoms/flow/w229/t1/outdata/out

 Symmetries : space group R-3 m (#166); Bravais hR (rhombohedral)
     intxc =       0      iscf =       7    lmnmax =      18     lnmax =       6
     mgfft =      72  mpssoang =       3    mqgrid =    3001     natom =       4
  nloc_mem =       1    nspden =       1   nspinor =       1    nsppol =       1
      nsym =      12    n1xccc =    2501    ntypat =       3    occopt =       1
   xclevel =       2
-    mband =          26        mffmem =           1         mkmem =           2
-   mkqmem =           2        mk1mem =           2           mpw =        4668
      nfft =      373248          nkpt =           2
  Rough estimation (10% accuracy) of disk space for files :

------------- Echo of variables that govern the present computation ------------
-
- outvars: echo of selected default values
-   iomode0 =  0 , fftalg0 =512 , wfoptalg0 =  0
-
- outvars: echo of global parameters not present in the input file
-  max_nthreads =    0
-
 -outvars: echo values of preprocessed input variables --------
            acell      1.0000000000E+00  1.0000000000E+00  1.0000000000E+00 Bohr
              amu      2.29897680E+01  1.14820000E+02  1.59994000E+01
             ecut      4.40000000E+01 Hartree
-          fftalg         512
           irdden           1
           irdwfk           1
           istwfk        1    1
              ixc     -116133
              kpt      5.00000000E-01  5.00000000E-01  5.00000000E-01
                       0.00000000E+00  0.00000000E+00  0.00000000E+00
           kptopt           0
P           mkmem           2
P          mkqmem           2
P          mk1mem           2
            natom           4
            nband          26
           nbdbuf           4
            ngfft          72      72      72
             nkpt           2
            nstep         100
             nsym          12
           ntypat           3
              occ      2.000000  2.000000  2.000000  2.000000  2.000000  2.000000
                       2.000000  2.000000  2.000000  2.000000  2.000000  2.000000
                       2.000000  2.000000  2.000000  2.000000  2.000000  0.000000
                       0.000000  0.000000  0.000000  0.000000  0.000000  0.000000
                       0.000000  0.000000
        optdriver           1
            prtwf          -1
            rfdir           1       1       1
           rfelfd           2
            rprim      5.8843570516E+00  0.0000000000E+00  9.1846384280E+00
                       2.6898330396E+00  5.2335892206E+00  9.1846384280E+00
                       0.0000000000E+00  0.0000000000E+00  1.0907943938E+01
          spgroup         166
           symrel      1  0  0   0  1  0   0  0  1      -1  0  0   0 -1  0   0  0 -1
                       0  1  0   1  0  0   0  0  1       0 -1  0  -1  0  0   0  0 -1
                       0  0  1   1  0  0   0  1  0       0  0 -1  -1  0  0   0 -1  0
                       1  0  0   0  0  1   0  1  0      -1  0  0   0  0 -1   0 -1  0
                       0  1  0   0  0  1   1  0  0       0 -1  0   0  0 -1  -1  0  0
                       0  0  1   0  1  0   1  0  0       0  0 -1   0 -1  0  -1  0  0
           tolwfr      1.00000000E-20
            typat      1  2  3  3
           useylm           1
              wtk        0.50000    0.50000
           xangst      2.2686329892E+00  1.3847480673E+00  7.7464189876E+00
                       0.0000000000E+00  0.0000000000E+00  0.0000000000E+00
                       3.3494415061E+00  2.0444614331E+00  1.1436921443E+01
                       1.1878244723E+00  7.2503470158E-01  4.0559165321E+00
            xcart      4.2870950456E+00  2.6167946103E+00  1.4638610397E+01
                       0.0000000000E+00  0.0000000000E+00  0.0000000000E+00
                       6.3295271447E+00  3.8634721978E+00  2.1612649331E+01
                       2.2446629465E+00  1.3701170228E+00  7.6645714634E+00
             xred      5.0000000000E-01  5.0000000000E-01  5.0000000000E-01
                       0.0000000000E+00  0.0000000000E+00  0.0000000000E+00
                       7.3820700000E-01  7.3820700000E-01  7.3820700000E-01
                       2.6179300000E-01  2.6179300000E-01  2.6179300000E-01
            znucl       11.00000   49.00000    8.00000

 chkinp: Checking input parameters for consistency.

== DATASET  1 ==================================================================
-   mpi_nproc: 1, omp_nthreads: -1 (-1 if OMP is not activated)

--- !DatasetInfo
iteration_state: {dtset: 1, }
dimensions: {natom: 4, nkpt: 2, mband: 26, nsppol: 1, nspinor: 1, nspden: 1, mpw: 4668, }
cutoff_energies: {ecut:  44.0, pawecutdg:  -1.0, }
electrons: {nelect:   3.40000000E+01, charge:   0.00000000E+00, occopt:   1.00000000E+00, tsmear:   1.00000000E-02, }
meta: {optdriver: 1, rfelfd: 2, }
...

 Real(R)+Recip(G) space primitive vectors, cartesian coordinates (Bohr,Bohr^-1):
 R(1)=  5.8843571  0.0000000  9.1846384  G(1)=  0.1699421 -0.0873427  0.0000000
 R(2)=  2.6898330  5.2335892  9.1846384  G(2)=  0.0000000  0.1910735  0.0000000
 R(3)=  0.0000000  0.0000000 10.9079439  G(3)= -0.1430936 -0.0873427  0.0916763
 Unit cell volume ucvol=  3.3592440E+02 bohr^3
 Angles (23,13,12)=  3.26466219E+01  3.26466219E+01  3.26466219E+01 degrees

 getcut: wavevector=  0.0000  0.0000  0.0000  ngfft=  72  72  72
         ecut(hartree)=     44.000   => boxcut(ratio)=   2.21093

 getcut : COMMENT -
  Note that boxcut > 2.2 ; recall that boxcut=Gcut(box)/Gcut(sphere) = 2
  is sufficient for exact treatment of convolution.
  Such a large boxcut is a waste : you could raise ecut
  e.g. ecut=   53.770401 Hartrees makes boxcut=2

--- Pseudopotential description ------------------------------------------------
- pspini: atom type   1  psp file is /scratch/users/j/a/jabreu/pseudos/PBEsol/Na.psp8
- pspatm: opening atomic psp file    /scratch/users/j/a/jabreu/pseudos/PBEsol/Na.psp8
- Na    ONCVPSP-3.3.0  r_core=   1.20708   1.55069
- 11.00000   9.00000    180112                znucl, zion, pspdat
    8 -116133    1    4       400   0.00000   pspcod,pspxc,lmax,lloc,mmax,r2well
    3.99000000000000    0.00000000000000    0.00000000000000   rchrg,fchrg,qchrg
     nproj     2     2
     extension_switch     1
  pspatm : epsatm=    9.32878306
         --- l  ekb(1:nproj) -->
             0    2.657905   -0.678300
             1   -6.761319   -2.404728
 pspatm: atomic psp has been read  and splines computed

- pspini: atom type   2  psp file is /scratch/users/j/a/jabreu/pseudos/PBEsol/In.psp8
- pspatm: opening atomic psp file    /scratch/users/j/a/jabreu/pseudos/PBEsol/In.psp8
- In    ONCVPSP-3.3.0  r_core=   2.10853   2.37566   1.87143
- 49.00000  13.00000    180112                znucl, zion, pspdat
    8 -116133    2    4       600   0.00000   pspcod,pspxc,lmax,lloc,mmax,r2well
    5.99000000000000    5.00000000000000    0.00000000000000   rchrg,fchrg,qchrg
     nproj     2     2     2
     extension_switch     1
  pspatm : epsatm=   25.17984752
         --- l  ekb(1:nproj) -->
             0   12.999887    1.931740
             1    5.981707    1.012544
             2   -4.048011   -1.239028
 pspatm: atomic psp has been read  and splines computed

- pspini: atom type   3  psp file is /scratch/users/j/a/jabreu/pseudos/PBEsol/O.psp8
- pspatm: opening atomic psp file    /scratch/users/j/a/jabreu/pseudos/PBEsol/O.psp8
- O     ONCVPSP-3.3.0  r_core=   1.35509   1.45563   1.26150
-  8.00000   6.00000    180112                znucl, zion, pspdat
    8 -116133    2    4       600   0.00000   pspcod,pspxc,lmax,lloc,mmax,r2well
    5.99000000000000    4.00000000000000    0.00000000000000   rchrg,fchrg,qchrg
     nproj     2     2     1
     extension_switch     1
  pspatm : epsatm=    6.22910522
         --- l  ekb(1:nproj) -->
             0    6.050032    0.820363
             1   -4.739617   -1.153841
             2   -1.335834
 pspatm: atomic psp has been read  and splines computed

   1.59687259E+03                                ecore*ucvol(ha*bohr**3)

-inwffil : will read wavefunctions from disk file /scratch/users/j/a/jabreu/flow_simple_4atoms/flow/w229/t1/indata/in_WFK

 ==>  initialize data related to q vector <==

 The list of irreducible perturbations for this q vector is:
    1)    idir= 1    ipert=   5
    2)    idir= 2    ipert=   5
    3)    idir= 3    ipert=   5

 Perturbation wavevector (in red.coord.)   0.000000  0.000000  0.000000
 Perturbation : derivative vs k along direction   1

 dfpt_looppert : COMMENT -
  In a d/dk calculation, iscf is set to -3 automatically.
 The set of symmetries contains only one element for this perturbation.
 symkpt : not enough symmetry to change the number of k points.

[...]

 Initialisation of the first-order wave-functions :
  ireadwf=   0

--- !BeginCycle
iteration_state: {dtset: 1, }
solver: {iscf: 7, nstep: 100, nline: 4, wfoptalg: 0, }
tolerances: {tolwfr: 1.00E-20, }
...

     iter   2DEtotal(Ha)        deltaE(Ha) residm    vres2
-ETOT  1  -87.354390410123     -8.735E+01 2.362E-01 0.000E+00
 ETOT  2  -87.384283741710     -2.989E-02 8.878E-04 0.000E+00
 ETOT  3  -87.384302407596     -1.867E-05 3.502E-05 0.000E+00
 ETOT  4  -87.384302436413     -2.882E-08 1.320E-06 0.000E+00
 ETOT  5  -87.384302436671     -2.578E-10 4.580E-08 0.000E+00
 ETOT  6  -87.384302436674     -3.126E-12 1.378E-09 0.000E+00
 ETOT  7  -87.384302436674     -1.563E-13 8.312E-11 0.000E+00
 ETOT  8  -87.384302436674      0.000E+00 3.226E-12 0.000E+00
 ETOT  9  -87.384302436674     -1.421E-14 1.600E-13 0.000E+00
 ETOT 10  -87.384302436674      0.000E+00 7.020E-15 0.000E+00
 ETOT 11  -87.384302436674      2.842E-14 4.199E-16 0.000E+00
 ETOT 12  -87.384302436674     -2.842E-14 2.043E-17 0.000E+00
 ETOT 13  -87.384302436674      2.842E-14 1.939E-18 0.000E+00
 ETOT 14  -87.384302436674     -2.842E-14 6.314E-20 0.000E+00
 ETOT 15  -87.384302436674      0.000E+00 9.775E-21 0.000E+00

 At SCF step   15   max residual=  9.78E-21 < tolwfr=  1.00E-20 =>converged.

 ----iterations are completed or convergence reached----

 dfpt_looppert: DFPT cycle converged with prtwf=-1. Will skip output of the 1st-order WFK file.
 dfpt_looppert : ek2=    9.8009773345E+01
          f-sum rule ratio=    1.2955401799E+00
 prteigrs : about to open file /scratch/users/j/a/jabreu/flow_simple_4atoms/flow/w229/t1/tmpdata/tmp_1WF1_EIG
 Expectation of eigenvalue derivatives (hartree) for nkpt=   2  k points:
  (in case of degenerate eigenvalues, averaged derivative)
 kpt#   1, nband= 26, wtk=  0.50000, kpt=  0.5000  0.5000  0.5000 (reduced coord)
  -0.00000   -0.00000   -0.00000   -0.00000    0.00000   -0.00000   -0.00000   -0.00000
   0.00000   -0.00000   -0.00000    0.00000    0.00000   -0.00000   -0.00000   -0.00000
  -0.00000    0.00000   -0.00000   -0.00000    0.00000    0.00000   -0.00000   -0.00001
  -0.00001   -0.00000
 prteigrs : prtvol=0 or 1, do not print more k-points.

 Eight components of 2nd-order total energy (hartree) are
 1,2,3: 0th-order hamiltonian combined with 1st-order wavefunctions
     kin0=   8.56560698E+01 eigvalue=   5.52622572E+00  local=  -3.62014964E+01
 4,5,6: 1st-order hamiltonian combined with 1st and 0th-order wfs
     kin1=  -1.26975599E+02  Hartree=   0.00000000E+00     xc=   0.00000000E+00
 7,8,9: eventually, occupation + non-local contributions
    edocc=   2.62896415E+01     enl0=   6.11386181E+00   enl1=  -4.77930055E+01
 1-9 gives the relaxation energy (to be shifted if some occ is /=2.0)
   erelax=  -8.73843024E+01
  No Ewald or frozen-wf contrib.: the relaxation energy is the total one
 2DEtotal=   -0.8738430244E+02 Ha. Also 2DEtotal=   -0.237784779694E+04 eV
    (  non-var. 2DEtotal :   -8.7384302437E+01 Ha)

 Perturbation wavevector (in red.coord.)   0.000000  0.000000  0.000000
 Perturbation : derivative vs k along direction   2
 The set of symmetries contains only one element for this perturbation.
 symkpt : not enough symmetry to change the number of k points.

[...]

 Perturbation wavevector (in red.coord.)   0.000000  0.000000  0.000000
 Perturbation : derivative vs k along direction   3
 The set of symmetries contains only one element for this perturbation.
 symkpt : not enough symmetry to change the number of k points.

-inwffil : will read wavefunctions from disk file /scratch/users/j/a/jabreu/flow_simple_4atoms/flow/w229/t1/indata/in_WFK

 Initialisation of the first-order wave-functions :
  ireadwf=   0

--- !BeginCycle
iteration_state: {dtset: 1, }
solver: {iscf: 7, nstep: 100, nline: 4, wfoptalg: 0, }
tolerances: {tolwfr: 1.00E-20, }
...

     iter   2DEtotal(Ha)        deltaE(Ha) residm    vres2
-ETOT  1  -87.350852838346     -8.735E+01 1.720E-01 0.000E+00
 ETOT  2  -87.384279638166     -3.343E-02 6.801E-04 0.000E+00
 ETOT  3  -87.384299611537     -1.997E-05 3.196E-05 0.000E+00
 ETOT  4  -87.384299641174     -2.964E-08 1.268E-06 0.000E+00
 ETOT  5  -87.384299641429     -2.553E-10 5.483E-08 0.000E+00
 ETOT  6  -87.384299641433     -3.212E-12 1.605E-09 0.000E+00
 ETOT  7  -87.384299641433     -4.263E-14 1.142E-10 0.000E+00
 ETOT  8  -87.384299641433      4.263E-14 4.059E-12 0.000E+00
 ETOT  9  -87.384299641433     -7.105E-14 2.844E-13 0.000E+00
 ETOT 10  -87.384299641433      0.000E+00 9.643E-15 0.000E+00
 ETOT 11  -87.384299641433      1.421E-14 5.590E-16 0.000E+00
 ETOT 12  -87.384299641433      2.842E-14 3.023E-17 0.000E+00
 ETOT 13  -87.384299641433     -2.842E-14 1.943E-18 0.000E+00
 ETOT 14  -87.384299641433      1.421E-14 1.213E-19 0.000E+00
 ETOT 15  -87.384299641433     -1.421E-14 9.841E-21 0.000E+00

 At SCF step   15   max residual=  9.84E-21 < tolwfr=  1.00E-20 =>converged.

 ----iterations are completed or convergence reached----

 dfpt_looppert: DFPT cycle converged with prtwf=-1. Will skip output of the 1st-order WFK file.
 dfpt_looppert : ek2=    9.8009773345E+01
          f-sum rule ratio=    1.2955400813E+00
 prteigrs : about to open file /scratch/users/j/a/jabreu/flow_simple_4atoms/flow/w229/t1/tmpdata/tmp_1WF1_EIG
 Expectation of eigenvalue derivatives (hartree) for nkpt=   2  k points:
  (in case of degenerate eigenvalues, averaged derivative)
 kpt#   1, nband= 26, wtk=  0.50000, kpt=  0.5000  0.5000  0.5000 (reduced coord)
  -0.00000   -0.00000   -0.00000   -0.00000    0.00000   -0.00000   -0.00000   -0.00000
  -0.00000    0.00000    0.00000   -0.00000    0.00000   -0.00000   -0.00000    0.00000
   0.00000    0.00000    0.00000    0.00000   -0.00000   -0.00000   -0.00000   -0.00000
  -0.00000    0.00000
 prteigrs : prtvol=0 or 1, do not print more k-points.

 Eight components of 2nd-order total energy (hartree) are
 1,2,3: 0th-order hamiltonian combined with 1st-order wavefunctions
     kin0=   8.56559591E+01 eigvalue=   5.52623267E+00  local=  -3.62014490E+01
 4,5,6: 1st-order hamiltonian combined with 1st and 0th-order wfs
     kin1=  -1.26975590E+02  Hartree=   0.00000000E+00     xc=   0.00000000E+00
 7,8,9: eventually, occupation + non-local contributions
    edocc=   2.62896788E+01     enl0=   6.11387801E+00   enl1=  -4.77930096E+01
 1-9 gives the relaxation energy (to be shifted if some occ is /=2.0)
   erelax=  -8.73842996E+01
  No Ewald or frozen-wf contrib.: the relaxation energy is the total one
 2DEtotal=   -0.8738429964E+02 Ha. Also 2DEtotal=   -0.237784772088E+04 eV
    (  non-var. 2DEtotal :   -8.7384299641E+01 Ha)

 CALCULATION OF EFFECTIVE MASSES
 NOTE : Additional infos (eff. mass eigenvalues, eigenvectors and, if degenerate, average mass) are available in stdout.

 COMMENTS:
 - At k-point ( 0.500, 0.500, 0.500), bands    16 through    17
   are DEGENERATE (effective mass tensor is therefore not defined).
   See Section IIIB Eqs. (67)-(70) and Appendix E of PRB 93 205147 (2016).
 - Angular average effective mass for Frohlich model is to be averaged over degenerate bands. See later.
 - Associated theta integrals calculated with ntheta=   1000 points.

 K-point ( 0.500, 0.500, 0.500) | band =    16
 Transport equivalent effective mass tensor:
             -1.1736825984             -0.3488549229             -1.9515201074
             -0.3488549229             -0.8150986486             -1.1911945431
             -1.9515201074             -1.1911945431             -7.2657006334
 Transport equivalent effective mass tensor eigenvalues:
             -8.0501734650             -0.6021594459             -0.6021489696
 Angular average effective mass 1/(<1/m>)=  -0.8116602760
 Angular average effective mass for Frohlich model (<m**0.5>)**2=  -1.0144994493
 Effective masses along directions: (cart. coord. / red. coord. -> eff. mass)
    1:   1.000000  0.000000  0.000000 /   0.909484  0.415739  0.000000 ->  -0.6024283973
    2:   0.000000  1.000000  0.000000 /   0.000000  1.000000  0.000000 ->  -0.5687023486
    3:   0.000000  0.000000  1.000000 /   0.541494  0.541494  0.643094 ->  -2.8365374008
    4:   0.577350  0.577350  0.577350 /   0.596240  0.676920  0.431598 ->  -1.4703006852
    5:   0.000000  0.707107  0.707107 /   0.452920  0.711003  0.537901 ->  -1.2462718884
    6:   0.707107  0.000000  0.707107 /   0.682799  0.538050  0.494255 ->  -1.6567096162
    7:   0.707107  0.707107  0.000000 /   0.596219  0.802822  0.000000 ->  -0.6324854549

 K-point ( 0.500, 0.500, 0.500) | band =    17
 Transport equivalent effective mass tensor:
            -20.2569583419             -0.8013192996             -4.4826483044
             -0.8013192996            -19.4332258205             -2.7361400061
             -4.4826483044             -2.7361400061            -34.2506151526
 Transport equivalent effective mass tensor eigenvalues:
            -36.0525092877            -18.9441721082            -18.9441179192
 Angular average effective mass 1/(<1/m>)=  -7.4954598651
 Angular average effective mass for Frohlich model (<m**0.5>)**2=  -8.1374780955
 Effective masses along directions: (cart. coord. / red. coord. -> eff. mass)
    1:   1.000000  0.000000  0.000000 /   0.909484  0.415739  0.000000 ->  -7.6415541569
    2:   0.000000  1.000000  0.000000 /   0.000000  1.000000  0.000000 ->  -8.9100537499
    3:   0.000000  0.000000  1.000000 /   0.541494  0.541494  0.643094 -> -12.1368273507
    4:   0.577350  0.577350  0.577350 /   0.596240  0.676920  0.431598 ->  -5.9786537514
    5:   0.000000  0.707107  0.707107 /   0.452920  0.711003  0.537901 -> -11.7272025676
    6:   0.707107  0.000000  0.707107 /   0.682799  0.538050  0.494255 -> -13.3455850151
    7:   0.707107  0.707107  0.000000 /   0.596219  0.802822  0.000000 ->  -5.8135867744

 Angular average effective mass for Frohlich model, averaged over degenerate bands.
 Value of     (<<m**0.5>>)**2 =     3.724611E+00
 Absolute Value of <<m**0.5>> =     1.929925E+00

 K-point ( 0.000, 0.000, 0.000) | band =    18
 Effective mass tensor:
              0.2578701585              0.0024421249              0.0136614905
              0.0024421249              0.2553598705              0.0083388202
              0.0136614905              0.0083388202              0.3005174182
 Effective mass tensor eigenvalues:
              0.2538692249              0.2538692249              0.3060089974
 Angular average effective mass 1/(<1/m>)=   0.2691560698
 Angular average effective mass for Frohlich model (<m**0.5>)**2=   0.2697616097
 Effective masses along directions: (cart. coord. / red. coord. -> eff. mass)
    1:   1.000000  0.000000  0.000000 /   0.909484  0.415739  0.000000 ->   0.2572324262
    2:   0.000000  1.000000  0.000000 /   0.000000  1.000000  0.000000 ->   0.2551119383
    3:   0.000000  0.000000  1.000000 /   0.541494  0.541494  0.643094 ->   0.2995297121
    4:   0.577350  0.577350  0.577350 /   0.596240  0.676920  0.431598 ->   0.2852608703
    5:   0.000000  0.707107  0.707107 /   0.452920  0.711003  0.537901 ->   0.2839402479
    6:   0.707107  0.000000  0.707107 /   0.682799  0.538050  0.494255 ->   0.2909348012
    7:   0.707107  0.707107  0.000000 /   0.596219  0.802822  0.000000 ->   0.2582474148

 END OF EFFECTIVE MASSES SECTION

 ---- first-order wavefunction calculations are completed ----

 Total localisation tensor (bohr^2) in cartesian coordinates
  WARNING : still subject to testing - especially symmetries.
      direction              matrix element
   alpha     beta       real part   imaginary part
     1        1       2.1797296610    0.0000000000
     1        2       0.7330261381    0.0000000000
     1        3       4.1006213163    0.0000000000
     2        1       0.7330261381    0.0000000000
     2        2       1.4262437997    0.0000000000
     2        3       2.5029732099    0.0000000000
     3        1       4.1006213163    0.0000000000
     3        2       2.5029732099    0.0000000000
     3        3      14.9806945480    0.0000000000

 respfn : d/dk was computed, but no 2DTE, so no DDB output.

== END DATASET(S) ==============================================================

 -outvars: echo values of variables after computation  --------
            acell      1.0000000000E+00  1.0000000000E+00  1.0000000000E+00 Bohr
              amu      2.29897680E+01  1.14820000E+02  1.59994000E+01
             ecut      4.40000000E+01 Hartree
           etotal     -8.7384299641E+01
            fcart      0.0000000000E+00  0.0000000000E+00  0.0000000000E+00
                       0.0000000000E+00  0.0000000000E+00  0.0000000000E+00
                       0.0000000000E+00  0.0000000000E+00  0.0000000000E+00
                       0.0000000000E+00  0.0000000000E+00  0.0000000000E+00
-          fftalg         512
           irdden           1
           irdwfk           1
           istwfk        1    1
              ixc     -116133
              kpt      5.00000000E-01  5.00000000E-01  5.00000000E-01
                       0.00000000E+00  0.00000000E+00  0.00000000E+00
           kptopt           0
P           mkmem           2
P          mkqmem           2
P          mk1mem           2
            natom           4
            nband          26
           nbdbuf           4
            ngfft          72      72      72
             nkpt           2
            nstep         100
             nsym          12
           ntypat           3
              occ      2.000000  2.000000  2.000000  2.000000  2.000000  2.000000
                       2.000000  2.000000  2.000000  2.000000  2.000000  2.000000
                       2.000000  2.000000  2.000000  2.000000  2.000000  0.000000
                       0.000000  0.000000  0.000000  0.000000  0.000000  0.000000
                       0.000000  0.000000
        optdriver           1
            prtwf          -1
            rfdir           1       1       1
           rfelfd           2
            rprim      5.8843570516E+00  0.0000000000E+00  9.1846384280E+00
                       2.6898330396E+00  5.2335892206E+00  9.1846384280E+00
                       0.0000000000E+00  0.0000000000E+00  1.0907943938E+01
          spgroup         166
           strten      0.0000000000E+00  0.0000000000E+00  0.0000000000E+00
                       0.0000000000E+00  0.0000000000E+00  0.0000000000E+00
           symrel      1  0  0   0  1  0   0  0  1      -1  0  0   0 -1  0   0  0 -1
                       0  1  0   1  0  0   0  0  1       0 -1  0  -1  0  0   0  0 -1
                       0  0  1   1  0  0   0  1  0       0  0 -1  -1  0  0   0 -1  0
                       1  0  0   0  0  1   0  1  0      -1  0  0   0  0 -1   0 -1  0
                       0  1  0   0  0  1   1  0  0       0 -1  0   0  0 -1  -1  0  0
                       0  0  1   0  1  0   1  0  0       0  0 -1   0 -1  0  -1  0  0
           tolwfr      1.00000000E-20
            typat      1  2  3  3
           useylm           1
              wtk        0.50000    0.50000
           xangst      2.2686329892E+00  1.3847480673E+00  7.7464189876E+00
                       0.0000000000E+00  0.0000000000E+00  0.0000000000E+00
                       3.3494415061E+00  2.0444614331E+00  1.1436921443E+01
                       1.1878244723E+00  7.2503470158E-01  4.0559165321E+00
            xcart      4.2870950456E+00  2.6167946103E+00  1.4638610397E+01
                       0.0000000000E+00  0.0000000000E+00  0.0000000000E+00
                       6.3295271447E+00  3.8634721978E+00  2.1612649331E+01
                       2.2446629465E+00  1.3701170228E+00  7.6645714634E+00
             xred      5.0000000000E-01  5.0000000000E-01  5.0000000000E-01
                       0.0000000000E+00  0.0000000000E+00  0.0000000000E+00
                       7.3820700000E-01  7.3820700000E-01  7.3820700000E-01
                       2.6179300000E-01  2.6179300000E-01  2.6179300000E-01
            znucl       11.00000   49.00000    8.00000

- Timing analysis has been suppressed with timopt=0

 Suggested references for the acknowledgment of ABINIT usage.

 Calculation completed.
.Delivered  14 WARNINGs and  15 COMMENTs to log file.