.Version 9.5.1 of ABINIT

 ABINIT is a project of the Universite Catholique de Louvain,
 Corning Inc. and other collaborators, see ~abinit/doc/developers/contributors.txt .
 acknowledgments of the ABINIT effort.

.Starting date : Tue 11 May 2021.
- ( at 21h20 )

- input  file    -> /scratch/users/j/a/jabreu/flow_simple_8atoms/flow/w286/t1/run.abi
- output file    -> /scratch/users/j/a/jabreu/flow_simple_8atoms/flow/w286/t1/run.abo
- root for input  files -> /scratch/users/j/a/jabreu/flow_simple_8atoms/flow/w286/t1/indata/in
- root for output files -> /scratch/users/j/a/jabreu/flow_simple_8atoms/flow/w286/t1/outdata/out

 Symmetries : space group R-3 m (#166); Bravais hR (rhombohedral)
     intxc =       0      iscf =       7    lmnmax =      18     lnmax =       6
     mgfft =      54  mpssoang =       3    mqgrid =    3001     natom =       8
  nloc_mem =       1    nspden =       1   nspinor =       1    nsppol =       1
      nsym =      12    n1xccc =    2501    ntypat =       3    occopt =       1
   xclevel =       2
-    mband =          37        mffmem =           1         mkmem =           1
-   mkqmem =           1        mk1mem =           1           mpw =        9055
      nfft =      157464          nkpt =           1
  Rough estimation (10% accuracy) of disk space for files :

------------- Echo of variables that govern the present computation ------------
-
- outvars: echo of selected default values
-   iomode0 =  0 , fftalg0 =512 , wfoptalg0 =  0
-
- outvars: echo of global parameters not present in the input file
-  max_nthreads =    0
-
 -outvars: echo values of preprocessed input variables --------
            acell      1.0000000000E+00  1.0000000000E+00  1.0000000000E+00 Bohr
              amu      1.37327000E+02  2.80855000E+01  1.89984032E+01
             ecut      4.20000000E+01 Hartree
-          fftalg         512
           irdden           1
           irdwfk           1
           istwfk        1
              ixc     -116133
           kptopt           0
P           mkmem           1
P          mkqmem           1
P          mk1mem           1
            natom           8
            nband          37
           nbdbuf           4
            ngfft          54      54      54
             nkpt           1
            nstep        2000
             nsym          12
           ntypat           3
              occ      2.000000  2.000000  2.000000  2.000000  2.000000  2.000000
                       2.000000  2.000000  2.000000  2.000000  2.000000  2.000000
                       2.000000  2.000000  2.000000  2.000000  2.000000  2.000000
                       2.000000  2.000000  2.000000  2.000000  2.000000  2.000000
                       2.000000  2.000000  2.000000  2.000000  0.000000  0.000000
                       0.000000  0.000000  0.000000  0.000000  0.000000  0.000000
                       0.000000
        optdriver           1
            prtwf          -1
            rfdir           1       1       1
           rfelfd           2
            rprim      8.8944262154E+00  0.0000000000E+00 -1.3042598587E+00
                      -1.5094617211E+00  8.7654060381E+00 -1.3042598587E+00
                       0.0000000000E+00  0.0000000000E+00  8.9895445646E+00
          spgroup         166
           symrel      1  0  0   0  1  0   0  0  1      -1  0  0   0 -1  0   0  0 -1
                       0  1  0   1  0  0   0  0  1       0 -1  0  -1  0  0   0  0 -1
                       0  0  1   1  0  0   0  1  0       0  0 -1  -1  0  0   0 -1  0
                       1  0  0   0  0  1   0  1  0      -1  0  0   0  0 -1   0 -1  0
                       0  1  0   0  0  1   1  0  0       0 -1  0   0  0 -1  -1  0  0
                       0  0  1   0  1  0   1  0  0       0  0 -1   0 -1  0  -1  0  0
           tolwfr      1.00000000E-20
            typat      1  2  3  3  3  3  3  3
           useylm           1
           xangst      1.9539774483E+00  2.3192265497E+00  1.6883464583E+00
                       0.0000000000E+00  0.0000000000E+00  0.0000000000E+00
                      -2.3918336457E-01  3.4574333635E+00  2.9791556312E+00
                       2.9129309606E+00  3.4574333635E+00 -6.6888726645E-01
                       9.9502393601E-01  1.1810197359E+00  4.0455801830E+00
                       4.1471382612E+00  1.1810197359E+00  3.9753728542E-01
                       4.6008263691E-01  4.2874103304E+00  3.9753728542E-01
                       3.4478722597E+00  3.5104276902E-01  2.9791556312E+00
            xcart      3.6924822471E+00  4.3827030191E+00  3.1905124236E+00
                       0.0000000000E+00  0.0000000000E+00  0.0000000000E+00
                      -4.5199105457E-01  6.5336021797E+00  5.6297882501E+00
                       5.5046417596E+00  6.5336021797E+00 -1.2640137474E+00
                       1.8803227347E+00  2.2318038584E+00  7.6450385946E+00
                       7.8369555489E+00  2.2318038584E+00  7.5123659706E-01
                       8.6943018225E-01  8.1020313437E+00  7.5123659706E-01
                       6.5155343121E+00  6.6337469437E-01  5.6297882501E+00
             xred      5.0000000000E-01  5.0000000000E-01  5.0000000000E-01
                       0.0000000000E+00  0.0000000000E+00  0.0000000000E+00
                       7.5681000000E-02  7.4538500000E-01  7.4538500000E-01
                       7.4538500000E-01  7.4538500000E-01  7.5681000000E-02
                       2.5461500000E-01  2.5461500000E-01  9.2431900000E-01
                       9.2431900000E-01  2.5461500000E-01  2.5461500000E-01
                       2.5461500000E-01  9.2431900000E-01  2.5461500000E-01
                       7.4538500000E-01  7.5681000000E-02  7.4538500000E-01
            znucl       56.00000   14.00000    9.00000

 chkinp: Checking input parameters for consistency.

== DATASET  1 ==================================================================
-   mpi_nproc: 1, omp_nthreads: -1 (-1 if OMP is not activated)

--- !DatasetInfo
iteration_state: {dtset: 1, }
dimensions: {natom: 8, nkpt: 1, mband: 37, nsppol: 1, nspinor: 1, nspden: 1, mpw: 9055, }
cutoff_energies: {ecut:  42.0, pawecutdg:  -1.0, }
electrons: {nelect:   5.60000000E+01, charge:   0.00000000E+00, occopt:   1.00000000E+00, tsmear:   1.00000000E-02, }
meta: {optdriver: 1, rfelfd: 2, }
...

 Real(R)+Recip(G) space primitive vectors, cartesian coordinates (Bohr,Bohr^-1):
 R(1)=  8.8944262  0.0000000 -1.3042599  G(1)=  0.1124300  0.0193612  0.0000000
 R(2)= -1.5094617  8.7654060 -1.3042599  G(2)=  0.0000000  0.1140848  0.0000000
 R(3)=  0.0000000  0.0000000  8.9895446  G(3)=  0.0163120  0.0193612  0.1112403
 Unit cell volume ucvol=  7.0085418E+02 bohr^3
 Angles (23,13,12)=  9.83422773E+01  9.83422773E+01  9.83422773E+01 degrees

 getcut: wavevector=  0.0000  0.0000  0.0000  ngfft=  54  54  54
         ecut(hartree)=     42.000   => boxcut(ratio)=   2.05907

--- Pseudopotential description ------------------------------------------------
- pspini: atom type   1  psp file is /scratch/users/j/a/jabreu/pseudos/PBEsol/Ba.psp8
- pspatm: opening atomic psp file    /scratch/users/j/a/jabreu/pseudos/PBEsol/Ba.psp8
- Ba    ONCVPSP-3.3.0  r_core=   2.15444   1.91218   2.15444
- 56.00000  10.00000    180112                znucl, zion, pspdat
    8 -116133    2    4       600   0.00000   pspcod,pspxc,lmax,lloc,mmax,r2well
    5.99000000000000    5.00000000000000    0.00000000000000   rchrg,fchrg,qchrg
     nproj     2     2     2
     extension_switch     1
  pspatm : epsatm=   26.37418029
         --- l  ekb(1:nproj) -->
             0    6.652372    0.677024
             1    5.027722    0.408462
             2    2.543237    0.416854
 pspatm: atomic psp has been read  and splines computed

- pspini: atom type   2  psp file is /scratch/users/j/a/jabreu/pseudos/PBEsol/Si.psp8
- pspatm: opening atomic psp file    /scratch/users/j/a/jabreu/pseudos/PBEsol/Si.psp8
- Si    ONCVPSP-3.3.0  r_core=   1.60303   1.72197   1.91712
- 14.00000   4.00000    180112                znucl, zion, pspdat
    8 -116133    2    4       600   0.00000   pspcod,pspxc,lmax,lloc,mmax,r2well
    5.99000000000000    4.00000000000000    0.00000000000000   rchrg,fchrg,qchrg
     nproj     2     2     2
     extension_switch     1
  pspatm : epsatm=    7.86468782
         --- l  ekb(1:nproj) -->
             0    5.384426    0.843824
             1    2.663259    0.615854
             2   -2.267219   -0.458043
 pspatm: atomic psp has been read  and splines computed

- pspini: atom type   3  psp file is /scratch/users/j/a/jabreu/pseudos/PBEsol/F.psp8
- pspatm: opening atomic psp file    /scratch/users/j/a/jabreu/pseudos/PBEsol/F.psp8
- F     ONCVPSP-3.3.0  r_core=   1.30942   1.45782   1.60379
-  9.00000   7.00000    180112                znucl, zion, pspdat
    8 -116133    2    4       600   0.00000   pspcod,pspxc,lmax,lloc,mmax,r2well
    5.99000000000000    2.50000000000000    0.00000000000000   rchrg,fchrg,qchrg
     nproj     2     2     1
     extension_switch     1
  pspatm : epsatm=    4.89824824
         --- l  ekb(1:nproj) -->
             0    6.506434    1.065875
             1   -3.978753   -1.295852
             2   -2.394754
 pspatm: atomic psp has been read  and splines computed

   3.56318802E+03                                ecore*ucvol(ha*bohr**3)

-inwffil : will read wavefunctions from disk file /scratch/users/j/a/jabreu/flow_simple_8atoms/flow/w286/t1/indata/in_WFK

 ==>  initialize data related to q vector <==

 The list of irreducible perturbations for this q vector is:
    1)    idir= 1    ipert=   9
    2)    idir= 2    ipert=   9
    3)    idir= 3    ipert=   9

 Perturbation wavevector (in red.coord.)   0.000000  0.000000  0.000000
 Perturbation : derivative vs k along direction   1

 dfpt_looppert : COMMENT -
  In a d/dk calculation, iscf is set to -3 automatically.
 The set of symmetries contains only one element for this perturbation.
 symkpt : not enough symmetry to change the number of k points.

[...]

 Initialisation of the first-order wave-functions :
  ireadwf=   0

--- !BeginCycle
iteration_state: {dtset: 1, }
solver: {iscf: 7, nstep: 2000, nline: 4, wfoptalg: 0, }
tolerances: {tolwfr: 1.00E-20, }
...

     iter   2DEtotal(Ha)        deltaE(Ha) residm    vres2
-ETOT  1  -30.611918815868     -3.061E+01 1.278E-02 0.000E+00
 ETOT  2  -30.627178799182     -1.526E-02 1.968E-04 0.000E+00
 ETOT  3  -30.627204724850     -2.593E-05 2.218E-06 0.000E+00
 ETOT  4  -30.627204820951     -9.610E-08 8.886E-08 0.000E+00
 ETOT  5  -30.627204821406     -4.550E-10 1.534E-09 0.000E+00
 ETOT  6  -30.627204821408     -2.430E-12 5.021E-11 0.000E+00
 ETOT  7  -30.627204821408     -5.329E-14 1.168E-12 0.000E+00
 ETOT  8  -30.627204821408      3.553E-14 5.279E-14 0.000E+00
 ETOT  9  -30.627204821408     -1.776E-14 1.258E-15 0.000E+00
 ETOT 10  -30.627204821408      0.000E+00 6.393E-17 0.000E+00
 ETOT 11  -30.627204821408      3.553E-15 1.495E-18 0.000E+00
 ETOT 12  -30.627204821408     -3.553E-15 7.766E-20 0.000E+00
 ETOT 13  -30.627204821408     -7.105E-15 9.615E-21 0.000E+00

 At SCF step   13   max residual=  9.61E-21 < tolwfr=  1.00E-20 =>converged.

 ----iterations are completed or convergence reached----

 dfpt_looppert: DFPT cycle converged with prtwf=-1. Will skip output of the 1st-order WFK file.
 dfpt_looppert : ek2=    5.7548456786E+01
          f-sum rule ratio=    1.0091116783E+00
 prteigrs : about to open file /scratch/users/j/a/jabreu/flow_simple_8atoms/flow/w286/t1/tmpdata/tmp_1WF1_EIG
 Expectation of eigenvalue derivatives (hartree) for nkpt=   1  k points:
  (in case of degenerate eigenvalues, averaged derivative)
 kpt#   1, nband= 37, wtk=  1.00000, kpt=  0.0000  0.0000  0.0000 (reduced coord)
  -0.00000   -0.00000    0.00000    0.00000    0.00000   -0.00000   -0.00000   -0.00000
  -0.00000    0.00000    0.00000   -0.00000   -0.00000   -0.00000    0.00000    0.00000
  -0.00000   -0.00000   -0.00000    0.00000   -0.00000   -0.00000   -0.00000    0.00000
   0.00000    0.00000    0.00000    0.00000   -0.00000   -0.00000   -0.00000   -0.00000
  -0.00000    0.00000   -0.00001   -0.00000   -0.00000

 Eight components of 2nd-order total energy (hartree) are
 1,2,3: 0th-order hamiltonian combined with 1st-order wavefunctions
     kin0=   3.72095608E+01 eigvalue=   1.05513402E+00  local=  -1.46111798E+01
 4,5,6: 1st-order hamiltonian combined with 1st and 0th-order wfs
     kin1=  -5.80728198E+01  Hartree=   0.00000000E+00     xc=   0.00000000E+00
 7,8,9: eventually, occupation + non-local contributions
    edocc=   6.95563260E+00     enl0=   1.80572019E-02   enl1=  -3.18158983E+00
 1-9 gives the relaxation energy (to be shifted if some occ is /=2.0)
   erelax=  -3.06272048E+01
  No Ewald or frozen-wf contrib.: the relaxation energy is the total one
 2DEtotal=   -0.3062720482E+02 Ha. Also 2DEtotal=   -0.833408626954E+03 eV
    (  non-var. 2DEtotal :   -3.0627204821E+01 Ha)

 Perturbation wavevector (in red.coord.)   0.000000  0.000000  0.000000
 Perturbation : derivative vs k along direction   2
 The set of symmetries contains only one element for this perturbation.
 symkpt : not enough symmetry to change the number of k points.

[...]

 Perturbation wavevector (in red.coord.)   0.000000  0.000000  0.000000
 Perturbation : derivative vs k along direction   3
 The set of symmetries contains only one element for this perturbation.
 symkpt : not enough symmetry to change the number of k points.

-inwffil : will read wavefunctions from disk file /scratch/users/j/a/jabreu/flow_simple_8atoms/flow/w286/t1/indata/in_WFK

 Initialisation of the first-order wave-functions :
  ireadwf=   0

--- !BeginCycle
iteration_state: {dtset: 1, }
solver: {iscf: 7, nstep: 2000, nline: 4, wfoptalg: 0, }
tolerances: {tolwfr: 1.00E-20, }
...

     iter   2DEtotal(Ha)        deltaE(Ha) residm    vres2
-ETOT  1  -30.610194764215     -3.061E+01 1.543E-02 0.000E+00
 ETOT  2  -30.627178865783     -1.698E-02 2.772E-04 0.000E+00
 ETOT  3  -30.627205878062     -2.701E-05 4.986E-06 0.000E+00
 ETOT  4  -30.627205977866     -9.980E-08 1.224E-07 0.000E+00
 ETOT  5  -30.627205978333     -4.675E-10 4.210E-09 0.000E+00
 ETOT  6  -30.627205978336     -2.519E-12 1.309E-10 0.000E+00
 ETOT  7  -30.627205978336      7.105E-15 4.710E-12 0.000E+00
 ETOT  8  -30.627205978336      1.421E-14 2.021E-13 0.000E+00
 ETOT  9  -30.627205978336     -2.842E-14 7.334E-15 0.000E+00
 ETOT 10  -30.627205978336      7.105E-15 3.240E-16 0.000E+00
 ETOT 11  -30.627205978336      0.000E+00 1.193E-17 0.000E+00
 ETOT 12  -30.627205978336     -1.776E-14 5.312E-19 0.000E+00
 ETOT 13  -30.627205978336      1.421E-14 1.980E-20 0.000E+00
 ETOT 14  -30.627205978336      7.105E-15 9.587E-21 0.000E+00

 At SCF step   14   max residual=  9.59E-21 < tolwfr=  1.00E-20 =>converged.

 ----iterations are completed or convergence reached----

 dfpt_looppert: DFPT cycle converged with prtwf=-1. Will skip output of the 1st-order WFK file.
 dfpt_looppert : ek2=    5.7548456787E+01
          f-sum rule ratio=    1.0091116781E+00
 prteigrs : about to open file /scratch/users/j/a/jabreu/flow_simple_8atoms/flow/w286/t1/tmpdata/tmp_1WF1_EIG
 Expectation of eigenvalue derivatives (hartree) for nkpt=   1  k points:
  (in case of degenerate eigenvalues, averaged derivative)
 kpt#   1, nband= 37, wtk=  1.00000, kpt=  0.0000  0.0000  0.0000 (reduced coord)
   0.00000   -0.00000    0.00000   -0.00000   -0.00000    0.00000    0.00000    0.00000
   0.00000    0.00000   -0.00000   -0.00000    0.00000    0.00000    0.00000    0.00000
  -0.00000    0.00000    0.00000   -0.00000    0.00000    0.00000    0.00000   -0.00000
  -0.00000    0.00000    0.00000   -0.00000   -0.00000    0.00000    0.00000    0.00000
   0.00000    0.00000   -0.00001   -0.00000    0.00000

 Eight components of 2nd-order total energy (hartree) are
 1,2,3: 0th-order hamiltonian combined with 1st-order wavefunctions
     kin0=   3.72096471E+01 eigvalue=   1.05513111E+00  local=  -1.46112665E+01
 4,5,6: 1st-order hamiltonian combined with 1st and 0th-order wfs
     kin1=  -5.80728198E+01  Hartree=   0.00000000E+00     xc=   0.00000000E+00
 7,8,9: eventually, occupation + non-local contributions
    edocc=   6.95559918E+00     enl0=   1.80951060E-02   enl1=  -3.18159215E+00
 1-9 gives the relaxation energy (to be shifted if some occ is /=2.0)
   erelax=  -3.06272060E+01
  No Ewald or frozen-wf contrib.: the relaxation energy is the total one
 2DEtotal=   -0.3062720598E+02 Ha. Also 2DEtotal=   -0.833408658436E+03 eV
    (  non-var. 2DEtotal :   -3.0627205978E+01 Ha)

 CALCULATION OF EFFECTIVE MASSES
 NOTE : Additional infos (eff. mass eigenvalues, eigenvectors and, if degenerate, average mass) are available in stdout.

 K-point ( 0.000, 0.000, 0.000) | band =    28
 Effective mass tensor:
             -4.1605397953             -1.9469970197             -1.4173696066
             -1.9469970197             -4.8311064371             -1.6823127550
             -1.4173696066             -1.6823127550             -3.7448265111
 Effective mass tensor eigenvalues:
             -7.6961572735             -2.5201682863             -2.5201471837
 Angular average effective mass 1/(<1/m>)=  -3.2483841387
 Angular average effective mass for Frohlich model (<m**0.5>)**2=  -3.4646837971
 Effective masses along directions: (cart. coord. / red. coord. -> eff. mass)
    1:   1.000000  0.000000  0.000000 /   0.985903 -0.167316  0.000000 ->  -3.2028216164
    2:   0.000000  1.000000  0.000000 /   0.000000  1.000000  0.000000 ->  -3.6016334462
    3:   0.000000  0.000000  1.000000 /  -0.142125 -0.142125  0.979592 ->  -2.9970664488
    4:   0.577350  0.577350  0.577350 /   0.575665  0.451397  0.681799 ->  -7.4415835608
    5:   0.000000  0.707107  0.707107 /  -0.110953  0.634717  0.764738 ->  -4.5679177255
    6:   0.707107  0.000000  0.707107 /   0.627437 -0.232595  0.743116 ->  -4.0021642568
    7:   0.707107  0.707107  0.000000 /   0.774867  0.632125  0.000000 ->  -5.1399317735

 K-point ( 0.000, 0.000, 0.000) | band =    29
 Effective mass tensor:
              0.4976695576              0.0131813914              0.0095957953
              0.0131813914              0.5022093647              0.0113894571
              0.0095957953              0.0113894571              0.4948553046
 Effective mass tensor eigenvalues:
              0.4865640122              0.4865640575              0.5216061572
 Angular average effective mass 1/(<1/m>)=   0.4977096095
 Angular average effective mass for Frohlich model (<m**0.5>)**2=   0.4978681307
 Effective masses along directions: (cart. coord. / red. coord. -> eff. mass)
    1:   1.000000  0.000000  0.000000 /   0.985903 -0.167316  0.000000 ->   0.4971488367
    2:   0.000000  1.000000  0.000000 /   0.000000  1.000000  0.000000 ->   0.5016095776
    3:   0.000000  0.000000  1.000000 /  -0.142125 -0.142125  0.979592 ->   0.4944232130
    4:   0.577350  0.577350  0.577350 /   0.575665  0.451397  0.681799 ->   0.5209812202
    5:   0.000000  0.707107  0.707107 /  -0.110953  0.634717  0.764738 ->   0.5093740315
    6:   0.707107  0.000000  0.707107 /   0.627437 -0.232595  0.743116 ->   0.5052533368
    7:   0.707107  0.707107  0.000000 /   0.774867  0.632125  0.000000 ->   0.5126656598

 END OF EFFECTIVE MASSES SECTION

 ---- first-order wavefunction calculations are completed ----

 Total localisation tensor (bohr^2) in cartesian coordinates
  WARNING : still subject to testing - especially symmetries.
      direction              matrix element
   alpha     beta       real part   imaginary part
     1        1       0.5339362525    0.0000000000
     1        2      -0.0867992744    0.0000000000
     1        3      -0.0631880161    0.0000000000
     2        1      -0.0867992744    0.0000000000
     2        2       0.5040411913    0.0000000000
     2        3      -0.0749994570    0.0000000000
     3        1      -0.0631880161    0.0000000000
     3        2      -0.0749994570    0.0000000000
     3        3       0.5524677953    0.0000000000

 respfn : d/dk was computed, but no 2DTE, so no DDB output.

== END DATASET(S) ==============================================================

 -outvars: echo values of variables after computation  --------
            acell      1.0000000000E+00  1.0000000000E+00  1.0000000000E+00 Bohr
              amu      1.37327000E+02  2.80855000E+01  1.89984032E+01
             ecut      4.20000000E+01 Hartree
           etotal     -3.0627205978E+01
            fcart      0.0000000000E+00  0.0000000000E+00  0.0000000000E+00
                       0.0000000000E+00  0.0000000000E+00  0.0000000000E+00
                       0.0000000000E+00  0.0000000000E+00  0.0000000000E+00
                       0.0000000000E+00  0.0000000000E+00  0.0000000000E+00
                       0.0000000000E+00  0.0000000000E+00  0.0000000000E+00
                       0.0000000000E+00  0.0000000000E+00  0.0000000000E+00
                       0.0000000000E+00  0.0000000000E+00  0.0000000000E+00
                       0.0000000000E+00  0.0000000000E+00  0.0000000000E+00
-          fftalg         512
           irdden           1
           irdwfk           1
           istwfk        1
              ixc     -116133
           kptopt           0
P           mkmem           1
P          mkqmem           1
P          mk1mem           1
            natom           8
            nband          37
           nbdbuf           4
            ngfft          54      54      54
             nkpt           1
            nstep        2000
             nsym          12
           ntypat           3
              occ      2.000000  2.000000  2.000000  2.000000  2.000000  2.000000
                       2.000000  2.000000  2.000000  2.000000  2.000000  2.000000
                       2.000000  2.000000  2.000000  2.000000  2.000000  2.000000
                       2.000000  2.000000  2.000000  2.000000  2.000000  2.000000
                       2.000000  2.000000  2.000000  2.000000  0.000000  0.000000
                       0.000000  0.000000  0.000000  0.000000  0.000000  0.000000
                       0.000000
        optdriver           1
            prtwf          -1
            rfdir           1       1       1
           rfelfd           2
            rprim      8.8944262154E+00  0.0000000000E+00 -1.3042598587E+00
                      -1.5094617211E+00  8.7654060381E+00 -1.3042598587E+00
                       0.0000000000E+00  0.0000000000E+00  8.9895445646E+00
          spgroup         166
           strten      0.0000000000E+00  0.0000000000E+00  0.0000000000E+00
                       0.0000000000E+00  0.0000000000E+00  0.0000000000E+00
           symrel      1  0  0   0  1  0   0  0  1      -1  0  0   0 -1  0   0  0 -1
                       0  1  0   1  0  0   0  0  1       0 -1  0  -1  0  0   0  0 -1
                       0  0  1   1  0  0   0  1  0       0  0 -1  -1  0  0   0 -1  0
                       1  0  0   0  0  1   0  1  0      -1  0  0   0  0 -1   0 -1  0
                       0  1  0   0  0  1   1  0  0       0 -1  0   0  0 -1  -1  0  0
                       0  0  1   0  1  0   1  0  0       0  0 -1   0 -1  0  -1  0  0
           tolwfr      1.00000000E-20
            typat      1  2  3  3  3  3  3  3
           useylm           1
           xangst      1.9539774483E+00  2.3192265497E+00  1.6883464583E+00
                       0.0000000000E+00  0.0000000000E+00  0.0000000000E+00
                      -2.3918336457E-01  3.4574333635E+00  2.9791556312E+00
                       2.9129309606E+00  3.4574333635E+00 -6.6888726645E-01
                       9.9502393601E-01  1.1810197359E+00  4.0455801830E+00
                       4.1471382612E+00  1.1810197359E+00  3.9753728542E-01
                       4.6008263691E-01  4.2874103304E+00  3.9753728542E-01
                       3.4478722597E+00  3.5104276902E-01  2.9791556312E+00
            xcart      3.6924822471E+00  4.3827030191E+00  3.1905124236E+00
                       0.0000000000E+00  0.0000000000E+00  0.0000000000E+00
                      -4.5199105457E-01  6.5336021797E+00  5.6297882501E+00
                       5.5046417596E+00  6.5336021797E+00 -1.2640137474E+00
                       1.8803227347E+00  2.2318038584E+00  7.6450385946E+00
                       7.8369555489E+00  2.2318038584E+00  7.5123659706E-01
                       8.6943018225E-01  8.1020313437E+00  7.5123659706E-01
                       6.5155343121E+00  6.6337469437E-01  5.6297882501E+00
             xred      5.0000000000E-01  5.0000000000E-01  5.0000000000E-01
                       0.0000000000E+00  0.0000000000E+00  0.0000000000E+00
                       7.5681000000E-02  7.4538500000E-01  7.4538500000E-01
                       7.4538500000E-01  7.4538500000E-01  7.5681000000E-02
                       2.5461500000E-01  2.5461500000E-01  9.2431900000E-01
                       9.2431900000E-01  2.5461500000E-01  2.5461500000E-01
                       2.5461500000E-01  9.2431900000E-01  2.5461500000E-01
                       7.4538500000E-01  7.5681000000E-02  7.4538500000E-01
            znucl       56.00000   14.00000    9.00000

- Timing analysis has been suppressed with timopt=0

 Suggested references for the acknowledgment of ABINIT usage.

 Calculation completed.
.Delivered   6 WARNINGs and   5 COMMENTs to log file.