.Version 9.5.2 of ABINIT

 ABINIT is a project of the Universite Catholique de Louvain,
 Corning Inc. and other collaborators, see ~abinit/doc/developers/contributors.txt .
 acknowledgments of the ABINIT effort.

.Starting date : Wed 26 May 2021.
- ( at 02h43 )

- input  file    -> /scratch/users/j/a/jabreu/flow_simple_11atoms/flow/w254/t1/run.abi
- output file    -> /scratch/users/j/a/jabreu/flow_simple_11atoms/flow/w254/t1/run.abo
- root for input  files -> /scratch/users/j/a/jabreu/flow_simple_11atoms/flow/w254/t1/indata/in
- root for output files -> /scratch/users/j/a/jabreu/flow_simple_11atoms/flow/w254/t1/outdata/out

 Symmetries : space group Pn m a (# 62); Bravais oP (primitive ortho.)
     intxc =       0      iscf =       7    lmnmax =      18     lnmax =       6
     mgfft =     120  mpssoang =       3    mqgrid =    5568     natom =      12
  nloc_mem =       1    nspden =       1   nspinor =       1    nsppol =       1
      nsym =       8    n1xccc =    2501    ntypat =       2    occopt =       1
   xclevel =       2
-    mband =          57        mffmem =           1         mkmem =           1
-   mkqmem =           1        mk1mem =           1           mpw =       25883
      nfft =      460800          nkpt =           1
  Rough estimation (10% accuracy) of disk space for files :

------------- Echo of variables that govern the present computation ------------
-
- outvars: echo of selected default values
-   iomode0 =  0 , fftalg0 =512 , wfoptalg0 =  0
-
- outvars: echo of global parameters not present in the input file
-  max_nthreads =    0
-
 -outvars: echo values of preprocessed input variables --------
            acell      1.0000000000E+00  1.0000000000E+00  1.0000000000E+00 Bohr
              amu      8.76200000E+01  7.99040000E+01
             ecut      3.40000000E+01 Hartree
-          fftalg         512
           irdden           1
           irdwfk           1
           istwfk        1
              ixc     -116133
           kptopt           0
P           mkmem           1
P          mkqmem           1
P          mk1mem           1
            natom          12
            nband          57
           nbdbuf           4
            ngfft          48      80     120
             nkpt           1
            nstep        2000
             nsym           8
           ntypat           2
              occ      2.000000  2.000000  2.000000  2.000000  2.000000  2.000000
                       2.000000  2.000000  2.000000  2.000000  2.000000  2.000000
                       2.000000  2.000000  2.000000  2.000000  2.000000  2.000000
                       2.000000  2.000000  2.000000  2.000000  2.000000  2.000000
                       2.000000  2.000000  2.000000  2.000000  2.000000  2.000000
                       2.000000  2.000000  2.000000  2.000000  2.000000  2.000000
                       2.000000  2.000000  2.000000  2.000000  2.000000  2.000000
                       2.000000  2.000000  2.000000  2.000000  2.000000  2.000000
                       0.000000  0.000000  0.000000  0.000000  0.000000  0.000000
                       0.000000  0.000000  0.000000
        optdriver           1
            prtwf          -1
            rfdir           1       1       1
           rfelfd           2
            rprim      8.8477864192E+00  0.0000000000E+00  0.0000000000E+00
                       0.0000000000E+00  1.4554813381E+01  0.0000000000E+00
                       0.0000000000E+00  0.0000000000E+00  2.1212403574E+01
          spgroup          62
           symrel      1  0  0   0  1  0   0  0  1      -1  0  0   0 -1  0   0  0 -1
                      -1  0  0   0  1  0   0  0 -1       1  0  0   0 -1  0   0  0  1
                      -1  0  0   0 -1  0   0  0  1       1  0  0   0  1  0   0  0 -1
                       1  0  0   0 -1  0   0  0 -1      -1  0  0   0  1  0   0  0  1
            tnons      0.0000000  0.0000000  0.0000000     0.0000000  0.0000000  0.0000000
                       0.0000000  0.5000000  0.5000000     0.0000000  0.5000000  0.5000000
                       0.5000000  0.5000000  0.5000000     0.5000000  0.5000000  0.5000000
                       0.5000000  0.0000000  0.0000000     0.5000000  0.0000000  0.0000000
           tolwfr      1.00000000E-20
            typat      1  1  1  1  2  2  2  2  2  2  2  2
           useylm           1
           xangst      1.1705117299E+00  4.9024095765E+00  9.3370440159E+00
                       3.5115351896E+00  2.7996659398E+00  1.8880764951E+00
                       1.1705117299E+00  6.6507036980E+00  3.7244837604E+00
                       3.5115351896E+00  1.0513718184E+00  7.5006367505E+00
                       3.5115351896E+00  9.0460106732E-01  4.3826013508E+00
                       1.1705117299E+00  6.7974744490E+00  6.8425191601E+00
                       1.1705117299E+00  9.2107580685E-01  1.4009174900E+00
                       1.1705117299E+00  4.7556388255E+00  1.2299589046E+00
                       1.1705117299E+00  2.9299619513E+00  7.0134777455E+00
                       3.5115351896E+00  6.7809997095E+00  9.8242030209E+00
                       3.5115351896E+00  2.9464366909E+00  9.9951616063E+00
                       3.5115351896E+00  4.7721135650E+00  4.2116427655E+00
            xcart      2.2119466048E+00  9.2642114909E+00  1.7644456081E+01
                       6.6358398144E+00  5.2906018898E+00  3.5679474936E+00
                       2.2119466048E+00  1.2568008580E+01  7.0382542935E+00
                       6.6358398144E+00  1.9868048005E+00  1.4174149281E+01
                       6.6358398144E+00  1.7094482767E+00  8.2819163027E+00
                       2.2119466048E+00  1.2845365104E+01  1.2930487272E+01
                       2.2119466048E+00  1.7405810226E+00  2.6473503909E+00
                       2.2119466048E+00  8.9868549671E+00  2.3242854844E+00
                       2.2119466048E+00  5.5368256678E+00  1.3253552178E+01
                       6.6358398144E+00  1.2814232358E+01  1.8565053183E+01
                       6.6358398144E+00  5.5679584136E+00  1.8888118090E+01
                       6.6358398144E+00  9.0179877129E+00  7.9588513963E+00
             xred      2.5000000000E-01  6.3650500000E-01  8.3179900000E-01
                       7.5000000000E-01  3.6349500000E-01  1.6820100000E-01
                       2.5000000000E-01  8.6349500000E-01  3.3179900000E-01
                       7.5000000000E-01  1.3650500000E-01  6.6820100000E-01
                       7.5000000000E-01  1.1744900000E-01  3.9042800000E-01
                       2.5000000000E-01  8.8255100000E-01  6.0957200000E-01
                       2.5000000000E-01  1.1958800000E-01  1.2480200000E-01
                       2.5000000000E-01  6.1744900000E-01  1.0957200000E-01
                       2.5000000000E-01  3.8041200000E-01  6.2480200000E-01
                       7.5000000000E-01  8.8041200000E-01  8.7519800000E-01
                       7.5000000000E-01  3.8255100000E-01  8.9042800000E-01
                       7.5000000000E-01  6.1958800000E-01  3.7519800000E-01
            znucl       38.00000   35.00000

 chkinp: Checking input parameters for consistency.

== DATASET  1 ==================================================================
-   mpi_nproc: 1, omp_nthreads: -1 (-1 if OMP is not activated)

--- !DatasetInfo
iteration_state: {dtset: 1, }
dimensions: {natom: 12, nkpt: 1, mband: 57, nsppol: 1, nspinor: 1, nspden: 1, mpw: 25883, }
cutoff_energies: {ecut:  34.0, pawecutdg:  -1.0, }
electrons: {nelect:   9.60000000E+01, charge:   0.00000000E+00, occopt:   1.00000000E+00, tsmear:   1.00000000E-02, }
meta: {optdriver: 1, rfelfd: 2, }
...

 Real(R)+Recip(G) space primitive vectors, cartesian coordinates (Bohr,Bohr^-1):
 R(1)=  8.8477864  0.0000000  0.0000000  G(1)=  0.1130226  0.0000000  0.0000000
 R(2)=  0.0000000 14.5548134  0.0000000  G(2)=  0.0000000  0.0687058  0.0000000
 R(3)=  0.0000000  0.0000000 21.2124036  G(3)=  0.0000000  0.0000000  0.0471422
 Unit cell volume ucvol=  2.7316884E+03 bohr^3
 Angles (23,13,12)=  9.00000000E+01  9.00000000E+01  9.00000000E+01 degrees

 getcut: wavevector=  0.0000  0.0000  0.0000  ngfft=  48  80 120
         ecut(hartree)=     34.000   => boxcut(ratio)=   2.06682

--- Pseudopotential description ------------------------------------------------
- pspini: atom type   1  psp file is /scratch/users/j/a/jabreu/pseudos/PBEsol/Sr.psp8
- pspatm: opening atomic psp file    /scratch/users/j/a/jabreu/pseudos/PBEsol/Sr.psp8
- Sr    ONCVPSP-3.3.0  r_core=   1.66721   1.31335   1.51547
- 38.00000  10.00000    180112                znucl, zion, pspdat
    8 -116133    2    4       600   0.00000   pspcod,pspxc,lmax,lloc,mmax,r2well
    5.99000000000000    6.00000000000000    0.00000000000000   rchrg,fchrg,qchrg
     nproj     2     2     2
     extension_switch     1
  pspatm : epsatm=   12.46450977
         --- l  ekb(1:nproj) -->
             0   10.029206    1.044171
             1    7.472414    1.670829
             2    4.142950    0.968140
 pspatm: atomic psp has been read  and splines computed

- pspini: atom type   2  psp file is /scratch/users/j/a/jabreu/pseudos/PBEsol/Br.psp8
- pspatm: opening atomic psp file    /scratch/users/j/a/jabreu/pseudos/PBEsol/Br.psp8
- Br    ONCVPSP-3.3.0  r_core=   1.81012   1.51356   1.92136
- 35.00000   7.00000    180112                znucl, zion, pspdat
    8 -116133    2    4       600   0.00000   pspcod,pspxc,lmax,lloc,mmax,r2well
    5.99000000000000    8.00000000000000    0.00000000000000   rchrg,fchrg,qchrg
     nproj     2     2     2
     extension_switch     1
  pspatm : epsatm=   10.94933070
         --- l  ekb(1:nproj) -->
             0    8.508690    0.897946
             1    5.393311    0.892021
             2    2.527513    0.394763
 pspatm: atomic psp has been read  and splines computed

   1.31954577E+04                                ecore*ucvol(ha*bohr**3)

 ==>  initialize data related to q vector <==

 The list of irreducible perturbations for this q vector is:
    1)    idir= 1    ipert=  13
    2)    idir= 2    ipert=  13
    3)    idir= 3    ipert=  13

 Perturbation wavevector (in red.coord.)   0.000000  0.000000  0.000000
 Perturbation : derivative vs k along direction   1

 dfpt_looppert : COMMENT -
  In a d/dk calculation, iscf is set to -3 automatically.
 The set of symmetries contains only one element for this perturbation.
 symkpt : not enough symmetry to change the number of k points.

 Initialisation of the first-order wave-functions :
  ireadwf=   0

--- !BeginCycle
iteration_state: {dtset: 1, }
solver: {iscf: 7, nstep: 2000, nline: 4, wfoptalg: 0, }
tolerances: {tolwfr: 1.00E-20, }
...

     iter   2DEtotal(Ha)        deltaE(Ha) residm    vres2
-ETOT  1  -53.307993168781     -5.331E+01 1.327E-01 0.000E+00
 ETOT  2  -53.368868213455     -6.088E-02 5.194E-02 0.000E+00
 ETOT  3  -53.369143339379     -2.751E-04 5.583E-03 0.000E+00
 ETOT  4  -53.369145350758     -2.011E-06 3.079E-03 0.000E+00
 ETOT  5  -53.369145368741     -1.798E-08 5.473E-04 0.000E+00
 ETOT  6  -53.369145368913     -1.719E-10 2.446E-04 0.000E+00
[...]
 dfpt_looppert : ek2=    9.6825936131E+01
          f-sum rule ratio=    1.0659428972E+00
 prteigrs : about to open file /scratch/users/j/a/jabreu/flow_simple_11atoms/flow/w254/t1/tmpdata/tmp_1WF1_EIG
 Expectation of eigenvalue derivatives (hartree) for nkpt=   1  k points:
  (in case of degenerate eigenvalues, averaged derivative)
 kpt#   1, nband= 57, wtk=  1.00000, kpt=  0.0000  0.0000  0.0000 (reduced coord)
  -0.00000   -0.00000   -0.00000   -0.00000   -0.00000   -0.00000   -0.00000   -0.00000
   0.00000   -0.00000   -0.00000    0.00000    0.00000    0.00000    0.00000   -0.00000
   0.00000   -0.00000   -0.00000    0.00000    0.00000   -0.00000   -0.00000    0.00000
  -0.00000    0.00000    0.00000   -0.00000   -0.00000    0.00000   -0.00000   -0.00000
   0.00000   -0.00000   -0.00000   -0.00000   -0.00000   -0.00000    0.00000   -0.00000
  -0.00000    0.00000    0.00000   -0.00000    0.00000    0.00000   -0.00000   -0.00000
   0.00000   -0.00000   -0.00000   -0.00000   -0.00000    0.00000   -0.00000    0.00001
  -0.00300

 Eight components of 2nd-order total energy (hartree) are
 1,2,3: 0th-order hamiltonian combined with 1st-order wavefunctions
     kin0=   7.98171163E+01 eigvalue=   4.38902686E+00  local=  -5.58366237E+01
 4,5,6: 1st-order hamiltonian combined with 1st and 0th-order wfs
     kin1=  -1.03210919E+02  Hartree=   0.00000000E+00     xc=   0.00000000E+00
 7,8,9: eventually, occupation + non-local contributions
    edocc=   1.09723369E+01     enl0=   1.40272890E+01   enl1=  -3.52737185E+00
 1-9 gives the relaxation energy (to be shifted if some occ is /=2.0)
   erelax=  -5.33691454E+01
  No Ewald or frozen-wf contrib.: the relaxation energy is the total one
 2DEtotal=   -0.5336914537E+02 Ha. Also 2DEtotal=   -0.145224830091E+04 eV
    (  non-var. 2DEtotal :   -5.3369145369E+01 Ha)

 Perturbation wavevector (in red.coord.)   0.000000  0.000000  0.000000
 Perturbation : derivative vs k along direction   2
 The set of symmetries contains only one element for this perturbation.
 symkpt : not enough symmetry to change the number of k points.

[...]

 Perturbation wavevector (in red.coord.)   0.000000  0.000000  0.000000
 Perturbation : derivative vs k along direction   3
 The set of symmetries contains only one element for this perturbation.
 symkpt : not enough symmetry to change the number of k points.

 Initialisation of the first-order wave-functions :
  ireadwf=   0

--- !BeginCycle
iteration_state: {dtset: 1, }
solver: {iscf: 7, nstep: 2000, nline: 4, wfoptalg: 0, }
tolerances: {tolwfr: 1.00E-20, }
...

     iter   2DEtotal(Ha)        deltaE(Ha) residm    vres2
-ETOT  1  -8.7857646861576     -8.786E+00 4.157E-03 0.000E+00
 ETOT  2  -8.7993610881727     -1.360E-02 1.415E-03 0.000E+00
 ETOT  3  -8.7994353150028     -7.423E-05 8.932E-05 0.000E+00
 ETOT  4  -8.7994359185224     -6.035E-07 2.228E-05 0.000E+00
 ETOT  5  -8.7994359242092     -5.687E-09 1.910E-06 0.000E+00
 ETOT  6  -8.7994359242666     -5.737E-11 6.406E-07 0.000E+00
 ETOT  7  -8.7994359242672     -5.951E-13 5.696E-08 0.000E+00
 ETOT  8  -8.7994359242672      1.776E-15 1.946E-08 0.000E+00
 ETOT  9  -8.7994359242672      3.553E-15 1.772E-09 0.000E+00
 ETOT 10  -8.7994359242672     -8.882E-15 6.053E-10 0.000E+00
 ETOT 11  -8.7994359242672      5.329E-15 6.853E-11 0.000E+00
 ETOT 12  -8.7994359242672     -1.776E-15 1.903E-11 0.000E+00
 ETOT 13  -8.7994359242672      1.776E-15 3.304E-12 0.000E+00
 ETOT 14  -8.7994359242672     -1.776E-15 6.558E-13 0.000E+00
 ETOT 15  -8.7994359242672     -3.553E-15 1.605E-13 0.000E+00
 ETOT 16  -8.7994359242672      3.553E-15 3.185E-14 0.000E+00
 ETOT 17  -8.7994359242672      3.553E-15 7.841E-15 0.000E+00
 ETOT 18  -8.7994359242672     -1.776E-15 1.556E-15 0.000E+00
 ETOT 19  -8.7994359242672      1.776E-15 3.851E-16 0.000E+00
 ETOT 20  -8.7994359242672     -1.776E-15 7.640E-17 0.000E+00
 ETOT 21  -8.7994359242672      0.000E+00 1.899E-17 0.000E+00
 ETOT 22  -8.7994359242672     -1.776E-15 3.767E-18 0.000E+00
 ETOT 23  -8.7994359242672      3.553E-15 9.402E-19 0.000E+00
 ETOT 24  -8.7994359242672      1.776E-15 1.864E-19 0.000E+00
 ETOT 25  -8.7994359242672      0.000E+00 4.668E-20 0.000E+00
 ETOT 26  -8.7994359242672      0.000E+00 9.249E-21 0.000E+00

 At SCF step   26   max residual=  9.25E-21 < tolwfr=  1.00E-20 =>converged.

 ----iterations are completed or convergence reached----

 dfpt_looppert: DFPT cycle converged with prtwf=-1. Will skip output of the 1st-order WFK file.
 dfpt_looppert : ek2=    1.6845395160E+01
          f-sum rule ratio=    1.0092606718E+00
 prteigrs : about to open file /scratch/users/j/a/jabreu/flow_simple_11atoms/flow/w254/t1/tmpdata/tmp_1WF1_EIG
 Expectation of eigenvalue derivatives (hartree) for nkpt=   1  k points:
  (in case of degenerate eigenvalues, averaged derivative)
 kpt#   1, nband= 57, wtk=  1.00000, kpt=  0.0000  0.0000  0.0000 (reduced coord)
  -0.00000   -0.00000   -0.00000    0.00000   -0.00000    0.00000   -0.00000    0.00000
   0.00000    0.00000    0.00000    0.00000   -0.00000   -0.00000    0.00000   -0.00000
   0.00000    0.00000   -0.00000   -0.00000    0.00000    0.00000   -0.00000   -0.00000
  -0.00000   -0.00000    0.00000    0.00000   -0.00000   -0.00000    0.00000    0.00000
  -0.00000    0.00000    0.00000    0.00000    0.00000    0.00000    0.00000    0.00000
   0.00000    0.00000   -0.00000   -0.00000    0.00000   -0.00000   -0.00000    0.00000
   0.00000   -0.00000    0.00000    0.00000   -0.00000   -0.00000   -0.00001    0.00002
   0.00002

 Eight components of 2nd-order total energy (hartree) are
 1,2,3: 0th-order hamiltonian combined with 1st-order wavefunctions
     kin0=   1.29477957E+01 eigvalue=   8.54737377E-01  local=  -8.84051612E+00
 4,5,6: 1st-order hamiltonian combined with 1st and 0th-order wfs
     kin1=  -1.70013948E+01  Hartree=   0.00000000E+00     xc=   0.00000000E+00
 7,8,9: eventually, occupation + non-local contributions
    edocc=   1.55990248E+00     enl0=   2.27751653E+00   enl1=  -5.97477012E-01
 1-9 gives the relaxation energy (to be shifted if some occ is /=2.0)
   erelax=  -8.79943592E+00
  No Ewald or frozen-wf contrib.: the relaxation energy is the total one
 2DEtotal=   -0.8799435924E+01 Ha. Also 2DEtotal=   -0.239444828687E+03 eV
    (  non-var. 2DEtotal :   -8.7994359242E+00 Ha)

 CALCULATION OF EFFECTIVE MASSES
 NOTE : Additional infos (eff. mass eigenvalues, eigenvectors and, if degenerate, average mass) are available in stdout.

 K-point ( 0.000, 0.000, 0.000) | band =    48
 Effective mass tensor:
             -2.3626173888              0.0000027755             -0.0000037122
              0.0000027755             -0.7326247671             -0.0000194740
             -0.0000037122             -0.0000194740             -1.5975380896
 Effective mass tensor eigenvalues:
             -2.3626173888             -1.5975380900             -0.7326247666
 Angular average effective mass 1/(<1/m>)=  -1.2426591060
 Angular average effective mass for Frohlich model (<m**0.5>)**2=  -1.3386782249
 Effective masses along directions: (cart. coord. / red. coord. -> eff. mass)
    1:   1.000000  0.000000  0.000000 /   1.000000  0.000000  0.000000 ->  -2.3626173888
    2:   0.000000  1.000000  0.000000 /   0.000000  1.000000  0.000000 ->  -0.7326247668
    3:   0.000000  0.000000  1.000000 /   0.000000  0.000000  1.000000 ->  -1.5975380891
    4:   0.577350  0.577350  0.577350 /   0.325231  0.535012  0.779735 ->  -1.2426755971
    5:   0.000000  0.707107  0.707107 /   0.000000  0.565771  0.824563 ->  -1.0045783110
    6:   0.707107  0.000000  0.707107 /   0.384960  0.000000  0.922933 ->  -1.9061768487
    7:   0.707107  0.707107  0.000000 /   0.519447  0.854503  0.000000 ->  -1.1184319819

 K-point ( 0.000, 0.000, 0.000) | band =    49
 Effective mass tensor:
              0.3204463621             -0.0000000052              0.0000000365
             -0.0000000052              0.3116493656             -0.0000000003
              0.0000000365             -0.0000000003              0.3187672692
 Effective mass tensor eigenvalues:
              0.3116493656              0.3187672692              0.3204463621
 Angular average effective mass 1/(<1/m>)=   0.3169081167
 Angular average effective mass for Frohlich model (<m**0.5>)**2=   0.3169220339
 Effective masses along directions: (cart. coord. / red. coord. -> eff. mass)
    1:   1.000000  0.000000  0.000000 /   1.000000  0.000000  0.000000 ->   0.3204463621
    2:   0.000000  1.000000  0.000000 /   0.000000  1.000000  0.000000 ->   0.3116493656
    3:   0.000000  0.000000  1.000000 /   0.000000  0.000000  1.000000 ->   0.3187672692
    4:   0.577350  0.577350  0.577350 /   0.325231  0.535012  0.779735 ->   0.3169081369
    5:   0.000000  0.707107  0.707107 /   0.000000  0.565771  0.824563 ->   0.3151681337
    6:   0.707107  0.000000  0.707107 /   0.384960  0.000000  0.922933 ->   0.3196046469
    7:   0.707107  0.707107  0.000000 /   0.519447  0.854503  0.000000 ->   0.3159866440

 END OF EFFECTIVE MASSES SECTION

 ---- first-order wavefunction calculations are completed ----

 Total localisation tensor (bohr^2) in cartesian coordinates
  WARNING : still subject to testing - especially symmetries.
      direction              matrix element
   alpha     beta       real part   imaginary part
     1        1       1.2673327801    0.0000000000
     1        2       0.0000000000    0.0000000000
     1        3       0.0000000000    0.0000000000
     2        1       0.0000000000    0.0000000000
     2        2       1.3498122194    0.0000000000
     2        3       0.0000000000    0.0000000000
     3        1       0.0000000000    0.0000000000
     3        2       0.0000000000    0.0000000000
     3        3       1.1148315617    0.0000000000

 respfn : d/dk was computed, but no 2DTE, so no DDB output.

== END DATASET(S) ==============================================================

 -outvars: echo values of variables after computation  --------
            acell      1.0000000000E+00  1.0000000000E+00  1.0000000000E+00 Bohr
              amu      8.76200000E+01  7.99040000E+01
             ecut      3.40000000E+01 Hartree
           etotal     -8.7994359243E+00
            fcart      0.0000000000E+00  0.0000000000E+00  0.0000000000E+00
                       0.0000000000E+00  0.0000000000E+00  0.0000000000E+00
                       0.0000000000E+00  0.0000000000E+00  0.0000000000E+00
                       0.0000000000E+00  0.0000000000E+00  0.0000000000E+00
                       0.0000000000E+00  0.0000000000E+00  0.0000000000E+00
                       0.0000000000E+00  0.0000000000E+00  0.0000000000E+00
                       0.0000000000E+00  0.0000000000E+00  0.0000000000E+00
                       0.0000000000E+00  0.0000000000E+00  0.0000000000E+00
                       0.0000000000E+00  0.0000000000E+00  0.0000000000E+00
                       0.0000000000E+00  0.0000000000E+00  0.0000000000E+00
                       0.0000000000E+00  0.0000000000E+00  0.0000000000E+00
                       0.0000000000E+00  0.0000000000E+00  0.0000000000E+00
-          fftalg         512
           irdden           1
           irdwfk           1
           istwfk        1
              ixc     -116133
           kptopt           0
P           mkmem           1
P          mkqmem           1
P          mk1mem           1
            natom          12
            nband          57
           nbdbuf           4
            ngfft          48      80     120
             nkpt           1
            nstep        2000
             nsym           8
           ntypat           2
              occ      2.000000  2.000000  2.000000  2.000000  2.000000  2.000000
                       2.000000  2.000000  2.000000  2.000000  2.000000  2.000000
                       2.000000  2.000000  2.000000  2.000000  2.000000  2.000000
                       2.000000  2.000000  2.000000  2.000000  2.000000  2.000000
                       2.000000  2.000000  2.000000  2.000000  2.000000  2.000000
                       2.000000  2.000000  2.000000  2.000000  2.000000  2.000000
                       2.000000  2.000000  2.000000  2.000000  2.000000  2.000000
                       2.000000  2.000000  2.000000  2.000000  2.000000  2.000000
                       0.000000  0.000000  0.000000  0.000000  0.000000  0.000000
                       0.000000  0.000000  0.000000
        optdriver           1
            prtwf          -1
            rfdir           1       1       1
           rfelfd           2
            rprim      8.8477864192E+00  0.0000000000E+00  0.0000000000E+00
                       0.0000000000E+00  1.4554813381E+01  0.0000000000E+00
                       0.0000000000E+00  0.0000000000E+00  2.1212403574E+01
          spgroup          62
           strten      0.0000000000E+00  0.0000000000E+00  0.0000000000E+00
                       0.0000000000E+00  0.0000000000E+00  0.0000000000E+00
           symrel      1  0  0   0  1  0   0  0  1      -1  0  0   0 -1  0   0  0 -1
                      -1  0  0   0  1  0   0  0 -1       1  0  0   0 -1  0   0  0  1
                      -1  0  0   0 -1  0   0  0  1       1  0  0   0  1  0   0  0 -1
                       1  0  0   0 -1  0   0  0 -1      -1  0  0   0  1  0   0  0  1
            tnons      0.0000000  0.0000000  0.0000000     0.0000000  0.0000000  0.0000000
                       0.0000000  0.5000000  0.5000000     0.0000000  0.5000000  0.5000000
                       0.5000000  0.5000000  0.5000000     0.5000000  0.5000000  0.5000000
                       0.5000000  0.0000000  0.0000000     0.5000000  0.0000000  0.0000000
           tolwfr      1.00000000E-20
            typat      1  1  1  1  2  2  2  2  2  2  2  2
           useylm           1
           xangst      1.1705117299E+00  4.9024095765E+00  9.3370440159E+00
                       3.5115351896E+00  2.7996659398E+00  1.8880764951E+00
                       1.1705117299E+00  6.6507036980E+00  3.7244837604E+00
                       3.5115351896E+00  1.0513718184E+00  7.5006367505E+00
                       3.5115351896E+00  9.0460106732E-01  4.3826013508E+00
                       1.1705117299E+00  6.7974744490E+00  6.8425191601E+00
                       1.1705117299E+00  9.2107580685E-01  1.4009174900E+00
                       1.1705117299E+00  4.7556388255E+00  1.2299589046E+00
                       1.1705117299E+00  2.9299619513E+00  7.0134777455E+00
                       3.5115351896E+00  6.7809997095E+00  9.8242030209E+00
                       3.5115351896E+00  2.9464366909E+00  9.9951616063E+00
                       3.5115351896E+00  4.7721135650E+00  4.2116427655E+00
            xcart      2.2119466048E+00  9.2642114909E+00  1.7644456081E+01
                       6.6358398144E+00  5.2906018898E+00  3.5679474936E+00
                       2.2119466048E+00  1.2568008580E+01  7.0382542935E+00
                       6.6358398144E+00  1.9868048005E+00  1.4174149281E+01
                       6.6358398144E+00  1.7094482767E+00  8.2819163027E+00
                       2.2119466048E+00  1.2845365104E+01  1.2930487272E+01
                       2.2119466048E+00  1.7405810226E+00  2.6473503909E+00
                       2.2119466048E+00  8.9868549671E+00  2.3242854844E+00
                       2.2119466048E+00  5.5368256678E+00  1.3253552178E+01
                       6.6358398144E+00  1.2814232358E+01  1.8565053183E+01
                       6.6358398144E+00  5.5679584136E+00  1.8888118090E+01
                       6.6358398144E+00  9.0179877129E+00  7.9588513963E+00
             xred      2.5000000000E-01  6.3650500000E-01  8.3179900000E-01
                       7.5000000000E-01  3.6349500000E-01  1.6820100000E-01
                       2.5000000000E-01  8.6349500000E-01  3.3179900000E-01
                       7.5000000000E-01  1.3650500000E-01  6.6820100000E-01
                       7.5000000000E-01  1.1744900000E-01  3.9042800000E-01
                       2.5000000000E-01  8.8255100000E-01  6.0957200000E-01
                       2.5000000000E-01  1.1958800000E-01  1.2480200000E-01
                       2.5000000000E-01  6.1744900000E-01  1.0957200000E-01
                       2.5000000000E-01  3.8041200000E-01  6.2480200000E-01
                       7.5000000000E-01  8.8041200000E-01  8.7519800000E-01
                       7.5000000000E-01  3.8255100000E-01  8.9042800000E-01
                       7.5000000000E-01  6.1958800000E-01  3.7519800000E-01
            znucl       38.00000   35.00000

- Timing analysis has been suppressed with timopt=0

 Suggested references for the acknowledgment of ABINIT usage.

 Calculation completed.
.Delivered   2 WARNINGs and   5 COMMENTs to log file.