.Version 9.5.2 of ABINIT

 ABINIT is a project of the Universite Catholique de Louvain,
 Corning Inc. and other collaborators, see ~abinit/doc/developers/contributors.txt .
 acknowledgments of the ABINIT effort.

.Starting date : Mon 24 May 2021.
- ( at 11h42 )

- input  file    -> /scratch/users/j/a/jabreu/flow_simple_10atoms/flow/w353/t1/run.abi
- output file    -> /scratch/users/j/a/jabreu/flow_simple_10atoms/flow/w353/t1/run.abo
- root for input  files -> /scratch/users/j/a/jabreu/flow_simple_10atoms/flow/w353/t1/indata/in
- root for output files -> /scratch/users/j/a/jabreu/flow_simple_10atoms/flow/w353/t1/outdata/out

 Symmetries : space group I4/m m m (#139); Bravais tI (body-center tetrag.)
     intxc =       0      iscf =       7    lmnmax =      32     lnmax =       8
     mgfft =      90  mpssoang =       4    mqgrid =    3317     natom =      10
  nloc_mem =       1    nspden =       1   nspinor =       1    nsppol =       1
      nsym =      16    n1xccc =    2501    ntypat =       3    occopt =       1
   xclevel =       2
-    mband =          58        mffmem =           1         mkmem =           2
-   mkqmem =           2        mk1mem =           2           mpw =       24850
      nfft =      729000          nkpt =           2
  Rough estimation (10% accuracy) of disk space for files :

------------- Echo of variables that govern the present computation ------------
-
- outvars: echo of selected default values
-   iomode0 =  0 , fftalg0 =512 , wfoptalg0 =  0
-
- outvars: echo of global parameters not present in the input file
-  max_nthreads =    0
-
 -outvars: echo values of preprocessed input variables --------
            acell      1.0000000000E+00  1.0000000000E+00  1.0000000000E+00 Bohr
              amu      1.32905430E+02  1.96966540E+02  7.99040000E+01
             ecut      3.80000000E+01 Hartree
-          fftalg         512
           irdden           1
           irdwfk           1
              ixc     -116133
              kpt     -2.11419299E-01  2.11419299E-01  2.11419299E-01
                      -2.49859172E-01  2.49859172E-01  2.49859172E-01
           kptopt           0
P           mkmem           2
P          mkqmem           2
P          mk1mem           2
            natom          10
            nband          58
           nbdbuf           4
            ngfft          90      90      90
             nkpt           2
            nstep        2000
             nsym          16
           ntypat           3
              occ      2.000000  2.000000  2.000000  2.000000  2.000000  2.000000
                       2.000000  2.000000  2.000000  2.000000  2.000000  2.000000
                       2.000000  2.000000  2.000000  2.000000  2.000000  2.000000
                       2.000000  2.000000  2.000000  2.000000  2.000000  2.000000
                       2.000000  2.000000  2.000000  2.000000  2.000000  2.000000
                       2.000000  2.000000  2.000000  2.000000  2.000000  2.000000
                       2.000000  2.000000  2.000000  2.000000  2.000000  2.000000
                       2.000000  2.000000  2.000000  2.000000  2.000000  2.000000
                       2.000000  0.000000  0.000000  0.000000  0.000000  0.000000
                       0.000000  0.000000  0.000000  0.000000
        optdriver           1
            prtwf          -1
            rfdir           1       1       1
           rfelfd           2
            rprim      1.2594336863E+01  0.0000000000E+00 -7.6762001759E+00
                      -3.9723020976E+00  1.1951490997E+01 -7.6762001759E+00
                       0.0000000000E+00  0.0000000000E+00  1.4749283717E+01
          spgroup         139
           symrel      1  0  0   0  1  0   0  0  1      -1  0  0   0 -1  0   0  0 -1
                       0  0  1  -1 -1 -1   1  0  0       0  0 -1   1  1  1  -1  0  0
                       0  1  0   1  0  0  -1 -1 -1       0 -1  0  -1  0  0   1  1  1
                      -1 -1 -1   0  0  1   0  1  0       1  1  1   0  0 -1   0 -1  0
                       0  1  0   1  0  0   0  0  1       0 -1  0  -1  0  0   0  0 -1
                       0  0  1  -1 -1 -1   0  1  0       0  0 -1   1  1  1   0 -1  0
                       1  0  0   0  1  0  -1 -1 -1      -1  0  0   0 -1  0   1  1  1
                      -1 -1 -1   0  0  1   1  0  0       1  1  1   0  0 -1  -1  0  0
           tolwfr      1.00000000E-20
            typat      1  1  2  2  3  3  3  3  3  3
           useylm           1
              wtk        0.50000    0.50000
           xangst      4.4729640849E+00  1.5811141611E+00 -1.5957778871E-01
                       8.9620204512E-02  4.7433424834E+00 -1.5957778871E-01
                       0.0000000000E+00  0.0000000000E+00  0.0000000000E+00
                       2.2812921447E+00  3.1622283222E+00 -4.0620701817E+00
                       1.2942728480E+00  1.7940649408E+00 -2.3045830210E+00
                       3.5128294587E+00  4.8693319842E+00 -2.0414876759E+00
                       3.2683114415E+00  4.5303917037E+00 -5.8195573423E+00
                      -8.5020982371E-02  4.8693319842E+00 -4.0620701817E+00
                       1.0497548307E+00  1.4551246603E+00  1.7223320985E+00
                       4.6476052718E+00  1.4551246603E+00 -4.0620701817E+00
            xcart      8.4526771227E+00  2.9878727493E+00 -3.0155831755E-01
                       1.6935764250E-01  8.9636182480E+00 -3.0155831755E-01
                       0.0000000000E+00  0.0000000000E+00  0.0000000000E+00
                       4.3110173826E+00  5.9757454987E+00 -7.6762001759E+00
                       2.4458212239E+00  3.3902914027E+00 -4.3550307602E+00
                       6.6382856285E+00  9.2017039002E+00 -3.8578526111E+00
                       6.1762135413E+00  8.5611995947E+00 -1.0997369592E+01
                      -1.6066637223E-01  9.2017039002E+00 -7.6762001759E+00
                       1.9837491367E+00  2.7497870972E+00  3.2547359760E+00
                       8.7827011374E+00  2.7497870972E+00 -7.6762001759E+00
             xred      7.5000000000E-01  2.5000000000E-01  5.0000000000E-01
                       2.5000000000E-01  7.5000000000E-01  5.0000000000E-01
                       0.0000000000E+00  0.0000000000E+00  0.0000000000E+00
                       5.0000000000E-01  5.0000000000E-01 -2.7755575616E-17
                       2.8367100000E-01  2.8367100000E-01  0.0000000000E+00
                       7.6992100000E-01  7.6992100000E-01  5.3984200000E-01
                       7.1632900000E-01  7.1632900000E-01  0.0000000000E+00
                       2.3007900000E-01  7.6992100000E-01  2.4286128664E-17
                       2.3007900000E-01  2.3007900000E-01  4.6015800000E-01
                       7.6992100000E-01  2.3007900000E-01  5.5511151231E-17
            znucl       55.00000   79.00000   35.00000

 chkinp: Checking input parameters for consistency.

== DATASET  1 ==================================================================
-   mpi_nproc: 1, omp_nthreads: -1 (-1 if OMP is not activated)

--- !DatasetInfo
iteration_state: {dtset: 1, }
dimensions: {natom: 10, nkpt: 2, mband: 58, nsppol: 1, nspinor: 1, nspden: 1, mpw: 24850, }
cutoff_energies: {ecut:  38.0, pawecutdg:  -1.0, }
electrons: {nelect:   9.80000000E+01, charge:   0.00000000E+00, occopt:   1.00000000E+00, tsmear:   1.00000000E-02, }
meta: {optdriver: 1, rfelfd: 2, }
...

 Real(R)+Recip(G) space primitive vectors, cartesian coordinates (Bohr,Bohr^-1):
 R(1)= 12.5943369  0.0000000 -7.6762002  G(1)=  0.0794008  0.0263903  0.0000000
 R(2)= -3.9723021 11.9514910 -7.6762002  G(2)=  0.0000000  0.0836716  0.0000000
 R(3)=  0.0000000  0.0000000 14.7492837  G(3)=  0.0413238  0.0572812  0.0677999
 Unit cell volume ucvol=  2.2200785E+03 bohr^3
 Angles (23,13,12)=  1.21362148E+02  1.21362148E+02  8.76564506E+01 degrees

 getcut: wavevector=  0.0000  0.0000  0.0000  ngfft=  90  90  90
         ecut(hartree)=     38.000   => boxcut(ratio)=   2.19924

--- Pseudopotential description ------------------------------------------------
- pspini: atom type   1  psp file is /scratch/users/j/a/jabreu/pseudos/PBEsol/Cs.psp8
- pspatm: opening atomic psp file    /scratch/users/j/a/jabreu/pseudos/PBEsol/Cs.psp8
- Cs    ONCVPSP-3.3.0  r_core=   2.27353   1.85623   2.01788   1.90105
- 55.00000   9.00000    180112                znucl, zion, pspdat
    8 -116133    3    4       600   0.00000   pspcod,pspxc,lmax,lloc,mmax,r2well
    5.99000000000000    5.00000000000000    0.00000000000000   rchrg,fchrg,qchrg
     nproj     2     2     2     2
     extension_switch     1
  pspatm : epsatm=   22.12462445
         --- l  ekb(1:nproj) -->
             0    6.214110    0.767882
             1    6.311966    0.793598
             2    3.769790    0.913105
             3   -9.247129   -2.432478
 pspatm: atomic psp has been read  and splines computed

- pspini: atom type   2  psp file is /scratch/users/j/a/jabreu/pseudos/PBEsol/Au.psp8
- pspatm: opening atomic psp file    /scratch/users/j/a/jabreu/pseudos/PBEsol/Au.psp8
- Au    ONCVPSP-3.3.0  r_core=   1.45604   1.56407   1.56407   1.60183
- 79.00000  19.00000    180112                znucl, zion, pspdat
    8 -116133    3    4       500   0.00000   pspcod,pspxc,lmax,lloc,mmax,r2well
    4.99000000000000    5.00000000000000    0.00000000000000   rchrg,fchrg,qchrg
     nproj     2     2     2     1
     extension_switch     1
  pspatm : epsatm=   32.21965837
         --- l  ekb(1:nproj) -->
             0    9.413866   -0.196587
             1    2.474292   -1.517497
             2    1.503483    0.298081
             3    1.177996
 pspatm: atomic psp has been read  and splines computed

- pspini: atom type   3  psp file is /scratch/users/j/a/jabreu/pseudos/PBEsol/Br.psp8
- pspatm: opening atomic psp file    /scratch/users/j/a/jabreu/pseudos/PBEsol/Br.psp8
- Br    ONCVPSP-3.3.0  r_core=   1.81012   1.51356   1.92136
- 35.00000   7.00000    180112                znucl, zion, pspdat
    8 -116133    2    4       600   0.00000   pspcod,pspxc,lmax,lloc,mmax,r2well
    5.99000000000000    8.00000000000000    0.00000000000000   rchrg,fchrg,qchrg
     nproj     2     2     2
     extension_switch     1
  pspatm : epsatm=   10.94933070
         --- l  ekb(1:nproj) -->
             0    8.508690    0.897946
             1    5.393311    0.892021
             2    2.527513    0.394763
 pspatm: atomic psp has been read  and splines computed

   1.70896859E+04                                ecore*ucvol(ha*bohr**3)

 ==>  initialize data related to q vector <==

 The list of irreducible perturbations for this q vector is:
    1)    idir= 1    ipert=  11
    2)    idir= 2    ipert=  11
    3)    idir= 3    ipert=  11

 Perturbation wavevector (in red.coord.)   0.000000  0.000000  0.000000
 Perturbation : derivative vs k along direction   1

 dfpt_looppert : COMMENT -
  In a d/dk calculation, iscf is set to -3 automatically.
 The set of symmetries contains only one element for this perturbation.
 symkpt : not enough symmetry to change the number of k points.

 Initialisation of the first-order wave-functions :
  ireadwf=   0

--- !BeginCycle
iteration_state: {dtset: 1, }
[...]

 ----iterations are completed or convergence reached----

 dfpt_looppert: DFPT cycle converged with prtwf=-1. Will skip output of the 1st-order WFK file.
 dfpt_looppert : ek2=    5.4171595974E+01
          f-sum rule ratio=    1.3142937679E+00
 prteigrs : about to open file /scratch/users/j/a/jabreu/flow_simple_10atoms/flow/w353/t1/tmpdata/tmp_1WF1_EIG
 Expectation of eigenvalue derivatives (hartree) for nkpt=   2  k points:
  (in case of degenerate eigenvalues, averaged derivative)
 kpt#   1, nband= 58, wtk=  0.50000, kpt= -0.2114  0.2114  0.2114 (reduced coord)
   0.00000   -0.00000   -0.00000   -0.00000    0.00000    0.00000    0.00000    0.00000
  -0.00000    0.00000   -0.00000    0.00000   -0.00000    0.00000   -0.00000    0.00000
  -0.00000   -0.00000    0.00000    0.00000   -0.00000    0.00000   -0.00000    0.00000
  -0.00000    0.00000    0.00000   -0.00000   -0.00000    0.00000    0.00000   -0.00000
  -0.00000    0.00000    0.00000    0.00000   -0.00000    0.00000    0.00000   -0.00000
  -0.00000    0.00000   -0.00000    0.00000    0.00000    0.00000    0.00000   -0.00000
   0.00000   -0.00000    0.00000    0.00000    0.00000   -0.00000   -0.00000    0.00000
  -0.00553   -0.00013
 prteigrs : prtvol=0 or 1, do not print more k-points.

 Eight components of 2nd-order total energy (hartree) are
 1,2,3: 0th-order hamiltonian combined with 1st-order wavefunctions
     kin0=   4.08766021E+01 eigvalue=   9.98756550E-01  local=  -2.41427128E+01
 4,5,6: 1st-order hamiltonian combined with 1st and 0th-order wfs
     kin1=  -7.11973910E+01  Hartree=   0.00000000E+00     xc=   0.00000000E+00
 7,8,9: eventually, occupation + non-local contributions
    edocc=   1.51923798E+01     enl0=   4.81339612E+00   enl1=  -4.27945277E+00
 1-9 gives the relaxation energy (to be shifted if some occ is /=2.0)
   erelax=  -3.77384219E+01
  No Ewald or frozen-wf contrib.: the relaxation energy is the total one
 2DEtotal=   -0.3773842188E+02 Ha. Also 2DEtotal=   -0.102691468398E+04 eV
    (  non-var. 2DEtotal :   -3.7738421878E+01 Ha)

 Perturbation wavevector (in red.coord.)   0.000000  0.000000  0.000000
 Perturbation : derivative vs k along direction   2
 The set of symmetries contains only one element for this perturbation.
 symkpt : not enough symmetry to change the number of k points.

[...]

 Perturbation wavevector (in red.coord.)   0.000000  0.000000  0.000000
 Perturbation : derivative vs k along direction   3
 The set of symmetries contains only one element for this perturbation.
 symkpt : not enough symmetry to change the number of k points.

 Initialisation of the first-order wave-functions :
  ireadwf=   0

--- !BeginCycle
iteration_state: {dtset: 1, }
solver: {iscf: 7, nstep: 2000, nline: 4, wfoptalg: 0, }
tolerances: {tolwfr: 1.00E-20, }
...

     iter   2DEtotal(Ha)        deltaE(Ha) residm    vres2
-ETOT  1  -49.837602530602     -4.984E+01 2.759E-02 0.000E+00
 ETOT  2  -49.865455815967     -2.785E-02 4.558E-03 0.000E+00
 ETOT  3  -49.866110605188     -6.548E-04 3.478E-04 0.000E+00
 ETOT  4  -49.866156035030     -4.543E-05 8.181E-05 0.000E+00
 ETOT  5  -49.866159739039     -3.704E-06 1.024E-05 0.000E+00
 ETOT  6  -49.866160079685     -3.406E-07 3.054E-06 0.000E+00
 ETOT  7  -49.866160113810     -3.412E-08 4.487E-07 0.000E+00
 ETOT  8  -49.866160117445     -3.635E-09 1.353E-07 0.000E+00
 ETOT  9  -49.866160117849     -4.046E-10 2.088E-08 0.000E+00
 ETOT 10  -49.866160117896     -4.641E-11 6.266E-09 0.000E+00
 ETOT 11  -49.866160117901     -5.429E-12 9.752E-10 0.000E+00
 ETOT 12  -49.866160117902     -5.684E-13 2.930E-10 0.000E+00
 ETOT 13  -49.866160117902     -1.492E-13 4.539E-11 0.000E+00
 ETOT 14  -49.866160117902     -3.553E-14 1.372E-11 0.000E+00
 ETOT 15  -49.866160117902      3.553E-14 2.107E-12 0.000E+00
 ETOT 16  -49.866160117902      7.105E-15 6.427E-13 0.000E+00
 ETOT 17  -49.866160117902      7.105E-15 9.774E-14 0.000E+00
 ETOT 18  -49.866160117902      0.000E+00 3.013E-14 0.000E+00
 ETOT 19  -49.866160117902      0.000E+00 4.536E-15 0.000E+00
 ETOT 20  -49.866160117902      5.684E-14 1.414E-15 0.000E+00
 ETOT 21  -49.866160117902      2.132E-14 2.107E-16 0.000E+00
 ETOT 22  -49.866160117902     -7.105E-15 6.644E-17 0.000E+00
 ETOT 23  -49.866160117902     -7.105E-15 9.806E-18 0.000E+00
 ETOT 24  -49.866160117902      0.000E+00 3.126E-18 0.000E+00
 ETOT 25  -49.866160117902      0.000E+00 4.570E-19 0.000E+00
 ETOT 26  -49.866160117902      1.421E-14 1.473E-19 0.000E+00
 ETOT 27  -49.866160117902     -7.105E-15 2.133E-20 0.000E+00
 ETOT 28  -49.866160117902     -7.105E-15 9.766E-21 0.000E+00

 At SCF step   28   max residual=  9.77E-21 < tolwfr=  1.00E-20 =>converged.

 ----iterations are completed or convergence reached----

 dfpt_looppert: DFPT cycle converged with prtwf=-1. Will skip output of the 1st-order WFK file.
 dfpt_looppert : ek2=    7.4171334100E+01
          f-sum rule ratio=    1.2668994627E+00
 prteigrs : about to open file /scratch/users/j/a/jabreu/flow_simple_10atoms/flow/w353/t1/tmpdata/tmp_1WF1_EIG
 Expectation of eigenvalue derivatives (hartree) for nkpt=   2  k points:
  (in case of degenerate eigenvalues, averaged derivative)
 kpt#   1, nband= 58, wtk=  0.50000, kpt= -0.2114  0.2114  0.2114 (reduced coord)
  -0.00000   -0.00000   -0.00000   -0.00000   -0.00000   -0.00000   -0.00000   -0.00000
   0.00050   -0.00038    0.01232   -0.01578    0.00300   -0.00331    0.00044   -0.00049
   0.00848    0.00837   -0.00213    0.01138    0.00502    0.00022    0.05262    0.00448
  -0.01631   -0.00294   -0.04533    0.00704   -0.01842    0.01092   -0.02089   -0.01736
   0.02312   -0.01301    0.01022    0.05527   -0.02898   -0.04972   -0.02998   -0.00339
   0.00009   -0.01740   -0.00481    0.00086   -0.02125   -0.01780    0.03644   -0.01185
  -0.00850   -0.06819    0.11200   -0.05231    0.11335    0.11770    0.10069    0.07899
   0.05330    0.09434
 prteigrs : prtvol=0 or 1, do not print more k-points.

 Eight components of 2nd-order total energy (hartree) are
 1,2,3: 0th-order hamiltonian combined with 1st-order wavefunctions
     kin0=   5.64816907E+01 eigvalue=   1.45201732E+00  local=  -3.35786642E+01
 4,5,6: 1st-order hamiltonian combined with 1st and 0th-order wfs
     kin1=  -9.39676233E+01  Hartree=   0.00000000E+00     xc=   0.00000000E+00
 7,8,9: eventually, occupation + non-local contributions
    edocc=   1.86795859E+01     enl0=   6.83153047E+00   enl1=  -5.76469691E+00
 1-9 gives the relaxation energy (to be shifted if some occ is /=2.0)
   erelax=  -4.98661601E+01
  No Ewald or frozen-wf contrib.: the relaxation energy is the total one
 2DEtotal=   -0.4986616012E+02 Ha. Also 2DEtotal=   -0.135692722459E+04 eV
    (  non-var. 2DEtotal :   -4.9866160118E+01 Ha)

 CALCULATION OF EFFECTIVE MASSES
 NOTE : Additional infos (eff. mass eigenvalues, eigenvectors and, if degenerate, average mass) are available in stdout.

 K-point (-0.211, 0.211, 0.211) | band =    49
 Effective mass tensor:
             -0.2438346711             -0.1964863452              0.3497921363
             -0.1964863452             -0.5479091608              0.3498691834
              0.3497921363              0.3498691834             -0.6702379446
 Effective mass tensor eigenvalues:
             -1.1390585663             -0.2755324522             -0.0473907579
 Angular average effective mass 1/(<1/m>)=  -0.1171489906
 Angular average effective mass for Frohlich model (<m**0.5>)**2=  -0.1783965232
 Effective masses along directions: (cart. coord. / red. coord. -> eff. mass)
    1:   1.000000  0.000000  0.000000 /   0.953688 -0.300797  0.000000 ->  -0.0607524343
    2:   0.000000  1.000000  0.000000 /   0.000000  1.000000  0.000000 ->  -0.3621254988
    3:   0.000000  0.000000  1.000000 /  -0.419152 -0.419152  0.805371 ->  -0.1565754832
    4:   0.577350  0.577350  0.577350 /   0.316267  0.019484  0.948470 ->  -0.0695840298
    5:   0.000000  0.707107  0.707107 /  -0.447120  0.249025  0.859110 ->  -0.1757815685
    6:   0.707107  0.000000  0.707107 /   0.253157 -0.599597  0.759207 ->  -0.0507945246
    7:   0.707107  0.707107  0.000000 /   0.844735  0.535185  0.000000 ->  -0.1112986096

 K-point (-0.250, 0.250, 0.250) | band =    50
 Effective mass tensor:
              2.7134520175              3.6473445042             -4.7395209585
              3.6473445042              5.2346479443             -6.4944640768
             -4.7395209585             -6.4944640768              8.4908921562
 Effective mass tensor eigenvalues:
              0.0516980031              0.1788568962             16.2084372188
 Angular average effective mass 1/(<1/m>)=   0.1200198504
 Angular average effective mass for Frohlich model (<m**0.5>)**2=   0.2053755599
 Effective masses along directions: (cart. coord. / red. coord. -> eff. mass)
    1:   1.000000  0.000000  0.000000 /   0.953688 -0.300797  0.000000 ->   0.0660587884
    2:   0.000000  1.000000  0.000000 /   0.000000  1.000000  0.000000 ->   0.2599374829
    3:   0.000000  0.000000  1.000000 /  -0.419152 -0.419152  0.805371 ->   0.1663684483
    4:   0.577350  0.577350  0.577350 /   0.316267  0.019484  0.948470 ->   0.0715389413
    5:   0.000000  0.707107  0.707107 /  -0.447120  0.249025  0.859110 ->   0.1394862055
    6:   0.707107  0.000000  0.707107 /   0.253157 -0.599597  0.759207 ->   0.0553649993
    7:   0.707107  0.707107  0.000000 /   0.844735  0.535185  0.000000 ->   0.1214415579

 END OF EFFECTIVE MASSES SECTION

 ---- first-order wavefunction calculations are completed ----

 Total localisation tensor (bohr^2) in cartesian coordinates
  WARNING : still subject to testing - especially symmetries.
      direction              matrix element
   alpha     beta       real part   imaginary part
     1        1      11.9337008446    0.0000000000
     1        2      -0.5962670228    0.0000000000
     1        3      -6.7697845658    0.0000000000
     2        1      -0.5962670228    0.0000000000
     2        2       1.7939924456    0.0000000000
     2        3      -1.1522449483    0.0000000000
     3        1      -6.7697845658    0.0000000000
     3        2      -1.1522449483    0.0000000000
     3        3      22.9388766772    0.0000000000

 respfn : d/dk was computed, but no 2DTE, so no DDB output.

== END DATASET(S) ==============================================================

 -outvars: echo values of variables after computation  --------
            acell      1.0000000000E+00  1.0000000000E+00  1.0000000000E+00 Bohr
              amu      1.32905430E+02  1.96966540E+02  7.99040000E+01
             ecut      3.80000000E+01 Hartree
           etotal     -4.9866160118E+01
            fcart      0.0000000000E+00  0.0000000000E+00  0.0000000000E+00
                       0.0000000000E+00  0.0000000000E+00  0.0000000000E+00
                       0.0000000000E+00  0.0000000000E+00  0.0000000000E+00
                       0.0000000000E+00  0.0000000000E+00  0.0000000000E+00
                       0.0000000000E+00  0.0000000000E+00  0.0000000000E+00
                       0.0000000000E+00  0.0000000000E+00  0.0000000000E+00
                       0.0000000000E+00  0.0000000000E+00  0.0000000000E+00
                       0.0000000000E+00  0.0000000000E+00  0.0000000000E+00
                       0.0000000000E+00  0.0000000000E+00  0.0000000000E+00
                       0.0000000000E+00  0.0000000000E+00  0.0000000000E+00
-          fftalg         512
           irdden           1
           irdwfk           1
              ixc     -116133
              kpt     -2.11419299E-01  2.11419299E-01  2.11419299E-01
                      -2.49859172E-01  2.49859172E-01  2.49859172E-01
           kptopt           0
P           mkmem           2
P          mkqmem           2
P          mk1mem           2
            natom          10
            nband          58
           nbdbuf           4
            ngfft          90      90      90
             nkpt           2
            nstep        2000
             nsym          16
           ntypat           3
              occ      2.000000  2.000000  2.000000  2.000000  2.000000  2.000000
                       2.000000  2.000000  2.000000  2.000000  2.000000  2.000000
                       2.000000  2.000000  2.000000  2.000000  2.000000  2.000000
                       2.000000  2.000000  2.000000  2.000000  2.000000  2.000000
                       2.000000  2.000000  2.000000  2.000000  2.000000  2.000000
                       2.000000  2.000000  2.000000  2.000000  2.000000  2.000000
                       2.000000  2.000000  2.000000  2.000000  2.000000  2.000000
                       2.000000  2.000000  2.000000  2.000000  2.000000  2.000000
                       2.000000  0.000000  0.000000  0.000000  0.000000  0.000000
                       0.000000  0.000000  0.000000  0.000000
        optdriver           1
            prtwf          -1
            rfdir           1       1       1
           rfelfd           2
            rprim      1.2594336863E+01  0.0000000000E+00 -7.6762001759E+00
                      -3.9723020976E+00  1.1951490997E+01 -7.6762001759E+00
                       0.0000000000E+00  0.0000000000E+00  1.4749283717E+01
          spgroup         139
           strten      0.0000000000E+00  0.0000000000E+00  0.0000000000E+00
                       0.0000000000E+00  0.0000000000E+00  0.0000000000E+00
           symrel      1  0  0   0  1  0   0  0  1      -1  0  0   0 -1  0   0  0 -1
                       0  0  1  -1 -1 -1   1  0  0       0  0 -1   1  1  1  -1  0  0
                       0  1  0   1  0  0  -1 -1 -1       0 -1  0  -1  0  0   1  1  1
                      -1 -1 -1   0  0  1   0  1  0       1  1  1   0  0 -1   0 -1  0
                       0  1  0   1  0  0   0  0  1       0 -1  0  -1  0  0   0  0 -1
                       0  0  1  -1 -1 -1   0  1  0       0  0 -1   1  1  1   0 -1  0
                       1  0  0   0  1  0  -1 -1 -1      -1  0  0   0 -1  0   1  1  1
                      -1 -1 -1   0  0  1   1  0  0       1  1  1   0  0 -1  -1  0  0
           tolwfr      1.00000000E-20
            typat      1  1  2  2  3  3  3  3  3  3
           useylm           1
              wtk        0.50000    0.50000
           xangst      4.4729640849E+00  1.5811141611E+00 -1.5957778871E-01
                       8.9620204512E-02  4.7433424834E+00 -1.5957778871E-01
                       0.0000000000E+00  0.0000000000E+00  0.0000000000E+00
                       2.2812921447E+00  3.1622283222E+00 -4.0620701817E+00
                       1.2942728480E+00  1.7940649408E+00 -2.3045830210E+00
                       3.5128294587E+00  4.8693319842E+00 -2.0414876759E+00
                       3.2683114415E+00  4.5303917037E+00 -5.8195573423E+00
                      -8.5020982371E-02  4.8693319842E+00 -4.0620701817E+00
                       1.0497548307E+00  1.4551246603E+00  1.7223320985E+00
                       4.6476052718E+00  1.4551246603E+00 -4.0620701817E+00
            xcart      8.4526771227E+00  2.9878727493E+00 -3.0155831755E-01
                       1.6935764250E-01  8.9636182480E+00 -3.0155831755E-01
                       0.0000000000E+00  0.0000000000E+00  0.0000000000E+00
                       4.3110173826E+00  5.9757454987E+00 -7.6762001759E+00
                       2.4458212239E+00  3.3902914027E+00 -4.3550307602E+00
                       6.6382856285E+00  9.2017039002E+00 -3.8578526111E+00
                       6.1762135413E+00  8.5611995947E+00 -1.0997369592E+01
                      -1.6066637223E-01  9.2017039002E+00 -7.6762001759E+00
                       1.9837491367E+00  2.7497870972E+00  3.2547359760E+00
                       8.7827011374E+00  2.7497870972E+00 -7.6762001759E+00
             xred      7.5000000000E-01  2.5000000000E-01  5.0000000000E-01
                       2.5000000000E-01  7.5000000000E-01  5.0000000000E-01
                       0.0000000000E+00  0.0000000000E+00  0.0000000000E+00
                       5.0000000000E-01  5.0000000000E-01 -2.7755575616E-17
                       2.8367100000E-01  2.8367100000E-01  0.0000000000E+00
                       7.6992100000E-01  7.6992100000E-01  5.3984200000E-01
                       7.1632900000E-01  7.1632900000E-01  0.0000000000E+00
                       2.3007900000E-01  7.6992100000E-01  2.4286128664E-17
                       2.3007900000E-01  2.3007900000E-01  4.6015800000E-01
                       7.6992100000E-01  2.3007900000E-01  5.5511151231E-17
            znucl       55.00000   79.00000   35.00000

- Timing analysis has been suppressed with timopt=0

 Suggested references for the acknowledgment of ABINIT usage.

 Calculation completed.
.Delivered   2 WARNINGs and   5 COMMENTs to log file.