.Version 9.5.2 of ABINIT

 ABINIT is a project of the Universite Catholique de Louvain,
 Corning Inc. and other collaborators, see ~abinit/doc/developers/contributors.txt .
 acknowledgments of the ABINIT effort.

.Starting date : Mon 24 May 2021.
- ( at 22h48 )

- input  file    -> /scratch/users/j/a/jabreu/flow_simple_10atoms/flow/w431/t1/run.abi
- output file    -> /scratch/users/j/a/jabreu/flow_simple_10atoms/flow/w431/t1/run.abo
- root for input  files -> /scratch/users/j/a/jabreu/flow_simple_10atoms/flow/w431/t1/indata/in
- root for output files -> /scratch/users/j/a/jabreu/flow_simple_10atoms/flow/w431/t1/outdata/out

 Symmetries : space group C2/m (# 12); Bravais mC (1-face-center monocl.)
     intxc =       0      iscf =       7    lmnmax =      32     lnmax =       8
     mgfft =      72  mpssoang =       4    mqgrid =    3001     natom =      10
  nloc_mem =       1    nspden =       1   nspinor =       1    nsppol =       1
      nsym =       4    n1xccc =    2501    ntypat =       4    occopt =       1
   xclevel =       2
-    mband =          51        mffmem =           1         mkmem =           2
-   mkqmem =           2        mk1mem =           2           mpw =       14658
      nfft =      373248          nkpt =           2
  Rough estimation (10% accuracy) of disk space for files :

------------- Echo of variables that govern the present computation ------------
-
- outvars: echo of selected default values
-   iomode0 =  0 , fftalg0 =512 , wfoptalg0 =  0
-
- outvars: echo of global parameters not present in the input file
-  max_nthreads =    0
-
 -outvars: echo values of preprocessed input variables --------
            acell      1.0000000000E+00  1.0000000000E+00  1.0000000000E+00 Bohr
              amu      1.37327000E+02  1.80947900E+02  2.08980370E+02
                       1.59994000E+01
             ecut      4.40000000E+01 Hartree
-          fftalg         512
           irdden           1
           irdwfk           1
           istwfk        1    1
              ixc     -116133
              kpt      5.00000000E-01  0.00000000E+00  0.00000000E+00
                       5.00000000E-01  5.00000000E-01  5.00000000E-01
           kptopt           0
P           mkmem           2
P          mkqmem           2
P          mk1mem           2
            natom          10
            nband          51
           nbdbuf           4
            ngfft          72      72      72
             nkpt           2
            nstep        2000
             nsym           4
           ntypat           4
              occ      2.000000  2.000000  2.000000  2.000000  2.000000  2.000000
                       2.000000  2.000000  2.000000  2.000000  2.000000  2.000000
                       2.000000  2.000000  2.000000  2.000000  2.000000  2.000000
                       2.000000  2.000000  2.000000  2.000000  2.000000  2.000000
                       2.000000  2.000000  2.000000  2.000000  2.000000  2.000000
                       2.000000  2.000000  2.000000  2.000000  2.000000  2.000000
                       2.000000  2.000000  2.000000  2.000000  2.000000  2.000000
                       0.000000  0.000000  0.000000  0.000000  0.000000  0.000000
                       0.000000  0.000000  0.000000
        optdriver           1
            prtwf          -1
            rfdir           1       1       1
           rfelfd           2
            rprim      9.8350588332E+00  0.0000000000E+00  5.6664517513E+00
                       3.2736058183E+00  9.2742593882E+00  5.6664517513E+00
                       0.0000000000E+00  0.0000000000E+00  1.1508991326E+01
          spgroup          12
           symrel      1  0  0   0  1  0   0  0  1      -1  0  0   0 -1  0   0  0 -1
                       0 -1  0  -1  0  0   0  0 -1       0  1  0   1  0  0   0  0  1
           tolwfr      1.00000000E-20
            typat      1  1  2  3  4  4  4  4  4  4
           useylm           1
              wtk        0.50000    0.50000
           xangst      5.2127326641E+00  3.6879603021E+00  5.9824041512E+00
                       1.7240739046E+00  1.2197663927E+00  6.1050059929E+00
                       3.4684032843E+00  2.4538633474E+00  2.9985571204E+00
                       0.0000000000E+00  0.0000000000E+00  3.0451479517E+00
                       4.5428978922E+00  1.5012834114E+00  4.3759185400E+00
                       2.3939086764E+00  3.4064432834E+00  7.7114916041E+00
                       2.9277861203E+00  3.7841566530E+00  4.3759185400E+00
                       5.0515143426E+00  3.5738998260E+00  8.6436660612E+00
                       4.0090204483E+00  1.1235700418E+00  7.7114916041E+00
                       1.8852922260E+00  1.3338268688E+00  3.4437440829E+00
            xcart      9.8506371390E+00  6.9692349599E+00  1.1305105462E+01
                       3.2580275125E+00  2.3050244283E+00  1.1536789366E+01
                       6.5543323257E+00  4.6371296941E+00  5.6664517513E+00
                       0.0000000000E+00  0.0000000000E+00  5.7544956628E+00
                       8.5848328660E+00  2.8370144954E+00  8.2692876204E+00
                       4.5238317855E+00  6.4372448928E+00  1.4572607208E+01
                       5.5327139431E+00  7.1510197181E+00  8.2692876204E+00
                       9.5459786639E+00  6.7536918974E+00  1.6334161640E+01
                       7.5759507084E+00  2.1232396701E+00  1.4572607208E+01
                       3.5626859876E+00  2.5205674908E+00  6.5077331884E+00
             xred      7.5146000000E-01  7.5146000000E-01  2.4232200000E-01
                       2.4854000000E-01  2.4854000000E-01  7.5767800000E-01
                       5.0000000000E-01  5.0000000000E-01 -5.5511151231E-17
                       0.0000000000E+00  0.0000000000E+00  5.0000000000E-01
                       7.7106100000E-01  3.0590200000E-01  1.8826400000E-01
                       2.2893900000E-01  6.9409800000E-01  8.1173600000E-01
                       3.0590200000E-01  7.7106100000E-01  1.8826400000E-01
                       7.2821900000E-01  7.2821900000E-01  7.0217500000E-01
                       6.9409800000E-01  2.2893900000E-01  8.1173600000E-01
                       2.7178100000E-01  2.7178100000E-01  2.9782500000E-01
            znucl       56.00000   73.00000   83.00000    8.00000

 chkinp: Checking input parameters for consistency.

== DATASET  1 ==================================================================
-   mpi_nproc: 1, omp_nthreads: -1 (-1 if OMP is not activated)

--- !DatasetInfo
iteration_state: {dtset: 1, }
dimensions: {natom: 10, nkpt: 2, mband: 51, nsppol: 1, nspinor: 1, nspden: 1, mpw: 14658, }
cutoff_energies: {ecut:  44.0, pawecutdg:  -1.0, }
electrons: {nelect:   8.40000000E+01, charge:   0.00000000E+00, occopt:   1.00000000E+00, tsmear:   1.00000000E-02, }
meta: {optdriver: 1, rfelfd: 2, }
...

 Real(R)+Recip(G) space primitive vectors, cartesian coordinates (Bohr,Bohr^-1):
 R(1)=  9.8350588  0.0000000  5.6664518  G(1)=  0.1016771 -0.0358897  0.0000000
 R(2)=  3.2736058  9.2742594  5.6664518  G(2)=  0.0000000  0.1078253  0.0000000
 R(3)=  0.0000000  0.0000000 11.5089913  G(3)= -0.0500607 -0.0354175  0.0868886
 Unit cell volume ucvol=  1.0497683E+03 bohr^3
 Angles (23,13,12)=  6.00516807E+01  6.00516807E+01  6.00583937E+01 degrees

 getcut: wavevector=  0.0000  0.0000  0.0000  ngfft=  72  72  72
         ecut(hartree)=     44.000   => boxcut(ratio)=   2.09522

--- Pseudopotential description ------------------------------------------------
- pspini: atom type   1  psp file is /scratch/users/j/a/jabreu/pseudos/PBEsol/Ba.psp8
- pspatm: opening atomic psp file    /scratch/users/j/a/jabreu/pseudos/PBEsol/Ba.psp8
- Ba    ONCVPSP-3.3.0  r_core=   2.15444   1.91218   2.15444
- 56.00000  10.00000    180112                znucl, zion, pspdat
    8 -116133    2    4       600   0.00000   pspcod,pspxc,lmax,lloc,mmax,r2well
    5.99000000000000    5.00000000000000    0.00000000000000   rchrg,fchrg,qchrg
     nproj     2     2     2
     extension_switch     1
  pspatm : epsatm=   26.37418029
         --- l  ekb(1:nproj) -->
             0    6.652372    0.677024
             1    5.027722    0.408462
             2    2.543237    0.416854
 pspatm: atomic psp has been read  and splines computed

- pspini: atom type   2  psp file is /scratch/users/j/a/jabreu/pseudos/PBEsol/Ta.psp8
- pspatm: opening atomic psp file    /scratch/users/j/a/jabreu/pseudos/PBEsol/Ta.psp8
- Ta    ONCVPSP-3.3.0  r_core=   1.71294   1.71294   1.71294   2.25368
- 73.00000  13.00000    180112                znucl, zion, pspdat
    8 -116133    3    4       600   0.00000   pspcod,pspxc,lmax,lloc,mmax,r2well
    5.99000000000000    5.00000000000000    0.00000000000000   rchrg,fchrg,qchrg
     nproj     2     2     2     2
     extension_switch     1
  pspatm : epsatm=   21.70781236
         --- l  ekb(1:nproj) -->
             0   11.480337    1.447149
             1    5.630373    0.817168
             2    1.844704    0.232364
             3    4.923559    0.251242
 pspatm: atomic psp has been read  and splines computed

[...]

- pspini: atom type   4  psp file is /scratch/users/j/a/jabreu/pseudos/PBEsol/O.psp8
- pspatm: opening atomic psp file    /scratch/users/j/a/jabreu/pseudos/PBEsol/O.psp8
- O     ONCVPSP-3.3.0  r_core=   1.35509   1.45563   1.26150
-  8.00000   6.00000    180112                znucl, zion, pspdat
    8 -116133    2    4       600   0.00000   pspcod,pspxc,lmax,lloc,mmax,r2well
    5.99000000000000    4.00000000000000    0.00000000000000   rchrg,fchrg,qchrg
     nproj     2     2     1
     extension_switch     1
  pspatm : epsatm=    6.22910522
         --- l  ekb(1:nproj) -->
             0    6.050032    0.820363
             1   -4.739617   -1.153841
             2   -1.335834
 pspatm: atomic psp has been read  and splines computed

   1.29974532E+04                                ecore*ucvol(ha*bohr**3)

 ==>  initialize data related to q vector <==

 The list of irreducible perturbations for this q vector is:
    1)    idir= 1    ipert=  11
    2)    idir= 2    ipert=  11
    3)    idir= 3    ipert=  11

 Perturbation wavevector (in red.coord.)   0.000000  0.000000  0.000000
 Perturbation : derivative vs k along direction   1

 dfpt_looppert : COMMENT -
  In a d/dk calculation, iscf is set to -3 automatically.
 The set of symmetries contains only one element for this perturbation.
 symkpt : not enough symmetry to change the number of k points.

 Initialisation of the first-order wave-functions :
  ireadwf=   0

--- !BeginCycle
iteration_state: {dtset: 1, }
solver: {iscf: 7, nstep: 2000, nline: 4, wfoptalg: 0, }
tolerances: {tolwfr: 1.00E-20, }
...

     iter   2DEtotal(Ha)        deltaE(Ha) residm    vres2
-ETOT  1  -50.717771972453     -5.072E+01 1.259E-01 0.000E+00
 ETOT  2  -50.815709414836     -9.794E-02 3.764E-02 0.000E+00
 ETOT  3  -50.816850056297     -1.141E-03 2.742E-03 0.000E+00
 ETOT  4  -50.816874164325     -2.411E-05 1.098E-03 0.000E+00
 ETOT  5  -50.816874843702     -6.794E-07 1.304E-04 0.000E+00
 ETOT  6  -50.816874865843     -2.214E-08 6.107E-05 0.000E+00
 ETOT  7  -50.816874866626     -7.834E-10 7.823E-06 0.000E+00
[...]
 ETOT 23  -50.816874866657      0.000E+00 1.390E-14 0.000E+00
 ETOT 24  -50.816874866657      0.000E+00 9.540E-15 0.000E+00
 ETOT 25  -50.816874866657      7.105E-15 1.205E-15 0.000E+00
 ETOT 26  -50.816874866657      0.000E+00 8.334E-16 0.000E+00
 ETOT 27  -50.816874866657      7.105E-15 1.047E-16 0.000E+00
 ETOT 28  -50.816874866657     -1.421E-14 7.298E-17 0.000E+00
 ETOT 29  -50.816874866657     -1.421E-14 9.132E-18 0.000E+00
 ETOT 30  -50.816874866657      0.000E+00 6.403E-18 0.000E+00
 ETOT 31  -50.816874866657      0.000E+00 7.981E-19 0.000E+00
 ETOT 32  -50.816874866657      0.000E+00 5.629E-19 0.000E+00
 ETOT 33  -50.816874866657      0.000E+00 6.992E-20 0.000E+00
 ETOT 34  -50.816874866657      0.000E+00 4.959E-20 0.000E+00
 ETOT 35  -50.816874866657      0.000E+00 9.911E-21 0.000E+00

 At SCF step   35   max residual=  9.91E-21 < tolwfr=  1.00E-20 =>converged.

 ----iterations are completed or convergence reached----

 dfpt_looppert: DFPT cycle converged with prtwf=-1. Will skip output of the 1st-order WFK file.
 dfpt_looppert : ek2=    7.7109971348E+01
          f-sum rule ratio=    1.0384391246E+00
 prteigrs : about to open file /scratch/users/j/a/jabreu/flow_simple_10atoms/flow/w431/t1/tmpdata/tmp_1WF1_EIG
 Expectation of eigenvalue derivatives (hartree) for nkpt=   2  k points:
  (in case of degenerate eigenvalues, averaged derivative)
 kpt#   1, nband= 51, wtk=  0.50000, kpt=  0.5000  0.0000  0.0000 (reduced coord)
  -0.00000    0.00000   -0.00000   -0.00000    0.00000   -0.00000    0.00000    0.00000
   0.00000    0.00000   -0.00000   -0.00000   -0.00000    0.00000    0.00000    0.00000
   0.00000    0.00000    0.00000   -0.00000    0.00000    0.00000    0.00000    0.00000
   0.00000   -0.00000    0.00000    0.00000   -0.00000    0.00000    0.00000   -0.00000
  -0.00000    0.00000   -0.00000    0.00000    0.00000   -0.00000   -0.00000    0.00000
   0.00000   -0.00000    0.00000   -0.00000   -0.00000    0.00000    0.00000   -0.00000
   0.00000    0.00000    0.00003
 prteigrs : prtvol=0 or 1, do not print more k-points.

 Eight components of 2nd-order total energy (hartree) are
 1,2,3: 0th-order hamiltonian combined with 1st-order wavefunctions
     kin0=   7.04540696E+01 eigvalue=   9.81746216E-01  local=  -3.57932919E+01
 4,5,6: 1st-order hamiltonian combined with 1st and 0th-order wfs
     kin1=  -8.00740111E+01  Hartree=   0.00000000E+00     xc=   0.00000000E+00
 7,8,9: eventually, occupation + non-local contributions
    edocc=   1.10653864E+01     enl0=   4.10896448E+00   enl1=  -2.15597386E+01
 1-9 gives the relaxation energy (to be shifted if some occ is /=2.0)
   erelax=  -5.08168749E+01
  No Ewald or frozen-wf contrib.: the relaxation energy is the total one
 2DEtotal=   -0.5081687487E+02 Ha. Also 2DEtotal=   -0.138279748856E+04 eV
    (  non-var. 2DEtotal :   -5.0816874866E+01 Ha)

 Perturbation wavevector (in red.coord.)   0.000000  0.000000  0.000000
 Perturbation : derivative vs k along direction   2
 The set of symmetries contains only one element for this perturbation.
 symkpt : not enough symmetry to change the number of k points.

[...]

 Perturbation wavevector (in red.coord.)   0.000000  0.000000  0.000000
 Perturbation : derivative vs k along direction   3
 The set of symmetries contains only one element for this perturbation.
 symkpt : not enough symmetry to change the number of k points.

 Initialisation of the first-order wave-functions :
  ireadwf=   0

--- !BeginCycle
iteration_state: {dtset: 1, }
solver: {iscf: 7, nstep: 2000, nline: 4, wfoptalg: 0, }
tolerances: {tolwfr: 1.00E-20, }
...

     iter   2DEtotal(Ha)        deltaE(Ha) residm    vres2
-ETOT  1  -52.515119852436     -5.252E+01 7.434E-02 0.000E+00
 ETOT  2  -52.621250255516     -1.061E-01 1.457E-02 0.000E+00
 ETOT  3  -52.622707966870     -1.458E-03 4.100E-04 0.000E+00
 ETOT  4  -52.622741923143     -3.396E-05 1.446E-04 0.000E+00
 ETOT  5  -52.622742908925     -9.858E-07 7.551E-06 0.000E+00
 ETOT  6  -52.622742941829     -3.290E-08 3.120E-06 0.000E+00
 ETOT  7  -52.622742943048     -1.219E-09 1.706E-07 0.000E+00
 ETOT  8  -52.622742943095     -4.732E-11 7.835E-08 0.000E+00
 ETOT  9  -52.622742943097     -1.933E-12 4.309E-09 0.000E+00
 ETOT 10  -52.622742943097     -7.105E-14 2.146E-09 0.000E+00
 ETOT 11  -52.622742943097     -4.263E-14 1.173E-10 0.000E+00
 ETOT 12  -52.622742943097      7.105E-15 6.192E-11 0.000E+00
 ETOT 13  -52.622742943097      2.132E-14 3.368E-12 0.000E+00
 ETOT 14  -52.622742943097      0.000E+00 1.841E-12 0.000E+00
 ETOT 15  -52.622742943097     -2.132E-14 9.981E-14 0.000E+00
 ETOT 16  -52.622742943097      2.132E-14 5.565E-14 0.000E+00
 ETOT 17  -52.622742943097      0.000E+00 3.013E-15 0.000E+00
 ETOT 18  -52.622742943097      0.000E+00 1.699E-15 0.000E+00
 ETOT 19  -52.622742943097     -2.842E-14 9.188E-17 0.000E+00
 ETOT 20  -52.622742943097      1.421E-14 5.219E-17 0.000E+00
 ETOT 21  -52.622742943097      0.000E+00 2.820E-18 0.000E+00
 ETOT 22  -52.622742943097      0.000E+00 1.610E-18 0.000E+00
 ETOT 23  -52.622742943097      0.000E+00 8.692E-20 0.000E+00
 ETOT 24  -52.622742943097      1.421E-14 4.980E-20 0.000E+00
 ETOT 25  -52.622742943097     -1.421E-14 9.998E-21 0.000E+00

 At SCF step   25   max residual=  1.00E-20 < tolwfr=  1.00E-20 =>converged.

 ----iterations are completed or convergence reached----

 dfpt_looppert: DFPT cycle converged with prtwf=-1. Will skip output of the 1st-order WFK file.
 dfpt_looppert : ek2=    7.5012810860E+01
          f-sum rule ratio=    1.1304783223E+00
 prteigrs : about to open file /scratch/users/j/a/jabreu/flow_simple_10atoms/flow/w431/t1/tmpdata/tmp_1WF1_EIG
 Expectation of eigenvalue derivatives (hartree) for nkpt=   2  k points:
  (in case of degenerate eigenvalues, averaged derivative)
 kpt#   1, nband= 51, wtk=  0.50000, kpt=  0.5000  0.0000  0.0000 (reduced coord)
   0.00000    0.00000   -0.00000    0.00000    0.00000    0.00000    0.00000   -0.00000
   0.00000    0.00000   -0.00000    0.00000   -0.00000   -0.00000   -0.00000    0.00000
  -0.00000   -0.00000   -0.00000   -0.00000    0.00000    0.00000   -0.00000   -0.00000
   0.00000    0.00000   -0.00000   -0.00000   -0.00000   -0.00000   -0.00000    0.00000
   0.00000   -0.00000    0.00000    0.00000    0.00000   -0.00000   -0.00000    0.00000
  -0.00000   -0.00000    0.00000   -0.00000   -0.00000    0.00000   -0.00000    0.00000
   0.00000   -0.00000   -0.00012
 prteigrs : prtvol=0 or 1, do not print more k-points.

 Eight components of 2nd-order total energy (hartree) are
 1,2,3: 0th-order hamiltonian combined with 1st-order wavefunctions
     kin0=   7.24105130E+01 eigvalue=   1.21947862E-01  local=  -3.74561446E+01
 4,5,6: 1st-order hamiltonian combined with 1st and 0th-order wfs
     kin1=  -8.48003566E+01  Hartree=   0.00000000E+00     xc=   0.00000000E+00
 7,8,9: eventually, occupation + non-local contributions
    edocc=   1.32684775E+01     enl0=   4.27794909E+00   enl1=  -2.04451293E+01
 1-9 gives the relaxation energy (to be shifted if some occ is /=2.0)
   erelax=  -5.26227429E+01
  No Ewald or frozen-wf contrib.: the relaxation energy is the total one
 2DEtotal=   -0.5262274294E+02 Ha. Also 2DEtotal=   -0.143193765799E+04 eV
    (  non-var. 2DEtotal :   -5.2622742943E+01 Ha)

 CALCULATION OF EFFECTIVE MASSES
 NOTE : Additional infos (eff. mass eigenvalues, eigenvectors and, if degenerate, average mass) are available in stdout.

 K-point ( 0.500, 0.000, 0.000) | band =    42
 Effective mass tensor:
             -0.6817692178              0.0822580124              0.0372518178
              0.0822580124             -0.3529044145             -0.0461979228
              0.0372518178             -0.0461979228             -0.3694200159
 Effective mass tensor eigenvalues:
             -0.7077589375             -0.3871215925             -0.3092131183
 Angular average effective mass 1/(<1/m>)=  -0.4149323869
 Angular average effective mass for Frohlich model (<m**0.5>)**2=  -0.4287286538
 Effective masses along directions: (cart. coord. / red. coord. -> eff. mass)
    1:   1.000000  0.000000  0.000000 /   0.948821  0.315816  0.000000 ->  -0.6606656087
    2:   0.000000  1.000000  0.000000 /   0.000000  1.000000  0.000000 ->  -0.3382457561
    3:   0.000000  0.000000  1.000000 /   0.404052  0.404052  0.820661 ->  -0.3623138140
    4:   0.577350  0.577350  0.577350 /   0.584022  0.686227  0.433603 ->  -0.4023459653
    5:   0.000000  0.707107  0.707107 /   0.287748  0.758705  0.584438 ->  -0.3964104878
    6:   0.707107  0.000000  0.707107 /   0.728583  0.420190  0.540932 ->  -0.4450083313
    7:   0.707107  0.707107  0.000000 /   0.616891  0.787048  0.000000 ->  -0.3885917117

 K-point ( 0.500, 0.500, 0.500) | band =    43
 Effective mass tensor:
              0.6812254380              0.2157898464              0.2700654392
              0.2157898464              0.5288905407              0.1910689900
              0.2700654392              0.1910689900              0.5840726469
 Effective mass tensor eigenvalues:
              0.3553663434              0.3762201909              1.0626020914
 Angular average effective mass 1/(<1/m>)=   0.4677923825
 Angular average effective mass for Frohlich model (<m**0.5>)**2=   0.4966636084
 Effective masses along directions: (cart. coord. / red. coord. -> eff. mass)
    1:   1.000000  0.000000  0.000000 /   0.948821  0.315816  0.000000 ->   0.5215271851
    2:   0.000000  1.000000  0.000000 /   0.000000  1.000000  0.000000 ->   0.4371925784
    3:   0.000000  0.000000  1.000000 /   0.404052  0.404052  0.820661 ->   0.4528299881
    4:   0.577350  0.577350  0.577350 /   0.584022  0.686227  0.433603 ->   1.0264023661
    5:   0.000000  0.707107  0.707107 /   0.287748  0.758705  0.584438 ->   0.5741059550
    6:   0.707107  0.000000  0.707107 /   0.728583  0.420190  0.540932 ->   0.7420064031
    7:   0.707107  0.707107  0.000000 /   0.616891  0.787048  0.000000 ->   0.6335409708

 END OF EFFECTIVE MASSES SECTION

 ---- first-order wavefunction calculations are completed ----

 Total localisation tensor (bohr^2) in cartesian coordinates
  WARNING : still subject to testing - especially symmetries.
      direction              matrix element
   alpha     beta       real part   imaginary part
     1        1       1.3083305663    0.0000000000
     1        2       0.4343429734    0.0000000000
     1        3       0.9308390342    0.0000000000
     2        1       0.4343429734    0.0000000000
     2        2       1.2305114366    0.0000000000
     2        3       0.7518264686    0.0000000000
     3        1       0.9308390342    0.0000000000
     3        2       0.7518264686    0.0000000000
     3        3       2.6979207628    0.0000000000

 respfn : d/dk was computed, but no 2DTE, so no DDB output.

== END DATASET(S) ==============================================================

 -outvars: echo values of variables after computation  --------
            acell      1.0000000000E+00  1.0000000000E+00  1.0000000000E+00 Bohr
              amu      1.37327000E+02  1.80947900E+02  2.08980370E+02
                       1.59994000E+01
             ecut      4.40000000E+01 Hartree
           etotal     -5.2622742943E+01
            fcart      0.0000000000E+00  0.0000000000E+00  0.0000000000E+00
                       0.0000000000E+00  0.0000000000E+00  0.0000000000E+00
                       0.0000000000E+00  0.0000000000E+00  0.0000000000E+00
                       0.0000000000E+00  0.0000000000E+00  0.0000000000E+00
                       0.0000000000E+00  0.0000000000E+00  0.0000000000E+00
                       0.0000000000E+00  0.0000000000E+00  0.0000000000E+00
                       0.0000000000E+00  0.0000000000E+00  0.0000000000E+00
                       0.0000000000E+00  0.0000000000E+00  0.0000000000E+00
                       0.0000000000E+00  0.0000000000E+00  0.0000000000E+00
                       0.0000000000E+00  0.0000000000E+00  0.0000000000E+00
-          fftalg         512
           irdden           1
           irdwfk           1
           istwfk        1    1
              ixc     -116133
              kpt      5.00000000E-01  0.00000000E+00  0.00000000E+00
                       5.00000000E-01  5.00000000E-01  5.00000000E-01
           kptopt           0
P           mkmem           2
P          mkqmem           2
P          mk1mem           2
            natom          10
            nband          51
           nbdbuf           4
            ngfft          72      72      72
             nkpt           2
            nstep        2000
             nsym           4
           ntypat           4
              occ      2.000000  2.000000  2.000000  2.000000  2.000000  2.000000
                       2.000000  2.000000  2.000000  2.000000  2.000000  2.000000
                       2.000000  2.000000  2.000000  2.000000  2.000000  2.000000
                       2.000000  2.000000  2.000000  2.000000  2.000000  2.000000
                       2.000000  2.000000  2.000000  2.000000  2.000000  2.000000
                       2.000000  2.000000  2.000000  2.000000  2.000000  2.000000
                       2.000000  2.000000  2.000000  2.000000  2.000000  2.000000
                       0.000000  0.000000  0.000000  0.000000  0.000000  0.000000
                       0.000000  0.000000  0.000000
        optdriver           1
            prtwf          -1
            rfdir           1       1       1
           rfelfd           2
            rprim      9.8350588332E+00  0.0000000000E+00  5.6664517513E+00
                       3.2736058183E+00  9.2742593882E+00  5.6664517513E+00
                       0.0000000000E+00  0.0000000000E+00  1.1508991326E+01
          spgroup          12
           strten      0.0000000000E+00  0.0000000000E+00  0.0000000000E+00
                       0.0000000000E+00  0.0000000000E+00  0.0000000000E+00
           symrel      1  0  0   0  1  0   0  0  1      -1  0  0   0 -1  0   0  0 -1
                       0 -1  0  -1  0  0   0  0 -1       0  1  0   1  0  0   0  0  1
           tolwfr      1.00000000E-20
            typat      1  1  2  3  4  4  4  4  4  4
           useylm           1
              wtk        0.50000    0.50000
           xangst      5.2127326641E+00  3.6879603021E+00  5.9824041512E+00
                       1.7240739046E+00  1.2197663927E+00  6.1050059929E+00
                       3.4684032843E+00  2.4538633474E+00  2.9985571204E+00
                       0.0000000000E+00  0.0000000000E+00  3.0451479517E+00
                       4.5428978922E+00  1.5012834114E+00  4.3759185400E+00
                       2.3939086764E+00  3.4064432834E+00  7.7114916041E+00
                       2.9277861203E+00  3.7841566530E+00  4.3759185400E+00
                       5.0515143426E+00  3.5738998260E+00  8.6436660612E+00
                       4.0090204483E+00  1.1235700418E+00  7.7114916041E+00
                       1.8852922260E+00  1.3338268688E+00  3.4437440829E+00
            xcart      9.8506371390E+00  6.9692349599E+00  1.1305105462E+01
                       3.2580275125E+00  2.3050244283E+00  1.1536789366E+01
                       6.5543323257E+00  4.6371296941E+00  5.6664517513E+00
                       0.0000000000E+00  0.0000000000E+00  5.7544956628E+00
                       8.5848328660E+00  2.8370144954E+00  8.2692876204E+00
                       4.5238317855E+00  6.4372448928E+00  1.4572607208E+01
                       5.5327139431E+00  7.1510197181E+00  8.2692876204E+00
                       9.5459786639E+00  6.7536918974E+00  1.6334161640E+01
                       7.5759507084E+00  2.1232396701E+00  1.4572607208E+01
                       3.5626859876E+00  2.5205674908E+00  6.5077331884E+00
             xred      7.5146000000E-01  7.5146000000E-01  2.4232200000E-01
                       2.4854000000E-01  2.4854000000E-01  7.5767800000E-01
                       5.0000000000E-01  5.0000000000E-01 -5.5511151231E-17
                       0.0000000000E+00  0.0000000000E+00  5.0000000000E-01
                       7.7106100000E-01  3.0590200000E-01  1.8826400000E-01
                       2.2893900000E-01  6.9409800000E-01  8.1173600000E-01
                       3.0590200000E-01  7.7106100000E-01  1.8826400000E-01
                       7.2821900000E-01  7.2821900000E-01  7.0217500000E-01
                       6.9409800000E-01  2.2893900000E-01  8.1173600000E-01
                       2.7178100000E-01  2.7178100000E-01  2.9782500000E-01
            znucl       56.00000   73.00000   83.00000    8.00000

- Timing analysis has been suppressed with timopt=0

 Suggested references for the acknowledgment of ABINIT usage.

 Calculation completed.
.Delivered   2 WARNINGs and   5 COMMENTs to log file.