.Version 9.5.2 of ABINIT

 ABINIT is a project of the Universite Catholique de Louvain,
 Corning Inc. and other collaborators, see ~abinit/doc/developers/contributors.txt .
 acknowledgments of the ABINIT effort.

.Starting date : Mon 24 May 2021.
- ( at 10h48 )

- input  file    -> /scratch/users/j/a/jabreu/flow_simple_10atoms/flow/w258/t1/run.abi
- output file    -> /scratch/users/j/a/jabreu/flow_simple_10atoms/flow/w258/t1/run.abo
- root for input  files -> /scratch/users/j/a/jabreu/flow_simple_10atoms/flow/w258/t1/indata/in
- root for output files -> /scratch/users/j/a/jabreu/flow_simple_10atoms/flow/w258/t1/outdata/out

 Symmetries : space group R-3 c (#167); Bravais hR (rhombohedral)
     intxc =       0      iscf =       7    lmnmax =      13     lnmax =       5
     mgfft =      64  mpssoang =       3    mqgrid =    3001     natom =      10
  nloc_mem =       1    nspden =       1   nspinor =       1    nsppol =       1
      nsym =      12    n1xccc =    2501    ntypat =       3    occopt =       1
   xclevel =       2
-    mband =          41        mffmem =           1         mkmem =           2
-   mkqmem =           2        mk1mem =           2           mpw =        8749
      nfft =      262144          nkpt =           2
  Rough estimation (10% accuracy) of disk space for files :

------------- Echo of variables that govern the present computation ------------
-
- outvars: echo of selected default values
-   iomode0 =  0 , fftalg0 =512 , wfoptalg0 =  0
-
- outvars: echo of global parameters not present in the input file
-  max_nthreads =    0
-
 -outvars: echo values of preprocessed input variables --------
            acell      1.0000000000E+00  1.0000000000E+00  1.0000000000E+00 Bohr
              amu      2.43050000E+01  1.20110000E+01  1.59994000E+01
             ecut      4.40000000E+01 Hartree
-          fftalg         512
           irdden           1
           irdwfk           1
              ixc     -116133
              kpt      3.09936955E-01  0.00000000E+00 -3.09936955E-01
                       3.42105263E-01  3.42105263E-01  3.42105263E-01
           kptopt           0
P           mkmem           2
P          mkqmem           2
P          mk1mem           2
            natom          10
            nband          41
           nbdbuf           4
            ngfft          64      64      64
             nkpt           2
            nstep        2000
             nsym          12
           ntypat           3
              occ      2.000000  2.000000  2.000000  2.000000  2.000000  2.000000
                       2.000000  2.000000  2.000000  2.000000  2.000000  2.000000
                       2.000000  2.000000  2.000000  2.000000  2.000000  2.000000
                       2.000000  2.000000  2.000000  2.000000  2.000000  2.000000
                       2.000000  2.000000  2.000000  2.000000  2.000000  2.000000
                       2.000000  2.000000  0.000000  0.000000  0.000000  0.000000
                       0.000000  0.000000  0.000000  0.000000  0.000000
        optdriver           1
            prtwf          -1
            rfdir           1       1       1
           rfelfd           2
            rprim      8.0057521699E+00  0.0000000000E+00  7.0615681038E+00
                       3.1873605625E+00  7.3438954548E+00  7.0615681038E+00
                       0.0000000000E+00  0.0000000000E+00  1.0675102430E+01
          spgroup         167
           symrel      1  0  0   0  1  0   0  0  1      -1  0  0   0 -1  0   0  0 -1
                       0  1  0   1  0  0   0  0  1       0 -1  0  -1  0  0   0  0 -1
                       0  0  1   1  0  0   0  1  0       0  0 -1  -1  0  0   0 -1  0
                       1  0  0   0  0  1   0  1  0      -1  0  0   0  0 -1   0 -1  0
                       0  1  0   0  0  1   1  0  0       0 -1  0   0  0 -1  -1  0  0
                       0  0  1   0  1  0   1  0  0       0  0 -1   0 -1  0  -1  0  0
            tnons      0.0000000  0.0000000  0.0000000     0.0000000 -0.0000000  0.0000000
                       0.5000000  0.5000000  0.5000000     0.5000000  0.5000000  0.5000000
                       0.0000000 -0.0000000  0.0000000     0.0000000  0.0000000  0.0000000
                       0.5000000  0.5000000  0.5000000     0.5000000  0.5000000  0.5000000
                       0.0000000 -0.0000000  0.0000000     0.0000000  0.0000000  0.0000000
                       0.5000000  0.5000000  0.5000000     0.5000000  0.5000000  0.5000000
           tolwfr      1.00000000E-20
            typat      1  1  2  2  3  3  3  3  3  3
           useylm           1
              wtk        0.50000    0.50000
           xangst      2.9615700756E+00  1.9431110485E+00  6.5613313501E+00
                       0.0000000000E+00  0.0000000000E+00  0.0000000000E+00
                       4.4423551134E+00  2.9146665727E+00  9.8419970251E+00
                       1.4807850378E+00  9.7155552424E-01  3.2806656750E+00
                       3.9748584154E+00  1.8375223941E+00  4.7229805960E+00
                       1.3801135852E+00  2.9146665727E+00  5.5751716515E+00
                       3.8741869629E+00  3.7806334426E+00  7.0174865725E+00
                       1.9482817357E+00  2.0486997028E+00  8.3996821042E+00
                       4.5430265659E+00  9.7155552424E-01  7.5474910487E+00
                       2.0489531883E+00  1.0558865437E-01  6.1051761277E+00
            xcart      5.5965563662E+00  3.6719477274E+00  1.2399119319E+01
                       0.0000000000E+00  0.0000000000E+00  0.0000000000E+00
                       8.3948345493E+00  5.5079215911E+00  1.8598678978E+01
                       2.7982781831E+00  1.8359738637E+00  6.1995596594E+00
                       7.5113938222E+00  3.4724140879E+00  8.9251398574E+00
                       2.6080367083E+00  5.5079215911E+00  1.0535547565E+01
                       7.3211523474E+00  7.1443618153E+00  1.3261127763E+01
                       3.6817189102E+00  3.8714813669E+00  1.5873098780E+01
                       8.5850760241E+00  1.8359738637E+00  1.4262691072E+01
                       3.8719603850E+00  1.9953363951E-01  1.1537110874E+01
             xred      5.0000000000E-01  5.0000000000E-01  5.0000000000E-01
                       0.0000000000E+00  0.0000000000E+00  0.0000000000E+00
                       7.5000000000E-01  7.5000000000E-01  7.5000000000E-01
                       2.5000000000E-01  2.5000000000E-01  2.5000000000E-01
                       7.5000000000E-01  4.7283000000E-01  2.7170000000E-02
                       2.7170000000E-02  7.5000000000E-01  4.7283000000E-01
                       5.2717000000E-01  9.7283000000E-01  2.5000000000E-01
                       2.5000000000E-01  5.2717000000E-01  9.7283000000E-01
                       9.7283000000E-01  2.5000000000E-01  5.2717000000E-01
                       4.7283000000E-01  2.7170000000E-02  7.5000000000E-01
            znucl       12.00000    6.00000    8.00000

 chkinp: Checking input parameters for consistency.

== DATASET  1 ==================================================================
-   mpi_nproc: 1, omp_nthreads: -1 (-1 if OMP is not activated)

--- !DatasetInfo
iteration_state: {dtset: 1, }
dimensions: {natom: 10, nkpt: 2, mband: 41, nsppol: 1, nspinor: 1, nspden: 1, mpw: 8749, }
cutoff_energies: {ecut:  44.0, pawecutdg:  -1.0, }
electrons: {nelect:   6.40000000E+01, charge:   0.00000000E+00, occopt:   1.00000000E+00, tsmear:   1.00000000E-02, }
meta: {optdriver: 1, rfelfd: 2, }
...

 Real(R)+Recip(G) space primitive vectors, cartesian coordinates (Bohr,Bohr^-1):
 R(1)=  8.0057522  0.0000000  7.0615681  G(1)=  0.1249102 -0.0542129  0.0000000
 R(2)=  3.1873606  7.3438955  7.0615681  G(2)=  0.0000000  0.1361675  0.0000000
 R(3)=  0.0000000  0.0000000 10.6751024  G(3)= -0.0826279 -0.0542129  0.0936759
 Unit cell volume ucvol=  6.2762564E+02 bohr^3
 Angles (23,13,12)=  4.85857151E+01  4.85857151E+01  4.85857151E+01 degrees

 getcut: wavevector=  0.0000  0.0000  0.0000  ngfft=  64  64  64
         ecut(hartree)=     44.000   => boxcut(ratio)=   2.00785

--- Pseudopotential description ------------------------------------------------
- pspini: atom type   1  psp file is /scratch/users/j/a/jabreu/pseudos/PBEsol/Mg.psp8
- pspatm: opening atomic psp file    /scratch/users/j/a/jabreu/pseudos/PBEsol/Mg.psp8
- Mg    ONCVPSP-3.3.0  r_core=   1.16056   1.56380
- 12.00000  10.00000    180112                znucl, zion, pspdat
    8 -116133    1    4       400   0.00000   pspcod,pspxc,lmax,lloc,mmax,r2well
    3.99000000000000    0.00000000000000    0.00000000000000   rchrg,fchrg,qchrg
     nproj     2     2
     extension_switch     1
  pspatm : epsatm=    9.18164846
         --- l  ekb(1:nproj) -->
             0    2.230603   -0.826587
             1   -6.503151   -2.501445
 pspatm: atomic psp has been read  and splines computed

- pspini: atom type   2  psp file is /scratch/users/j/a/jabreu/pseudos/PBEsol/C.psp8
- pspatm: opening atomic psp file    /scratch/users/j/a/jabreu/pseudos/PBEsol/C.psp8
- C     ONCVPSP-3.3.0  r_core=   1.20440   1.26326
-  6.00000   4.00000    180112                znucl, zion, pspdat
    8 -116133    1    4       600   0.00000   pspcod,pspxc,lmax,lloc,mmax,r2well
    5.99000000000000    4.00000000000000    0.00000000000000   rchrg,fchrg,qchrg
     nproj     2     2
     extension_switch     1
  pspatm : epsatm=    4.34909529
         --- l  ekb(1:nproj) -->
             0    6.468939    0.390031
             1   -4.179695   -0.878453
 pspatm: atomic psp has been read  and splines computed

- pspini: atom type   3  psp file is /scratch/users/j/a/jabreu/pseudos/PBEsol/O.psp8
- pspatm: opening atomic psp file    /scratch/users/j/a/jabreu/pseudos/PBEsol/O.psp8
- O     ONCVPSP-3.3.0  r_core=   1.35509   1.45563   1.26150
-  8.00000   6.00000    180112                znucl, zion, pspdat
    8 -116133    2    4       600   0.00000   pspcod,pspxc,lmax,lloc,mmax,r2well
    5.99000000000000    4.00000000000000    0.00000000000000   rchrg,fchrg,qchrg
     nproj     2     2     1
     extension_switch     1
  pspatm : epsatm=    6.22910522
         --- l  ekb(1:nproj) -->
             0    6.050032    0.820363
             1   -4.739617   -1.153841
             2   -1.335834
 pspatm: atomic psp has been read  and splines computed

   4.12391160E+03                                ecore*ucvol(ha*bohr**3)

 ==>  initialize data related to q vector <==

 The list of irreducible perturbations for this q vector is:
    1)    idir= 1    ipert=  11
    2)    idir= 2    ipert=  11
    3)    idir= 3    ipert=  11

 Perturbation wavevector (in red.coord.)   0.000000  0.000000  0.000000
 Perturbation : derivative vs k along direction   1

 dfpt_looppert : COMMENT -
  In a d/dk calculation, iscf is set to -3 automatically.
 The set of symmetries contains only one element for this perturbation.
 symkpt : not enough symmetry to change the number of k points.

 Initialisation of the first-order wave-functions :
  ireadwf=   0

--- !BeginCycle
iteration_state: {dtset: 1, }
solver: {iscf: 7, nstep: 2000, nline: 4, wfoptalg: 0, }
tolerances: {tolwfr: 1.00E-20, }
...

[...]
   0.04107   -0.00514   -0.05947   -0.03820    0.10871   -0.05187    0.04283   -0.04487
   0.04829   -0.05169   -0.02321   -0.06543   -0.01965    0.03606    0.02152    0.00087
   0.03758   -0.01165    0.19293   -0.13602   -0.05662   -0.01258   -0.12454   -0.00474
  -0.01027
 prteigrs : prtvol=0 or 1, do not print more k-points.

 Eight components of 2nd-order total energy (hartree) are
 1,2,3: 0th-order hamiltonian combined with 1st-order wavefunctions
     kin0=   7.09917719E+01 eigvalue=   4.99382599E+00  local=  -2.85732278E+01
 4,5,6: 1st-order hamiltonian combined with 1st and 0th-order wfs
     kin1=  -9.55732315E+01  Hartree=   0.00000000E+00     xc=   0.00000000E+00
 7,8,9: eventually, occupation + non-local contributions
    edocc=   9.74222511E+00     enl0=  -5.60546240E+00   enl1=  -7.52503416E+00
 1-9 gives the relaxation energy (to be shifted if some occ is /=2.0)
   erelax=  -5.15491328E+01
  No Ewald or frozen-wf contrib.: the relaxation energy is the total one
 2DEtotal=   -0.5154913284E+02 Ha. Also 2DEtotal=   -0.140272324129E+04 eV
    (  non-var. 2DEtotal :   -5.1549132837E+01 Ha)

 Perturbation wavevector (in red.coord.)   0.000000  0.000000  0.000000
 Perturbation : derivative vs k along direction   2
 The set of symmetries contains only one element for this perturbation.
 symkpt : not enough symmetry to change the number of k points.

[...]

 Perturbation wavevector (in red.coord.)   0.000000  0.000000  0.000000
 Perturbation : derivative vs k along direction   3
 The set of symmetries contains only one element for this perturbation.
 symkpt : not enough symmetry to change the number of k points.

 Initialisation of the first-order wave-functions :
  ireadwf=   0

--- !BeginCycle
iteration_state: {dtset: 1, }
solver: {iscf: 7, nstep: 2000, nline: 4, wfoptalg: 0, }
tolerances: {tolwfr: 1.00E-20, }
...

     iter   2DEtotal(Ha)        deltaE(Ha) residm    vres2
-ETOT  1  -51.507690459407     -5.151E+01 1.388E-01 0.000E+00
 ETOT  2  -51.548978877469     -4.129E-02 5.852E-03 0.000E+00
 ETOT  3  -51.549132253366     -1.534E-04 1.293E-03 0.000E+00
 ETOT  4  -51.549133023172     -7.698E-07 1.355E-04 0.000E+00
 ETOT  5  -51.549133027770     -4.599E-09 3.789E-05 0.000E+00
 ETOT  6  -51.549133027801     -3.007E-11 5.215E-06 0.000E+00
 ETOT  7  -51.549133027801     -1.350E-13 1.736E-06 0.000E+00
 ETOT  8  -51.549133027801     -6.395E-14 2.619E-07 0.000E+00
 ETOT  9  -51.549133027801      4.974E-14 8.947E-08 0.000E+00
 ETOT 10  -51.549133027801      7.105E-15 1.368E-08 0.000E+00
 ETOT 11  -51.549133027801     -3.553E-14 4.736E-09 0.000E+00
 ETOT 12  -51.549133027801      2.842E-14 7.266E-10 0.000E+00
 ETOT 13  -51.549133027801     -1.421E-14 2.603E-10 0.000E+00
 ETOT 14  -51.549133027801     -1.421E-14 4.110E-11 0.000E+00
 ETOT 15  -51.549133027801      7.105E-15 1.643E-11 0.000E+00
 ETOT 16  -51.549133027801     -7.105E-15 3.013E-12 0.000E+00
 ETOT 17  -51.549133027801      0.000E+00 1.631E-12 0.000E+00
 ETOT 18  -51.549133027801      0.000E+00 4.044E-13 0.000E+00
 ETOT 19  -51.549133027801      0.000E+00 2.906E-13 0.000E+00
 ETOT 20  -51.549133027801      1.421E-14 8.509E-14 0.000E+00
 ETOT 21  -51.549133027801     -1.421E-14 6.550E-14 0.000E+00
 ETOT 22  -51.549133027801      2.132E-14 2.000E-14 0.000E+00
 ETOT 23  -51.549133027801      0.000E+00 1.536E-14 0.000E+00
 ETOT 24  -51.549133027801     -2.132E-14 4.784E-15 0.000E+00
 ETOT 25  -51.549133027801      7.105E-15 3.639E-15 0.000E+00
 ETOT 26  -51.549133027801      2.132E-14 1.154E-15 0.000E+00
 ETOT 27  -51.549133027801     -2.842E-14 8.710E-16 0.000E+00
 ETOT 28  -51.549133027801      2.842E-14 2.809E-16 0.000E+00
 ETOT 29  -51.549133027801     -2.842E-14 2.113E-16 0.000E+00
 ETOT 30  -51.549133027801      2.842E-14 6.897E-17 0.000E+00
 ETOT 31  -51.549133027801     -2.842E-14 5.200E-17 0.000E+00
 ETOT 32  -51.549133027801      2.842E-14 1.708E-17 0.000E+00
 ETOT 33  -51.549133027801      0.000E+00 1.295E-17 0.000E+00
 ETOT 34  -51.549133027801     -2.842E-14 4.256E-18 0.000E+00
 ETOT 35  -51.549133027801      2.842E-14 3.251E-18 0.000E+00
 ETOT 36  -51.549133027801      0.000E+00 1.066E-18 0.000E+00
 ETOT 37  -51.549133027801      0.000E+00 8.208E-19 0.000E+00
 ETOT 38  -51.549133027801      0.000E+00 2.679E-19 0.000E+00
 ETOT 39  -51.549133027801      0.000E+00 2.080E-19 0.000E+00
 ETOT 40  -51.549133027801      0.000E+00 6.752E-20 0.000E+00
 ETOT 41  -51.549133027801      7.105E-15 5.282E-20 0.000E+00
 ETOT 42  -51.549133027801      7.105E-15 1.706E-20 0.000E+00
 ETOT 43  -51.549133027801     -1.421E-14 1.344E-20 0.000E+00
 ETOT 44  -51.549133027801      0.000E+00 9.953E-21 0.000E+00

 At SCF step   44   max residual=  9.95E-21 < tolwfr=  1.00E-20 =>converged.

 ----iterations are completed or convergence reached----

 dfpt_looppert: DFPT cycle converged with prtwf=-1. Will skip output of the 1st-order WFK file.
 dfpt_looppert : ek2=    9.3695068885E+01
          f-sum rule ratio=    1.0200454881E+00
 prteigrs : about to open file /scratch/users/j/a/jabreu/flow_simple_10atoms/flow/w258/t1/tmpdata/tmp_1WF1_EIG
 Expectation of eigenvalue derivatives (hartree) for nkpt=   2  k points:
  (in case of degenerate eigenvalues, averaged derivative)
 kpt#   1, nband= 41, wtk=  0.50000, kpt=  0.3099  0.0000 -0.3099 (reduced coord)
  -0.00002    0.00002    0.00001    0.00023   -0.00026    0.00008   -0.00030    0.00026
  -0.02243    0.01715    0.00411    0.01645   -0.01916    0.01011   -0.03069   -0.01241
  -0.04107    0.00514    0.05947    0.03820   -0.10871    0.05187   -0.04283    0.04487
  -0.04829    0.05169    0.02321    0.06543    0.01965   -0.03606   -0.02152   -0.00087
  -0.03758    0.01165   -0.19293    0.13602    0.05662    0.01258    0.12454    0.00474
   0.01027
 prteigrs : prtvol=0 or 1, do not print more k-points.

 Eight components of 2nd-order total energy (hartree) are
 1,2,3: 0th-order hamiltonian combined with 1st-order wavefunctions
     kin0=   7.09917499E+01 eigvalue=   4.99382670E+00  local=  -2.85732084E+01
 4,5,6: 1st-order hamiltonian combined with 1st and 0th-order wfs
     kin1=  -9.55732323E+01  Hartree=   0.00000000E+00     xc=   0.00000000E+00
 7,8,9: eventually, occupation + non-local contributions
    edocc=   9.74221994E+00     enl0=  -5.60545516E+00   enl1=  -7.52503378E+00
 1-9 gives the relaxation energy (to be shifted if some occ is /=2.0)
   erelax=  -5.15491330E+01
  No Ewald or frozen-wf contrib.: the relaxation energy is the total one
 2DEtotal=   -0.5154913303E+02 Ha. Also 2DEtotal=   -0.140272324647E+04 eV
    (  non-var. 2DEtotal :   -5.1549133027E+01 Ha)

 CALCULATION OF EFFECTIVE MASSES
 NOTE : Additional infos (eff. mass eigenvalues, eigenvectors and, if degenerate, average mass) are available in stdout.

 K-point ( 0.310, 0.000,-0.310) | band =    32
 Effective mass tensor:
             -4.2638369429             -1.7931465579             -5.3673664171
             -1.7931465579             -3.7383370306             -3.9726999805
             -5.3673664171             -3.9726999805            -13.7325353475
 Effective mass tensor eigenvalues:
            -17.5324250083             -2.3611006563             -1.8411836565
 Angular average effective mass 1/(<1/m>)=  -2.9305536928
 Angular average effective mass for Frohlich model (<m**0.5>)**2=  -3.5073119483
 Effective masses along directions: (cart. coord. / red. coord. -> eff. mass)
    1:   1.000000  0.000000  0.000000 /   0.929073  0.369896  0.000000 ->  -2.1436753994
    2:   0.000000  1.000000  0.000000 /   0.000000  1.000000  0.000000 ->  -2.5623854435
    3:   0.000000  0.000000  1.000000 /   0.483070  0.483070  0.730265 ->  -5.9899088898
    4:   0.577350  0.577350  0.577350 /   0.590767  0.689788  0.418554 ->  -7.3976540582
    5:   0.000000  0.707107  0.707107 /   0.366450  0.747551  0.553969 ->  -5.4753786194
    6:   0.707107  0.000000  0.707107 /   0.713440  0.485289  0.505468 ->  -6.8063313870
    7:   0.707107  0.707107  0.000000 /   0.605179  0.796089  0.000000 ->  -2.5970123570

 K-point ( 0.342, 0.342, 0.342) | band =    33
 Effective mass tensor:
              1.1494582233              0.0159169081              0.0537470350
              0.0159169081              1.1356415799              0.0352635815
              0.0537470350              0.0352635815              1.2442738281
 Effective mass tensor eigenvalues:
              1.1251984326              1.1251984503              1.2789767484
 Angular average effective mass 1/(<1/m>)=   1.1721775273
 Angular average effective mass for Frohlich model (<m**0.5>)**2=   1.1734310553
 Effective masses along directions: (cart. coord. / red. coord. -> eff. mass)
    1:   1.000000  0.000000  0.000000 /   0.929073  0.369896  0.000000 ->   1.1469539998
    2:   0.000000  1.000000  0.000000 /   0.000000  1.000000  0.000000 ->   1.1344615811
    3:   0.000000  0.000000  1.000000 /   0.483070  0.483070  0.730265 ->   1.2407112286
    4:   0.577350  0.577350  0.577350 /   0.590767  0.689788  0.418554 ->   1.2429999707
    5:   0.000000  0.707107  0.707107 /   0.366450  0.747551  0.553969 ->   1.2206606545
    6:   0.707107  0.000000  0.707107 /   0.713440  0.485289  0.505468 ->   1.2475293768
    7:   0.707107  0.707107  0.000000 /   0.605179  0.796089  0.000000 ->   1.1552484241

 END OF EFFECTIVE MASSES SECTION

 ---- first-order wavefunction calculations are completed ----

 Total localisation tensor (bohr^2) in cartesian coordinates
  WARNING : still subject to testing - especially symmetries.
      direction              matrix element
   alpha     beta       real part   imaginary part
     1        1       0.7290048563    0.0000000000
     1        2       0.2319159423    0.0000000000
     1        3       0.7772436173    0.0000000000
     2        1       0.2319159423    0.0000000000
     2        2       0.5343500998    0.0000000000
     2        3       0.5138076440    0.0000000000
     3        1       0.7772436173    0.0000000000
     3        2       0.5138076440    0.0000000000
     3        3       2.1001586687    0.0000000000

 respfn : d/dk was computed, but no 2DTE, so no DDB output.

== END DATASET(S) ==============================================================

 -outvars: echo values of variables after computation  --------
            acell      1.0000000000E+00  1.0000000000E+00  1.0000000000E+00 Bohr
              amu      2.43050000E+01  1.20110000E+01  1.59994000E+01
             ecut      4.40000000E+01 Hartree
           etotal     -5.1549133028E+01
            fcart      0.0000000000E+00  0.0000000000E+00  0.0000000000E+00
                       0.0000000000E+00  0.0000000000E+00  0.0000000000E+00
                       0.0000000000E+00  0.0000000000E+00  0.0000000000E+00
                       0.0000000000E+00  0.0000000000E+00  0.0000000000E+00
                       0.0000000000E+00  0.0000000000E+00  0.0000000000E+00
                       0.0000000000E+00  0.0000000000E+00  0.0000000000E+00
                       0.0000000000E+00  0.0000000000E+00  0.0000000000E+00
                       0.0000000000E+00  0.0000000000E+00  0.0000000000E+00
                       0.0000000000E+00  0.0000000000E+00  0.0000000000E+00
                       0.0000000000E+00  0.0000000000E+00  0.0000000000E+00
-          fftalg         512
           irdden           1
           irdwfk           1
              ixc     -116133
              kpt      3.09936955E-01  0.00000000E+00 -3.09936955E-01
                       3.42105263E-01  3.42105263E-01  3.42105263E-01
           kptopt           0
P           mkmem           2
P          mkqmem           2
P          mk1mem           2
            natom          10
            nband          41
           nbdbuf           4
            ngfft          64      64      64
             nkpt           2
            nstep        2000
             nsym          12
           ntypat           3
              occ      2.000000  2.000000  2.000000  2.000000  2.000000  2.000000
                       2.000000  2.000000  2.000000  2.000000  2.000000  2.000000
                       2.000000  2.000000  2.000000  2.000000  2.000000  2.000000
                       2.000000  2.000000  2.000000  2.000000  2.000000  2.000000
                       2.000000  2.000000  2.000000  2.000000  2.000000  2.000000
                       2.000000  2.000000  0.000000  0.000000  0.000000  0.000000
                       0.000000  0.000000  0.000000  0.000000  0.000000
        optdriver           1
            prtwf          -1
            rfdir           1       1       1
           rfelfd           2
            rprim      8.0057521699E+00  0.0000000000E+00  7.0615681038E+00
                       3.1873605625E+00  7.3438954548E+00  7.0615681038E+00
                       0.0000000000E+00  0.0000000000E+00  1.0675102430E+01
          spgroup         167
           strten      0.0000000000E+00  0.0000000000E+00  0.0000000000E+00
                       0.0000000000E+00  0.0000000000E+00  0.0000000000E+00
           symrel      1  0  0   0  1  0   0  0  1      -1  0  0   0 -1  0   0  0 -1
                       0  1  0   1  0  0   0  0  1       0 -1  0  -1  0  0   0  0 -1
                       0  0  1   1  0  0   0  1  0       0  0 -1  -1  0  0   0 -1  0
                       1  0  0   0  0  1   0  1  0      -1  0  0   0  0 -1   0 -1  0
                       0  1  0   0  0  1   1  0  0       0 -1  0   0  0 -1  -1  0  0
                       0  0  1   0  1  0   1  0  0       0  0 -1   0 -1  0  -1  0  0
            tnons      0.0000000  0.0000000  0.0000000     0.0000000 -0.0000000  0.0000000
                       0.5000000  0.5000000  0.5000000     0.5000000  0.5000000  0.5000000
                       0.0000000 -0.0000000  0.0000000     0.0000000  0.0000000  0.0000000
                       0.5000000  0.5000000  0.5000000     0.5000000  0.5000000  0.5000000
                       0.0000000 -0.0000000  0.0000000     0.0000000  0.0000000  0.0000000
                       0.5000000  0.5000000  0.5000000     0.5000000  0.5000000  0.5000000
           tolwfr      1.00000000E-20
            typat      1  1  2  2  3  3  3  3  3  3
           useylm           1
              wtk        0.50000    0.50000
           xangst      2.9615700756E+00  1.9431110485E+00  6.5613313501E+00
                       0.0000000000E+00  0.0000000000E+00  0.0000000000E+00
                       4.4423551134E+00  2.9146665727E+00  9.8419970251E+00
                       1.4807850378E+00  9.7155552424E-01  3.2806656750E+00
                       3.9748584154E+00  1.8375223941E+00  4.7229805960E+00
                       1.3801135852E+00  2.9146665727E+00  5.5751716515E+00
                       3.8741869629E+00  3.7806334426E+00  7.0174865725E+00
                       1.9482817357E+00  2.0486997028E+00  8.3996821042E+00
                       4.5430265659E+00  9.7155552424E-01  7.5474910487E+00
                       2.0489531883E+00  1.0558865437E-01  6.1051761277E+00
            xcart      5.5965563662E+00  3.6719477274E+00  1.2399119319E+01
                       0.0000000000E+00  0.0000000000E+00  0.0000000000E+00
                       8.3948345493E+00  5.5079215911E+00  1.8598678978E+01
                       2.7982781831E+00  1.8359738637E+00  6.1995596594E+00
                       7.5113938222E+00  3.4724140879E+00  8.9251398574E+00
                       2.6080367083E+00  5.5079215911E+00  1.0535547565E+01
                       7.3211523474E+00  7.1443618153E+00  1.3261127763E+01
                       3.6817189102E+00  3.8714813669E+00  1.5873098780E+01
                       8.5850760241E+00  1.8359738637E+00  1.4262691072E+01
                       3.8719603850E+00  1.9953363951E-01  1.1537110874E+01
             xred      5.0000000000E-01  5.0000000000E-01  5.0000000000E-01
                       0.0000000000E+00  0.0000000000E+00  0.0000000000E+00
                       7.5000000000E-01  7.5000000000E-01  7.5000000000E-01
                       2.5000000000E-01  2.5000000000E-01  2.5000000000E-01
                       7.5000000000E-01  4.7283000000E-01  2.7170000000E-02
                       2.7170000000E-02  7.5000000000E-01  4.7283000000E-01
                       5.2717000000E-01  9.7283000000E-01  2.5000000000E-01
                       2.5000000000E-01  5.2717000000E-01  9.7283000000E-01
                       9.7283000000E-01  2.5000000000E-01  5.2717000000E-01
                       4.7283000000E-01  2.7170000000E-02  7.5000000000E-01
            znucl       12.00000    6.00000    8.00000

- Timing analysis has been suppressed with timopt=0

 Suggested references for the acknowledgment of ABINIT usage.

 Calculation completed.
.Delivered   2 WARNINGs and   5 COMMENTs to log file.