.Version 9.5.2 of ABINIT

 ABINIT is a project of the Universite Catholique de Louvain,
 Corning Inc. and other collaborators, see ~abinit/doc/developers/contributors.txt .
 acknowledgments of the ABINIT effort.

.Starting date : Mon 24 May 2021.
- ( at 18h34 )

- input  file    -> /scratch/users/j/a/jabreu/flow_simple_10atoms/flow/w422/t1/run.abi
- output file    -> /scratch/users/j/a/jabreu/flow_simple_10atoms/flow/w422/t1/run.abo
- root for input  files -> /scratch/users/j/a/jabreu/flow_simple_10atoms/flow/w422/t1/indata/in
- root for output files -> /scratch/users/j/a/jabreu/flow_simple_10atoms/flow/w422/t1/outdata/out

 Symmetries : space group P2_1/m (# 11); Bravais mP (primitive monocl.)
     intxc =       0      iscf =       7    lmnmax =      18     lnmax =       6
     mgfft =      80  mpssoang =       3    mqgrid =    3823     natom =      10
  nloc_mem =       1    nspden =       1   nspinor =       1    nsppol =       1
      nsym =       4    n1xccc =    2501    ntypat =       3    occopt =       1
   xclevel =       2
-    mband =          53        mffmem =           1         mkmem =           2
-   mkqmem =           2        mk1mem =           2           mpw =       17298
      nfft =      311040          nkpt =           2
  Rough estimation (10% accuracy) of disk space for files :

------------- Echo of variables that govern the present computation ------------
-
- outvars: echo of selected default values
-   iomode0 =  0 , fftalg0 =512 , wfoptalg0 =  0
-
- outvars: echo of global parameters not present in the input file
-  max_nthreads =    0
-
 -outvars: echo values of preprocessed input variables --------
            acell      1.0000000000E+00  1.0000000000E+00  1.0000000000E+00 Bohr
              amu      1.37327000E+02  1.27600000E+02  1.59994000E+01
             ecut      4.40000000E+01 Hartree
-          fftalg         512
           irdden           1
           irdwfk           1
              ixc     -116133
              kpt      4.06250000E-01  5.00000000E-01  5.00000000E-01
                       9.37500000E-02  5.00000000E-01  5.00000000E-01
           kptopt           0
P           mkmem           2
P          mkqmem           2
P          mk1mem           2
            natom          10
            nband          53
           nbdbuf           4
            ngfft          72      54      80
             nkpt           2
            nstep        2000
             nsym           4
           ntypat           3
              occ      2.000000  2.000000  2.000000  2.000000  2.000000  2.000000
                       2.000000  2.000000  2.000000  2.000000  2.000000  2.000000
                       2.000000  2.000000  2.000000  2.000000  2.000000  2.000000
                       2.000000  2.000000  2.000000  2.000000  2.000000  2.000000
                       2.000000  2.000000  2.000000  2.000000  2.000000  2.000000
                       2.000000  2.000000  2.000000  2.000000  2.000000  2.000000
                       2.000000  2.000000  2.000000  2.000000  2.000000  2.000000
                       2.000000  2.000000  0.000000  0.000000  0.000000  0.000000
                       0.000000  0.000000  0.000000  0.000000  0.000000
        optdriver           1
            prtwf          -1
            rfdir           1       1       1
           rfelfd           2
            rprim      1.1294889267E+01  0.0000000000E+00  0.0000000000E+00
                       0.0000000000E+00  8.2218413461E+00  2.3685963511E+00
                       0.0000000000E+00  0.0000000000E+00  1.3322839296E+01
          spgroup          11
           symrel      1  0  0   0  1  0   0  0  1      -1  0  0   0 -1  0   0  0 -1
                       1  0  0   0 -1  0   0  0 -1      -1  0  0   0  1  0   0  0  1
            tnons      0.0000000  0.0000000  0.0000000    -0.0000000  0.0000000  0.0000000
                       0.5000000  0.0000000  0.0000000     0.5000000  0.0000000  0.0000000
           tolwfr      1.00000000E-20
            typat      1  1  2  2  3  3  3  3  3  3
           useylm           1
              wtk        0.50000    0.50000
           xangst      4.4827484804E+00  1.4628819020E+00  2.6415820147E+00
                       1.4942494935E+00  2.8879291510E+00  5.6619680998E+00
                       4.4827484804E+00  3.1075667946E-01  6.1287968781E+00
                       1.4942494935E+00  4.0400543735E+00  2.1747532365E+00
                       2.9202536241E+00  3.5799735079E+00  3.3308003084E+00
                       5.9087526110E+00  7.7083754507E-01  4.9727498062E+00
                       3.0567443498E+00  7.7083754507E-01  4.9727498062E+00
                       6.8245362865E-02  3.5799735079E+00  3.3308003084E+00
                       1.4942494935E+00  1.5757332391E+00  1.1940070389E+00
                       4.4827484804E+00  2.7750778139E+00  7.1095430757E+00
            xcart      8.4711669505E+00  2.7644461595E+00  4.9918665654E+00
                       2.8237223168E+00  5.4573951866E+00  1.0699569082E+01
                       8.4711669505E+00  5.8724501815E-01  1.1581747624E+01
                       2.8237223168E+00  7.6345963280E+00  4.1096880235E+00
                       5.5184795880E+00  6.7651694930E+00  6.2943003861E+00
                       1.1165924222E+01  1.4566718531E+00  9.3971352611E+00
                       5.7764096794E+00  1.4566718531E+00  9.3971352611E+00
                       1.2896504566E-01  6.7651694930E+00  6.2943003861E+00
                       2.8237223168E+00  2.9777042803E+00  2.2563463042E+00
                       8.4711669505E+00  5.2441370658E+00  1.3435089343E+01
             xred      7.5000000000E-01  3.3623200000E-01  3.1490800000E-01
                       2.5000000000E-01  6.6376800000E-01  6.8509200000E-01
                       7.5000000000E-01  7.1425000000E-02  8.5661700000E-01
                       2.5000000000E-01  9.2857500000E-01  1.4338300000E-01
                       4.8858200000E-01  8.2282900000E-01  3.2615800000E-01
                       9.8858200000E-01  1.7717100000E-01  6.7384200000E-01
                       5.1141800000E-01  1.7717100000E-01  6.7384200000E-01
                       1.1418000000E-02  8.2282900000E-01  3.2615800000E-01
                       2.5000000000E-01  3.6217000000E-01  1.0497100000E-01
                       7.5000000000E-01  6.3783000000E-01  8.9502900000E-01
            znucl       56.00000   52.00000    8.00000

 chkinp: Checking input parameters for consistency.

== DATASET  1 ==================================================================
-   mpi_nproc: 1, omp_nthreads: -1 (-1 if OMP is not activated)

--- !DatasetInfo
iteration_state: {dtset: 1, }
dimensions: {natom: 10, nkpt: 2, mband: 53, nsppol: 1, nspinor: 1, nspden: 1, mpw: 17298, }
cutoff_energies: {ecut:  44.0, pawecutdg:  -1.0, }
electrons: {nelect:   8.80000000E+01, charge:   0.00000000E+00, occopt:   1.00000000E+00, tsmear:   1.00000000E-02, }
meta: {optdriver: 1, rfelfd: 2, }
...

 Real(R)+Recip(G) space primitive vectors, cartesian coordinates (Bohr,Bohr^-1):
 R(1)= 11.2948893  0.0000000  0.0000000  G(1)=  0.0885356  0.0000000  0.0000000
 R(2)=  0.0000000  8.2218413  2.3685964  G(2)=  0.0000000  0.1216273  0.0000000
 R(3)=  0.0000000  0.0000000 13.3228393  G(3)=  0.0000000 -0.0216235  0.0750591
 Unit cell volume ucvol=  1.2372226E+03 bohr^3
 Angles (23,13,12)=  7.39290562E+01  9.00000000E+01  9.00000000E+01 degrees

 getcut: wavevector=  0.0000  0.0000  0.0000  ngfft=  72  54  80
         ecut(hartree)=     44.000   => boxcut(ratio)=   2.01097

--- Pseudopotential description ------------------------------------------------
- pspini: atom type   1  psp file is /scratch/users/j/a/jabreu/pseudos/PBEsol/Ba.psp8
- pspatm: opening atomic psp file    /scratch/users/j/a/jabreu/pseudos/PBEsol/Ba.psp8
- Ba    ONCVPSP-3.3.0  r_core=   2.15444   1.91218   2.15444
- 56.00000  10.00000    180112                znucl, zion, pspdat
    8 -116133    2    4       600   0.00000   pspcod,pspxc,lmax,lloc,mmax,r2well
    5.99000000000000    5.00000000000000    0.00000000000000   rchrg,fchrg,qchrg
     nproj     2     2     2
     extension_switch     1
  pspatm : epsatm=   26.37418029
         --- l  ekb(1:nproj) -->
             0    6.652372    0.677024
             1    5.027722    0.408462
             2    2.543237    0.416854
 pspatm: atomic psp has been read  and splines computed

- pspini: atom type   2  psp file is /scratch/users/j/a/jabreu/pseudos/PBEsol/Te.psp8
- pspatm: opening atomic psp file    /scratch/users/j/a/jabreu/pseudos/PBEsol/Te.psp8
- Te    ONCVPSP-3.3.0  r_core=   2.26547   1.91704   1.80604
- 52.00000  16.00000    180112                znucl, zion, pspdat
    8 -116133    2    4       600   0.00000   pspcod,pspxc,lmax,lloc,mmax,r2well
    5.99000000000000    5.00000000000000    0.00000000000000   rchrg,fchrg,qchrg
     nproj     2     2     2
     extension_switch     1
  pspatm : epsatm=   36.82679836
         --- l  ekb(1:nproj) -->
             0    6.345999    0.785432
             1    5.709019    1.070069
             2   -6.035173   -1.870937
 pspatm: atomic psp has been read  and splines computed

- pspini: atom type   3  psp file is /scratch/users/j/a/jabreu/pseudos/PBEsol/O.psp8
- pspatm: opening atomic psp file    /scratch/users/j/a/jabreu/pseudos/PBEsol/O.psp8
- O     ONCVPSP-3.3.0  r_core=   1.35509   1.45563   1.26150
-  8.00000   6.00000    180112                znucl, zion, pspdat
    8 -116133    2    4       600   0.00000   pspcod,pspxc,lmax,lloc,mmax,r2well
    5.99000000000000    4.00000000000000    0.00000000000000   rchrg,fchrg,qchrg
     nproj     2     2     1
     extension_switch     1
  pspatm : epsatm=    6.22910522
         --- l  ekb(1:nproj) -->
             0    6.050032    0.820363
             1   -4.739617   -1.153841
             2   -1.335834
 pspatm: atomic psp has been read  and splines computed

   1.44123398E+04                                ecore*ucvol(ha*bohr**3)

 ==>  initialize data related to q vector <==

 The list of irreducible perturbations for this q vector is:
    1)    idir= 1    ipert=  11
    2)    idir= 2    ipert=  11
    3)    idir= 3    ipert=  11

 Perturbation wavevector (in red.coord.)   0.000000  0.000000  0.000000
 Perturbation : derivative vs k along direction   1

 dfpt_looppert : COMMENT -
  In a d/dk calculation, iscf is set to -3 automatically.
 The set of symmetries contains only one element for this perturbation.
 symkpt : not enough symmetry to change the number of k points.

 Initialisation of the first-order wave-functions :
  ireadwf=   0

--- !BeginCycle
iteration_state: {dtset: 1, }
solver: {iscf: 7, nstep: 2000, nline: 4, wfoptalg: 0, }
tolerances: {tolwfr: 1.00E-20, }
...

     iter   2DEtotal(Ha)        deltaE(Ha) residm    vres2
-ETOT  1  -41.644444120881     -4.164E+01 4.926E-02 0.000E+00
 ETOT  2  -41.689124711790     -4.468E-02 3.097E-03 0.000E+00
 ETOT  3  -41.689421884259     -2.972E-04 1.288E-04 0.000E+00
 ETOT  4  -41.689425935558     -4.051E-06 1.754E-05 0.000E+00
 ETOT  5  -41.689426000764     -6.521E-08 1.138E-06 0.000E+00
 ETOT  6  -41.689426001940     -1.175E-09 1.859E-07 0.000E+00
 ETOT  7  -41.689426001963     -2.297E-11 1.282E-08 0.000E+00
 ETOT  8  -41.689426001963     -4.903E-13 2.208E-09 0.000E+00
 ETOT  9  -41.689426001963     -3.553E-14 1.560E-10 0.000E+00
 ETOT 10  -41.689426001963      4.974E-14 2.779E-11 0.000E+00
 ETOT 11  -41.689426001963     -1.421E-14 1.991E-12 0.000E+00
 ETOT 12  -41.689426001963     -2.132E-14 3.583E-13 0.000E+00
 ETOT 13  -41.689426001963      7.105E-15 2.586E-14 0.000E+00
 ETOT 14  -41.689426001963     -7.105E-15 4.675E-15 0.000E+00
 ETOT 15  -41.689426001963      7.105E-15 3.395E-16 0.000E+00
 ETOT 16  -41.689426001963     -7.105E-15 6.150E-17 0.000E+00
 ETOT 17  -41.689426001963      0.000E+00 4.489E-18 0.000E+00
 ETOT 18  -41.689426001963      0.000E+00 8.139E-19 0.000E+00
 ETOT 19  -41.689426001963      7.105E-15 5.970E-20 0.000E+00
 ETOT 20  -41.689426001963      0.000E+00 1.082E-20 0.000E+00
 ETOT 21  -41.689426001963      7.105E-15 9.902E-21 0.000E+00

 At SCF step   21   max residual=  9.90E-21 < tolwfr=  1.00E-20 =>converged.

 ----iterations are completed or convergence reached----

 dfpt_looppert: DFPT cycle converged with prtwf=-1. Will skip output of the 1st-order WFK file.
 dfpt_looppert : ek2=    5.4463863978E+01
          f-sum rule ratio=    9.9963398569E-01
 prteigrs : about to open file /scratch/users/j/a/jabreu/flow_simple_10atoms/flow/w422/t1/tmpdata/tmp_1WF1_EIG
 Expectation of eigenvalue derivatives (hartree) for nkpt=   2  k points:
  (in case of degenerate eigenvalues, averaged derivative)
 kpt#   1, nband= 53, wtk=  0.50000, kpt=  0.4063  0.5000  0.5000 (reduced coord)
   0.00035   -0.00045    0.00029   -0.00019    0.00009   -0.00010    0.00011   -0.00011
   0.00004   -0.00003    0.00009    0.00001    0.01270   -0.00121   -0.00662   -0.01557
   0.00648   -0.00635    0.00102    0.00123    0.04491    0.00644    0.00246    0.02314
   0.01214   -0.07561   -0.00185   -0.02257    0.01130   -0.00894    0.04483    0.02780
  -0.02061   -0.04464    0.00345    0.00490   -0.01323   -0.00985    0.01420   -0.02125
   0.00514    0.00243    0.01483   -0.00004    0.08152   -0.09641    0.09292   -0.05396
   0.02012   -0.03847    0.03379   -0.01635   -0.01144
 prteigrs : prtvol=0 or 1, do not print more k-points.

 Eight components of 2nd-order total energy (hartree) are
 1,2,3: 0th-order hamiltonian combined with 1st-order wavefunctions
     kin0=   5.33601974E+01 eigvalue=   5.16935083E+00  local=  -2.65492424E+01
 4,5,6: 1st-order hamiltonian combined with 1st and 0th-order wfs
     kin1=  -5.44439294E+01  Hartree=   0.00000000E+00     xc=   0.00000000E+00
 7,8,9: eventually, occupation + non-local contributions
    edocc=   5.51742882E+00     enl0=   4.19169130E+00   enl1=  -2.89349226E+01
 1-9 gives the relaxation energy (to be shifted if some occ is /=2.0)
   erelax=  -4.16894260E+01
  No Ewald or frozen-wf contrib.: the relaxation energy is the total one
 2DEtotal=   -0.4168942600E+02 Ha. Also 2DEtotal=   -0.113442697384E+04 eV
    (  non-var. 2DEtotal :   -4.1689426002E+01 Ha)

 Perturbation wavevector (in red.coord.)   0.000000  0.000000  0.000000
 Perturbation : derivative vs k along direction   2
 The set of symmetries contains only one element for this perturbation.
 symkpt : not enough symmetry to change the number of k points.

[...]

 Perturbation wavevector (in red.coord.)   0.000000  0.000000  0.000000
 Perturbation : derivative vs k along direction   3
 The set of symmetries contains only one element for this perturbation.
 symkpt : not enough symmetry to change the number of k points.

 Initialisation of the first-order wave-functions :
  ireadwf=   0

--- !BeginCycle
iteration_state: {dtset: 1, }
solver: {iscf: 7, nstep: 2000, nline: 4, wfoptalg: 0, }
tolerances: {tolwfr: 1.00E-20, }
...

     iter   2DEtotal(Ha)        deltaE(Ha) residm    vres2
-ETOT  1  -32.525951425409     -3.253E+01 4.636E-02 0.000E+00
 ETOT  2  -32.565696847641     -3.975E-02 1.943E-03 0.000E+00
 ETOT  3  -32.565973966595     -2.771E-04 1.518E-04 0.000E+00
 ETOT  4  -32.565977703539     -3.737E-06 1.666E-05 0.000E+00
 ETOT  5  -32.565977763449     -5.991E-08 1.765E-06 0.000E+00
 ETOT  6  -32.565977764536     -1.087E-09 2.127E-07 0.000E+00
 ETOT  7  -32.565977764557     -2.152E-11 2.503E-08 0.000E+00
 ETOT  8  -32.565977764558     -4.334E-13 3.096E-09 0.000E+00
 ETOT  9  -32.565977764558     -3.553E-14 3.697E-10 0.000E+00
 ETOT 10  -32.565977764558     -2.132E-14 4.634E-11 0.000E+00
 ETOT 11  -32.565977764558      2.132E-14 5.570E-12 0.000E+00
 ETOT 12  -32.565977764558     -7.105E-15 7.049E-13 0.000E+00
 ETOT 13  -32.565977764558      0.000E+00 8.499E-14 0.000E+00
 ETOT 14  -32.565977764558      0.000E+00 1.085E-14 0.000E+00
 ETOT 15  -32.565977764558      0.000E+00 1.310E-15 0.000E+00
 ETOT 16  -32.565977764558      0.000E+00 1.687E-16 0.000E+00
 ETOT 17  -32.565977764558      0.000E+00 2.040E-17 0.000E+00
 ETOT 18  -32.565977764558     -1.421E-14 2.646E-18 0.000E+00
 ETOT 19  -32.565977764558      1.421E-14 3.204E-19 0.000E+00
 ETOT 20  -32.565977764558     -1.421E-14 4.186E-20 0.000E+00
 ETOT 21  -32.565977764558      7.105E-15 9.827E-21 0.000E+00

 At SCF step   21   max residual=  9.83E-21 < tolwfr=  1.00E-20 =>converged.

 ----iterations are completed or convergence reached----

 dfpt_looppert: DFPT cycle converged with prtwf=-1. Will skip output of the 1st-order WFK file.
 dfpt_looppert : ek2=    4.2394026233E+01
          f-sum rule ratio=    1.0080631160E+00
 prteigrs : about to open file /scratch/users/j/a/jabreu/flow_simple_10atoms/flow/w422/t1/tmpdata/tmp_1WF1_EIG
 Expectation of eigenvalue derivatives (hartree) for nkpt=   2  k points:
  (in case of degenerate eigenvalues, averaged derivative)
 kpt#   1, nband= 53, wtk=  0.50000, kpt=  0.4063  0.5000  0.5000 (reduced coord)
   0.00000   -0.00000   -0.00000    0.00000   -0.00000    0.00000   -0.00000   -0.00000
  -0.00000   -0.00000    0.00000   -0.00000    0.00000   -0.00000   -0.00000    0.00000
  -0.00000   -0.00000   -0.00000   -0.00000    0.00000    0.00000    0.00000    0.00000
   0.00000   -0.00000    0.00000    0.00000   -0.00000   -0.00000    0.00000    0.00000
  -0.00000   -0.00000    0.00000   -0.00000   -0.00000    0.00000   -0.00000   -0.00000
  -0.00000   -0.00000   -0.00000   -0.00000    0.00000   -0.00000   -0.00000    0.00000
   0.00000    0.00000    0.00000    0.00000    0.00444
 prteigrs : prtvol=0 or 1, do not print more k-points.

 Eight components of 2nd-order total energy (hartree) are
 1,2,3: 0th-order hamiltonian combined with 1st-order wavefunctions
     kin0=   4.10161519E+01 eigvalue=   3.90194890E+00  local=  -2.02445570E+01
 4,5,6: 1st-order hamiltonian combined with 1st and 0th-order wfs
     kin1=  -4.27358542E+01  Hartree=   0.00000000E+00     xc=   0.00000000E+00
 7,8,9: eventually, occupation + non-local contributions
    edocc=   4.74555844E+00     enl0=   3.14687552E+00   enl1=  -2.23961013E+01
 1-9 gives the relaxation energy (to be shifted if some occ is /=2.0)
   erelax=  -3.25659778E+01
  No Ewald or frozen-wf contrib.: the relaxation energy is the total one
 2DEtotal=   -0.3256597776E+02 Ha. Also 2DEtotal=   -0.886165321728E+03 eV
    (  non-var. 2DEtotal :   -3.2565977765E+01 Ha)

 CALCULATION OF EFFECTIVE MASSES
 NOTE : Additional infos (eff. mass eigenvalues, eigenvectors and, if degenerate, average mass) are available in stdout.

 K-point ( 0.406, 0.500, 0.500) | band =    44
 Effective mass tensor:
             -6.3708398968              0.0000618265             -0.0003302073
              0.0000618265             -1.1483504482              1.8333117191
             -0.0003302073              1.8333117191             -5.6235791809
 Effective mass tensor eigenvalues:
             -6.3708410918             -6.2787045196             -0.4932239145
 Angular average effective mass 1/(<1/m>)=  -1.2800216380
 Angular average effective mass for Frohlich model (<m**0.5>)**2=  -2.0313385200
 Effective masses along directions: (cart. coord. / red. coord. -> eff. mass)
    1:   1.000000  0.000000  0.000000 /   1.000000  0.000000  0.000000 ->  -6.3708398736
    2:   0.000000  1.000000  0.000000 /   0.000000  1.000000  0.000000 ->  -0.5506827079
    3:   0.000000  0.000000  1.000000 /   0.000000  0.175040  0.984561 ->  -2.6967445423
    4:   0.577350  0.577350  0.577350 /   0.552961  0.518473  0.652242 ->  -0.8504225086
    5:   0.000000  0.707107  0.707107 /   0.000000  0.622262  0.782809 ->  -0.5933404351
    6:   0.707107  0.000000  0.707107 /   0.640801  0.134379  0.755854 ->  -3.7896322067
    7:   0.707107  0.707107  0.000000 /   0.808485  0.588517  0.000000 ->  -1.0137531923

--- !WARNING
src_file: m_efmas.F90
src_line: 0
message: |

    Band(s)    45,
    are not band extrema, but saddle points;
    the transport equivalent formalism breaks down in these conditions.
    The associated tensor(s) will therefore not be printed.
...

 K-point ( 0.094, 0.500, 0.500) | band =    45
 Effective mass tensor:
     *** SADDLE POINT: TRANSPORT EQV. EFF. MASS NOT DEFINED (see WARNING above) ***
 Angular average effective mass 1/(<1/m>)=   2.4652900976
 Angular average effective mass for Frohlich model (<m**0.5>)**2=   5.6969282277
 Effective masses along directions: (cart. coord. / red. coord. -> eff. mass)
    1:   1.000000  0.000000  0.000000 /   1.000000  0.000000  0.000000 ->   5.5324660226
    2:   0.000000  1.000000  0.000000 /   0.000000  1.000000  0.000000 ->   0.9927502463
    3:   0.000000  0.000000  1.000000 /   0.000000  0.175040  0.984561 ->  34.6723714452
    4:   0.577350  0.577350  0.577350 /   0.552961  0.518473  0.652242 ->   3.4912147309
    5:   0.000000  0.707107  0.707107 /   0.000000  0.622262  0.782809 ->   2.9467757207
    6:   0.707107  0.000000  0.707107 /   0.640801  0.134379  0.755854 ->   9.5485550665
    7:   0.707107  0.707107  0.000000 /   0.808485  0.588517  0.000000 ->   1.6834571813

 END OF EFFECTIVE MASSES SECTION

 ---- first-order wavefunction calculations are completed ----

 Total localisation tensor (bohr^2) in cartesian coordinates
  WARNING : still subject to testing - especially symmetries.
      direction              matrix element
   alpha     beta       real part   imaginary part
     1        1       0.8134904791    0.0000000000
     1        2       0.0000000000    0.0000000000
     1        3       0.0000000000    0.0000000000
     2        1       0.0000000000    0.0000000000
     2        2       1.3624498846    0.0000000000
     2        3       0.3925025660    0.0000000000
     3        1       0.0000000000    0.0000000000
     3        2       0.3925025660    0.0000000000
     3        3       0.9783944790    0.0000000000

 respfn : d/dk was computed, but no 2DTE, so no DDB output.

== END DATASET(S) ==============================================================

 -outvars: echo values of variables after computation  --------
            acell      1.0000000000E+00  1.0000000000E+00  1.0000000000E+00 Bohr
              amu      1.37327000E+02  1.27600000E+02  1.59994000E+01
             ecut      4.40000000E+01 Hartree
           etotal     -3.2565977765E+01
            fcart      0.0000000000E+00  0.0000000000E+00  0.0000000000E+00
                       0.0000000000E+00  0.0000000000E+00  0.0000000000E+00
                       0.0000000000E+00  0.0000000000E+00  0.0000000000E+00
                       0.0000000000E+00  0.0000000000E+00  0.0000000000E+00
                       0.0000000000E+00  0.0000000000E+00  0.0000000000E+00
                       0.0000000000E+00  0.0000000000E+00  0.0000000000E+00
                       0.0000000000E+00  0.0000000000E+00  0.0000000000E+00
                       0.0000000000E+00  0.0000000000E+00  0.0000000000E+00
                       0.0000000000E+00  0.0000000000E+00  0.0000000000E+00
                       0.0000000000E+00  0.0000000000E+00  0.0000000000E+00
-          fftalg         512
           irdden           1
           irdwfk           1
              ixc     -116133
              kpt      4.06250000E-01  5.00000000E-01  5.00000000E-01
                       9.37500000E-02  5.00000000E-01  5.00000000E-01
           kptopt           0
P           mkmem           2
P          mkqmem           2
P          mk1mem           2
            natom          10
            nband          53
           nbdbuf           4
            ngfft          72      54      80
             nkpt           2
            nstep        2000
             nsym           4
           ntypat           3
              occ      2.000000  2.000000  2.000000  2.000000  2.000000  2.000000
                       2.000000  2.000000  2.000000  2.000000  2.000000  2.000000
                       2.000000  2.000000  2.000000  2.000000  2.000000  2.000000
                       2.000000  2.000000  2.000000  2.000000  2.000000  2.000000
                       2.000000  2.000000  2.000000  2.000000  2.000000  2.000000
                       2.000000  2.000000  2.000000  2.000000  2.000000  2.000000
                       2.000000  2.000000  2.000000  2.000000  2.000000  2.000000
                       2.000000  2.000000  0.000000  0.000000  0.000000  0.000000
                       0.000000  0.000000  0.000000  0.000000  0.000000
        optdriver           1
            prtwf          -1
            rfdir           1       1       1
           rfelfd           2
            rprim      1.1294889267E+01  0.0000000000E+00  0.0000000000E+00
                       0.0000000000E+00  8.2218413461E+00  2.3685963511E+00
                       0.0000000000E+00  0.0000000000E+00  1.3322839296E+01
          spgroup          11
           strten      0.0000000000E+00  0.0000000000E+00  0.0000000000E+00
                       0.0000000000E+00  0.0000000000E+00  0.0000000000E+00
           symrel      1  0  0   0  1  0   0  0  1      -1  0  0   0 -1  0   0  0 -1
                       1  0  0   0 -1  0   0  0 -1      -1  0  0   0  1  0   0  0  1
            tnons      0.0000000  0.0000000  0.0000000    -0.0000000  0.0000000  0.0000000
                       0.5000000  0.0000000  0.0000000     0.5000000  0.0000000  0.0000000
           tolwfr      1.00000000E-20
            typat      1  1  2  2  3  3  3  3  3  3
           useylm           1
              wtk        0.50000    0.50000
           xangst      4.4827484804E+00  1.4628819020E+00  2.6415820147E+00
                       1.4942494935E+00  2.8879291510E+00  5.6619680998E+00
                       4.4827484804E+00  3.1075667946E-01  6.1287968781E+00
                       1.4942494935E+00  4.0400543735E+00  2.1747532365E+00
                       2.9202536241E+00  3.5799735079E+00  3.3308003084E+00
                       5.9087526110E+00  7.7083754507E-01  4.9727498062E+00
                       3.0567443498E+00  7.7083754507E-01  4.9727498062E+00
                       6.8245362865E-02  3.5799735079E+00  3.3308003084E+00
                       1.4942494935E+00  1.5757332391E+00  1.1940070389E+00
                       4.4827484804E+00  2.7750778139E+00  7.1095430757E+00
            xcart      8.4711669505E+00  2.7644461595E+00  4.9918665654E+00
                       2.8237223168E+00  5.4573951866E+00  1.0699569082E+01
                       8.4711669505E+00  5.8724501815E-01  1.1581747624E+01
                       2.8237223168E+00  7.6345963280E+00  4.1096880235E+00
                       5.5184795880E+00  6.7651694930E+00  6.2943003861E+00
                       1.1165924222E+01  1.4566718531E+00  9.3971352611E+00
                       5.7764096794E+00  1.4566718531E+00  9.3971352611E+00
                       1.2896504566E-01  6.7651694930E+00  6.2943003861E+00
                       2.8237223168E+00  2.9777042803E+00  2.2563463042E+00
                       8.4711669505E+00  5.2441370658E+00  1.3435089343E+01
             xred      7.5000000000E-01  3.3623200000E-01  3.1490800000E-01
                       2.5000000000E-01  6.6376800000E-01  6.8509200000E-01
                       7.5000000000E-01  7.1425000000E-02  8.5661700000E-01
                       2.5000000000E-01  9.2857500000E-01  1.4338300000E-01
                       4.8858200000E-01  8.2282900000E-01  3.2615800000E-01
                       9.8858200000E-01  1.7717100000E-01  6.7384200000E-01
                       5.1141800000E-01  1.7717100000E-01  6.7384200000E-01
                       1.1418000000E-02  8.2282900000E-01  3.2615800000E-01
                       2.5000000000E-01  3.6217000000E-01  1.0497100000E-01
                       7.5000000000E-01  6.3783000000E-01  8.9502900000E-01
            znucl       56.00000   52.00000    8.00000

- Timing analysis has been suppressed with timopt=0

 Suggested references for the acknowledgment of ABINIT usage.

 Calculation completed.
.Delivered   3 WARNINGs and   5 COMMENTs to log file.