.Version 9.5.2 of ABINIT

 ABINIT is a project of the Universite Catholique de Louvain,
 Corning Inc. and other collaborators, see ~abinit/doc/developers/contributors.txt .
 acknowledgments of the ABINIT effort.

.Starting date : Mon 24 May 2021.
- ( at 23h11 )

- input  file    -> /scratch/users/j/a/jabreu/flow_simple_10atoms/flow/w482/t1/run.abi
- output file    -> /scratch/users/j/a/jabreu/flow_simple_10atoms/flow/w482/t1/run.abo
- root for input  files -> /scratch/users/j/a/jabreu/flow_simple_10atoms/flow/w482/t1/indata/in
- root for output files -> /scratch/users/j/a/jabreu/flow_simple_10atoms/flow/w482/t1/outdata/out

 Symmetries : space group Cc (#  9); Bravais mC (1-face-center monocl.)
     intxc =       0      iscf =       7    lmnmax =      18     lnmax =       6
     mgfft =      80  mpssoang =       3    mqgrid =    3231     natom =      10
  nloc_mem =       1    nspden =       1   nspinor =       1    nsppol =       1
      nsym =       2    n1xccc =    2501    ntypat =       2    occopt =       1
   xclevel =       2
-    mband =          53        mffmem =           1         mkmem =           2
-   mkqmem =           2        mk1mem =           2           mpw =       17409
      nfft =      414720          nkpt =           2
  Rough estimation (10% accuracy) of disk space for files :

------------- Echo of variables that govern the present computation ------------
-
- outvars: echo of selected default values
-   iomode0 =  0 , fftalg0 =512 , wfoptalg0 =  0
-
- outvars: echo of global parameters not present in the input file
-  max_nthreads =    0
-
 -outvars: echo values of preprocessed input variables --------
            acell      1.0000000000E+00  1.0000000000E+00  1.0000000000E+00 Bohr
              amu      6.97230000E+01  3.20660000E+01
             ecut      4.00000000E+01 Hartree
-          fftalg         512
           irdden           1
           irdwfk           1
           istwfk        0    1
              ixc     -116133
              kpt      3.29460054E-02 -3.29460054E-02  0.00000000E+00
                       0.00000000E+00  0.00000000E+00  0.00000000E+00
           kptopt           0
P           mkmem           2
P          mkqmem           2
P          mk1mem           2
            natom          10
            nband          53
           nbdbuf           4
            ngfft          72      72      80
             nkpt           2
            nstep        2000
             nsym           2
           ntypat           2
              occ      2.000000  2.000000  2.000000  2.000000  2.000000  2.000000
                       2.000000  2.000000  2.000000  2.000000  2.000000  2.000000
                       2.000000  2.000000  2.000000  2.000000  2.000000  2.000000
                       2.000000  2.000000  2.000000  2.000000  2.000000  2.000000
                       2.000000  2.000000  2.000000  2.000000  2.000000  2.000000
                       2.000000  2.000000  2.000000  2.000000  2.000000  2.000000
                       2.000000  2.000000  2.000000  2.000000  2.000000  2.000000
                       2.000000  2.000000  0.000000  0.000000  0.000000  0.000000
                       0.000000  0.000000  0.000000  0.000000  0.000000
        optdriver           1
            prtwf          -1
            rfdir           1       1       1
           rfelfd           2
            rprim      1.0843506675E+01  0.0000000000E+00  5.4153979452E+00
                       4.1169311908E+00  1.0031575877E+01  5.4153979452E+00
                       0.0000000000E+00  0.0000000000E+00  1.3239900161E+01
          spgroup           9
           symrel      1  0  0   0  1  0   0  0  1       0  1  0   1  0  0   0  0  1
            tnons      0.0000000  0.0000000  0.0000000    -0.0000000  0.0000000  0.5000000
           tolwfr      1.00000000E-20
            typat      1  1  1  1  2  2  2  2  2  2
           useylm           1
              wtk        0.50000    0.50000
           xangst      6.5498419341E+00  3.8772669799E+00  8.9087711273E+00
                       6.0737129080E+00  4.5873347498E+00  5.4056444227E+00
                       3.9576704465E+00  1.9098801009E+00  7.0180217146E+00
                       3.2694740840E+00  2.9362112624E+00  3.5148950100E+00
                       4.8762742643E+00  4.0130313897E+00  7.3177649343E+00
                       5.5639117774E+00  2.9875336598E+00  3.8146382296E+00
                       2.2556767781E+00  2.1545373880E+00  5.4424748381E+00
                       2.8496198046E+00  1.2687695034E+00  1.9393481334E+00
                       2.5133636371E+00  4.8685621647E+00  9.7746176232E+00
                       5.4582615840E+00  4.7673347344E-01  6.2714909185E+00
            xcart      1.2377407469E+01  7.3269727362E+00  1.6835137611E+01
                       1.1477654006E+01  8.6688063570E+00  1.0215187531E+01
                       7.4789132682E+00  3.6091503373E+00  1.3262139035E+01
                       6.1784106173E+00  5.5486351542E+00  6.6421889547E+00
                       9.2148229084E+00  7.5835302892E+00  1.3828571631E+01
                       1.0514269487E+01  5.6456204298E+00  7.2086215499E+00
                       4.2626113549E+00  4.0714856063E+00  1.0284786929E+01
                       5.3850010135E+00  2.3976268871E+00  3.6648368485E+00
                       4.7495689465E+00  9.2002491522E+00  1.8471350362E+01
                       1.0314619555E+01  9.0089570318E-01  1.1851400281E+01
             xred      8.6415200000E-01  7.3039100000E-01  6.1934400000E-01
                       7.3039100000E-01  8.6415200000E-01  1.1934400000E-01
                       5.5311700000E-01  3.5977900000E-01  6.2828600000E-01
                       3.5977900000E-01  5.5311700000E-01  1.2828600000E-01
                       5.6278500000E-01  7.5596600000E-01  5.0506500000E-01
                       7.5596600000E-01  5.6278500000E-01  5.0650000000E-03
                       2.3900800000E-01  4.0586700000E-01  5.1303500000E-01
                       4.0586700000E-01  2.3900800000E-01  1.3035000000E-02
                       8.9806000000E-02  9.1712900000E-01  9.8327000000E-01
                       9.1712900000E-01  8.9806000000E-02  4.8327000000E-01
            znucl       31.00000   16.00000

 chkinp: Checking input parameters for consistency.

== DATASET  1 ==================================================================
-   mpi_nproc: 1, omp_nthreads: -1 (-1 if OMP is not activated)

--- !DatasetInfo
iteration_state: {dtset: 1, }
dimensions: {natom: 10, nkpt: 2, mband: 53, nsppol: 1, nspinor: 1, nspden: 1, mpw: 17409, }
cutoff_energies: {ecut:  40.0, pawecutdg:  -1.0, }
electrons: {nelect:   8.80000000E+01, charge:   0.00000000E+00, occopt:   1.00000000E+00, tsmear:   1.00000000E-02, }
meta: {optdriver: 1, rfelfd: 2, }
...

 Real(R)+Recip(G) space primitive vectors, cartesian coordinates (Bohr,Bohr^-1):
 R(1)= 10.8435067  0.0000000  5.4153979  G(1)=  0.0922211 -0.0378473  0.0000000
 R(2)=  4.1169312 10.0315759  5.4153979  G(2)=  0.0000000  0.0996852  0.0000000
 R(3)=  0.0000000  0.0000000 13.2399002  G(3)= -0.0377204 -0.0252930  0.0755293
 Unit cell volume ucvol=  1.4402027E+03 bohr^3
 Angles (23,13,12)=  6.34618200E+01  6.34618200E+01  5.97680616E+01 degrees

 getcut: wavevector=  0.0000  0.0000  0.0000  ngfft=  72  72  80
         ecut(hartree)=     40.000   => boxcut(ratio)=   2.08670

--- Pseudopotential description ------------------------------------------------
- pspini: atom type   1  psp file is /scratch/users/j/a/jabreu/pseudos/PBEsol/Ga.psp8
- pspatm: opening atomic psp file    /scratch/users/j/a/jabreu/pseudos/PBEsol/Ga.psp8
- Ga    ONCVPSP-3.3.0  r_core=   1.66857   1.75011   1.90252
- 31.00000  13.00000    180112                znucl, zion, pspdat
    8 -116133    2    4       600   0.00000   pspcod,pspxc,lmax,lloc,mmax,r2well
    5.99000000000000    5.00000000000000    0.00000000000000   rchrg,fchrg,qchrg
     nproj     2     2     2
     extension_switch     1
  pspatm : epsatm=   24.50969055
         --- l  ekb(1:nproj) -->
             0    7.053021    1.156713
             1    6.846070    1.293139
             2   -8.368667   -2.819170
 pspatm: atomic psp has been read  and splines computed

- pspini: atom type   2  psp file is /scratch/users/j/a/jabreu/pseudos/PBEsol/S.psp8
- pspatm: opening atomic psp file    /scratch/users/j/a/jabreu/pseudos/PBEsol/S.psp8
- S     ONCVPSP-3.3.0  r_core=   1.45376   1.45376   1.61851
- 16.00000   6.00000    180112                znucl, zion, pspdat
    8 -116133    2    4       600   0.00000   pspcod,pspxc,lmax,lloc,mmax,r2well
    5.99000000000000    6.00000000000000    0.00000000000000   rchrg,fchrg,qchrg
     nproj     2     2     2
     extension_switch     1
  pspatm : epsatm=    8.71840985
         --- l  ekb(1:nproj) -->
             0    6.834532    0.579453
             1    3.282851    0.896984
             2   -3.496974   -0.974265
 pspatm: atomic psp has been read  and splines computed

   1.32307315E+04                                ecore*ucvol(ha*bohr**3)

 ==>  initialize data related to q vector <==

 The list of irreducible perturbations for this q vector is:
    1)    idir= 1    ipert=  11
    2)    idir= 2    ipert=  11
    3)    idir= 3    ipert=  11

 Perturbation wavevector (in red.coord.)   0.000000  0.000000  0.000000
 Perturbation : derivative vs k along direction   1

 dfpt_looppert : COMMENT -
  In a d/dk calculation, iscf is set to -3 automatically.
 The set of symmetries contains only one element for this perturbation.
 symkpt : not enough symmetry to change the number of k points.

 Initialisation of the first-order wave-functions :
  ireadwf=   0

--- !BeginCycle
iteration_state: {dtset: 1, }
solver: {iscf: 7, nstep: 2000, nline: 4, wfoptalg: 0, }
tolerances: {tolwfr: 1.00E-20, }
...

     iter   2DEtotal(Ha)        deltaE(Ha) residm    vres2
-ETOT  1  -67.932189192629     -6.793E+01 7.156E-02 0.000E+00
 ETOT  2  -68.038067694232     -1.059E-01 4.757E-03 0.000E+00
 ETOT  3  -68.038831433667     -7.637E-04 1.840E-04 0.000E+00
 ETOT  4  -68.038839856406     -8.423E-06 4.475E-05 0.000E+00
 ETOT  5  -68.038839964595     -1.082E-07 2.250E-06 0.000E+00
 ETOT  6  -68.038839966111     -1.516E-09 6.327E-07 0.000E+00
 ETOT  7  -68.038839966134     -2.247E-11 3.449E-08 0.000E+00
 ETOT  8  -68.038839966134     -2.984E-13 1.049E-08 0.000E+00
 ETOT  9  -68.038839966134     -7.105E-14 5.875E-10 0.000E+00
 ETOT 10  -68.038839966134     -1.421E-14 1.867E-10 0.000E+00
 ETOT 11  -68.038839966134      1.421E-14 1.048E-11 0.000E+00
 ETOT 12  -68.038839966134      1.421E-14 3.428E-12 0.000E+00
 ETOT 13  -68.038839966134      0.000E+00 1.917E-13 0.000E+00
 ETOT 14  -68.038839966134      0.000E+00 6.404E-14 0.000E+00
 ETOT 15  -68.038839966134      1.421E-14 3.568E-15 0.000E+00
 ETOT 16  -68.038839966134      0.000E+00 1.210E-15 0.000E+00
 ETOT 17  -68.038839966134      0.000E+00 6.724E-17 0.000E+00
 ETOT 18  -68.038839966134      0.000E+00 2.307E-17 0.000E+00
 ETOT 19  -68.038839966134      0.000E+00 1.280E-18 0.000E+00
 ETOT 20  -68.038839966134      0.000E+00 4.428E-19 0.000E+00
 ETOT 21  -68.038839966134      1.421E-14 2.455E-20 0.000E+00
 ETOT 22  -68.038839966134     -2.842E-14 9.871E-21 0.000E+00

 At SCF step   22   max residual=  9.87E-21 < tolwfr=  1.00E-20 =>converged.

 ----iterations are completed or convergence reached----

 dfpt_looppert: DFPT cycle converged with prtwf=-1. Will skip output of the 1st-order WFK file.
 dfpt_looppert : ek2=    6.9045293443E+01
          f-sum rule ratio=    1.1038904041E+00
 prteigrs : about to open file /scratch/users/j/a/jabreu/flow_simple_10atoms/flow/w482/t1/tmpdata/tmp_1WF1_EIG
 Expectation of eigenvalue derivatives (hartree) for nkpt=   2  k points:
  (in case of degenerate eigenvalues, averaged derivative)
 kpt#   1, nband= 53, wtk=  0.50000, kpt=  0.0329 -0.0329  0.0000 (reduced coord)
   0.00011   -0.00216    0.00196    0.00082   -0.00067    0.00016   -0.00317    0.00037
   0.00029   -0.00039   -0.00014   -0.00032   -0.00000   -0.00006   -0.00104    0.00061
   0.00005    0.00054   -0.00042    0.00050    0.01410    0.00210   -0.03118    0.02060
  -0.01850   -0.00110   -0.01085    0.02614    0.01297   -0.06589    0.01511    0.10482
  -0.06412    0.01542    0.09372   -0.05136    0.05219   -0.01633   -0.02459   -0.04167
  -0.03328   -0.01106   -0.05818   -0.00005    0.06182    0.05612   -0.03432    0.01884
   0.00927    0.00691   -0.01760    0.02924   -0.01756
 prteigrs : prtvol=0 or 1, do not print more k-points.

 Eight components of 2nd-order total energy (hartree) are
 1,2,3: 0th-order hamiltonian combined with 1st-order wavefunctions
     kin0=   7.95720474E+01 eigvalue=   2.97558384E+00  local=  -3.46681255E+01
 4,5,6: 1st-order hamiltonian combined with 1st and 0th-order wfs
     kin1=  -7.62184369E+01  Hartree=   0.00000000E+00     xc=   0.00000000E+00
 7,8,9: eventually, occupation + non-local contributions
    edocc=   1.13007997E+01     enl0=   8.85853452E+00   enl1=  -5.98592431E+01
 1-9 gives the relaxation energy (to be shifted if some occ is /=2.0)
   erelax=  -6.80388400E+01
  No Ewald or frozen-wf contrib.: the relaxation energy is the total one
 2DEtotal=   -0.6803883997E+02 Ha. Also 2DEtotal=   -0.185143099171E+04 eV
    (  non-var. 2DEtotal :   -6.8038839966E+01 Ha)

 Perturbation wavevector (in red.coord.)   0.000000  0.000000  0.000000
 Perturbation : derivative vs k along direction   2
 The set of symmetries contains only one element for this perturbation.
 symkpt : not enough symmetry to change the number of k points.

[...]

 Perturbation wavevector (in red.coord.)   0.000000  0.000000  0.000000
 Perturbation : derivative vs k along direction   3
 The set of symmetries contains only one element for this perturbation.
 symkpt : not enough symmetry to change the number of k points.

 Initialisation of the first-order wave-functions :
  ireadwf=   0

--- !BeginCycle
iteration_state: {dtset: 1, }
solver: {iscf: 7, nstep: 2000, nline: 4, wfoptalg: 0, }
tolerances: {tolwfr: 1.00E-20, }
...

     iter   2DEtotal(Ha)        deltaE(Ha) residm    vres2
-ETOT  1  -54.189397576702     -5.419E+01 9.514E-02 0.000E+00
 ETOT  2  -54.264439377383     -7.504E-02 4.292E-03 0.000E+00
 ETOT  3  -54.264950264092     -5.109E-04 2.886E-04 0.000E+00
 ETOT  4  -54.264956363402     -6.099E-06 2.870E-05 0.000E+00
 ETOT  5  -54.264956453697     -9.030E-08 3.026E-06 0.000E+00
 ETOT  6  -54.264956455205     -1.507E-09 6.870E-07 0.000E+00
 ETOT  7  -54.264956455231     -2.689E-11 7.055E-08 0.000E+00
 ETOT  8  -54.264956455232     -5.329E-13 1.657E-08 0.000E+00
 ETOT  9  -54.264956455232      3.553E-14 1.676E-09 0.000E+00
 ETOT 10  -54.264956455232     -3.553E-14 4.006E-10 0.000E+00
 ETOT 11  -54.264956455232      7.105E-15 4.010E-11 0.000E+00
 ETOT 12  -54.264956455232      1.421E-14 9.700E-12 0.000E+00
 ETOT 13  -54.264956455232     -4.263E-14 9.643E-13 0.000E+00
 ETOT 14  -54.264956455232      1.421E-14 2.353E-13 0.000E+00
 ETOT 15  -54.264956455232      1.421E-14 2.327E-14 0.000E+00
 ETOT 16  -54.264956455232      1.421E-14 5.715E-15 0.000E+00
 ETOT 17  -54.264956455232     -2.842E-14 5.628E-16 0.000E+00
 ETOT 18  -54.264956455232      0.000E+00 1.390E-16 0.000E+00
 ETOT 19  -54.264956455232      0.000E+00 1.364E-17 0.000E+00
 ETOT 20  -54.264956455232      1.421E-14 3.384E-18 0.000E+00
 ETOT 21  -54.264956455232      0.000E+00 3.313E-19 0.000E+00
 ETOT 22  -54.264956455232      0.000E+00 8.244E-20 0.000E+00
 ETOT 23  -54.264956455232     -1.421E-14 9.947E-21 0.000E+00

 At SCF step   23   max residual=  9.95E-21 < tolwfr=  1.00E-20 =>converged.

 ----iterations are completed or convergence reached----

 dfpt_looppert: DFPT cycle converged with prtwf=-1. Will skip output of the 1st-order WFK file.
 dfpt_looppert : ek2=    5.3968306389E+01
          f-sum rule ratio=    1.1450322266E+00
 prteigrs : about to open file /scratch/users/j/a/jabreu/flow_simple_10atoms/flow/w482/t1/tmpdata/tmp_1WF1_EIG
 Expectation of eigenvalue derivatives (hartree) for nkpt=   2  k points:
  (in case of degenerate eigenvalues, averaged derivative)
 kpt#   1, nband= 53, wtk=  0.50000, kpt=  0.0329 -0.0329  0.0000 (reduced coord)
  -0.00000    0.00000   -0.00000   -0.00000    0.00000   -0.00000   -0.00000    0.00000
  -0.00000   -0.00000    0.00000   -0.00000   -0.00000    0.00000    0.00000   -0.00000
   0.00000    0.00000   -0.00000    0.00000    0.00000   -0.00000   -0.00000    0.00000
  -0.00000    0.00000   -0.00000    0.00000    0.00000   -0.00000    0.00000   -0.00000
   0.00000   -0.00000    0.00000   -0.00000    0.00000    0.00000   -0.00000    0.00000
   0.00000    0.00000    0.00000   -0.00000    0.00000   -0.00000   -0.00000   -0.00000
  -0.00000   -0.00000   -0.00000   -0.00001   -0.00000
 prteigrs : prtvol=0 or 1, do not print more k-points.

 Eight components of 2nd-order total energy (hartree) are
 1,2,3: 0th-order hamiltonian combined with 1st-order wavefunctions
     kin0=   5.86500911E+01 eigvalue=   2.34316825E+00  local=  -2.46801155E+01
 4,5,6: 1st-order hamiltonian combined with 1st and 0th-order wfs
     kin1=  -6.17954500E+01  Hartree=   0.00000000E+00     xc=   0.00000000E+00
 7,8,9: eventually, occupation + non-local contributions
    edocc=   1.11202985E+01     enl0=   6.83151408E+00   enl1=  -4.67344629E+01
 1-9 gives the relaxation energy (to be shifted if some occ is /=2.0)
   erelax=  -5.42649565E+01
  No Ewald or frozen-wf contrib.: the relaxation energy is the total one
 2DEtotal=   -0.5426495646E+02 Ha. Also 2DEtotal=   -0.147662456025E+04 eV
    (  non-var. 2DEtotal :   -5.4264956455E+01 Ha)

 CALCULATION OF EFFECTIVE MASSES
 NOTE : Additional infos (eff. mass eigenvalues, eigenvectors and, if degenerate, average mass) are available in stdout.

 K-point ( 0.033,-0.033, 0.000) | band =    44
 Effective mass tensor:
            -15.4565505264             20.4059261222             -0.1547440476
             20.4059261222            -32.2053455573             -0.1037454834
             -0.1547440476             -0.1037454834             -0.3166835918
 Effective mass tensor eigenvalues:
            -45.8884264709             -1.7969178242             -0.2932353802
 Angular average effective mass 1/(<1/m>)=  -0.7521567807
 Angular average effective mass for Frohlich model (<m**0.5>)**2=  -1.3836866187
 Effective masses along directions: (cart. coord. / red. coord. -> eff. mass)
    1:   1.000000  0.000000  0.000000 /   0.934887  0.354946  0.000000 ->  -2.3733008147
    2:   0.000000  1.000000  0.000000 /   0.000000  1.000000  0.000000 ->  -4.9640872942
    3:   0.000000  0.000000  1.000000 /   0.354055  0.354055  0.865615 ->  -0.2971124386
    4:   0.577350  0.577350  0.577350 /   0.566959  0.682206  0.461684 ->  -0.8466851302
    5:   0.000000  0.707107  0.707107 /   0.257226  0.733717  0.628883 ->  -0.6302484532
    6:   0.707107  0.000000  0.707107 /   0.705901  0.413858  0.574827 ->  -0.6250470365
    7:   0.707107  0.707107  0.000000 /   0.608301  0.793706  0.000000 ->  -1.7261481774

 K-point ( 0.000, 0.000, 0.000) | band =    45
 Effective mass tensor:
              0.2447003424             -0.0132727951              0.0266669549
             -0.0132727951              0.2556013393              0.0178875233
              0.0266669549              0.0178875233              0.2042334486
 Effective mass tensor eigenvalues:
              0.1842375146              0.2557984261              0.2644991896
 Angular average effective mass 1/(<1/m>)=   0.2286962866
 Angular average effective mass for Frohlich model (<m**0.5>)**2=   0.2306276785
 Effective masses along directions: (cart. coord. / red. coord. -> eff. mass)
    1:   1.000000  0.000000  0.000000 /   0.934887  0.354946  0.000000 ->   0.2402594032
    2:   0.000000  1.000000  0.000000 /   0.000000  1.000000  0.000000 ->   0.2530247204
    3:   0.000000  0.000000  1.000000 /   0.354055  0.354055  0.865615 ->   0.1998607639
    4:   0.577350  0.577350  0.577350 /   0.566959  0.682206  0.461684 ->   0.2555690741
    5:   0.000000  0.707107  0.707107 /   0.257226  0.733717  0.628883 ->   0.2440038982
    6:   0.707107  0.000000  0.707107 /   0.705901  0.413858  0.574827 ->   0.2489438859
    7:   0.707107  0.707107  0.000000 /   0.608301  0.793706  0.000000 ->   0.2318621640

 END OF EFFECTIVE MASSES SECTION

 ---- first-order wavefunction calculations are completed ----

 Total localisation tensor (bohr^2) in cartesian coordinates
  WARNING : still subject to testing - especially symmetries.
      direction              matrix element
   alpha     beta       real part   imaginary part
     1        1       2.0783936861    0.0000000000
     1        2       0.6380462437    0.0000000000
     1        3       1.2516457857    0.0000000000
     2        1       0.6380462437    0.0000000000
     2        2       1.5547039797    0.0000000000
     2        3       0.8392839610    0.0000000000
     3        1       1.2516457857    0.0000000000
     3        2       0.8392839610    0.0000000000
     3        3       3.2693351722    0.0000000000

 respfn : d/dk was computed, but no 2DTE, so no DDB output.

== END DATASET(S) ==============================================================

 -outvars: echo values of variables after computation  --------
            acell      1.0000000000E+00  1.0000000000E+00  1.0000000000E+00 Bohr
              amu      6.97230000E+01  3.20660000E+01
             ecut      4.00000000E+01 Hartree
           etotal     -5.4264956455E+01
            fcart      0.0000000000E+00  0.0000000000E+00  0.0000000000E+00
                       0.0000000000E+00  0.0000000000E+00  0.0000000000E+00
                       0.0000000000E+00  0.0000000000E+00  0.0000000000E+00
                       0.0000000000E+00  0.0000000000E+00  0.0000000000E+00
                       0.0000000000E+00  0.0000000000E+00  0.0000000000E+00
                       0.0000000000E+00  0.0000000000E+00  0.0000000000E+00
                       0.0000000000E+00  0.0000000000E+00  0.0000000000E+00
                       0.0000000000E+00  0.0000000000E+00  0.0000000000E+00
                       0.0000000000E+00  0.0000000000E+00  0.0000000000E+00
                       0.0000000000E+00  0.0000000000E+00  0.0000000000E+00
-          fftalg         512
           irdden           1
           irdwfk           1
           istwfk        0    1
              ixc     -116133
              kpt      3.29460054E-02 -3.29460054E-02  0.00000000E+00
                       0.00000000E+00  0.00000000E+00  0.00000000E+00
           kptopt           0
P           mkmem           2
P          mkqmem           2
P          mk1mem           2
            natom          10
            nband          53
           nbdbuf           4
            ngfft          72      72      80
             nkpt           2
            nstep        2000
             nsym           2
           ntypat           2
              occ      2.000000  2.000000  2.000000  2.000000  2.000000  2.000000
                       2.000000  2.000000  2.000000  2.000000  2.000000  2.000000
                       2.000000  2.000000  2.000000  2.000000  2.000000  2.000000
                       2.000000  2.000000  2.000000  2.000000  2.000000  2.000000
                       2.000000  2.000000  2.000000  2.000000  2.000000  2.000000
                       2.000000  2.000000  2.000000  2.000000  2.000000  2.000000
                       2.000000  2.000000  2.000000  2.000000  2.000000  2.000000
                       2.000000  2.000000  0.000000  0.000000  0.000000  0.000000
                       0.000000  0.000000  0.000000  0.000000  0.000000
        optdriver           1
            prtwf          -1
            rfdir           1       1       1
           rfelfd           2
            rprim      1.0843506675E+01  0.0000000000E+00  5.4153979452E+00
                       4.1169311908E+00  1.0031575877E+01  5.4153979452E+00
                       0.0000000000E+00  0.0000000000E+00  1.3239900161E+01
          spgroup           9
           strten      0.0000000000E+00  0.0000000000E+00  0.0000000000E+00
                       0.0000000000E+00  0.0000000000E+00  0.0000000000E+00
           symrel      1  0  0   0  1  0   0  0  1       0  1  0   1  0  0   0  0  1
            tnons      0.0000000  0.0000000  0.0000000    -0.0000000  0.0000000  0.5000000
           tolwfr      1.00000000E-20
            typat      1  1  1  1  2  2  2  2  2  2
           useylm           1
              wtk        0.50000    0.50000
           xangst      6.5498419341E+00  3.8772669799E+00  8.9087711273E+00
                       6.0737129080E+00  4.5873347498E+00  5.4056444227E+00
                       3.9576704465E+00  1.9098801009E+00  7.0180217146E+00
                       3.2694740840E+00  2.9362112624E+00  3.5148950100E+00
                       4.8762742643E+00  4.0130313897E+00  7.3177649343E+00
                       5.5639117774E+00  2.9875336598E+00  3.8146382296E+00
                       2.2556767781E+00  2.1545373880E+00  5.4424748381E+00
                       2.8496198046E+00  1.2687695034E+00  1.9393481334E+00
                       2.5133636371E+00  4.8685621647E+00  9.7746176232E+00
                       5.4582615840E+00  4.7673347344E-01  6.2714909185E+00
            xcart      1.2377407469E+01  7.3269727362E+00  1.6835137611E+01
                       1.1477654006E+01  8.6688063570E+00  1.0215187531E+01
                       7.4789132682E+00  3.6091503373E+00  1.3262139035E+01
                       6.1784106173E+00  5.5486351542E+00  6.6421889547E+00
                       9.2148229084E+00  7.5835302892E+00  1.3828571631E+01
                       1.0514269487E+01  5.6456204298E+00  7.2086215499E+00
                       4.2626113549E+00  4.0714856063E+00  1.0284786929E+01
                       5.3850010135E+00  2.3976268871E+00  3.6648368485E+00
                       4.7495689465E+00  9.2002491522E+00  1.8471350362E+01
                       1.0314619555E+01  9.0089570318E-01  1.1851400281E+01
             xred      8.6415200000E-01  7.3039100000E-01  6.1934400000E-01
                       7.3039100000E-01  8.6415200000E-01  1.1934400000E-01
                       5.5311700000E-01  3.5977900000E-01  6.2828600000E-01
                       3.5977900000E-01  5.5311700000E-01  1.2828600000E-01
                       5.6278500000E-01  7.5596600000E-01  5.0506500000E-01
                       7.5596600000E-01  5.6278500000E-01  5.0650000000E-03
                       2.3900800000E-01  4.0586700000E-01  5.1303500000E-01
                       4.0586700000E-01  2.3900800000E-01  1.3035000000E-02
                       8.9806000000E-02  9.1712900000E-01  9.8327000000E-01
                       9.1712900000E-01  8.9806000000E-02  4.8327000000E-01
            znucl       31.00000   16.00000

- Timing analysis has been suppressed with timopt=0

 Suggested references for the acknowledgment of ABINIT usage.

 Calculation completed.
.Delivered   2 WARNINGs and   5 COMMENTs to log file.