.Version 9.7.2 of ABINIT

 ABINIT is a project of the Universite Catholique de Louvain,
 Corning Inc. and other collaborators, see ~abinit/doc/developers/contributors.txt .
 acknowledgments of the ABINIT effort.

.Starting date : Wed  1 Dec 2021.
- ( at 21h39 )

- input  file    -> /scratch/users/j/a/jabreu/flow_simple_remain_atoms/flow/w229/t1/run.abi
- output file    -> /scratch/users/j/a/jabreu/flow_simple_remain_atoms/flow/w229/t1/run.abo
- root for input  files -> /scratch/users/j/a/jabreu/flow_simple_remain_atoms/flow/w229/t1/indata/in
- root for output files -> /scratch/users/j/a/jabreu/flow_simple_remain_atoms/flow/w229/t1/outdata/out

 Symmetries : space group Pm -3 m (#221); Bravais cP (primitive cubic)
     intxc =       0      iscf =       7    lmnmax =      32     lnmax =       8
     mgfft =      64  mpssoang =       4    mqgrid =    3161     natom =       5
  nloc_mem =       1    nspden =       1   nspinor =       1    nsppol =       1
      nsym =      48    n1xccc =    2501    ntypat =       3    occopt =       1
   xclevel =       2
-    mband =          34        mffmem =           1         mkmem =           2
-   mkqmem =           2        mk1mem =           2           mpw =       16560
      nfft =      262144          nkpt =           2
  Rough estimation (10% accuracy) of disk space for files :

------------- Echo of variables that govern the present computation ------------
-
- outvars: echo of selected default values
-   iomode0 =  0 , fftalg0 =512 , wfoptalg0 =  0
-
- outvars: echo of global parameters not present in the input file
-  max_nthreads =    0
-
 -outvars: echo values of preprocessed input variables --------
            acell      1.0000000000E+00  1.0000000000E+00  1.0000000000E+00 Bohr
              amu      1.32905430E+02  1.12411000E+02  3.54527000E+01
             ecut      5.10000000E+01 Hartree
-          fftalg         512
           irdden           1
           irdwfk           1
           istwfk        1    1
              ixc     -116133
              kpt      5.00000000E-01  5.00000000E-01  5.00000000E-01
                       0.00000000E+00  0.00000000E+00  0.00000000E+00
           kptopt           0
P           mkmem           2
P          mkqmem           2
P          mk1mem           2
            natom           5
            nband          34
           nbdbuf           4
            ngfft          64      64      64
             nkpt           2
            nstep        2000
             nsym          48
           ntypat           3
              occ      2.000000  2.000000  2.000000  2.000000  2.000000  2.000000
                       2.000000  2.000000  2.000000  2.000000  2.000000  2.000000
                       2.000000  2.000000  2.000000  2.000000  2.000000  2.000000
                       2.000000  2.000000  2.000000  2.000000  2.000000  2.000000
                       2.000000  0.000000  0.000000  0.000000  0.000000  0.000000
                       0.000000  0.000000  0.000000  0.000000
        optdriver           1
            prtwf          -1
            rfdir           1       1       1
           rfelfd           2
            rprim      9.8322210647E+00  0.0000000000E+00  0.0000000000E+00
                       0.0000000000E+00  9.8322210647E+00  0.0000000000E+00
                       0.0000000000E+00  0.0000000000E+00  9.8322210647E+00
          spgroup         221
           symrel      1  0  0   0  1  0   0  0  1      -1  0  0   0 -1  0   0  0 -1
                      -1  0  0   0  1  0   0  0 -1       1  0  0   0 -1  0   0  0  1
                      -1  0  0   0 -1  0   0  0  1       1  0  0   0  1  0   0  0 -1
                       1  0  0   0 -1  0   0  0 -1      -1  0  0   0  1  0   0  0  1
                       0  1  0   1  0  0   0  0  1       0 -1  0  -1  0  0   0  0 -1
                       0 -1  0   1  0  0   0  0 -1       0  1  0  -1  0  0   0  0  1
                       0 -1  0  -1  0  0   0  0  1       0  1  0   1  0  0   0  0 -1
                       0  1  0  -1  0  0   0  0 -1       0 -1  0   1  0  0   0  0  1
                       0  0  1   1  0  0   0  1  0       0  0 -1  -1  0  0   0 -1  0
                       0  0 -1   1  0  0   0 -1  0       0  0  1  -1  0  0   0  1  0
                       0  0 -1  -1  0  0   0  1  0       0  0  1   1  0  0   0 -1  0
                       0  0  1  -1  0  0   0 -1  0       0  0 -1   1  0  0   0  1  0
                       1  0  0   0  0  1   0  1  0      -1  0  0   0  0 -1   0 -1  0
                      -1  0  0   0  0  1   0 -1  0       1  0  0   0  0 -1   0  1  0
                      -1  0  0   0  0 -1   0  1  0       1  0  0   0  0  1   0 -1  0
                       1  0  0   0  0 -1   0 -1  0      -1  0  0   0  0  1   0  1  0
                       0  1  0   0  0  1   1  0  0       0 -1  0   0  0 -1  -1  0  0
                       0 -1  0   0  0  1  -1  0  0       0  1  0   0  0 -1   1  0  0
                       0 -1  0   0  0 -1   1  0  0       0  1  0   0  0  1  -1  0  0
                       0  1  0   0  0 -1  -1  0  0       0 -1  0   0  0  1   1  0  0
                       0  0  1   0  1  0   1  0  0       0  0 -1   0 -1  0  -1  0  0
                       0  0 -1   0  1  0  -1  0  0       0  0  1   0 -1  0   1  0  0
                       0  0 -1   0 -1  0   1  0  0       0  0  1   0  1  0  -1  0  0
                       0  0  1   0 -1  0  -1  0  0       0  0 -1   0  1  0   1  0  0
           tolwfr      1.00000000E-20
            typat      1  2  3  3  3
           useylm           1
              wtk        0.50000    0.50000
           xangst      0.0000000000E+00  0.0000000000E+00  0.0000000000E+00
                       2.6014936486E+00  2.6014936486E+00  2.6014936486E+00
                       0.0000000000E+00  2.6014936486E+00  2.6014936486E+00
                       2.6014936486E+00  2.6014936486E+00  0.0000000000E+00
                       2.6014936486E+00  0.0000000000E+00  2.6014936486E+00
            xcart      0.0000000000E+00  0.0000000000E+00  0.0000000000E+00
                       4.9161105323E+00  4.9161105323E+00  4.9161105323E+00
                       0.0000000000E+00  4.9161105323E+00  4.9161105323E+00
                       4.9161105323E+00  4.9161105323E+00  0.0000000000E+00
                       4.9161105323E+00  0.0000000000E+00  4.9161105323E+00
             xred      0.0000000000E+00  0.0000000000E+00  0.0000000000E+00
                       5.0000000000E-01  5.0000000000E-01  5.0000000000E-01
                       0.0000000000E+00  5.0000000000E-01  5.0000000000E-01
                       5.0000000000E-01  5.0000000000E-01  0.0000000000E+00
                       5.0000000000E-01  0.0000000000E+00  5.0000000000E-01
            znucl       55.00000   48.00000   17.00000

 chkinp: Checking input parameters for consistency.

== DATASET  1 ==================================================================
-   mpi_nproc: 1, omp_nthreads: -1 (-1 if OMP is not activated)

--- !DatasetInfo
iteration_state: {dtset: 1, }
dimensions: {natom: 5, nkpt: 2, mband: 34, nsppol: 1, nspinor: 1, nspden: 1, mpw: 16560, }
cutoff_energies: {ecut:  51.0, pawecutdg:  -1.0, }
electrons: {nelect:   5.00000000E+01, charge:   0.00000000E+00, occopt:   1.00000000E+00, tsmear:   1.00000000E-02, }
meta: {optdriver: 1, rfelfd: 2, }
...

 Real(R)+Recip(G) space primitive vectors, cartesian coordinates (Bohr,Bohr^-1):
 R(1)=  9.8322211  0.0000000  0.0000000  G(1)=  0.1017064  0.0000000  0.0000000
 R(2)=  0.0000000  9.8322211  0.0000000  G(2)=  0.0000000  0.1017064  0.0000000
 R(3)=  0.0000000  0.0000000  9.8322211  G(3)=  0.0000000  0.0000000  0.1017064
 Unit cell volume ucvol=  9.5050609E+02 bohr^3
 Angles (23,13,12)=  9.00000000E+01  9.00000000E+01  9.00000000E+01 degrees

 getcut: wavevector=  0.0000  0.0000  0.0000  ngfft=  64  64  64
         ecut(hartree)=     51.000   => boxcut(ratio)=   2.02478

--- Pseudopotential description ------------------------------------------------
- pspini: atom type   1  psp file is /scratch/users/j/a/jabreu/pseudos/PBEsol/Cs.psp8
- pspatm: opening atomic psp file    /scratch/users/j/a/jabreu/pseudos/PBEsol/Cs.psp8
- Cs    ONCVPSP-3.3.0  r_core=   2.27353   1.85623   2.01788   1.90105
- 55.00000   9.00000    180112                znucl, zion, pspdat
    8 -116133    3    4       600   0.00000   pspcod,pspxc,lmax,lloc,mmax,r2well
    5.99000000000000    5.00000000000000    0.00000000000000   rchrg,fchrg,qchrg
     nproj     2     2     2     2
     extension_switch     1
  pspatm : epsatm=   22.12462445
         --- l  ekb(1:nproj) -->
             0    6.214110    0.767882
             1    6.311966    0.793598
             2    3.769790    0.913105
             3   -9.247129   -2.432478
 pspatm: atomic psp has been read  and splines computed

- pspini: atom type   2  psp file is /scratch/users/j/a/jabreu/pseudos/PBEsol/Cd.psp8
- pspatm: opening atomic psp file    /scratch/users/j/a/jabreu/pseudos/PBEsol/Cd.psp8
- Cd    ONCVPSP-3.3.0  r_core=   1.25838   1.30423   1.35174
- 48.00000  20.00000    180112                znucl, zion, pspdat
    8 -116133    2    4       600   0.00000   pspcod,pspxc,lmax,lloc,mmax,r2well
    5.99000000000000    6.00000000000000    0.00000000000000   rchrg,fchrg,qchrg
     nproj     2     2     2
     extension_switch     1
  pspatm : epsatm=   23.26728021
         --- l  ekb(1:nproj) -->
             0   63.701523    3.700425
             1    8.703569    1.290373
             2    0.983656   -0.721725
 pspatm: atomic psp has been read  and splines computed

- pspini: atom type   3  psp file is /scratch/users/j/a/jabreu/pseudos/PBEsol/Cl.psp8
- pspatm: opening atomic psp file    /scratch/users/j/a/jabreu/pseudos/PBEsol/Cl.psp8
- Cl    ONCVPSP-3.3.0  r_core=   1.56009   1.35202   1.75774
- 17.00000   7.00000    180112                znucl, zion, pspdat
    8 -116133    2    4       600   0.00000   pspcod,pspxc,lmax,lloc,mmax,r2well
    5.99000000000000    8.00000000000000    0.00000000000000   rchrg,fchrg,qchrg
     nproj     2     2     2
     extension_switch     1
  pspatm : epsatm=    8.95520722
         --- l  ekb(1:nproj) -->
             0    8.193503    0.707970
             1    3.869736    1.114731
             2   -2.915303   -0.810552
 pspatm: atomic psp has been read  and splines computed

   3.61287632E+03                                ecore*ucvol(ha*bohr**3)

 ==>  initialize data related to q vector <==

 The list of irreducible perturbations for this q vector is:
    1)    idir= 1    ipert=   6
    2)    idir= 2    ipert=   6
    3)    idir= 3    ipert=   6

 Perturbation wavevector (in red.coord.)   0.000000  0.000000  0.000000
 Perturbation : derivative vs k along direction   1

 dfpt_looppert : COMMENT -
  In a d/dk calculation, iscf is set to -3 automatically.
 The set of symmetries contains only one element for this perturbation.
 symkpt : not enough symmetry to change the number of k points.

 Initialisation of the first-order wave-functions :
  ireadwf=   0

--- !BeginCycle
iteration_state: {dtset: 1, }
solver: {iscf: 7, nstep: 2000, nline: 4, wfoptalg: 0, }
tolerances: {tolwfr: 1.00E-20, }
...

[...]
  -0.00000   -0.00000   -0.00000   -0.00000    0.00000    0.00000    0.00000   -0.00000
  -0.00000   -0.00000   -0.00000   -0.00000    0.00000    0.00000   -0.00000   -0.00000
  -0.00000   -0.00000
 prteigrs : prtvol=0 or 1, do not print more k-points.

 Eight components of 2nd-order total energy (hartree) are
 1,2,3: 0th-order hamiltonian combined with 1st-order wavefunctions
     kin0=   2.50198612E+01 eigvalue=   8.73749556E-01  local=  -1.37082519E+01
 4,5,6: 1st-order hamiltonian combined with 1st and 0th-order wfs
     kin1=  -4.73254761E+01  Hartree=   0.00000000E+00     xc=   0.00000000E+00
 7,8,9: eventually, occupation + non-local contributions
    edocc=   9.61926423E+00     enl0=   1.71084769E+00   enl1=   2.94534668E-01
 1-9 gives the relaxation energy (to be shifted if some occ is /=2.0)
   erelax=  -2.35154707E+01
  No Ewald or frozen-wf contrib.: the relaxation energy is the total one
 2DEtotal=   -0.2351547071E+02 Ha. Also 2DEtotal=   -0.639888500167E+03 eV
    (  non-var. 2DEtotal :   -2.3515470711E+01 Ha)

 Perturbation wavevector (in red.coord.)   0.000000  0.000000  0.000000
 Perturbation : derivative vs k along direction   2
 The set of symmetries contains only one element for this perturbation.
 symkpt : not enough symmetry to change the number of k points.

[...]

 Perturbation wavevector (in red.coord.)   0.000000  0.000000  0.000000
 Perturbation : derivative vs k along direction   3
 The set of symmetries contains only one element for this perturbation.
 symkpt : not enough symmetry to change the number of k points.

 Initialisation of the first-order wave-functions :
  ireadwf=   0

--- !BeginCycle
iteration_state: {dtset: 1, }
solver: {iscf: 7, nstep: 2000, nline: 4, wfoptalg: 0, }
tolerances: {tolwfr: 1.00E-20, }
...

     iter   2DEtotal(Ha)        deltaE(Ha) residm    vres2
-ETOT  1  -23.495100916092     -2.350E+01 5.624E-02 0.000E+00
 ETOT  2  -23.515371597019     -2.027E-02 8.255E-04 0.000E+00
 ETOT  3  -23.515469622624     -9.803E-05 5.702E-06 0.000E+00
 ETOT  4  -23.515470693869     -1.071E-06 6.108E-07 0.000E+00
 ETOT  5  -23.515470717055     -2.319E-08 1.626E-07 0.000E+00
 ETOT  6  -23.515470718220     -1.165E-09 1.544E-08 0.000E+00
 ETOT  7  -23.515470718313     -9.301E-11 4.679E-09 0.000E+00
 ETOT  8  -23.515470718322     -8.729E-12 1.017E-09 0.000E+00
 ETOT  9  -23.515470718323     -8.065E-13 1.959E-10 0.000E+00
 ETOT 10  -23.515470718323     -6.750E-14 4.870E-11 0.000E+00
 ETOT 11  -23.515470718323     -2.842E-14 1.124E-11 0.000E+00
 ETOT 12  -23.515470718323      3.553E-15 2.720E-12 0.000E+00
 ETOT 13  -23.515470718323      2.487E-14 6.514E-13 0.000E+00
 ETOT 14  -23.515470718323     -3.197E-14 1.558E-13 0.000E+00
 ETOT 15  -23.515470718323      0.000E+00 3.798E-14 0.000E+00
 ETOT 16  -23.515470718323     -3.553E-15 8.985E-15 0.000E+00
 ETOT 17  -23.515470718323      1.066E-14 2.228E-15 0.000E+00
 ETOT 18  -23.515470718323     -7.105E-15 5.209E-16 0.000E+00
 ETOT 19  -23.515470718323      7.105E-15 1.313E-16 0.000E+00
 ETOT 20  -23.515470718323      0.000E+00 3.035E-17 0.000E+00
 ETOT 21  -23.515470718323      0.000E+00 7.777E-18 0.000E+00
 ETOT 22  -23.515470718323     -3.553E-15 1.777E-18 0.000E+00
 ETOT 23  -23.515470718323      0.000E+00 4.621E-19 0.000E+00
 ETOT 24  -23.515470718323      1.066E-14 1.045E-19 0.000E+00
 ETOT 25  -23.515470718323     -1.066E-14 2.753E-20 0.000E+00
 ETOT 26  -23.515470718323      3.553E-15 9.988E-21 0.000E+00

 At SCF step   26   max residual=  9.99E-21 < tolwfr=  1.00E-20 =>converged.

 ----iterations are completed or convergence reached----

 dfpt_looppert: DFPT cycle converged with prtwf=-1. Will skip output of the 1st-order WFK file.
 dfpt_looppert : ek2=    4.0837248011E+01
          f-sum rule ratio=    1.1588801500E+00
 prteigrs : about to open file /scratch/users/j/a/jabreu/flow_simple_remain_atoms/flow/w229/t1/tmpdata/tmp_1WF1_EIG
 Expectation of eigenvalue derivatives (hartree) for nkpt=   2  k points:
  (in case of degenerate eigenvalues, averaged derivative)
 kpt#   1, nband= 34, wtk=  0.50000, kpt=  0.5000  0.5000  0.5000 (reduced coord)
   0.00000    0.00000    0.00000    0.00000    0.00000   -0.00000   -0.00000   -0.00000
  -0.00000   -0.00000   -0.00000   -0.00000   -0.00000   -0.00000   -0.00000   -0.00000
  -0.00000    0.00000    0.00000    0.00000    0.00000    0.00000    0.00000    0.00000
   0.00000   -0.00000   -0.00000   -0.00000   -0.00000    0.00000   -0.00000   -0.00000
  -0.00000   -0.00000
 prteigrs : prtvol=0 or 1, do not print more k-points.

 Eight components of 2nd-order total energy (hartree) are
 1,2,3: 0th-order hamiltonian combined with 1st-order wavefunctions
     kin0=   2.44714711E+01 eigvalue=   8.74373817E-01  local=  -1.33880899E+01
 4,5,6: 1st-order hamiltonian combined with 1st and 0th-order wfs
     kin1=  -4.73254761E+01  Hartree=   0.00000000E+00     xc=   0.00000000E+00
 7,8,9: eventually, occupation + non-local contributions
    edocc=   9.86692524E+00     enl0=   1.69079049E+00   enl1=   2.94534662E-01
 1-9 gives the relaxation energy (to be shifted if some occ is /=2.0)
   erelax=  -2.35154707E+01
  No Ewald or frozen-wf contrib.: the relaxation energy is the total one
 2DEtotal=   -0.2351547072E+02 Ha. Also 2DEtotal=   -0.639888500365E+03 eV
    (  non-var. 2DEtotal :   -2.3515470718E+01 Ha)

 CALCULATION OF EFFECTIVE MASSES
 NOTE : Additional infos (eff. mass eigenvalues, eigenvectors and, if degenerate, average mass) are available in stdout.

 COMMENTS:
 - At k-point ( 0.500, 0.500, 0.500), bands    24 through    25
   are DEGENERATE (effective mass tensor is therefore not defined).
   See Section IIIB Eqs. (67)-(70) and Appendix E of PRB 93 205147 (2016).
 - Angular average effective mass for Frohlich model is to be averaged over degenerate bands. See later.
 - Associated theta integrals calculated with ntheta=   1000 points.

 K-point ( 0.500, 0.500, 0.500) | band =    24
 Transport equivalent effective mass tensor:
             -0.4549301576              0.0000000000              0.0000000000
              0.0000000000             -0.4549305458             -0.0000000000
              0.0000000000             -0.0000000000             -0.4549265826
 Transport equivalent effective mass tensor eigenvalues:
             -0.4549305458             -0.4549301576             -0.4549265826
 Angular average effective mass 1/(<1/m>)=  -0.3538765199
 Angular average effective mass for Frohlich model (<m**0.5>)**2=  -0.3590976076
 Effective masses along directions: (cart. coord. / red. coord. -> eff. mass)
    1:   1.000000  0.000000  0.000000 /   1.000000  0.000000  0.000000 ->  -0.2822197365
    2:   0.000000  1.000000  0.000000 /   0.000000  1.000000  0.000000 ->  -0.2822197365
    3:   0.000000  0.000000  1.000000 /   0.000000  0.000000  1.000000 ->  -0.2822197365
    4:   0.577350  0.577350  0.577350 /   0.577350  0.577350  0.577350 ->  -0.5619461025
    5:   0.000000  0.707107  0.707107 /   0.000000  0.707107  0.707107 ->  -0.3757372631
    6:   0.707107  0.000000  0.707107 /   0.707107  0.000000  0.707107 ->  -0.3757372631
    7:   0.707107  0.707107  0.000000 /   0.707107  0.707107  0.000000 ->  -0.3757372631

 K-point ( 0.500, 0.500, 0.500) | band =    25
 Transport equivalent effective mass tensor:
           -194.8293721681              0.0000000004              0.0000000002
              0.0000000004           -194.8293390462              0.0000000000
              0.0000000002              0.0000000000           -194.8294462161
 Transport equivalent effective mass tensor eigenvalues:
           -194.8294462161           -194.8293721681           -194.8293390462
 Angular average effective mass 1/(<1/m>)=  -1.3638550734
 Angular average effective mass for Frohlich model (<m**0.5>)**2=  -2.1078688185
 Effective masses along directions: (cart. coord. / red. coord. -> eff. mass)
    1:   1.000000  0.000000  0.000000 /   1.000000  0.000000  0.000000 -> -63.6055815259
    2:   0.000000  1.000000  0.000000 /   0.000000  1.000000  0.000000 -> -63.6055814040
    3:   0.000000  0.000000  1.000000 /   0.000000  0.000000  1.000000 -> -63.6055815338
    4:   0.577350  0.577350  0.577350 /   0.577350  0.577350  0.577350 ->  -0.5619461025
    5:   0.000000  0.707107  0.707107 /   0.000000  0.707107  0.707107 ->  -1.1140497368
    6:   0.707107  0.000000  0.707107 /   0.707107  0.000000  0.707107 ->  -1.1140497369
    7:   0.707107  0.707107  0.000000 /   0.707107  0.707107  0.000000 ->  -1.1140497369

 Angular average effective mass for Frohlich model, averaged over degenerate bands.
 Value of     (<<m**0.5>>)**2 =     1.051750E+00
 Absolute Value of <<m**0.5>> =     1.025549E+00

 K-point ( 0.000, 0.000, 0.000) | band =    26
 Effective mass tensor:
              0.2390361257             -0.0000000000             -0.0000000000
             -0.0000000000              0.2390361257             -0.0000000000
             -0.0000000000             -0.0000000000              0.2390361258
 Effective mass tensor eigenvalues:
              0.2390361257              0.2390361257              0.2390361258
 Angular average effective mass 1/(<1/m>)=   0.2390361257
 Angular average effective mass for Frohlich model (<m**0.5>)**2=   0.2390361257
 Effective masses along directions: (cart. coord. / red. coord. -> eff. mass)
    1:   1.000000  0.000000  0.000000 /   1.000000  0.000000  0.000000 ->   0.2390361257
    2:   0.000000  1.000000  0.000000 /   0.000000  1.000000  0.000000 ->   0.2390361257
    3:   0.000000  0.000000  1.000000 /   0.000000  0.000000  1.000000 ->   0.2390361258
    4:   0.577350  0.577350  0.577350 /   0.577350  0.577350  0.577350 ->   0.2390361257
    5:   0.000000  0.707107  0.707107 /   0.000000  0.707107  0.707107 ->   0.2390361258
    6:   0.707107  0.000000  0.707107 /   0.707107  0.000000  0.707107 ->   0.2390361257
    7:   0.707107  0.707107  0.000000 /   0.707107  0.707107  0.000000 ->   0.2390361257

 END OF EFFECTIVE MASSES SECTION

 ---- first-order wavefunction calculations are completed ----

 Total localisation tensor (bohr^2) in cartesian coordinates
  WARNING : still subject to testing - especially symmetries.
      direction              matrix element
   alpha     beta       real part   imaginary part
     1        1       1.2748555346    0.0000000000
     1        2       0.0000000000    0.0000000000
     1        3       0.0000000000    0.0000000000
     2        1       0.0000000000    0.0000000000
     2        2       1.2748555348    0.0000000000
     2        3       0.0000000000    0.0000000000
     3        1       0.0000000000    0.0000000000
     3        2       0.0000000000    0.0000000000
     3        3       1.2748555353    0.0000000000

 respfn : d/dk was computed, but no 2DTE, so no DDB output.

== END DATASET(S) ==============================================================

 -outvars: echo values of variables after computation  --------
            acell      1.0000000000E+00  1.0000000000E+00  1.0000000000E+00 Bohr
              amu      1.32905430E+02  1.12411000E+02  3.54527000E+01
             ecut      5.10000000E+01 Hartree
           etotal     -2.3515470718E+01
            fcart      0.0000000000E+00  0.0000000000E+00  0.0000000000E+00
                       0.0000000000E+00  0.0000000000E+00  0.0000000000E+00
                       0.0000000000E+00  0.0000000000E+00  0.0000000000E+00
                       0.0000000000E+00  0.0000000000E+00  0.0000000000E+00
                       0.0000000000E+00  0.0000000000E+00  0.0000000000E+00
-          fftalg         512
           irdden           1
           irdwfk           1
           istwfk        1    1
              ixc     -116133
              kpt      5.00000000E-01  5.00000000E-01  5.00000000E-01
                       0.00000000E+00  0.00000000E+00  0.00000000E+00
           kptopt           0
P           mkmem           2
P          mkqmem           2
P          mk1mem           2
            natom           5
            nband          34
           nbdbuf           4
            ngfft          64      64      64
             nkpt           2
            nstep        2000
             nsym          48
           ntypat           3
              occ      2.000000  2.000000  2.000000  2.000000  2.000000  2.000000
                       2.000000  2.000000  2.000000  2.000000  2.000000  2.000000
                       2.000000  2.000000  2.000000  2.000000  2.000000  2.000000
                       2.000000  2.000000  2.000000  2.000000  2.000000  2.000000
                       2.000000  0.000000  0.000000  0.000000  0.000000  0.000000
                       0.000000  0.000000  0.000000  0.000000
        optdriver           1
            prtwf          -1
            rfdir           1       1       1
           rfelfd           2
            rprim      9.8322210647E+00  0.0000000000E+00  0.0000000000E+00
                       0.0000000000E+00  9.8322210647E+00  0.0000000000E+00
                       0.0000000000E+00  0.0000000000E+00  9.8322210647E+00
          spgroup         221
           strten      0.0000000000E+00  0.0000000000E+00  0.0000000000E+00
                       0.0000000000E+00  0.0000000000E+00  0.0000000000E+00
           symrel      1  0  0   0  1  0   0  0  1      -1  0  0   0 -1  0   0  0 -1
                      -1  0  0   0  1  0   0  0 -1       1  0  0   0 -1  0   0  0  1
                      -1  0  0   0 -1  0   0  0  1       1  0  0   0  1  0   0  0 -1
                       1  0  0   0 -1  0   0  0 -1      -1  0  0   0  1  0   0  0  1
                       0  1  0   1  0  0   0  0  1       0 -1  0  -1  0  0   0  0 -1
                       0 -1  0   1  0  0   0  0 -1       0  1  0  -1  0  0   0  0  1
                       0 -1  0  -1  0  0   0  0  1       0  1  0   1  0  0   0  0 -1
                       0  1  0  -1  0  0   0  0 -1       0 -1  0   1  0  0   0  0  1
                       0  0  1   1  0  0   0  1  0       0  0 -1  -1  0  0   0 -1  0
                       0  0 -1   1  0  0   0 -1  0       0  0  1  -1  0  0   0  1  0
                       0  0 -1  -1  0  0   0  1  0       0  0  1   1  0  0   0 -1  0
                       0  0  1  -1  0  0   0 -1  0       0  0 -1   1  0  0   0  1  0
                       1  0  0   0  0  1   0  1  0      -1  0  0   0  0 -1   0 -1  0
                      -1  0  0   0  0  1   0 -1  0       1  0  0   0  0 -1   0  1  0
                      -1  0  0   0  0 -1   0  1  0       1  0  0   0  0  1   0 -1  0
                       1  0  0   0  0 -1   0 -1  0      -1  0  0   0  0  1   0  1  0
                       0  1  0   0  0  1   1  0  0       0 -1  0   0  0 -1  -1  0  0
                       0 -1  0   0  0  1  -1  0  0       0  1  0   0  0 -1   1  0  0
                       0 -1  0   0  0 -1   1  0  0       0  1  0   0  0  1  -1  0  0
                       0  1  0   0  0 -1  -1  0  0       0 -1  0   0  0  1   1  0  0
                       0  0  1   0  1  0   1  0  0       0  0 -1   0 -1  0  -1  0  0
                       0  0 -1   0  1  0  -1  0  0       0  0  1   0 -1  0   1  0  0
                       0  0 -1   0 -1  0   1  0  0       0  0  1   0  1  0  -1  0  0
                       0  0  1   0 -1  0  -1  0  0       0  0 -1   0  1  0   1  0  0
           tolwfr      1.00000000E-20
            typat      1  2  3  3  3
           useylm           1
              wtk        0.50000    0.50000
           xangst      0.0000000000E+00  0.0000000000E+00  0.0000000000E+00
                       2.6014936486E+00  2.6014936486E+00  2.6014936486E+00
                       0.0000000000E+00  2.6014936486E+00  2.6014936486E+00
                       2.6014936486E+00  2.6014936486E+00  0.0000000000E+00
                       2.6014936486E+00  0.0000000000E+00  2.6014936486E+00
            xcart      0.0000000000E+00  0.0000000000E+00  0.0000000000E+00
                       4.9161105323E+00  4.9161105323E+00  4.9161105323E+00
                       0.0000000000E+00  4.9161105323E+00  4.9161105323E+00
                       4.9161105323E+00  4.9161105323E+00  0.0000000000E+00
                       4.9161105323E+00  0.0000000000E+00  4.9161105323E+00
             xred      0.0000000000E+00  0.0000000000E+00  0.0000000000E+00
                       5.0000000000E-01  5.0000000000E-01  5.0000000000E-01
                       0.0000000000E+00  5.0000000000E-01  5.0000000000E-01
                       5.0000000000E-01  5.0000000000E-01  0.0000000000E+00
                       5.0000000000E-01  0.0000000000E+00  5.0000000000E-01
            znucl       55.00000   48.00000   17.00000

- Timing analysis has been suppressed with timopt=0

 Suggested references for the acknowledgment of ABINIT usage.

 Calculation completed.
.Delivered   2 WARNINGs and   5 COMMENTs to log file.