.Version 9.5.2 of ABINIT

 ABINIT is a project of the Universite Catholique de Louvain,
 Corning Inc. and other collaborators, see ~abinit/doc/developers/contributors.txt .
 acknowledgments of the ABINIT effort.

.Starting date : Mon 24 May 2021.
- ( at 11h32 )

- input  file    -> /scratch/users/j/a/jabreu/flow_simple_10atoms/flow/w300/t1/run.abi
- output file    -> /scratch/users/j/a/jabreu/flow_simple_10atoms/flow/w300/t1/run.abo
- root for input  files -> /scratch/users/j/a/jabreu/flow_simple_10atoms/flow/w300/t1/indata/in
- root for output files -> /scratch/users/j/a/jabreu/flow_simple_10atoms/flow/w300/t1/outdata/out

 Symmetries : space group P2_1/m (# 11); Bravais mP (primitive monocl.)
     intxc =       0      iscf =       7    lmnmax =      32     lnmax =       8
     mgfft =      96  mpssoang =       4    mqgrid =    4502     natom =      10
  nloc_mem =       1    nspden =       1   nspinor =       1    nsppol =       1
      nsym =       4    n1xccc =    2501    ntypat =       4    occopt =       1
   xclevel =       2
-    mband =          41        mffmem =           1         mkmem =           2
-   mkqmem =           2        mk1mem =           2           mpw =       18786
      nfft =      345600          nkpt =           2
  Rough estimation (10% accuracy) of disk space for files :

------------- Echo of variables that govern the present computation ------------
-
- outvars: echo of selected default values
-   iomode0 =  0 , fftalg0 =512 , wfoptalg0 =  0
-
- outvars: echo of global parameters not present in the input file
-  max_nthreads =    0
-
 -outvars: echo values of preprocessed input variables --------
            acell      1.0000000000E+00  1.0000000000E+00  1.0000000000E+00 Bohr
              amu      1.38905500E+02  1.20110000E+01  1.40067400E+01
                       3.54527000E+01
             ecut      5.20000000E+01 Hartree
-          fftalg         512
           irdden           1
           irdwfk           1
           istwfk        1    1
              ixc     -116133
              kpt      0.00000000E+00  5.00000000E-01  5.00000000E-01
                       0.00000000E+00  0.00000000E+00  0.00000000E+00
           kptopt           0
P           mkmem           2
P          mkqmem           2
P          mk1mem           2
            natom          10
            nband          41
           nbdbuf           4
            ngfft          50      72      96
             nkpt           2
            nstep        2000
             nsym           4
           ntypat           4
              occ      2.000000  2.000000  2.000000  2.000000  2.000000  2.000000
                       2.000000  2.000000  2.000000  2.000000  2.000000  2.000000
                       2.000000  2.000000  2.000000  2.000000  2.000000  2.000000
                       2.000000  2.000000  2.000000  2.000000  2.000000  2.000000
                       2.000000  2.000000  2.000000  2.000000  2.000000  2.000000
                       2.000000  2.000000  0.000000  0.000000  0.000000  0.000000
                       0.000000  0.000000  0.000000  0.000000  0.000000
        optdriver           1
            prtwf          -1
            rfdir           1       1       1
           rfelfd           2
            rprim      7.5291887253E+00  0.0000000000E+00  0.0000000000E+00
                       0.0000000000E+00  9.8617619522E+00  1.8647872631E+00
                       0.0000000000E+00  0.0000000000E+00  1.4111747324E+01
          spgroup          11
           symrel      1  0  0   0  1  0   0  0  1      -1  0  0   0 -1  0   0  0 -1
                       1  0  0   0 -1  0   0  0 -1      -1  0  0   0  1  0   0  0  1
            tnons      0.0000000  0.0000000  0.0000000     0.0000000 -0.0000000 -0.0000000
                       0.5000000 -0.0000000 -0.0000000     0.5000000  0.0000000  0.0000000
           tolwfr      1.00000000E-20
            typat      1  1  2  2  3  3  3  3  4  4
           useylm           1
              wtk        0.50000    0.50000
           xangst      9.9606876815E-01  9.2012092564E-01  5.8704417422E+00
                       2.9882063045E+00  4.2984987360E+00  2.5839762336E+00
                       9.9606876815E-01  1.8136947331E+00  1.3996165097E+00
                       2.9882063045E+00  3.4049249286E+00  7.0548014661E+00
                       2.9882063045E+00  2.2391844499E+00  6.6978380373E+00
                       2.9882063045E+00  4.5876572328E+00  7.4453785862E+00
                       9.9606876815E-01  6.3096242881E-01  1.0090393897E+00
                       9.9606876815E-01  2.9794352117E+00  1.7565799385E+00
                       9.9606876815E-01  3.8840829301E+00  4.7983129343E+00
                       2.9882063045E+00  1.3345367316E+00  3.6561050415E+00
            xcart      1.8822971813E+00  1.7387765586E+00  1.1093527172E+01
                       5.6468915440E+00  8.1229853936E+00  4.8830074154E+00
                       1.8822971813E+00  3.4273863342E+00  2.6448918944E+00
                       5.6468915440E+00  6.4343756180E+00  1.3331642693E+01
                       5.6468915440E+00  4.2314453714E+00  1.2657079573E+01
                       5.6468915440E+00  8.6694157616E+00  1.4069726484E+01
                       1.8822971813E+00  1.1923461906E+00  1.9068081038E+00
                       1.8822971813E+00  5.6303165808E+00  3.3194550144E+00
                       1.8822971813E+00  7.3398530152E+00  9.0674973458E+00
                       5.6468915440E+00  2.5219089370E+00  6.9090372415E+00
             xred      2.5000000000E-01  1.7631500000E-01  7.6282100000E-01
                       7.5000000000E-01  8.2368500000E-01  2.3717900000E-01
                       2.5000000000E-01  3.4754300000E-01  1.4149900000E-01
                       7.5000000000E-01  6.5245700000E-01  8.5850100000E-01
                       7.5000000000E-01  4.2907600000E-01  8.4021800000E-01
                       7.5000000000E-01  8.7909400000E-01  8.8085500000E-01
                       2.5000000000E-01  1.2090600000E-01  1.1914500000E-01
                       2.5000000000E-01  5.7092400000E-01  1.5978200000E-01
                       2.5000000000E-01  7.4427400000E-01  5.4419800000E-01
                       7.5000000000E-01  2.5572600000E-01  4.5580200000E-01
            znucl       57.00000    6.00000    7.00000   17.00000

 chkinp: Checking input parameters for consistency.

== DATASET  1 ==================================================================
-   mpi_nproc: 1, omp_nthreads: -1 (-1 if OMP is not activated)

--- !DatasetInfo
iteration_state: {dtset: 1, }
dimensions: {natom: 10, nkpt: 2, mband: 41, nsppol: 1, nspinor: 1, nspden: 1, mpw: 18786, }
cutoff_energies: {ecut:  52.0, pawecutdg:  -1.0, }
electrons: {nelect:   6.40000000E+01, charge:   0.00000000E+00, occopt:   1.00000000E+00, tsmear:   1.00000000E-02, }
meta: {optdriver: 1, rfelfd: 2, }
...

 Real(R)+Recip(G) space primitive vectors, cartesian coordinates (Bohr,Bohr^-1):
 R(1)=  7.5291887  0.0000000  0.0000000  G(1)=  0.1328164  0.0000000  0.0000000
 R(2)=  0.0000000  9.8617620  1.8647873  G(2)=  0.0000000  0.1014018  0.0000000
 R(3)=  0.0000000  0.0000000 14.1117473  G(3)=  0.0000000 -0.0133997  0.0708629
 Unit cell volume ucvol=  1.0478123E+03 bohr^3
 Angles (23,13,12)=  7.92922141E+01  9.00000000E+01  9.00000000E+01 degrees

 getcut: wavevector=  0.0000  0.0000  0.0000  ngfft=  50  72  96
         ecut(hartree)=     52.000   => boxcut(ratio)=   2.04576

--- Pseudopotential description ------------------------------------------------
- pspini: atom type   1  psp file is /scratch/users/j/a/jabreu/pseudos/PBEsol/La.psp8
- pspatm: opening atomic psp file    /scratch/users/j/a/jabreu/pseudos/PBEsol/La.psp8
- La    ONCVPSP-3.3.0  r_core=   2.11664   1.60878   1.85636   1.66739
- 57.00000  11.00000    180112                znucl, zion, pspdat
    8 -116133    3    4       600   0.00000   pspcod,pspxc,lmax,lloc,mmax,r2well
    5.99000000000000    5.00000000000000    0.00000000000000   rchrg,fchrg,qchrg
     nproj     2     2     2     2
     extension_switch     1
  pspatm : epsatm=   29.08531775
         --- l  ekb(1:nproj) -->
             0    6.695600    0.639047
             1    6.383649    1.151322
             2    3.612966    0.847811
             3  -13.718437   -4.858923
 pspatm: atomic psp has been read  and splines computed

- pspini: atom type   2  psp file is /scratch/users/j/a/jabreu/pseudos/PBEsol/C.psp8
- pspatm: opening atomic psp file    /scratch/users/j/a/jabreu/pseudos/PBEsol/C.psp8
- C     ONCVPSP-3.3.0  r_core=   1.20440   1.26326
-  6.00000   4.00000    180112                znucl, zion, pspdat
    8 -116133    1    4       600   0.00000   pspcod,pspxc,lmax,lloc,mmax,r2well
    5.99000000000000    4.00000000000000    0.00000000000000   rchrg,fchrg,qchrg
     nproj     2     2
     extension_switch     1
  pspatm : epsatm=    4.34909529
         --- l  ekb(1:nproj) -->
             0    6.468939    0.390031
             1   -4.179695   -0.878453
 pspatm: atomic psp has been read  and splines computed

[...]

- pspini: atom type   4  psp file is /scratch/users/j/a/jabreu/pseudos/PBEsol/Cl.psp8
- pspatm: opening atomic psp file    /scratch/users/j/a/jabreu/pseudos/PBEsol/Cl.psp8
- Cl    ONCVPSP-3.3.0  r_core=   1.56009   1.35202   1.75774
- 17.00000   7.00000    180112                znucl, zion, pspdat
    8 -116133    2    4       600   0.00000   pspcod,pspxc,lmax,lloc,mmax,r2well
    5.99000000000000    8.00000000000000    0.00000000000000   rchrg,fchrg,qchrg
     nproj     2     2     2
     extension_switch     1
  pspatm : epsatm=    8.95520722
         --- l  ekb(1:nproj) -->
             0    8.193503    0.707970
             1    3.869736    1.114731
             2   -2.915303   -0.810552
 pspatm: atomic psp has been read  and splines computed

   6.77373417E+03                                ecore*ucvol(ha*bohr**3)

 ==>  initialize data related to q vector <==

 The list of irreducible perturbations for this q vector is:
    1)    idir= 1    ipert=  11
    2)    idir= 2    ipert=  11
    3)    idir= 3    ipert=  11

 Perturbation wavevector (in red.coord.)   0.000000  0.000000  0.000000
 Perturbation : derivative vs k along direction   1

 dfpt_looppert : COMMENT -
  In a d/dk calculation, iscf is set to -3 automatically.
 The set of symmetries contains only one element for this perturbation.
 symkpt : not enough symmetry to change the number of k points.

 Initialisation of the first-order wave-functions :
  ireadwf=   0

--- !BeginCycle
iteration_state: {dtset: 1, }
solver: {iscf: 7, nstep: 2000, nline: 4, wfoptalg: 0, }
tolerances: {tolwfr: 1.00E-20, }
...

     iter   2DEtotal(Ha)        deltaE(Ha) residm    vres2
-ETOT  1  -47.696442546115     -4.770E+01 7.487E-02 0.000E+00
 ETOT  2  -47.929187065163     -2.327E-01 3.797E-02 0.000E+00
 ETOT  3  -47.961102642680     -3.192E-02 8.736E-03 0.000E+00
 ETOT  4  -47.970770057901     -9.667E-03 1.642E-02 0.000E+00
 ETOT  5  -47.974225470255     -3.455E-03 5.246E-03 0.000E+00
 ETOT  6  -47.975570740819     -1.345E-03 9.414E-03 0.000E+00
 ETOT  7  -47.976120114021     -5.494E-04 4.505E-03 0.000E+00
[...]

[...]

 Perturbation wavevector (in red.coord.)   0.000000  0.000000  0.000000
 Perturbation : derivative vs k along direction   3
 The set of symmetries contains only one element for this perturbation.
 symkpt : not enough symmetry to change the number of k points.

 Initialisation of the first-order wave-functions :
  ireadwf=   0

--- !BeginCycle
iteration_state: {dtset: 1, }
solver: {iscf: 7, nstep: 2000, nline: 4, wfoptalg: 0, }
tolerances: {tolwfr: 1.00E-20, }
...

     iter   2DEtotal(Ha)        deltaE(Ha) residm    vres2
-ETOT  1  -13.464329088510     -1.346E+01 4.109E-02 0.000E+00
 ETOT  2  -13.526573241844     -6.224E-02 8.752E-03 0.000E+00
 ETOT  3  -13.533013296590     -6.440E-03 3.878E-03 0.000E+00
 ETOT  4  -13.534635446463     -1.622E-03 2.900E-03 0.000E+00
 ETOT  5  -13.535181188937     -5.457E-04 2.347E-03 0.000E+00
 ETOT  6  -13.535387947462     -2.068E-04 2.038E-03 0.000E+00
 ETOT  7  -13.535472516453     -8.457E-05 1.599E-03 0.000E+00
 ETOT  8  -13.535508643499     -3.613E-05 1.506E-03 0.000E+00
 ETOT  9  -13.535524573288     -1.593E-05 1.145E-03 0.000E+00
 ETOT 10  -13.535531784443     -7.211E-06 1.142E-03 0.000E+00
 ETOT 11  -13.535535129257     -3.345E-06 8.452E-04 0.000E+00
 ETOT 12  -13.535536714627     -1.585E-06 8.808E-04 0.000E+00
 ETOT 13  -13.535537480340     -7.657E-07 6.366E-04 0.000E+00
 ETOT 14  -13.535537856787     -3.764E-07 6.884E-04 0.000E+00
 ETOT 15  -13.535538044753     -1.880E-07 4.875E-04 0.000E+00
 ETOT 16  -13.535538139966     -9.521E-08 5.430E-04 0.000E+00
 ETOT 17  -13.535538188789     -4.882E-08 3.789E-04 0.000E+00
 ETOT 18  -13.535538214104     -2.532E-08 4.311E-04 0.000E+00
 ETOT 19  -13.535538227352     -1.325E-08 2.981E-04 0.000E+00
 ETOT 20  -13.535538234342     -6.991E-09 3.438E-04 0.000E+00
 ETOT 21  -13.535538238057     -3.714E-09 2.366E-04 0.000E+00
 ETOT 22  -13.535538240042     -1.986E-09 2.750E-04 0.000E+00
 ETOT 23  -13.535538241109     -1.067E-09 1.889E-04 0.000E+00
 ETOT 24  -13.535538241685     -5.759E-10 2.203E-04 0.000E+00
 ETOT 25  -13.535538241997     -3.119E-10 1.513E-04 0.000E+00
 ETOT 26  -13.535538242167     -1.696E-10 1.766E-04 0.000E+00
 ETOT 27  -13.535538242259     -9.240E-11 1.214E-04 0.000E+00
 ETOT 28  -13.535538242310     -5.047E-11 1.417E-04 0.000E+00
 ETOT 29  -13.535538242337     -2.766E-11 9.755E-05 0.000E+00
 ETOT 30  -13.535538242352     -1.515E-11 1.137E-04 0.000E+00
 ETOT 31  -13.535538242361     -8.315E-12 7.841E-05 0.000E+00
 ETOT 32  -13.535538242365     -4.565E-12 9.126E-05 0.000E+00
 ETOT 33  -13.535538242368     -2.510E-12 6.304E-05 0.000E+00
 ETOT 34  -13.535538242369     -1.389E-12 7.326E-05 0.000E+00
 ETOT 35  -13.535538242370     -7.834E-13 5.069E-05 0.000E+00
 ETOT 36  -13.535538242370     -4.157E-13 5.881E-05 0.000E+00
 ETOT 37  -13.535538242371     -2.398E-13 4.075E-05 0.000E+00
 ETOT 38  -13.535538242371     -1.155E-13 4.722E-05 0.000E+00
 ETOT 39  -13.535538242371     -8.171E-14 3.427E-05 0.000E+00
 ETOT 40  -13.535538242371     -1.954E-14 3.791E-05 0.000E+00
 ETOT 41  -13.535538242371     -3.908E-14 2.986E-05 0.000E+00
 ETOT 42  -13.535538242371     -2.487E-14 3.278E-05 0.000E+00
 ETOT 43  -13.535538242371      0.000E+00 2.602E-05 0.000E+00
 ETOT 44  -13.535538242371      0.000E+00 2.848E-05 0.000E+00
 ETOT 45  -13.535538242371      5.329E-15 2.268E-05 0.000E+00
 ETOT 46  -13.535538242371     -1.776E-15 2.476E-05 0.000E+00
 ETOT 47  -13.535538242371      7.105E-15 1.978E-05 0.000E+00
 ETOT 48  -13.535538242371     -1.421E-14 2.152E-05 0.000E+00
 ETOT 49  -13.535538242371      8.882E-15 1.724E-05 0.000E+00
 ETOT 50  -13.535538242371     -1.776E-15 1.871E-05 0.000E+00
 ETOT 51  -13.535538242371      3.553E-15 1.504E-05 0.000E+00
 ETOT 52  -13.535538242371      3.553E-15 1.627E-05 0.000E+00
 ETOT 53  -13.535538242371     -5.329E-15 1.312E-05 0.000E+00
 ETOT 54  -13.535538242371      3.553E-15 1.415E-05 0.000E+00
 ETOT 55  -13.535538242371      0.000E+00 1.145E-05 0.000E+00
 ETOT 56  -13.535538242371     -7.105E-15 1.231E-05 0.000E+00
 ETOT 57  -13.535538242371      1.776E-15 9.991E-06 0.000E+00
 ETOT 58  -13.535538242371     -1.776E-15 1.071E-05 0.000E+00
 ETOT 59  -13.535538242371     -1.243E-14 8.719E-06 0.000E+00
 ETOT 60  -13.535538242371      1.243E-14 9.321E-06 0.000E+00
 ETOT 61  -13.535538242371      5.329E-15 7.611E-06 0.000E+00
[...]
 ETOT  893  -13.535538242371      3.553E-15 1.803E-20 0.000E+00
 ETOT  894  -13.535538242371     -8.882E-15 1.511E-20 0.000E+00
 ETOT  895  -13.535538242371      5.329E-15 1.686E-20 0.000E+00
 ETOT  896  -13.535538242371     -3.553E-15 1.413E-20 0.000E+00
 ETOT  897  -13.535538242371      5.329E-15 1.577E-20 0.000E+00
 ETOT  898  -13.535538242371     -7.105E-15 1.322E-20 0.000E+00
 ETOT  899  -13.535538242371      8.882E-15 1.474E-20 0.000E+00
 ETOT  900  -13.535538242371     -7.105E-15 1.236E-20 0.000E+00
 ETOT  901  -13.535538242371     -1.776E-15 1.379E-20 0.000E+00
 ETOT  902  -13.535538242371      5.329E-15 1.156E-20 0.000E+00
 ETOT  903  -13.535538242371      0.000E+00 1.290E-20 0.000E+00
 ETOT  904  -13.535538242371      7.105E-15 1.081E-20 0.000E+00
 ETOT  905  -13.535538242371     -7.105E-15 1.206E-20 0.000E+00
 ETOT  906  -13.535538242371     -5.329E-15 1.011E-20 0.000E+00
 ETOT  907  -13.535538242371      5.329E-15 9.952E-21 0.000E+00

 At SCF step  907   max residual=  9.95E-21 < tolwfr=  1.00E-20 =>converged.

 ----iterations are completed or convergence reached----

 dfpt_looppert: DFPT cycle converged with prtwf=-1. Will skip output of the 1st-order WFK file.
 dfpt_looppert : ek2=    2.6282435214E+01
          f-sum rule ratio=    9.9762663751E-01
 prteigrs : about to open file /scratch/users/j/a/jabreu/flow_simple_10atoms/flow/w300/t1/tmpdata/tmp_1WF1_EIG
 Expectation of eigenvalue derivatives (hartree) for nkpt=   2  k points:
  (in case of degenerate eigenvalues, averaged derivative)
 kpt#   1, nband= 41, wtk=  0.50000, kpt=  0.0000  0.5000  0.5000 (reduced coord)
   0.00000    0.00000   -0.00000   -0.00000    0.00000    0.00000    0.00000   -0.00000
   0.00000    0.00000    0.00000   -0.00000   -0.00000    0.00000   -0.00000   -0.00000
  -0.00000   -0.00000   -0.00000   -0.00000   -0.00000   -0.00000    0.00000   -0.00000
   0.00000    0.00000   -0.00000   -0.00000    0.00000    0.00000    0.00000    0.00000
  -0.00000    0.00000   -0.00000    0.00000   -0.00000    0.00000    0.00000    0.00000
   0.00000
 prteigrs : prtvol=0 or 1, do not print more k-points.

 Eight components of 2nd-order total energy (hartree) are
 1,2,3: 0th-order hamiltonian combined with 1st-order wavefunctions
     kin0=   3.37509889E+01 eigvalue=  -1.68416516E-01  local=  -1.79512283E+01
 4,5,6: 1st-order hamiltonian combined with 1st and 0th-order wfs
     kin1=  -2.62200575E+01  Hartree=   0.00000000E+00     xc=   0.00000000E+00
 7,8,9: eventually, occupation + non-local contributions
    edocc=   7.29015988E-01     enl0=  -2.82482192E+00   enl1=  -8.51019016E-01
 1-9 gives the relaxation energy (to be shifted if some occ is /=2.0)
   erelax=  -1.35355382E+01
  No Ewald or frozen-wf contrib.: the relaxation energy is the total one
 2DEtotal=   -0.1353553824E+02 Ha. Also 2DEtotal=   -0.368320726865E+03 eV
    (  non-var. 2DEtotal :   -1.3535538242E+01 Ha)

 CALCULATION OF EFFECTIVE MASSES
 NOTE : Additional infos (eff. mass eigenvalues, eigenvectors and, if degenerate, average mass) are available in stdout.

 K-point ( 0.000, 0.500, 0.500) | band =    32
 Effective mass tensor:
             -1.5860786770              0.0000000030             -0.0000000148
              0.0000000030             -0.7751905967              2.1333752026
             -0.0000000148              2.1333752026            -11.1679669215
 Effective mass tensor eigenvalues:
            -11.5888503111             -1.5860786770             -0.3543072071
 Angular average effective mass 1/(<1/m>)=  -0.8476527771
 Angular average effective mass for Frohlich model (<m**0.5>)**2=  -1.2826153137
 Effective masses along directions: (cart. coord. / red. coord. -> eff. mass)
    1:   1.000000  0.000000  0.000000 /   1.000000  0.000000  0.000000 ->  -1.5860786770
    2:   0.000000  1.000000  0.000000 /   0.000000  1.000000  0.000000 ->  -0.3676598629
    3:   0.000000  0.000000  1.000000 /   0.000000  0.131005  0.991382 ->  -5.2967788882
    4:   0.577350  0.577350  0.577350 /   0.379632  0.591269  0.711534 ->  -0.6552605045
    5:   0.000000  0.707107  0.707107 /   0.000000  0.639115  0.769112 ->  -0.5066053683
    6:   0.707107  0.000000  0.707107 /   0.467564  0.115804  0.876341 ->  -2.4411686535
    7:   0.707107  0.707107  0.000000 /   0.606832  0.794830  0.000000 ->  -0.5969452482

 K-point ( 0.000, 0.000, 0.000) | band =    33
 Effective mass tensor:
             10.1740860600             -0.0000000098              0.0000000536
             -0.0000000098              1.2899159250             -0.3981061986
              0.0000000536             -0.3981061986              2.2673548538
 Effective mass tensor eigenvalues:
              1.1482900394              2.4089807394             10.1740860600
 Angular average effective mass 1/(<1/m>)=   2.1672192123
 Angular average effective mass for Frohlich model (<m**0.5>)**2=   2.6008568710
 Effective masses along directions: (cart. coord. / red. coord. -> eff. mass)
    1:   1.000000  0.000000  0.000000 /   1.000000  0.000000  0.000000 ->  10.1740860600
    2:   0.000000  1.000000  0.000000 /   0.000000  1.000000  0.000000 ->   1.2200157305
    3:   0.000000  0.000000  1.000000 /   0.000000  0.131005  0.991382 ->   2.1444875085
    4:   0.577350  0.577350  0.577350 /   0.379632  0.591269  0.711534 ->   1.7941536057
    5:   0.000000  0.707107  0.707107 /   0.000000  0.639115  0.769112 ->   1.2708024707
    6:   0.707107  0.000000  0.707107 /   0.467564  0.115804  0.876341 ->   3.5423258260
    7:   0.707107  0.707107  0.000000 /   0.606832  0.794830  0.000000 ->   2.1787667451

 END OF EFFECTIVE MASSES SECTION

 ---- first-order wavefunction calculations are completed ----

 Total localisation tensor (bohr^2) in cartesian coordinates
  WARNING : still subject to testing - especially symmetries.
      direction              matrix element
   alpha     beta       real part   imaginary part
     1        1       0.9901255342    0.0000000000
     1        2       0.0000000000    0.0000000000
     1        3       0.0000000000    0.0000000000
     2        1       0.0000000000    0.0000000000
     2        2       1.1715905115    0.0000000000
     2        3       0.2215392213    0.0000000000
     3        1       0.0000000000    0.0000000000
     3        2       0.2215392213    0.0000000000
     3        3       0.9530837577    0.0000000000

 respfn : d/dk was computed, but no 2DTE, so no DDB output.

== END DATASET(S) ==============================================================

 -outvars: echo values of variables after computation  --------
            acell      1.0000000000E+00  1.0000000000E+00  1.0000000000E+00 Bohr
              amu      1.38905500E+02  1.20110000E+01  1.40067400E+01
                       3.54527000E+01
             ecut      5.20000000E+01 Hartree
           etotal     -1.3535538242E+01
            fcart      0.0000000000E+00  0.0000000000E+00  0.0000000000E+00
                       0.0000000000E+00  0.0000000000E+00  0.0000000000E+00
                       0.0000000000E+00  0.0000000000E+00  0.0000000000E+00
                       0.0000000000E+00  0.0000000000E+00  0.0000000000E+00
                       0.0000000000E+00  0.0000000000E+00  0.0000000000E+00
                       0.0000000000E+00  0.0000000000E+00  0.0000000000E+00
                       0.0000000000E+00  0.0000000000E+00  0.0000000000E+00
                       0.0000000000E+00  0.0000000000E+00  0.0000000000E+00
                       0.0000000000E+00  0.0000000000E+00  0.0000000000E+00
                       0.0000000000E+00  0.0000000000E+00  0.0000000000E+00
-          fftalg         512
           irdden           1
           irdwfk           1
           istwfk        1    1
              ixc     -116133
              kpt      0.00000000E+00  5.00000000E-01  5.00000000E-01
                       0.00000000E+00  0.00000000E+00  0.00000000E+00
           kptopt           0
P           mkmem           2
P          mkqmem           2
P          mk1mem           2
            natom          10
            nband          41
           nbdbuf           4
            ngfft          50      72      96
             nkpt           2
            nstep        2000
             nsym           4
           ntypat           4
              occ      2.000000  2.000000  2.000000  2.000000  2.000000  2.000000
                       2.000000  2.000000  2.000000  2.000000  2.000000  2.000000
                       2.000000  2.000000  2.000000  2.000000  2.000000  2.000000
                       2.000000  2.000000  2.000000  2.000000  2.000000  2.000000
                       2.000000  2.000000  2.000000  2.000000  2.000000  2.000000
                       2.000000  2.000000  0.000000  0.000000  0.000000  0.000000
                       0.000000  0.000000  0.000000  0.000000  0.000000
        optdriver           1
            prtwf          -1
            rfdir           1       1       1
           rfelfd           2
            rprim      7.5291887253E+00  0.0000000000E+00  0.0000000000E+00
                       0.0000000000E+00  9.8617619522E+00  1.8647872631E+00
                       0.0000000000E+00  0.0000000000E+00  1.4111747324E+01
          spgroup          11
           strten      0.0000000000E+00  0.0000000000E+00  0.0000000000E+00
                       0.0000000000E+00  0.0000000000E+00  0.0000000000E+00
           symrel      1  0  0   0  1  0   0  0  1      -1  0  0   0 -1  0   0  0 -1
                       1  0  0   0 -1  0   0  0 -1      -1  0  0   0  1  0   0  0  1
            tnons      0.0000000  0.0000000  0.0000000     0.0000000 -0.0000000 -0.0000000
                       0.5000000 -0.0000000 -0.0000000     0.5000000  0.0000000  0.0000000
           tolwfr      1.00000000E-20
            typat      1  1  2  2  3  3  3  3  4  4
           useylm           1
              wtk        0.50000    0.50000
           xangst      9.9606876815E-01  9.2012092564E-01  5.8704417422E+00
                       2.9882063045E+00  4.2984987360E+00  2.5839762336E+00
                       9.9606876815E-01  1.8136947331E+00  1.3996165097E+00
                       2.9882063045E+00  3.4049249286E+00  7.0548014661E+00
                       2.9882063045E+00  2.2391844499E+00  6.6978380373E+00
                       2.9882063045E+00  4.5876572328E+00  7.4453785862E+00
                       9.9606876815E-01  6.3096242881E-01  1.0090393897E+00
                       9.9606876815E-01  2.9794352117E+00  1.7565799385E+00
                       9.9606876815E-01  3.8840829301E+00  4.7983129343E+00
                       2.9882063045E+00  1.3345367316E+00  3.6561050415E+00
            xcart      1.8822971813E+00  1.7387765586E+00  1.1093527172E+01
                       5.6468915440E+00  8.1229853936E+00  4.8830074154E+00
                       1.8822971813E+00  3.4273863342E+00  2.6448918944E+00
                       5.6468915440E+00  6.4343756180E+00  1.3331642693E+01
                       5.6468915440E+00  4.2314453714E+00  1.2657079573E+01
                       5.6468915440E+00  8.6694157616E+00  1.4069726484E+01
                       1.8822971813E+00  1.1923461906E+00  1.9068081038E+00
                       1.8822971813E+00  5.6303165808E+00  3.3194550144E+00
                       1.8822971813E+00  7.3398530152E+00  9.0674973458E+00
                       5.6468915440E+00  2.5219089370E+00  6.9090372415E+00
             xred      2.5000000000E-01  1.7631500000E-01  7.6282100000E-01
                       7.5000000000E-01  8.2368500000E-01  2.3717900000E-01
                       2.5000000000E-01  3.4754300000E-01  1.4149900000E-01
                       7.5000000000E-01  6.5245700000E-01  8.5850100000E-01
                       7.5000000000E-01  4.2907600000E-01  8.4021800000E-01
                       7.5000000000E-01  8.7909400000E-01  8.8085500000E-01
                       2.5000000000E-01  1.2090600000E-01  1.1914500000E-01
                       2.5000000000E-01  5.7092400000E-01  1.5978200000E-01
                       2.5000000000E-01  7.4427400000E-01  5.4419800000E-01
                       7.5000000000E-01  2.5572600000E-01  4.5580200000E-01
            znucl       57.00000    6.00000    7.00000   17.00000

- Timing analysis has been suppressed with timopt=0

 Suggested references for the acknowledgment of ABINIT usage.

 Calculation completed.
.Delivered   2 WARNINGs and   5 COMMENTs to log file.