.Version 9.5.1 of ABINIT

 ABINIT is a project of the Universite Catholique de Louvain,
 Corning Inc. and other collaborators, see ~abinit/doc/developers/contributors.txt .
 acknowledgments of the ABINIT effort.

.Starting date : Tue 11 May 2021.
- ( at 21h10 )

- input  file    -> /scratch/users/j/a/jabreu/flow_simple_8atoms/flow/w255/t1/run.abi
- output file    -> /scratch/users/j/a/jabreu/flow_simple_8atoms/flow/w255/t1/run.abo
- root for input  files -> /scratch/users/j/a/jabreu/flow_simple_8atoms/flow/w255/t1/indata/in
- root for output files -> /scratch/users/j/a/jabreu/flow_simple_8atoms/flow/w255/t1/outdata/out

 Symmetries : space group I-4 2 d (#122); Bravais tI (body-center tetrag.)
     intxc =       0      iscf =       7    lmnmax =      18     lnmax =       6
     mgfft =      75  mpssoang =       3    mqgrid =    3001     natom =       8
  nloc_mem =       1    nspden =       1   nspinor =       1    nsppol =       1
      nsym =       8    n1xccc =    2501    ntypat =       3    occopt =       1
   xclevel =       2
-    mband =          53        mffmem =           1         mkmem =           1
-   mkqmem =           1        mk1mem =           1           mpw =       15269
      nfft =      421875          nkpt =           1
  Rough estimation (10% accuracy) of disk space for files :

------------- Echo of variables that govern the present computation ------------
-
- outvars: echo of selected default values
-   iomode0 =  0 , fftalg0 =512 , wfoptalg0 =  0
-
- outvars: echo of global parameters not present in the input file
-  max_nthreads =    0
-
 -outvars: echo values of preprocessed input variables --------
            acell      1.0000000000E+00  1.0000000000E+00  1.0000000000E+00 Bohr
              amu      6.97230000E+01  1.07868200E+02  3.20660000E+01
             ecut      4.30000000E+01 Hartree
-          fftalg         512
           irdden           1
           irdwfk           1
           istwfk        1
              ixc     -116133
           kptopt           0
P           mkmem           1
P          mkqmem           1
P          mk1mem           1
            natom           8
            nband          53
           nbdbuf           4
            ngfft          75      75      75
             nkpt           1
            nstep        2000
             nsym           8
           ntypat           3
              occ      2.000000  2.000000  2.000000  2.000000  2.000000  2.000000
                       2.000000  2.000000  2.000000  2.000000  2.000000  2.000000
                       2.000000  2.000000  2.000000  2.000000  2.000000  2.000000
                       2.000000  2.000000  2.000000  2.000000  2.000000  2.000000
                       2.000000  2.000000  2.000000  2.000000  2.000000  2.000000
                       2.000000  2.000000  2.000000  2.000000  2.000000  2.000000
                       2.000000  2.000000  2.000000  2.000000  2.000000  2.000000
                       2.000000  2.000000  0.000000  0.000000  0.000000  0.000000
                       0.000000  0.000000  0.000000  0.000000  0.000000
        optdriver           1
            prtwf          -1
            rfdir           1       1       1
           rfelfd           2
            rprim      9.6535817595E+00  0.0000000000E+00 -7.8935378668E+00
                      -2.1695078623E+00  9.4066400177E+00 -7.8935378668E+00
                       0.0000000000E+00  0.0000000000E+00  1.2469947107E+01
          spgroup         122
           symrel      1  0  0   0  1  0   0  0  1       0  0  1  -1 -1 -1   1  0  0
                       0  1  0   1  0  0  -1 -1 -1      -1 -1 -1   0  0  1   0  1  0
                       0  1  0   1  0  0   0  0  1       0  0  1  -1 -1 -1   0  1  0
                       1  0  0   0  1  0  -1 -1 -1      -1 -1 -1   0  0  1   1  0  0
            tnons      0.0000000  0.0000000  0.0000000    -0.2500000  0.2500000  0.5000000
                       0.0000000  0.0000000  0.0000000    -0.2500000  0.2500000  0.5000000
                      -0.2500000  0.2500000  0.5000000     0.0000000  0.0000000  0.0000000
                      -0.2500000  0.2500000  0.5000000    -0.0000000  0.0000000  0.0000000
           tolwfr      1.00000000E-20
            typat      1  1  2  2  3  3  3  3
           useylm           1
           xangst      4.1607327616E-01  3.7333346301E+00 -8.7767443368E-01
                       1.9802006669E+00  2.4888897534E+00 -4.1770803343E+00
                       0.0000000000E+00  0.0000000000E+00  0.0000000000E+00
                       3.5443280576E+00  1.2444448767E+00 -8.7767443368E-01
                       6.5718232575E-01  6.2222243835E-01  2.3319967303E+00
                       4.0029412829E+00  2.0246520810E+00 -5.1444895045E+00
                       2.3131186746E+00  3.1111121917E+00 -1.9988054305E+00
                       9.4756038437E-01  4.1975723024E+00  1.3006004700E+00
            xcart      7.8626454315E-01  7.0549800133E+00 -1.6585643135E+00
                       3.7420369486E+00  4.7033200089E+00 -7.8935378668E+00
                       0.0000000000E+00  0.0000000000E+00  0.0000000000E+00
                       6.6978093540E+00  2.3516600044E+00 -1.6585643135E+00
                       1.2418946150E+00  1.1758300022E+00  4.4068351631E+00
                       7.5644627507E+00  3.8260379475E+00 -9.7216762570E+00
                       4.3711608079E+00  5.8791500111E+00 -3.7771948567E+00
                       1.7906296208E+00  7.9322620746E+00  2.4577786966E+00
             xred      2.5000000000E-01  7.5000000000E-01  5.0000000000E-01
                       5.0000000000E-01  5.0000000000E-01 -5.5511151231E-17
                       0.0000000000E+00  0.0000000000E+00  0.0000000000E+00
                       7.5000000000E-01  2.5000000000E-01  5.0000000000E-01
                       1.5673800000E-01  1.2500000000E-01  5.3173800000E-01
                       8.7500000000E-01  4.0673800000E-01  3.1738000000E-02
                       5.9326200000E-01  6.2500000000E-01  4.6826200000E-01
                       3.7500000000E-01  8.4326200000E-01  9.6826200000E-01
            znucl       31.00000   47.00000   16.00000

 chkinp: Checking input parameters for consistency.

== DATASET  1 ==================================================================
-   mpi_nproc: 1, omp_nthreads: -1 (-1 if OMP is not activated)

--- !DatasetInfo
iteration_state: {dtset: 1, }
dimensions: {natom: 8, nkpt: 1, mband: 53, nsppol: 1, nspinor: 1, nspden: 1, mpw: 15269, }
cutoff_energies: {ecut:  43.0, pawecutdg:  -1.0, }
electrons: {nelect:   8.80000000E+01, charge:   0.00000000E+00, occopt:   1.00000000E+00, tsmear:   1.00000000E-02, }
meta: {optdriver: 1, rfelfd: 2, }
...

 Real(R)+Recip(G) space primitive vectors, cartesian coordinates (Bohr,Bohr^-1):
 R(1)=  9.6535818  0.0000000 -7.8935379  G(1)=  0.1035885  0.0238912  0.0000000
 R(2)= -2.1695079  9.4066400 -7.8935379  G(2)=  0.0000000  0.1063079  0.0000000
 R(3)=  0.0000000  0.0000000 12.4699471  G(3)=  0.0655720  0.0824167  0.0801928
 Unit cell volume ucvol=  1.1323681E+03 bohr^3
 Angles (23,13,12)=  1.29272170E+02  1.29272170E+02  7.45730338E+01 degrees

 getcut: wavevector=  0.0000  0.0000  0.0000  ngfft=  75  75  75
         ecut(hartree)=     43.000   => boxcut(ratio)=   2.01085

--- Pseudopotential description ------------------------------------------------
- pspini: atom type   1  psp file is /scratch/users/j/a/jabreu/pseudos/PBEsol/Ga.psp8
- pspatm: opening atomic psp file    /scratch/users/j/a/jabreu/pseudos/PBEsol/Ga.psp8
- Ga    ONCVPSP-3.3.0  r_core=   1.66857   1.75011   1.90252
- 31.00000  13.00000    180112                znucl, zion, pspdat
    8 -116133    2    4       600   0.00000   pspcod,pspxc,lmax,lloc,mmax,r2well
    5.99000000000000    5.00000000000000    0.00000000000000   rchrg,fchrg,qchrg
     nproj     2     2     2
     extension_switch     1
  pspatm : epsatm=   24.50969055
         --- l  ekb(1:nproj) -->
             0    7.053021    1.156713
             1    6.846070    1.293139
             2   -8.368667   -2.819170
 pspatm: atomic psp has been read  and splines computed

- pspini: atom type   2  psp file is /scratch/users/j/a/jabreu/pseudos/PBEsol/Ag.psp8
- pspatm: opening atomic psp file    /scratch/users/j/a/jabreu/pseudos/PBEsol/Ag.psp8
- Ag    ONCVPSP-3.3.0  r_core=   1.41384   1.46535   1.61207
- 47.00000  19.00000    180112                znucl, zion, pspdat
    8 -116133    2    4       600   0.00000   pspcod,pspxc,lmax,lloc,mmax,r2well
    5.99000000000000    7.00000000000000    0.00000000000000   rchrg,fchrg,qchrg
     nproj     2     2     2
     extension_switch     1
  pspatm : epsatm=   27.64581383
         --- l  ekb(1:nproj) -->
             0    9.559407   -0.398585
             1    3.418858   -0.136622
             2   -1.644397   -0.401551
 pspatm: atomic psp has been read  and splines computed

- pspini: atom type   3  psp file is /scratch/users/j/a/jabreu/pseudos/PBEsol/S.psp8
- pspatm: opening atomic psp file    /scratch/users/j/a/jabreu/pseudos/PBEsol/S.psp8
- S     ONCVPSP-3.3.0  r_core=   1.45376   1.45376   1.61851
- 16.00000   6.00000    180112                znucl, zion, pspdat
    8 -116133    2    4       600   0.00000   pspcod,pspxc,lmax,lloc,mmax,r2well
    5.99000000000000    6.00000000000000    0.00000000000000   rchrg,fchrg,qchrg
     nproj     2     2     2
     extension_switch     1
  pspatm : epsatm=    8.71840985
         --- l  ekb(1:nproj) -->
             0    6.834532    0.579453
             1    3.282851    0.896984
             2   -3.496974   -0.974265
 pspatm: atomic psp has been read  and splines computed

   1.22482490E+04                                ecore*ucvol(ha*bohr**3)

-inwffil : will read wavefunctions from disk file /scratch/users/j/a/jabreu/flow_simple_8atoms/flow/w255/t1/indata/in_WFK

 ==>  initialize data related to q vector <==

 The list of irreducible perturbations for this q vector is:
    1)    idir= 1    ipert=   9
    2)    idir= 2    ipert=   9
    3)    idir= 3    ipert=   9

 Perturbation wavevector (in red.coord.)   0.000000  0.000000  0.000000
 Perturbation : derivative vs k along direction   1

 dfpt_looppert : COMMENT -
  In a d/dk calculation, iscf is set to -3 automatically.
 The set of symmetries contains only one element for this perturbation.
 symkpt : not enough symmetry to change the number of k points.

[...]

 Initialisation of the first-order wave-functions :
  ireadwf=   0

--- !BeginCycle
iteration_state: {dtset: 1, }
solver: {iscf: 7, nstep: 2000, nline: 4, wfoptalg: 0, }
tolerances: {tolwfr: 1.00E-20, }
...

     iter   2DEtotal(Ha)        deltaE(Ha) residm    vres2
-ETOT  1  -63.017889340684     -6.302E+01 7.230E-02 0.000E+00
 ETOT  2  -63.123834159357     -1.059E-01 4.395E-02 0.000E+00
 ETOT  3  -63.124998903319     -1.165E-03 3.273E-03 0.000E+00
 ETOT  4  -63.125022886469     -2.398E-05 3.478E-03 0.000E+00
 ETOT  5  -63.125023563814     -6.773E-07 3.163E-04 0.000E+00
 ETOT  6  -63.125023586637     -2.282E-08 3.758E-04 0.000E+00
 ETOT  7  -63.125023587504     -8.667E-10 3.452E-05 0.000E+00
 ETOT  8  -63.125023587540     -3.600E-11 4.258E-05 0.000E+00
[...]
 ETOT 35  -63.125023587542     -7.105E-15 2.981E-18 0.000E+00
 ETOT 36  -63.125023587542     -1.421E-14 3.911E-18 0.000E+00
 ETOT 37  -63.125023587542      7.105E-15 3.512E-19 0.000E+00
 ETOT 38  -63.125023587542      7.105E-15 4.610E-19 0.000E+00
 ETOT 39  -63.125023587542      7.105E-15 4.140E-20 0.000E+00
 ETOT 40  -63.125023587542     -7.105E-15 5.435E-20 0.000E+00
 ETOT 41  -63.125023587541      3.553E-14 9.392E-21 0.000E+00

 At SCF step   41   max residual=  9.39E-21 < tolwfr=  1.00E-20 =>converged.

 ----iterations are completed or convergence reached----

 dfpt_looppert: DFPT cycle converged with prtwf=-1. Will skip output of the 1st-order WFK file.
 dfpt_looppert : ek2=    7.8524170223E+01
          f-sum rule ratio=    1.1657799096E+00
 prteigrs : about to open file /scratch/users/j/a/jabreu/flow_simple_8atoms/flow/w255/t1/tmpdata/tmp_1WF1_EIG
 Expectation of eigenvalue derivatives (hartree) for nkpt=   1  k points:
  (in case of degenerate eigenvalues, averaged derivative)
 kpt#   1, nband= 53, wtk=  1.00000, kpt=  0.0000  0.0000  0.0000 (reduced coord)
   0.00000    0.00000   -0.00000   -0.00000   -0.00000   -0.00000    0.00000    0.00000
  -0.00000   -0.00000    0.00000    0.00000    0.00000    0.00000   -0.00000   -0.00000
   0.00000    0.00000    0.00000    0.00000    0.00000   -0.00000   -0.00000   -0.00000
   0.00000   -0.00000   -0.00000   -0.00000   -0.00000   -0.00000   -0.00000   -0.00000
   0.00000    0.00000   -0.00000    0.00000   -0.00000    0.00000   -0.00000   -0.00000
   0.00000   -0.00000   -0.00000   -0.00000    0.00000   -0.00000   -0.00000    0.00000
  -0.00000   -0.00000   -0.00001   -0.00000   -0.00001

 Eight components of 2nd-order total energy (hartree) are
 1,2,3: 0th-order hamiltonian combined with 1st-order wavefunctions
     kin0=   7.33164432E+01 eigvalue=   1.32820900E+00  local=  -3.27985352E+01
 4,5,6: 1st-order hamiltonian combined with 1st and 0th-order wfs
     kin1=  -9.15419001E+01  Hartree=   0.00000000E+00     xc=   0.00000000E+00
 7,8,9: eventually, occupation + non-local contributions
    edocc=   1.56879531E+01     enl0=   5.59095351E+00   enl1=  -3.47081471E+01
 1-9 gives the relaxation energy (to be shifted if some occ is /=2.0)
   erelax=  -6.31250236E+01
  No Ewald or frozen-wf contrib.: the relaxation energy is the total one
 2DEtotal=   -0.6312502359E+02 Ha. Also 2DEtotal=   -0.171771924801E+04 eV
    (  non-var. 2DEtotal :   -6.3125023588E+01 Ha)

 Perturbation wavevector (in red.coord.)   0.000000  0.000000  0.000000
 Perturbation : derivative vs k along direction   2
 The set of symmetries contains only one element for this perturbation.
 symkpt : not enough symmetry to change the number of k points.

[...]

 Perturbation wavevector (in red.coord.)   0.000000  0.000000  0.000000
 Perturbation : derivative vs k along direction   3
 The set of symmetries contains only one element for this perturbation.
 symkpt : not enough symmetry to change the number of k points.

-inwffil : will read wavefunctions from disk file /scratch/users/j/a/jabreu/flow_simple_8atoms/flow/w255/t1/indata/in_WFK

 Initialisation of the first-order wave-functions :
  ireadwf=   0

--- !BeginCycle
iteration_state: {dtset: 1, }
solver: {iscf: 7, nstep: 2000, nline: 4, wfoptalg: 0, }
tolerances: {tolwfr: 1.00E-20, }
...

     iter   2DEtotal(Ha)        deltaE(Ha) residm    vres2
-ETOT  1  -98.081325010778     -9.808E+01 6.641E-02 0.000E+00
 ETOT  2  -98.211035105644     -1.297E-01 2.641E-03 0.000E+00
 ETOT  3  -98.212248045213     -1.213E-03 3.762E-05 0.000E+00
 ETOT  4  -98.212270302110     -2.226E-05 2.503E-06 0.000E+00
 ETOT  5  -98.212270952478     -6.504E-07 6.763E-07 0.000E+00
 ETOT  6  -98.212270978149     -2.567E-08 1.202E-07 0.000E+00
 ETOT  7  -98.212270979322     -1.172E-09 6.955E-08 0.000E+00
 ETOT  8  -98.212270979379     -5.706E-11 1.256E-08 0.000E+00
 ETOT  9  -98.212270979382     -2.728E-12 7.465E-09 0.000E+00
 ETOT 10  -98.212270979382     -3.837E-13 1.354E-09 0.000E+00
 ETOT 11  -98.212270979382      9.948E-14 8.228E-10 0.000E+00
 ETOT 12  -98.212270979382      0.000E+00 1.490E-10 0.000E+00
 ETOT 13  -98.212270979382      1.137E-13 9.228E-11 0.000E+00
 ETOT 14  -98.212270979382     -1.137E-13 1.662E-11 0.000E+00
 ETOT 15  -98.212270979382      0.000E+00 1.047E-11 0.000E+00
 ETOT 16  -98.212270979382      0.000E+00 1.872E-12 0.000E+00
 ETOT 17  -98.212270979382     -2.842E-14 1.197E-12 0.000E+00
 ETOT 18  -98.212270979382      2.842E-14 2.702E-13 0.000E+00
 ETOT 19  -98.212270979382      0.000E+00 1.376E-13 0.000E+00
 ETOT 20  -98.212270979382     -1.421E-14 3.942E-14 0.000E+00
 ETOT 21  -98.212270979382      1.421E-14 1.588E-14 0.000E+00
 ETOT 22  -98.212270979382      0.000E+00 5.754E-15 0.000E+00
 ETOT 23  -98.212270979382      0.000E+00 1.837E-15 0.000E+00
 ETOT 24  -98.212270979382      2.842E-14 8.404E-16 0.000E+00
 ETOT 25  -98.212270979382     -1.421E-14 2.129E-16 0.000E+00
 ETOT 26  -98.212270979382     -4.263E-14 1.228E-16 0.000E+00
 ETOT 27  -98.212270979382      4.263E-14 2.471E-17 0.000E+00
 ETOT 28  -98.212270979382     -2.842E-14 1.795E-17 0.000E+00
 ETOT 29  -98.212270979382      1.421E-14 2.871E-18 0.000E+00
 ETOT 30  -98.212270979382      0.000E+00 2.626E-18 0.000E+00
 ETOT 31  -98.212270979382     -2.842E-14 4.022E-19 0.000E+00
 ETOT 32  -98.212270979382      0.000E+00 3.842E-19 0.000E+00
 ETOT 33  -98.212270979382      2.842E-14 5.887E-20 0.000E+00
 ETOT 34  -98.212270979382      0.000E+00 5.623E-20 0.000E+00
 ETOT 35  -98.212270979382      0.000E+00 9.898E-21 0.000E+00

 At SCF step   35   max residual=  9.90E-21 < tolwfr=  1.00E-20 =>converged.

 ----iterations are completed or convergence reached----

 dfpt_looppert: DFPT cycle converged with prtwf=-1. Will skip output of the 1st-order WFK file.
 dfpt_looppert : ek2=    1.2175391627E+02
          f-sum rule ratio=    1.1713779593E+00
 prteigrs : about to open file /scratch/users/j/a/jabreu/flow_simple_8atoms/flow/w255/t1/tmpdata/tmp_1WF1_EIG
 Expectation of eigenvalue derivatives (hartree) for nkpt=   1  k points:
  (in case of degenerate eigenvalues, averaged derivative)
 kpt#   1, nband= 53, wtk=  1.00000, kpt=  0.0000  0.0000  0.0000 (reduced coord)
   0.00000    0.00000    0.00000    0.00000   -0.00000   -0.00000    0.00000    0.00000
  -0.00000   -0.00000    0.00000    0.00000   -0.00000   -0.00000   -0.00000   -0.00000
   0.00000    0.00000    0.00000    0.00000    0.00000    0.00000   -0.00000   -0.00000
   0.00000   -0.00000    0.00000    0.00000   -0.00000    0.00000    0.00000    0.00000
   0.00000    0.00000   -0.00000    0.00000   -0.00000   -0.00000   -0.00000   -0.00000
  -0.00000    0.00000    0.00000   -0.00000   -0.00000   -0.00000   -0.00000    0.00000
  -0.00000   -0.00000   -0.00001    0.00000    0.00001

 Eight components of 2nd-order total energy (hartree) are
 1,2,3: 0th-order hamiltonian combined with 1st-order wavefunctions
     kin0=   1.13299924E+02 eigvalue=   1.97884497E+00  local=  -5.05839837E+01
 4,5,6: 1st-order hamiltonian combined with 1st and 0th-order wfs
     kin1=  -1.42619854E+02  Hartree=   0.00000000E+00     xc=   0.00000000E+00
 7,8,9: eventually, occupation + non-local contributions
    edocc=   2.49784359E+01     enl0=   8.53904971E+00   enl1=  -5.38046880E+01
 1-9 gives the relaxation energy (to be shifted if some occ is /=2.0)
   erelax=  -9.82122710E+01
  No Ewald or frozen-wf contrib.: the relaxation energy is the total one
 2DEtotal=   -0.9821227098E+02 Ha. Also 2DEtotal=   -0.267249180538E+04 eV
    (  non-var. 2DEtotal :   -9.8212270979E+01 Ha)

 CALCULATION OF EFFECTIVE MASSES
 NOTE : Additional infos (eff. mass eigenvalues, eigenvectors and, if degenerate, average mass) are available in stdout.

 K-point ( 0.000, 0.000, 0.000) | band =    44
 Effective mass tensor:
             -0.9574561977              0.1695200765             -0.2844985649
              0.1695200765             -0.8792549151             -0.3575878476
             -0.2844985649             -0.3575878476             -0.4921849023
 Effective mass tensor eigenvalues:
             -1.0923266319             -1.0923201759             -0.1442492072
 Angular average effective mass 1/(<1/m>)=  -0.3423326231
 Angular average effective mass for Frohlich model (<m**0.5>)**2=  -0.4638537271
 Effective masses along directions: (cart. coord. / red. coord. -> eff. mass)
    1:   1.000000  0.000000  0.000000 /   0.975665 -0.219267  0.000000 ->  -0.5645171127
    2:   0.000000  1.000000  0.000000 /   0.000000  1.000000  0.000000 ->  -0.4409716074
    3:   0.000000  0.000000  1.000000 /  -0.471632 -0.471632  0.745068 ->  -0.2116732950
    4:   0.577350  0.577350  0.577350 /   0.139568 -0.052052  0.988843 ->  -1.0849681726
    5:   0.000000  0.707107  0.707107 /  -0.532065  0.101991  0.840538 ->  -0.8152975433
    6:   0.707107  0.000000  0.707107 /   0.109182 -0.624249  0.773558 ->  -0.6933537098
    7:   0.707107  0.707107  0.000000 /   0.800121  0.599838  0.000000 ->  -0.3230578327

 K-point ( 0.000, 0.000, 0.000) | band =    45
 Effective mass tensor:
              0.1358282247             -0.0037383723              0.0062740198
             -0.0037383723              0.1341038686              0.0078857958
              0.0062740198              0.0078857958              0.1255679376
 Effective mass tensor eigenvalues:
              0.1178949381              0.1388025052              0.1388025876
 Angular average effective mass 1/(<1/m>)=   0.1310553815
 Angular average effective mass for Frohlich model (<m**0.5>)**2=   0.1312948425
 Effective masses along directions: (cart. coord. / red. coord. -> eff. mass)
    1:   1.000000  0.000000  0.000000 /   0.975665 -0.219267  0.000000 ->   0.1353869316
    2:   0.000000  1.000000  0.000000 /   0.000000  1.000000  0.000000 ->   0.1334826195
    3:   0.000000  0.000000  1.000000 /  -0.471632 -0.471632  0.745068 ->   0.1247935194
    4:   0.577350  0.577350  0.577350 /   0.139568 -0.052052  0.988843 ->   0.1387771536
    5:   0.000000  0.707107  0.707107 /  -0.532065  0.101991  0.840538 ->   0.1375415759
    6:   0.707107  0.000000  0.707107 /   0.109182 -0.624249  0.773558 ->   0.1366804422
    7:   0.707107  0.707107  0.000000 /   0.800121  0.599838  0.000000 ->   0.1304227512

 END OF EFFECTIVE MASSES SECTION

 ---- first-order wavefunction calculations are completed ----

 Total localisation tensor (bohr^2) in cartesian coordinates
  WARNING : still subject to testing - especially symmetries.
      direction              matrix element
   alpha     beta       real part   imaginary part
     1        1       2.8532111551    0.0000000000
     1        2      -0.5947758011    0.0000000000
     1        3      -1.7217430140    0.0000000000
     2        1      -0.5947758011    0.0000000000
     2        2       2.5788529969    0.0000000000
     2        3      -2.1640324011    0.0000000000
     3        1      -1.7217430140    0.0000000000
     3        2      -2.1640324011    0.0000000000
     3        3      10.3101017135    0.0000000000

 respfn : d/dk was computed, but no 2DTE, so no DDB output.

== END DATASET(S) ==============================================================

 -outvars: echo values of variables after computation  --------
            acell      1.0000000000E+00  1.0000000000E+00  1.0000000000E+00 Bohr
              amu      6.97230000E+01  1.07868200E+02  3.20660000E+01
             ecut      4.30000000E+01 Hartree
           etotal     -9.8212270979E+01
            fcart      0.0000000000E+00  0.0000000000E+00  0.0000000000E+00
                       0.0000000000E+00  0.0000000000E+00  0.0000000000E+00
                       0.0000000000E+00  0.0000000000E+00  0.0000000000E+00
                       0.0000000000E+00  0.0000000000E+00  0.0000000000E+00
                       0.0000000000E+00  0.0000000000E+00  0.0000000000E+00
                       0.0000000000E+00  0.0000000000E+00  0.0000000000E+00
                       0.0000000000E+00  0.0000000000E+00  0.0000000000E+00
                       0.0000000000E+00  0.0000000000E+00  0.0000000000E+00
-          fftalg         512
           irdden           1
           irdwfk           1
           istwfk        1
              ixc     -116133
           kptopt           0
P           mkmem           1
P          mkqmem           1
P          mk1mem           1
            natom           8
            nband          53
           nbdbuf           4
            ngfft          75      75      75
             nkpt           1
            nstep        2000
             nsym           8
           ntypat           3
              occ      2.000000  2.000000  2.000000  2.000000  2.000000  2.000000
                       2.000000  2.000000  2.000000  2.000000  2.000000  2.000000
                       2.000000  2.000000  2.000000  2.000000  2.000000  2.000000
                       2.000000  2.000000  2.000000  2.000000  2.000000  2.000000
                       2.000000  2.000000  2.000000  2.000000  2.000000  2.000000
                       2.000000  2.000000  2.000000  2.000000  2.000000  2.000000
                       2.000000  2.000000  2.000000  2.000000  2.000000  2.000000
                       2.000000  2.000000  0.000000  0.000000  0.000000  0.000000
                       0.000000  0.000000  0.000000  0.000000  0.000000
        optdriver           1
            prtwf          -1
            rfdir           1       1       1
           rfelfd           2
            rprim      9.6535817595E+00  0.0000000000E+00 -7.8935378668E+00
                      -2.1695078623E+00  9.4066400177E+00 -7.8935378668E+00
                       0.0000000000E+00  0.0000000000E+00  1.2469947107E+01
          spgroup         122
           strten      0.0000000000E+00  0.0000000000E+00  0.0000000000E+00
                       0.0000000000E+00  0.0000000000E+00  0.0000000000E+00
           symrel      1  0  0   0  1  0   0  0  1       0  0  1  -1 -1 -1   1  0  0
                       0  1  0   1  0  0  -1 -1 -1      -1 -1 -1   0  0  1   0  1  0
                       0  1  0   1  0  0   0  0  1       0  0  1  -1 -1 -1   0  1  0
                       1  0  0   0  1  0  -1 -1 -1      -1 -1 -1   0  0  1   1  0  0
            tnons      0.0000000  0.0000000  0.0000000    -0.2500000  0.2500000  0.5000000
                       0.0000000  0.0000000  0.0000000    -0.2500000  0.2500000  0.5000000
                      -0.2500000  0.2500000  0.5000000     0.0000000  0.0000000  0.0000000
                      -0.2500000  0.2500000  0.5000000    -0.0000000  0.0000000  0.0000000
           tolwfr      1.00000000E-20
            typat      1  1  2  2  3  3  3  3
           useylm           1
           xangst      4.1607327616E-01  3.7333346301E+00 -8.7767443368E-01
                       1.9802006669E+00  2.4888897534E+00 -4.1770803343E+00
                       0.0000000000E+00  0.0000000000E+00  0.0000000000E+00
                       3.5443280576E+00  1.2444448767E+00 -8.7767443368E-01
                       6.5718232575E-01  6.2222243835E-01  2.3319967303E+00
                       4.0029412829E+00  2.0246520810E+00 -5.1444895045E+00
                       2.3131186746E+00  3.1111121917E+00 -1.9988054305E+00
                       9.4756038437E-01  4.1975723024E+00  1.3006004700E+00
            xcart      7.8626454315E-01  7.0549800133E+00 -1.6585643135E+00
                       3.7420369486E+00  4.7033200089E+00 -7.8935378668E+00
                       0.0000000000E+00  0.0000000000E+00  0.0000000000E+00
                       6.6978093540E+00  2.3516600044E+00 -1.6585643135E+00
                       1.2418946150E+00  1.1758300022E+00  4.4068351631E+00
                       7.5644627507E+00  3.8260379475E+00 -9.7216762570E+00
                       4.3711608079E+00  5.8791500111E+00 -3.7771948567E+00
                       1.7906296208E+00  7.9322620746E+00  2.4577786966E+00
             xred      2.5000000000E-01  7.5000000000E-01  5.0000000000E-01
                       5.0000000000E-01  5.0000000000E-01 -5.5511151231E-17
                       0.0000000000E+00  0.0000000000E+00  0.0000000000E+00
                       7.5000000000E-01  2.5000000000E-01  5.0000000000E-01
                       1.5673800000E-01  1.2500000000E-01  5.3173800000E-01
                       8.7500000000E-01  4.0673800000E-01  3.1738000000E-02
                       5.9326200000E-01  6.2500000000E-01  4.6826200000E-01
                       3.7500000000E-01  8.4326200000E-01  9.6826200000E-01
            znucl       31.00000   47.00000   16.00000

- Timing analysis has been suppressed with timopt=0

 Suggested references for the acknowledgment of ABINIT usage.

 Calculation completed.
.Delivered   6 WARNINGs and   5 COMMENTs to log file.