.Version 9.5.1 of ABINIT

 ABINIT is a project of the Universite Catholique de Louvain,
 Corning Inc. and other collaborators, see ~abinit/doc/developers/contributors.txt .
 acknowledgments of the ABINIT effort.

.Starting date : Tue 11 May 2021.
- ( at 21h38 )

- input  file    -> /scratch/users/j/a/jabreu/flow_simple_8atoms/flow/w335/t1/run.abi
- output file    -> /scratch/users/j/a/jabreu/flow_simple_8atoms/flow/w335/t1/run.abo
- root for input  files -> /scratch/users/j/a/jabreu/flow_simple_8atoms/flow/w335/t1/indata/in
- root for output files -> /scratch/users/j/a/jabreu/flow_simple_8atoms/flow/w335/t1/outdata/out

 Symmetries : space group Cc (#  9); Bravais mC (1-face-center monocl.)
     intxc =       0      iscf =       7    lmnmax =      18     lnmax =       6
     mgfft =      72  mpssoang =       3    mqgrid =    3001     natom =       8
  nloc_mem =       1    nspden =       1   nspinor =       1    nsppol =       1
      nsym =       2    n1xccc =    2501    ntypat =       3    occopt =       1
   xclevel =       2
-    mband =          39        mffmem =           1         mkmem =           2
-   mkqmem =           2        mk1mem =           2           mpw =       12888
      nfft =      311040          nkpt =           2
  Rough estimation (10% accuracy) of disk space for files :

------------- Echo of variables that govern the present computation ------------
-
- outvars: echo of selected default values
-   iomode0 =  0 , fftalg0 =512 , wfoptalg0 =  0
-
- outvars: echo of global parameters not present in the input file
-  max_nthreads =    0
-
 -outvars: echo values of preprocessed input variables --------
            acell      1.0000000000E+00  1.0000000000E+00  1.0000000000E+00 Bohr
              amu      6.94100000E+00  7.49215900E+01  3.20660000E+01
             ecut      4.20000000E+01 Hartree
-          fftalg         512
           irdden           1
           irdwfk           1
           istwfk        1    0
              ixc     -116133
              kpt      5.00000000E-01  0.00000000E+00  5.00000000E-01
                       2.82351666E-01 -2.82351666E-01  1.56736660E-17
           kptopt           0
P           mkmem           2
P          mkqmem           2
P          mk1mem           2
            natom           8
            nband          39
           nbdbuf           4
            ngfft          72      72      60
             nkpt           2
            nstep        2000
             nsym           2
           ntypat           3
              occ      2.000000  2.000000  2.000000  2.000000  2.000000  2.000000
                       2.000000  2.000000  2.000000  2.000000  2.000000  2.000000
                       2.000000  2.000000  2.000000  2.000000  2.000000  2.000000
                       2.000000  2.000000  2.000000  2.000000  2.000000  2.000000
                       2.000000  2.000000  2.000000  2.000000  2.000000  2.000000
                       0.000000  0.000000  0.000000  0.000000  0.000000  0.000000
                       0.000000  0.000000  0.000000
        optdriver           1
            prtwf          -1
            rfdir           1       1       1
           rfelfd           2
            rprim      1.1280570715E+01  0.0000000000E+00  4.4934314563E+00
                       6.9584779256E+00  8.8786744847E+00  4.4934314563E+00
                       0.0000000000E+00  0.0000000000E+00  9.8986109796E+00
          spgroup           9
           symrel      1  0  0   0  1  0   0  0  1       0  1  0   1  0  0   0  0  1
            tnons      0.0000000  0.0000000  0.0000000     0.0000000  0.0000000  0.5000000
           tolwfr      1.00000000E-20
            typat      1  1  2  2  3  3  3  3
           useylm           1
              wtk        0.50000    0.50000
           xangst      4.2506634333E+00  3.5831254313E+00  7.6072735773E+00
                       5.4422381248E+00  1.1353288831E+00  4.9882139137E+00
                       6.4592765946E+00  4.4546254983E+00  5.0641452162E+00
                       7.4905698912E+00  2.3360875757E+00  7.6832048798E+00
                       4.4522059592E+00  3.5692134920E+00  4.9614384228E+00
                       5.5556109026E+00  1.3025399624E+00  7.5804980863E+00
                       6.8267783673E+00  4.6226728914E+00  7.4011509151E+00
                       7.8495314346E+00  2.5216787652E+00  4.7820912516E+00
            xcart      8.0325897721E+00  6.7711257649E+00  1.4375663679E+01
                       1.0284339606E+01  2.1454606598E+00  9.4263581892E+00
                       1.2206263780E+01  8.4180222164E+00  9.5698475559E+00
                       1.4155125674E+01  4.4145657405E+00  1.4519153046E+01
                       8.4134499501E+00  6.7448360098E+00  9.3757598442E+00
                       1.0498583107E+01  2.4614438061E+00  1.4325065334E+01
                       1.2900741484E+01  8.7355857667E+00  1.3986148298E+01
                       1.4833464683E+01  4.7652822614E+00  9.0368428080E+00
             xred      2.4164200000E-01  7.6262800000E-01  9.9640700000E-01
                       7.6262800000E-01  2.4164200000E-01  4.9640700000E-01
                       4.9721000000E-01  9.4811700000E-01  3.1068700000E-01
                       9.4811700000E-01  4.9721000000E-01  8.1068700000E-01
                       2.7723100000E-01  7.5966700000E-01  4.7648400000E-01
                       7.5966700000E-01  2.7723100000E-01  9.7648400000E-01
                       5.3671100000E-01  9.8388400000E-01  7.2267300000E-01
                       9.8388400000E-01  5.3671100000E-01  2.2267300000E-01
            znucl        3.00000   33.00000   16.00000

 chkinp: Checking input parameters for consistency.

== DATASET  1 ==================================================================
-   mpi_nproc: 1, omp_nthreads: -1 (-1 if OMP is not activated)

--- !DatasetInfo
iteration_state: {dtset: 1, }
dimensions: {natom: 8, nkpt: 2, mband: 39, nsppol: 1, nspinor: 1, nspden: 1, mpw: 12888, }
cutoff_energies: {ecut:  42.0, pawecutdg:  -1.0, }
electrons: {nelect:   6.00000000E+01, charge:   0.00000000E+00, occopt:   1.00000000E+00, tsmear:   1.00000000E-02, }
meta: {optdriver: 1, rfelfd: 2, }
...

 Real(R)+Recip(G) space primitive vectors, cartesian coordinates (Bohr,Bohr^-1):
 R(1)= 11.2805707  0.0000000  4.4934315  G(1)=  0.0886480 -0.0694760  0.0000000
 R(2)=  6.9584779  8.8786745  4.4934315  G(2)=  0.0000000  0.1126294  0.0000000
 R(3)=  0.0000000  0.0000000  9.8986110  G(3)= -0.0402414 -0.0195893  0.1010243
 Unit cell volume ucvol=  9.9141038E+02 bohr^3
 Angles (23,13,12)=  6.82809412E+01  6.82809412E+01  4.79851274E+01 degrees

 getcut: wavevector=  0.0000  0.0000  0.0000  ngfft=  72  72  60
         ecut(hartree)=     42.000   => boxcut(ratio)=   2.03255

--- Pseudopotential description ------------------------------------------------
- pspini: atom type   1  psp file is /scratch/users/j/a/jabreu/pseudos/PBEsol/Li.psp8
- pspatm: opening atomic psp file    /scratch/users/j/a/jabreu/pseudos/PBEsol/Li.psp8
- Li    ONCVPSP-3.3.0  r_core=   1.40824   1.10935
-  3.00000   3.00000    180112                znucl, zion, pspdat
    8 -116133    1    4       400   0.00000   pspcod,pspxc,lmax,lloc,mmax,r2well
    3.99000000000000    0.00000000000000    0.00000000000000   rchrg,fchrg,qchrg
     nproj     2     2
     extension_switch     1
  pspatm : epsatm=    2.60859637
         --- l  ekb(1:nproj) -->
             0   -4.855856   -1.482423
             1   -2.171544   -0.427615
 pspatm: atomic psp has been read  and splines computed

- pspini: atom type   2  psp file is /scratch/users/j/a/jabreu/pseudos/PBEsol/As.psp8
- pspatm: opening atomic psp file    /scratch/users/j/a/jabreu/pseudos/PBEsol/As.psp8
- As    ONCVPSP-3.3.0  r_core=   1.76603   1.70395   1.80867
- 33.00000  15.00000    180112                znucl, zion, pspdat
    8 -116133    2    4       600   0.00000   pspcod,pspxc,lmax,lloc,mmax,r2well
    5.99000000000000    5.00000000000000    0.00000000000000   rchrg,fchrg,qchrg
     nproj     2     2     2
     extension_switch     1
  pspatm : epsatm=   28.79155382
         --- l  ekb(1:nproj) -->
             0    8.270760    0.868950
             1    4.919053    0.756587
             2  -10.048665   -4.076802
 pspatm: atomic psp has been read  and splines computed

- pspini: atom type   3  psp file is /scratch/users/j/a/jabreu/pseudos/PBEsol/S.psp8
- pspatm: opening atomic psp file    /scratch/users/j/a/jabreu/pseudos/PBEsol/S.psp8
- S     ONCVPSP-3.3.0  r_core=   1.45376   1.45376   1.61851
- 16.00000   6.00000    180112                znucl, zion, pspdat
    8 -116133    2    4       600   0.00000   pspcod,pspxc,lmax,lloc,mmax,r2well
    5.99000000000000    6.00000000000000    0.00000000000000   rchrg,fchrg,qchrg
     nproj     2     2     2
     extension_switch     1
  pspatm : epsatm=    8.71840985
         --- l  ekb(1:nproj) -->
             0    6.834532    0.579453
             1    3.282851    0.896984
             2   -3.496974   -0.974265
 pspatm: atomic psp has been read  and splines computed

   5.86043639E+03                                ecore*ucvol(ha*bohr**3)

-inwffil : will read wavefunctions from disk file /scratch/users/j/a/jabreu/flow_simple_8atoms/flow/w335/t1/indata/in_WFK

 ==>  initialize data related to q vector <==

 The list of irreducible perturbations for this q vector is:
    1)    idir= 1    ipert=   9
    2)    idir= 2    ipert=   9
    3)    idir= 3    ipert=   9

 Perturbation wavevector (in red.coord.)   0.000000  0.000000  0.000000
 Perturbation : derivative vs k along direction   1

 dfpt_looppert : COMMENT -
  In a d/dk calculation, iscf is set to -3 automatically.
 The set of symmetries contains only one element for this perturbation.
 symkpt : not enough symmetry to change the number of k points.

[...]

 Initialisation of the first-order wave-functions :
  ireadwf=   0

--- !BeginCycle
iteration_state: {dtset: 1, }
solver: {iscf: 7, nstep: 2000, nline: 4, wfoptalg: 0, }
tolerances: {tolwfr: 1.00E-20, }
...

     iter   2DEtotal(Ha)        deltaE(Ha) residm    vres2
-ETOT  1  -64.684056752087     -6.468E+01 6.510E-02 0.000E+00
 ETOT  2  -64.761504731880     -7.745E-02 2.321E-03 0.000E+00
 ETOT  3  -64.761896294678     -3.916E-04 9.860E-05 0.000E+00
 ETOT  4  -64.761900480999     -4.186E-06 1.223E-05 0.000E+00
 ETOT  5  -64.761900533103     -5.210E-08 8.286E-07 0.000E+00
 ETOT  6  -64.761900533810     -7.064E-10 1.125E-07 0.000E+00
 ETOT  7  -64.761900533820     -1.009E-11 8.235E-09 0.000E+00
 ETOT  8  -64.761900533820     -2.132E-13 1.176E-09 0.000E+00
 ETOT  9  -64.761900533820      1.421E-14 8.817E-11 0.000E+00
 ETOT 10  -64.761900533820      1.421E-14 1.291E-11 0.000E+00
 ETOT 11  -64.761900533820     -2.842E-14 9.817E-13 0.000E+00
 ETOT 12  -64.761900533820      0.000E+00 1.452E-13 0.000E+00
 ETOT 13  -64.761900533820      0.000E+00 1.118E-14 0.000E+00
 ETOT 14  -64.761900533820      0.000E+00 1.659E-15 0.000E+00
 ETOT 15  -64.761900533820      0.000E+00 1.291E-16 0.000E+00
 ETOT 16  -64.761900533820      0.000E+00 1.917E-17 0.000E+00
 ETOT 17  -64.761900533820      0.000E+00 1.506E-18 0.000E+00
 ETOT 18  -64.761900533820      0.000E+00 2.233E-19 0.000E+00
 ETOT 19  -64.761900533820      0.000E+00 1.768E-20 0.000E+00
 ETOT 20  -64.761900533820      0.000E+00 9.642E-21 0.000E+00

 At SCF step   20   max residual=  9.64E-21 < tolwfr=  1.00E-20 =>converged.

 ----iterations are completed or convergence reached----

 dfpt_looppert: DFPT cycle converged with prtwf=-1. Will skip output of the 1st-order WFK file.
 dfpt_looppert : ek2=    6.0095882198E+01
          f-sum rule ratio=    1.3910117156E+00
 prteigrs : about to open file /scratch/users/j/a/jabreu/flow_simple_8atoms/flow/w335/t1/tmpdata/tmp_1WF1_EIG
 Expectation of eigenvalue derivatives (hartree) for nkpt=   2  k points:
  (in case of degenerate eigenvalues, averaged derivative)
 kpt#   1, nband= 39, wtk=  0.50000, kpt=  0.5000  0.0000  0.5000 (reduced coord)
   0.00000    0.00000   -0.00000    0.00000    0.00000   -0.00000    0.00000    0.00000
   0.00000   -0.00000   -0.00000    0.00000   -0.00000   -0.00000   -0.00000   -0.00000
   0.00000    0.00000    0.00000   -0.00000    0.00000   -0.00000    0.00000    0.00000
  -0.00000    0.00000    0.00000    0.00000   -0.00000   -0.00000    0.00000    0.00000
  -0.00000   -0.00000    0.00000   -0.00000    0.00000    0.00001   -0.00003
 prteigrs : prtvol=0 or 1, do not print more k-points.

 Eight components of 2nd-order total energy (hartree) are
 1,2,3: 0th-order hamiltonian combined with 1st-order wavefunctions
     kin0=   5.46048729E+01 eigvalue=   5.95791392E+00  local=  -2.19898673E+01
 4,5,6: 1st-order hamiltonian combined with 1st and 0th-order wfs
     kin1=  -8.35940762E+01  Hartree=   0.00000000E+00     xc=   0.00000000E+00
 7,8,9: eventually, occupation + non-local contributions
    edocc=   2.17729946E+01     enl0=   4.41598634E+00   enl1=  -4.59297249E+01
 1-9 gives the relaxation energy (to be shifted if some occ is /=2.0)
   erelax=  -6.47619005E+01
  No Ewald or frozen-wf contrib.: the relaxation energy is the total one
 2DEtotal=   -0.6476190053E+02 Ha. Also 2DEtotal=   -0.176226093493E+04 eV
    (  non-var. 2DEtotal :   -6.4761900534E+01 Ha)

 Perturbation wavevector (in red.coord.)   0.000000  0.000000  0.000000
 Perturbation : derivative vs k along direction   2
 The set of symmetries contains only one element for this perturbation.
 symkpt : not enough symmetry to change the number of k points.

[...]

 Perturbation wavevector (in red.coord.)   0.000000  0.000000  0.000000
 Perturbation : derivative vs k along direction   3
 The set of symmetries contains only one element for this perturbation.
 symkpt : not enough symmetry to change the number of k points.

-inwffil : will read wavefunctions from disk file /scratch/users/j/a/jabreu/flow_simple_8atoms/flow/w335/t1/indata/in_WFK

 Initialisation of the first-order wave-functions :
  ireadwf=   0

--- !BeginCycle
iteration_state: {dtset: 1, }
solver: {iscf: 7, nstep: 2000, nline: 4, wfoptalg: 0, }
tolerances: {tolwfr: 1.00E-20, }
...

     iter   2DEtotal(Ha)        deltaE(Ha) residm    vres2
-ETOT  1  -53.309614134624     -5.331E+01 3.490E-01 0.000E+00
 ETOT  2  -53.384018418978     -7.440E-02 2.539E-02 0.000E+00
 ETOT  3  -53.384394501981     -3.761E-04 1.320E-03 0.000E+00
 ETOT  4  -53.384398472644     -3.971E-06 2.066E-04 0.000E+00
 ETOT  5  -53.384398521155     -4.851E-08 1.384E-05 0.000E+00
 ETOT  6  -53.384398521803     -6.481E-10 2.625E-06 0.000E+00
 ETOT  7  -53.384398521812     -9.194E-12 1.913E-07 0.000E+00
 ETOT  8  -53.384398521812     -1.208E-13 3.762E-08 0.000E+00
 ETOT  9  -53.384398521812     -2.842E-14 2.845E-09 0.000E+00
 ETOT 10  -53.384398521812      2.132E-14 5.700E-10 0.000E+00
 ETOT 11  -53.384398521812      1.421E-14 4.382E-11 0.000E+00
 ETOT 12  -53.384398521812     -1.421E-14 8.902E-12 0.000E+00
 ETOT 13  -53.384398521812      7.105E-15 6.888E-13 0.000E+00
 ETOT 14  -53.384398521812     -1.421E-14 1.414E-13 0.000E+00
 ETOT 15  -53.384398521812      0.000E+00 1.096E-14 0.000E+00
 ETOT 16  -53.384398521812      0.000E+00 2.271E-15 0.000E+00
 ETOT 17  -53.384398521812      0.000E+00 1.758E-16 0.000E+00
 ETOT 18  -53.384398521812      0.000E+00 3.671E-17 0.000E+00
 ETOT 19  -53.384398521812     -1.421E-14 2.834E-18 0.000E+00
 ETOT 20  -53.384398521812      1.421E-14 5.960E-19 0.000E+00
 ETOT 21  -53.384398521812      0.000E+00 4.588E-20 0.000E+00
 ETOT 22  -53.384398521812      0.000E+00 9.799E-21 0.000E+00

 At SCF step   22   max residual=  9.80E-21 < tolwfr=  1.00E-20 =>converged.

 ----iterations are completed or convergence reached----

 dfpt_looppert: DFPT cycle converged with prtwf=-1. Will skip output of the 1st-order WFK file.
 dfpt_looppert : ek2=    5.7839100103E+01
          f-sum rule ratio=    1.0780206336E+00
 prteigrs : about to open file /scratch/users/j/a/jabreu/flow_simple_8atoms/flow/w335/t1/tmpdata/tmp_1WF1_EIG
 Expectation of eigenvalue derivatives (hartree) for nkpt=   2  k points:
  (in case of degenerate eigenvalues, averaged derivative)
 kpt#   1, nband= 39, wtk=  0.50000, kpt=  0.5000  0.0000  0.5000 (reduced coord)
  -0.00000   -0.00000    0.00000   -0.00000    0.00000   -0.00000   -0.00000    0.00000
  -0.00000    0.00000    0.00000    0.00000   -0.00000    0.00000    0.00000   -0.00000
  -0.00000    0.00000   -0.00000    0.00000    0.00000   -0.00000   -0.00000    0.00000
   0.00000   -0.00000    0.00000    0.00000   -0.00000    0.00000   -0.00000    0.00000
   0.00000   -0.00000   -0.00000    0.00000    0.00000    0.00000    0.00004
 prteigrs : prtvol=0 or 1, do not print more k-points.

 Eight components of 2nd-order total energy (hartree) are
 1,2,3: 0th-order hamiltonian combined with 1st-order wavefunctions
     kin0=   5.28490706E+01 eigvalue=   5.76934348E+00  local=  -2.12047959E+01
 4,5,6: 1st-order hamiltonian combined with 1st and 0th-order wfs
     kin1=  -6.23517433E+01  Hartree=   0.00000000E+00     xc=   0.00000000E+00
 7,8,9: eventually, occupation + non-local contributions
    edocc=   1.18775195E+01     enl0=   4.09326082E+00   enl1=  -4.44170537E+01
 1-9 gives the relaxation energy (to be shifted if some occ is /=2.0)
   erelax=  -5.33843985E+01
  No Ewald or frozen-wf contrib.: the relaxation energy is the total one
 2DEtotal=   -0.5338439852E+02 Ha. Also 2DEtotal=   -0.145266336031E+04 eV
    (  non-var. 2DEtotal :   -5.3384398522E+01 Ha)

 CALCULATION OF EFFECTIVE MASSES
 NOTE : Additional infos (eff. mass eigenvalues, eigenvectors and, if degenerate, average mass) are available in stdout.

--- !WARNING
src_file: m_efmas.F90
src_line: 0
message: |

    Band(s)    30,
    are not band extrema, but saddle points;
    the transport equivalent formalism breaks down in these conditions.
    The associated tensor(s) will therefore not be printed.
...

 K-point ( 0.500, 0.000, 0.500) | band =    30
 Effective mass tensor:
     *** SADDLE POINT: TRANSPORT EQV. EFF. MASS NOT DEFINED (see WARNING above) ***
 Angular average effective mass 1/(<1/m>)=  -0.6024621509
 Angular average effective mass for Frohlich model (<m**0.5>)**2=  -1.0080529078
 Effective masses along directions: (cart. coord. / red. coord. -> eff. mass)
    1:   1.000000  0.000000  0.000000 /   0.851099  0.525005  0.000000 ->  -0.3195961660
    2:   0.000000  1.000000  0.000000 /   0.000000  1.000000  0.000000 ->  -0.3199069809
    3:   0.000000  0.000000  1.000000 /   0.382002  0.382002  0.841516 ->   0.7841345129
    4:   0.577350  0.577350  0.577350 /   0.572133  0.737403  0.359029 ->  -1.0900987461
    5:   0.000000  0.707107  0.707107 /   0.260741  0.775946  0.574389 ->   2.8465493563
    6:   0.707107  0.000000  0.707107 /   0.721525  0.523827  0.452777 ->  -0.5901081232
    7:   0.707107  0.707107  0.000000 /   0.580159  0.814503  0.000000 ->  -0.3964316509

 K-point ( 0.282,-0.282, 0.000) | band =    31
 Effective mass tensor:
              1.8427850102              0.8540255076              0.4575265187
              0.8540255076              0.5040727600              0.2223922314
              0.4575265187              0.2223922314             22.1046642141
 Effective mass tensor eigenvalues:
              0.0883495340              2.2454770477             22.1176954026
 Angular average effective mass 1/(<1/m>)=   0.2540385533
 Angular average effective mass for Frohlich model (<m**0.5>)**2=   0.6679895086
 Effective masses along directions: (cart. coord. / red. coord. -> eff. mass)
    1:   1.000000  0.000000  0.000000 /   0.851099  0.525005  0.000000 ->   0.3955556819
    2:   0.000000  1.000000  0.000000 /   0.000000  1.000000  0.000000 ->   0.1082758827
    3:   0.000000  0.000000  1.000000 /   0.382002  0.382002  0.841516 ->  21.9900793361
    4:   0.577350  0.577350  0.577350 /   0.572133  0.737403  0.359029 ->   0.9305974749
    5:   0.000000  0.707107  0.707107 /   0.260741  0.775946  0.574389 ->   0.2156928507
    6:   0.707107  0.000000  0.707107 /   0.721525  0.523827  0.452777 ->   0.7827746213
    7:   0.707107  0.707107  0.000000 /   0.580159  0.814503  0.000000 ->   0.6239260428

 END OF EFFECTIVE MASSES SECTION

 ---- first-order wavefunction calculations are completed ----

 Total localisation tensor (bohr^2) in cartesian coordinates
  WARNING : still subject to testing - especially symmetries.
      direction              matrix element
   alpha     beta       real part   imaginary part
     1        1      10.1816367142    0.0000000000
     1        2       3.5932298792    0.0000000000
     1        3       4.7524406578    0.0000000000
     2        1       3.5932298792    0.0000000000
     2        2       4.5847840271    0.0000000000
     2        3       2.3203252697    0.0000000000
     3        1       4.7524406578    0.0000000000
     3        2       2.3203252697    0.0000000000
     3        3       4.7475878005    0.0000000000

 respfn : d/dk was computed, but no 2DTE, so no DDB output.

== END DATASET(S) ==============================================================

 -outvars: echo values of variables after computation  --------
            acell      1.0000000000E+00  1.0000000000E+00  1.0000000000E+00 Bohr
              amu      6.94100000E+00  7.49215900E+01  3.20660000E+01
             ecut      4.20000000E+01 Hartree
           etotal     -5.3384398522E+01
            fcart      0.0000000000E+00  0.0000000000E+00  0.0000000000E+00
                       0.0000000000E+00  0.0000000000E+00  0.0000000000E+00
                       0.0000000000E+00  0.0000000000E+00  0.0000000000E+00
                       0.0000000000E+00  0.0000000000E+00  0.0000000000E+00
                       0.0000000000E+00  0.0000000000E+00  0.0000000000E+00
                       0.0000000000E+00  0.0000000000E+00  0.0000000000E+00
                       0.0000000000E+00  0.0000000000E+00  0.0000000000E+00
                       0.0000000000E+00  0.0000000000E+00  0.0000000000E+00
-          fftalg         512
           irdden           1
           irdwfk           1
           istwfk        1    0
              ixc     -116133
              kpt      5.00000000E-01  0.00000000E+00  5.00000000E-01
                       2.82351666E-01 -2.82351666E-01  1.56736660E-17
           kptopt           0
P           mkmem           2
P          mkqmem           2
P          mk1mem           2
            natom           8
            nband          39
           nbdbuf           4
            ngfft          72      72      60
             nkpt           2
            nstep        2000
             nsym           2
           ntypat           3
              occ      2.000000  2.000000  2.000000  2.000000  2.000000  2.000000
                       2.000000  2.000000  2.000000  2.000000  2.000000  2.000000
                       2.000000  2.000000  2.000000  2.000000  2.000000  2.000000
                       2.000000  2.000000  2.000000  2.000000  2.000000  2.000000
                       2.000000  2.000000  2.000000  2.000000  2.000000  2.000000
                       0.000000  0.000000  0.000000  0.000000  0.000000  0.000000
                       0.000000  0.000000  0.000000
        optdriver           1
            prtwf          -1
            rfdir           1       1       1
           rfelfd           2
            rprim      1.1280570715E+01  0.0000000000E+00  4.4934314563E+00
                       6.9584779256E+00  8.8786744847E+00  4.4934314563E+00
                       0.0000000000E+00  0.0000000000E+00  9.8986109796E+00
          spgroup           9
           strten      0.0000000000E+00  0.0000000000E+00  0.0000000000E+00
                       0.0000000000E+00  0.0000000000E+00  0.0000000000E+00
           symrel      1  0  0   0  1  0   0  0  1       0  1  0   1  0  0   0  0  1
            tnons      0.0000000  0.0000000  0.0000000     0.0000000  0.0000000  0.5000000
           tolwfr      1.00000000E-20
            typat      1  1  2  2  3  3  3  3
           useylm           1
              wtk        0.50000    0.50000
           xangst      4.2506634333E+00  3.5831254313E+00  7.6072735773E+00
                       5.4422381248E+00  1.1353288831E+00  4.9882139137E+00
                       6.4592765946E+00  4.4546254983E+00  5.0641452162E+00
                       7.4905698912E+00  2.3360875757E+00  7.6832048798E+00
                       4.4522059592E+00  3.5692134920E+00  4.9614384228E+00
                       5.5556109026E+00  1.3025399624E+00  7.5804980863E+00
                       6.8267783673E+00  4.6226728914E+00  7.4011509151E+00
                       7.8495314346E+00  2.5216787652E+00  4.7820912516E+00
            xcart      8.0325897721E+00  6.7711257649E+00  1.4375663679E+01
                       1.0284339606E+01  2.1454606598E+00  9.4263581892E+00
                       1.2206263780E+01  8.4180222164E+00  9.5698475559E+00
                       1.4155125674E+01  4.4145657405E+00  1.4519153046E+01
                       8.4134499501E+00  6.7448360098E+00  9.3757598442E+00
                       1.0498583107E+01  2.4614438061E+00  1.4325065334E+01
                       1.2900741484E+01  8.7355857667E+00  1.3986148298E+01
                       1.4833464683E+01  4.7652822614E+00  9.0368428080E+00
             xred      2.4164200000E-01  7.6262800000E-01  9.9640700000E-01
                       7.6262800000E-01  2.4164200000E-01  4.9640700000E-01
                       4.9721000000E-01  9.4811700000E-01  3.1068700000E-01
                       9.4811700000E-01  4.9721000000E-01  8.1068700000E-01
                       2.7723100000E-01  7.5966700000E-01  4.7648400000E-01
                       7.5966700000E-01  2.7723100000E-01  9.7648400000E-01
                       5.3671100000E-01  9.8388400000E-01  7.2267300000E-01
                       9.8388400000E-01  5.3671100000E-01  2.2267300000E-01
            znucl        3.00000   33.00000   16.00000

- Timing analysis has been suppressed with timopt=0

 Suggested references for the acknowledgment of ABINIT usage.

 Calculation completed.
.Delivered  15 WARNINGs and   9 COMMENTs to log file.