.Version 9.5.1 of ABINIT

 ABINIT is a project of the Universite Catholique de Louvain,
 Corning Inc. and other collaborators, see ~abinit/doc/developers/contributors.txt .
 acknowledgments of the ABINIT effort.

.Starting date : Tue 27 Apr 2021.
- ( at 18h32 )

- input  file    -> /scratch/users/j/a/jabreu/flow_simple_4atoms/flow/w183/t1/run.abi
- output file    -> /scratch/users/j/a/jabreu/flow_simple_4atoms/flow/w183/t1/run.abo
- root for input  files -> /scratch/users/j/a/jabreu/flow_simple_4atoms/flow/w183/t1/indata/in
- root for output files -> /scratch/users/j/a/jabreu/flow_simple_4atoms/flow/w183/t1/outdata/out

 Symmetries : space group R3 m (#160); Bravais hR (rhombohedral)
     intxc =       0      iscf =       7    lmnmax =      13     lnmax =       5
     mgfft =      64  mpssoang =       3    mqgrid =    3001     natom =       4
  nloc_mem =       1    nspden =       1   nspinor =       1    nsppol =       1
      nsym =       6    n1xccc =    2501    ntypat =       4    occopt =       1
   xclevel =       2
-    mband =          21        mffmem =           1         mkmem =           2
-   mkqmem =           2        mk1mem =           2           mpw =        5351
      nfft =      262144          nkpt =           2
  Rough estimation (10% accuracy) of disk space for files :

------------- Echo of variables that govern the present computation ------------
-
- outvars: echo of selected default values
-   iomode0 =  0 , fftalg0 =512 , wfoptalg0 =  0
-
- outvars: echo of global parameters not present in the input file
-  max_nthreads =    0
-
 -outvars: echo values of preprocessed input variables --------
            acell      1.0000000000E+00  1.0000000000E+00  1.0000000000E+00 Bohr
              amu      2.29897680E+01  1.20110000E+01  1.40067400E+01
                       1.59994000E+01
             ecut      4.40000000E+01 Hartree
-          fftalg         512
           irdden           1
           irdwfk           1
           istwfk        1    1
              ixc     -116133
              kpt      5.00000000E-01  5.00000000E-01  5.00000000E-01
                       0.00000000E+00  0.00000000E+00  0.00000000E+00
           kptopt           0
P           mkmem           2
P          mkqmem           2
P          mk1mem           2
            natom           4
            nband          21
           nbdbuf           4
            ngfft          64      64      64
             nkpt           2
            nstep         100
             nsym           6
           ntypat           4
              occ      2.000000  2.000000  2.000000  2.000000  2.000000  2.000000
                       2.000000  2.000000  2.000000  2.000000  2.000000  2.000000
                       0.000000  0.000000  0.000000  0.000000  0.000000  0.000000
                       0.000000  0.000000  0.000000
        optdriver           1
            prtwf          -1
            rfdir           1       1       1
           rfelfd           2
            rprim      6.4428103832E+00  0.0000000000E+00  8.0251949792E+00
                       2.8228347564E+00  5.7914945888E+00  8.0251949792E+00
                       0.0000000000E+00  0.0000000000E+00  1.0291431392E+01
          spgroup         160
           symrel      1  0  0   0  1  0   0  0  1       0  1  0   1  0  0   0  0  1
                       0  0  1   1  0  0   0  1  0       1  0  0   0  0  1   0  1  0
                       0  1  0   0  0  1   1  0  0       0  0  1   0  1  0   1  0  0
           tolwfr      1.00000000E-20
            typat      1  2  3  4
           useylm           1
              wtk        0.50000    0.50000
           xangst      2.4797135915E+00  1.5499458085E+00  7.0497166083E+00
                       4.0009852763E-03  2.5008171831E-03  1.1374625057E-02
                       4.5195100262E+00  2.8249212512E+00  1.2848768100E+01
                       4.0055452228E-01  2.5036673791E-01  1.1387588784E+00
            xcart      4.6859795760E+00  2.9289730989E+00  1.3322033704E+01
                       7.5607664339E-03  4.7258595845E-03  2.1494926222E-02
                       8.5406362044E+00  5.3383275117E+00  2.4280652855E+01
                       7.5693834839E-01  4.7312456744E-01  2.1519424115E+00
             xred      5.0573700000E-01  5.0573700000E-01  5.0573700000E-01
                       8.1600000000E-04  8.1600000000E-04  8.1600000000E-04
                       9.2175300000E-01  9.2175300000E-01  9.2175300000E-01
                       8.1693000000E-02  8.1693000000E-02  8.1693000000E-02
            znucl       11.00000    6.00000    7.00000    8.00000

 chkinp: Checking input parameters for consistency.

== DATASET  1 ==================================================================
-   mpi_nproc: 1, omp_nthreads: -1 (-1 if OMP is not activated)

--- !DatasetInfo
iteration_state: {dtset: 1, }
dimensions: {natom: 4, nkpt: 2, mband: 21, nsppol: 1, nspinor: 1, nspden: 1, mpw: 5351, }
cutoff_energies: {ecut:  44.0, pawecutdg:  -1.0, }
electrons: {nelect:   2.40000000E+01, charge:   0.00000000E+00, occopt:   1.00000000E+00, tsmear:   1.00000000E-02, }
meta: {optdriver: 1, rfelfd: 2, }
...

 Real(R)+Recip(G) space primitive vectors, cartesian coordinates (Bohr,Bohr^-1):
 R(1)=  6.4428104  0.0000000  8.0251950  G(1)=  0.1552118 -0.0756518  0.0000000
 R(2)=  2.8228348  5.7914946  8.0251950  G(2)=  0.0000000  0.1726670  0.0000000
 R(3)=  0.0000000  0.0000000 10.2914314  G(3)= -0.1210332 -0.0756518  0.0971682
 Unit cell volume ucvol=  3.8400934E+02 bohr^3
 Angles (23,13,12)=  3.87582950E+01  3.87582950E+01  3.87582950E+01 degrees

 getcut: wavevector=  0.0000  0.0000  0.0000  ngfft=  64  64  64
         ecut(hartree)=     44.000   => boxcut(ratio)=   2.08264

--- Pseudopotential description ------------------------------------------------
- pspini: atom type   1  psp file is /scratch/users/j/a/jabreu/pseudos/PBEsol/Na.psp8
- pspatm: opening atomic psp file    /scratch/users/j/a/jabreu/pseudos/PBEsol/Na.psp8
- Na    ONCVPSP-3.3.0  r_core=   1.20708   1.55069
- 11.00000   9.00000    180112                znucl, zion, pspdat
    8 -116133    1    4       400   0.00000   pspcod,pspxc,lmax,lloc,mmax,r2well
    3.99000000000000    0.00000000000000    0.00000000000000   rchrg,fchrg,qchrg
     nproj     2     2
     extension_switch     1
  pspatm : epsatm=    9.32878306
         --- l  ekb(1:nproj) -->
             0    2.657905   -0.678300
             1   -6.761319   -2.404728
 pspatm: atomic psp has been read  and splines computed

- pspini: atom type   2  psp file is /scratch/users/j/a/jabreu/pseudos/PBEsol/C.psp8
- pspatm: opening atomic psp file    /scratch/users/j/a/jabreu/pseudos/PBEsol/C.psp8
- C     ONCVPSP-3.3.0  r_core=   1.20440   1.26326
-  6.00000   4.00000    180112                znucl, zion, pspdat
    8 -116133    1    4       600   0.00000   pspcod,pspxc,lmax,lloc,mmax,r2well
    5.99000000000000    4.00000000000000    0.00000000000000   rchrg,fchrg,qchrg
     nproj     2     2
     extension_switch     1
  pspatm : epsatm=    4.34909529
         --- l  ekb(1:nproj) -->
             0    6.468939    0.390031
             1   -4.179695   -0.878453
 pspatm: atomic psp has been read  and splines computed

[...]

- pspini: atom type   4  psp file is /scratch/users/j/a/jabreu/pseudos/PBEsol/O.psp8
- pspatm: opening atomic psp file    /scratch/users/j/a/jabreu/pseudos/PBEsol/O.psp8
- O     ONCVPSP-3.3.0  r_core=   1.35509   1.45563   1.26150
-  8.00000   6.00000    180112                znucl, zion, pspdat
    8 -116133    2    4       600   0.00000   pspcod,pspxc,lmax,lloc,mmax,r2well
    5.99000000000000    4.00000000000000    0.00000000000000   rchrg,fchrg,qchrg
     nproj     2     2     1
     extension_switch     1
  pspatm : epsatm=    6.22910522
         --- l  ekb(1:nproj) -->
             0    6.050032    0.820363
             1   -4.739617   -1.153841
             2   -1.335834
 pspatm: atomic psp has been read  and splines computed

   6.04129741E+02                                ecore*ucvol(ha*bohr**3)

-inwffil : will read wavefunctions from disk file /scratch/users/j/a/jabreu/flow_simple_4atoms/flow/w183/t1/indata/in_WFK

 ==>  initialize data related to q vector <==

 The list of irreducible perturbations for this q vector is:
    1)    idir= 1    ipert=   5
    2)    idir= 2    ipert=   5
    3)    idir= 3    ipert=   5

 Perturbation wavevector (in red.coord.)   0.000000  0.000000  0.000000
 Perturbation : derivative vs k along direction   1

 dfpt_looppert : COMMENT -
  In a d/dk calculation, iscf is set to -3 automatically.
 The set of symmetries contains only one element for this perturbation.
 symkpt : not enough symmetry to change the number of k points.

[...]

 Initialisation of the first-order wave-functions :
  ireadwf=   0

--- !BeginCycle
iteration_state: {dtset: 1, }
solver: {iscf: 7, nstep: 100, nline: 4, wfoptalg: 0, }
tolerances: {tolwfr: 1.00E-20, }
...

     iter   2DEtotal(Ha)        deltaE(Ha) residm    vres2
-ETOT  1  -33.894091516033     -3.389E+01 4.576E-02 0.000E+00
 ETOT  2  -33.906621347391     -1.253E-02 2.571E-04 0.000E+00
 ETOT  3  -33.906633705052     -1.236E-05 1.578E-06 0.000E+00
 ETOT  4  -33.906633727740     -2.269E-08 3.295E-08 0.000E+00
 ETOT  5  -33.906633727789     -4.854E-11 3.375E-10 0.000E+00
 ETOT  6  -33.906633727789     -5.684E-14 8.780E-12 0.000E+00
 ETOT  7  -33.906633727789     -2.132E-14 9.651E-14 0.000E+00
 ETOT  8  -33.906633727789     -7.105E-15 2.587E-15 0.000E+00
 ETOT  9  -33.906633727789      7.105E-15 2.849E-17 0.000E+00
 ETOT 10  -33.906633727789      7.105E-15 7.765E-19 0.000E+00
 ETOT 11  -33.906633727789     -1.421E-14 9.316E-21 0.000E+00

 At SCF step   11   max residual=  9.32E-21 < tolwfr=  1.00E-20 =>converged.

 ----iterations are completed or convergence reached----

 dfpt_looppert: DFPT cycle converged with prtwf=-1. Will skip output of the 1st-order WFK file.
 dfpt_looppert : ek2=    5.6496255500E+01
          f-sum rule ratio=    1.1281652603E+00
 prteigrs : about to open file /scratch/users/j/a/jabreu/flow_simple_4atoms/flow/w183/t1/tmpdata/tmp_1WF1_EIG
 Expectation of eigenvalue derivatives (hartree) for nkpt=   2  k points:
  (in case of degenerate eigenvalues, averaged derivative)
 kpt#   1, nband= 21, wtk=  0.50000, kpt=  0.5000  0.5000  0.5000 (reduced coord)
  -0.00000    0.00000    0.00000    0.00000    0.00000    0.00000    0.00000   -0.00000
  -0.00000    0.00000   -0.00000   -0.00000   -0.00000    0.00000    0.00000    0.00000
  -0.00000   -0.00000    0.00000    0.00000   -0.00005
 prteigrs : prtvol=0 or 1, do not print more k-points.

 Eight components of 2nd-order total energy (hartree) are
 1,2,3: 0th-order hamiltonian combined with 1st-order wavefunctions
     kin0=   3.35206615E+01 eigvalue=   3.65756327E+00  local=  -1.22078471E+01
 4,5,6: 1st-order hamiltonian combined with 1st and 0th-order wfs
     kin1=  -6.37371128E+01  Hartree=   0.00000000E+00     xc=   0.00000000E+00
 7,8,9: eventually, occupation + non-local contributions
    edocc=   1.06662025E+01     enl0=  -1.72994652E+00   enl1=  -4.07615466E+00
 1-9 gives the relaxation energy (to be shifted if some occ is /=2.0)
   erelax=  -3.39066337E+01
  No Ewald or frozen-wf contrib.: the relaxation energy is the total one
 2DEtotal=   -0.3390663373E+02 Ha. Also 2DEtotal=   -0.922646425767E+03 eV
    (  non-var. 2DEtotal :   -3.3906633728E+01 Ha)

 Perturbation wavevector (in red.coord.)   0.000000  0.000000  0.000000
 Perturbation : derivative vs k along direction   2
 The set of symmetries contains only one element for this perturbation.
 symkpt : not enough symmetry to change the number of k points.

[...]

 Perturbation wavevector (in red.coord.)   0.000000  0.000000  0.000000
 Perturbation : derivative vs k along direction   3
 The set of symmetries contains only one element for this perturbation.
 symkpt : not enough symmetry to change the number of k points.

-inwffil : will read wavefunctions from disk file /scratch/users/j/a/jabreu/flow_simple_4atoms/flow/w183/t1/indata/in_WFK

 Initialisation of the first-order wave-functions :
  ireadwf=   0

--- !BeginCycle
iteration_state: {dtset: 1, }
solver: {iscf: 7, nstep: 100, nline: 4, wfoptalg: 0, }
tolerances: {tolwfr: 1.00E-20, }
...

     iter   2DEtotal(Ha)        deltaE(Ha) residm    vres2
-ETOT  1  -33.894447478572     -3.389E+01 8.220E-02 0.000E+00
 ETOT  2  -33.906601634300     -1.215E-02 3.025E-04 0.000E+00
 ETOT  3  -33.906612691917     -1.106E-05 5.129E-06 0.000E+00
 ETOT  4  -33.906612712452     -2.054E-08 3.720E-08 0.000E+00
 ETOT  5  -33.906612712498     -4.564E-11 1.111E-09 0.000E+00
 ETOT  6  -33.906612712498     -1.066E-13 8.921E-12 0.000E+00
 ETOT  7  -33.906612712498      0.000E+00 3.070E-13 0.000E+00
 ETOT  8  -33.906612712498      0.000E+00 2.483E-15 0.000E+00
 ETOT  9  -33.906612712498      0.000E+00 8.734E-17 0.000E+00
 ETOT 10  -33.906612712498      0.000E+00 7.037E-19 0.000E+00
 ETOT 11  -33.906612712498      0.000E+00 2.511E-20 0.000E+00
 ETOT 12  -33.906612712498     -1.421E-14 9.995E-21 0.000E+00

 At SCF step   12   max residual=  1.00E-20 < tolwfr=  1.00E-20 =>converged.

 ----iterations are completed or convergence reached----

 dfpt_looppert: DFPT cycle converged with prtwf=-1. Will skip output of the 1st-order WFK file.
 dfpt_looppert : ek2=    5.6496255500E+01
          f-sum rule ratio=    1.1281641167E+00
 prteigrs : about to open file /scratch/users/j/a/jabreu/flow_simple_4atoms/flow/w183/t1/tmpdata/tmp_1WF1_EIG
 Expectation of eigenvalue derivatives (hartree) for nkpt=   2  k points:
  (in case of degenerate eigenvalues, averaged derivative)
 kpt#   1, nband= 21, wtk=  0.50000, kpt=  0.5000  0.5000  0.5000 (reduced coord)
   0.00000    0.00000   -0.00000   -0.00000   -0.00000    0.00000   -0.00000    0.00000
   0.00000    0.00000    0.00000    0.00000   -0.00000    0.00000    0.00000    0.00000
  -0.00000   -0.00000   -0.00000   -0.00000   -0.00000
 prteigrs : prtvol=0 or 1, do not print more k-points.

 Eight components of 2nd-order total energy (hartree) are
 1,2,3: 0th-order hamiltonian combined with 1st-order wavefunctions
     kin0=   3.38915567E+01 eigvalue=   3.71357306E+00  local=  -1.23912900E+01
 4,5,6: 1st-order hamiltonian combined with 1st and 0th-order wfs
     kin1=  -6.37370482E+01  Hartree=   0.00000000E+00     xc=   0.00000000E+00
 7,8,9: eventually, occupation + non-local contributions
    edocc=   1.04697978E+01     enl0=  -1.77702489E+00   enl1=  -4.07617724E+00
 1-9 gives the relaxation energy (to be shifted if some occ is /=2.0)
   erelax=  -3.39066127E+01
  No Ewald or frozen-wf contrib.: the relaxation energy is the total one
 2DEtotal=   -0.3390661271E+02 Ha. Also 2DEtotal=   -0.922645853912E+03 eV
    (  non-var. 2DEtotal :   -3.3906612712E+01 Ha)

 CALCULATION OF EFFECTIVE MASSES
 NOTE : Additional infos (eff. mass eigenvalues, eigenvectors and, if degenerate, average mass) are available in stdout.

 COMMENTS:
 - At k-point ( 0.500, 0.500, 0.500), bands    11 through    12
   are DEGENERATE (effective mass tensor is therefore not defined).
   See Section IIIB Eqs. (67)-(70) and Appendix E of PRB 93 205147 (2016).
 - Angular average effective mass for Frohlich model is to be averaged over degenerate bands. See later.
 - Associated theta integrals calculated with ntheta=   1000 points.

 K-point ( 0.500, 0.500, 0.500) | band =    11
 Transport equivalent effective mass tensor:
             -1.5851996359             -0.1451000165             -0.6599634403
             -0.1451000165             -1.4437554384             -0.4125096595
             -0.6599634403             -0.4125096595             -3.2293162230
 Transport equivalent effective mass tensor eigenvalues:
             -3.5521488660             -1.3530629386             -1.3530594926
 Angular average effective mass 1/(<1/m>)=  -1.6003951520
 Angular average effective mass for Frohlich model (<m**0.5>)**2=  -1.6838007033
 Effective masses along directions: (cart. coord. / red. coord. -> eff. mass)
    1:   1.000000  0.000000  0.000000 /   0.915943  0.401309  0.000000 ->  -1.3437753775
    2:   0.000000  1.000000  0.000000 /   0.000000  1.000000  0.000000 ->  -1.2623513080
    3:   0.000000  0.000000  1.000000 /   0.523817  0.523817  0.671738 ->  -2.4131839260
    4:   0.577350  0.577350  0.577350 /   0.594576  0.683816  0.422936 ->  -2.3493230978
    5:   0.000000  0.707107  0.707107 /   0.422251  0.726974  0.541491 ->  -1.9583814150
    6:   0.707107  0.000000  0.707107 /   0.695355  0.521373  0.494622 ->  -2.1860801459
    7:   0.707107  0.707107  0.000000 /   0.598932  0.800800  0.000000 ->  -1.4718457736

 K-point ( 0.500, 0.500, 0.500) | band =    12
 Transport equivalent effective mass tensor:
             -8.7295144948              0.1903327298              0.8656384367
              0.1903327298             -8.9150067541              0.5410768033
              0.8656384367              0.5410768033             -6.5729941625
 Transport equivalent effective mass tensor eigenvalues:
             -9.0340010351             -9.0339660855             -6.1495482908
 Angular average effective mass 1/(<1/m>)=  -5.1765451954
 Angular average effective mass for Frohlich model (<m**0.5>)**2=  -5.4392965448
 Effective masses along directions: (cart. coord. / red. coord. -> eff. mass)
    1:   1.000000  0.000000  0.000000 /   0.915943  0.401309  0.000000 ->  -6.4475211393
    2:   0.000000  1.000000  0.000000 /   0.000000  1.000000  0.000000 ->  -7.6898944118
    3:   0.000000  0.000000  1.000000 /   0.523817  0.523817  0.671738 ->  -4.5829474580
    4:   0.577350  0.577350  0.577350 /   0.594576  0.683816  0.422936 ->  -3.8357157109
    5:   0.000000  0.707107  0.707107 /   0.422251  0.726974  0.541491 ->  -5.0033288313
    6:   0.707107  0.000000  0.707107 /   0.695355  0.521373  0.494622 ->  -4.9642176086
    7:   0.707107  0.707107  0.000000 /   0.598932  0.800800  0.000000 ->  -4.8126189122

 Angular average effective mass for Frohlich model, averaged over degenerate bands.
 Value of     (<<m**0.5>>)**2 =     3.293941E+00
 Absolute Value of <<m**0.5>> =     1.814922E+00

 K-point ( 0.000, 0.000, 0.000) | band =    13
 Effective mass tensor:
              0.6030521403              0.0257534632              0.1171366631
              0.0257534632              0.5779477526              0.0732157397
              0.1171366631              0.0732157397              0.8948643113
 Effective mass tensor eigenvalues:
              0.5618497370              0.5618506805              0.9521637866
 Angular average effective mass 1/(<1/m>)=   0.6507723322
 Angular average effective mass for Frohlich model (<m**0.5>)**2=   0.6617152564
 Effective masses along directions: (cart. coord. / red. coord. -> eff. mass)
    1:   1.000000  0.000000  0.000000 /   0.915943  0.401309  0.000000 ->   0.5872619664
    2:   0.000000  1.000000  0.000000 /   0.000000  1.000000  0.000000 ->   0.5715125430
    3:   0.000000  0.000000  1.000000 /   0.523817  0.523817  0.671738 ->   0.8640453547
    4:   0.577350  0.577350  0.577350 /   0.594576  0.683816  0.422936 ->   0.7890595545
    5:   0.000000  0.707107  0.707107 /   0.422251  0.726974  0.541491 ->   0.7594823663
    6:   0.707107  0.000000  0.707107 /   0.695355  0.521373  0.494622 ->   0.8256792681
    7:   0.707107  0.707107  0.000000 /   0.598932  0.800800  0.000000 ->   0.5958976767

 END OF EFFECTIVE MASSES SECTION

 ---- first-order wavefunction calculations are completed ----

 Total localisation tensor (bohr^2) in cartesian coordinates
  WARNING : still subject to testing - especially symmetries.
      direction              matrix element
   alpha     beta       real part   imaginary part
     1        1       0.9073171884    0.0000000000
     1        2       0.2997947933    0.0000000000
     1        3       1.3635684919    0.0000000000
     2        1       0.2997947933    0.0000000000
     2        2       0.6150767130    0.0000000000
     2        3       0.8523034034    0.0000000000
     3        1       1.3635684919    0.0000000000
     3        2       0.8523034034    0.0000000000
     3        3       4.3042503604    0.0000000000

 respfn : d/dk was computed, but no 2DTE, so no DDB output.

== END DATASET(S) ==============================================================

 -outvars: echo values of variables after computation  --------
            acell      1.0000000000E+00  1.0000000000E+00  1.0000000000E+00 Bohr
              amu      2.29897680E+01  1.20110000E+01  1.40067400E+01
                       1.59994000E+01
             ecut      4.40000000E+01 Hartree
           etotal     -3.3906612712E+01
            fcart      0.0000000000E+00  0.0000000000E+00  0.0000000000E+00
                       0.0000000000E+00  0.0000000000E+00  0.0000000000E+00
                       0.0000000000E+00  0.0000000000E+00  0.0000000000E+00
                       0.0000000000E+00  0.0000000000E+00  0.0000000000E+00
-          fftalg         512
           irdden           1
           irdwfk           1
           istwfk        1    1
              ixc     -116133
              kpt      5.00000000E-01  5.00000000E-01  5.00000000E-01
                       0.00000000E+00  0.00000000E+00  0.00000000E+00
           kptopt           0
P           mkmem           2
P          mkqmem           2
P          mk1mem           2
            natom           4
            nband          21
           nbdbuf           4
            ngfft          64      64      64
             nkpt           2
            nstep         100
             nsym           6
           ntypat           4
              occ      2.000000  2.000000  2.000000  2.000000  2.000000  2.000000
                       2.000000  2.000000  2.000000  2.000000  2.000000  2.000000
                       0.000000  0.000000  0.000000  0.000000  0.000000  0.000000
                       0.000000  0.000000  0.000000
        optdriver           1
            prtwf          -1
            rfdir           1       1       1
           rfelfd           2
            rprim      6.4428103832E+00  0.0000000000E+00  8.0251949792E+00
                       2.8228347564E+00  5.7914945888E+00  8.0251949792E+00
                       0.0000000000E+00  0.0000000000E+00  1.0291431392E+01
          spgroup         160
           strten      0.0000000000E+00  0.0000000000E+00  0.0000000000E+00
                       0.0000000000E+00  0.0000000000E+00  0.0000000000E+00
           symrel      1  0  0   0  1  0   0  0  1       0  1  0   1  0  0   0  0  1
                       0  0  1   1  0  0   0  1  0       1  0  0   0  0  1   0  1  0
                       0  1  0   0  0  1   1  0  0       0  0  1   0  1  0   1  0  0
           tolwfr      1.00000000E-20
            typat      1  2  3  4
           useylm           1
              wtk        0.50000    0.50000
           xangst      2.4797135915E+00  1.5499458085E+00  7.0497166083E+00
                       4.0009852763E-03  2.5008171831E-03  1.1374625057E-02
                       4.5195100262E+00  2.8249212512E+00  1.2848768100E+01
                       4.0055452228E-01  2.5036673791E-01  1.1387588784E+00
            xcart      4.6859795760E+00  2.9289730989E+00  1.3322033704E+01
                       7.5607664339E-03  4.7258595845E-03  2.1494926222E-02
                       8.5406362044E+00  5.3383275117E+00  2.4280652855E+01
                       7.5693834839E-01  4.7312456744E-01  2.1519424115E+00
             xred      5.0573700000E-01  5.0573700000E-01  5.0573700000E-01
                       8.1600000000E-04  8.1600000000E-04  8.1600000000E-04
                       9.2175300000E-01  9.2175300000E-01  9.2175300000E-01
                       8.1693000000E-02  8.1693000000E-02  8.1693000000E-02
            znucl       11.00000    6.00000    7.00000    8.00000

- Timing analysis has been suppressed with timopt=0

 Suggested references for the acknowledgment of ABINIT usage.

 Calculation completed.
.Delivered  14 WARNINGs and   9 COMMENTs to log file.