.Version 9.5.2 of ABINIT

 ABINIT is a project of the Universite Catholique de Louvain,
 Corning Inc. and other collaborators, see ~abinit/doc/developers/contributors.txt .
 acknowledgments of the ABINIT effort.

.Starting date : Mon 24 May 2021.
- ( at 20h53 )

- input  file    -> /scratch/users/j/a/jabreu/flow_simple_10atoms/flow/w352/t1/run.abi
- output file    -> /scratch/users/j/a/jabreu/flow_simple_10atoms/flow/w352/t1/run.abo
- root for input  files -> /scratch/users/j/a/jabreu/flow_simple_10atoms/flow/w352/t1/indata/in
- root for output files -> /scratch/users/j/a/jabreu/flow_simple_10atoms/flow/w352/t1/outdata/out

 Symmetries : space group C2/c (# 15); Bravais mC (1-face-center monocl.)
     intxc =       0      iscf =       7    lmnmax =      32     lnmax =       8
     mgfft =      90  mpssoang =       4    mqgrid =    3934     natom =      10
  nloc_mem =       1    nspden =       1   nspinor =       1    nsppol =       1
      nsym =       4    n1xccc =    2501    ntypat =       3    occopt =       1
   xclevel =       2
-    mband =          85        mffmem =           1         mkmem =           2
-   mkqmem =           2        mk1mem =           2           mpw =       27403
      nfft =      729000          nkpt =           2
  Rough estimation (10% accuracy) of disk space for files :

------------- Echo of variables that govern the present computation ------------
-
- outvars: echo of selected default values
-   iomode0 =  0 , fftalg0 =512 , wfoptalg0 =  0
-
- outvars: echo of global parameters not present in the input file
-  max_nthreads =    0
-
 -outvars: echo values of preprocessed input variables --------
            acell      1.0000000000E+00  1.0000000000E+00  1.0000000000E+00 Bohr
              amu      1.32905430E+02  1.96966540E+02  7.89600000E+01
             ecut      4.30000000E+01 Hartree
-          fftalg         512
           irdden           1
           irdwfk           1
              ixc     -116133
              kpt      2.91745367E-01  2.91745367E-01  6.13476699E-01
                       5.00000000E-01 -5.00000000E-01  0.00000000E+00
           kptopt           0
P           mkmem           2
P          mkqmem           2
P          mk1mem           2
            natom          10
            nband          85
           nbdbuf           4
            ngfft          90      90      90
             nkpt           2
            nstep        2000
             nsym           4
           ntypat           3
              occ      2.000000  2.000000  2.000000  2.000000  2.000000  2.000000
                       2.000000  2.000000  2.000000  2.000000  2.000000  2.000000
                       2.000000  2.000000  2.000000  2.000000  2.000000  2.000000
                       2.000000  2.000000  2.000000  2.000000  2.000000  2.000000
                       2.000000  2.000000  2.000000  2.000000  2.000000  2.000000
                       2.000000  2.000000  2.000000  2.000000  2.000000  2.000000
                       2.000000  2.000000  2.000000  2.000000  2.000000  2.000000
                       2.000000  2.000000  2.000000  2.000000  2.000000  2.000000
                       2.000000  2.000000  2.000000  2.000000  2.000000  2.000000
                       2.000000  2.000000  2.000000  2.000000  2.000000  2.000000
                       2.000000  2.000000  2.000000  2.000000  2.000000  2.000000
                       2.000000  2.000000  2.000000  2.000000  2.000000  2.000000
                       2.000000  2.000000  2.000000  2.000000  0.000000  0.000000
                       0.000000  0.000000  0.000000  0.000000  0.000000  0.000000
                       0.000000
        optdriver           1
            prtwf          -1
            rfdir           1       1       1
           rfelfd           2
            rprim      1.3664483939E+01  0.0000000000E+00  2.1854489799E+00
                      -8.8224821230E+00  1.0434650473E+01  2.1854489799E+00
                       0.0000000000E+00  0.0000000000E+00  1.4254793526E+01
          spgroup          15
           symrel      1  0  0   0  1  0   0  0  1      -1  0  0   0 -1  0   0  0 -1
                       0 -1  0  -1  0  0   0  0 -1       0  1  0   1  0  0   0  0  1
            tnons      0.0000000  0.0000000  0.0000000     0.0000000  0.0000000  0.0000000
                       0.0000000  0.0000000  0.5000000     0.0000000  0.0000000  0.5000000
           tolwfr      1.00000000E-20
            typat      1  1  2  2  3  3  3  3  3  3
           useylm           1
              wtk        0.50000    0.50000
           xangst      5.4005385444E+00  8.4936007807E-01  3.0423177525E+00
                      -2.8382615396E+00  4.6724191318E+00  6.8139736760E+00
                       4.8159315536E-01  3.1319034719E+00  6.8139736760E+00
                       2.0806838493E+00  2.3898757381E+00  3.0423177525E+00
                       1.7268046113E+00  1.0959737811E+00  1.0252451129E+00
                      -2.7799070176E-01  2.0262610553E+00  4.7969010364E+00
                       8.3547239341E-01  4.4258054288E+00  8.8310463155E+00
                       2.8402677065E+00  3.4955181546E+00  5.0593903920E+00
                      -2.3239731625E+00  4.4337733562E+00  3.0423177525E+00
                       4.8862501672E+00  1.0880058537E+00  6.8139736760E+00
            xcart      1.0205538819E+01  1.6050579358E+00  5.7491473614E+00
                      -5.3635370034E+00  8.8295925372E+00  1.2876544124E+01
                       9.1007917111E-01  5.9184398364E+00  1.2876544124E+01
                       3.9319226444E+00  4.5162106366E+00  5.7491473614E+00
                       3.2631878004E+00  2.0710902952E+00  1.9374324825E+00
                      -5.2532629381E-01  3.8290784683E+00  9.0648292454E+00
                       1.5788140151E+00  8.3635601778E+00  1.6688259003E+01
                       5.3673281093E+00  6.6055720047E+00  9.5608622402E+00
                      -4.3916728172E+00  8.3786173785E+00  5.7491473614E+00
                       9.2336746327E+00  2.0560330945E+00  1.2876544124E+01
             xred      8.4618000000E-01  1.5382000000E-01  2.5000000000E-01
                       1.5382000000E-01  8.4618000000E-01  7.5000000000E-01
                       4.3280900000E-01  5.6719100000E-01  7.5000000000E-01
                       5.6719100000E-01  4.3280900000E-01  2.5000000000E-01
                       3.6695800000E-01  1.9848200000E-01  4.9225000000E-02
                       1.9848200000E-01  3.6695800000E-01  5.4922500000E-01
                       6.3304200000E-01  8.0151800000E-01  9.5077500000E-01
                       8.0151800000E-01  6.3304200000E-01  4.5077500000E-01
                       1.9703900000E-01  8.0296100000E-01  2.5000000000E-01
                       8.0296100000E-01  1.9703900000E-01  7.5000000000E-01
            znucl       55.00000   79.00000   34.00000

 chkinp: Checking input parameters for consistency.

== DATASET  1 ==================================================================
-   mpi_nproc: 1, omp_nthreads: -1 (-1 if OMP is not activated)

--- !DatasetInfo
iteration_state: {dtset: 1, }
dimensions: {natom: 10, nkpt: 2, mband: 85, nsppol: 1, nspinor: 1, nspden: 1, mpw: 27403, }
cutoff_energies: {ecut:  43.0, pawecutdg:  -1.0, }
electrons: {nelect:   1.52000000E+02, charge:   0.00000000E+00, occopt:   1.00000000E+00, tsmear:   1.00000000E-02, }
meta: {optdriver: 1, rfelfd: 2, }
...

 Real(R)+Recip(G) space primitive vectors, cartesian coordinates (Bohr,Bohr^-1):
 R(1)= 13.6644839  0.0000000  2.1854490  G(1)=  0.0731824  0.0618756  0.0000000
 R(2)= -8.8224821 10.4346505  2.1854490  G(2)=  0.0000000  0.0958345  0.0000000
 R(3)=  0.0000000  0.0000000 14.2547935  G(3)= -0.0112198 -0.0241791  0.0701518
 Unit cell volume ucvol=  2.0325071E+03 bohr^3
 Angles (23,13,12)=  8.09132737E+01  8.09132737E+01  1.27200446E+02 degrees

 getcut: wavevector=  0.0000  0.0000  0.0000  ngfft=  90  90  90
         ecut(hartree)=     43.000   => boxcut(ratio)=   2.13889

--- Pseudopotential description ------------------------------------------------
- pspini: atom type   1  psp file is /scratch/users/j/a/jabreu/pseudos/PBEsol/Cs.psp8
- pspatm: opening atomic psp file    /scratch/users/j/a/jabreu/pseudos/PBEsol/Cs.psp8
- Cs    ONCVPSP-3.3.0  r_core=   2.27353   1.85623   2.01788   1.90105
- 55.00000   9.00000    180112                znucl, zion, pspdat
    8 -116133    3    4       600   0.00000   pspcod,pspxc,lmax,lloc,mmax,r2well
    5.99000000000000    5.00000000000000    0.00000000000000   rchrg,fchrg,qchrg
     nproj     2     2     2     2
     extension_switch     1
  pspatm : epsatm=   22.12462445
         --- l  ekb(1:nproj) -->
             0    6.214110    0.767882
             1    6.311966    0.793598
             2    3.769790    0.913105
             3   -9.247129   -2.432478
 pspatm: atomic psp has been read  and splines computed

- pspini: atom type   2  psp file is /scratch/users/j/a/jabreu/pseudos/PBEsol/Au.psp8
- pspatm: opening atomic psp file    /scratch/users/j/a/jabreu/pseudos/PBEsol/Au.psp8
- Au    ONCVPSP-3.3.0  r_core=   1.45604   1.56407   1.56407   1.60183
- 79.00000  19.00000    180112                znucl, zion, pspdat
    8 -116133    3    4       500   0.00000   pspcod,pspxc,lmax,lloc,mmax,r2well
    4.99000000000000    5.00000000000000    0.00000000000000   rchrg,fchrg,qchrg
     nproj     2     2     2     1
     extension_switch     1
  pspatm : epsatm=   32.21965837
         --- l  ekb(1:nproj) -->
             0    9.413866   -0.196587
             1    2.474292   -1.517497
             2    1.503483    0.298081
             3    1.177996
 pspatm: atomic psp has been read  and splines computed

- pspini: atom type   3  psp file is /scratch/users/j/a/jabreu/pseudos/PBEsol/Se.psp8
- pspatm: opening atomic psp file    /scratch/users/j/a/jabreu/pseudos/PBEsol/Se.psp8
- Se    ONCVPSP-3.3.0  r_core=   1.81943   1.50330   1.90835
- 34.00000  16.00000    180112                znucl, zion, pspdat
    8 -116133    2    4       600   0.00000   pspcod,pspxc,lmax,lloc,mmax,r2well
    5.99000000000000    5.00000000000000    0.00000000000000   rchrg,fchrg,qchrg
     nproj     2     2     2
     extension_switch     1
  pspatm : epsatm=   29.17862020
         --- l  ekb(1:nproj) -->
             0    8.973804    1.019550
             1    6.849857    1.297308
             2   -9.203962   -3.731027
 pspatm: atomic psp has been read  and splines computed

   4.31315636E+04                                ecore*ucvol(ha*bohr**3)

 ==>  initialize data related to q vector <==

 The list of irreducible perturbations for this q vector is:
    1)    idir= 1    ipert=  11
    2)    idir= 2    ipert=  11
    3)    idir= 3    ipert=  11

 Perturbation wavevector (in red.coord.)   0.000000  0.000000  0.000000
 Perturbation : derivative vs k along direction   1

 dfpt_looppert : COMMENT -
  In a d/dk calculation, iscf is set to -3 automatically.
 The set of symmetries contains only one element for this perturbation.
 symkpt : not enough symmetry to change the number of k points.

 Initialisation of the first-order wave-functions :
  ireadwf=   0

[...]
  (in case of degenerate eigenvalues, averaged derivative)
 kpt#   1, nband= 85, wtk=  0.50000, kpt=  0.2917  0.2917  0.6135 (reduced coord)
   0.00000    0.00000    0.00000    0.00000   -0.00000    0.00000   -0.00000    0.00000
   0.00000   -0.00000   -0.00000    0.00000   -0.00000    0.00000   -0.00010    0.00000
  -0.00001    0.00011   -0.00001    0.00004   -0.00005    0.00003   -0.00001    0.00001
  -0.00000   -0.00000   -0.00001    0.00002   -0.00002    0.00001   -0.00000    0.00000
  -0.00000    0.00000   -0.00001   -0.00001    0.00000    0.00001   -0.00013    0.00012
   0.00277   -0.02099    0.05595   -0.01503   -0.04969    0.02429   -0.00464   -0.00186
  -0.00405    0.00083   -0.00110    0.00423    0.07776   -0.01225   -0.02514    0.03154
  -0.02217   -0.06234    0.06409   -0.05720    0.04957    0.01253   -0.02110    0.00070
  -0.01475   -0.07003    0.03661   -0.07463   -0.01134    0.05120    0.01828    0.11066
  -0.03356    0.00351   -0.11807    0.00629    0.01672    0.03592   -0.05521    0.04758
  -0.01494    0.04569    0.10185    0.01267   -0.10331
 prteigrs : prtvol=0 or 1, do not print more k-points.

 Eight components of 2nd-order total energy (hartree) are
 1,2,3: 0th-order hamiltonian combined with 1st-order wavefunctions
     kin0=   1.32836586E+02 eigvalue=   1.71815880E+01  local=  -6.08959698E+01
 4,5,6: 1st-order hamiltonian combined with 1st and 0th-order wfs
     kin1=  -1.13950264E+02  Hartree=   0.00000000E+00     xc=   0.00000000E+00
 7,8,9: eventually, occupation + non-local contributions
    edocc=   1.18615649E+01     enl0=   1.27354815E+01   enl1=  -1.13488236E+02
 1-9 gives the relaxation energy (to be shifted if some occ is /=2.0)
   erelax=  -1.13719250E+02
  No Ewald or frozen-wf contrib.: the relaxation energy is the total one
 2DEtotal=   -0.1137192501E+03 Ha. Also 2DEtotal=   -0.309445816545E+04 eV
    (  non-var. 2DEtotal :   -1.1371925005E+02 Ha)

 Perturbation wavevector (in red.coord.)   0.000000  0.000000  0.000000
 Perturbation : derivative vs k along direction   2
 The set of symmetries contains only one element for this perturbation.
 symkpt : not enough symmetry to change the number of k points.

[...]

 Perturbation wavevector (in red.coord.)   0.000000  0.000000  0.000000
 Perturbation : derivative vs k along direction   3
 The set of symmetries contains only one element for this perturbation.
 symkpt : not enough symmetry to change the number of k points.

 Initialisation of the first-order wave-functions :
  ireadwf=   0

--- !BeginCycle
iteration_state: {dtset: 1, }
solver: {iscf: 7, nstep: 2000, nline: 4, wfoptalg: 0, }
tolerances: {tolwfr: 1.00E-20, }
...

     iter   2DEtotal(Ha)        deltaE(Ha) residm    vres2
-ETOT  1  -70.537554269759     -7.054E+01 3.682E-02 0.000E+00
 ETOT  2  -70.609334141403     -7.178E-02 1.021E-03 0.000E+00
 ETOT  3  -70.610176667752     -8.425E-04 9.194E-05 0.000E+00
 ETOT  4  -70.610242665285     -6.600E-05 1.781E-05 0.000E+00
 ETOT  5  -70.610248811890     -6.147E-06 2.405E-06 0.000E+00
 ETOT  6  -70.610249452315     -6.404E-07 5.437E-07 0.000E+00
 ETOT  7  -70.610249522665     -7.035E-08 7.505E-08 0.000E+00
 ETOT  8  -70.610249530808     -8.143E-09 1.716E-08 0.000E+00
 ETOT  9  -70.610249531782     -9.739E-10 2.389E-09 0.000E+00
 ETOT 10  -70.610249531902     -1.203E-10 5.500E-10 0.000E+00
 ETOT 11  -70.610249531917     -1.518E-11 7.721E-11 0.000E+00
 ETOT 12  -70.610249531919     -1.904E-12 1.778E-11 0.000E+00
 ETOT 13  -70.610249531920     -3.126E-13 2.498E-12 0.000E+00
 ETOT 14  -70.610249531920     -2.842E-14 5.789E-13 0.000E+00
 ETOT 15  -70.610249531920      0.000E+00 8.180E-14 0.000E+00
 ETOT 16  -70.610249531920      2.842E-14 1.895E-14 0.000E+00
 ETOT 17  -70.610249531920      0.000E+00 2.673E-15 0.000E+00
 ETOT 18  -70.610249531920      1.421E-14 6.235E-16 0.000E+00
 ETOT 19  -70.610249531920      1.421E-14 8.837E-17 0.000E+00
 ETOT 20  -70.610249531920     -4.263E-14 2.060E-17 0.000E+00
 ETOT 21  -70.610249531920      0.000E+00 2.911E-18 0.000E+00
 ETOT 22  -70.610249531920      0.000E+00 6.831E-19 0.000E+00
 ETOT 23  -70.610249531920     -1.421E-14 9.686E-20 0.000E+00
 ETOT 24  -70.610249531920      2.842E-14 2.271E-20 0.000E+00
 ETOT 25  -70.610249531920     -1.421E-14 9.966E-21 0.000E+00

 At SCF step   25   max residual=  9.97E-21 < tolwfr=  1.00E-20 =>converged.

 ----iterations are completed or convergence reached----

 dfpt_looppert: DFPT cycle converged with prtwf=-1. Will skip output of the 1st-order WFK file.
 dfpt_looppert : ek2=    6.7589613980E+01
          f-sum rule ratio=    1.0590675416E+00
 prteigrs : about to open file /scratch/users/j/a/jabreu/flow_simple_10atoms/flow/w352/t1/tmpdata/tmp_1WF1_EIG
 Expectation of eigenvalue derivatives (hartree) for nkpt=   2  k points:
  (in case of degenerate eigenvalues, averaged derivative)
 kpt#   1, nband= 85, wtk=  0.50000, kpt=  0.2917  0.2917  0.6135 (reduced coord)
  -0.00000    0.00000   -0.00002    0.00002   -0.00001    0.00001   -0.00001    0.00001
  -0.00000    0.00000    0.00000   -0.00000    0.00000   -0.00000    0.00003   -0.00003
   0.00002   -0.00002    0.00001   -0.00001    0.00002   -0.00002    0.00000   -0.00000
  -0.00000    0.00000    0.00001   -0.00001    0.00001   -0.00001    0.00000   -0.00000
  -0.00000    0.00000   -0.00001    0.00001   -0.00000    0.00000    0.00023   -0.00029
   0.00103    0.00304   -0.03027    0.02211    0.02158   -0.01358   -0.01246   -0.00844
   0.00673   -0.00475   -0.00220   -0.00380   -0.00712    0.03626    0.01823   -0.01282
  -0.00935    0.02528   -0.00518    0.00454   -0.00755   -0.01272    0.00473   -0.00261
   0.00497    0.00212    0.01957   -0.05398    0.01229    0.02007   -0.02191   -0.03674
  -0.00506    0.01126    0.09730    0.00020   -0.02780   -0.05356    0.01535   -0.03363
  -0.00500    0.04505    0.02621    0.01865    0.06485
 prteigrs : prtvol=0 or 1, do not print more k-points.

 Eight components of 2nd-order total energy (hartree) are
 1,2,3: 0th-order hamiltonian combined with 1st-order wavefunctions
     kin0=   8.33177034E+01 eigvalue=   1.01996176E+01  local=  -3.84842746E+01
 4,5,6: 1st-order hamiltonian combined with 1st and 0th-order wfs
     kin1=  -7.15819663E+01  Hartree=   0.00000000E+00     xc=   0.00000000E+00
 7,8,9: eventually, occupation + non-local contributions
    edocc=   7.83543575E+00     enl0=   7.74176735E+00   enl1=  -6.96385327E+01
 1-9 gives the relaxation energy (to be shifted if some occ is /=2.0)
   erelax=  -7.06102495E+01
  No Ewald or frozen-wf contrib.: the relaxation energy is the total one
 2DEtotal=   -0.7061024953E+02 Ha. Also 2DEtotal=   -0.192140260446E+04 eV
    (  non-var. 2DEtotal :   -7.0610249532E+01 Ha)

 CALCULATION OF EFFECTIVE MASSES
 NOTE : Additional infos (eff. mass eigenvalues, eigenvectors and, if degenerate, average mass) are available in stdout.

 K-point ( 0.292, 0.292, 0.613) | band =    76
 Effective mass tensor:
             -0.5314921147              0.0381461973             -0.1039587683
              0.0381461973             -0.4669869970             -0.2240340659
             -0.1039587683             -0.2240340659             -0.8162700808
 Effective mass tensor eigenvalues:
             -0.9404597174             -0.5491931335             -0.3250963416
 Angular average effective mass 1/(<1/m>)=  -0.5033410043
 Angular average effective mass for Frohlich model (<m**0.5>)**2=  -0.5314725389
 Effective masses along directions: (cart. coord. / red. coord. -> eff. mass)
    1:   1.000000  0.000000  0.000000 /   0.840109 -0.542417  0.000000 ->  -0.5072876673
    2:   0.000000  1.000000  0.000000 /   0.000000  1.000000  0.000000 ->  -0.3969194929
    3:   0.000000  0.000000  1.000000 /   0.149832  0.149832  0.977293 ->  -0.6805020152
    4:   0.577350  0.577350  0.577350 /   0.732006  0.175387  0.658337 ->  -0.6722079825
    5:   0.000000  0.707107  0.707107 /   0.114042  0.658547  0.743849 ->  -0.7925858781
    6:   0.707107  0.000000  0.707107 /   0.709918 -0.297272  0.638472 ->  -0.7244474816
    7:   0.707107  0.707107  0.000000 /   0.993112  0.117170  0.000000 ->  -0.3891831952

 K-point ( 0.500,-0.500, 0.000) | band =    77
 Effective mass tensor:
              0.2777099968              0.0510823890              0.0347021563
              0.0510823890              0.3640908051              0.0747843970
              0.0347021563              0.0747843970              0.2450022615
 Effective mass tensor eigenvalues:
              0.2073371537              0.2540062945              0.4254596152
 Angular average effective mass 1/(<1/m>)=   0.2700179638
 Angular average effective mass for Frohlich model (<m**0.5>)**2=   0.2768580158
 Effective masses along directions: (cart. coord. / red. coord. -> eff. mass)
    1:   1.000000  0.000000  0.000000 /   0.840109 -0.542417  0.000000 ->   0.2679907702
    2:   0.000000  1.000000  0.000000 /   0.000000  1.000000  0.000000 ->   0.3352538764
    3:   0.000000  0.000000  1.000000 /   0.149832  0.149832  0.977293 ->   0.2274750776
    4:   0.577350  0.577350  0.577350 /   0.732006  0.175387  0.658337 ->   0.3874662558
    5:   0.000000  0.707107  0.707107 /   0.114042  0.658547  0.743849 ->   0.3519038792
    6:   0.707107  0.000000  0.707107 /   0.709918 -0.297272  0.638472 ->   0.2724505514
    7:   0.707107  0.707107  0.000000 /   0.993112  0.117170  0.000000 ->   0.3431220406

 END OF EFFECTIVE MASSES SECTION

 ---- first-order wavefunction calculations are completed ----

 Total localisation tensor (bohr^2) in cartesian coordinates
  WARNING : still subject to testing - especially symmetries.
      direction              matrix element
   alpha     beta       real part   imaginary part
     1        1       3.1287820671    0.0000000000
     1        2      -1.0887583797    0.0000000000
     1        3       0.1251465978    0.0000000000
     2        1      -1.0887583797    0.0000000000
     2        2       1.2877116648    0.0000000000
     2        3       0.2697002790    0.0000000000
     3        1       0.1251465978    0.0000000000
     3        2       0.2697002790    0.0000000000
     3        3       1.7250825205    0.0000000000

 respfn : d/dk was computed, but no 2DTE, so no DDB output.

== END DATASET(S) ==============================================================

 -outvars: echo values of variables after computation  --------
            acell      1.0000000000E+00  1.0000000000E+00  1.0000000000E+00 Bohr
              amu      1.32905430E+02  1.96966540E+02  7.89600000E+01
             ecut      4.30000000E+01 Hartree
           etotal     -7.0610249532E+01
            fcart      0.0000000000E+00  0.0000000000E+00  0.0000000000E+00
                       0.0000000000E+00  0.0000000000E+00  0.0000000000E+00
                       0.0000000000E+00  0.0000000000E+00  0.0000000000E+00
                       0.0000000000E+00  0.0000000000E+00  0.0000000000E+00
                       0.0000000000E+00  0.0000000000E+00  0.0000000000E+00
                       0.0000000000E+00  0.0000000000E+00  0.0000000000E+00
                       0.0000000000E+00  0.0000000000E+00  0.0000000000E+00
                       0.0000000000E+00  0.0000000000E+00  0.0000000000E+00
                       0.0000000000E+00  0.0000000000E+00  0.0000000000E+00
                       0.0000000000E+00  0.0000000000E+00  0.0000000000E+00
-          fftalg         512
           irdden           1
           irdwfk           1
              ixc     -116133
              kpt      2.91745367E-01  2.91745367E-01  6.13476699E-01
                       5.00000000E-01 -5.00000000E-01  0.00000000E+00
           kptopt           0
P           mkmem           2
P          mkqmem           2
P          mk1mem           2
            natom          10
            nband          85
           nbdbuf           4
            ngfft          90      90      90
             nkpt           2
            nstep        2000
             nsym           4
           ntypat           3
              occ      2.000000  2.000000  2.000000  2.000000  2.000000  2.000000
                       2.000000  2.000000  2.000000  2.000000  2.000000  2.000000
                       2.000000  2.000000  2.000000  2.000000  2.000000  2.000000
                       2.000000  2.000000  2.000000  2.000000  2.000000  2.000000
                       2.000000  2.000000  2.000000  2.000000  2.000000  2.000000
                       2.000000  2.000000  2.000000  2.000000  2.000000  2.000000
                       2.000000  2.000000  2.000000  2.000000  2.000000  2.000000
                       2.000000  2.000000  2.000000  2.000000  2.000000  2.000000
                       2.000000  2.000000  2.000000  2.000000  2.000000  2.000000
                       2.000000  2.000000  2.000000  2.000000  2.000000  2.000000
                       2.000000  2.000000  2.000000  2.000000  2.000000  2.000000
                       2.000000  2.000000  2.000000  2.000000  2.000000  2.000000
                       2.000000  2.000000  2.000000  2.000000  0.000000  0.000000
                       0.000000  0.000000  0.000000  0.000000  0.000000  0.000000
                       0.000000
        optdriver           1
            prtwf          -1
            rfdir           1       1       1
           rfelfd           2
            rprim      1.3664483939E+01  0.0000000000E+00  2.1854489799E+00
                      -8.8224821230E+00  1.0434650473E+01  2.1854489799E+00
                       0.0000000000E+00  0.0000000000E+00  1.4254793526E+01
          spgroup          15
           strten      0.0000000000E+00  0.0000000000E+00  0.0000000000E+00
                       0.0000000000E+00  0.0000000000E+00  0.0000000000E+00
           symrel      1  0  0   0  1  0   0  0  1      -1  0  0   0 -1  0   0  0 -1
                       0 -1  0  -1  0  0   0  0 -1       0  1  0   1  0  0   0  0  1
            tnons      0.0000000  0.0000000  0.0000000     0.0000000  0.0000000  0.0000000
                       0.0000000  0.0000000  0.5000000     0.0000000  0.0000000  0.5000000
           tolwfr      1.00000000E-20
            typat      1  1  2  2  3  3  3  3  3  3
           useylm           1
              wtk        0.50000    0.50000
           xangst      5.4005385444E+00  8.4936007807E-01  3.0423177525E+00
                      -2.8382615396E+00  4.6724191318E+00  6.8139736760E+00
                       4.8159315536E-01  3.1319034719E+00  6.8139736760E+00
                       2.0806838493E+00  2.3898757381E+00  3.0423177525E+00
                       1.7268046113E+00  1.0959737811E+00  1.0252451129E+00
                      -2.7799070176E-01  2.0262610553E+00  4.7969010364E+00
                       8.3547239341E-01  4.4258054288E+00  8.8310463155E+00
                       2.8402677065E+00  3.4955181546E+00  5.0593903920E+00
                      -2.3239731625E+00  4.4337733562E+00  3.0423177525E+00
                       4.8862501672E+00  1.0880058537E+00  6.8139736760E+00
            xcart      1.0205538819E+01  1.6050579358E+00  5.7491473614E+00
                      -5.3635370034E+00  8.8295925372E+00  1.2876544124E+01
                       9.1007917111E-01  5.9184398364E+00  1.2876544124E+01
                       3.9319226444E+00  4.5162106366E+00  5.7491473614E+00
                       3.2631878004E+00  2.0710902952E+00  1.9374324825E+00
                      -5.2532629381E-01  3.8290784683E+00  9.0648292454E+00
                       1.5788140151E+00  8.3635601778E+00  1.6688259003E+01
                       5.3673281093E+00  6.6055720047E+00  9.5608622402E+00
                      -4.3916728172E+00  8.3786173785E+00  5.7491473614E+00
                       9.2336746327E+00  2.0560330945E+00  1.2876544124E+01
             xred      8.4618000000E-01  1.5382000000E-01  2.5000000000E-01
                       1.5382000000E-01  8.4618000000E-01  7.5000000000E-01
                       4.3280900000E-01  5.6719100000E-01  7.5000000000E-01
                       5.6719100000E-01  4.3280900000E-01  2.5000000000E-01
                       3.6695800000E-01  1.9848200000E-01  4.9225000000E-02
                       1.9848200000E-01  3.6695800000E-01  5.4922500000E-01
                       6.3304200000E-01  8.0151800000E-01  9.5077500000E-01
                       8.0151800000E-01  6.3304200000E-01  4.5077500000E-01
                       1.9703900000E-01  8.0296100000E-01  2.5000000000E-01
                       8.0296100000E-01  1.9703900000E-01  7.5000000000E-01
            znucl       55.00000   79.00000   34.00000

- Timing analysis has been suppressed with timopt=0

 Suggested references for the acknowledgment of ABINIT usage.

 Calculation completed.
.Delivered   2 WARNINGs and   7 COMMENTs to log file.