.Version 9.7.2 of ABINIT

 ABINIT is a project of the Universite Catholique de Louvain,
 Corning Inc. and other collaborators, see ~abinit/doc/developers/contributors.txt .
 acknowledgments of the ABINIT effort.

.Starting date : Wed  1 Dec 2021.
- ( at 21h51 )

- input  file    -> /scratch/users/j/a/jabreu/flow_simple_remain_atoms/flow/w255/t1/run.abi
- output file    -> /scratch/users/j/a/jabreu/flow_simple_remain_atoms/flow/w255/t1/run.abo
- root for input  files -> /scratch/users/j/a/jabreu/flow_simple_remain_atoms/flow/w255/t1/indata/in
- root for output files -> /scratch/users/j/a/jabreu/flow_simple_remain_atoms/flow/w255/t1/outdata/out

 Symmetries : space group I-4 2 d (#122); Bravais tI (body-center tetrag.)
     intxc =       0      iscf =       7    lmnmax =      18     lnmax =       6
     mgfft =      80  mpssoang =       3    mqgrid =    3001     natom =       8
  nloc_mem =       1    nspden =       1   nspinor =       1    nsppol =       1
      nsym =       8    n1xccc =    2501    ntypat =       3    occopt =       1
   xclevel =       2
-    mband =          57        mffmem =           1         mkmem =           2
-   mkqmem =           2        mk1mem =           2           mpw =       19136
      nfft =      512000          nkpt =           2
  Rough estimation (10% accuracy) of disk space for files :

------------- Echo of variables that govern the present computation ------------
-
- outvars: echo of selected default values
-   iomode0 =  0 , fftalg0 =512 , wfoptalg0 =  0
-
- outvars: echo of global parameters not present in the input file
-  max_nthreads =    0
-
 -outvars: echo values of preprocessed input variables --------
            acell      1.0000000000E+00  1.0000000000E+00  1.0000000000E+00 Bohr
              amu      6.94100000E+00  6.97230000E+01  1.27600000E+02
             ecut      4.00000000E+01 Hartree
-          fftalg         512
           irdden           1
           irdwfk           1
           istwfk        1    0
              ixc     -116133
              kpt      0.00000000E+00  0.00000000E+00  0.00000000E+00
                       5.00000000E-01  5.00000000E-01 -5.00000000E-01
           kptopt           0
P           mkmem           2
P          mkqmem           2
P          mk1mem           2
            natom           8
            nband          57
           nbdbuf           4
            ngfft          80      80      80
             nkpt           2
            nstep        2000
             nsym           8
           ntypat           3
              occ      2.000000  2.000000  2.000000  2.000000  2.000000  2.000000
                       2.000000  2.000000  2.000000  2.000000  2.000000  2.000000
                       2.000000  2.000000  2.000000  2.000000  2.000000  2.000000
                       2.000000  2.000000  2.000000  2.000000  2.000000  2.000000
                       2.000000  2.000000  2.000000  2.000000  2.000000  2.000000
                       2.000000  2.000000  2.000000  2.000000  2.000000  2.000000
                       2.000000  2.000000  2.000000  2.000000  2.000000  2.000000
                       2.000000  2.000000  2.000000  2.000000  2.000000  2.000000
                       0.000000  0.000000  0.000000  0.000000  0.000000  0.000000
                       0.000000  0.000000  0.000000
        optdriver           1
            prtwf          -1
            rfdir           1       1       1
           rfelfd           2
            rprim      1.0786790869E+01  0.0000000000E+00 -8.8706047209E+00
                      -2.4067046137E+00  1.0514876612E+01 -8.8706047209E+00
                       0.0000000000E+00  0.0000000000E+00  1.3965761181E+01
          spgroup         122
           symrel      1  0  0   0  1  0   0  0  1       0  0  1  -1 -1 -1   1  0  0
                       0  1  0   1  0  0  -1 -1 -1      -1 -1 -1   0  0  1   0  1  0
                       0  1  0   1  0  0   0  0  1       0  0  1  -1 -1 -1   0  1  0
                       1  0  0   0  1  0  -1 -1 -1      -1 -1 -1   0  0  1   1  0  0
            tnons      0.0000000  0.0000000  0.0000000    -0.2500000  0.2500000  0.5000000
                       0.0000000  0.0000000  0.0000000    -0.2500000  0.2500000  0.5000000
                      -0.2500000  0.2500000  0.5000000     0.0000000  0.0000000  0.0000000
                      -0.2500000  0.2500000  0.5000000     0.0000000  0.0000000  0.0000000
           tolwfr      1.00000000E-20
            typat      1  1  2  2  3  3  3  3
           useylm           1
              wtk        0.50000    0.50000
           xangst      0.0000000000E+00  0.0000000000E+00  0.0000000000E+00
                       3.9626996040E+00  1.3910582635E+00 -9.9894058586E-01
                       2.2172753262E+00  2.7821165270E+00 -4.6941218447E+00
                       4.7185104842E-01  4.1731747905E+00 -9.9894058586E-01
                       2.6935583962E+00  3.4776456587E+00 -2.2093313533E+00
                       1.0435808996E+00  4.7926352922E+00  1.4858499056E+00
                       4.4996074159E+00  2.1626560253E+00 -5.8307919996E+00
                       6.3235459314E-01  6.9552913175E-01  2.5585111039E+00
            xcart      0.0000000000E+00  0.0000000000E+00  0.0000000000E+00
                       7.4884169985E+00  2.6287191529E+00 -1.8877241303E+00
                       4.1900431278E+00  5.2574383058E+00 -8.8706047209E+00
                       8.9166925703E-01  7.8861574587E+00 -1.8877241303E+00
                       5.0900876917E+00  6.5717978822E+00 -4.1750311945E+00
                       1.9720820977E+00  9.0567681570E+00  2.8078493961E+00
                       8.5030257216E+00  4.0868276075E+00 -1.1018600017E+01
                       1.1949769999E+00  1.3143595764E+00  4.8348852943E+00
             xred      0.0000000000E+00  0.0000000000E+00  0.0000000000E+00
                       7.5000000000E-01  2.5000000000E-01  5.0000000000E-01
                       5.0000000000E-01  5.0000000000E-01  5.5511151231E-17
                       2.5000000000E-01  7.5000000000E-01  5.0000000000E-01
                       6.1132900000E-01  6.2500000000E-01  4.8632900000E-01
                       3.7500000000E-01  8.6132900000E-01  9.8632900000E-01
                       8.7500000000E-01  3.8867100000E-01  1.3671000000E-02
                       1.3867100000E-01  1.2500000000E-01  5.1367100000E-01
            znucl        3.00000   31.00000   52.00000

 chkinp: Checking input parameters for consistency.

== DATASET  1 ==================================================================
-   mpi_nproc: 1, omp_nthreads: -1 (-1 if OMP is not activated)

--- !DatasetInfo
iteration_state: {dtset: 1, }
dimensions: {natom: 8, nkpt: 2, mband: 57, nsppol: 1, nspinor: 1, nspden: 1, mpw: 19136, }
cutoff_energies: {ecut:  40.0, pawecutdg:  -1.0, }
electrons: {nelect:   9.60000000E+01, charge:   0.00000000E+00, occopt:   1.00000000E+00, tsmear:   1.00000000E-02, }
meta: {optdriver: 1, rfelfd: 2, }
...

 Real(R)+Recip(G) space primitive vectors, cartesian coordinates (Bohr,Bohr^-1):
 R(1)= 10.7867909  0.0000000 -8.8706047  G(1)=  0.0927060  0.0212191  0.0000000
 R(2)= -2.4067046 10.5148766 -8.8706047  G(2)=  0.0000000  0.0951034  0.0000000
 R(3)=  0.0000000  0.0000000 13.9657612  G(3)=  0.0588839  0.0738843  0.0716037
 Unit cell volume ucvol=  1.5840214E+03 bohr^3
 Angles (23,13,12)=  1.29432446E+02  1.29432446E+02  7.43157372E+01 degrees

 getcut: wavevector=  0.0000  0.0000  0.0000  ngfft=  80  80  80
         ecut(hartree)=     40.000   => boxcut(ratio)=   2.01246

--- Pseudopotential description ------------------------------------------------
- pspini: atom type   1  psp file is /scratch/users/j/a/jabreu/pseudos/PBEsol/Li.psp8
- pspatm: opening atomic psp file    /scratch/users/j/a/jabreu/pseudos/PBEsol/Li.psp8
- Li    ONCVPSP-3.3.0  r_core=   1.40824   1.10935
-  3.00000   3.00000    180112                znucl, zion, pspdat
    8 -116133    1    4       400   0.00000   pspcod,pspxc,lmax,lloc,mmax,r2well
    3.99000000000000    0.00000000000000    0.00000000000000   rchrg,fchrg,qchrg
     nproj     2     2
     extension_switch     1
  pspatm : epsatm=    2.60859637
         --- l  ekb(1:nproj) -->
             0   -4.855856   -1.482423
             1   -2.171544   -0.427615
 pspatm: atomic psp has been read  and splines computed

- pspini: atom type   2  psp file is /scratch/users/j/a/jabreu/pseudos/PBEsol/Ga.psp8
- pspatm: opening atomic psp file    /scratch/users/j/a/jabreu/pseudos/PBEsol/Ga.psp8
- Ga    ONCVPSP-3.3.0  r_core=   1.66857   1.75011   1.90252
- 31.00000  13.00000    180112                znucl, zion, pspdat
    8 -116133    2    4       600   0.00000   pspcod,pspxc,lmax,lloc,mmax,r2well
    5.99000000000000    5.00000000000000    0.00000000000000   rchrg,fchrg,qchrg
     nproj     2     2     2
     extension_switch     1
  pspatm : epsatm=   24.50969055
         --- l  ekb(1:nproj) -->
             0    7.053021    1.156713
             1    6.846070    1.293139
             2   -8.368667   -2.819170
 pspatm: atomic psp has been read  and splines computed

- pspini: atom type   3  psp file is /scratch/users/j/a/jabreu/pseudos/PBEsol/Te.psp8
- pspatm: opening atomic psp file    /scratch/users/j/a/jabreu/pseudos/PBEsol/Te.psp8
- Te    ONCVPSP-3.3.0  r_core=   2.26547   1.91704   1.80604
- 52.00000  16.00000    180112                znucl, zion, pspdat
    8 -116133    2    4       600   0.00000   pspcod,pspxc,lmax,lloc,mmax,r2well
    5.99000000000000    5.00000000000000    0.00000000000000   rchrg,fchrg,qchrg
     nproj     2     2     2
     extension_switch     1
  pspatm : epsatm=   36.82679836
         --- l  ekb(1:nproj) -->
             0    6.345999    0.785432
             1    5.709019    1.070069
             2   -6.035173   -1.870937
 pspatm: atomic psp has been read  and splines computed

   1.93482017E+04                                ecore*ucvol(ha*bohr**3)

 ==>  initialize data related to q vector <==

 The list of irreducible perturbations for this q vector is:
    1)    idir= 1    ipert=   9
    2)    idir= 2    ipert=   9
    3)    idir= 3    ipert=   9

 Perturbation wavevector (in red.coord.)   0.000000  0.000000  0.000000
 Perturbation : derivative vs k along direction   1

 dfpt_looppert : COMMENT -
  In a d/dk calculation, iscf is set to -3 automatically.
 The set of symmetries contains only one element for this perturbation.
 symkpt : not enough symmetry to change the number of k points.

 Initialisation of the first-order wave-functions :
  ireadwf=   0

--- !BeginCycle
iteration_state: {dtset: 1, }
solver: {iscf: 7, nstep: 2000, nline: 4, wfoptalg: 0, }
tolerances: {tolwfr: 1.00E-20, }
...

     iter   2DEtotal(Ha)        deltaE(Ha) residm    vres2
-ETOT  1  -81.661125276696     -8.166E+01 2.762E-02 0.000E+00
 ETOT  2  -81.719595019989     -5.847E-02 1.375E-03 0.000E+00
 ETOT  3  -81.719695979125     -1.010E-04 2.618E-05 0.000E+00
 ETOT  4  -81.719696599907     -6.208E-07 2.123E-06 0.000E+00
 ETOT  5  -81.719696604705     -4.798E-09 4.670E-08 0.000E+00
 ETOT  6  -81.719696604746     -4.091E-11 4.481E-09 0.000E+00
[...]
 kpt#   1, nband= 57, wtk=  0.50000, kpt=  0.0000  0.0000  0.0000 (reduced coord)
   0.00000    0.00000   -0.00000   -0.00000   -0.00000   -0.00000    0.00000    0.00000
  -0.00000   -0.00000    0.00000    0.00000    0.00000    0.00000    0.00000   -0.00000
   0.00000    0.00000   -0.00000    0.00000    0.00000   -0.00000    0.00000   -0.00000
  -0.00000    0.00000    0.00000    0.00000   -0.00000    0.00000   -0.00000   -0.00000
  -0.00000   -0.00000   -0.00000   -0.00000    0.00000   -0.00000   -0.00000   -0.00000
  -0.00000    0.00000   -0.00000    0.00000    0.00000   -0.00000   -0.00000    0.00000
   0.00000    0.00000    0.00000    0.00000    0.00000    0.00000   -0.00000   -0.00000
   0.00000
 prteigrs : prtvol=0 or 1, do not print more k-points.

 Eight components of 2nd-order total energy (hartree) are
 1,2,3: 0th-order hamiltonian combined with 1st-order wavefunctions
     kin0=   8.52935497E+01 eigvalue=   1.47361031E+01  local=  -4.15503346E+01
 4,5,6: 1st-order hamiltonian combined with 1st and 0th-order wfs
     kin1=  -7.32579150E+01  Hartree=   0.00000000E+00     xc=   0.00000000E+00
 7,8,9: eventually, occupation + non-local contributions
    edocc=   1.13167155E+01     enl0=   1.19236630E+01   enl1=  -9.01814782E+01
 1-9 gives the relaxation energy (to be shifted if some occ is /=2.0)
   erelax=  -8.17196966E+01
  No Ewald or frozen-wf contrib.: the relaxation energy is the total one
 2DEtotal=   -0.8171969660E+02 Ha. Also 2DEtotal=   -0.222370603323E+04 eV
    (  non-var. 2DEtotal :   -8.1719696605E+01 Ha)

 Perturbation wavevector (in red.coord.)   0.000000  0.000000  0.000000
 Perturbation : derivative vs k along direction   2
 The set of symmetries contains only one element for this perturbation.
 symkpt : not enough symmetry to change the number of k points.

[...]

 Perturbation wavevector (in red.coord.)   0.000000  0.000000  0.000000
 Perturbation : derivative vs k along direction   3
 The set of symmetries contains only one element for this perturbation.
 symkpt : not enough symmetry to change the number of k points.

 Initialisation of the first-order wave-functions :
  ireadwf=   0

--- !BeginCycle
iteration_state: {dtset: 1, }
solver: {iscf: 7, nstep: 2000, nline: 4, wfoptalg: 0, }
tolerances: {tolwfr: 1.00E-20, }
...

     iter   2DEtotal(Ha)        deltaE(Ha) residm    vres2
-ETOT  1  -127.18262361307     -1.272E+02 5.239E-02 0.000E+00
 ETOT  2  -127.27191808934     -8.929E-02 1.090E-03 0.000E+00
 ETOT  3  -127.27207240397     -1.543E-04 5.765E-05 0.000E+00
 ETOT  4  -127.27207331441     -9.104E-07 1.341E-06 0.000E+00
 ETOT  5  -127.27207332127     -6.857E-09 9.286E-08 0.000E+00
 ETOT  6  -127.27207332132     -5.741E-11 2.440E-09 0.000E+00
 ETOT  7  -127.27207332132     -6.111E-13 1.701E-10 0.000E+00
 ETOT  8  -127.27207332132      1.137E-13 4.778E-12 0.000E+00
 ETOT  9  -127.27207332132      2.842E-14 3.353E-13 0.000E+00
 ETOT 10  -127.27207332132     -1.421E-14 9.529E-15 0.000E+00
 ETOT 11  -127.27207332132      4.263E-14 6.674E-16 0.000E+00
 ETOT 12  -127.27207332132      0.000E+00 1.916E-17 0.000E+00
 ETOT 13  -127.27207332132     -5.684E-14 1.335E-18 0.000E+00
 ETOT 14  -127.27207332132      2.842E-14 3.870E-20 0.000E+00
 ETOT 15  -127.27207332132     -5.684E-14 9.919E-21 0.000E+00

 At SCF step   15   max residual=  9.92E-21 < tolwfr=  1.00E-20 =>converged.

 ----iterations are completed or convergence reached----

 dfpt_looppert: DFPT cycle converged with prtwf=-1. Will skip output of the 1st-order WFK file.
 dfpt_looppert : ek2=    1.0652188167E+02
          f-sum rule ratio=    1.0738444881E+00
 prteigrs : about to open file /scratch/users/j/a/jabreu/flow_simple_remain_atoms/flow/w255/t1/tmpdata/tmp_1WF1_EIG
 Expectation of eigenvalue derivatives (hartree) for nkpt=   2  k points:
  (in case of degenerate eigenvalues, averaged derivative)
 kpt#   1, nband= 57, wtk=  0.50000, kpt=  0.0000  0.0000  0.0000 (reduced coord)
  -0.00000   -0.00000    0.00000   -0.00000   -0.00000    0.00000    0.00000    0.00000
  -0.00000   -0.00000   -0.00000    0.00000    0.00000   -0.00000    0.00000   -0.00000
   0.00000    0.00000   -0.00000    0.00000    0.00000   -0.00000    0.00000   -0.00000
  -0.00000    0.00000    0.00000    0.00000   -0.00000   -0.00000   -0.00000   -0.00000
  -0.00000   -0.00000   -0.00000   -0.00000    0.00000   -0.00000   -0.00000   -0.00000
  -0.00000   -0.00000    0.00000    0.00000    0.00000    0.00000    0.00000   -0.00000
   0.00000    0.00000    0.00000   -0.00000   -0.00000   -0.00000   -0.00000   -0.00000
   0.00000
 prteigrs : prtvol=0 or 1, do not print more k-points.

 Eight components of 2nd-order total energy (hartree) are
 1,2,3: 0th-order hamiltonian combined with 1st-order wavefunctions
     kin0=   1.31943431E+02 eigvalue=   2.28809974E+01  local=  -6.41009397E+01
 4,5,6: 1st-order hamiltonian combined with 1st and 0th-order wfs
     kin1=  -1.14387935E+02  Hartree=   0.00000000E+00     xc=   0.00000000E+00
 7,8,9: eventually, occupation + non-local contributions
    edocc=   1.81573811E+01     enl0=   1.83912034E+01   enl1=  -1.40156211E+02
 1-9 gives the relaxation energy (to be shifted if some occ is /=2.0)
   erelax=  -1.27272073E+02
  No Ewald or frozen-wf contrib.: the relaxation energy is the total one
 2DEtotal=   -0.1272720733E+03 Ha. Also 2DEtotal=   -0.346324924180E+04 eV
    (  non-var. 2DEtotal :   -1.2727207332E+02 Ha)

 CALCULATION OF EFFECTIVE MASSES
 NOTE : Additional infos (eff. mass eigenvalues, eigenvectors and, if degenerate, average mass) are available in stdout.

 K-point ( 0.000, 0.000, 0.000) | band =    48
 Effective mass tensor:
             -0.4825621206              0.0631663728             -0.1065773654
              0.0631663728             -0.4536463667             -0.1337274832
             -0.1065773654             -0.1337274832             -0.3072726063
 Effective mass tensor eigenvalues:
             -0.5329040967             -0.5329040956             -0.1776729012
 Angular average effective mass 1/(<1/m>)=  -0.3197837129
 Angular average effective mass for Frohlich model (<m**0.5>)**2=  -0.3501000449
 Effective masses along directions: (cart. coord. / red. coord. -> eff. mass)
    1:   1.000000  0.000000  0.000000 /   0.976002 -0.217762  0.000000 ->  -0.4152475413
    2:   0.000000  1.000000  0.000000 /   0.000000  1.000000  0.000000 ->  -0.3685143203
    3:   0.000000  0.000000  1.000000 /  -0.472525 -0.472525  0.743936 ->  -0.2347671360
    4:   0.577350  0.577350  0.577350 /   0.135734 -0.054007  0.989272 ->  -0.5319517626
    5:   0.000000  0.707107  0.707107 /  -0.533529  0.098896  0.839980 ->  -0.4821151958
    6:   0.707107  0.000000  0.707107 /   0.106145 -0.624696  0.773620 ->  -0.4528486208
    7:   0.707107  0.707107  0.000000 /   0.799356  0.600857  0.000000 ->  -0.3097856544

 COMMENTS:
 - At k-point ( 0.500, 0.500,-0.500), bands    49 through    50
   are DEGENERATE (effective mass tensor is therefore not defined).
   See Section IIIB Eqs. (67)-(70) and Appendix E of PRB 93 205147 (2016).
 - Angular average effective mass for Frohlich model is to be averaged over degenerate bands. See later.
 - Associated theta integrals calculated with ntheta=   1000 points.

 K-point ( 0.500, 0.500,-0.500) | band =    49
 Transport equivalent effective mass tensor:
              1.3576939848             -0.0857581537              0.1444106989
             -0.0857581537              1.3170300252              0.1807098109
              0.1444106989              0.1807098109              1.1193355286
 Transport equivalent effective mass tensor eigenvalues:
              1.4258921762              1.4241525632              0.9440147991
 Angular average effective mass 1/(<1/m>)=   0.6647110841
 Angular average effective mass for Frohlich model (<m**0.5>)**2=   0.7134420111
 Effective masses along directions: (cart. coord. / red. coord. -> eff. mass)
    1:   1.000000  0.000000  0.000000 /   0.976002 -0.217762  0.000000 ->   0.9873831553
    2:   0.000000  1.000000  0.000000 /   0.000000  1.000000  0.000000 ->   0.9607115330
    3:   0.000000  0.000000  1.000000 /  -0.472525 -0.472525  0.743936 ->   0.4715425957
    4:   0.577350  0.577350  0.577350 /   0.135734 -0.054007  0.989272 ->   0.5946522445
    5:   0.000000  0.707107  0.707107 /  -0.533529  0.098896  0.839980 ->   1.0027712999
    6:   0.707107  0.000000  0.707107 /   0.106145 -0.624696  0.773620 ->   1.1197774204
    7:   0.707107  0.707107  0.000000 /   0.799356  0.600857  0.000000 ->   0.5520905312

 K-point ( 0.500, 0.500,-0.500) | band =    50
 Transport equivalent effective mass tensor:
              0.4519437074              0.0241427599             -0.0411313244
              0.0241427599              0.4636470175             -0.0515496274
             -0.0411313244             -0.0515496274              0.5196796187
 Transport equivalent effective mass tensor eigenvalues:
              0.5696573618              0.4331196939              0.4324932880
 Angular average effective mass 1/(<1/m>)=   0.3953881085
 Angular average effective mass for Frohlich model (<m**0.5>)**2=   0.3995618888
 Effective masses along directions: (cart. coord. / red. coord. -> eff. mass)
    1:   1.000000  0.000000  0.000000 /   0.976002 -0.217762  0.000000 ->   0.3462253388
    2:   0.000000  1.000000  0.000000 /   0.000000  1.000000  0.000000 ->   0.3428732211
    3:   0.000000  0.000000  1.000000 /  -0.472525 -0.472525  0.743936 ->   0.4713588369
    4:   0.577350  0.577350  0.577350 /   0.135734 -0.054007  0.989272 ->   0.4708907857
    5:   0.000000  0.707107  0.707107 /  -0.533529  0.098896  0.839980 ->   0.3517100005
    6:   0.707107  0.000000  0.707107 /   0.106145 -0.624696  0.773620 ->   0.3364847376
    7:   0.707107  0.707107  0.000000 /   0.799356  0.600857  0.000000 ->   0.4461154198

 Angular average effective mass for Frohlich model, averaged over degenerate bands.
 Value of     (<<m**0.5>>)**2 =     5.452080E-01
 Absolute Value of <<m**0.5>> =     7.383820E-01

 END OF EFFECTIVE MASSES SECTION

 ---- first-order wavefunction calculations are completed ----

 Total localisation tensor (bohr^2) in cartesian coordinates
  WARNING : still subject to testing - especially symmetries.
      direction              matrix element
   alpha     beta       real part   imaginary part
     1        1       1.6590954605    0.0000000000
     1        2      -0.3437290162    0.0000000000
     1        3      -1.0096937112    0.0000000000
     2        1      -0.3437290162    0.0000000000
     2        2       1.5017498088    0.0000000000
     2        3      -1.2669125313    0.0000000000
     3        1      -1.0096937112    0.0000000000
     3        2      -1.2669125313    0.0000000000
     3        3       6.2618825346    0.0000000000

 respfn : d/dk was computed, but no 2DTE, so no DDB output.

== END DATASET(S) ==============================================================

 -outvars: echo values of variables after computation  --------
            acell      1.0000000000E+00  1.0000000000E+00  1.0000000000E+00 Bohr
              amu      6.94100000E+00  6.97230000E+01  1.27600000E+02
             ecut      4.00000000E+01 Hartree
           etotal     -1.2727207332E+02
            fcart      0.0000000000E+00  0.0000000000E+00  0.0000000000E+00
                       0.0000000000E+00  0.0000000000E+00  0.0000000000E+00
                       0.0000000000E+00  0.0000000000E+00  0.0000000000E+00
                       0.0000000000E+00  0.0000000000E+00  0.0000000000E+00
                       0.0000000000E+00  0.0000000000E+00  0.0000000000E+00
                       0.0000000000E+00  0.0000000000E+00  0.0000000000E+00
                       0.0000000000E+00  0.0000000000E+00  0.0000000000E+00
                       0.0000000000E+00  0.0000000000E+00  0.0000000000E+00
-          fftalg         512
           irdden           1
           irdwfk           1
           istwfk        1    0
              ixc     -116133
              kpt      0.00000000E+00  0.00000000E+00  0.00000000E+00
                       5.00000000E-01  5.00000000E-01 -5.00000000E-01
           kptopt           0
P           mkmem           2
P          mkqmem           2
P          mk1mem           2
            natom           8
            nband          57
           nbdbuf           4
            ngfft          80      80      80
             nkpt           2
            nstep        2000
             nsym           8
           ntypat           3
              occ      2.000000  2.000000  2.000000  2.000000  2.000000  2.000000
                       2.000000  2.000000  2.000000  2.000000  2.000000  2.000000
                       2.000000  2.000000  2.000000  2.000000  2.000000  2.000000
                       2.000000  2.000000  2.000000  2.000000  2.000000  2.000000
                       2.000000  2.000000  2.000000  2.000000  2.000000  2.000000
                       2.000000  2.000000  2.000000  2.000000  2.000000  2.000000
                       2.000000  2.000000  2.000000  2.000000  2.000000  2.000000
                       2.000000  2.000000  2.000000  2.000000  2.000000  2.000000
                       0.000000  0.000000  0.000000  0.000000  0.000000  0.000000
                       0.000000  0.000000  0.000000
        optdriver           1
            prtwf          -1
            rfdir           1       1       1
           rfelfd           2
            rprim      1.0786790869E+01  0.0000000000E+00 -8.8706047209E+00
                      -2.4067046137E+00  1.0514876612E+01 -8.8706047209E+00
                       0.0000000000E+00  0.0000000000E+00  1.3965761181E+01
          spgroup         122
           strten      0.0000000000E+00  0.0000000000E+00  0.0000000000E+00
                       0.0000000000E+00  0.0000000000E+00  0.0000000000E+00
           symrel      1  0  0   0  1  0   0  0  1       0  0  1  -1 -1 -1   1  0  0
                       0  1  0   1  0  0  -1 -1 -1      -1 -1 -1   0  0  1   0  1  0
                       0  1  0   1  0  0   0  0  1       0  0  1  -1 -1 -1   0  1  0
                       1  0  0   0  1  0  -1 -1 -1      -1 -1 -1   0  0  1   1  0  0
            tnons      0.0000000  0.0000000  0.0000000    -0.2500000  0.2500000  0.5000000
                       0.0000000  0.0000000  0.0000000    -0.2500000  0.2500000  0.5000000
                      -0.2500000  0.2500000  0.5000000     0.0000000  0.0000000  0.0000000
                      -0.2500000  0.2500000  0.5000000     0.0000000  0.0000000  0.0000000
           tolwfr      1.00000000E-20
            typat      1  1  2  2  3  3  3  3
           useylm           1
              wtk        0.50000    0.50000
           xangst      0.0000000000E+00  0.0000000000E+00  0.0000000000E+00
                       3.9626996040E+00  1.3910582635E+00 -9.9894058586E-01
                       2.2172753262E+00  2.7821165270E+00 -4.6941218447E+00
                       4.7185104842E-01  4.1731747905E+00 -9.9894058586E-01
                       2.6935583962E+00  3.4776456587E+00 -2.2093313533E+00
                       1.0435808996E+00  4.7926352922E+00  1.4858499056E+00
                       4.4996074159E+00  2.1626560253E+00 -5.8307919996E+00
                       6.3235459314E-01  6.9552913175E-01  2.5585111039E+00
            xcart      0.0000000000E+00  0.0000000000E+00  0.0000000000E+00
                       7.4884169985E+00  2.6287191529E+00 -1.8877241303E+00
                       4.1900431278E+00  5.2574383058E+00 -8.8706047209E+00
                       8.9166925703E-01  7.8861574587E+00 -1.8877241303E+00
                       5.0900876917E+00  6.5717978822E+00 -4.1750311945E+00
                       1.9720820977E+00  9.0567681570E+00  2.8078493961E+00
                       8.5030257216E+00  4.0868276075E+00 -1.1018600017E+01
                       1.1949769999E+00  1.3143595764E+00  4.8348852943E+00
             xred      0.0000000000E+00  0.0000000000E+00  0.0000000000E+00
                       7.5000000000E-01  2.5000000000E-01  5.0000000000E-01
                       5.0000000000E-01  5.0000000000E-01  5.5511151231E-17
                       2.5000000000E-01  7.5000000000E-01  5.0000000000E-01
                       6.1132900000E-01  6.2500000000E-01  4.8632900000E-01
                       3.7500000000E-01  8.6132900000E-01  9.8632900000E-01
                       8.7500000000E-01  3.8867100000E-01  1.3671000000E-02
                       1.3867100000E-01  1.2500000000E-01  5.1367100000E-01
            znucl        3.00000   31.00000   52.00000

- Timing analysis has been suppressed with timopt=0

 Suggested references for the acknowledgment of ABINIT usage.

 Calculation completed.
.Delivered   2 WARNINGs and   5 COMMENTs to log file.