.Version 9.5.2 of ABINIT

 ABINIT is a project of the Universite Catholique de Louvain,
 Corning Inc. and other collaborators, see ~abinit/doc/developers/contributors.txt .
 acknowledgments of the ABINIT effort.

.Starting date : Wed 26 May 2021.
- ( at 03h23 )

- input  file    -> /scratch/users/j/a/jabreu/flow_simple_11atoms/flow/w296/t1/run.abi
- output file    -> /scratch/users/j/a/jabreu/flow_simple_11atoms/flow/w296/t1/run.abo
- root for input  files -> /scratch/users/j/a/jabreu/flow_simple_11atoms/flow/w296/t1/indata/in
- root for output files -> /scratch/users/j/a/jabreu/flow_simple_11atoms/flow/w296/t1/outdata/out

 Symmetries : space group I4/m m m (#139); Bravais tI (body-center tetrag.)
     intxc =       0      iscf =       7    lmnmax =      18     lnmax =       6
     mgfft =      72  mpssoang =       3    mqgrid =    3406     natom =      12
  nloc_mem =       1    nspden =       1   nspinor =       1    nsppol =       1
      nsym =      16    n1xccc =    2501    ntypat =       3    occopt =       1
   xclevel =       2
-    mband =          65        mffmem =           1         mkmem =           2
-   mkqmem =           2        mk1mem =           2           mpw =       13447
      nfft =      373248          nkpt =           2
  Rough estimation (10% accuracy) of disk space for files :

------------- Echo of variables that govern the present computation ------------
-
- outvars: echo of selected default values
-   iomode0 =  0 , fftalg0 =512 , wfoptalg0 =  0
-
- outvars: echo of global parameters not present in the input file
-  max_nthreads =    0
-
 -outvars: echo values of preprocessed input variables --------
            acell      1.0000000000E+00  1.0000000000E+00  1.0000000000E+00 Bohr
              amu      6.94100000E+00  6.35460000E+01  1.59994000E+01
             ecut      4.60000000E+01 Hartree
-          fftalg         512
           irdden           1
           irdwfk           1
              ixc     -116133
              kpt     -5.00000000E-01  5.00000000E-01  5.00000000E-01
                       2.82573373E-01  2.82573373E-01 -2.82573373E-01
           kptopt           0
P           mkmem           2
P          mkqmem           2
P          mk1mem           2
            natom          12
            nband          65
           nbdbuf           4
            ngfft          72      72      72
             nkpt           2
            nstep        2000
             nsym          16
           ntypat           3
              occ      2.000000  2.000000  2.000000  2.000000  2.000000  2.000000
                       2.000000  2.000000  2.000000  2.000000  2.000000  2.000000
                       2.000000  2.000000  2.000000  2.000000  2.000000  2.000000
                       2.000000  2.000000  2.000000  2.000000  2.000000  2.000000
                       2.000000  2.000000  2.000000  2.000000  2.000000  2.000000
                       2.000000  2.000000  2.000000  2.000000  2.000000  2.000000
                       2.000000  2.000000  2.000000  2.000000  2.000000  2.000000
                       2.000000  2.000000  2.000000  2.000000  2.000000  2.000000
                       2.000000  2.000000  2.000000  2.000000  2.000000  2.000000
                       2.000000  2.000000  0.000000  0.000000  0.000000  0.000000
                       0.000000  0.000000  0.000000  0.000000  0.000000
        optdriver           1
            prtwf          -1
            rfdir           1       1       1
           rfelfd           2
            rprim      1.1673419917E+01  0.0000000000E+00 -1.1192639056E+00
                      -9.6392591740E+00  6.5843310310E+00 -1.1192639056E+00
                       0.0000000000E+00  0.0000000000E+00  1.1726955455E+01
          spgroup         139
           symrel      1  0  0   0  1  0   0  0  1      -1  0  0   0 -1  0   0  0 -1
                       0  0  1  -1 -1 -1   1  0  0       0  0 -1   1  1  1  -1  0  0
                       0  1  0   1  0  0  -1 -1 -1       0 -1  0  -1  0  0   1  1  1
                      -1 -1 -1   0  0  1   0  1  0       1  1  1   0  0 -1   0 -1  0
                       1  0  0   0  1  0  -1 -1 -1      -1  0  0   0 -1  0   1  1  1
                      -1 -1 -1   0  0  1   1  0  0       1  1  1   0  0 -1  -1  0  0
                       0  1  0   1  0  0   0  0  1       0 -1  0  -1  0  0   0  0 -1
                       0  0  1  -1 -1 -1   0  1  0       0  0 -1   1  1  1   0 -1  0
           tolwfr      1.00000000E-20
            typat      1  1  1  1  2  2  2  2  3  3  3  3
           useylm           1
              wtk        0.50000    0.50000
           xangst     -1.6215440079E+00  1.7421389577E+00  3.6507647580E+00
                       2.6979755115E+00  1.7421389577E+00  1.3702948964E+00
                      -1.2451934141E+00  2.9603400767E+00  1.3702948964E+00
                       2.3216249178E+00  5.2393783870E-01  3.6507647580E+00
                      -3.3029645556E+00  2.9288317515E+00 -5.9228894924E-01
                       9.0483217549E-01  2.9288317515E+00  3.2313557191E+00
                       1.7159932815E-01  5.5544616389E-01  1.7897039353E+00
                       4.3793960593E+00  5.5544616389E-01 -5.9228894924E-01
                       4.2625709191E+00  0.0000000000E+00  3.8734182304E+00
                       1.9147368471E+00  0.0000000000E+00  1.7399303732E+00
                      -1.5810829090E+00  1.0799972355E+00  1.7399303732E+00
                      -3.5197933536E+00  2.4042806799E+00  3.8734182304E+00
            xcart     -3.0642740873E+00  3.2921655155E+00  6.8989455683E+00
                       5.0984348300E+00  3.2921655155E+00  2.5894820754E+00
                      -2.3530745351E+00  5.5942320052E+00  2.5894820754E+00
                       4.3872352778E+00  9.9009902579E-01  6.8989455683E+00
                      -6.2416984368E+00  5.5346898997E+00 -1.1192639056E+00
                       1.7098850079E+00  5.5346898997E+00  6.1063773470E+00
                       3.2427573480E-01  1.0496411313E+00  3.3820502967E+00
                       8.2758591795E+00  1.0496411313E+00 -1.1192639056E+00
                       8.0550916591E+00  0.0000000000E+00  7.3196996536E+00
                       3.6183282576E+00  0.0000000000E+00  3.2879918957E+00
                      -2.9878136914E+00  2.0408989994E+00  3.2879918957E+00
                      -6.6514454826E+00  4.5434320316E+00  7.3196996536E+00
             xred      1.5037200000E-01  5.0000000000E-01  6.5037200000E-01
                       8.4962800000E-01  5.0000000000E-01  3.4962800000E-01
                       5.0000000000E-01  8.4962800000E-01  3.4962800000E-01
                       5.0000000000E-01  1.5037200000E-01  6.5037200000E-01
                       1.5941500000E-01  8.4058500000E-01 -6.9388939039E-18
                       8.4058500000E-01  8.4058500000E-01  6.8117000000E-01
                       1.5941500000E-01  1.5941500000E-01  3.1883000000E-01
                       8.4058500000E-01  1.5941500000E-01  0.0000000000E+00
                       6.9003700000E-01  0.0000000000E+00  6.9003700000E-01
                       3.0996300000E-01  0.0000000000E+00  3.0996300000E-01
                      -5.5511151231E-17  3.0996300000E-01  3.0996300000E-01
                      -1.1102230246E-16  6.9003700000E-01  6.9003700000E-01
            znucl        3.00000   29.00000    8.00000

 chkinp: Checking input parameters for consistency.

== DATASET  1 ==================================================================
-   mpi_nproc: 1, omp_nthreads: -1 (-1 if OMP is not activated)

--- !DatasetInfo
iteration_state: {dtset: 1, }
dimensions: {natom: 12, nkpt: 2, mband: 65, nsppol: 1, nspinor: 1, nspden: 1, mpw: 13447, }
cutoff_energies: {ecut:  46.0, pawecutdg:  -1.0, }
electrons: {nelect:   1.12000000E+02, charge:   0.00000000E+00, occopt:   1.00000000E+00, tsmear:   1.00000000E-02, }
meta: {optdriver: 1, rfelfd: 2, }
...

 Real(R)+Recip(G) space primitive vectors, cartesian coordinates (Bohr,Bohr^-1):
 R(1)= 11.6734199  0.0000000 -1.1192639  G(1)=  0.0856647  0.1254105  0.0000000
 R(2)= -9.6392592  6.5843310 -1.1192639  G(2)=  0.0000000  0.1518757  0.0000000
 R(3)=  0.0000000  0.0000000 11.7269555  G(3)=  0.0081762  0.0264652  0.0852736
 Unit cell volume ucvol=  9.0135327E+02 bohr^3
 Angles (23,13,12)=  9.54768574E+01  9.54768574E+01  1.44009322E+02 degrees

 getcut: wavevector=  0.0000  0.0000  0.0000  ngfft=  72  72  72
         ecut(hartree)=     46.000   => boxcut(ratio)=   2.01121

--- Pseudopotential description ------------------------------------------------
- pspini: atom type   1  psp file is /scratch/users/j/a/jabreu/pseudos/PBEsol/Li.psp8
- pspatm: opening atomic psp file    /scratch/users/j/a/jabreu/pseudos/PBEsol/Li.psp8
- Li    ONCVPSP-3.3.0  r_core=   1.40824   1.10935
-  3.00000   3.00000    180112                znucl, zion, pspdat
    8 -116133    1    4       400   0.00000   pspcod,pspxc,lmax,lloc,mmax,r2well
    3.99000000000000    0.00000000000000    0.00000000000000   rchrg,fchrg,qchrg
     nproj     2     2
     extension_switch     1
  pspatm : epsatm=    2.60859637
         --- l  ekb(1:nproj) -->
             0   -4.855856   -1.482423
             1   -2.171544   -0.427615
 pspatm: atomic psp has been read  and splines computed

- pspini: atom type   2  psp file is /scratch/users/j/a/jabreu/pseudos/PBEsol/Cu.psp8
- pspatm: opening atomic psp file    /scratch/users/j/a/jabreu/pseudos/PBEsol/Cu.psp8
- Cu    ONCVPSP-3.3.0  r_core=   1.26204   1.45626   1.76249
- 29.00000  19.00000    180112                znucl, zion, pspdat
    8 -116133    2    4       600   0.00000   pspcod,pspxc,lmax,lloc,mmax,r2well
    5.99000000000000    3.50000000000000    0.00000000000000   rchrg,fchrg,qchrg
     nproj     2     2     2
     extension_switch     1
  pspatm : epsatm=   21.63488701
         --- l  ekb(1:nproj) -->
             0    5.008230   -0.401634
             1   -3.496700   -0.765945
             2   -6.895851   -2.521180
 pspatm: atomic psp has been read  and splines computed

- pspini: atom type   3  psp file is /scratch/users/j/a/jabreu/pseudos/PBEsol/O.psp8
- pspatm: opening atomic psp file    /scratch/users/j/a/jabreu/pseudos/PBEsol/O.psp8
- O     ONCVPSP-3.3.0  r_core=   1.35509   1.45563   1.26150
-  8.00000   6.00000    180112                znucl, zion, pspdat
    8 -116133    2    4       600   0.00000   pspcod,pspxc,lmax,lloc,mmax,r2well
    5.99000000000000    4.00000000000000    0.00000000000000   rchrg,fchrg,qchrg
     nproj     2     2     1
     extension_switch     1
  pspatm : epsatm=    6.22910522
         --- l  ekb(1:nproj) -->
             0    6.050032    0.820363
             1   -4.739617   -1.153841
             2   -1.335834
 pspatm: atomic psp has been read  and splines computed

   1.36517197E+04                                ecore*ucvol(ha*bohr**3)

 ==>  initialize data related to q vector <==

 The list of irreducible perturbations for this q vector is:
    1)    idir= 1    ipert=  13
    2)    idir= 2    ipert=  13
    3)    idir= 3    ipert=  13

 Perturbation wavevector (in red.coord.)   0.000000  0.000000  0.000000
[...]
 prteigrs : about to open file /scratch/users/j/a/jabreu/flow_simple_11atoms/flow/w296/t1/tmpdata/tmp_1WF1_EIG
 Expectation of eigenvalue derivatives (hartree) for nkpt=   2  k points:
  (in case of degenerate eigenvalues, averaged derivative)
 kpt#   1, nband= 65, wtk=  0.50000, kpt= -0.5000  0.5000  0.5000 (reduced coord)
   0.00000   -0.00000   -0.00000   -0.00000   -0.00000   -0.00000   -0.00000    0.00000
  -0.00000    0.00000    0.00000    0.00000   -0.00000   -0.00000   -0.00000   -0.00000
   0.00000   -0.00000   -0.00000   -0.00000   -0.00000   -0.00000   -0.00000   -0.00000
  -0.00000   -0.00000   -0.00000    0.00000    0.00000   -0.00000    0.00000   -0.00000
  -0.00000   -0.00000   -0.00000    0.00000    0.00000    0.00000   -0.00000    0.00000
  -0.00000    0.00000    0.00000    0.00000   -0.00000   -0.00000    0.00000    0.00000
   0.00000    0.00000    0.00000   -0.00000   -0.00000    0.00000   -0.00000    0.00000
  -0.00000    0.00000    0.00000   -0.00000   -0.00000   -0.00000   -0.00000    0.00000
   0.00001
 prteigrs : prtvol=0 or 1, do not print more k-points.

 Eight components of 2nd-order total energy (hartree) are
 1,2,3: 0th-order hamiltonian combined with 1st-order wavefunctions
     kin0=   1.73619314E+02 eigvalue=   4.20729663E+00  local=  -6.50535048E+01
 4,5,6: 1st-order hamiltonian combined with 1st and 0th-order wfs
     kin1=  -2.03700470E+02  Hartree=   0.00000000E+00     xc=   0.00000000E+00
 7,8,9: eventually, occupation + non-local contributions
    edocc=   1.01842608E+01     enl0=  -8.23771168E+00   enl1=  -2.57388395E+01
 1-9 gives the relaxation energy (to be shifted if some occ is /=2.0)
   erelax=  -1.14719655E+02
  No Ewald or frozen-wf contrib.: the relaxation energy is the total one
 2DEtotal=   -0.1147196548E+03 Ha. Also 2DEtotal=   -0.312168056252E+04 eV
    (  non-var. 2DEtotal :   -1.1471965478E+02 Ha)

 Perturbation wavevector (in red.coord.)   0.000000  0.000000  0.000000
 Perturbation : derivative vs k along direction   2
 The set of symmetries contains only one element for this perturbation.
 symkpt : not enough symmetry to change the number of k points.

[...]

 Perturbation wavevector (in red.coord.)   0.000000  0.000000  0.000000
 Perturbation : derivative vs k along direction   3
 The set of symmetries contains only one element for this perturbation.
 symkpt : not enough symmetry to change the number of k points.

 Initialisation of the first-order wave-functions :
  ireadwf=   0

--- !BeginCycle
iteration_state: {dtset: 1, }
solver: {iscf: 7, nstep: 2000, nline: 4, wfoptalg: 0, }
tolerances: {tolwfr: 1.00E-20, }
...

     iter   2DEtotal(Ha)        deltaE(Ha) residm    vres2
-ETOT  1  -39.467727747390     -3.947E+01 5.626E-02 0.000E+00
 ETOT  2  -39.580294867329     -1.126E-01 1.519E-03 0.000E+00
 ETOT  3  -39.582321214800     -2.026E-03 6.357E-05 0.000E+00
 ETOT  4  -39.582384216939     -6.300E-05 2.894E-06 0.000E+00
 ETOT  5  -39.582386676096     -2.459E-06 5.250E-07 0.000E+00
 ETOT  6  -39.582386783383     -1.073E-07 2.721E-08 0.000E+00
 ETOT  7  -39.582386788452     -5.068E-09 4.872E-09 0.000E+00
 ETOT  8  -39.582386788703     -2.512E-10 2.584E-10 0.000E+00
 ETOT  9  -39.582386788716     -1.290E-11 4.655E-11 0.000E+00
 ETOT 10  -39.582386788716     -7.105E-13 2.483E-12 0.000E+00
 ETOT 11  -39.582386788716     -7.105E-15 4.461E-13 0.000E+00
 ETOT 12  -39.582386788716     -2.842E-14 2.409E-14 0.000E+00
 ETOT 13  -39.582386788716      2.132E-14 4.313E-15 0.000E+00
 ETOT 14  -39.582386788716      2.132E-14 2.352E-16 0.000E+00
 ETOT 15  -39.582386788716     -3.553E-14 4.189E-17 0.000E+00
 ETOT 16  -39.582386788716     -7.105E-15 2.307E-18 0.000E+00
 ETOT 17  -39.582386788716      1.421E-14 4.090E-19 0.000E+00
 ETOT 18  -39.582386788716      7.105E-15 2.272E-20 0.000E+00
 ETOT 19  -39.582386788716      1.421E-14 9.955E-21 0.000E+00

 At SCF step   19   max residual=  9.96E-21 < tolwfr=  1.00E-20 =>converged.

 ----iterations are completed or convergence reached----

 dfpt_looppert: DFPT cycle converged with prtwf=-1. Will skip output of the 1st-order WFK file.
 dfpt_looppert : ek2=    7.1088867688E+01
          f-sum rule ratio=    9.8676445730E-01
 prteigrs : about to open file /scratch/users/j/a/jabreu/flow_simple_11atoms/flow/w296/t1/tmpdata/tmp_1WF1_EIG
 Expectation of eigenvalue derivatives (hartree) for nkpt=   2  k points:
  (in case of degenerate eigenvalues, averaged derivative)
 kpt#   1, nband= 65, wtk=  0.50000, kpt= -0.5000  0.5000  0.5000 (reduced coord)
  -0.00000   -0.00000   -0.00000   -0.00000    0.00000   -0.00000   -0.00000    0.00000
  -0.00000   -0.00000   -0.00000    0.00000   -0.00000    0.00000   -0.00000   -0.00000
   0.00000    0.00000    0.00000    0.00000    0.00000   -0.00000   -0.00000   -0.00000
  -0.00000   -0.00000   -0.00000    0.00000   -0.00000    0.00000    0.00000   -0.00000
  -0.00000   -0.00000   -0.00000   -0.00000    0.00000    0.00000    0.00000    0.00000
   0.00000    0.00000    0.00000   -0.00000   -0.00000   -0.00000   -0.00000    0.00000
   0.00000    0.00000    0.00000   -0.00000   -0.00000    0.00000   -0.00000    0.00000
  -0.00000    0.00000    0.00000   -0.00000    0.00000   -0.00000   -0.00000   -0.00000
   0.00000
 prteigrs : prtvol=0 or 1, do not print more k-points.

 Eight components of 2nd-order total energy (hartree) are
 1,2,3: 0th-order hamiltonian combined with 1st-order wavefunctions
     kin0=   6.00654911E+01 eigvalue=   1.28632969E+00  local=  -2.28444380E+01
 4,5,6: 1st-order hamiltonian combined with 1st and 0th-order wfs
     kin1=  -7.01479679E+01  Hartree=   0.00000000E+00     xc=   0.00000000E+00
 7,8,9: eventually, occupation + non-local contributions
    edocc=   4.01155613E+00     enl0=  -2.93655213E+00   enl1=  -9.01680563E+00
 1-9 gives the relaxation energy (to be shifted if some occ is /=2.0)
   erelax=  -3.95823868E+01
  No Ewald or frozen-wf contrib.: the relaxation energy is the total one
 2DEtotal=   -0.3958238679E+02 Ha. Also 2DEtotal=   -0.107709152100E+04 eV
    (  non-var. 2DEtotal :   -3.9582386788E+01 Ha)

 CALCULATION OF EFFECTIVE MASSES
 NOTE : Additional infos (eff. mass eigenvalues, eigenvectors and, if degenerate, average mass) are available in stdout.

 K-point (-0.500, 0.500, 0.500) | band =    56
 Effective mass tensor:
             -3.0808331338             -0.0051347395              0.0017604510
             -0.0051347395             -3.0957519041              0.0056624892
              0.0017604510              0.0056624892             -3.0811781046
 Effective mass tensor eigenvalues:
             -3.0992897961             -3.0792367415             -3.0792366049
 Angular average effective mass 1/(<1/m>)=  -3.0858921522
 Angular average effective mass for Frohlich model (<m**0.5>)**2=  -3.0859008109
 Effective masses along directions: (cart. coord. / red. coord. -> eff. mass)
    1:   1.000000  0.000000  0.000000 /   0.771091 -0.636724  0.000000 ->  -3.0808236219
    2:   0.000000  1.000000  0.000000 /   0.000000  1.000000  0.000000 ->  -3.0957329506
    3:   0.000000  0.000000  1.000000 /  -0.094586 -0.094586  0.991013 ->  -3.0811667520
    4:   0.577350  0.577350  0.577350 /   0.646709 -0.255775  0.718573 ->  -3.0843707471
    5:   0.000000  0.707107  0.707107 /  -0.086189  0.420837  0.903033 ->  -3.0827835239
    6:   0.707107  0.000000  0.707107 /   0.552689 -0.563391  0.614105 ->  -3.0792451137
    7:   0.707107  0.707107  0.000000 /   0.967421 -0.253174  0.000000 ->  -3.0934002925

 K-point ( 0.283, 0.283,-0.283) | band =    57
 Effective mass tensor:
              0.6124228767             -0.0198497282              0.0067484073
             -0.0198497282              0.5543042140              0.0218439093
              0.0067484073              0.0218439093              0.6111286184
 Effective mass tensor eigenvalues:
              0.5407453878              0.6185550541              0.6185552673
 Angular average effective mass 1/(<1/m>)=   0.5902443748
 Angular average effective mass for Frohlich model (<m**0.5>)**2=   0.5909721572
 Effective masses along directions: (cart. coord. / red. coord. -> eff. mass)
    1:   1.000000  0.000000  0.000000 /   0.771091 -0.636724  0.000000 ->   0.6116191273
    2:   0.000000  1.000000  0.000000 /   0.000000  1.000000  0.000000 ->   0.5528642582
    3:   0.000000  0.000000  1.000000 /  -0.094586 -0.094586  0.991013 ->   0.6101750901
    4:   0.577350  0.577350  0.577350 /   0.646709 -0.255775  0.718573 ->   0.5963782057
    5:   0.000000  0.707107  0.707107 /  -0.086189  0.420837  0.903033 ->   0.6029504267
    6:   0.707107  0.000000  0.707107 /   0.552689 -0.563391  0.614105 ->   0.6185197036
    7:   0.707107  0.707107  0.000000 /   0.967421 -0.253174  0.000000 ->   0.5614103715

 END OF EFFECTIVE MASSES SECTION

 ---- first-order wavefunction calculations are completed ----

 Total localisation tensor (bohr^2) in cartesian coordinates
  WARNING : still subject to testing - especially symmetries.
      direction              matrix element
   alpha     beta       real part   imaginary part
     1        1       2.6270548735    0.0000000000
     1        2      -0.7275117644    0.0000000000
     1        3      -0.0260977426    0.0000000000
     2        1      -0.7275117644    0.0000000000
     2        2       0.4969446510    0.0000000000
     2        3      -0.0844751287    0.0000000000
     3        1      -0.0260977426    0.0000000000
     3        2      -0.0844751287    0.0000000000
     3        3       0.5579590595    0.0000000000

 respfn : d/dk was computed, but no 2DTE, so no DDB output.

== END DATASET(S) ==============================================================

 -outvars: echo values of variables after computation  --------
            acell      1.0000000000E+00  1.0000000000E+00  1.0000000000E+00 Bohr
              amu      6.94100000E+00  6.35460000E+01  1.59994000E+01
             ecut      4.60000000E+01 Hartree
           etotal     -3.9582386789E+01
            fcart      0.0000000000E+00  0.0000000000E+00  0.0000000000E+00
                       0.0000000000E+00  0.0000000000E+00  0.0000000000E+00
                       0.0000000000E+00  0.0000000000E+00  0.0000000000E+00
                       0.0000000000E+00  0.0000000000E+00  0.0000000000E+00
                       0.0000000000E+00  0.0000000000E+00  0.0000000000E+00
                       0.0000000000E+00  0.0000000000E+00  0.0000000000E+00
                       0.0000000000E+00  0.0000000000E+00  0.0000000000E+00
                       0.0000000000E+00  0.0000000000E+00  0.0000000000E+00
                       0.0000000000E+00  0.0000000000E+00  0.0000000000E+00
                       0.0000000000E+00  0.0000000000E+00  0.0000000000E+00
                       0.0000000000E+00  0.0000000000E+00  0.0000000000E+00
                       0.0000000000E+00  0.0000000000E+00  0.0000000000E+00
-          fftalg         512
           irdden           1
           irdwfk           1
              ixc     -116133
              kpt     -5.00000000E-01  5.00000000E-01  5.00000000E-01
                       2.82573373E-01  2.82573373E-01 -2.82573373E-01
           kptopt           0
P           mkmem           2
P          mkqmem           2
P          mk1mem           2
            natom          12
            nband          65
           nbdbuf           4
            ngfft          72      72      72
             nkpt           2
            nstep        2000
             nsym          16
           ntypat           3
              occ      2.000000  2.000000  2.000000  2.000000  2.000000  2.000000
                       2.000000  2.000000  2.000000  2.000000  2.000000  2.000000
                       2.000000  2.000000  2.000000  2.000000  2.000000  2.000000
                       2.000000  2.000000  2.000000  2.000000  2.000000  2.000000
                       2.000000  2.000000  2.000000  2.000000  2.000000  2.000000
                       2.000000  2.000000  2.000000  2.000000  2.000000  2.000000
                       2.000000  2.000000  2.000000  2.000000  2.000000  2.000000
                       2.000000  2.000000  2.000000  2.000000  2.000000  2.000000
                       2.000000  2.000000  2.000000  2.000000  2.000000  2.000000
                       2.000000  2.000000  0.000000  0.000000  0.000000  0.000000
                       0.000000  0.000000  0.000000  0.000000  0.000000
        optdriver           1
            prtwf          -1
            rfdir           1       1       1
           rfelfd           2
            rprim      1.1673419917E+01  0.0000000000E+00 -1.1192639056E+00
                      -9.6392591740E+00  6.5843310310E+00 -1.1192639056E+00
                       0.0000000000E+00  0.0000000000E+00  1.1726955455E+01
          spgroup         139
           strten      0.0000000000E+00  0.0000000000E+00  0.0000000000E+00
                       0.0000000000E+00  0.0000000000E+00  0.0000000000E+00
           symrel      1  0  0   0  1  0   0  0  1      -1  0  0   0 -1  0   0  0 -1
                       0  0  1  -1 -1 -1   1  0  0       0  0 -1   1  1  1  -1  0  0
                       0  1  0   1  0  0  -1 -1 -1       0 -1  0  -1  0  0   1  1  1
                      -1 -1 -1   0  0  1   0  1  0       1  1  1   0  0 -1   0 -1  0
                       1  0  0   0  1  0  -1 -1 -1      -1  0  0   0 -1  0   1  1  1
                      -1 -1 -1   0  0  1   1  0  0       1  1  1   0  0 -1  -1  0  0
                       0  1  0   1  0  0   0  0  1       0 -1  0  -1  0  0   0  0 -1
                       0  0  1  -1 -1 -1   0  1  0       0  0 -1   1  1  1   0 -1  0
           tolwfr      1.00000000E-20
            typat      1  1  1  1  2  2  2  2  3  3  3  3
           useylm           1
              wtk        0.50000    0.50000
           xangst     -1.6215440079E+00  1.7421389577E+00  3.6507647580E+00
                       2.6979755115E+00  1.7421389577E+00  1.3702948964E+00
                      -1.2451934141E+00  2.9603400767E+00  1.3702948964E+00
                       2.3216249178E+00  5.2393783870E-01  3.6507647580E+00
                      -3.3029645556E+00  2.9288317515E+00 -5.9228894924E-01
                       9.0483217549E-01  2.9288317515E+00  3.2313557191E+00
                       1.7159932815E-01  5.5544616389E-01  1.7897039353E+00
                       4.3793960593E+00  5.5544616389E-01 -5.9228894924E-01
                       4.2625709191E+00  0.0000000000E+00  3.8734182304E+00
                       1.9147368471E+00  0.0000000000E+00  1.7399303732E+00
                      -1.5810829090E+00  1.0799972355E+00  1.7399303732E+00
                      -3.5197933536E+00  2.4042806799E+00  3.8734182304E+00
            xcart     -3.0642740873E+00  3.2921655155E+00  6.8989455683E+00
                       5.0984348300E+00  3.2921655155E+00  2.5894820754E+00
                      -2.3530745351E+00  5.5942320052E+00  2.5894820754E+00
                       4.3872352778E+00  9.9009902579E-01  6.8989455683E+00
                      -6.2416984368E+00  5.5346898997E+00 -1.1192639056E+00
                       1.7098850079E+00  5.5346898997E+00  6.1063773470E+00
                       3.2427573480E-01  1.0496411313E+00  3.3820502967E+00
                       8.2758591795E+00  1.0496411313E+00 -1.1192639056E+00
                       8.0550916591E+00  0.0000000000E+00  7.3196996536E+00
                       3.6183282576E+00  0.0000000000E+00  3.2879918957E+00
                      -2.9878136914E+00  2.0408989994E+00  3.2879918957E+00
                      -6.6514454826E+00  4.5434320316E+00  7.3196996536E+00
             xred      1.5037200000E-01  5.0000000000E-01  6.5037200000E-01
                       8.4962800000E-01  5.0000000000E-01  3.4962800000E-01
                       5.0000000000E-01  8.4962800000E-01  3.4962800000E-01
                       5.0000000000E-01  1.5037200000E-01  6.5037200000E-01
                       1.5941500000E-01  8.4058500000E-01 -6.9388939039E-18
                       8.4058500000E-01  8.4058500000E-01  6.8117000000E-01
                       1.5941500000E-01  1.5941500000E-01  3.1883000000E-01
                       8.4058500000E-01  1.5941500000E-01  0.0000000000E+00
                       6.9003700000E-01  0.0000000000E+00  6.9003700000E-01
                       3.0996300000E-01  0.0000000000E+00  3.0996300000E-01
                      -5.5511151231E-17  3.0996300000E-01  3.0996300000E-01
                      -1.1102230246E-16  6.9003700000E-01  6.9003700000E-01
            znucl        3.00000   29.00000    8.00000

- Timing analysis has been suppressed with timopt=0

 Suggested references for the acknowledgment of ABINIT usage.

 Calculation completed.
.Delivered   2 WARNINGs and   5 COMMENTs to log file.