.Version 9.5.2 of ABINIT

 ABINIT is a project of the Universite Catholique de Louvain,
 Corning Inc. and other collaborators, see ~abinit/doc/developers/contributors.txt .
 acknowledgments of the ABINIT effort.

.Starting date : Mon 31 May 2021.
- ( at 23h12 )

- input  file    -> /scratch/users/j/a/jabreu/flow_simple_11atoms/flow/w402/t1/run.abi
- output file    -> /scratch/users/j/a/jabreu/flow_simple_11atoms/flow/w402/t1/run.abo
- root for input  files -> /scratch/users/j/a/jabreu/flow_simple_11atoms/flow/w402/t1/indata/in
- root for output files -> /scratch/users/j/a/jabreu/flow_simple_11atoms/flow/w402/t1/outdata/out

 Symmetries : space group Pn m a (# 62); Bravais oP (primitive ortho.)
     intxc =       0      iscf =       7    lmnmax =      18     lnmax =       6
     mgfft =     125  mpssoang =       3    mqgrid =    6150     natom =      12
  nloc_mem =       1    nspden =       1   nspinor =       1    nsppol =       1
      nsym =       8    n1xccc =    2501    ntypat =       2    occopt =       1
   xclevel =       2
-    mband =          57        mffmem =           1         mkmem =           1
-   mkqmem =           1        mk1mem =           1           mpw =       33193
      nfft =      562500          nkpt =           1
  Rough estimation (10% accuracy) of disk space for files :

------------- Echo of variables that govern the present computation ------------
-
- outvars: echo of selected default values
-   iomode0 =  0 , fftalg0 =512 , wfoptalg0 =  0
-
- outvars: echo of global parameters not present in the input file
-  max_nthreads =    0
-
 -outvars: echo values of preprocessed input variables --------
            acell      1.0000000000E+00  1.0000000000E+00  1.0000000000E+00 Bohr
              amu      8.76200000E+01  1.26904470E+02
             ecut      3.50000000E+01 Hartree
-          fftalg         512
           irdden           1
           irdwfk           1
           istwfk        1
              ixc     -116133
           kptopt           0
P           mkmem           1
P          mkqmem           1
P          mk1mem           1
            natom          12
            nband          57
           nbdbuf           4
            ngfft          50      90     125
             nkpt           1
            nstep        2000
             nsym           8
           ntypat           2
              occ      2.000000  2.000000  2.000000  2.000000  2.000000  2.000000
                       2.000000  2.000000  2.000000  2.000000  2.000000  2.000000
                       2.000000  2.000000  2.000000  2.000000  2.000000  2.000000
                       2.000000  2.000000  2.000000  2.000000  2.000000  2.000000
                       2.000000  2.000000  2.000000  2.000000  2.000000  2.000000
                       2.000000  2.000000  2.000000  2.000000  2.000000  2.000000
                       2.000000  2.000000  2.000000  2.000000  2.000000  2.000000
                       2.000000  2.000000  2.000000  2.000000  2.000000  2.000000
                       0.000000  0.000000  0.000000  0.000000  0.000000  0.000000
                       0.000000  0.000000  0.000000
        optdriver           1
            prtwf          -1
            rfdir           1       1       1
           rfelfd           2
            rprim      9.2234250823E+00  0.0000000000E+00  0.0000000000E+00
                       0.0000000000E+00  1.5751108718E+01  0.0000000000E+00
                       0.0000000000E+00  0.0000000000E+00  2.3091585764E+01
          spgroup          62
           symrel      1  0  0   0  1  0   0  0  1      -1  0  0   0 -1  0   0  0 -1
                      -1  0  0   0  1  0   0  0 -1       1  0  0   0 -1  0   0  0  1
                      -1  0  0   0 -1  0   0  0  1       1  0  0   0  1  0   0  0 -1
                       1  0  0   0 -1  0   0  0 -1      -1  0  0   0  1  0   0  0  1
            tnons      0.0000000  0.0000000  0.0000000     0.0000000  0.0000000 -0.0000000
                       0.0000000  0.5000000  0.5000000     0.0000000  0.5000000  0.5000000
                       0.5000000  0.5000000  0.5000000     0.5000000  0.5000000  0.5000000
                       0.5000000  0.0000000 -0.0000000     0.5000000  0.0000000  0.0000000
           tolwfr      1.00000000E-20
            typat      1  1  1  1  2  2  2  2  2  2  2  2
           useylm           1
           xangst      1.2202065847E+00  1.0765817696E+00  2.0942337970E+00
                       3.6606197540E+00  5.2441456414E+00  4.0155366513E+00
                       1.2202065847E+00  3.0909821022E+00  8.2040042453E+00
                       3.6606197540E+00  7.2585459740E+00  1.0125307100E+01
                       1.2202065847E+00  3.1110280844E+00  4.8052977990E+00
                       1.2202065847E+00  7.3310782556E+00  4.6407739003E+00
                       3.6606197540E+00  3.1635143838E+00  1.4689965480E+00
                       1.2202065847E+00  5.1716133598E+00  1.0750544349E+01
                       1.2202065847E+00  1.0565357874E+00  1.0915068247E+01
                       3.6606197540E+00  7.2785919562E+00  1.3044726493E+00
                       3.6606197540E+00  1.0040494880E+00  7.5787669962E+00
                       3.6606197540E+00  5.2240996592E+00  7.4142430976E+00
            xcart      2.3058562706E+00  2.0344447042E+00  3.9575283346E+00
                       6.9175688117E+00  9.9099990632E+00  7.5882645475E+00
                       2.3058562706E+00  5.8411096548E+00  1.5503321217E+01
                       6.9175688117E+00  1.3716664014E+01  1.9134057430E+01
                       2.3058562706E+00  5.8789910712E+00  9.0806968270E+00
                       2.3058562706E+00  1.3853730162E+01  8.7697917162E+00
                       6.9175688117E+00  5.9781758028E+00  2.7760011658E+00
                       2.3058562706E+00  9.7729329152E+00  2.0315584598E+01
                       2.3058562706E+00  1.9965632878E+00  2.0626489709E+01
                       6.9175688117E+00  1.3754545430E+01  2.4650960551E+00
                       6.9175688117E+00  1.8973785562E+00  1.4321794048E+01
                       6.9175688117E+00  9.8721176468E+00  1.4010888937E+01
             xred      2.5000000000E-01  1.2916200000E-01  1.7138400000E-01
                       7.5000000000E-01  6.2916200000E-01  3.2861600000E-01
                       2.5000000000E-01  3.7083800000E-01  6.7138400000E-01
                       7.5000000000E-01  8.7083800000E-01  8.2861600000E-01
                       2.5000000000E-01  3.7324300000E-01  3.9324700000E-01
                       2.5000000000E-01  8.7954000000E-01  3.7978300000E-01
                       7.5000000000E-01  3.7954000000E-01  1.2021700000E-01
                       2.5000000000E-01  6.2046000000E-01  8.7978300000E-01
                       2.5000000000E-01  1.2675700000E-01  8.9324700000E-01
                       7.5000000000E-01  8.7324300000E-01  1.0675300000E-01
                       7.5000000000E-01  1.2046000000E-01  6.2021700000E-01
                       7.5000000000E-01  6.2675700000E-01  6.0675300000E-01
            znucl       38.00000   53.00000

 chkinp: Checking input parameters for consistency.

== DATASET  1 ==================================================================
-   mpi_nproc: 1, omp_nthreads: -1 (-1 if OMP is not activated)

--- !DatasetInfo
iteration_state: {dtset: 1, }
dimensions: {natom: 12, nkpt: 1, mband: 57, nsppol: 1, nspinor: 1, nspden: 1, mpw: 33193, }
cutoff_energies: {ecut:  35.0, pawecutdg:  -1.0, }
electrons: {nelect:   9.60000000E+01, charge:   0.00000000E+00, occopt:   1.00000000E+00, tsmear:   1.00000000E-02, }
meta: {optdriver: 1, rfelfd: 2, }
...

 Real(R)+Recip(G) space primitive vectors, cartesian coordinates (Bohr,Bohr^-1):
 R(1)=  9.2234251  0.0000000  0.0000000  G(1)=  0.1084196  0.0000000  0.0000000
 R(2)=  0.0000000 15.7511087  0.0000000  G(2)=  0.0000000  0.0634876  0.0000000
 R(3)=  0.0000000  0.0000000 23.0915858  G(3)=  0.0000000  0.0000000  0.0433058
 Unit cell volume ucvol=  3.3547264E+03 bohr^3
 Angles (23,13,12)=  9.00000000E+01  9.00000000E+01  9.00000000E+01 degrees

 getcut: wavevector=  0.0000  0.0000  0.0000  ngfft=  50  90 125
         ecut(hartree)=     35.000   => boxcut(ratio)=   2.01636

--- Pseudopotential description ------------------------------------------------
- pspini: atom type   1  psp file is /scratch/users/j/a/jabreu/pseudos/PBEsol/Sr.psp8
- pspatm: opening atomic psp file    /scratch/users/j/a/jabreu/pseudos/PBEsol/Sr.psp8
- Sr    ONCVPSP-3.3.0  r_core=   1.66721   1.31335   1.51547
- 38.00000  10.00000    180112                znucl, zion, pspdat
    8 -116133    2    4       600   0.00000   pspcod,pspxc,lmax,lloc,mmax,r2well
    5.99000000000000    6.00000000000000    0.00000000000000   rchrg,fchrg,qchrg
     nproj     2     2     2
     extension_switch     1
  pspatm : epsatm=   12.46450977
         --- l  ekb(1:nproj) -->
             0   10.029206    1.044171
             1    7.472414    1.670829
             2    4.142950    0.968140
 pspatm: atomic psp has been read  and splines computed

- pspini: atom type   2  psp file is /scratch/users/j/a/jabreu/pseudos/PBEsol/I.psp8
- pspatm: opening atomic psp file    /scratch/users/j/a/jabreu/pseudos/PBEsol/I.psp8
- I     ONCVPSP-3.3.0  r_core=   2.02042   2.17032   2.27639
- 53.00000   7.00000    180112                znucl, zion, pspdat
    8 -116133    2    4       600   0.00000   pspcod,pspxc,lmax,lloc,mmax,r2well
    5.99000000000000    4.00000000000000    0.00000000000000   rchrg,fchrg,qchrg
     nproj     2     2     2
     extension_switch     1
  pspatm : epsatm=   18.14229533
         --- l  ekb(1:nproj) -->
             0    6.015861    0.935228
             1    4.063749    0.754139
             2    4.149534    0.722940
 pspatm: atomic psp has been read  and splines computed

   1.87196546E+04                                ecore*ucvol(ha*bohr**3)

 ==>  initialize data related to q vector <==

 The list of irreducible perturbations for this q vector is:
    1)    idir= 1    ipert=  13
    2)    idir= 2    ipert=  13
    3)    idir= 3    ipert=  13

 Perturbation wavevector (in red.coord.)   0.000000  0.000000  0.000000
 Perturbation : derivative vs k along direction   1

 dfpt_looppert : COMMENT -
  In a d/dk calculation, iscf is set to -3 automatically.
 The set of symmetries contains only one element for this perturbation.
 symkpt : not enough symmetry to change the number of k points.

 Initialisation of the first-order wave-functions :
  ireadwf=   0

--- !BeginCycle
iteration_state: {dtset: 1, }
solver: {iscf: 7, nstep: 2000, nline: 4, wfoptalg: 0, }
tolerances: {tolwfr: 1.00E-20, }
...

     iter   2DEtotal(Ha)        deltaE(Ha) residm    vres2
-ETOT  1  -55.203196135442     -5.520E+01 2.127E-02 0.000E+00
 ETOT  2  -55.285450473827     -8.225E-02 3.373E-03 0.000E+00
 ETOT  3  -55.285922745323     -4.723E-04 3.055E-04 0.000E+00
 ETOT  4  -55.285927272060     -4.527E-06 1.404E-04 0.000E+00
 ETOT  5  -55.285927325823     -5.376E-08 2.514E-05 0.000E+00
 ETOT  6  -55.285927326524     -7.009E-10 1.337E-05 0.000E+00
 ETOT  7  -55.285927326533     -9.635E-12 1.749E-06 0.000E+00
[...]
   0.00000    0.00000    0.00000    0.00000    0.00000    0.00000    0.00000    0.00000
  -0.00000    0.00000    0.00000   -0.00000   -0.00000   -0.00000    0.00000    0.00000
   0.00000    0.00000    0.00000   -0.00000    0.00000    0.00000   -0.00000    0.00000
   0.00000   -0.00000    0.00000    0.00000   -0.00000    0.00000    0.00000    0.00000
  -0.00097

 Eight components of 2nd-order total energy (hartree) are
 1,2,3: 0th-order hamiltonian combined with 1st-order wavefunctions
     kin0=   8.14802662E+01 eigvalue=   2.87828378E+00  local=  -5.96112410E+01
 4,5,6: 1st-order hamiltonian combined with 1st and 0th-order wfs
     kin1=  -1.00515243E+02  Hartree=   0.00000000E+00     xc=   0.00000000E+00
 7,8,9: eventually, occupation + non-local contributions
    edocc=   1.25712983E+01     enl0=   1.79673201E+01   enl1=  -1.00566113E+01
 1-9 gives the relaxation energy (to be shifted if some occ is /=2.0)
   erelax=  -5.52859273E+01
  No Ewald or frozen-wf contrib.: the relaxation energy is the total one
 2DEtotal=   -0.5528592733E+02 Ha. Also 2DEtotal=   -0.150440659054E+04 eV
    (  non-var. 2DEtotal :   -5.5285927326E+01 Ha)

 Perturbation wavevector (in red.coord.)   0.000000  0.000000  0.000000
 Perturbation : derivative vs k along direction   2
 The set of symmetries contains only one element for this perturbation.
 symkpt : not enough symmetry to change the number of k points.

[...]

 Perturbation wavevector (in red.coord.)   0.000000  0.000000  0.000000
 Perturbation : derivative vs k along direction   3
 The set of symmetries contains only one element for this perturbation.
 symkpt : not enough symmetry to change the number of k points.

 Initialisation of the first-order wave-functions :
  ireadwf=   0

--- !BeginCycle
iteration_state: {dtset: 1, }
solver: {iscf: 7, nstep: 2000, nline: 4, wfoptalg: 0, }
tolerances: {tolwfr: 1.00E-20, }
...

     iter   2DEtotal(Ha)        deltaE(Ha) residm    vres2
-ETOT  1  -7.9174767773920     -7.917E+00 7.350E-03 0.000E+00
 ETOT  2  -7.9341935744899     -1.672E-02 1.303E-03 0.000E+00
 ETOT  3  -7.9343182747622     -1.247E-04 3.656E-04 0.000E+00
 ETOT  4  -7.9343197429341     -1.468E-06 9.301E-05 0.000E+00
 ETOT  5  -7.9343197632244     -2.029E-08 3.148E-05 0.000E+00
 ETOT  6  -7.9343197635267     -3.023E-10 8.808E-06 0.000E+00
 ETOT  7  -7.9343197635314     -4.757E-12 2.877E-06 0.000E+00
 ETOT  8  -7.9343197635315     -9.592E-14 8.447E-07 0.000E+00
 ETOT  9  -7.9343197635315      1.776E-15 2.775E-07 0.000E+00
 ETOT 10  -7.9343197635315     -5.329E-15 8.391E-08 0.000E+00
 ETOT 11  -7.9343197635315      5.329E-15 2.767E-08 0.000E+00
 ETOT 12  -7.9343197635315      3.553E-15 8.523E-09 0.000E+00
 ETOT 13  -7.9343197635315     -1.776E-15 2.804E-09 0.000E+00
 ETOT 14  -7.9343197635315      8.882E-16 8.758E-10 0.000E+00
 ETOT 15  -7.9343197635315      8.882E-16 2.867E-10 0.000E+00
 ETOT 16  -7.9343197635315     -8.882E-16 9.055E-11 0.000E+00
 ETOT 17  -7.9343197635315     -8.882E-16 2.947E-11 0.000E+00
 ETOT 18  -7.9343197635315      8.882E-16 9.395E-12 0.000E+00
 ETOT 19  -7.9343197635315     -8.882E-16 3.039E-12 0.000E+00
 ETOT 20  -7.9343197635315      2.665E-15 9.769E-13 0.000E+00
 ETOT 21  -7.9343197635315     -8.882E-16 3.141E-13 0.000E+00
 ETOT 22  -7.9343197635315      0.000E+00 1.017E-13 0.000E+00
 ETOT 23  -7.9343197635315      0.000E+00 3.254E-14 0.000E+00
 ETOT 24  -7.9343197635315      8.882E-16 1.060E-14 0.000E+00
 ETOT 25  -7.9343197635315     -1.776E-15 3.375E-15 0.000E+00
 ETOT 26  -7.9343197635315      1.776E-15 1.105E-15 0.000E+00
 ETOT 27  -7.9343197635315     -8.882E-16 3.504E-16 0.000E+00
 ETOT 28  -7.9343197635315      0.000E+00 1.153E-16 0.000E+00
 ETOT 29  -7.9343197635315     -1.776E-15 3.642E-17 0.000E+00
 ETOT 30  -7.9343197635315      1.776E-15 1.204E-17 0.000E+00
 ETOT 31  -7.9343197635315      0.000E+00 3.789E-18 0.000E+00
 ETOT 32  -7.9343197635315     -1.776E-15 1.257E-18 0.000E+00
 ETOT 33  -7.9343197635315      1.776E-15 3.944E-19 0.000E+00
 ETOT 34  -7.9343197635315      0.000E+00 1.312E-19 0.000E+00
 ETOT 35  -7.9343197635315      0.000E+00 4.107E-20 0.000E+00
 ETOT 36  -7.9343197635315      0.000E+00 1.370E-20 0.000E+00
 ETOT 37  -7.9343197635315     -8.882E-16 9.982E-21 0.000E+00

 At SCF step   37   max residual=  9.98E-21 < tolwfr=  1.00E-20 =>converged.

 ----iterations are completed or convergence reached----

 dfpt_looppert: DFPT cycle converged with prtwf=-1. Will skip output of the 1st-order WFK file.
 dfpt_looppert : ek2=    1.4215215539E+01
          f-sum rule ratio=    1.0110996342E+00
 prteigrs : about to open file /scratch/users/j/a/jabreu/flow_simple_11atoms/flow/w402/t1/tmpdata/tmp_1WF1_EIG
 Expectation of eigenvalue derivatives (hartree) for nkpt=   1  k points:
  (in case of degenerate eigenvalues, averaged derivative)
 kpt#   1, nband= 57, wtk=  1.00000, kpt=  0.0000  0.0000  0.0000 (reduced coord)
   0.00000   -0.00000   -0.00000    0.00000    0.00000    0.00000    0.00000   -0.00000
   0.00000    0.00000   -0.00000    0.00000   -0.00000   -0.00000    0.00000    0.00000
   0.00000    0.00000   -0.00000    0.00000    0.00000    0.00000    0.00000   -0.00000
   0.00000    0.00000   -0.00000    0.00000   -0.00000    0.00000    0.00000    0.00000
   0.00000   -0.00000   -0.00000   -0.00000    0.00000    0.00000   -0.00000    0.00000
   0.00000    0.00000    0.00000    0.00000   -0.00000   -0.00000    0.00000    0.00000
   0.00000    0.00000    0.00000   -0.00000    0.00000    0.00000    0.00000   -0.00000
  -0.00005

 Eight components of 2nd-order total energy (hartree) are
 1,2,3: 0th-order hamiltonian combined with 1st-order wavefunctions
     kin0=   1.15946361E+01 eigvalue=   6.13846892E-01  local=  -8.21229542E+00
 4,5,6: 1st-order hamiltonian combined with 1st and 0th-order wfs
     kin1=  -1.43729992E+01  Hartree=   0.00000000E+00     xc=   0.00000000E+00
 7,8,9: eventually, occupation + non-local contributions
    edocc=   1.45322830E+00     enl0=   2.48490392E+00   enl1=  -1.49564029E+00
 1-9 gives the relaxation energy (to be shifted if some occ is /=2.0)
   erelax=  -7.93431976E+00
  No Ewald or frozen-wf contrib.: the relaxation energy is the total one
 2DEtotal=   -0.7934319764E+01 Ha. Also 2DEtotal=   -0.215903820753E+03 eV
    (  non-var. 2DEtotal :   -7.9343197634E+00 Ha)

 CALCULATION OF EFFECTIVE MASSES
 NOTE : Additional infos (eff. mass eigenvalues, eigenvectors and, if degenerate, average mass) are available in stdout.

 K-point ( 0.000, 0.000, 0.000) | band =    48
 Effective mass tensor:
             -1.8502771988             -0.0000013996              0.0000006123
             -0.0000013996             -0.4635086774             -0.0000072646
              0.0000006123             -0.0000072646             -1.3425499285
 Effective mass tensor eigenvalues:
             -1.8502771988             -1.3425499285             -0.4635086774
 Angular average effective mass 1/(<1/m>)=  -0.8713919257
 Angular average effective mass for Frohlich model (<m**0.5>)**2=  -0.9771175067
 Effective masses along directions: (cart. coord. / red. coord. -> eff. mass)
    1:   1.000000  0.000000  0.000000 /   1.000000  0.000000  0.000000 ->  -1.8502771988
    2:   0.000000  1.000000  0.000000 /   0.000000  1.000000  0.000000 ->  -0.4635086774
    3:   0.000000  0.000000  1.000000 /   0.000000  0.000000  1.000000 ->  -1.3425499283
    4:   0.577350  0.577350  0.577350 /   0.313354  0.535124  0.784507 ->  -0.8713985368
    5:   0.000000  0.707107  0.707107 /   0.000000  0.563504  0.826113 ->  -0.6891122423
    6:   0.707107  0.000000  0.707107 /   0.370933  0.000000  0.928660 ->  -1.5560432613
    7:   0.707107  0.707107  0.000000 /   0.505312  0.862937  0.000000 ->  -0.7413136917

 K-point ( 0.000, 0.000, 0.000) | band =    49
 Effective mass tensor:
              0.4414083203              0.0000000033             -0.0000000174
              0.0000000033              0.8155696163              0.0000000707
             -0.0000000174              0.0000000707              0.8799415800
 Effective mass tensor eigenvalues:
              0.4414083203              0.8155696163              0.8799415800
 Angular average effective mass 1/(<1/m>)=   0.6482208818
 Angular average effective mass for Frohlich model (<m**0.5>)**2=   0.6687251574
 Effective masses along directions: (cart. coord. / red. coord. -> eff. mass)
    1:   1.000000  0.000000  0.000000 /   1.000000  0.000000  0.000000 ->   0.4414083203
    2:   0.000000  1.000000  0.000000 /   0.000000  1.000000  0.000000 ->   0.8155696163
    3:   0.000000  0.000000  1.000000 /   0.000000  0.000000  1.000000 ->   0.8799415800
    4:   0.577350  0.577350  0.577350 /   0.313354  0.535124  0.784507 ->   0.6482208995
    5:   0.000000  0.707107  0.707107 /   0.000000  0.563504  0.826113 ->   0.8465336922
    6:   0.707107  0.000000  0.707107 /   0.370933  0.000000  0.928660 ->   0.5879041191
    7:   0.707107  0.707107  0.000000 /   0.505312  0.862937  0.000000 ->   0.5728011699

 END OF EFFECTIVE MASSES SECTION

 ---- first-order wavefunction calculations are completed ----

 Total localisation tensor (bohr^2) in cartesian coordinates
  WARNING : still subject to testing - especially symmetries.
      direction              matrix element
   alpha     beta       real part   imaginary part
     1        1       1.7907518319    0.0000000000
     1        2       0.0000000000    0.0000000000
     1        3       0.0000000000    0.0000000000
     2        1       0.0000000000    0.0000000000
     2        2       1.8777283035    0.0000000000
     2        3       0.0000000000    0.0000000000
     3        1       0.0000000000    0.0000000000
     3        2       0.0000000000    0.0000000000
     3        3       1.4447286169    0.0000000000

 respfn : d/dk was computed, but no 2DTE, so no DDB output.

== END DATASET(S) ==============================================================

 -outvars: echo values of variables after computation  --------
            acell      1.0000000000E+00  1.0000000000E+00  1.0000000000E+00 Bohr
              amu      8.76200000E+01  1.26904470E+02
             ecut      3.50000000E+01 Hartree
           etotal     -7.9343197635E+00
            fcart      0.0000000000E+00  0.0000000000E+00  0.0000000000E+00
                       0.0000000000E+00  0.0000000000E+00  0.0000000000E+00
                       0.0000000000E+00  0.0000000000E+00  0.0000000000E+00
                       0.0000000000E+00  0.0000000000E+00  0.0000000000E+00
                       0.0000000000E+00  0.0000000000E+00  0.0000000000E+00
                       0.0000000000E+00  0.0000000000E+00  0.0000000000E+00
                       0.0000000000E+00  0.0000000000E+00  0.0000000000E+00
                       0.0000000000E+00  0.0000000000E+00  0.0000000000E+00
                       0.0000000000E+00  0.0000000000E+00  0.0000000000E+00
                       0.0000000000E+00  0.0000000000E+00  0.0000000000E+00
                       0.0000000000E+00  0.0000000000E+00  0.0000000000E+00
                       0.0000000000E+00  0.0000000000E+00  0.0000000000E+00
-          fftalg         512
           irdden           1
           irdwfk           1
           istwfk        1
              ixc     -116133
           kptopt           0
P           mkmem           1
P          mkqmem           1
P          mk1mem           1
            natom          12
            nband          57
           nbdbuf           4
            ngfft          50      90     125
             nkpt           1
            nstep        2000
             nsym           8
           ntypat           2
              occ      2.000000  2.000000  2.000000  2.000000  2.000000  2.000000
                       2.000000  2.000000  2.000000  2.000000  2.000000  2.000000
                       2.000000  2.000000  2.000000  2.000000  2.000000  2.000000
                       2.000000  2.000000  2.000000  2.000000  2.000000  2.000000
                       2.000000  2.000000  2.000000  2.000000  2.000000  2.000000
                       2.000000  2.000000  2.000000  2.000000  2.000000  2.000000
                       2.000000  2.000000  2.000000  2.000000  2.000000  2.000000
                       2.000000  2.000000  2.000000  2.000000  2.000000  2.000000
                       0.000000  0.000000  0.000000  0.000000  0.000000  0.000000
                       0.000000  0.000000  0.000000
        optdriver           1
            prtwf          -1
            rfdir           1       1       1
           rfelfd           2
            rprim      9.2234250823E+00  0.0000000000E+00  0.0000000000E+00
                       0.0000000000E+00  1.5751108718E+01  0.0000000000E+00
                       0.0000000000E+00  0.0000000000E+00  2.3091585764E+01
          spgroup          62
           strten      0.0000000000E+00  0.0000000000E+00  0.0000000000E+00
                       0.0000000000E+00  0.0000000000E+00  0.0000000000E+00
           symrel      1  0  0   0  1  0   0  0  1      -1  0  0   0 -1  0   0  0 -1
                      -1  0  0   0  1  0   0  0 -1       1  0  0   0 -1  0   0  0  1
                      -1  0  0   0 -1  0   0  0  1       1  0  0   0  1  0   0  0 -1
                       1  0  0   0 -1  0   0  0 -1      -1  0  0   0  1  0   0  0  1
            tnons      0.0000000  0.0000000  0.0000000     0.0000000  0.0000000 -0.0000000
                       0.0000000  0.5000000  0.5000000     0.0000000  0.5000000  0.5000000
                       0.5000000  0.5000000  0.5000000     0.5000000  0.5000000  0.5000000
                       0.5000000  0.0000000 -0.0000000     0.5000000  0.0000000  0.0000000
           tolwfr      1.00000000E-20
            typat      1  1  1  1  2  2  2  2  2  2  2  2
           useylm           1
           xangst      1.2202065847E+00  1.0765817696E+00  2.0942337970E+00
                       3.6606197540E+00  5.2441456414E+00  4.0155366513E+00
                       1.2202065847E+00  3.0909821022E+00  8.2040042453E+00
                       3.6606197540E+00  7.2585459740E+00  1.0125307100E+01
                       1.2202065847E+00  3.1110280844E+00  4.8052977990E+00
                       1.2202065847E+00  7.3310782556E+00  4.6407739003E+00
                       3.6606197540E+00  3.1635143838E+00  1.4689965480E+00
                       1.2202065847E+00  5.1716133598E+00  1.0750544349E+01
                       1.2202065847E+00  1.0565357874E+00  1.0915068247E+01
                       3.6606197540E+00  7.2785919562E+00  1.3044726493E+00
                       3.6606197540E+00  1.0040494880E+00  7.5787669962E+00
                       3.6606197540E+00  5.2240996592E+00  7.4142430976E+00
            xcart      2.3058562706E+00  2.0344447042E+00  3.9575283346E+00
                       6.9175688117E+00  9.9099990632E+00  7.5882645475E+00
                       2.3058562706E+00  5.8411096548E+00  1.5503321217E+01
                       6.9175688117E+00  1.3716664014E+01  1.9134057430E+01
                       2.3058562706E+00  5.8789910712E+00  9.0806968270E+00
                       2.3058562706E+00  1.3853730162E+01  8.7697917162E+00
                       6.9175688117E+00  5.9781758028E+00  2.7760011658E+00
                       2.3058562706E+00  9.7729329152E+00  2.0315584598E+01
                       2.3058562706E+00  1.9965632878E+00  2.0626489709E+01
                       6.9175688117E+00  1.3754545430E+01  2.4650960551E+00
                       6.9175688117E+00  1.8973785562E+00  1.4321794048E+01
                       6.9175688117E+00  9.8721176468E+00  1.4010888937E+01
             xred      2.5000000000E-01  1.2916200000E-01  1.7138400000E-01
                       7.5000000000E-01  6.2916200000E-01  3.2861600000E-01
                       2.5000000000E-01  3.7083800000E-01  6.7138400000E-01
                       7.5000000000E-01  8.7083800000E-01  8.2861600000E-01
                       2.5000000000E-01  3.7324300000E-01  3.9324700000E-01
                       2.5000000000E-01  8.7954000000E-01  3.7978300000E-01
                       7.5000000000E-01  3.7954000000E-01  1.2021700000E-01
                       2.5000000000E-01  6.2046000000E-01  8.7978300000E-01
                       2.5000000000E-01  1.2675700000E-01  8.9324700000E-01
                       7.5000000000E-01  8.7324300000E-01  1.0675300000E-01
                       7.5000000000E-01  1.2046000000E-01  6.2021700000E-01
                       7.5000000000E-01  6.2675700000E-01  6.0675300000E-01
            znucl       38.00000   53.00000

- Timing analysis has been suppressed with timopt=0

 Suggested references for the acknowledgment of ABINIT usage.

 Calculation completed.
.Delivered   2 WARNINGs and   5 COMMENTs to log file.