.Version 9.5.1 of ABINIT

 ABINIT is a project of the Universite Catholique de Louvain,
 Corning Inc. and other collaborators, see ~abinit/doc/developers/contributors.txt .
 acknowledgments of the ABINIT effort.

.Starting date : Tue 11 May 2021.
- ( at 21h20 )

- input  file    -> /scratch/users/j/a/jabreu/flow_simple_8atoms/flow/w290/t1/run.abi
- output file    -> /scratch/users/j/a/jabreu/flow_simple_8atoms/flow/w290/t1/run.abo
- root for input  files -> /scratch/users/j/a/jabreu/flow_simple_8atoms/flow/w290/t1/indata/in
- root for output files -> /scratch/users/j/a/jabreu/flow_simple_8atoms/flow/w290/t1/outdata/out

 Symmetries : space group R-3 (#148); Bravais hR (rhombohedral)
     intxc =       0      iscf =       7    lmnmax =      32     lnmax =       8
     mgfft =      60  mpssoang =       4    mqgrid =    3001     natom =       8
  nloc_mem =       1    nspden =       1   nspinor =       1    nsppol =       1
      nsym =       6    n1xccc =    2501    ntypat =       3    occopt =       1
   xclevel =       2
-    mband =          38        mffmem =           1         mkmem =           1
-   mkqmem =           1        mk1mem =           1           mpw =       12978
      nfft =      216000          nkpt =           1
  Rough estimation (10% accuracy) of disk space for files :

------------- Echo of variables that govern the present computation ------------
-
- outvars: echo of selected default values
-   iomode0 =  0 , fftalg0 =512 , wfoptalg0 =  0
-
- outvars: echo of global parameters not present in the input file
-  max_nthreads =    0
-
 -outvars: echo values of preprocessed input variables --------
            acell      1.0000000000E+00  1.0000000000E+00  1.0000000000E+00 Bohr
              amu      1.32905430E+02  7.99040000E+01  1.89984032E+01
             ecut      4.20000000E+01 Hartree
-          fftalg         512
           irdden           1
           irdwfk           1
           istwfk        1
              ixc     -116133
              kpt      5.00000000E-01  0.00000000E+00  0.00000000E+00
           kptopt           0
P           mkmem           1
P          mkqmem           1
P          mk1mem           1
            natom           8
            nband          38
           nbdbuf           4
            ngfft          60      60      60
             nkpt           1
            nstep        2000
             nsym           6
           ntypat           3
              occ      2.000000  2.000000  2.000000  2.000000  2.000000  2.000000
                       2.000000  2.000000  2.000000  2.000000  2.000000  2.000000
                       2.000000  2.000000  2.000000  2.000000  2.000000  2.000000
                       2.000000  2.000000  2.000000  2.000000  2.000000  2.000000
                       2.000000  2.000000  2.000000  2.000000  2.000000  0.000000
                       0.000000  0.000000  0.000000  0.000000  0.000000  0.000000
                       0.000000  0.000000
        optdriver           1
            prtwf          -1
            rfdir           1       1       1
           rfelfd           2
            rprim      1.0004028779E+01  0.0000000000E+00 -1.2501548839E+00
                      -1.4161042415E+00  9.9032944308E+00 -1.2501548839E+00
                       0.0000000000E+00  0.0000000000E+00  1.0081839070E+01
          spgroup         148
           symrel      1  0  0   0  1  0   0  0  1      -1  0  0   0 -1  0   0  0 -1
                       0  0  1   1  0  0   0  1  0       0  0 -1  -1  0  0   0 -1  0
                       0  1  0   0  0  1   1  0  0       0 -1  0   0  0 -1  -1  0  0
           tolwfr      1.00000000E-20
            typat      1  2  3  3  3  3  3  3
           useylm           1
           xangst      2.2722669671E+00  2.6202988514E+00  2.0059862566E+00
                       0.0000000000E+00  0.0000000000E+00  0.0000000000E+00
                      -1.8036154436E-01  4.1404233052E+00  3.2578075592E+00
                       3.7440755952E+00  4.0754556155E-01  3.6884617496E+00
                       3.6443030541E+00  3.7640645406E+00 -5.8293988532E-01
                       4.7248954785E+00  1.1001743975E+00  7.5416495392E-01
                       8.0045833896E-01  4.8330521412E+00  3.2351076353E-01
                       9.0023088005E-01  1.4765331621E+00  4.5949123985E+00
            xcart      4.2939622686E+00  4.9516472154E+00  3.7907646512E+00
                       0.0000000000E+00  0.0000000000E+00  0.0000000000E+00
                      -3.4083392374E-01  7.8242661211E+00  6.1563640806E+00
                       7.0752774958E+00  7.7014949800E-01  6.9701825584E+00
                       6.8867347175E+00  7.1130511282E+00 -1.1015967352E+00
                       8.9287584609E+00  2.0790283097E+00  1.4251652219E+00
                       1.5126470414E+00  9.1331449328E+00  6.1134674412E-01
                       1.7011898197E+00  2.7902433026E+00  8.6831260377E+00
             xred      5.0000000000E-01  5.0000000000E-01  5.0000000000E-01
                       0.0000000000E+00  0.0000000000E+00  0.0000000000E+00
                       7.7767000000E-02  7.9006700000E-01  7.1825100000E-01
                       7.1825100000E-01  7.7767000000E-02  7.9006700000E-01
                       7.9006700000E-01  7.1825100000E-01  7.7767000000E-02
                       9.2223300000E-01  2.0993300000E-01  2.8174900000E-01
                       2.8174900000E-01  9.2223300000E-01  2.0993300000E-01
                       2.0993300000E-01  2.8174900000E-01  9.2223300000E-01
            znucl       55.00000   35.00000    9.00000

 chkinp: Checking input parameters for consistency.

== DATASET  1 ==================================================================
-   mpi_nproc: 1, omp_nthreads: -1 (-1 if OMP is not activated)

--- !DatasetInfo
iteration_state: {dtset: 1, }
dimensions: {natom: 8, nkpt: 1, mband: 38, nsppol: 1, nspinor: 1, nspden: 1, mpw: 12978, }
cutoff_energies: {ecut:  42.0, pawecutdg:  -1.0, }
electrons: {nelect:   5.80000000E+01, charge:   0.00000000E+00, occopt:   1.00000000E+00, tsmear:   1.00000000E-02, }
meta: {optdriver: 1, rfelfd: 2, }
...

 Real(R)+Recip(G) space primitive vectors, cartesian coordinates (Bohr,Bohr^-1):
 R(1)= 10.0040288  0.0000000 -1.2501549  G(1)=  0.0999597  0.0142936  0.0000000
 R(2)= -1.4161042  9.9032944 -1.2501549  G(2)=  0.0000000  0.1009765  0.0000000
 R(3)=  0.0000000  0.0000000 10.0818391  G(3)=  0.0123951  0.0142936  0.0991883
 Unit cell volume ucvol=  9.9883645E+02 bohr^3
 Angles (23,13,12)=  9.71230499E+01  9.71230499E+01  9.71230499E+01 degrees

 getcut: wavevector=  0.0000  0.0000  0.0000  ngfft=  60  60  60
         ecut(hartree)=     42.000   => boxcut(ratio)=   2.04017

--- Pseudopotential description ------------------------------------------------
- pspini: atom type   1  psp file is /scratch/users/j/a/jabreu/pseudos/PBEsol/Cs.psp8
- pspatm: opening atomic psp file    /scratch/users/j/a/jabreu/pseudos/PBEsol/Cs.psp8
- Cs    ONCVPSP-3.3.0  r_core=   2.27353   1.85623   2.01788   1.90105
- 55.00000   9.00000    180112                znucl, zion, pspdat
    8 -116133    3    4       600   0.00000   pspcod,pspxc,lmax,lloc,mmax,r2well
    5.99000000000000    5.00000000000000    0.00000000000000   rchrg,fchrg,qchrg
     nproj     2     2     2     2
     extension_switch     1
  pspatm : epsatm=   22.12462445
         --- l  ekb(1:nproj) -->
             0    6.214110    0.767882
             1    6.311966    0.793598
             2    3.769790    0.913105
             3   -9.247129   -2.432478
 pspatm: atomic psp has been read  and splines computed

- pspini: atom type   2  psp file is /scratch/users/j/a/jabreu/pseudos/PBEsol/Br.psp8
- pspatm: opening atomic psp file    /scratch/users/j/a/jabreu/pseudos/PBEsol/Br.psp8
- Br    ONCVPSP-3.3.0  r_core=   1.81012   1.51356   1.92136
- 35.00000   7.00000    180112                znucl, zion, pspdat
    8 -116133    2    4       600   0.00000   pspcod,pspxc,lmax,lloc,mmax,r2well
    5.99000000000000    8.00000000000000    0.00000000000000   rchrg,fchrg,qchrg
     nproj     2     2     2
     extension_switch     1
  pspatm : epsatm=   10.94933070
         --- l  ekb(1:nproj) -->
             0    8.508690    0.897946
             1    5.393311    0.892021
             2    2.527513    0.394763
 pspatm: atomic psp has been read  and splines computed

- pspini: atom type   3  psp file is /scratch/users/j/a/jabreu/pseudos/PBEsol/F.psp8
- pspatm: opening atomic psp file    /scratch/users/j/a/jabreu/pseudos/PBEsol/F.psp8
- F     ONCVPSP-3.3.0  r_core=   1.30942   1.45782   1.60379
-  9.00000   7.00000    180112                znucl, zion, pspdat
    8 -116133    2    4       600   0.00000   pspcod,pspxc,lmax,lloc,mmax,r2well
    5.99000000000000    2.50000000000000    0.00000000000000   rchrg,fchrg,qchrg
     nproj     2     2     1
     extension_switch     1
  pspatm : epsatm=    4.89824824
         --- l  ekb(1:nproj) -->
             0    6.506434    1.065875
             1   -3.978753   -1.295852
             2   -2.394754
 pspatm: atomic psp has been read  and splines computed

   3.62287979E+03                                ecore*ucvol(ha*bohr**3)

-inwffil : will read wavefunctions from disk file /scratch/users/j/a/jabreu/flow_simple_8atoms/flow/w290/t1/indata/in_WFK

 ==>  initialize data related to q vector <==

 The list of irreducible perturbations for this q vector is:
    1)    idir= 1    ipert=   9
    2)    idir= 2    ipert=   9
    3)    idir= 3    ipert=   9

 Perturbation wavevector (in red.coord.)   0.000000  0.000000  0.000000
 Perturbation : derivative vs k along direction   1

 dfpt_looppert : COMMENT -
  In a d/dk calculation, iscf is set to -3 automatically.
 The set of symmetries contains only one element for this perturbation.
 symkpt : not enough symmetry to change the number of k points.

[...]

 Initialisation of the first-order wave-functions :
  ireadwf=   0

--- !BeginCycle
iteration_state: {dtset: 1, }
solver: {iscf: 7, nstep: 2000, nline: 4, wfoptalg: 0, }
tolerances: {tolwfr: 1.00E-20, }
...

     iter   2DEtotal(Ha)        deltaE(Ha) residm    vres2
-ETOT  1  -25.111857247438     -2.511E+01 2.730E-02 0.000E+00
 ETOT  2  -25.131529397850     -1.967E-02 8.904E-04 0.000E+00
 ETOT  3  -25.131652139741     -1.227E-04 1.708E-04 0.000E+00
 ETOT  4  -25.131655264147     -3.124E-06 2.321E-05 0.000E+00
 ETOT  5  -25.131655377030     -1.129E-07 6.101E-06 0.000E+00
 ETOT  6  -25.131655382037     -5.007E-09 9.153E-07 0.000E+00
 ETOT  7  -25.131655382287     -2.502E-10 2.288E-07 0.000E+00
 ETOT  8  -25.131655382301     -1.398E-11 3.389E-08 0.000E+00
 ETOT  9  -25.131655382302     -8.491E-13 8.656E-09 0.000E+00
 ETOT 10  -25.131655382302     -6.750E-14 1.263E-09 0.000E+00
 ETOT 11  -25.131655382302      7.105E-15 3.295E-10 0.000E+00
 ETOT 12  -25.131655382302      1.066E-14 4.767E-11 0.000E+00
 ETOT 13  -25.131655382302      0.000E+00 1.254E-11 0.000E+00
 ETOT 14  -25.131655382302     -1.066E-14 1.743E-12 0.000E+00
 ETOT 15  -25.131655382302     -3.553E-15 5.622E-13 0.000E+00
 ETOT 16  -25.131655382302      7.105E-15 7.507E-14 0.000E+00
 ETOT 17  -25.131655382302     -7.105E-15 2.568E-14 0.000E+00
 ETOT 18  -25.131655382302      1.421E-14 3.486E-15 0.000E+00
 ETOT 19  -25.131655382302     -1.421E-14 1.205E-15 0.000E+00
 ETOT 20  -25.131655382302      0.000E+00 1.631E-16 0.000E+00
 ETOT 21  -25.131655382302      7.105E-15 5.688E-17 0.000E+00
 ETOT 22  -25.131655382302      0.000E+00 7.674E-18 0.000E+00
 ETOT 23  -25.131655382302      7.105E-15 2.697E-18 0.000E+00
 ETOT 24  -25.131655382302      0.000E+00 3.627E-19 0.000E+00
 ETOT 25  -25.131655382302     -7.105E-15 1.283E-19 0.000E+00
 ETOT 26  -25.131655382302      7.105E-15 1.721E-20 0.000E+00
 ETOT 27  -25.131655382302      3.553E-15 9.591E-21 0.000E+00

 At SCF step   27   max residual=  9.59E-21 < tolwfr=  1.00E-20 =>converged.

 ----iterations are completed or convergence reached----

 dfpt_looppert: DFPT cycle converged with prtwf=-1. Will skip output of the 1st-order WFK file.
 dfpt_looppert : ek2=    4.6693705923E+01
          f-sum rule ratio=    1.0130301045E+00
 prteigrs : about to open file /scratch/users/j/a/jabreu/flow_simple_8atoms/flow/w290/t1/tmpdata/tmp_1WF1_EIG
 Expectation of eigenvalue derivatives (hartree) for nkpt=   1  k points:
  (in case of degenerate eigenvalues, averaged derivative)
 kpt#   1, nband= 38, wtk=  1.00000, kpt=  0.5000  0.0000  0.0000 (reduced coord)
   0.00000   -0.00000   -0.00000    0.00000    0.00000    0.00000   -0.00000    0.00000
  -0.00000   -0.00000    0.00000   -0.00000   -0.00000   -0.00000   -0.00000    0.00000
   0.00000   -0.00000   -0.00000   -0.00000    0.00000    0.00000    0.00000    0.00000
   0.00000    0.00000    0.00000   -0.00000    0.00000    0.00000   -0.00000    0.00000
  -0.00000    0.00000    0.00000   -0.00000    0.00000    0.00000

 Eight components of 2nd-order total energy (hartree) are
 1,2,3: 0th-order hamiltonian combined with 1st-order wavefunctions
     kin0=   3.09782725E+01 eigvalue=   2.45422965E+00  local=  -1.38659000E+01
 4,5,6: 1st-order hamiltonian combined with 1st and 0th-order wfs
     kin1=  -4.73021298E+01  Hartree=   0.00000000E+00     xc=   0.00000000E+00
 7,8,9: eventually, occupation + non-local contributions
    edocc=   4.74961573E+00     enl0=   8.15437500E-01   enl1=  -2.96118097E+00
 1-9 gives the relaxation energy (to be shifted if some occ is /=2.0)
   erelax=  -2.51316554E+01
  No Ewald or frozen-wf contrib.: the relaxation energy is the total one
 2DEtotal=   -0.2513165538E+02 Ha. Also 2DEtotal=   -0.683867121645E+03 eV
    (  non-var. 2DEtotal :   -2.5131655382E+01 Ha)

 Perturbation wavevector (in red.coord.)   0.000000  0.000000  0.000000
 Perturbation : derivative vs k along direction   2
 The set of symmetries contains only one element for this perturbation.
 symkpt : not enough symmetry to change the number of k points.

[...]

 Perturbation wavevector (in red.coord.)   0.000000  0.000000  0.000000
 Perturbation : derivative vs k along direction   3
 The set of symmetries contains only one element for this perturbation.
 symkpt : not enough symmetry to change the number of k points.

-inwffil : will read wavefunctions from disk file /scratch/users/j/a/jabreu/flow_simple_8atoms/flow/w290/t1/indata/in_WFK

 Initialisation of the first-order wave-functions :
  ireadwf=   0

--- !BeginCycle
iteration_state: {dtset: 1, }
solver: {iscf: 7, nstep: 2000, nline: 4, wfoptalg: 0, }
tolerances: {tolwfr: 1.00E-20, }
...

     iter   2DEtotal(Ha)        deltaE(Ha) residm    vres2
-ETOT  1  -24.988769930033     -2.499E+01 2.810E-02 0.000E+00
 ETOT  2  -25.005051847306     -1.628E-02 7.067E-04 0.000E+00
 ETOT  3  -25.005157563952     -1.057E-04 9.685E-05 0.000E+00
 ETOT  4  -25.005160840079     -3.276E-06 1.485E-05 0.000E+00
 ETOT  5  -25.005160971778     -1.317E-07 2.745E-06 0.000E+00
 ETOT  6  -25.005160977852     -6.074E-09 4.287E-07 0.000E+00
 ETOT  7  -25.005160978149     -2.973E-10 9.027E-08 0.000E+00
 ETOT  8  -25.005160978164     -1.528E-11 1.360E-08 0.000E+00
 ETOT  9  -25.005160978165     -8.455E-13 3.147E-09 0.000E+00
 ETOT 10  -25.005160978165     -2.487E-14 4.469E-10 0.000E+00
 ETOT 11  -25.005160978165     -1.776E-14 1.134E-10 0.000E+00
 ETOT 12  -25.005160978165      2.487E-14 1.556E-11 0.000E+00
 ETOT 13  -25.005160978165     -2.487E-14 4.657E-12 0.000E+00
 ETOT 14  -25.005160978165      1.421E-14 5.960E-13 0.000E+00
 ETOT 15  -25.005160978165     -3.553E-15 2.158E-13 0.000E+00
 ETOT 16  -25.005160978165      0.000E+00 2.684E-14 0.000E+00
 ETOT 17  -25.005160978165     -3.553E-15 1.032E-14 0.000E+00
 ETOT 18  -25.005160978165      3.553E-15 1.257E-15 0.000E+00
 ETOT 19  -25.005160978165     -3.553E-15 5.043E-16 0.000E+00
 ETOT 20  -25.005160978165      0.000E+00 6.004E-17 0.000E+00
 ETOT 21  -25.005160978165     -7.105E-15 2.498E-17 0.000E+00
 ETOT 22  -25.005160978165      1.421E-14 2.910E-18 0.000E+00
 ETOT 23  -25.005160978165      0.000E+00 1.248E-18 0.000E+00
 ETOT 24  -25.005160978165      0.000E+00 1.425E-19 0.000E+00
 ETOT 25  -25.005160978165      0.000E+00 6.261E-20 0.000E+00
 ETOT 26  -25.005160978165      0.000E+00 9.716E-21 0.000E+00

 At SCF step   26   max residual=  9.72E-21 < tolwfr=  1.00E-20 =>converged.

 ----iterations are completed or convergence reached----

 dfpt_looppert: DFPT cycle converged with prtwf=-1. Will skip output of the 1st-order WFK file.
 dfpt_looppert : ek2=    4.6693705923E+01
          f-sum rule ratio=    1.0083203321E+00
 prteigrs : about to open file /scratch/users/j/a/jabreu/flow_simple_8atoms/flow/w290/t1/tmpdata/tmp_1WF1_EIG
 Expectation of eigenvalue derivatives (hartree) for nkpt=   1  k points:
  (in case of degenerate eigenvalues, averaged derivative)
 kpt#   1, nband= 38, wtk=  1.00000, kpt=  0.5000  0.0000  0.0000 (reduced coord)
  -0.00000   -0.00000    0.00000   -0.00000   -0.00000   -0.00000   -0.00000    0.00000
   0.00000    0.00000    0.00000   -0.00000    0.00000   -0.00000    0.00000    0.00000
  -0.00000   -0.00000   -0.00000   -0.00000   -0.00000    0.00000    0.00000   -0.00000
   0.00000   -0.00000    0.00000    0.00000    0.00000   -0.00000   -0.00000   -0.00000
   0.00000   -0.00000   -0.00000   -0.00000   -0.00000    0.00000

 Eight components of 2nd-order total energy (hartree) are
 1,2,3: 0th-order hamiltonian combined with 1st-order wavefunctions
     kin0=   2.90253541E+01 eigvalue=   2.07342195E+00  local=  -1.22088945E+01
 4,5,6: 1st-order hamiltonian combined with 1st and 0th-order wfs
     kin1=  -4.70822131E+01  Hartree=   0.00000000E+00     xc=   0.00000000E+00
 7,8,9: eventually, occupation + non-local contributions
    edocc=   5.75176297E+00     enl0=   3.63516442E-01   enl1=  -2.92810889E+00
 1-9 gives the relaxation energy (to be shifted if some occ is /=2.0)
   erelax=  -2.50051610E+01
  No Ewald or frozen-wf contrib.: the relaxation energy is the total one
 2DEtotal=   -0.2500516098E+02 Ha. Also 2DEtotal=   -0.680425033858E+03 eV
    (  non-var. 2DEtotal :   -2.5005160978E+01 Ha)

 CALCULATION OF EFFECTIVE MASSES
 NOTE : Additional infos (eff. mass eigenvalues, eigenvectors and, if degenerate, average mass) are available in stdout.

 K-point ( 0.500, 0.000, 0.000) | band =    29
 Effective mass tensor:
             -2.4417957621             -2.3256385549             -2.2297771831
             -2.3256385549            -17.6191048382            -11.7598715845
             -2.2297771831            -11.7598715845            -14.3423730958
 Effective mass tensor eigenvalues:
            -28.2554051542             -4.1186794441             -2.0291890979
 Angular average effective mass 1/(<1/m>)=  -3.8910736930
 Angular average effective mass for Frohlich model (<m**0.5>)**2=  -4.9086613815
 Effective masses along directions: (cart. coord. / red. coord. -> eff. mass)
    1:   1.000000  0.000000  0.000000 /   0.990129 -0.140156  0.000000 ->  -2.0641264736
    2:   0.000000  1.000000  0.000000 /   0.000000  1.000000  0.000000 ->  -7.8586611928
    3:   0.000000  0.000000  1.000000 /  -0.122137 -0.122137  0.984970 ->  -6.2782188046
    4:   0.577350  0.577350  0.577350 /   0.576401  0.476525  0.663842 ->  -7.3134992284
    5:   0.000000  0.707107  0.707107 /  -0.093681  0.648429  0.755489 -> -22.9226415536
    6:   0.707107  0.000000  0.707107 /   0.642933 -0.195825  0.740466 ->  -3.6856495286
    7:   0.707107  0.707107  0.000000 /   0.762550  0.646930  0.000000 ->  -3.6277848722

 K-point ( 0.500, 0.000, 0.000) | band =    30
 Effective mass tensor:
              4.0869105499             -0.8665972548             -1.9445434836
             -0.8665972548              4.3246312126              1.2402146768
             -1.9445434836              1.2402146768              3.6851520991
 Effective mass tensor eigenvalues:
              1.8703481981              3.4792987581              6.7470469054
 Angular average effective mass 1/(<1/m>)=   3.0918685934
 Angular average effective mass for Frohlich model (<m**0.5>)**2=   3.3415401070
 Effective masses along directions: (cart. coord. / red. coord. -> eff. mass)
    1:   1.000000  0.000000  0.000000 /   0.990129 -0.140156  0.000000 ->   3.0493121110
    2:   0.000000  1.000000  0.000000 /   0.000000  1.000000  0.000000 ->   3.8925371778
    3:   0.000000  0.000000  1.000000 /  -0.122137 -0.122137  0.984970 ->   2.5944215970
    4:   0.577350  0.577350  0.577350 /   0.576401  0.476525  0.663842 ->   2.5297580593
    5:   0.000000  0.707107  0.707107 /  -0.093681  0.648429  0.755489 ->   4.0965100386
    6:   0.707107  0.000000  0.707107 /   0.642933 -0.195825  0.740466 ->   1.9093264812
    7:   0.707107  0.707107  0.000000 /   0.762550  0.646930  0.000000 ->   3.2234100106

 END OF EFFECTIVE MASSES SECTION

 ---- first-order wavefunction calculations are completed ----

 Total localisation tensor (bohr^2) in cartesian coordinates
  WARNING : still subject to testing - especially symmetries.
      direction              matrix element
   alpha     beta       real part   imaginary part
     1        1       0.6900463352    0.0000000000
     1        2      -0.0934247250    0.0000000000
     1        3      -0.0727687281    0.0000000000
     2        1      -0.0934247250    0.0000000000
     2        2       0.6533506018    0.0000000000
     2        3      -0.0824765386    0.0000000000
     3        1      -0.0727687281    0.0000000000
     3        2      -0.0824765386    0.0000000000
     3        3       0.6928765687    0.0000000000

 respfn : d/dk was computed, but no 2DTE, so no DDB output.

== END DATASET(S) ==============================================================

 -outvars: echo values of variables after computation  --------
            acell      1.0000000000E+00  1.0000000000E+00  1.0000000000E+00 Bohr
              amu      1.32905430E+02  7.99040000E+01  1.89984032E+01
             ecut      4.20000000E+01 Hartree
           etotal     -2.5005160978E+01
            fcart      0.0000000000E+00  0.0000000000E+00  0.0000000000E+00
                       0.0000000000E+00  0.0000000000E+00  0.0000000000E+00
                       0.0000000000E+00  0.0000000000E+00  0.0000000000E+00
                       0.0000000000E+00  0.0000000000E+00  0.0000000000E+00
                       0.0000000000E+00  0.0000000000E+00  0.0000000000E+00
                       0.0000000000E+00  0.0000000000E+00  0.0000000000E+00
                       0.0000000000E+00  0.0000000000E+00  0.0000000000E+00
                       0.0000000000E+00  0.0000000000E+00  0.0000000000E+00
-          fftalg         512
           irdden           1
           irdwfk           1
           istwfk        1
              ixc     -116133
              kpt      5.00000000E-01  0.00000000E+00  0.00000000E+00
           kptopt           0
P           mkmem           1
P          mkqmem           1
P          mk1mem           1
            natom           8
            nband          38
           nbdbuf           4
            ngfft          60      60      60
             nkpt           1
            nstep        2000
             nsym           6
           ntypat           3
              occ      2.000000  2.000000  2.000000  2.000000  2.000000  2.000000
                       2.000000  2.000000  2.000000  2.000000  2.000000  2.000000
                       2.000000  2.000000  2.000000  2.000000  2.000000  2.000000
                       2.000000  2.000000  2.000000  2.000000  2.000000  2.000000
                       2.000000  2.000000  2.000000  2.000000  2.000000  0.000000
                       0.000000  0.000000  0.000000  0.000000  0.000000  0.000000
                       0.000000  0.000000
        optdriver           1
            prtwf          -1
            rfdir           1       1       1
           rfelfd           2
            rprim      1.0004028779E+01  0.0000000000E+00 -1.2501548839E+00
                      -1.4161042415E+00  9.9032944308E+00 -1.2501548839E+00
                       0.0000000000E+00  0.0000000000E+00  1.0081839070E+01
          spgroup         148
           strten      0.0000000000E+00  0.0000000000E+00  0.0000000000E+00
                       0.0000000000E+00  0.0000000000E+00  0.0000000000E+00
           symrel      1  0  0   0  1  0   0  0  1      -1  0  0   0 -1  0   0  0 -1
                       0  0  1   1  0  0   0  1  0       0  0 -1  -1  0  0   0 -1  0
                       0  1  0   0  0  1   1  0  0       0 -1  0   0  0 -1  -1  0  0
           tolwfr      1.00000000E-20
            typat      1  2  3  3  3  3  3  3
           useylm           1
           xangst      2.2722669671E+00  2.6202988514E+00  2.0059862566E+00
                       0.0000000000E+00  0.0000000000E+00  0.0000000000E+00
                      -1.8036154436E-01  4.1404233052E+00  3.2578075592E+00
                       3.7440755952E+00  4.0754556155E-01  3.6884617496E+00
                       3.6443030541E+00  3.7640645406E+00 -5.8293988532E-01
                       4.7248954785E+00  1.1001743975E+00  7.5416495392E-01
                       8.0045833896E-01  4.8330521412E+00  3.2351076353E-01
                       9.0023088005E-01  1.4765331621E+00  4.5949123985E+00
            xcart      4.2939622686E+00  4.9516472154E+00  3.7907646512E+00
                       0.0000000000E+00  0.0000000000E+00  0.0000000000E+00
                      -3.4083392374E-01  7.8242661211E+00  6.1563640806E+00
                       7.0752774958E+00  7.7014949800E-01  6.9701825584E+00
                       6.8867347175E+00  7.1130511282E+00 -1.1015967352E+00
                       8.9287584609E+00  2.0790283097E+00  1.4251652219E+00
                       1.5126470414E+00  9.1331449328E+00  6.1134674412E-01
                       1.7011898197E+00  2.7902433026E+00  8.6831260377E+00
             xred      5.0000000000E-01  5.0000000000E-01  5.0000000000E-01
                       0.0000000000E+00  0.0000000000E+00  0.0000000000E+00
                       7.7767000000E-02  7.9006700000E-01  7.1825100000E-01
                       7.1825100000E-01  7.7767000000E-02  7.9006700000E-01
                       7.9006700000E-01  7.1825100000E-01  7.7767000000E-02
                       9.2223300000E-01  2.0993300000E-01  2.8174900000E-01
                       2.8174900000E-01  9.2223300000E-01  2.0993300000E-01
                       2.0993300000E-01  2.8174900000E-01  9.2223300000E-01
            znucl       55.00000   35.00000    9.00000

- Timing analysis has been suppressed with timopt=0

 Suggested references for the acknowledgment of ABINIT usage.

 Calculation completed.
.Delivered   6 WARNINGs and   5 COMMENTs to log file.