.Version 9.5.2 of ABINIT

 ABINIT is a project of the Universite Catholique de Louvain,
 Corning Inc. and other collaborators, see ~abinit/doc/developers/contributors.txt .
 acknowledgments of the ABINIT effort.

.Starting date : Mon 24 May 2021.
- ( at 18h37 )

- input  file    -> /scratch/users/j/a/jabreu/flow_simple_10atoms/flow/w423/t1/run.abi
- output file    -> /scratch/users/j/a/jabreu/flow_simple_10atoms/flow/w423/t1/run.abo
- root for input  files -> /scratch/users/j/a/jabreu/flow_simple_10atoms/flow/w423/t1/indata/in
- root for output files -> /scratch/users/j/a/jabreu/flow_simple_10atoms/flow/w423/t1/outdata/out

 Symmetries : space group Ib a m (# 72); Bravais oI (body-center ortho.)
     intxc =       0      iscf =       7    lmnmax =      18     lnmax =       6
     mgfft =      96  mpssoang =       3    mqgrid =    3619     natom =      10
  nloc_mem =       1    nspden =       1   nspinor =       1    nsppol =       1
      nsym =       8    n1xccc =    2501    ntypat =       3    occopt =       1
   xclevel =       2
-    mband =          49        mffmem =           1         mkmem =           2
-   mkqmem =           2        mk1mem =           2           mpw =       28882
      nfft =      884736          nkpt =           2
  Rough estimation (10% accuracy) of disk space for files :

------------- Echo of variables that govern the present computation ------------
-
- outvars: echo of selected default values
-   iomode0 =  0 , fftalg0 =512 , wfoptalg0 =  0
-
- outvars: echo of global parameters not present in the input file
-  max_nthreads =    0
-
 -outvars: echo values of preprocessed input variables --------
            acell      1.0000000000E+00  1.0000000000E+00  1.0000000000E+00 Bohr
              amu      8.76200000E+01  1.26904470E+02  1.59994000E+01
             ecut      4.40000000E+01 Hartree
-          fftalg         512
           irdden           1
           irdwfk           1
              ixc     -116133
              kpt      3.58682924E-01  6.41317076E-01 -3.58682924E-01
                       5.00000000E-01  5.00000000E-01 -5.00000000E-01
           kptopt           0
P           mkmem           2
P          mkqmem           2
P          mk1mem           2
            natom          10
            nband          49
           nbdbuf           4
            ngfft          96      96      96
             nkpt           2
            nstep        2000
             nsym           8
           ntypat           3
              occ      2.000000  2.000000  2.000000  2.000000  2.000000  2.000000
                       2.000000  2.000000  2.000000  2.000000  2.000000  2.000000
                       2.000000  2.000000  2.000000  2.000000  2.000000  2.000000
                       2.000000  2.000000  2.000000  2.000000  2.000000  2.000000
                       2.000000  2.000000  2.000000  2.000000  2.000000  2.000000
                       2.000000  2.000000  2.000000  2.000000  2.000000  2.000000
                       2.000000  2.000000  2.000000  2.000000  0.000000  0.000000
                       0.000000  0.000000  0.000000  0.000000  0.000000  0.000000
                       0.000000
        optdriver           1
            prtwf          -1
            rfdir           1       1       1
           rfelfd           2
            rprim      1.2422747638E+01  0.0000000000E+00 -8.9807711771E+00
                      -2.4551165305E+00  1.0871193353E+01 -1.0524659981E+01
                       0.0000000000E+00  0.0000000000E+00  1.5329021815E+01
          spgroup          72
           symrel      1  0  0   0  1  0   0  0  1      -1  0  0   0 -1  0   0  0 -1
                       0  0  1  -1 -1 -1   1  0  0       0  0 -1   1  1  1  -1  0  0
                      -1 -1 -1   0  0  1   0  1  0       1  1  1   0  0 -1   0 -1  0
                       0  1  0   1  0  0  -1 -1 -1       0 -1  0  -1  0  0   1  1  1
            tnons      0.0000000  0.0000000  0.0000000     0.0000000  0.0000000  0.0000000
                       0.0000000  0.5000000  0.5000000     0.0000000  0.5000000  0.5000000
                       0.0000000  0.0000000  0.0000000     0.0000000  0.0000000  0.0000000
                       0.0000000  0.5000000  0.5000000     0.0000000  0.5000000  0.5000000
           tolwfr      1.00000000E-20
            typat      1  1  1  1  2  2  2  2  3  3
           useylm           1
              wtk        0.50000    0.50000
           xangst      5.2656840926E+00  3.3934443720E+00 -4.9877429447E+00
                       8.9591130195E-03  2.3593433804E+00  2.7776823064E+00
                       3.6679368350E+00  5.2357372565E+00 -1.8611475878E+00
                       1.6067063706E+00  5.1705049580E-01 -3.4891305051E-01
                       5.0575010888E+00  8.6454476358E-01  6.2820439891E-01
                       2.4521137454E+00  3.7409386397E+00  8.9993866676E-01
                       2.1714211681E-01  4.8882429887E+00 -2.8382650372E+00
                       2.8225294602E+00  2.0118491126E+00 -3.1099993050E+00
                      -9.7439378428E-01  4.3145908142E+00  1.9067690882E+00
                      -3.2479792809E-01  1.4381969381E+00  6.3558969605E-01
            xcart      9.9507008373E+00  6.4126805102E+00 -9.4254681866E+00
                       1.6930270001E-02  4.4585128423E+00  5.2490588432E+00
                       6.9313960909E+00  9.8941095186E+00 -3.5170592337E+00
                       3.0362350164E+00  9.7708383393E-01 -6.5935010966E-01
                       9.5572919746E+00  1.6337528328E+00  1.1871342694E+00
                       4.6338234255E+00  7.0693495090E+00  1.7006376166E+00
                       4.1033913269E-01  9.2374405197E+00 -5.3635436128E+00
                       5.3338076818E+00  3.8018438435E+00 -5.8770469600E+00
                      -1.8413373979E+00  8.1533950144E+00  3.6032713753E+00
                      -6.1377913262E-01  2.7177983381E+00  1.2010904584E+00
             xred      9.1758450000E-01  5.8987825000E-01  3.2770625000E-01
                       8.2415500000E-02  4.1012175000E-01  6.7229375000E-01
                       7.3782800000E-01  9.1012175000E-01  8.2770625000E-01
                       2.6217200000E-01  8.9878250000E-02  1.7229375000E-01
                       7.9903850000E-01  1.5028275000E-01  6.4875575000E-01
                       5.0152700000E-01  6.5028275000E-01  8.5124425000E-01
                       2.0096150000E-01  8.4971725000E-01  3.5124425000E-01
                       4.9847300000E-01  3.4971725000E-01  1.4875575000E-01
                       0.0000000000E+00  7.5000000000E-01  7.5000000000E-01
                       0.0000000000E+00  2.5000000000E-01  2.5000000000E-01
            znucl       38.00000   53.00000    8.00000

 chkinp: Checking input parameters for consistency.

== DATASET  1 ==================================================================
-   mpi_nproc: 1, omp_nthreads: -1 (-1 if OMP is not activated)

--- !DatasetInfo
iteration_state: {dtset: 1, }
dimensions: {natom: 10, nkpt: 2, mband: 49, nsppol: 1, nspinor: 1, nspden: 1, mpw: 28882, }
cutoff_energies: {ecut:  44.0, pawecutdg:  -1.0, }
electrons: {nelect:   8.00000000E+01, charge:   0.00000000E+00, occopt:   1.00000000E+00, tsmear:   1.00000000E-02, }
meta: {optdriver: 1, rfelfd: 2, }
...

 Real(R)+Recip(G) space primitive vectors, cartesian coordinates (Bohr,Bohr^-1):
 R(1)= 12.4227476  0.0000000 -8.9807712  G(1)=  0.0804975  0.0181793  0.0000000
 R(2)= -2.4551165 10.8711934-10.5246600  G(2)=  0.0000000  0.0919862  0.0000000
 R(3)=  0.0000000  0.0000000 15.3290218  G(3)=  0.0471608  0.0738069  0.0652357
 Unit cell volume ucvol=  2.0701858E+03 bohr^3
 Angles (23,13,12)=  1.33360302E+02  1.25864278E+02  7.41898243E+01 degrees

 getcut: wavevector=  0.0000  0.0000  0.0000  ngfft=  96  96  96
         ecut(hartree)=     44.000   => boxcut(ratio)=   2.09733

--- Pseudopotential description ------------------------------------------------
- pspini: atom type   1  psp file is /scratch/users/j/a/jabreu/pseudos/PBEsol/Sr.psp8
- pspatm: opening atomic psp file    /scratch/users/j/a/jabreu/pseudos/PBEsol/Sr.psp8
- Sr    ONCVPSP-3.3.0  r_core=   1.66721   1.31335   1.51547
- 38.00000  10.00000    180112                znucl, zion, pspdat
    8 -116133    2    4       600   0.00000   pspcod,pspxc,lmax,lloc,mmax,r2well
    5.99000000000000    6.00000000000000    0.00000000000000   rchrg,fchrg,qchrg
     nproj     2     2     2
     extension_switch     1
  pspatm : epsatm=   12.46450977
         --- l  ekb(1:nproj) -->
             0   10.029206    1.044171
             1    7.472414    1.670829
             2    4.142950    0.968140
 pspatm: atomic psp has been read  and splines computed

- pspini: atom type   2  psp file is /scratch/users/j/a/jabreu/pseudos/PBEsol/I.psp8
- pspatm: opening atomic psp file    /scratch/users/j/a/jabreu/pseudos/PBEsol/I.psp8
- I     ONCVPSP-3.3.0  r_core=   2.02042   2.17032   2.27639
- 53.00000   7.00000    180112                znucl, zion, pspdat
    8 -116133    2    4       600   0.00000   pspcod,pspxc,lmax,lloc,mmax,r2well
    5.99000000000000    4.00000000000000    0.00000000000000   rchrg,fchrg,qchrg
     nproj     2     2     2
     extension_switch     1
  pspatm : epsatm=   18.14229533
         --- l  ekb(1:nproj) -->
             0    6.015861    0.935228
             1    4.063749    0.754139
             2    4.149534    0.722940
 pspatm: atomic psp has been read  and splines computed

- pspini: atom type   3  psp file is /scratch/users/j/a/jabreu/pseudos/PBEsol/O.psp8
- pspatm: opening atomic psp file    /scratch/users/j/a/jabreu/pseudos/PBEsol/O.psp8
- O     ONCVPSP-3.3.0  r_core=   1.35509   1.45563   1.26150
-  8.00000   6.00000    180112                znucl, zion, pspdat
    8 -116133    2    4       600   0.00000   pspcod,pspxc,lmax,lloc,mmax,r2well
    5.99000000000000    4.00000000000000    0.00000000000000   rchrg,fchrg,qchrg
     nproj     2     2     1
     extension_switch     1
  pspatm : epsatm=    6.22910522
         --- l  ekb(1:nproj) -->
             0    6.050032    0.820363
             1   -4.739617   -1.153841
             2   -1.335834
 pspatm: atomic psp has been read  and splines computed

   1.07908345E+04                                ecore*ucvol(ha*bohr**3)

 ==>  initialize data related to q vector <==

 The list of irreducible perturbations for this q vector is:
    1)    idir= 1    ipert=  11
    2)    idir= 2    ipert=  11
    3)    idir= 3    ipert=  11

 Perturbation wavevector (in red.coord.)   0.000000  0.000000  0.000000
 Perturbation : derivative vs k along direction   1

 dfpt_looppert : COMMENT -
  In a d/dk calculation, iscf is set to -3 automatically.
 The set of symmetries contains only one element for this perturbation.
 symkpt : not enough symmetry to change the number of k points.

 Initialisation of the first-order wave-functions :
  ireadwf=   0

--- !BeginCycle
iteration_state: {dtset: 1, }
solver: {iscf: 7, nstep: 2000, nline: 4, wfoptalg: 0, }
tolerances: {tolwfr: 1.00E-20, }
...

     iter   2DEtotal(Ha)        deltaE(Ha) residm    vres2
-ETOT  1  -23.171668778630     -2.317E+01 1.206E-01 0.000E+00
[...]

 ----iterations are completed or convergence reached----

 dfpt_looppert: DFPT cycle converged with prtwf=-1. Will skip output of the 1st-order WFK file.
 dfpt_looppert : ek2=    4.3017786627E+01
          f-sum rule ratio=    1.0116672375E+00
 prteigrs : about to open file /scratch/users/j/a/jabreu/flow_simple_10atoms/flow/w423/t1/tmpdata/tmp_1WF1_EIG
 Expectation of eigenvalue derivatives (hartree) for nkpt=   2  k points:
  (in case of degenerate eigenvalues, averaged derivative)
 kpt#   1, nband= 49, wtk=  0.50000, kpt=  0.3587  0.6413 -0.3587 (reduced coord)
  -0.00000    0.00000   -0.00000    0.00000   -0.00000   -0.00000    0.00000    0.00000
  -0.00000   -0.00000    0.00000    0.00000   -0.00000    0.00000    0.00000   -0.00000
   0.00000    0.00000   -0.00000   -0.00000   -0.00000    0.00000   -0.00000    0.00000
   0.00000   -0.00000   -0.00000    0.00000   -0.00000    0.00000   -0.00000    0.00000
  -0.00000    0.00000   -0.00000   -0.00000    0.00000   -0.00000    0.00000    0.00000
   0.00000   -0.00000   -0.00000    0.00000   -0.00000   -0.00000   -0.00000    0.00003
  -0.00481
 prteigrs : prtvol=0 or 1, do not print more k-points.

 Eight components of 2nd-order total energy (hartree) are
 1,2,3: 0th-order hamiltonian combined with 1st-order wavefunctions
     kin0=   3.09313416E+01 eigvalue=   1.05062849E+00  local=  -1.93780006E+01
 4,5,6: 1st-order hamiltonian combined with 1st and 0th-order wfs
     kin1=  -4.35196854E+01  Hartree=   0.00000000E+00     xc=   0.00000000E+00
 7,8,9: eventually, occupation + non-local contributions
    edocc=   6.29759821E+00     enl0=   4.30629112E+00   enl1=  -2.89603218E+00
 1-9 gives the relaxation energy (to be shifted if some occ is /=2.0)
   erelax=  -2.32078588E+01
  No Ewald or frozen-wf contrib.: the relaxation energy is the total one
 2DEtotal=   -0.2320785877E+02 Ha. Also 2DEtotal=   -0.631517953605E+03 eV
    (  non-var. 2DEtotal :   -2.3207858772E+01 Ha)

 Perturbation wavevector (in red.coord.)   0.000000  0.000000  0.000000
 Perturbation : derivative vs k along direction   2
 The set of symmetries contains only one element for this perturbation.
 symkpt : not enough symmetry to change the number of k points.

[...]

 Perturbation wavevector (in red.coord.)   0.000000  0.000000  0.000000
 Perturbation : derivative vs k along direction   3
 The set of symmetries contains only one element for this perturbation.
 symkpt : not enough symmetry to change the number of k points.

 Initialisation of the first-order wave-functions :
  ireadwf=   0

--- !BeginCycle
iteration_state: {dtset: 1, }
solver: {iscf: 7, nstep: 2000, nline: 4, wfoptalg: 0, }
tolerances: {tolwfr: 1.00E-20, }
...

     iter   2DEtotal(Ha)        deltaE(Ha) residm    vres2
-ETOT  1  -40.312242033758     -4.031E+01 1.395E-01 0.000E+00
 ETOT  2  -40.395617357306     -8.338E-02 1.529E-02 0.000E+00
 ETOT  3  -40.396290519694     -6.732E-04 3.141E-03 0.000E+00
 ETOT  4  -40.396298240077     -7.720E-06 6.295E-04 0.000E+00
 ETOT  5  -40.396298342597     -1.025E-07 1.565E-04 0.000E+00
 ETOT  6  -40.396298344067     -1.470E-09 3.540E-05 0.000E+00
 ETOT  7  -40.396298344090     -2.227E-11 9.094E-06 0.000E+00
 ETOT  8  -40.396298344090     -2.771E-13 2.131E-06 0.000E+00
 ETOT  9  -40.396298344090     -7.105E-15 5.539E-07 0.000E+00
 ETOT 10  -40.396298344090     -7.105E-14 1.329E-07 0.000E+00
 ETOT 11  -40.396298344090      1.421E-14 3.464E-08 0.000E+00
 ETOT 12  -40.396298344090     -7.105E-15 8.468E-09 0.000E+00
 ETOT 13  -40.396298344090      0.000E+00 2.205E-09 0.000E+00
 ETOT 14  -40.396298344090      0.000E+00 5.471E-10 0.000E+00
 ETOT 15  -40.396298344090      7.105E-15 1.422E-10 0.000E+00
 ETOT 16  -40.396298344090     -7.105E-15 3.572E-11 0.000E+00
 ETOT 17  -40.396298344090      1.421E-14 9.268E-12 0.000E+00
 ETOT 18  -40.396298344090      0.000E+00 2.350E-12 0.000E+00
 ETOT 19  -40.396298344090      0.000E+00 6.090E-13 0.000E+00
 ETOT 20  -40.396298344090     -7.105E-15 1.554E-13 0.000E+00
 ETOT 21  -40.396298344090      0.000E+00 4.026E-14 0.000E+00
 ETOT 22  -40.396298344090     -7.105E-15 1.032E-14 0.000E+00
 ETOT 23  -40.396298344090      7.105E-15 2.674E-15 0.000E+00
 ETOT 24  -40.396298344090      7.105E-15 6.874E-16 0.000E+00
 ETOT 25  -40.396298344090      0.000E+00 1.782E-16 0.000E+00
 ETOT 26  -40.396298344090      0.000E+00 4.589E-17 0.000E+00
 ETOT 27  -40.396298344090      0.000E+00 1.190E-17 0.000E+00
 ETOT 28  -40.396298344090      0.000E+00 3.069E-18 0.000E+00
 ETOT 29  -40.396298344090     -1.421E-14 7.969E-19 0.000E+00
 ETOT 30  -40.396298344090     -1.421E-14 2.055E-19 0.000E+00
 ETOT 31  -40.396298344090      1.421E-14 5.343E-20 0.000E+00
 ETOT 32  -40.396298344090     -1.421E-14 1.378E-20 0.000E+00
 ETOT 33  -40.396298344090      2.842E-14 9.596E-21 0.000E+00

 At SCF step   33   max residual=  9.60E-21 < tolwfr=  1.00E-20 =>converged.

 ----iterations are completed or convergence reached----

 dfpt_looppert: DFPT cycle converged with prtwf=-1. Will skip output of the 1st-order WFK file.
 dfpt_looppert : ek2=    7.5339393537E+01
          f-sum rule ratio=    1.0054645429E+00
 prteigrs : about to open file /scratch/users/j/a/jabreu/flow_simple_10atoms/flow/w423/t1/tmpdata/tmp_1WF1_EIG
 Expectation of eigenvalue derivatives (hartree) for nkpt=   2  k points:
  (in case of degenerate eigenvalues, averaged derivative)
 kpt#   1, nband= 49, wtk=  0.50000, kpt=  0.3587  0.6413 -0.3587 (reduced coord)
   0.00158   -0.00161    0.00025   -0.00022    0.00526   -0.00749   -0.00630   -0.00351
   0.00351    0.01275   -0.00381    0.00666   -0.01261    0.00076    0.00205    0.00037
   0.00619   -0.00564    0.02044    0.01292   -0.02121   -0.00580   -0.03544    0.05658
  -0.04646   -0.02609    0.02322   -0.05972    0.00974    0.00862   -0.02677    0.01014
  -0.01361    0.05390    0.09579    0.02979    0.00736   -0.04725   -0.02922   -0.00628
   0.14730   -0.03259   -0.03813   -0.01581    0.01648   -0.07015   -0.03308    0.05031
   0.03473
 prteigrs : prtvol=0 or 1, do not print more k-points.

 Eight components of 2nd-order total energy (hartree) are
 1,2,3: 0th-order hamiltonian combined with 1st-order wavefunctions
     kin0=   5.83153909E+01 eigvalue=   1.84770563E+00  local=  -3.74436830E+01
 4,5,6: 1st-order hamiltonian combined with 1st and 0th-order wfs
     kin1=  -7.57510889E+01  Hartree=   0.00000000E+00     xc=   0.00000000E+00
 7,8,9: eventually, occupation + non-local contributions
    edocc=   9.38705938E+00     enl0=   8.28982546E+00   enl1=  -5.04150780E+00
 1-9 gives the relaxation energy (to be shifted if some occ is /=2.0)
   erelax=  -4.03962983E+01
  No Ewald or frozen-wf contrib.: the relaxation energy is the total one
 2DEtotal=   -0.4039629834E+02 Ha. Also 2DEtotal=   -0.109923918076E+04 eV
    (  non-var. 2DEtotal :   -4.0396298344E+01 Ha)

 CALCULATION OF EFFECTIVE MASSES
 NOTE : Additional infos (eff. mass eigenvalues, eigenvectors and, if degenerate, average mass) are available in stdout.

 K-point ( 0.359, 0.641,-0.359) | band =    40
 Effective mass tensor:
             -1.1625071954             -0.3177750977              0.4006653819
             -0.3177750977             -0.8860553794              0.6218426954
              0.4006653819              0.6218426954             -1.7418022161
 Effective mass tensor eigenvalues:
             -2.2931344925             -0.9577576704             -0.5394726280
 Angular average effective mass 1/(<1/m>)=  -0.8998599996
 Angular average effective mass for Frohlich model (<m**0.5>)**2=  -0.9872617604
 Effective masses along directions: (cart. coord. / red. coord. -> eff. mass)
    1:   1.000000  0.000000  0.000000 /   0.981025 -0.193881  0.000000 ->  -1.0243645440
    2:   0.000000  1.000000  0.000000 /   0.000000  1.000000  0.000000 ->  -0.6355255115
    3:   0.000000  0.000000  1.000000 /  -0.434915 -0.509681  0.742344 ->  -1.2752889633
    4:   0.577350  0.577350  0.577350 /   0.217138 -0.133020  0.967035 ->  -0.7332910677
    5:   0.000000  0.707107  0.707107 /  -0.505405  0.019502  0.862662 ->  -0.5947115871
    6:   0.707107  0.000000  0.707107 /   0.168899 -0.636921  0.752200 ->  -0.9871407935
    7:   0.707107  0.707107  0.000000 /   0.827898  0.560879  0.000000 ->  -0.9823333659

 K-point ( 0.500, 0.500,-0.500) | band =    41
 Effective mass tensor:
              0.7516744079              0.0023816116              0.1731246340
              0.0023816116              0.4049425284             -0.0046605216
              0.1731246340             -0.0046605216              0.5013605856
 Effective mass tensor eigenvalues:
              0.4023450246              0.4154882436              0.8401442537
 Angular average effective mass 1/(<1/m>)=   0.4932176188
 Angular average effective mass for Frohlich model (<m**0.5>)**2=   0.5081232430
 Effective masses along directions: (cart. coord. / red. coord. -> eff. mass)
    1:   1.000000  0.000000  0.000000 /   0.981025 -0.193881  0.000000 ->   0.6918534690
    2:   0.000000  1.000000  0.000000 /   0.000000  1.000000  0.000000 ->   0.4048761851
    3:   0.000000  0.000000  1.000000 /  -0.434915 -0.509681  0.742344 ->   0.4614197450
    4:   0.577350  0.577350  0.577350 /   0.217138 -0.133020  0.967035 ->   0.5869358080
    5:   0.000000  0.707107  0.707107 /  -0.505405  0.019502  0.862662 ->   0.4261781642
    6:   0.707107  0.000000  0.707107 /   0.168899 -0.636921  0.752200 ->   0.7650711480
    7:   0.707107  0.707107  0.000000 /   0.827898  0.560879  0.000000 ->   0.5145633916

 END OF EFFECTIVE MASSES SECTION

 ---- first-order wavefunction calculations are completed ----

 Total localisation tensor (bohr^2) in cartesian coordinates
  WARNING : still subject to testing - especially symmetries.
      direction              matrix element
   alpha     beta       real part   imaginary part
     1        1       1.2760736780    0.0000000000
     1        2      -0.2608463321    0.0000000000
     1        3      -0.6273929764    0.0000000000
     2        1      -0.2608463321    0.0000000000
     2        2       1.1550209028    0.0000000000
     2        3      -1.1182031153    0.0000000000
     3        1      -0.6273929764    0.0000000000
     3        2      -1.1182031153    0.0000000000
     3        3       4.9572952015    0.0000000000

 respfn : d/dk was computed, but no 2DTE, so no DDB output.

== END DATASET(S) ==============================================================

 -outvars: echo values of variables after computation  --------
            acell      1.0000000000E+00  1.0000000000E+00  1.0000000000E+00 Bohr
              amu      8.76200000E+01  1.26904470E+02  1.59994000E+01
             ecut      4.40000000E+01 Hartree
           etotal     -4.0396298344E+01
            fcart      0.0000000000E+00  0.0000000000E+00  0.0000000000E+00
                       0.0000000000E+00  0.0000000000E+00  0.0000000000E+00
                       0.0000000000E+00  0.0000000000E+00  0.0000000000E+00
                       0.0000000000E+00  0.0000000000E+00  0.0000000000E+00
                       0.0000000000E+00  0.0000000000E+00  0.0000000000E+00
                       0.0000000000E+00  0.0000000000E+00  0.0000000000E+00
                       0.0000000000E+00  0.0000000000E+00  0.0000000000E+00
                       0.0000000000E+00  0.0000000000E+00  0.0000000000E+00
                       0.0000000000E+00  0.0000000000E+00  0.0000000000E+00
                       0.0000000000E+00  0.0000000000E+00  0.0000000000E+00
-          fftalg         512
           irdden           1
           irdwfk           1
              ixc     -116133
              kpt      3.58682924E-01  6.41317076E-01 -3.58682924E-01
                       5.00000000E-01  5.00000000E-01 -5.00000000E-01
           kptopt           0
P           mkmem           2
P          mkqmem           2
P          mk1mem           2
            natom          10
            nband          49
           nbdbuf           4
            ngfft          96      96      96
             nkpt           2
            nstep        2000
             nsym           8
           ntypat           3
              occ      2.000000  2.000000  2.000000  2.000000  2.000000  2.000000
                       2.000000  2.000000  2.000000  2.000000  2.000000  2.000000
                       2.000000  2.000000  2.000000  2.000000  2.000000  2.000000
                       2.000000  2.000000  2.000000  2.000000  2.000000  2.000000
                       2.000000  2.000000  2.000000  2.000000  2.000000  2.000000
                       2.000000  2.000000  2.000000  2.000000  2.000000  2.000000
                       2.000000  2.000000  2.000000  2.000000  0.000000  0.000000
                       0.000000  0.000000  0.000000  0.000000  0.000000  0.000000
                       0.000000
        optdriver           1
            prtwf          -1
            rfdir           1       1       1
           rfelfd           2
            rprim      1.2422747638E+01  0.0000000000E+00 -8.9807711771E+00
                      -2.4551165305E+00  1.0871193353E+01 -1.0524659981E+01
                       0.0000000000E+00  0.0000000000E+00  1.5329021815E+01
          spgroup          72
           strten      0.0000000000E+00  0.0000000000E+00  0.0000000000E+00
                       0.0000000000E+00  0.0000000000E+00  0.0000000000E+00
           symrel      1  0  0   0  1  0   0  0  1      -1  0  0   0 -1  0   0  0 -1
                       0  0  1  -1 -1 -1   1  0  0       0  0 -1   1  1  1  -1  0  0
                      -1 -1 -1   0  0  1   0  1  0       1  1  1   0  0 -1   0 -1  0
                       0  1  0   1  0  0  -1 -1 -1       0 -1  0  -1  0  0   1  1  1
            tnons      0.0000000  0.0000000  0.0000000     0.0000000  0.0000000  0.0000000
                       0.0000000  0.5000000  0.5000000     0.0000000  0.5000000  0.5000000
                       0.0000000  0.0000000  0.0000000     0.0000000  0.0000000  0.0000000
                       0.0000000  0.5000000  0.5000000     0.0000000  0.5000000  0.5000000
           tolwfr      1.00000000E-20
            typat      1  1  1  1  2  2  2  2  3  3
           useylm           1
              wtk        0.50000    0.50000
           xangst      5.2656840926E+00  3.3934443720E+00 -4.9877429447E+00
                       8.9591130195E-03  2.3593433804E+00  2.7776823064E+00
                       3.6679368350E+00  5.2357372565E+00 -1.8611475878E+00
                       1.6067063706E+00  5.1705049580E-01 -3.4891305051E-01
                       5.0575010888E+00  8.6454476358E-01  6.2820439891E-01
                       2.4521137454E+00  3.7409386397E+00  8.9993866676E-01
                       2.1714211681E-01  4.8882429887E+00 -2.8382650372E+00
                       2.8225294602E+00  2.0118491126E+00 -3.1099993050E+00
                      -9.7439378428E-01  4.3145908142E+00  1.9067690882E+00
                      -3.2479792809E-01  1.4381969381E+00  6.3558969605E-01
            xcart      9.9507008373E+00  6.4126805102E+00 -9.4254681866E+00
                       1.6930270001E-02  4.4585128423E+00  5.2490588432E+00
                       6.9313960909E+00  9.8941095186E+00 -3.5170592337E+00
                       3.0362350164E+00  9.7708383393E-01 -6.5935010966E-01
                       9.5572919746E+00  1.6337528328E+00  1.1871342694E+00
                       4.6338234255E+00  7.0693495090E+00  1.7006376166E+00
                       4.1033913269E-01  9.2374405197E+00 -5.3635436128E+00
                       5.3338076818E+00  3.8018438435E+00 -5.8770469600E+00
                      -1.8413373979E+00  8.1533950144E+00  3.6032713753E+00
                      -6.1377913262E-01  2.7177983381E+00  1.2010904584E+00
             xred      9.1758450000E-01  5.8987825000E-01  3.2770625000E-01
                       8.2415500000E-02  4.1012175000E-01  6.7229375000E-01
                       7.3782800000E-01  9.1012175000E-01  8.2770625000E-01
                       2.6217200000E-01  8.9878250000E-02  1.7229375000E-01
                       7.9903850000E-01  1.5028275000E-01  6.4875575000E-01
                       5.0152700000E-01  6.5028275000E-01  8.5124425000E-01
                       2.0096150000E-01  8.4971725000E-01  3.5124425000E-01
                       4.9847300000E-01  3.4971725000E-01  1.4875575000E-01
                       0.0000000000E+00  7.5000000000E-01  7.5000000000E-01
                       0.0000000000E+00  2.5000000000E-01  2.5000000000E-01
            znucl       38.00000   53.00000    8.00000

- Timing analysis has been suppressed with timopt=0

 Suggested references for the acknowledgment of ABINIT usage.

 Calculation completed.
.Delivered   2 WARNINGs and   5 COMMENTs to log file.