.Version 9.5.2 of ABINIT

 ABINIT is a project of the Universite Catholique de Louvain,
 Corning Inc. and other collaborators, see ~abinit/doc/developers/contributors.txt .
 acknowledgments of the ABINIT effort.

.Starting date : Mon 24 May 2021.
- ( at 23h13 )

- input  file    -> /scratch/users/j/a/jabreu/flow_simple_10atoms/flow/w485/t1/run.abi
- output file    -> /scratch/users/j/a/jabreu/flow_simple_10atoms/flow/w485/t1/run.abo
- root for input  files -> /scratch/users/j/a/jabreu/flow_simple_10atoms/flow/w485/t1/indata/in
- root for output files -> /scratch/users/j/a/jabreu/flow_simple_10atoms/flow/w485/t1/outdata/out

 Symmetries : space group Im m m (# 71); Bravais oI (body-center ortho.)
     intxc =       0      iscf =       7    lmnmax =      18     lnmax =       6
     mgfft =      64  mpssoang =       3    mqgrid =    3001     natom =      10
  nloc_mem =       1    nspden =       1   nspinor =       1    nsppol =       1
      nsym =       8    n1xccc =    2501    ntypat =       3    occopt =       1
   xclevel =       2
-    mband =          41        mffmem =           1         mkmem =           2
-   mkqmem =           2        mk1mem =           2           mpw =       12242
      nfft =      262144          nkpt =           2
  Rough estimation (10% accuracy) of disk space for files :

------------- Echo of variables that govern the present computation ------------
-
- outvars: echo of selected default values
-   iomode0 =  0 , fftalg0 =512 , wfoptalg0 =  0
-
- outvars: echo of global parameters not present in the input file
-  max_nthreads =    0
-
 -outvars: echo values of preprocessed input variables --------
            acell      1.0000000000E+00  1.0000000000E+00  1.0000000000E+00 Bohr
              amu      8.54678000E+01  3.09737620E+01  3.20660000E+01
             ecut      2.70000000E+01 Hartree
-          fftalg         512
           irdden           1
           irdwfk           1
           istwfk        0    1
              ixc     -116133
              kpt      1.66666667E-01  1.66666667E-01 -1.66666667E-01
                       5.00000000E-01  0.00000000E+00  0.00000000E+00
           kptopt           0
P           mkmem           2
P          mkqmem           2
P          mk1mem           2
            natom          10
            nband          41
           nbdbuf           4
            ngfft          64      64      64
             nkpt           2
            nstep        2000
             nsym           8
           ntypat           3
              occ      2.000000  2.000000  2.000000  2.000000  2.000000  2.000000
                       2.000000  2.000000  2.000000  2.000000  2.000000  2.000000
                       2.000000  2.000000  2.000000  2.000000  2.000000  2.000000
                       2.000000  2.000000  2.000000  2.000000  2.000000  2.000000
                       2.000000  2.000000  2.000000  2.000000  2.000000  2.000000
                       2.000000  2.000000  0.000000  0.000000  0.000000  0.000000
                       0.000000  0.000000  0.000000  0.000000  0.000000
        optdriver           1
            prtwf          -1
            rfdir           1       1       1
           rfelfd           2
            rprim      1.2907125825E+01  0.0000000000E+00 -4.0358629345E+00
                      -4.6415738453E+00  1.0458028734E+01 -7.2088496953E+00
                       0.0000000000E+00  0.0000000000E+00  1.3523390355E+01
          spgroup          71
           symrel      1  0  0   0  1  0   0  0  1      -1  0  0   0 -1  0   0  0 -1
                       0  0  1  -1 -1 -1   1  0  0       0  0 -1   1  1  1  -1  0  0
                      -1 -1 -1   0  0  1   0  1  0       1  1  1   0  0 -1   0 -1  0
                       0  1  0   1  0  0  -1 -1 -1       0 -1  0  -1  0  0   1  1  1
           tolwfr      1.00000000E-20
            typat      1  1  2  2  3  3  3  3  3  3
           useylm           1
              wtk        0.50000    0.50000
           xangst      1.7723983729E+00  0.0000000000E+00  1.3028212780E+00
                       5.0577584422E+00  0.0000000000E+00  3.7177619988E+00
                       2.8852356668E+00  3.6505580730E+00 -3.9251638634E+00
                       1.4887060574E+00  1.8835923798E+00 -2.0252817774E+00
                       3.4497575747E+00  2.7670752264E+00 -2.0469973019E+00
                       3.9691930743E+00  2.8979246797E+00  1.7564569030E+00
                      -8.4402548933E-01  5.4498653415E+00  1.1482383884E+00
                       9.2418414949E-01  2.7670752264E+00  3.2528216198E+00
                       5.2179672135E+00  8.4285111397E-02  5.7585929538E-02
                       4.0474864991E-01  2.6362257731E+00 -5.5063258511E-01
            xcart      3.3493475231E+00  0.0000000000E+00  2.4619754155E+00
                       9.5577783021E+00  0.0000000000E+00  7.0255520050E+00
                       5.4523052391E+00  6.8985549902E+00 -7.4174847285E+00
                       2.8132467408E+00  3.5594737439E+00 -3.8272279013E+00
                       6.5190970410E+00  5.2290143670E+00 -3.8682642953E+00
                       7.5006878789E+00  5.4762839984E+00  3.3192225109E+00
                      -1.5949770240E+00  1.0298752956E+01  2.1698560893E+00
                       1.7464549389E+00  5.2290143670E+00  6.1469420205E+00
                       9.8605290039E+00  1.5927577762E-01  1.0882163593E-01
                       7.6486410098E-01  4.9817447357E+00 -1.0405447857E+00
             xred      2.5949600000E-01  0.0000000000E+00  2.5949600000E-01
                       7.4050400000E-01  0.0000000000E+00  7.4050400000E-01
                       6.5964200000E-01  6.5964200000E-01 -8.3266726847E-17
                       3.4035800000E-01  3.4035800000E-01 -8.3266726847E-17
                       6.8488400000E-01  5.0000000000E-01  1.8488400000E-01
                       7.6943700000E-01  5.2364400000E-01  7.5420700000E-01
                       2.3056300000E-01  9.8477000000E-01  7.5420700000E-01
                       3.1511600000E-01  5.0000000000E-01  8.1511600000E-01
                       7.6943700000E-01  1.5230000000E-02  2.4579300000E-01
                       2.3056300000E-01  4.7635600000E-01  2.4579300000E-01
            znucl       37.00000   15.00000   16.00000

 chkinp: Checking input parameters for consistency.

== DATASET  1 ==================================================================
-   mpi_nproc: 1, omp_nthreads: -1 (-1 if OMP is not activated)

--- !DatasetInfo
iteration_state: {dtset: 1, }
dimensions: {natom: 10, nkpt: 2, mband: 41, nsppol: 1, nspinor: 1, nspden: 1, mpw: 12242, }
cutoff_energies: {ecut:  27.0, pawecutdg:  -1.0, }
electrons: {nelect:   6.40000000E+01, charge:   0.00000000E+00, occopt:   1.00000000E+00, tsmear:   1.00000000E-02, }
meta: {optdriver: 1, rfelfd: 2, }
...

 Real(R)+Recip(G) space primitive vectors, cartesian coordinates (Bohr,Bohr^-1):
 R(1)= 12.9071258  0.0000000 -4.0358629  G(1)=  0.0774766  0.0343863  0.0000000
 R(2)= -4.6415738 10.4580287 -7.2088497  G(2)=  0.0000000  0.0956203  0.0000000
 R(3)=  0.0000000  0.0000000 13.5233904  G(3)=  0.0231218  0.0612340  0.0739460
 Unit cell volume ucvol=  1.8254291E+03 bohr^3
 Angles (23,13,12)=  1.22212798E+02  1.07363674E+02  9.97005591E+01 degrees

 getcut: wavevector=  0.0000  0.0000  0.0000  ngfft=  64  64  64
         ecut(hartree)=     27.000   => boxcut(ratio)=   2.02348

--- Pseudopotential description ------------------------------------------------
- pspini: atom type   1  psp file is /scratch/users/j/a/jabreu/pseudos/PBEsol/Rb.psp8
- pspatm: opening atomic psp file    /scratch/users/j/a/jabreu/pseudos/PBEsol/Rb.psp8
- Rb    ONCVPSP-3.3.0  r_core=   1.71227   1.75361   1.90633
- 37.00000   9.00000    180112                znucl, zion, pspdat
    8 -116133    2    4       600   0.00000   pspcod,pspxc,lmax,lloc,mmax,r2well
    5.99000000000000    7.00000000000000    0.00000000000000   rchrg,fchrg,qchrg
     nproj     2     2     2
     extension_switch     1
  pspatm : epsatm=   34.48400912
         --- l  ekb(1:nproj) -->
             0    8.196957   -0.477221
             1    3.231347   -0.378736
             2   -1.047201    0.996637
 pspatm: atomic psp has been read  and splines computed

- pspini: atom type   2  psp file is /scratch/users/j/a/jabreu/pseudos/PBEsol/P.psp8
- pspatm: opening atomic psp file    /scratch/users/j/a/jabreu/pseudos/PBEsol/P.psp8
- P     ONCVPSP-3.3.0  r_core=   1.46089   1.55067   1.70594
- 15.00000   5.00000    180112                znucl, zion, pspdat
    8 -116133    2    4       600   0.00000   pspcod,pspxc,lmax,lloc,mmax,r2well
    5.99000000000000    5.00000000000000    0.00000000000000   rchrg,fchrg,qchrg
     nproj     2     2     2
     extension_switch     1
  pspatm : epsatm=    7.31221086
         --- l  ekb(1:nproj) -->
             0    6.742364    1.063650
             1    3.449117    0.910422
             2   -3.077645   -0.799176
 pspatm: atomic psp has been read  and splines computed

- pspini: atom type   3  psp file is /scratch/users/j/a/jabreu/pseudos/PBEsol/S.psp8
- pspatm: opening atomic psp file    /scratch/users/j/a/jabreu/pseudos/PBEsol/S.psp8
- S     ONCVPSP-3.3.0  r_core=   1.45376   1.45376   1.61851
- 16.00000   6.00000    180112                znucl, zion, pspdat
    8 -116133    2    4       600   0.00000   pspcod,pspxc,lmax,lloc,mmax,r2well
    5.99000000000000    6.00000000000000    0.00000000000000   rchrg,fchrg,qchrg
     nproj     2     2     2
     extension_switch     1
  pspatm : epsatm=    8.71840985
         --- l  ekb(1:nproj) -->
             0    6.834532    0.579453
             1    3.282851    0.896984
             2   -3.496974   -0.974265
 pspatm: atomic psp has been read  and splines computed

   8.69778554E+03                                ecore*ucvol(ha*bohr**3)

 ==>  initialize data related to q vector <==

 The list of irreducible perturbations for this q vector is:
    1)    idir= 1    ipert=  11
    2)    idir= 2    ipert=  11
    3)    idir= 3    ipert=  11

 Perturbation wavevector (in red.coord.)   0.000000  0.000000  0.000000
 Perturbation : derivative vs k along direction   1

 dfpt_looppert : COMMENT -
  In a d/dk calculation, iscf is set to -3 automatically.
 The set of symmetries contains only one element for this perturbation.
 symkpt : not enough symmetry to change the number of k points.

 Initialisation of the first-order wave-functions :
  ireadwf=   0

--- !BeginCycle
iteration_state: {dtset: 1, }
solver: {iscf: 7, nstep: 2000, nline: 4, wfoptalg: 0, }
tolerances: {tolwfr: 1.00E-20, }
...

     iter   2DEtotal(Ha)        deltaE(Ha) residm    vres2
-ETOT  1  -16.896902546109     -1.690E+01 9.654E-02 0.000E+00
 ETOT  2  -16.923662482623     -2.676E-02 2.516E-03 0.000E+00
 ETOT  3  -16.923820162777     -1.577E-04 1.342E-04 0.000E+00
 ETOT  4  -16.923821680663     -1.518E-06 9.982E-06 0.000E+00
 ETOT  5  -16.923821698913     -1.825E-08 1.320E-06 0.000E+00
 ETOT  6  -16.923821699167     -2.542E-10 1.176E-07 0.000E+00
 ETOT  7  -16.923821699171     -3.975E-12 1.526E-08 0.000E+00
 ETOT  8  -16.923821699172     -1.137E-13 1.421E-09 0.000E+00
 ETOT  9  -16.923821699172      3.553E-15 1.828E-10 0.000E+00
 ETOT 10  -16.923821699172      7.105E-15 1.735E-11 0.000E+00
 ETOT 11  -16.923821699172      1.421E-14 2.225E-12 0.000E+00
 ETOT 12  -16.923821699172      0.000E+00 2.264E-13 0.000E+00
 ETOT 13  -16.923821699172     -3.553E-15 2.733E-14 0.000E+00
 ETOT 14  -16.923821699172      0.000E+00 3.495E-15 0.000E+00
 ETOT 15  -16.923821699172      3.553E-15 3.667E-16 0.000E+00
 ETOT 16  -16.923821699172     -3.553E-15 5.438E-17 0.000E+00
 ETOT 17  -16.923821699172      0.000E+00 5.780E-18 0.000E+00
 ETOT 18  -16.923821699172      0.000E+00 8.534E-19 0.000E+00
 ETOT 19  -16.923821699172      3.553E-15 9.179E-20 0.000E+00
 ETOT 20  -16.923821699172      7.105E-15 1.351E-20 0.000E+00
 ETOT 21  -16.923821699172     -7.105E-15 9.785E-21 0.000E+00

 At SCF step   21   max residual=  9.78E-21 < tolwfr=  1.00E-20 =>converged.

 ----iterations are completed or convergence reached----

 dfpt_looppert: DFPT cycle converged with prtwf=-1. Will skip output of the 1st-order WFK file.
 dfpt_looppert : ek2=    3.6307717698E+01
          f-sum rule ratio=    9.7120959415E-01
 prteigrs : about to open file /scratch/users/j/a/jabreu/flow_simple_10atoms/flow/w485/t1/tmpdata/tmp_1WF1_EIG
 Expectation of eigenvalue derivatives (hartree) for nkpt=   2  k points:
  (in case of degenerate eigenvalues, averaged derivative)
 kpt#   1, nband= 41, wtk=  0.50000, kpt=  0.1667  0.1667 -0.1667 (reduced coord)
   0.00005   -0.00003    0.00191   -0.00453   -0.00074   -0.00416   -0.00674    0.00370
  -0.00031    0.00602    0.00282    0.00114    0.00314    0.00028    0.00634    0.03632
   0.00535   -0.03104    0.01804   -0.01538   -0.01874    0.01127    0.01627    0.00942
  -0.01411   -0.07174   -0.06544   -0.03995    0.00124   -0.01795   -0.00642   -0.00045
   0.00138    0.06295    0.04157    0.05682   -0.02612    0.06642    0.05974    0.10726
   0.05064
 prteigrs : prtvol=0 or 1, do not print more k-points.

 Eight components of 2nd-order total energy (hartree) are
 1,2,3: 0th-order hamiltonian combined with 1st-order wavefunctions
     kin0=   2.37688948E+01 eigvalue=   1.53619636E+00  local=  -1.36632764E+01
 4,5,6: 1st-order hamiltonian combined with 1st and 0th-order wfs
     kin1=  -3.52624038E+01  Hartree=   0.00000000E+00     xc=   0.00000000E+00
 7,8,9: eventually, occupation + non-local contributions
    edocc=   4.31575394E+00     enl0=   9.66253018E-01   enl1=   1.41476037E+00
 1-9 gives the relaxation energy (to be shifted if some occ is /=2.0)
   erelax=  -1.69238217E+01
  No Ewald or frozen-wf contrib.: the relaxation energy is the total one
 2DEtotal=   -0.1692382170E+02 Ha. Also 2DEtotal=   -0.460520608634E+03 eV
    (  non-var. 2DEtotal :   -1.6923821699E+01 Ha)

 Perturbation wavevector (in red.coord.)   0.000000  0.000000  0.000000
 Perturbation : derivative vs k along direction   2
 The set of symmetries contains only one element for this perturbation.
 symkpt : not enough symmetry to change the number of k points.

[...]

 Perturbation wavevector (in red.coord.)   0.000000  0.000000  0.000000
 Perturbation : derivative vs k along direction   3
 The set of symmetries contains only one element for this perturbation.
 symkpt : not enough symmetry to change the number of k points.

 Initialisation of the first-order wave-functions :
  ireadwf=   0

--- !BeginCycle
iteration_state: {dtset: 1, }
solver: {iscf: 7, nstep: 2000, nline: 4, wfoptalg: 0, }
tolerances: {tolwfr: 1.00E-20, }
...

     iter   2DEtotal(Ha)        deltaE(Ha) residm    vres2
-ETOT  1  -27.030961691976     -2.703E+01 4.794E-02 0.000E+00
 ETOT  2  -27.080873876049     -4.991E-02 1.717E-03 0.000E+00
 ETOT  3  -27.081286148096     -4.123E-04 7.192E-05 0.000E+00
 ETOT  4  -27.081290488755     -4.341E-06 7.690E-06 0.000E+00
 ETOT  5  -27.081290540582     -5.183E-08 1.946E-06 0.000E+00
 ETOT  6  -27.081290541248     -6.660E-10 3.061E-07 0.000E+00
 ETOT  7  -27.081290541257     -9.045E-12 5.438E-08 0.000E+00
 ETOT  8  -27.081290541257     -1.350E-13 9.162E-09 0.000E+00
 ETOT  9  -27.081290541257     -7.105E-15 1.618E-09 0.000E+00
 ETOT 10  -27.081290541257     -2.132E-14 2.932E-10 0.000E+00
 ETOT 11  -27.081290541257     -3.553E-15 5.482E-11 0.000E+00
 ETOT 12  -27.081290541257     -3.553E-15 9.777E-12 0.000E+00
 ETOT 13  -27.081290541257      7.105E-15 1.980E-12 0.000E+00
 ETOT 14  -27.081290541257      0.000E+00 3.451E-13 0.000E+00
 ETOT 15  -27.081290541257      7.105E-15 7.351E-14 0.000E+00
 ETOT 16  -27.081290541257     -1.066E-14 1.263E-14 0.000E+00
 ETOT 17  -27.081290541257      3.553E-15 2.759E-15 0.000E+00
 ETOT 18  -27.081290541257     -3.553E-15 4.697E-16 0.000E+00
 ETOT 19  -27.081290541257      1.066E-14 1.040E-16 0.000E+00
 ETOT 20  -27.081290541257     -7.105E-15 1.761E-17 0.000E+00
 ETOT 21  -27.081290541257      0.000E+00 3.935E-18 0.000E+00
 ETOT 22  -27.081290541257      7.105E-15 6.630E-19 0.000E+00
 ETOT 23  -27.081290541257     -7.105E-15 1.492E-19 0.000E+00
 ETOT 24  -27.081290541257      0.000E+00 2.505E-20 0.000E+00
 ETOT 25  -27.081290541257      1.066E-14 9.691E-21 0.000E+00

 At SCF step   25   max residual=  9.69E-21 < tolwfr=  1.00E-20 =>converged.

 ----iterations are completed or convergence reached----

 dfpt_looppert: DFPT cycle converged with prtwf=-1. Will skip output of the 1st-order WFK file.
 dfpt_looppert : ek2=    4.9280289096E+01
          f-sum rule ratio=    1.1489620382E+00
 prteigrs : about to open file /scratch/users/j/a/jabreu/flow_simple_10atoms/flow/w485/t1/tmpdata/tmp_1WF1_EIG
 Expectation of eigenvalue derivatives (hartree) for nkpt=   2  k points:
  (in case of degenerate eigenvalues, averaged derivative)
 kpt#   1, nband= 41, wtk=  0.50000, kpt=  0.1667  0.1667 -0.1667 (reduced coord)
  -0.00000   -0.00000   -0.00000    0.00000    0.00000    0.00000   -0.00000    0.00000
   0.00000   -0.00000    0.00000   -0.00000    0.00000    0.00000   -0.00000   -0.00000
   0.00000   -0.00000    0.00000    0.00000   -0.00000    0.00000    0.00000    0.00000
   0.00000   -0.00000   -0.00000    0.00000   -0.00000    0.00000   -0.00000   -0.00000
   0.00000    0.00000   -0.00000    0.00000   -0.00000    0.00000   -0.00000   -0.00000
   0.00018
 prteigrs : prtvol=0 or 1, do not print more k-points.

 Eight components of 2nd-order total energy (hartree) are
 1,2,3: 0th-order hamiltonian combined with 1st-order wavefunctions
     kin0=   3.30432221E+01 eigvalue=   2.01402064E+00  local=  -1.92569772E+01
 4,5,6: 1st-order hamiltonian combined with 1st and 0th-order wfs
     kin1=  -5.66211814E+01  Hartree=   0.00000000E+00     xc=   0.00000000E+00
 7,8,9: eventually, occupation + non-local contributions
    edocc=   9.88389939E+00     enl0=   1.39712556E+00   enl1=   2.45860032E+00
 1-9 gives the relaxation energy (to be shifted if some occ is /=2.0)
   erelax=  -2.70812905E+01
  No Ewald or frozen-wf contrib.: the relaxation energy is the total one
 2DEtotal=   -0.2708129054E+02 Ha. Also 2DEtotal=   -0.736919392342E+03 eV
    (  non-var. 2DEtotal :   -2.7081290541E+01 Ha)

 CALCULATION OF EFFECTIVE MASSES
 NOTE : Additional infos (eff. mass eigenvalues, eigenvectors and, if degenerate, average mass) are available in stdout.

 K-point ( 0.167, 0.167,-0.167) | band =    32
 Effective mass tensor:
            -10.3856816984             -0.1583857090             -7.0029651144
             -0.1583857090             -0.7021201392              0.2154767056
             -7.0029651144              0.2154767056             -6.0062356771
 Effective mass tensor eigenvalues:
            -15.5332883966             -1.0590141070             -0.5017350111
 Angular average effective mass 1/(<1/m>)=  -0.9994215656
 Angular average effective mass for Frohlich model (<m**0.5>)**2=  -1.3728612480
 Effective masses along directions: (cart. coord. / red. coord. -> eff. mass)
    1:   1.000000  0.000000  0.000000 /   0.941003 -0.338397  0.000000 ->  -1.9789455868
    2:   0.000000  1.000000  0.000000 /   0.000000  1.000000  0.000000 ->  -0.6188289329
    3:   0.000000  0.000000  1.000000 /  -0.254672 -0.454894  0.853355 ->  -1.1357683490
    4:   0.577350  0.577350  0.577350 /   0.546485 -0.085774  0.833065 ->  -1.4874491829
    5:   0.000000  0.707107  0.707107 /  -0.278682  0.224360  0.933809 ->  -0.6046910473
    6:   0.707107  0.000000  0.707107 /   0.442451 -0.591035  0.674474 -> -10.7504433078
    7:   0.707107  0.707107  0.000000 /   0.911703  0.410849  0.000000 ->  -1.3113903153

 K-point ( 0.500, 0.000, 0.000) | band =    33
 Effective mass tensor:
              4.5759647188              0.9343155566              1.3720388465
              0.9343155566              0.7794435575              0.3966428818
              1.3720388465              0.3966428818              0.9558743976
 Effective mass tensor eigenvalues:
              0.4414557165              0.6042604276              5.2655665298
 Angular average effective mass 1/(<1/m>)=   0.7299160771
 Angular average effective mass for Frohlich model (<m**0.5>)**2=   0.8949655955
 Effective masses along directions: (cart. coord. / red. coord. -> eff. mass)
    1:   1.000000  0.000000  0.000000 /   0.941003 -0.338397  0.000000 ->   2.3899155754
    2:   0.000000  1.000000  0.000000 /   0.000000  1.000000  0.000000 ->   0.5637487468
    3:   0.000000  0.000000  1.000000 /  -0.254672 -0.454894  0.853355 ->   0.5214316600
    4:   0.577350  0.577350  0.577350 /   0.546485 -0.085774  0.833065 ->   1.6136331147
    5:   0.000000  0.707107  0.707107 /  -0.278682  0.224360  0.933809 ->   0.6819987834
    6:   0.707107  0.000000  0.707107 /   0.442451 -0.591035  0.674474 ->   1.4912454164
    7:   0.707107  0.707107  0.000000 /   0.911703  0.410849  0.000000 ->   1.1795910942

 END OF EFFECTIVE MASSES SECTION

 ---- first-order wavefunction calculations are completed ----

 Total localisation tensor (bohr^2) in cartesian coordinates
  WARNING : still subject to testing - especially symmetries.
      direction              matrix element
   alpha     beta       real part   imaginary part
     1        1       1.7485248692    0.0000000000
     1        2      -0.7981657654    0.0000000000
     1        3       0.1142166287    0.0000000000
     2        1      -0.7981657654    0.0000000000
     2        2       1.7983642590    0.0000000000
     2        3      -1.2396349226    0.0000000000
     3        1       0.1142166287    0.0000000000
     3        2      -1.2396349226    0.0000000000
     3        3       4.0056541360    0.0000000000

 respfn : d/dk was computed, but no 2DTE, so no DDB output.

== END DATASET(S) ==============================================================

 -outvars: echo values of variables after computation  --------
            acell      1.0000000000E+00  1.0000000000E+00  1.0000000000E+00 Bohr
              amu      8.54678000E+01  3.09737620E+01  3.20660000E+01
             ecut      2.70000000E+01 Hartree
           etotal     -2.7081290541E+01
            fcart      0.0000000000E+00  0.0000000000E+00  0.0000000000E+00
                       0.0000000000E+00  0.0000000000E+00  0.0000000000E+00
                       0.0000000000E+00  0.0000000000E+00  0.0000000000E+00
                       0.0000000000E+00  0.0000000000E+00  0.0000000000E+00
                       0.0000000000E+00  0.0000000000E+00  0.0000000000E+00
                       0.0000000000E+00  0.0000000000E+00  0.0000000000E+00
                       0.0000000000E+00  0.0000000000E+00  0.0000000000E+00
                       0.0000000000E+00  0.0000000000E+00  0.0000000000E+00
                       0.0000000000E+00  0.0000000000E+00  0.0000000000E+00
                       0.0000000000E+00  0.0000000000E+00  0.0000000000E+00
-          fftalg         512
           irdden           1
           irdwfk           1
           istwfk        0    1
              ixc     -116133
              kpt      1.66666667E-01  1.66666667E-01 -1.66666667E-01
                       5.00000000E-01  0.00000000E+00  0.00000000E+00
           kptopt           0
P           mkmem           2
P          mkqmem           2
P          mk1mem           2
            natom          10
            nband          41
           nbdbuf           4
            ngfft          64      64      64
             nkpt           2
            nstep        2000
             nsym           8
           ntypat           3
              occ      2.000000  2.000000  2.000000  2.000000  2.000000  2.000000
                       2.000000  2.000000  2.000000  2.000000  2.000000  2.000000
                       2.000000  2.000000  2.000000  2.000000  2.000000  2.000000
                       2.000000  2.000000  2.000000  2.000000  2.000000  2.000000
                       2.000000  2.000000  2.000000  2.000000  2.000000  2.000000
                       2.000000  2.000000  0.000000  0.000000  0.000000  0.000000
                       0.000000  0.000000  0.000000  0.000000  0.000000
        optdriver           1
            prtwf          -1
            rfdir           1       1       1
           rfelfd           2
            rprim      1.2907125825E+01  0.0000000000E+00 -4.0358629345E+00
                      -4.6415738453E+00  1.0458028734E+01 -7.2088496953E+00
                       0.0000000000E+00  0.0000000000E+00  1.3523390355E+01
          spgroup          71
           strten      0.0000000000E+00  0.0000000000E+00  0.0000000000E+00
                       0.0000000000E+00  0.0000000000E+00  0.0000000000E+00
           symrel      1  0  0   0  1  0   0  0  1      -1  0  0   0 -1  0   0  0 -1
                       0  0  1  -1 -1 -1   1  0  0       0  0 -1   1  1  1  -1  0  0
                      -1 -1 -1   0  0  1   0  1  0       1  1  1   0  0 -1   0 -1  0
                       0  1  0   1  0  0  -1 -1 -1       0 -1  0  -1  0  0   1  1  1
           tolwfr      1.00000000E-20
            typat      1  1  2  2  3  3  3  3  3  3
           useylm           1
              wtk        0.50000    0.50000
           xangst      1.7723983729E+00  0.0000000000E+00  1.3028212780E+00
                       5.0577584422E+00  0.0000000000E+00  3.7177619988E+00
                       2.8852356668E+00  3.6505580730E+00 -3.9251638634E+00
                       1.4887060574E+00  1.8835923798E+00 -2.0252817774E+00
                       3.4497575747E+00  2.7670752264E+00 -2.0469973019E+00
                       3.9691930743E+00  2.8979246797E+00  1.7564569030E+00
                      -8.4402548933E-01  5.4498653415E+00  1.1482383884E+00
                       9.2418414949E-01  2.7670752264E+00  3.2528216198E+00
                       5.2179672135E+00  8.4285111397E-02  5.7585929538E-02
                       4.0474864991E-01  2.6362257731E+00 -5.5063258511E-01
            xcart      3.3493475231E+00  0.0000000000E+00  2.4619754155E+00
                       9.5577783021E+00  0.0000000000E+00  7.0255520050E+00
                       5.4523052391E+00  6.8985549902E+00 -7.4174847285E+00
                       2.8132467408E+00  3.5594737439E+00 -3.8272279013E+00
                       6.5190970410E+00  5.2290143670E+00 -3.8682642953E+00
                       7.5006878789E+00  5.4762839984E+00  3.3192225109E+00
                      -1.5949770240E+00  1.0298752956E+01  2.1698560893E+00
                       1.7464549389E+00  5.2290143670E+00  6.1469420205E+00
                       9.8605290039E+00  1.5927577762E-01  1.0882163593E-01
                       7.6486410098E-01  4.9817447357E+00 -1.0405447857E+00
             xred      2.5949600000E-01  0.0000000000E+00  2.5949600000E-01
                       7.4050400000E-01  0.0000000000E+00  7.4050400000E-01
                       6.5964200000E-01  6.5964200000E-01 -8.3266726847E-17
                       3.4035800000E-01  3.4035800000E-01 -8.3266726847E-17
                       6.8488400000E-01  5.0000000000E-01  1.8488400000E-01
                       7.6943700000E-01  5.2364400000E-01  7.5420700000E-01
                       2.3056300000E-01  9.8477000000E-01  7.5420700000E-01
                       3.1511600000E-01  5.0000000000E-01  8.1511600000E-01
                       7.6943700000E-01  1.5230000000E-02  2.4579300000E-01
                       2.3056300000E-01  4.7635600000E-01  2.4579300000E-01
            znucl       37.00000   15.00000   16.00000

- Timing analysis has been suppressed with timopt=0

 Suggested references for the acknowledgment of ABINIT usage.

 Calculation completed.
.Delivered   2 WARNINGs and   5 COMMENTs to log file.