.Version 9.5.1 of ABINIT

 ABINIT is a project of the Universite Catholique de Louvain,
 Corning Inc. and other collaborators, see ~abinit/doc/developers/contributors.txt .
 acknowledgments of the ABINIT effort.

.Starting date : Tue 11 May 2021.
- ( at 21h21 )

- input  file    -> /scratch/users/j/a/jabreu/flow_simple_8atoms/flow/w291/t1/run.abi
- output file    -> /scratch/users/j/a/jabreu/flow_simple_8atoms/flow/w291/t1/run.abo
- root for input  files -> /scratch/users/j/a/jabreu/flow_simple_8atoms/flow/w291/t1/indata/in
- root for output files -> /scratch/users/j/a/jabreu/flow_simple_8atoms/flow/w291/t1/outdata/out

 Symmetries : space group C2/c (# 15); Bravais mC (1-face-center monocl.)
     intxc =       0      iscf =       7    lmnmax =      18     lnmax =       6
     mgfft =      80  mpssoang =       3    mqgrid =    3203     natom =       8
  nloc_mem =       1    nspden =       1   nspinor =       1    nsppol =       1
      nsym =       4    n1xccc =    2501    ntypat =       3    occopt =       1
   xclevel =       2
-    mband =          45        mffmem =           1         mkmem =           2
-   mkqmem =           2        mk1mem =           2           mpw =       17421
      nfft =      414720          nkpt =           2
  Rough estimation (10% accuracy) of disk space for files :

------------- Echo of variables that govern the present computation ------------
-
- outvars: echo of selected default values
-   iomode0 =  0 , fftalg0 =512 , wfoptalg0 =  0
-
- outvars: echo of global parameters not present in the input file
-  max_nthreads =    0
-
 -outvars: echo values of preprocessed input variables --------
            acell      1.0000000000E+00  1.0000000000E+00  1.0000000000E+00 Bohr
              amu      2.29897680E+01  1.21753000E+02  3.20660000E+01
             ecut      4.40000000E+01 Hartree
-          fftalg         512
           irdden           1
           irdwfk           1
              ixc     -116133
              kpt      5.00000000E-01 -5.00000000E-01 -5.55111512E-17
                       5.02565144E-01  5.02565144E-01  4.20841276E-01
           kptopt           0
P           mkmem           2
P          mkqmem           2
P          mk1mem           2
            natom           8
            nband          45
           nbdbuf           4
            ngfft          72      72      80
             nkpt           2
            nstep        2000
             nsym           4
           ntypat           3
              occ      2.000000  2.000000  2.000000  2.000000  2.000000  2.000000
                       2.000000  2.000000  2.000000  2.000000  2.000000  2.000000
                       2.000000  2.000000  2.000000  2.000000  2.000000  2.000000
                       2.000000  2.000000  2.000000  2.000000  2.000000  2.000000
                       2.000000  2.000000  2.000000  2.000000  2.000000  2.000000
                       2.000000  2.000000  2.000000  2.000000  2.000000  2.000000
                       0.000000  0.000000  0.000000  0.000000  0.000000  0.000000
                       0.000000  0.000000  0.000000
        optdriver           1
            prtwf          -1
            rfdir           1       1       1
           rfelfd           2
            rprim      9.9250804558E+00  0.0000000000E+00  4.2118163538E+00
                      -1.8385971914E+00  9.7532959773E+00  4.2118163538E+00
                       0.0000000000E+00  0.0000000000E+00  1.2880569835E+01
          spgroup          15
           symrel      1  0  0   0  1  0   0  0  1      -1  0  0   0 -1  0   0  0 -1
                       0 -1  0  -1  0  0   0  0 -1       0  1  0   1  0  0   0  0  1
            tnons      0.0000000  0.0000000  0.0000000    -0.0000000  0.0000000  0.0000000
                      -0.0000000 -0.0000000  0.5000000     0.0000000  0.0000000  0.5000000
           tolwfr      1.00000000E-20
            typat      1  1  2  2  3  3  3  3
           useylm           1
              wtk        0.50000    0.50000
           xangst      1.3111403165E+00  3.2674818693E+00  3.9328232188E+00
                       2.9680423247E+00  1.8937400705E+00  7.3408752139E+00
                      -3.1558877704E-01  4.6162072254E+00  7.3408752139E+00
                       4.5947714182E+00  5.4501471440E-01  3.9328232188E+00
                       3.9132290173E+00  3.4985549368E+00  5.0528111067E+00
                       1.5660973386E+00  6.6762470280E-01  2.8128353308E+00
                       3.6595362387E-01  1.6626670030E+00  6.2208873260E+00
                       2.7130853026E+00  4.4935972370E+00  8.4608631018E+00
            xcart      2.4776961199E+00  6.1746458772E+00  7.4319588125E+00
                       5.6087871445E+00  3.5786501001E+00  1.3872243730E+01
                      -5.9637635921E-01  8.7233674287E+00  1.3872243730E+01
                       8.6828596236E+00  1.0299285486E+00  7.4319588125E+00
                       7.3949311379E+00  6.6113106914E+00  9.5484291928E+00
                       2.9594950674E+00  1.2616278478E+00  5.3154884322E+00
                       6.9155212646E-01  3.1419852859E+00  1.1755773350E+01
                       5.1269881970E+00  8.4916681295E+00  1.5988714110E+01
             xred      3.6691700000E-01  6.3308300000E-01  2.5000000000E-01
                       6.3308300000E-01  3.6691700000E-01  7.5000000000E-01
                       1.0559800000E-01  8.9440200000E-01  7.5000000000E-01
                       8.9440200000E-01  1.0559800000E-01  2.5000000000E-01
                       8.7064600000E-01  6.7785400000E-01  2.3496100000E-01
                       3.2214600000E-01  1.2935400000E-01  2.6503900000E-01
                       1.2935400000E-01  3.2214600000E-01  7.6503900000E-01
                       6.7785400000E-01  8.7064600000E-01  7.3496100000E-01
            znucl       11.00000   51.00000   16.00000

 chkinp: Checking input parameters for consistency.

== DATASET  1 ==================================================================
-   mpi_nproc: 1, omp_nthreads: -1 (-1 if OMP is not activated)

--- !DatasetInfo
iteration_state: {dtset: 1, }
dimensions: {natom: 8, nkpt: 2, mband: 45, nsppol: 1, nspinor: 1, nspden: 1, mpw: 17421, }
cutoff_energies: {ecut:  44.0, pawecutdg:  -1.0, }
electrons: {nelect:   7.20000000E+01, charge:   0.00000000E+00, occopt:   1.00000000E+00, tsmear:   1.00000000E-02, }
meta: {optdriver: 1, rfelfd: 2, }
...

 Real(R)+Recip(G) space primitive vectors, cartesian coordinates (Bohr,Bohr^-1):
 R(1)=  9.9250805  0.0000000  4.2118164  G(1)=  0.1007549  0.0189933  0.0000000
 R(2)= -1.8385972  9.7532960  4.2118164  G(2)=  0.0000000  0.1025294  0.0000000
 R(3)=  0.0000000  0.0000000 12.8805698  G(3)= -0.0329458 -0.0397367  0.0776363
 Unit cell volume ucvol=  1.2468681E+03 bohr^3
 Angles (23,13,12)=  6.70055293E+01  6.70055293E+01  9.02507926E+01 degrees

 getcut: wavevector=  0.0000  0.0000  0.0000  ngfft=  72  72  80
         ecut(hartree)=     44.000   => boxcut(ratio)=   2.08002

--- Pseudopotential description ------------------------------------------------
- pspini: atom type   1  psp file is /scratch/users/j/a/jabreu/pseudos/PBEsol/Na.psp8
- pspatm: opening atomic psp file    /scratch/users/j/a/jabreu/pseudos/PBEsol/Na.psp8
- Na    ONCVPSP-3.3.0  r_core=   1.20708   1.55069
- 11.00000   9.00000    180112                znucl, zion, pspdat
    8 -116133    1    4       400   0.00000   pspcod,pspxc,lmax,lloc,mmax,r2well
    3.99000000000000    0.00000000000000    0.00000000000000   rchrg,fchrg,qchrg
     nproj     2     2
     extension_switch     1
  pspatm : epsatm=    9.32878306
         --- l  ekb(1:nproj) -->
             0    2.657905   -0.678300
             1   -6.761319   -2.404728
 pspatm: atomic psp has been read  and splines computed

- pspini: atom type   2  psp file is /scratch/users/j/a/jabreu/pseudos/PBEsol/Sb.psp8
- pspatm: opening atomic psp file    /scratch/users/j/a/jabreu/pseudos/PBEsol/Sb.psp8
- Sb    ONCVPSP-3.3.0  r_core=   1.81962   2.12485   1.81962
- 51.00000  15.00000    180112                znucl, zion, pspdat
    8 -116133    2    4       600   0.00000   pspcod,pspxc,lmax,lloc,mmax,r2well
    5.99000000000000    5.00000000000000    0.00000000000000   rchrg,fchrg,qchrg
     nproj     2     2     2
     extension_switch     1
  pspatm : epsatm=   26.35641246
         --- l  ekb(1:nproj) -->
             0    9.727814    1.485032
             1    5.505335    0.704623
             2   -4.710637   -1.436443
 pspatm: atomic psp has been read  and splines computed

- pspini: atom type   3  psp file is /scratch/users/j/a/jabreu/pseudos/PBEsol/S.psp8
- pspatm: opening atomic psp file    /scratch/users/j/a/jabreu/pseudos/PBEsol/S.psp8
- S     ONCVPSP-3.3.0  r_core=   1.45376   1.45376   1.61851
- 16.00000   6.00000    180112                znucl, zion, pspdat
    8 -116133    2    4       600   0.00000   pspcod,pspxc,lmax,lloc,mmax,r2well
    5.99000000000000    6.00000000000000    0.00000000000000   rchrg,fchrg,qchrg
     nproj     2     2     2
     extension_switch     1
  pspatm : epsatm=    8.71840985
         --- l  ekb(1:nproj) -->
             0    6.834532    0.579453
             1    3.282851    0.896984
             2   -3.496974   -0.974265
 pspatm: atomic psp has been read  and splines computed

   7.64957019E+03                                ecore*ucvol(ha*bohr**3)

-inwffil : will read wavefunctions from disk file /scratch/users/j/a/jabreu/flow_simple_8atoms/flow/w291/t1/indata/in_WFK

 ==>  initialize data related to q vector <==

 The list of irreducible perturbations for this q vector is:
    1)    idir= 1    ipert=   9
    2)    idir= 2    ipert=   9
    3)    idir= 3    ipert=   9

 Perturbation wavevector (in red.coord.)   0.000000  0.000000  0.000000
 Perturbation : derivative vs k along direction   1

 dfpt_looppert : COMMENT -
  In a d/dk calculation, iscf is set to -3 automatically.
 The set of symmetries contains only one element for this perturbation.
 symkpt : not enough symmetry to change the number of k points.

[...]

 Initialisation of the first-order wave-functions :
  ireadwf=   0

--- !BeginCycle
iteration_state: {dtset: 1, }
solver: {iscf: 7, nstep: 2000, nline: 4, wfoptalg: 0, }
tolerances: {tolwfr: 1.00E-20, }
...

     iter   2DEtotal(Ha)        deltaE(Ha) residm    vres2
-ETOT  1  -56.376456605553     -5.638E+01 2.982E-02 0.000E+00
 ETOT  2  -56.438700739327     -6.224E-02 7.073E-04 0.000E+00
 ETOT  3  -56.439101596168     -4.009E-04 9.410E-06 0.000E+00
 ETOT  4  -56.439105984088     -4.388E-06 3.479E-07 0.000E+00
 ETOT  5  -56.439106037772     -5.368E-08 5.395E-09 0.000E+00
 ETOT  6  -56.439106038467     -6.948E-10 2.153E-10 0.000E+00
 ETOT  7  -56.439106038476     -9.365E-12 3.409E-12 0.000E+00
 ETOT  8  -56.439106038476     -1.350E-13 1.427E-13 0.000E+00
 ETOT  9  -56.439106038476      7.105E-15 2.207E-15 0.000E+00
 ETOT 10  -56.439106038476     -1.421E-14 9.865E-17 0.000E+00
 ETOT 11  -56.439106038476     -5.684E-14 1.451E-18 0.000E+00
 ETOT 12  -56.439106038476     -7.105E-15 7.050E-20 0.000E+00
 ETOT 13  -56.439106038476     -2.132E-14 9.787E-21 0.000E+00

 At SCF step   13   max residual=  9.79E-21 < tolwfr=  1.00E-20 =>converged.

 ----iterations are completed or convergence reached----

 dfpt_looppert: DFPT cycle converged with prtwf=-1. Will skip output of the 1st-order WFK file.
 dfpt_looppert : ek2=    5.9761215404E+01
          f-sum rule ratio=    1.3486811447E+00
 prteigrs : about to open file /scratch/users/j/a/jabreu/flow_simple_8atoms/flow/w291/t1/tmpdata/tmp_1WF1_EIG
 Expectation of eigenvalue derivatives (hartree) for nkpt=   2  k points:
  (in case of degenerate eigenvalues, averaged derivative)
 kpt#   1, nband= 45, wtk=  0.50000, kpt=  0.5000 -0.5000  0.0000 (reduced coord)
   0.00000   -0.00000   -0.00000   -0.00000   -0.00000   -0.00000    0.00000    0.00000
  -0.00000    0.00000   -0.00000   -0.00000    0.00000    0.00000    0.00000    0.00000
  -0.00000    0.00000    0.00000   -0.00000   -0.00000   -0.00000   -0.00000    0.00000
   0.00000    0.00000    0.00000   -0.00000    0.00000    0.00000   -0.00000    0.00000
  -0.00000    0.00000   -0.00000    0.00000   -0.00000    0.00000    0.00000    0.00000
  -0.00000   -0.00000    0.00000    0.00006   -0.03236
 prteigrs : prtvol=0 or 1, do not print more k-points.

 Eight components of 2nd-order total energy (hartree) are
 1,2,3: 0th-order hamiltonian combined with 1st-order wavefunctions
     kin0=   5.31489239E+01 eigvalue=   6.06001046E+00  local=  -2.78006106E+01
 4,5,6: 1st-order hamiltonian combined with 1st and 0th-order wfs
     kin1=  -8.05988244E+01  Hartree=   0.00000000E+00     xc=   0.00000000E+00
 7,8,9: eventually, occupation + non-local contributions
    edocc=   1.93660070E+01     enl0=   5.66477534E+00   enl1=  -3.22793877E+01
 1-9 gives the relaxation energy (to be shifted if some occ is /=2.0)
   erelax=  -5.64391060E+01
  No Ewald or frozen-wf contrib.: the relaxation energy is the total one
 2DEtotal=   -0.5643910604E+02 Ha. Also 2DEtotal=   -0.153578617913E+04 eV
    (  non-var. 2DEtotal :   -5.6439106038E+01 Ha)

 Perturbation wavevector (in red.coord.)   0.000000  0.000000  0.000000
 Perturbation : derivative vs k along direction   2
 The set of symmetries contains only one element for this perturbation.
 symkpt : not enough symmetry to change the number of k points.

[...]

 Perturbation wavevector (in red.coord.)   0.000000  0.000000  0.000000
 Perturbation : derivative vs k along direction   3
 The set of symmetries contains only one element for this perturbation.
 symkpt : not enough symmetry to change the number of k points.

-inwffil : will read wavefunctions from disk file /scratch/users/j/a/jabreu/flow_simple_8atoms/flow/w291/t1/indata/in_WFK

 Initialisation of the first-order wave-functions :
  ireadwf=   0

--- !BeginCycle
iteration_state: {dtset: 1, }
solver: {iscf: 7, nstep: 2000, nline: 4, wfoptalg: 0, }
tolerances: {tolwfr: 1.00E-20, }
...

     iter   2DEtotal(Ha)        deltaE(Ha) residm    vres2
-ETOT  1  -38.323683864755     -3.832E+01 9.223E-02 0.000E+00
 ETOT  2  -38.366233853112     -4.255E-02 1.608E-03 0.000E+00
 ETOT  3  -38.366428052552     -1.942E-04 4.297E-05 0.000E+00
 ETOT  4  -38.366429987873     -1.935E-06 1.143E-06 0.000E+00
 ETOT  5  -38.366430010117     -2.224E-08 3.171E-08 0.000E+00
 ETOT  6  -38.366430010390     -2.724E-10 1.096E-09 0.000E+00
 ETOT  7  -38.366430010393     -3.496E-12 3.187E-11 0.000E+00
 ETOT  8  -38.366430010393     -4.974E-14 1.173E-12 0.000E+00
 ETOT  9  -38.366430010393      7.105E-15 3.518E-14 0.000E+00
 ETOT 10  -38.366430010393     -7.105E-15 1.329E-15 0.000E+00
 ETOT 11  -38.366430010393     -7.105E-15 4.038E-17 0.000E+00
 ETOT 12  -38.366430010393      0.000E+00 1.555E-18 0.000E+00
 ETOT 13  -38.366430010393     -7.105E-15 4.759E-20 0.000E+00
 ETOT 14  -38.366430010393      7.105E-15 9.976E-21 0.000E+00

 At SCF step   14   max residual=  9.98E-21 < tolwfr=  1.00E-20 =>converged.

 ----iterations are completed or convergence reached----

 dfpt_looppert: DFPT cycle converged with prtwf=-1. Will skip output of the 1st-order WFK file.
 dfpt_looppert : ek2=    4.9412125597E+01
          f-sum rule ratio=    1.0298631977E+00
 prteigrs : about to open file /scratch/users/j/a/jabreu/flow_simple_8atoms/flow/w291/t1/tmpdata/tmp_1WF1_EIG
 Expectation of eigenvalue derivatives (hartree) for nkpt=   2  k points:
  (in case of degenerate eigenvalues, averaged derivative)
 kpt#   1, nband= 45, wtk=  0.50000, kpt=  0.5000 -0.5000  0.0000 (reduced coord)
   0.00000   -0.00000    0.00000   -0.00000    0.00000    0.00000   -0.00000   -0.00000
   0.00000    0.00000   -0.00000   -0.00000    0.00000    0.00000   -0.00000   -0.00000
   0.00000   -0.00000   -0.00000   -0.00000    0.00000    0.00000    0.00000    0.00000
  -0.00000    0.00000    0.00000    0.00000    0.00000   -0.00000   -0.00000   -0.00000
  -0.00000    0.00000    0.00000    0.00000    0.00000    0.00000   -0.00000   -0.00000
   0.00000    0.00000   -0.00000   -0.00007    0.03657
 prteigrs : prtvol=0 or 1, do not print more k-points.

 Eight components of 2nd-order total energy (hartree) are
 1,2,3: 0th-order hamiltonian combined with 1st-order wavefunctions
     kin0=   4.35653753E+01 eigvalue=   5.03209191E+00  local=  -2.28651739E+01
 4,5,6: 1st-order hamiltonian combined with 1st and 0th-order wfs
     kin1=  -5.08877297E+01  Hartree=   0.00000000E+00     xc=   0.00000000E+00
 7,8,9: eventually, occupation + non-local contributions
    edocc=   7.91759044E+00     enl0=   4.71654629E+00   enl1=  -2.58451304E+01
 1-9 gives the relaxation energy (to be shifted if some occ is /=2.0)
   erelax=  -3.83664300E+01
  No Ewald or frozen-wf contrib.: the relaxation energy is the total one
 2DEtotal=   -0.3836643001E+02 Ha. Also 2DEtotal=   -0.104400365435E+04 eV
    (  non-var. 2DEtotal :   -3.8366430010E+01 Ha)

 CALCULATION OF EFFECTIVE MASSES
 NOTE : Additional infos (eff. mass eigenvalues, eigenvectors and, if degenerate, average mass) are available in stdout.

 K-point ( 0.500,-0.500,-0.000) | band =    36
 Effective mass tensor:
             -0.2726308746             -0.0813078463              0.2072132009
             -0.0813078463             -0.3032779968              0.2499205227
              0.2072132009              0.2499205227             -0.5986291666
 Effective mass tensor eigenvalues:
             -0.8287344063             -0.2052152226             -0.1405884090
 Angular average effective mass 1/(<1/m>)=  -0.2274010025
 Angular average effective mass for Frohlich model (<m**0.5>)**2=  -0.2576967659
 Effective masses along directions: (cart. coord. / red. coord. -> eff. mass)
    1:   1.000000  0.000000  0.000000 /   0.983271 -0.182149  0.000000 ->  -0.2007688329
    2:   0.000000  1.000000  0.000000 /   0.000000  1.000000  0.000000 ->  -0.1988045128
    3:   0.000000  0.000000  1.000000 /   0.296792  0.296792  0.907650 ->  -0.3143038789
    4:   0.577350  0.577350  0.577350 /   0.624273  0.535496  0.568795 ->  -0.1408445700
    5:   0.000000  0.707107  0.707107 /   0.216440  0.717649  0.661916 ->  -0.1599764659
    6:   0.707107  0.000000  0.707107 /   0.733563  0.123146  0.668372 ->  -0.1706568208
    7:   0.707107  0.707107  0.000000 /   0.781843  0.623476  0.000000 ->  -0.1947160929

 K-point ( 0.503, 0.503, 0.421) | band =    37
 Effective mass tensor:
              0.4679952597              0.3433038659             -0.5784989471
              0.3433038659              0.5974230312             -0.6977376336
             -0.5784989471             -0.6977376336              1.2774570315
 Effective mass tensor eigenvalues:
              0.1520815850              0.1833591328              2.0074346046
 Angular average effective mass 1/(<1/m>)=   0.2394761361
 Angular average effective mass for Frohlich model (<m**0.5>)**2=   0.2972356694
 Effective masses along directions: (cart. coord. / red. coord. -> eff. mass)
    1:   1.000000  0.000000  0.000000 /   0.983271 -0.182149  0.000000 ->   0.2025675341
    2:   0.000000  1.000000  0.000000 /   0.000000  1.000000  0.000000 ->   0.2126978373
    3:   0.000000  0.000000  1.000000 /   0.296792  0.296792  0.907650 ->   0.3461149218
    4:   0.577350  0.577350  0.577350 /   0.624273  0.535496  0.568795 ->   0.1527449044
    5:   0.000000  0.707107  0.707107 /   0.216440  0.717649  0.661916 ->   0.1644512494
    6:   0.707107  0.000000  0.707107 /   0.733563  0.123146  0.668372 ->   0.1721821507
    7:   0.707107  0.707107  0.000000 /   0.781843  0.623476  0.000000 ->   0.2383600101

 END OF EFFECTIVE MASSES SECTION

 ---- first-order wavefunction calculations are completed ----

 Total localisation tensor (bohr^2) in cartesian coordinates
  WARNING : still subject to testing - especially symmetries.
      direction              matrix element
   alpha     beta       real part   imaginary part
     1        1       4.0855204700    0.0000000000
     1        2      -0.7190286934    0.0000000000
     1        3       1.3657136460    0.0000000000
     2        1      -0.7190286934    0.0000000000
     2        2       3.8142664940    0.0000000000
     2        3       1.6471344697    0.0000000000
     3        1       1.3657136460    0.0000000000
     3        2       1.6471344697    0.0000000000
     3        3       3.5795747517    0.0000000000

 respfn : d/dk was computed, but no 2DTE, so no DDB output.

== END DATASET(S) ==============================================================

 -outvars: echo values of variables after computation  --------
            acell      1.0000000000E+00  1.0000000000E+00  1.0000000000E+00 Bohr
              amu      2.29897680E+01  1.21753000E+02  3.20660000E+01
             ecut      4.40000000E+01 Hartree
           etotal     -3.8366430010E+01
            fcart      0.0000000000E+00  0.0000000000E+00  0.0000000000E+00
                       0.0000000000E+00  0.0000000000E+00  0.0000000000E+00
                       0.0000000000E+00  0.0000000000E+00  0.0000000000E+00
                       0.0000000000E+00  0.0000000000E+00  0.0000000000E+00
                       0.0000000000E+00  0.0000000000E+00  0.0000000000E+00
                       0.0000000000E+00  0.0000000000E+00  0.0000000000E+00
                       0.0000000000E+00  0.0000000000E+00  0.0000000000E+00
                       0.0000000000E+00  0.0000000000E+00  0.0000000000E+00
-          fftalg         512
           irdden           1
           irdwfk           1
              ixc     -116133
              kpt      5.00000000E-01 -5.00000000E-01 -5.55111512E-17
                       5.02565144E-01  5.02565144E-01  4.20841276E-01
           kptopt           0
P           mkmem           2
P          mkqmem           2
P          mk1mem           2
            natom           8
            nband          45
           nbdbuf           4
            ngfft          72      72      80
             nkpt           2
            nstep        2000
             nsym           4
           ntypat           3
              occ      2.000000  2.000000  2.000000  2.000000  2.000000  2.000000
                       2.000000  2.000000  2.000000  2.000000  2.000000  2.000000
                       2.000000  2.000000  2.000000  2.000000  2.000000  2.000000
                       2.000000  2.000000  2.000000  2.000000  2.000000  2.000000
                       2.000000  2.000000  2.000000  2.000000  2.000000  2.000000
                       2.000000  2.000000  2.000000  2.000000  2.000000  2.000000
                       0.000000  0.000000  0.000000  0.000000  0.000000  0.000000
                       0.000000  0.000000  0.000000
        optdriver           1
            prtwf          -1
            rfdir           1       1       1
           rfelfd           2
            rprim      9.9250804558E+00  0.0000000000E+00  4.2118163538E+00
                      -1.8385971914E+00  9.7532959773E+00  4.2118163538E+00
                       0.0000000000E+00  0.0000000000E+00  1.2880569835E+01
          spgroup          15
           strten      0.0000000000E+00  0.0000000000E+00  0.0000000000E+00
                       0.0000000000E+00  0.0000000000E+00  0.0000000000E+00
           symrel      1  0  0   0  1  0   0  0  1      -1  0  0   0 -1  0   0  0 -1
                       0 -1  0  -1  0  0   0  0 -1       0  1  0   1  0  0   0  0  1
            tnons      0.0000000  0.0000000  0.0000000    -0.0000000  0.0000000  0.0000000
                      -0.0000000 -0.0000000  0.5000000     0.0000000  0.0000000  0.5000000
           tolwfr      1.00000000E-20
            typat      1  1  2  2  3  3  3  3
           useylm           1
              wtk        0.50000    0.50000
           xangst      1.3111403165E+00  3.2674818693E+00  3.9328232188E+00
                       2.9680423247E+00  1.8937400705E+00  7.3408752139E+00
                      -3.1558877704E-01  4.6162072254E+00  7.3408752139E+00
                       4.5947714182E+00  5.4501471440E-01  3.9328232188E+00
                       3.9132290173E+00  3.4985549368E+00  5.0528111067E+00
                       1.5660973386E+00  6.6762470280E-01  2.8128353308E+00
                       3.6595362387E-01  1.6626670030E+00  6.2208873260E+00
                       2.7130853026E+00  4.4935972370E+00  8.4608631018E+00
            xcart      2.4776961199E+00  6.1746458772E+00  7.4319588125E+00
                       5.6087871445E+00  3.5786501001E+00  1.3872243730E+01
                      -5.9637635921E-01  8.7233674287E+00  1.3872243730E+01
                       8.6828596236E+00  1.0299285486E+00  7.4319588125E+00
                       7.3949311379E+00  6.6113106914E+00  9.5484291928E+00
                       2.9594950674E+00  1.2616278478E+00  5.3154884322E+00
                       6.9155212646E-01  3.1419852859E+00  1.1755773350E+01
                       5.1269881970E+00  8.4916681295E+00  1.5988714110E+01
             xred      3.6691700000E-01  6.3308300000E-01  2.5000000000E-01
                       6.3308300000E-01  3.6691700000E-01  7.5000000000E-01
                       1.0559800000E-01  8.9440200000E-01  7.5000000000E-01
                       8.9440200000E-01  1.0559800000E-01  2.5000000000E-01
                       8.7064600000E-01  6.7785400000E-01  2.3496100000E-01
                       3.2214600000E-01  1.2935400000E-01  2.6503900000E-01
                       1.2935400000E-01  3.2214600000E-01  7.6503900000E-01
                       6.7785400000E-01  8.7064600000E-01  7.3496100000E-01
            znucl       11.00000   51.00000   16.00000

- Timing analysis has been suppressed with timopt=0

 Suggested references for the acknowledgment of ABINIT usage.

 Calculation completed.
.Delivered  14 WARNINGs and   9 COMMENTs to log file.