.Version 9.5.2 of ABINIT

 ABINIT is a project of the Universite Catholique de Louvain,
 Corning Inc. and other collaborators, see ~abinit/doc/developers/contributors.txt .
 acknowledgments of the ABINIT effort.

.Starting date : Thu 27 May 2021.
- ( at 13h49 )

- input  file    -> /scratch/users/j/a/jabreu/flow_simple_11atoms/flow/w293/t1/run.abi
- output file    -> /scratch/users/j/a/jabreu/flow_simple_11atoms/flow/w293/t1/run.abo
- root for input  files -> /scratch/users/j/a/jabreu/flow_simple_11atoms/flow/w293/t1/indata/in
- root for output files -> /scratch/users/j/a/jabreu/flow_simple_11atoms/flow/w293/t1/outdata/out

 Symmetries : space group C2/c (# 15); Bravais mC (1-face-center monocl.)
     intxc =       0      iscf =       7    lmnmax =      32     lnmax =       8
     mgfft =     120  mpssoang =       4    mqgrid =    5140     natom =      12
  nloc_mem =       1    nspden =       1   nspinor =       1    nsppol =       1
      nsym =       4    n1xccc =    2501    ntypat =       3    occopt =       1
   xclevel =       2
-    mband =          69        mffmem =           1         mkmem =           2
-   mkqmem =           2        mk1mem =           2           mpw =       39531
      nfft =      768000          nkpt =           2
  Rough estimation (10% accuracy) of disk space for files :

------------- Echo of variables that govern the present computation ------------
-
- outvars: echo of selected default values
-   iomode0 =  0 , fftalg0 =512 , wfoptalg0 =  0
-
- outvars: echo of global parameters not present in the input file
-  max_nthreads =    0
-
 -outvars: echo values of preprocessed input variables --------
            acell      1.0000000000E+00  1.0000000000E+00  1.0000000000E+00 Bohr
              amu      1.32905430E+02  1.08110000E+01  7.49215900E+01
             ecut      4.20000000E+01 Hartree
-          fftalg         512
           irdden           1
           irdwfk           1
           istwfk        0    1
              ixc     -116133
              kpt      2.75000000E-01 -2.75000000E-01  0.00000000E+00
                       0.00000000E+00  0.00000000E+00  0.00000000E+00
           kptopt           0
P           mkmem           2
P          mkqmem           2
P          mk1mem           2
            natom          12
            nband          69
           nbdbuf           4
            ngfft          80      80     120
             nkpt           2
            nstep        2000
             nsym           4
           ntypat           3
              occ      2.000000  2.000000  2.000000  2.000000  2.000000  2.000000
                       2.000000  2.000000  2.000000  2.000000  2.000000  2.000000
                       2.000000  2.000000  2.000000  2.000000  2.000000  2.000000
                       2.000000  2.000000  2.000000  2.000000  2.000000  2.000000
                       2.000000  2.000000  2.000000  2.000000  2.000000  2.000000
                       2.000000  2.000000  2.000000  2.000000  2.000000  2.000000
                       2.000000  2.000000  2.000000  2.000000  2.000000  2.000000
                       2.000000  2.000000  2.000000  2.000000  2.000000  2.000000
                       2.000000  2.000000  2.000000  2.000000  2.000000  2.000000
                       2.000000  2.000000  2.000000  2.000000  2.000000  2.000000
                       0.000000  0.000000  0.000000  0.000000  0.000000  0.000000
                       0.000000  0.000000  0.000000
        optdriver           1
            prtwf          -1
            rfdir           1       1       1
           rfelfd           2
            rprim      1.2724261806E+01  0.0000000000E+00  3.2590507885E+00
                      -5.9202626290E-01  1.2710481636E+01  3.2590507885E+00
                       0.0000000000E+00  0.0000000000E+00  1.8790938395E+01
          spgroup          15
           symrel      1  0  0   0  1  0   0  0  1      -1  0  0   0 -1  0   0  0 -1
                       0 -1  0  -1  0  0   0  0 -1       0  1  0   1  0  0   0  0  1
            tnons      0.0000000  0.0000000  0.0000000     0.0000000  0.0000000 -0.0000000
                       0.0000000  0.0000000  0.5000000    -0.0000000  0.0000000  0.5000000
           tolwfr      1.00000000E-20
            typat      1  1  1  1  1  1  2  2  3  3  3  3
           useylm           1
              wtk        0.50000    0.50000
           xangst      1.6902601050E+00  1.0090961834E+00  8.8485670808E-01
                       2.1398161892E+00  4.3845947853E+00  9.1824176438E+00
                       4.7298424339E+00  5.7170010086E+00  1.2508110416E+01
                       4.2802863496E+00  2.3415024067E+00  4.2105494805E+00
                       9.2936001436E-01  1.7353801582E+00  5.8567248713E+00
                       5.4907425244E+00  4.9907170338E+00  7.5362422530E+00
                       4.7110496626E+00  1.9303360853E+00  9.1824176438E+00
                       1.7090528762E+00  4.7957611067E+00  4.2105494805E+00
                       2.4843688072E+00  5.6428995958E+00  5.6920655318E+00
                       5.5211973138E+00  2.7442274760E+00  1.0663933695E+01
                       8.9890522497E-01  3.9818697159E+00  2.7290334293E+00
                       3.9357337316E+00  1.0831975962E+00  7.7009015925E+00
            xcart      3.1941286917E+00  1.9069154284E+00  1.6721368451E+00
                       4.0436665723E+00  8.2856833479E+00  1.7352254585E+01
                       8.9381068517E+00  1.0803566208E+01  2.3636903127E+01
                       8.0885689711E+00  4.4247982881E+00  7.9567853872E+00
                       1.7562359060E+00  3.2793932355E+00  1.1067606043E+01
                       1.0375999637E+01  9.4310884005E+00  1.4241433929E+01
                       8.9025936607E+00  3.6478065457E+00  1.7352254585E+01
                       3.2296418827E+00  9.0626750903E+00  7.9567853872E+00
                       4.6947766588E+00  1.0663534831E+01  1.0756444986E+01
                       1.0433550849E+01  5.1858383760E+00  2.0151914183E+01
                       1.6986846946E+00  7.5246432600E+00  5.1571257888E+00
                       7.4374588846E+00  2.0469468046E+00  1.4552594986E+01
             xred      2.5800700000E-01  1.5002700000E-01  1.8218000000E-02
                       3.4812200000E-01  6.5187800000E-01  7.5000000000E-01
                       7.4199300000E-01  8.4997300000E-01  9.8178200000E-01
                       6.5187800000E-01  3.4812200000E-01  2.5000000000E-01
                       1.5002700000E-01  2.5800700000E-01  5.1821800000E-01
                       8.4997300000E-01  7.4199300000E-01  4.8178200000E-01
                       7.1300800000E-01  2.8699200000E-01  7.5000000000E-01
                       2.8699200000E-01  7.1300800000E-01  2.5000000000E-01
                       4.0799700000E-01  8.3895600000E-01  3.5615900000E-01
                       8.3895600000E-01  4.0799700000E-01  8.5615900000E-01
                       1.6104400000E-01  5.9200300000E-01  1.4384100000E-01
                       5.9200300000E-01  1.6104400000E-01  6.4384100000E-01
            znucl       55.00000    5.00000   33.00000

 chkinp: Checking input parameters for consistency.

== DATASET  1 ==================================================================
-   mpi_nproc: 1, omp_nthreads: -1 (-1 if OMP is not activated)

--- !DatasetInfo
iteration_state: {dtset: 1, }
dimensions: {natom: 12, nkpt: 2, mband: 69, nsppol: 1, nspinor: 1, nspden: 1, mpw: 39531, }
cutoff_energies: {ecut:  42.0, pawecutdg:  -1.0, }
electrons: {nelect:   1.20000000E+02, charge:   0.00000000E+00, occopt:   1.00000000E+00, tsmear:   1.00000000E-02, }
meta: {optdriver: 1, rfelfd: 2, }
...

 Real(R)+Recip(G) space primitive vectors, cartesian coordinates (Bohr,Bohr^-1):
 R(1)= 12.7242618  0.0000000  3.2590508  G(1)=  0.0785900  0.0036606  0.0000000
 R(2)= -0.5920263 12.7104816  3.2590508  G(2)=  0.0000000  0.0786752  0.0000000
 R(3)=  0.0000000  0.0000000 18.7909384  G(3)= -0.0136304 -0.0142801  0.0532171
 Unit cell volume ucvol=  3.0390866E+03 bohr^3
 Angles (23,13,12)=  7.56337341E+01  7.56337341E+01  8.89743311E+01 degrees

 getcut: wavevector=  0.0000  0.0000  0.0000  ngfft=  80  80 120
         ecut(hartree)=     42.000   => boxcut(ratio)=   2.08779

--- Pseudopotential description ------------------------------------------------
- pspini: atom type   1  psp file is /scratch/users/j/a/jabreu/pseudos/PBEsol/Cs.psp8
- pspatm: opening atomic psp file    /scratch/users/j/a/jabreu/pseudos/PBEsol/Cs.psp8
- Cs    ONCVPSP-3.3.0  r_core=   2.27353   1.85623   2.01788   1.90105
- 55.00000   9.00000    180112                znucl, zion, pspdat
    8 -116133    3    4       600   0.00000   pspcod,pspxc,lmax,lloc,mmax,r2well
    5.99000000000000    5.00000000000000    0.00000000000000   rchrg,fchrg,qchrg
     nproj     2     2     2     2
     extension_switch     1
  pspatm : epsatm=   22.12462445
         --- l  ekb(1:nproj) -->
             0    6.214110    0.767882
             1    6.311966    0.793598
             2    3.769790    0.913105
             3   -9.247129   -2.432478
 pspatm: atomic psp has been read  and splines computed

- pspini: atom type   2  psp file is /scratch/users/j/a/jabreu/pseudos/PBEsol/B.psp8
- pspatm: opening atomic psp file    /scratch/users/j/a/jabreu/pseudos/PBEsol/B.psp8
- B     ONCVPSP-3.3.0  r_core=   1.20849   1.20849
-  5.00000   3.00000    180112                znucl, zion, pspdat
    8 -116133    1    4       600   0.00000   pspcod,pspxc,lmax,lloc,mmax,r2well
    5.99000000000000    2.90000000000000    0.00000000000000   rchrg,fchrg,qchrg
     nproj     2     2
     extension_switch     1
  pspatm : epsatm=    3.20154566
         --- l  ekb(1:nproj) -->
             0    8.466603    1.247630
             1   -3.609180   -0.822621
 pspatm: atomic psp has been read  and splines computed

- pspini: atom type   3  psp file is /scratch/users/j/a/jabreu/pseudos/PBEsol/As.psp8
- pspatm: opening atomic psp file    /scratch/users/j/a/jabreu/pseudos/PBEsol/As.psp8
- As    ONCVPSP-3.3.0  r_core=   1.76603   1.70395   1.80867
- 33.00000  15.00000    180112                znucl, zion, pspdat
    8 -116133    2    4       600   0.00000   pspcod,pspxc,lmax,lloc,mmax,r2well
    5.99000000000000    5.00000000000000    0.00000000000000   rchrg,fchrg,qchrg
     nproj     2     2     2
     extension_switch     1
  pspatm : epsatm=   28.79155382
         --- l  ekb(1:nproj) -->
             0    8.270760    0.868950
             1    4.919053    0.756587
             2  -10.048665   -4.076802
 pspatm: atomic psp has been read  and splines computed

   3.05180464E+04                                ecore*ucvol(ha*bohr**3)

 ==>  initialize data related to q vector <==

 The list of irreducible perturbations for this q vector is:
    1)    idir= 1    ipert=  13
    2)    idir= 2    ipert=  13
    3)    idir= 3    ipert=  13

 Perturbation wavevector (in red.coord.)   0.000000  0.000000  0.000000
 Perturbation : derivative vs k along direction   1

 dfpt_looppert : COMMENT -
  In a d/dk calculation, iscf is set to -3 automatically.
[...]
  -0.00090   -0.00107   -0.00088   -0.01446   -0.00798   -0.01615   -0.00269    0.00359
   0.00011    0.02083    0.01268   -0.00791    0.00274    0.00416    0.00891    0.00276
   0.00672    0.00504    0.00069    0.01123   -0.00724    0.00134    0.00106   -0.00091
  -0.01206   -0.00201   -0.00331   -0.02031    0.00200    0.00197    0.00598    0.00265
   0.00155   -0.00517    0.01756    0.00058   -0.00315   -0.02945    0.00130    0.01876
  -0.02412   -0.01923    0.01686    0.00211    0.01079
 prteigrs : prtvol=0 or 1, do not print more k-points.

 Eight components of 2nd-order total energy (hartree) are
 1,2,3: 0th-order hamiltonian combined with 1st-order wavefunctions
     kin0=   6.71170360E+01 eigvalue=   7.69790045E+00  local=  -3.46864791E+01
 4,5,6: 1st-order hamiltonian combined with 1st and 0th-order wfs
     kin1=  -5.86296692E+01  Hartree=   0.00000000E+00     xc=   0.00000000E+00
 7,8,9: eventually, occupation + non-local contributions
    edocc=   4.56704069E+00     enl0=   9.54159541E+00   enl1=  -4.98445176E+01
 1-9 gives the relaxation energy (to be shifted if some occ is /=2.0)
   erelax=  -5.42370934E+01
  No Ewald or frozen-wf contrib.: the relaxation energy is the total one
 2DEtotal=   -0.5423709340E+02 Ha. Also 2DEtotal=   -0.147586636802E+04 eV
    (  non-var. 2DEtotal :   -5.4237093402E+01 Ha)

 Perturbation wavevector (in red.coord.)   0.000000  0.000000  0.000000
 Perturbation : derivative vs k along direction   2
 The set of symmetries contains only one element for this perturbation.
 symkpt : not enough symmetry to change the number of k points.

[...]

 Perturbation wavevector (in red.coord.)   0.000000  0.000000  0.000000
 Perturbation : derivative vs k along direction   3
 The set of symmetries contains only one element for this perturbation.
 symkpt : not enough symmetry to change the number of k points.

 Initialisation of the first-order wave-functions :
  ireadwf=   0

--- !BeginCycle
iteration_state: {dtset: 1, }
solver: {iscf: 7, nstep: 2000, nline: 4, wfoptalg: 0, }
tolerances: {tolwfr: 1.00E-20, }
...

     iter   2DEtotal(Ha)        deltaE(Ha) residm    vres2
-ETOT  1  -28.055308872519     -2.806E+01 4.173E-02 0.000E+00
 ETOT  2  -28.081938619424     -2.663E-02 3.021E-03 0.000E+00
 ETOT  3  -28.083011178516     -1.073E-03 2.174E-04 0.000E+00
 ETOT  4  -28.083128227089     -1.170E-04 4.967E-05 0.000E+00
 ETOT  5  -28.083142306582     -1.408E-05 6.941E-06 0.000E+00
 ETOT  6  -28.083144186628     -1.880E-06 2.103E-06 0.000E+00
 ETOT  7  -28.083144452682     -2.661E-07 3.920E-07 0.000E+00
 ETOT  8  -28.083144492718     -4.004E-08 1.121E-07 0.000E+00
 ETOT  9  -28.083144498962     -6.245E-09 2.412E-08 0.000E+00
 ETOT 10  -28.083144499979     -1.016E-09 6.262E-09 0.000E+00
 ETOT 11  -28.083144500149     -1.704E-10 1.504E-09 0.000E+00
 ETOT 12  -28.083144500179     -2.954E-11 3.914E-10 0.000E+00
 ETOT 13  -28.083144500184     -5.265E-12 9.501E-11 0.000E+00
 ETOT 14  -28.083144500185     -9.273E-13 2.501E-11 0.000E+00
 ETOT 15  -28.083144500185     -2.061E-13 6.058E-12 0.000E+00
 ETOT 16  -28.083144500185     -3.908E-14 1.608E-12 0.000E+00
 ETOT 17  -28.083144500185      3.197E-14 3.887E-13 0.000E+00
 ETOT 18  -28.083144500185      1.066E-14 1.039E-13 0.000E+00
 ETOT 19  -28.083144500185     -2.842E-14 2.505E-14 0.000E+00
 ETOT 20  -28.083144500185      0.000E+00 6.736E-15 0.000E+00
 ETOT 21  -28.083144500185     -7.105E-15 1.620E-15 0.000E+00
 ETOT 22  -28.083144500185      7.105E-15 4.379E-16 0.000E+00
 ETOT 23  -28.083144500185     -1.421E-14 1.051E-16 0.000E+00
 ETOT 24  -28.083144500185      0.000E+00 2.853E-17 0.000E+00
 ETOT 25  -28.083144500185      1.066E-14 6.833E-18 0.000E+00
 ETOT 26  -28.083144500185     -3.553E-15 1.862E-18 0.000E+00
 ETOT 27  -28.083144500185     -3.553E-15 4.453E-19 0.000E+00
 ETOT 28  -28.083144500185      3.553E-15 1.218E-19 0.000E+00
 ETOT 29  -28.083144500185      0.000E+00 2.907E-20 0.000E+00
 ETOT 30  -28.083144500185     -7.105E-15 9.925E-21 0.000E+00

 At SCF step   30   max residual=  9.93E-21 < tolwfr=  1.00E-20 =>converged.

 ----iterations are completed or convergence reached----

 dfpt_looppert: DFPT cycle converged with prtwf=-1. Will skip output of the 1st-order WFK file.
 dfpt_looppert : ek2=    3.0525732250E+01
          f-sum rule ratio=    9.9101190097E-01
 prteigrs : about to open file /scratch/users/j/a/jabreu/flow_simple_11atoms/flow/w293/t1/tmpdata/tmp_1WF1_EIG
 Expectation of eigenvalue derivatives (hartree) for nkpt=   2  k points:
  (in case of degenerate eigenvalues, averaged derivative)
 kpt#   1, nband= 69, wtk=  0.50000, kpt=  0.2750 -0.2750  0.0000 (reduced coord)
  -0.00000   -0.00000   -0.00000    0.00000   -0.00000   -0.00000   -0.00000    0.00000
   0.00000   -0.00000    0.00000   -0.00000    0.00000   -0.00000    0.00000   -0.00000
   0.00000   -0.00000    0.00000   -0.00000   -0.00000   -0.00000    0.00000    0.00000
  -0.00000   -0.00000    0.00000   -0.00000   -0.00000    0.00000    0.00000    0.00000
  -0.00000    0.00000   -0.00000    0.00000   -0.00000    0.00000    0.00000   -0.00000
   0.00000   -0.00000    0.00000    0.00000   -0.00000   -0.00000   -0.00000   -0.00000
   0.00000   -0.00000   -0.00000   -0.00000    0.00000    0.00000    0.00000   -0.00000
  -0.00000   -0.00000   -0.00000    0.00000   -0.00000   -0.00000   -0.00000    0.00000
  -0.00000   -0.00000   -0.00000   -0.00000   -0.00000
 prteigrs : prtvol=0 or 1, do not print more k-points.

 Eight components of 2nd-order total energy (hartree) are
 1,2,3: 0th-order hamiltonian combined with 1st-order wavefunctions
     kin0=   3.47921436E+01 eigvalue=   4.04534303E+00  local=  -1.80357036E+01
 4,5,6: 1st-order hamiltonian combined with 1st and 0th-order wfs
     kin1=  -3.02513639E+01  Hartree=   0.00000000E+00     xc=   0.00000000E+00
 7,8,9: eventually, occupation + non-local contributions
    edocc=   2.28291522E+00     enl0=   4.99844629E+00   enl1=  -2.59149251E+01
 1-9 gives the relaxation energy (to be shifted if some occ is /=2.0)
   erelax=  -2.80831445E+01
  No Ewald or frozen-wf contrib.: the relaxation energy is the total one
 2DEtotal=   -0.2808314450E+02 Ha. Also 2DEtotal=   -0.764181224990E+03 eV
    (  non-var. 2DEtotal :   -2.8083144500E+01 Ha)

 CALCULATION OF EFFECTIVE MASSES
 NOTE : Additional infos (eff. mass eigenvalues, eigenvectors and, if degenerate, average mass) are available in stdout.

 K-point ( 0.275,-0.275, 0.000) | band =    60
 Effective mass tensor:
             -2.1563048180             -0.7628151203              0.2673635108
             -0.7628151203             -2.2273855846              0.2801098776
              0.2673635108              0.2801098776             -1.0362456088
 Effective mass tensor eigenvalues:
             -3.0306698007             -1.4282025973             -0.9610636134
 Angular average effective mass 1/(<1/m>)=  -1.4488171392
 Angular average effective mass for Frohlich model (<m**0.5>)**2=  -1.5380968743
 Effective masses along directions: (cart. coord. / red. coord. -> eff. mass)
    1:   1.000000  0.000000  0.000000 /   0.998919 -0.046477  0.000000 ->  -1.8657030387
    2:   0.000000  1.000000  0.000000 /   0.000000  1.000000  0.000000 ->  -1.9232176771
    3:   0.000000  0.000000  1.000000 /   0.168444  0.168444  0.971212 ->  -0.9855112460
    4:   0.577350  0.577350  0.577350 /   0.549832  0.528992  0.646415 ->  -1.4268421114
    5:   0.000000  0.707107  0.707107 /   0.131019  0.642001  0.755426 ->  -1.1580757823
    6:   0.707107  0.000000  0.707107 /   0.644154  0.107486  0.757306 ->  -1.1532165430
    7:   0.707107  0.707107  0.000000 /   0.724135  0.689658  0.000000 ->  -2.8093142750

 K-point ( 0.000, 0.000, 0.000) | band =    61
 Effective mass tensor:
              0.4513261720             -0.0010927563              0.0135831205
             -0.0010927563              0.4512243762              0.0142305184
              0.0135831205              0.0142305184              0.4229108207
 Effective mass tensor eigenvalues:
              0.4126101410              0.4523692151              0.4604820128
 Angular average effective mass 1/(<1/m>)=   0.4407994277
 Angular average effective mass for Frohlich model (<m**0.5>)**2=   0.4411103469
 Effective masses along directions: (cart. coord. / red. coord. -> eff. mass)
    1:   1.000000  0.000000  0.000000 /   0.998919 -0.046477  0.000000 ->   0.4508845783
    2:   0.000000  1.000000  0.000000 /   0.000000  1.000000  0.000000 ->   0.4507402067
    3:   0.000000  0.000000  1.000000 /   0.168444  0.168444  0.971212 ->   0.4220511475
    4:   0.577350  0.577350  0.577350 /   0.549832  0.528992  0.646415 ->   0.4595382592
    5:   0.000000  0.707107  0.707107 /   0.131019  0.642001  0.755426 ->   0.4506373363
    6:   0.707107  0.000000  0.707107 /   0.644154  0.107486  0.757306 ->   0.4500183699
    7:   0.707107  0.707107  0.000000 /   0.724135  0.689658  0.000000 ->   0.4492678945

 END OF EFFECTIVE MASSES SECTION

 ---- first-order wavefunction calculations are completed ----

 Total localisation tensor (bohr^2) in cartesian coordinates
  WARNING : still subject to testing - especially symmetries.
      direction              matrix element
   alpha     beta       real part   imaginary part
     1        1       1.1260416479    0.0000000000
     1        2      -0.0522220546    0.0000000000
     1        3       0.2743986921    0.0000000000
     2        1      -0.0522220546    0.0000000000
     2        2       1.1211790891    0.0000000000
     2        3       0.2874776660    0.0000000000
     3        1       0.2743986921    0.0000000000
     3        2       0.2874776660    0.0000000000
     3        3       1.3994145746    0.0000000000

 respfn : d/dk was computed, but no 2DTE, so no DDB output.

== END DATASET(S) ==============================================================

 -outvars: echo values of variables after computation  --------
            acell      1.0000000000E+00  1.0000000000E+00  1.0000000000E+00 Bohr
              amu      1.32905430E+02  1.08110000E+01  7.49215900E+01
             ecut      4.20000000E+01 Hartree
           etotal     -2.8083144500E+01
            fcart      0.0000000000E+00  0.0000000000E+00  0.0000000000E+00
                       0.0000000000E+00  0.0000000000E+00  0.0000000000E+00
                       0.0000000000E+00  0.0000000000E+00  0.0000000000E+00
                       0.0000000000E+00  0.0000000000E+00  0.0000000000E+00
                       0.0000000000E+00  0.0000000000E+00  0.0000000000E+00
                       0.0000000000E+00  0.0000000000E+00  0.0000000000E+00
                       0.0000000000E+00  0.0000000000E+00  0.0000000000E+00
                       0.0000000000E+00  0.0000000000E+00  0.0000000000E+00
                       0.0000000000E+00  0.0000000000E+00  0.0000000000E+00
                       0.0000000000E+00  0.0000000000E+00  0.0000000000E+00
                       0.0000000000E+00  0.0000000000E+00  0.0000000000E+00
                       0.0000000000E+00  0.0000000000E+00  0.0000000000E+00
-          fftalg         512
           irdden           1
           irdwfk           1
           istwfk        0    1
              ixc     -116133
              kpt      2.75000000E-01 -2.75000000E-01  0.00000000E+00
                       0.00000000E+00  0.00000000E+00  0.00000000E+00
           kptopt           0
P           mkmem           2
P          mkqmem           2
P          mk1mem           2
            natom          12
            nband          69
           nbdbuf           4
            ngfft          80      80     120
             nkpt           2
            nstep        2000
             nsym           4
           ntypat           3
              occ      2.000000  2.000000  2.000000  2.000000  2.000000  2.000000
                       2.000000  2.000000  2.000000  2.000000  2.000000  2.000000
                       2.000000  2.000000  2.000000  2.000000  2.000000  2.000000
                       2.000000  2.000000  2.000000  2.000000  2.000000  2.000000
                       2.000000  2.000000  2.000000  2.000000  2.000000  2.000000
                       2.000000  2.000000  2.000000  2.000000  2.000000  2.000000
                       2.000000  2.000000  2.000000  2.000000  2.000000  2.000000
                       2.000000  2.000000  2.000000  2.000000  2.000000  2.000000
                       2.000000  2.000000  2.000000  2.000000  2.000000  2.000000
                       2.000000  2.000000  2.000000  2.000000  2.000000  2.000000
                       0.000000  0.000000  0.000000  0.000000  0.000000  0.000000
                       0.000000  0.000000  0.000000
        optdriver           1
            prtwf          -1
            rfdir           1       1       1
           rfelfd           2
            rprim      1.2724261806E+01  0.0000000000E+00  3.2590507885E+00
                      -5.9202626290E-01  1.2710481636E+01  3.2590507885E+00
                       0.0000000000E+00  0.0000000000E+00  1.8790938395E+01
          spgroup          15
           strten      0.0000000000E+00  0.0000000000E+00  0.0000000000E+00
                       0.0000000000E+00  0.0000000000E+00  0.0000000000E+00
           symrel      1  0  0   0  1  0   0  0  1      -1  0  0   0 -1  0   0  0 -1
                       0 -1  0  -1  0  0   0  0 -1       0  1  0   1  0  0   0  0  1
            tnons      0.0000000  0.0000000  0.0000000     0.0000000  0.0000000 -0.0000000
                       0.0000000  0.0000000  0.5000000    -0.0000000  0.0000000  0.5000000
           tolwfr      1.00000000E-20
            typat      1  1  1  1  1  1  2  2  3  3  3  3
           useylm           1
              wtk        0.50000    0.50000
           xangst      1.6902601050E+00  1.0090961834E+00  8.8485670808E-01
                       2.1398161892E+00  4.3845947853E+00  9.1824176438E+00
                       4.7298424339E+00  5.7170010086E+00  1.2508110416E+01
                       4.2802863496E+00  2.3415024067E+00  4.2105494805E+00
                       9.2936001436E-01  1.7353801582E+00  5.8567248713E+00
                       5.4907425244E+00  4.9907170338E+00  7.5362422530E+00
                       4.7110496626E+00  1.9303360853E+00  9.1824176438E+00
                       1.7090528762E+00  4.7957611067E+00  4.2105494805E+00
                       2.4843688072E+00  5.6428995958E+00  5.6920655318E+00
                       5.5211973138E+00  2.7442274760E+00  1.0663933695E+01
                       8.9890522497E-01  3.9818697159E+00  2.7290334293E+00
                       3.9357337316E+00  1.0831975962E+00  7.7009015925E+00
            xcart      3.1941286917E+00  1.9069154284E+00  1.6721368451E+00
                       4.0436665723E+00  8.2856833479E+00  1.7352254585E+01
                       8.9381068517E+00  1.0803566208E+01  2.3636903127E+01
                       8.0885689711E+00  4.4247982881E+00  7.9567853872E+00
                       1.7562359060E+00  3.2793932355E+00  1.1067606043E+01
                       1.0375999637E+01  9.4310884005E+00  1.4241433929E+01
                       8.9025936607E+00  3.6478065457E+00  1.7352254585E+01
                       3.2296418827E+00  9.0626750903E+00  7.9567853872E+00
                       4.6947766588E+00  1.0663534831E+01  1.0756444986E+01
                       1.0433550849E+01  5.1858383760E+00  2.0151914183E+01
                       1.6986846946E+00  7.5246432600E+00  5.1571257888E+00
                       7.4374588846E+00  2.0469468046E+00  1.4552594986E+01
             xred      2.5800700000E-01  1.5002700000E-01  1.8218000000E-02
                       3.4812200000E-01  6.5187800000E-01  7.5000000000E-01
                       7.4199300000E-01  8.4997300000E-01  9.8178200000E-01
                       6.5187800000E-01  3.4812200000E-01  2.5000000000E-01
                       1.5002700000E-01  2.5800700000E-01  5.1821800000E-01
                       8.4997300000E-01  7.4199300000E-01  4.8178200000E-01
                       7.1300800000E-01  2.8699200000E-01  7.5000000000E-01
                       2.8699200000E-01  7.1300800000E-01  2.5000000000E-01
                       4.0799700000E-01  8.3895600000E-01  3.5615900000E-01
                       8.3895600000E-01  4.0799700000E-01  8.5615900000E-01
                       1.6104400000E-01  5.9200300000E-01  1.4384100000E-01
                       5.9200300000E-01  1.6104400000E-01  6.4384100000E-01
            znucl       55.00000    5.00000   33.00000

- Timing analysis has been suppressed with timopt=0

 Suggested references for the acknowledgment of ABINIT usage.

 Calculation completed.
.Delivered   2 WARNINGs and   7 COMMENTs to log file.