.Version 9.5.2 of ABINIT

 ABINIT is a project of the Universite Catholique de Louvain,
 Corning Inc. and other collaborators, see ~abinit/doc/developers/contributors.txt .
 acknowledgments of the ABINIT effort.

.Starting date : Wed 26 May 2021.
- ( at 02h08 )

- input  file    -> /scratch/users/j/a/jabreu/flow_simple_11atoms/flow/w216/t1/run.abi
- output file    -> /scratch/users/j/a/jabreu/flow_simple_11atoms/flow/w216/t1/run.abo
- root for input  files -> /scratch/users/j/a/jabreu/flow_simple_11atoms/flow/w216/t1/indata/in
- root for output files -> /scratch/users/j/a/jabreu/flow_simple_11atoms/flow/w216/t1/outdata/out

 Symmetries : space group C2/m (# 12); Bravais mC (1-face-center monocl.)
     intxc =       0      iscf =       7    lmnmax =      32     lnmax =       8
     mgfft =      96  mpssoang =       4    mqgrid =    4756     natom =      12
  nloc_mem =       1    nspden =       1   nspinor =       1    nsppol =       1
      nsym =       4    n1xccc =    2501    ntypat =       4    occopt =       1
   xclevel =       2
-    mband =          49        mffmem =           1         mkmem =           2
-   mkqmem =           2        mk1mem =           2           mpw =       18079
      nfft =      345600          nkpt =           2
  Rough estimation (10% accuracy) of disk space for files :

------------- Echo of variables that govern the present computation ------------
-
- outvars: echo of selected default values
-   iomode0 =  0 , fftalg0 =512 , wfoptalg0 =  0
-
- outvars: echo of global parameters not present in the input file
-  max_nthreads =    0
-
 -outvars: echo values of preprocessed input variables --------
            acell      1.0000000000E+00  1.0000000000E+00  1.0000000000E+00 Bohr
              amu      8.54678000E+01  1.80947900E+02  3.09737620E+01
                       1.59994000E+01
             ecut      4.40000000E+01 Hartree
-          fftalg         512
           irdden           1
           irdwfk           1
           istwfk        1    1
              ixc     -116133
              kpt      5.00000000E-01  5.00000000E-01  0.00000000E+00
                       0.00000000E+00  0.00000000E+00  0.00000000E+00
           kptopt           0
P           mkmem           2
P          mkqmem           2
P          mk1mem           2
            natom          12
            nband          49
           nbdbuf           4
            ngfft          60      60      96
             nkpt           2
            nstep        2000
             nsym           4
           ntypat           4
              occ      2.000000  2.000000  2.000000  2.000000  2.000000  2.000000
                       2.000000  2.000000  2.000000  2.000000  2.000000  2.000000
                       2.000000  2.000000  2.000000  2.000000  2.000000  2.000000
                       2.000000  2.000000  2.000000  2.000000  2.000000  2.000000
                       2.000000  2.000000  2.000000  2.000000  2.000000  2.000000
                       2.000000  2.000000  2.000000  2.000000  2.000000  2.000000
                       2.000000  2.000000  2.000000  2.000000  0.000000  0.000000
                       0.000000  0.000000  0.000000  0.000000  0.000000  0.000000
                       0.000000
        optdriver           1
            prtwf          -1
            rfdir           1       1       1
           rfelfd           2
            rprim      9.5875105232E+00  0.0000000000E+00  3.9949043860E-01
                       4.4871299816E+00  8.4726632508E+00  3.9949043860E-01
                       0.0000000000E+00  0.0000000000E+00  1.5943611112E+01
          spgroup          12
           symrel      1  0  0   0  1  0   0  0  1      -1  0  0   0 -1  0   0  0 -1
                       0 -1  0  -1  0  0   0  0 -1       0  1  0   1  0  0   0  0  1
           tolwfr      1.00000000E-20
            typat      1  2  3  3  4  4  4  4  4  4  4  4
           useylm           1
              wtk        0.50000    0.50000
           xangst      0.0000000000E+00  0.0000000000E+00  0.0000000000E+00
                       0.0000000000E+00  0.0000000000E+00  4.2184978116E+00
                       2.6394222369E+00  1.5888814909E+00  2.6530897636E+00
                       4.8085567374E+00  2.8946587974E+00  6.2067083298E+00
                       5.0821582450E+00  3.0593616499E+00  7.6523191737E+00
                       3.9966287315E+00  9.5552313918E-01  3.0911036511E+00
                       3.4513502427E+00  3.5280171492E+00  5.7686944424E+00
                       2.7149089777E+00  3.0846936526E+00  3.0911036511E+00
                       4.7330699965E+00  1.3988466358E+00  5.7686944424E+00
                       2.3658207293E+00  1.4241786384E+00  1.2074789198E+00
                       5.8822648343E+00  3.5410104490E+00  5.2732165936E+00
                       1.5657141400E+00  9.4252983942E-01  3.5865814998E+00
            xcart      0.0000000000E+00  0.0000000000E+00  0.0000000000E+00
                       0.0000000000E+00  0.0000000000E+00  7.9718055560E+00
                       4.9877851767E+00  3.0025508755E+00  5.0136130592E+00
                       9.0868553281E+00  5.4701123753E+00  1.1728978930E+01
                       9.6038872470E+00  5.7813556598E+00  1.4460787520E+01
                       7.5525337574E+00  1.8056770467E+00  5.8413393489E+00
                       6.5221067474E+00  6.6669862041E+00  1.0901252640E+01
                       5.1304344435E+00  5.8292262072E+00  5.8413393489E+00
                       8.9442060613E+00  2.6434370436E+00  1.0901252640E+01
                       4.4707532578E+00  2.6913075910E+00  2.2818044696E+00
                       1.1115869578E+01  6.6915399822E+00  9.9649352014E+00
                       2.9587709269E+00  1.7811232686E+00  6.7776567879E+00
             xred      0.0000000000E+00  0.0000000000E+00  0.0000000000E+00
                       0.0000000000E+00  0.0000000000E+00  5.0000000000E-01
                       3.5438100000E-01  3.5438100000E-01  2.9670000000E-01
                       6.4561900000E-01  6.4561900000E-01  7.0330000000E-01
                       6.8235400000E-01  6.8235400000E-01  8.7280100000E-01
                       6.8800400000E-01  2.1311800000E-01  3.4379600000E-01
                       3.1199600000E-01  7.8688200000E-01  6.5620400000E-01
                       2.1311800000E-01  6.8800400000E-01  3.4379600000E-01
                       7.8688200000E-01  3.1199600000E-01  6.5620400000E-01
                       3.1764600000E-01  3.1764600000E-01  1.2719900000E-01
                       7.8978000000E-01  7.8978000000E-01  5.8543300000E-01
                       2.1022000000E-01  2.1022000000E-01  4.1456700000E-01
            znucl       37.00000   73.00000   15.00000    8.00000

 chkinp: Checking input parameters for consistency.

== DATASET  1 ==================================================================
-   mpi_nproc: 1, omp_nthreads: -1 (-1 if OMP is not activated)

--- !DatasetInfo
iteration_state: {dtset: 1, }
dimensions: {natom: 12, nkpt: 2, mband: 49, nsppol: 1, nspinor: 1, nspden: 1, mpw: 18079, }
cutoff_energies: {ecut:  44.0, pawecutdg:  -1.0, }
electrons: {nelect:   8.00000000E+01, charge:   0.00000000E+00, occopt:   1.00000000E+00, tsmear:   1.00000000E-02, }
meta: {optdriver: 1, rfelfd: 2, }
...

 Real(R)+Recip(G) space primitive vectors, cartesian coordinates (Bohr,Bohr^-1):
 R(1)=  9.5875105  0.0000000  0.3994904  G(1)=  0.1043024 -0.0552386  0.0000000
 R(2)=  4.4871300  8.4726633  0.3994904  G(2)=  0.0000000  0.1180266  0.0000000
 R(3)=  0.0000000  0.0000000 15.9436111  G(3)= -0.0026134 -0.0015732  0.0627210
 Unit cell volume ucvol=  1.2951274E+03 bohr^3
 Angles (23,13,12)=  8.76139913E+01  8.76139913E+01  6.20344697E+01 degrees

 getcut: wavevector=  0.0000  0.0000  0.0000  ngfft=  60  60  96
         ecut(hartree)=     44.000   => boxcut(ratio)=   2.01654

--- Pseudopotential description ------------------------------------------------
- pspini: atom type   1  psp file is /scratch/users/j/a/jabreu/pseudos/PBEsol/Rb.psp8
- pspatm: opening atomic psp file    /scratch/users/j/a/jabreu/pseudos/PBEsol/Rb.psp8
- Rb    ONCVPSP-3.3.0  r_core=   1.71227   1.75361   1.90633
- 37.00000   9.00000    180112                znucl, zion, pspdat
    8 -116133    2    4       600   0.00000   pspcod,pspxc,lmax,lloc,mmax,r2well
    5.99000000000000    7.00000000000000    0.00000000000000   rchrg,fchrg,qchrg
     nproj     2     2     2
     extension_switch     1
  pspatm : epsatm=   34.48400912
         --- l  ekb(1:nproj) -->
             0    8.196957   -0.477221
             1    3.231347   -0.378736
             2   -1.047201    0.996637
 pspatm: atomic psp has been read  and splines computed

- pspini: atom type   2  psp file is /scratch/users/j/a/jabreu/pseudos/PBEsol/Ta.psp8
- pspatm: opening atomic psp file    /scratch/users/j/a/jabreu/pseudos/PBEsol/Ta.psp8
- Ta    ONCVPSP-3.3.0  r_core=   1.71294   1.71294   1.71294   2.25368
- 73.00000  13.00000    180112                znucl, zion, pspdat
    8 -116133    3    4       600   0.00000   pspcod,pspxc,lmax,lloc,mmax,r2well
    5.99000000000000    5.00000000000000    0.00000000000000   rchrg,fchrg,qchrg
     nproj     2     2     2     2
     extension_switch     1
  pspatm : epsatm=   21.70781236
         --- l  ekb(1:nproj) -->
             0   11.480337    1.447149
             1    5.630373    0.817168
             2    1.844704    0.232364
             3    4.923559    0.251242
 pspatm: atomic psp has been read  and splines computed

[...]

- pspini: atom type   4  psp file is /scratch/users/j/a/jabreu/pseudos/PBEsol/O.psp8
- pspatm: opening atomic psp file    /scratch/users/j/a/jabreu/pseudos/PBEsol/O.psp8
- O     ONCVPSP-3.3.0  r_core=   1.35509   1.45563   1.26150
-  8.00000   6.00000    180112                znucl, zion, pspdat
    8 -116133    2    4       600   0.00000   pspcod,pspxc,lmax,lloc,mmax,r2well
    5.99000000000000    4.00000000000000    0.00000000000000   rchrg,fchrg,qchrg
     nproj     2     2     1
     extension_switch     1
  pspatm : epsatm=    6.22910522
         --- l  ekb(1:nproj) -->
             0    6.050032    0.820363
             1   -4.739617   -1.153841
             2   -1.335834
 pspatm: atomic psp has been read  and splines computed

   9.65192679E+03                                ecore*ucvol(ha*bohr**3)

 ==>  initialize data related to q vector <==

 The list of irreducible perturbations for this q vector is:
    1)    idir= 1    ipert=  13
    2)    idir= 2    ipert=  13
    3)    idir= 3    ipert=  13

 Perturbation wavevector (in red.coord.)   0.000000  0.000000  0.000000
 Perturbation : derivative vs k along direction   1

 dfpt_looppert : COMMENT -
  In a d/dk calculation, iscf is set to -3 automatically.
 The set of symmetries contains only one element for this perturbation.
 symkpt : not enough symmetry to change the number of k points.

 Initialisation of the first-order wave-functions :
  ireadwf=   0

--- !BeginCycle
iteration_state: {dtset: 1, }
solver: {iscf: 7, nstep: 2000, nline: 4, wfoptalg: 0, }
tolerances: {tolwfr: 1.00E-20, }
...

[...]
 prteigrs : about to open file /scratch/users/j/a/jabreu/flow_simple_11atoms/flow/w216/t1/tmpdata/tmp_1WF1_EIG
 Expectation of eigenvalue derivatives (hartree) for nkpt=   2  k points:
  (in case of degenerate eigenvalues, averaged derivative)
 kpt#   1, nband= 49, wtk=  0.50000, kpt=  0.5000  0.5000  0.0000 (reduced coord)
   0.00000   -0.00000   -0.00000   -0.00000   -0.00000    0.00000    0.00000    0.00000
  -0.00000    0.00000    0.00000    0.00000   -0.00000   -0.00000    0.00000   -0.00000
  -0.00000    0.00000   -0.00000   -0.00000    0.00000    0.00000   -0.00000   -0.00000
  -0.00000    0.00000   -0.00000    0.00000    0.00000   -0.00000   -0.00000   -0.00000
   0.00000    0.00000    0.00000    0.00000    0.00000   -0.00000    0.00000    0.00000
  -0.00000    0.00000    0.00000    0.00000    0.00000    0.00000   -0.00001   -0.00000
  -0.00000
 prteigrs : prtvol=0 or 1, do not print more k-points.

 Eight components of 2nd-order total energy (hartree) are
 1,2,3: 0th-order hamiltonian combined with 1st-order wavefunctions
     kin0=   6.57385583E+01 eigvalue=   4.88348413E+00  local=  -3.24706364E+01
 4,5,6: 1st-order hamiltonian combined with 1st and 0th-order wfs
     kin1=  -9.28697307E+01  Hartree=   0.00000000E+00     xc=   0.00000000E+00
 7,8,9: eventually, occupation + non-local contributions
    edocc=   1.05386320E+01     enl0=  -1.50593103E+00   enl1=  -1.49848344E+00
 1-9 gives the relaxation energy (to be shifted if some occ is /=2.0)
   erelax=  -4.71841070E+01
  No Ewald or frozen-wf contrib.: the relaxation energy is the total one
 2DEtotal=   -0.4718410705E+02 Ha. Also 2DEtotal=   -0.128394484898E+04 eV
    (  non-var. 2DEtotal :   -4.7184107048E+01 Ha)

 Perturbation wavevector (in red.coord.)   0.000000  0.000000  0.000000
 Perturbation : derivative vs k along direction   2
 The set of symmetries contains only one element for this perturbation.
 symkpt : not enough symmetry to change the number of k points.

[...]

 Perturbation wavevector (in red.coord.)   0.000000  0.000000  0.000000
 Perturbation : derivative vs k along direction   3
 The set of symmetries contains only one element for this perturbation.
 symkpt : not enough symmetry to change the number of k points.

 Initialisation of the first-order wave-functions :
  ireadwf=   0

--- !BeginCycle
iteration_state: {dtset: 1, }
solver: {iscf: 7, nstep: 2000, nline: 4, wfoptalg: 0, }
tolerances: {tolwfr: 1.00E-20, }
...

     iter   2DEtotal(Ha)        deltaE(Ha) residm    vres2
-ETOT  1  -12.796321592939     -1.280E+01 1.993E-02 0.000E+00
 ETOT  2  -12.820155560439     -2.383E-02 6.385E-03 0.000E+00
 ETOT  3  -12.820422113458     -2.666E-04 2.339E-04 0.000E+00
 ETOT  4  -12.820428425943     -6.312E-06 2.126E-04 0.000E+00
 ETOT  5  -12.820428629417     -2.035E-07 1.600E-05 0.000E+00
 ETOT  6  -12.820428636702     -7.285E-09 1.454E-05 0.000E+00
 ETOT  7  -12.820428636978     -2.758E-10 1.228E-06 0.000E+00
 ETOT  8  -12.820428636989     -1.083E-11 1.144E-06 0.000E+00
 ETOT  9  -12.820428636989     -4.388E-13 1.088E-07 0.000E+00
 ETOT 10  -12.820428636989     -1.421E-14 9.905E-08 0.000E+00
 ETOT 11  -12.820428636989      0.000E+00 1.084E-08 0.000E+00
 ETOT 12  -12.820428636989     -3.553E-15 9.157E-09 0.000E+00
 ETOT 13  -12.820428636989      3.553E-15 9.708E-10 0.000E+00
 ETOT 14  -12.820428636989      0.000E+00 8.453E-10 0.000E+00
 ETOT 15  -12.820428636989      0.000E+00 9.129E-11 0.000E+00
 ETOT 16  -12.820428636989     -1.776E-15 8.150E-11 0.000E+00
 ETOT 17  -12.820428636989      0.000E+00 8.789E-12 0.000E+00
 ETOT 18  -12.820428636989      0.000E+00 7.939E-12 0.000E+00
 ETOT 19  -12.820428636989      0.000E+00 8.535E-13 0.000E+00
 ETOT 20  -12.820428636989      0.000E+00 7.774E-13 0.000E+00
 ETOT 21  -12.820428636989      0.000E+00 8.336E-14 0.000E+00
 ETOT 22  -12.820428636989      0.000E+00 7.643E-14 0.000E+00
 ETOT 23  -12.820428636989      0.000E+00 8.175E-15 0.000E+00
 ETOT 24  -12.820428636989     -1.776E-15 7.537E-15 0.000E+00
 ETOT 25  -12.820428636989      1.776E-15 8.044E-16 0.000E+00
 ETOT 26  -12.820428636989     -1.776E-15 7.453E-16 0.000E+00
 ETOT 27  -12.820428636989      1.776E-15 7.936E-17 0.000E+00
 ETOT 28  -12.820428636989      1.776E-15 7.386E-17 0.000E+00
 ETOT 29  -12.820428636989     -1.776E-15 7.847E-18 0.000E+00
 ETOT 30  -12.820428636989     -1.776E-15 7.333E-18 0.000E+00
 ETOT 31  -12.820428636989      0.000E+00 7.773E-19 0.000E+00
 ETOT 32  -12.820428636989      0.000E+00 7.292E-19 0.000E+00
 ETOT 33  -12.820428636989      1.776E-15 7.712E-20 0.000E+00
 ETOT 34  -12.820428636989      1.776E-15 7.260E-20 0.000E+00
 ETOT 35  -12.820428636989      0.000E+00 9.958E-21 0.000E+00

 At SCF step   35   max residual=  9.96E-21 < tolwfr=  1.00E-20 =>converged.

 ----iterations are completed or convergence reached----

 dfpt_looppert: DFPT cycle converged with prtwf=-1. Will skip output of the 1st-order WFK file.
 dfpt_looppert : ek2=    2.4907629056E+01
          f-sum rule ratio=    1.0060435880E+00
 prteigrs : about to open file /scratch/users/j/a/jabreu/flow_simple_11atoms/flow/w216/t1/tmpdata/tmp_1WF1_EIG
 Expectation of eigenvalue derivatives (hartree) for nkpt=   2  k points:
  (in case of degenerate eigenvalues, averaged derivative)
 kpt#   1, nband= 49, wtk=  0.50000, kpt=  0.5000  0.5000  0.0000 (reduced coord)
   0.00000   -0.00000    0.00000    0.00000   -0.00000   -0.00000   -0.00000   -0.00000
   0.00000   -0.00000    0.00000   -0.00000   -0.00000   -0.00000   -0.00000   -0.00000
   0.00000    0.00000    0.00000    0.00000   -0.00000   -0.00000   -0.00000   -0.00000
   0.00000   -0.00000   -0.00000   -0.00000    0.00000    0.00000   -0.00000    0.00000
  -0.00000   -0.00000    0.00000    0.00000    0.00000   -0.00000    0.00000    0.00000
  -0.00000   -0.00000    0.00000   -0.00000   -0.00000   -0.00000    0.00000   -0.00000
   0.00000
 prteigrs : prtvol=0 or 1, do not print more k-points.

 Eight components of 2nd-order total energy (hartree) are
 1,2,3: 0th-order hamiltonian combined with 1st-order wavefunctions
     kin0=   1.89257024E+01 eigvalue=   1.39465436E+00  local=  -9.59535271E+00
 4,5,6: 1st-order hamiltonian combined with 1st and 0th-order wfs
     kin1=  -2.50581605E+01  Hartree=   0.00000000E+00     xc=   0.00000000E+00
 7,8,9: eventually, occupation + non-local contributions
    edocc=   2.61761948E+00     enl0=  -5.22194929E-01   enl1=  -5.82696770E-01
 1-9 gives the relaxation energy (to be shifted if some occ is /=2.0)
   erelax=  -1.28204286E+01
  No Ewald or frozen-wf contrib.: the relaxation energy is the total one
 2DEtotal=   -0.1282042864E+02 Ha. Also 2DEtotal=   -0.348861604891E+03 eV
    (  non-var. 2DEtotal :   -1.2820428637E+01 Ha)

 CALCULATION OF EFFECTIVE MASSES
 NOTE : Additional infos (eff. mass eigenvalues, eigenvectors and, if degenerate, average mass) are available in stdout.

 K-point ( 0.500, 0.500, 0.000) | band =    40
 Effective mass tensor:
            -22.3586908015            -12.2141159508             14.0904286762
            -12.2141159508             -9.4214774902              8.4821674255
             14.0904286762              8.4821674255            -12.5843327204
 Effective mass tensor eigenvalues:
            -39.6902558012             -2.6054309244             -2.0688142865
 Angular average effective mass 1/(<1/m>)=  -3.3618062105
 Angular average effective mass for Frohlich model (<m**0.5>)**2=  -4.3313091398
 Effective masses along directions: (cart. coord. / red. coord. -> eff. mass)
    1:   1.000000  0.000000  0.000000 /   0.905713  0.423890  0.000000 ->  -4.5893525773
    2:   0.000000  1.000000  0.000000 /   0.000000  1.000000  0.000000 ->  -2.5828692648
    3:   0.000000  0.000000  1.000000 /   0.025041  0.025041  0.999373 ->  -3.4804950271
    4:   0.577350  0.577350  0.577350 /   0.432825  0.578976  0.690977 ->  -2.9722915342
    5:   0.000000  0.707107  0.707107 /   0.021890  0.486137  0.873608 ->  -2.3851243734
    6:   0.707107  0.000000  0.707107 /   0.513800  0.251401  0.820248 ->  -2.5715987236
    7:   0.707107  0.707107  0.000000 /   0.594733  0.803923  0.000000 ->  -7.0066606688

 K-point ( 0.000, 0.000, 0.000) | band =    41
 Effective mass tensor:
              1.2097340589              0.3778586746             -0.0970811061
              0.3778586746              0.8095176169             -0.0584782911
             -0.0970811061             -0.0584782911              5.0262155122
 Effective mass tensor eigenvalues:
              0.5820507237              1.4336256896              5.0297907746
 Angular average effective mass 1/(<1/m>)=   1.1474860393
 Angular average effective mass for Frohlich model (<m**0.5>)**2=   1.3874749964
 Effective masses along directions: (cart. coord. / red. coord. -> eff. mass)
    1:   1.000000  0.000000  0.000000 /   0.905713  0.423890  0.000000 ->   1.0323911722
    2:   0.000000  1.000000  0.000000 /   0.000000  1.000000  0.000000 ->   0.6913360488
    3:   0.000000  0.000000  1.000000 /   0.025041  0.025041  0.999373 ->   5.0172783812
    4:   0.577350  0.577350  0.577350 /   0.432825  0.578976  0.690977 ->   1.7091530902
    5:   0.000000  0.707107  0.707107 /   0.021890  0.486137  0.873608 ->   1.2033576551
    6:   0.707107  0.000000  0.707107 /   0.513800  0.251401  0.820248 ->   1.6738415674
    7:   0.707107  0.707107  0.000000 /   0.594733  0.803923  0.000000 ->   1.3220573330

 END OF EFFECTIVE MASSES SECTION

 ---- first-order wavefunction calculations are completed ----

 Total localisation tensor (bohr^2) in cartesian coordinates
  WARNING : still subject to testing - especially symmetries.
      direction              matrix element
   alpha     beta       real part   imaginary part
     1        1       1.1917950092    0.0000000000
     1        2       0.4043522278    0.0000000000
     1        3       0.0598019252    0.0000000000
     2        1       0.4043522278    0.0000000000
     2        2       0.7635036816    0.0000000000
     2        3       0.0359995921    0.0000000000
     3        1       0.0598019252    0.0000000000
     3        2       0.0359995921    0.0000000000
     3        3       0.6699038364    0.0000000000

 respfn : d/dk was computed, but no 2DTE, so no DDB output.

== END DATASET(S) ==============================================================

 -outvars: echo values of variables after computation  --------
            acell      1.0000000000E+00  1.0000000000E+00  1.0000000000E+00 Bohr
              amu      8.54678000E+01  1.80947900E+02  3.09737620E+01
                       1.59994000E+01
             ecut      4.40000000E+01 Hartree
           etotal     -1.2820428637E+01
            fcart      0.0000000000E+00  0.0000000000E+00  0.0000000000E+00
                       0.0000000000E+00  0.0000000000E+00  0.0000000000E+00
                       0.0000000000E+00  0.0000000000E+00  0.0000000000E+00
                       0.0000000000E+00  0.0000000000E+00  0.0000000000E+00
                       0.0000000000E+00  0.0000000000E+00  0.0000000000E+00
                       0.0000000000E+00  0.0000000000E+00  0.0000000000E+00
                       0.0000000000E+00  0.0000000000E+00  0.0000000000E+00
                       0.0000000000E+00  0.0000000000E+00  0.0000000000E+00
                       0.0000000000E+00  0.0000000000E+00  0.0000000000E+00
                       0.0000000000E+00  0.0000000000E+00  0.0000000000E+00
                       0.0000000000E+00  0.0000000000E+00  0.0000000000E+00
                       0.0000000000E+00  0.0000000000E+00  0.0000000000E+00
-          fftalg         512
           irdden           1
           irdwfk           1
           istwfk        1    1
              ixc     -116133
              kpt      5.00000000E-01  5.00000000E-01  0.00000000E+00
                       0.00000000E+00  0.00000000E+00  0.00000000E+00
           kptopt           0
P           mkmem           2
P          mkqmem           2
P          mk1mem           2
            natom          12
            nband          49
           nbdbuf           4
            ngfft          60      60      96
             nkpt           2
            nstep        2000
             nsym           4
           ntypat           4
              occ      2.000000  2.000000  2.000000  2.000000  2.000000  2.000000
                       2.000000  2.000000  2.000000  2.000000  2.000000  2.000000
                       2.000000  2.000000  2.000000  2.000000  2.000000  2.000000
                       2.000000  2.000000  2.000000  2.000000  2.000000  2.000000
                       2.000000  2.000000  2.000000  2.000000  2.000000  2.000000
                       2.000000  2.000000  2.000000  2.000000  2.000000  2.000000
                       2.000000  2.000000  2.000000  2.000000  0.000000  0.000000
                       0.000000  0.000000  0.000000  0.000000  0.000000  0.000000
                       0.000000
        optdriver           1
            prtwf          -1
            rfdir           1       1       1
           rfelfd           2
            rprim      9.5875105232E+00  0.0000000000E+00  3.9949043860E-01
                       4.4871299816E+00  8.4726632508E+00  3.9949043860E-01
                       0.0000000000E+00  0.0000000000E+00  1.5943611112E+01
          spgroup          12
           strten      0.0000000000E+00  0.0000000000E+00  0.0000000000E+00
                       0.0000000000E+00  0.0000000000E+00  0.0000000000E+00
           symrel      1  0  0   0  1  0   0  0  1      -1  0  0   0 -1  0   0  0 -1
                       0 -1  0  -1  0  0   0  0 -1       0  1  0   1  0  0   0  0  1
           tolwfr      1.00000000E-20
            typat      1  2  3  3  4  4  4  4  4  4  4  4
           useylm           1
              wtk        0.50000    0.50000
           xangst      0.0000000000E+00  0.0000000000E+00  0.0000000000E+00
                       0.0000000000E+00  0.0000000000E+00  4.2184978116E+00
                       2.6394222369E+00  1.5888814909E+00  2.6530897636E+00
                       4.8085567374E+00  2.8946587974E+00  6.2067083298E+00
                       5.0821582450E+00  3.0593616499E+00  7.6523191737E+00
                       3.9966287315E+00  9.5552313918E-01  3.0911036511E+00
                       3.4513502427E+00  3.5280171492E+00  5.7686944424E+00
                       2.7149089777E+00  3.0846936526E+00  3.0911036511E+00
                       4.7330699965E+00  1.3988466358E+00  5.7686944424E+00
                       2.3658207293E+00  1.4241786384E+00  1.2074789198E+00
                       5.8822648343E+00  3.5410104490E+00  5.2732165936E+00
                       1.5657141400E+00  9.4252983942E-01  3.5865814998E+00
            xcart      0.0000000000E+00  0.0000000000E+00  0.0000000000E+00
                       0.0000000000E+00  0.0000000000E+00  7.9718055560E+00
                       4.9877851767E+00  3.0025508755E+00  5.0136130592E+00
                       9.0868553281E+00  5.4701123753E+00  1.1728978930E+01
                       9.6038872470E+00  5.7813556598E+00  1.4460787520E+01
                       7.5525337574E+00  1.8056770467E+00  5.8413393489E+00
                       6.5221067474E+00  6.6669862041E+00  1.0901252640E+01
                       5.1304344435E+00  5.8292262072E+00  5.8413393489E+00
                       8.9442060613E+00  2.6434370436E+00  1.0901252640E+01
                       4.4707532578E+00  2.6913075910E+00  2.2818044696E+00
                       1.1115869578E+01  6.6915399822E+00  9.9649352014E+00
                       2.9587709269E+00  1.7811232686E+00  6.7776567879E+00
             xred      0.0000000000E+00  0.0000000000E+00  0.0000000000E+00
                       0.0000000000E+00  0.0000000000E+00  5.0000000000E-01
                       3.5438100000E-01  3.5438100000E-01  2.9670000000E-01
                       6.4561900000E-01  6.4561900000E-01  7.0330000000E-01
                       6.8235400000E-01  6.8235400000E-01  8.7280100000E-01
                       6.8800400000E-01  2.1311800000E-01  3.4379600000E-01
                       3.1199600000E-01  7.8688200000E-01  6.5620400000E-01
                       2.1311800000E-01  6.8800400000E-01  3.4379600000E-01
                       7.8688200000E-01  3.1199600000E-01  6.5620400000E-01
                       3.1764600000E-01  3.1764600000E-01  1.2719900000E-01
                       7.8978000000E-01  7.8978000000E-01  5.8543300000E-01
                       2.1022000000E-01  2.1022000000E-01  4.1456700000E-01
            znucl       37.00000   73.00000   15.00000    8.00000

- Timing analysis has been suppressed with timopt=0

 Suggested references for the acknowledgment of ABINIT usage.

 Calculation completed.
.Delivered   2 WARNINGs and   5 COMMENTs to log file.