.Version 9.5.1 of ABINIT

 ABINIT is a project of the Universite Catholique de Louvain,
 Corning Inc. and other collaborators, see ~abinit/doc/developers/contributors.txt .
 acknowledgments of the ABINIT effort.

.Starting date : Wed 19 May 2021.
- ( at 04h41 )

- input  file    -> /scratch/users/j/a/jabreu/flow_simple_8atoms/flow/w447/t1/run.abi
- output file    -> /scratch/users/j/a/jabreu/flow_simple_8atoms/flow/w447/t1/run.abo
- root for input  files -> /scratch/users/j/a/jabreu/flow_simple_8atoms/flow/w447/t1/indata/in
- root for output files -> /scratch/users/j/a/jabreu/flow_simple_8atoms/flow/w447/t1/outdata/out

 Symmetries : space group I-4 2 m (#121); Bravais tI (body-center tetrag.)
     intxc =       0      iscf =       7    lmnmax =      25     lnmax =       7
     mgfft =      80  mpssoang =       4    mqgrid =    3156     natom =       8
  nloc_mem =       1    nspden =       1   nspinor =       1    nsppol =       1
      nsym =       8    n1xccc =    2501    ntypat =       4    occopt =       1
   xclevel =       2
-    mband =          67        mffmem =           1         mkmem =           2
-   mkqmem =           2        mk1mem =           2           mpw =       20331
      nfft =      512000          nkpt =           2
  Rough estimation (10% accuracy) of disk space for files :

------------- Echo of variables that govern the present computation ------------
-
- outvars: echo of selected default values
-   iomode0 =  0 , fftalg0 =512 , wfoptalg0 =  0
-
- outvars: echo of global parameters not present in the input file
-  max_nthreads =    0
-
 -outvars: echo values of preprocessed input variables --------
            acell      1.0000000000E+00  1.0000000000E+00  1.0000000000E+00 Bohr
              amu      3.90983000E+01  1.18710000E+02  2.00590000E+02
                       7.89600000E+01
             ecut      4.30000000E+01 Hartree
-          fftalg         512
           irdden           1
           irdwfk           1
           istwfk        0    1
              ixc     -116133
              kpt     -1.38777878E-17  1.38777878E-17  1.76470588E-01
                       0.00000000E+00  0.00000000E+00  0.00000000E+00
           kptopt           0
P           mkmem           2
P          mkqmem           2
P          mk1mem           2
            natom           8
            nband          67
           nbdbuf           4
            ngfft          80      80      80
             nkpt           2
            nstep        2000
             nsym           8
           ntypat           4
              occ      2.000000  2.000000  2.000000  2.000000  2.000000  2.000000
                       2.000000  2.000000  2.000000  2.000000  2.000000  2.000000
                       2.000000  2.000000  2.000000  2.000000  2.000000  2.000000
                       2.000000  2.000000  2.000000  2.000000  2.000000  2.000000
                       2.000000  2.000000  2.000000  2.000000  2.000000  2.000000
                       2.000000  2.000000  2.000000  2.000000  2.000000  2.000000
                       2.000000  2.000000  2.000000  2.000000  2.000000  2.000000
                       2.000000  2.000000  2.000000  2.000000  2.000000  2.000000
                       2.000000  2.000000  2.000000  2.000000  2.000000  2.000000
                       2.000000  2.000000  2.000000  2.000000  0.000000  0.000000
                       0.000000  0.000000  0.000000  0.000000  0.000000  0.000000
                       0.000000
        optdriver           1
            prtwf          -1
            rfdir           1       1       1
           rfelfd           2
            rprim      1.2070389435E+01  0.0000000000E+00 -3.4471302736E+00
                      -6.8693958077E+00  9.9250038963E+00 -3.4471302736E+00
                       0.0000000000E+00  0.0000000000E+00  1.2552968104E+01
          spgroup         121
           symrel      1  0  0   0  1  0   0  0  1      -1 -1 -1   0  0  1   0  1  0
                       0  1  0   1  0  0  -1 -1 -1       0  0  1  -1 -1 -1   1  0  0
                       0  1  0   1  0  0   0  0  1      -1 -1 -1   0  0  1   1  0  0
                       1  0  0   0  1  0  -1 -1 -1       0  0  1  -1 -1 -1   0  1  0
           tolwfr      1.00000000E-20
            typat      1  1  2  3  4  4  4  4
           useylm           1
              wtk        0.50000    0.50000
           xangst     -1.8175638491E+00  2.6260429285E+00  2.4093009226E+00
                       3.1936874938E+00  0.0000000000E+00  2.4093009226E+00
                       1.3761236447E+00  2.6260429285E+00 -1.8241427758E+00
                       0.0000000000E+00  0.0000000000E+00  0.0000000000E+00
                       3.7715252062E+00  2.9362311193E+00 -2.6772815831E+00
                       2.6792887478E-01  4.7722185286E+00 -2.6772815831E+00
                       1.2135759198E+00  2.3158547378E+00  7.1344913423E-01
                       2.5146457809E-01  4.7986732850E-01  3.9872875496E+00
            xcart     -3.4346979039E+00  4.9625019482E+00  4.5529189154E+00
                       6.0351947173E+00  0.0000000000E+00  4.5529189154E+00
                       2.6004968135E+00  4.9625019482E+00 -3.4471302736E+00
                       0.0000000000E+00  0.0000000000E+00  0.0000000000E+00
                       7.1271497430E+00  5.5486726783E+00 -5.0593289727E+00
                       5.0631219643E-01  9.0181860653E+00 -5.0593289727E+00
                       2.2933261299E+00  4.3763312180E+00  1.3482234734E+00
                       4.7519918472E-01  9.0681783099E-01  7.5348814818E+00
             xred      5.5511151231E-17  5.0000000000E-01  5.0000000000E-01
                       5.0000000000E-01  0.0000000000E+00  5.0000000000E-01
                       5.0000000000E-01  5.0000000000E-01 -4.8572257327E-17
                       0.0000000000E+00  0.0000000000E+00  0.0000000000E+00
                       9.0863300000E-01  5.5906000000E-01 -2.7755575616E-17
                       5.5906000000E-01  9.0863300000E-01 -1.4224732503E-16
                       4.4094000000E-01  4.4094000000E-01  3.4957300000E-01
                       9.1367000000E-02  9.1367000000E-02  6.5042700000E-01
            znucl       19.00000   50.00000   80.00000   34.00000

 chkinp: Checking input parameters for consistency.

== DATASET  1 ==================================================================
-   mpi_nproc: 1, omp_nthreads: -1 (-1 if OMP is not activated)

--- !DatasetInfo
iteration_state: {dtset: 1, }
dimensions: {natom: 8, nkpt: 2, mband: 67, nsppol: 1, nspinor: 1, nspden: 1, mpw: 20331, }
cutoff_energies: {ecut:  43.0, pawecutdg:  -1.0, }
electrons: {nelect:   1.16000000E+02, charge:   0.00000000E+00, occopt:   1.00000000E+00, tsmear:   1.00000000E-02, }
meta: {optdriver: 1, rfelfd: 2, }
...

 Real(R)+Recip(G) space primitive vectors, cartesian coordinates (Bohr,Bohr^-1):
 R(1)= 12.0703894  0.0000000 -3.4471303  G(1)=  0.0828474  0.0573412  0.0000000
 R(2)= -6.8693958  9.9250039 -3.4471303  G(2)=  0.0000000  0.1007556  0.0000000
 R(3)=  0.0000000  0.0000000 12.5529681  G(3)=  0.0227504  0.0434145  0.0796624
 Unit cell volume ucvol=  1.5038288E+03 bohr^3
 Angles (23,13,12)=  1.05938583E+02  1.05938583E+02  1.16794151E+02 degrees

 getcut: wavevector=  0.0000  0.0000  0.0000  ngfft=  80  80  80
         ecut(hartree)=     43.000   => boxcut(ratio)=   2.15896

--- Pseudopotential description ------------------------------------------------
- pspini: atom type   1  psp file is /scratch/users/j/a/jabreu/pseudos/PBEsol/K.psp8
- pspatm: opening atomic psp file    /scratch/users/j/a/jabreu/pseudos/PBEsol/K.psp8
- K     ONCVPSP-3.3.0  r_core=   1.36296   1.46408   1.61068
- 19.00000   9.00000    180112                znucl, zion, pspdat
    8 -116133    2    4       400   0.00000   pspcod,pspxc,lmax,lloc,mmax,r2well
    3.99000000000000    5.00000000000000    0.00000000000000   rchrg,fchrg,qchrg
     nproj     2     2     2
     extension_switch     1
  pspatm : epsatm=    8.32487830
         --- l  ekb(1:nproj) -->
             0   10.921326    0.816676
             1    4.431000    0.560368
             2   -3.384038   -1.043186
 pspatm: atomic psp has been read  and splines computed

- pspini: atom type   2  psp file is /scratch/users/j/a/jabreu/pseudos/PBEsol/Sn.psp8
- pspatm: opening atomic psp file    /scratch/users/j/a/jabreu/pseudos/PBEsol/Sn.psp8
- Sn    ONCVPSP-3.3.0  r_core=   2.27326   2.62311   1.85601
- 50.00000  14.00000    180112                znucl, zion, pspdat
    8 -116133    2    4       600   0.00000   pspcod,pspxc,lmax,lloc,mmax,r2well
    5.99000000000000    6.50000000000000    0.00000000000000   rchrg,fchrg,qchrg
     nproj     2     2     2
     extension_switch     1
  pspatm : epsatm=   32.44586081
         --- l  ekb(1:nproj) -->
             0    5.587869    0.749373
             1    4.197111    0.728791
             2   -5.271877   -1.523486
 pspatm: atomic psp has been read  and splines computed

[...]

- pspini: atom type   4  psp file is /scratch/users/j/a/jabreu/pseudos/PBEsol/Se.psp8
- pspatm: opening atomic psp file    /scratch/users/j/a/jabreu/pseudos/PBEsol/Se.psp8
- Se    ONCVPSP-3.3.0  r_core=   1.81943   1.50330   1.90835
- 34.00000  16.00000    180112                znucl, zion, pspdat
    8 -116133    2    4       600   0.00000   pspcod,pspxc,lmax,lloc,mmax,r2well
    5.99000000000000    5.00000000000000    0.00000000000000   rchrg,fchrg,qchrg
     nproj     2     2     2
     extension_switch     1
  pspatm : epsatm=   29.17862020
         --- l  ekb(1:nproj) -->
             0    8.973804    1.019550
             1    6.849857    1.297308
             2   -9.203962   -3.731027
 pspatm: atomic psp has been read  and splines computed

   2.27748451E+04                                ecore*ucvol(ha*bohr**3)

-inwffil : will read wavefunctions from disk file /scratch/users/j/a/jabreu/flow_simple_8atoms/flow/w447/t1/indata/in_WFK

 ==>  initialize data related to q vector <==

 The list of irreducible perturbations for this q vector is:
    1)    idir= 1    ipert=   9
    2)    idir= 2    ipert=   9
    3)    idir= 3    ipert=   9

 Perturbation wavevector (in red.coord.)   0.000000  0.000000  0.000000
 Perturbation : derivative vs k along direction   1

 dfpt_looppert : COMMENT -
  In a d/dk calculation, iscf is set to -3 automatically.
 The set of symmetries contains only one element for this perturbation.
 symkpt : not enough symmetry to change the number of k points.

[...]

 Initialisation of the first-order wave-functions :
  ireadwf=   0

--- !BeginCycle
iteration_state: {dtset: 1, }
solver: {iscf: 7, nstep: 2000, nline: 4, wfoptalg: 0, }
tolerances: {tolwfr: 1.00E-20, }
...

     iter   2DEtotal(Ha)        deltaE(Ha) residm    vres2
-ETOT  1  -94.961074631110     -9.496E+01 1.561E-01 0.000E+00
 ETOT  2  -95.096253050192     -1.352E-01 1.550E-02 0.000E+00
 ETOT  3  -95.098379290869     -2.126E-03 1.971E-03 0.000E+00
 ETOT  4  -95.098473850280     -9.456E-05 4.558E-04 0.000E+00
 ETOT  5  -95.098479162540     -5.312E-06 6.928E-05 0.000E+00
 ETOT  6  -95.098479488851     -3.263E-07 1.997E-05 0.000E+00
[...]
 ETOT 30  -95.098479511258      0.000E+00 8.137E-20 0.000E+00
 ETOT 31  -95.098479511258     -1.421E-14 1.851E-20 0.000E+00
 ETOT 32  -95.098479511258      1.421E-14 9.940E-21 0.000E+00

 At SCF step   32   max residual=  9.94E-21 < tolwfr=  1.00E-20 =>converged.

 ----iterations are completed or convergence reached----

 dfpt_looppert: DFPT cycle converged with prtwf=-1. Will skip output of the 1st-order WFK file.
 dfpt_looppert : ek2=    9.2979316592E+01
          f-sum rule ratio=    1.0192535060E+00
 prteigrs : about to open file /scratch/users/j/a/jabreu/flow_simple_8atoms/flow/w447/t1/tmpdata/tmp_1WF1_EIG
 Expectation of eigenvalue derivatives (hartree) for nkpt=   2  k points:
  (in case of degenerate eigenvalues, averaged derivative)
 kpt#   1, nband= 67, wtk=  0.50000, kpt=  0.0000  0.0000  0.1765 (reduced coord)
  -0.00000   -0.00000   -0.00000   -0.00000   -0.00000   -0.00000    0.00000   -0.00000
   0.00000    0.00000   -0.00000    0.00000    0.00000   -0.00000   -0.00000   -0.00000
   0.00000   -0.00000    0.00000   -0.00000    0.00000    0.00000   -0.00000    0.00000
   0.00001   -0.00001   -0.00000    0.00002    0.00001   -0.00000   -0.00001   -0.00201
  -0.01679    0.00109   -0.00032    0.00075    0.00100    0.02489    0.00129   -0.01112
   0.00168   -0.00473   -0.00718   -0.00035   -0.00359    0.00010   -0.00345   -0.02778
   0.02908   -0.00273    0.04770    0.00194    0.04569    0.00951   -0.03181   -0.03377
  -0.02683    0.00122    0.05072   -0.02840   -0.05879   -0.00198   -0.01113    0.04114
  -0.06323    0.00483    0.00988
 prteigrs : prtvol=0 or 1, do not print more k-points.

 Eight components of 2nd-order total energy (hartree) are
 1,2,3: 0th-order hamiltonian combined with 1st-order wavefunctions
     kin0=   1.11498972E+02 eigvalue=   1.53425344E+01  local=  -5.19506006E+01
 4,5,6: 1st-order hamiltonian combined with 1st and 0th-order wfs
     kin1=  -9.47694944E+01  Hartree=   0.00000000E+00     xc=   0.00000000E+00
 7,8,9: eventually, occupation + non-local contributions
    edocc=   1.00906991E+01     enl0=   1.01168742E+01   enl1=  -9.54274646E+01
 1-9 gives the relaxation energy (to be shifted if some occ is /=2.0)
   erelax=  -9.50984795E+01
  No Ewald or frozen-wf contrib.: the relaxation energy is the total one
 2DEtotal=   -0.9509847951E+02 Ha. Also 2DEtotal=   -0.258776123048E+04 eV
    (  non-var. 2DEtotal :   -9.5098479510E+01 Ha)

 Perturbation wavevector (in red.coord.)   0.000000  0.000000  0.000000
 Perturbation : derivative vs k along direction   2
 The set of symmetries contains only one element for this perturbation.
 symkpt : not enough symmetry to change the number of k points.

[...]

 Perturbation wavevector (in red.coord.)   0.000000  0.000000  0.000000
 Perturbation : derivative vs k along direction   3
 The set of symmetries contains only one element for this perturbation.
 symkpt : not enough symmetry to change the number of k points.

-inwffil : will read wavefunctions from disk file /scratch/users/j/a/jabreu/flow_simple_8atoms/flow/w447/t1/indata/in_WFK

 Initialisation of the first-order wave-functions :
  ireadwf=   0

--- !BeginCycle
iteration_state: {dtset: 1, }
solver: {iscf: 7, nstep: 2000, nline: 4, wfoptalg: 0, }
tolerances: {tolwfr: 1.00E-20, }
...

     iter   2DEtotal(Ha)        deltaE(Ha) residm    vres2
-ETOT  1  -81.319561498867     -8.132E+01 5.731E-02 0.000E+00
 ETOT  2  -81.426707501380     -1.071E-01 7.084E-03 0.000E+00
 ETOT  3  -81.428081571009     -1.374E-03 8.169E-04 0.000E+00
 ETOT  4  -81.428131297521     -4.973E-05 1.619E-04 0.000E+00
 ETOT  5  -81.428133733860     -2.436E-06 2.617E-05 0.000E+00
 ETOT  6  -81.428133868594     -1.347E-07 6.084E-06 0.000E+00
 ETOT  7  -81.428133876632     -8.037E-09 1.230E-06 0.000E+00
 ETOT  8  -81.428133877132     -5.007E-10 3.054E-07 0.000E+00
 ETOT  9  -81.428133877165     -3.219E-11 7.589E-08 0.000E+00
 ETOT 10  -81.428133877167     -2.146E-12 1.928E-08 0.000E+00
 ETOT 11  -81.428133877167     -9.948E-14 4.799E-09 0.000E+00
 ETOT 12  -81.428133877167      1.421E-14 1.230E-09 0.000E+00
 ETOT 13  -81.428133877167     -5.684E-14 3.069E-10 0.000E+00
 ETOT 14  -81.428133877167      1.421E-14 7.886E-11 0.000E+00
 ETOT 15  -81.428133877167     -1.421E-14 1.974E-11 0.000E+00
 ETOT 16  -81.428133877167     -1.421E-14 5.070E-12 0.000E+00
 ETOT 17  -81.428133877167      1.421E-14 1.275E-12 0.000E+00
 ETOT 18  -81.428133877167     -1.421E-14 3.267E-13 0.000E+00
 ETOT 19  -81.428133877167      0.000E+00 8.249E-14 0.000E+00
 ETOT 20  -81.428133877167      0.000E+00 2.108E-14 0.000E+00
 ETOT 21  -81.428133877167      0.000E+00 5.347E-15 0.000E+00
 ETOT 22  -81.428133877167      0.000E+00 1.362E-15 0.000E+00
 ETOT 23  -81.428133877167     -1.421E-14 3.471E-16 0.000E+00
 ETOT 24  -81.428133877167      1.421E-14 8.810E-17 0.000E+00
 ETOT 25  -81.428133877167      0.000E+00 2.255E-17 0.000E+00
 ETOT 26  -81.428133877167      0.000E+00 5.707E-18 0.000E+00
 ETOT 27  -81.428133877167      0.000E+00 1.467E-18 0.000E+00
 ETOT 28  -81.428133877167      1.421E-14 3.703E-19 0.000E+00
 ETOT 29  -81.428133877167     -1.421E-14 9.562E-20 0.000E+00
 ETOT 30  -81.428133877167      0.000E+00 2.409E-20 0.000E+00
 ETOT 31  -81.428133877167      0.000E+00 9.818E-21 0.000E+00

 At SCF step   31   max residual=  9.82E-21 < tolwfr=  1.00E-20 =>converged.

 ----iterations are completed or convergence reached----

 dfpt_looppert: DFPT cycle converged with prtwf=-1. Will skip output of the 1st-order WFK file.
 dfpt_looppert : ek2=    8.0127461599E+01
          f-sum rule ratio=    1.0069280587E+00
 prteigrs : about to open file /scratch/users/j/a/jabreu/flow_simple_8atoms/flow/w447/t1/tmpdata/tmp_1WF1_EIG
 Expectation of eigenvalue derivatives (hartree) for nkpt=   2  k points:
  (in case of degenerate eigenvalues, averaged derivative)
 kpt#   1, nband= 67, wtk=  0.50000, kpt=  0.0000  0.0000  0.1765 (reduced coord)
  -0.00000   -0.00000   -0.00000   -0.00000   -0.00001   -0.00000    0.00001   -0.00000
   0.00000    0.00000   -0.00001    0.00000    0.00000   -0.00000   -0.00000   -0.00000
   0.00000   -0.00000    0.00000   -0.00000    0.00000    0.00000   -0.00000    0.00000
   0.00003   -0.00001   -0.00000    0.00004    0.00002   -0.00001   -0.00001   -0.00402
  -0.03358    0.00219   -0.00063    0.00150    0.00200    0.04978    0.00259   -0.02224
   0.00336   -0.00945   -0.01436   -0.00070   -0.00717    0.00020   -0.00691   -0.05557
   0.05815   -0.00546    0.09540    0.00388    0.09139    0.01902   -0.06362   -0.06753
  -0.05365    0.00243    0.10144   -0.05680   -0.11759   -0.00397   -0.02226    0.08228
  -0.12646    0.00963    0.01990
 prteigrs : prtvol=0 or 1, do not print more k-points.

 Eight components of 2nd-order total energy (hartree) are
 1,2,3: 0th-order hamiltonian combined with 1st-order wavefunctions
     kin0=   9.59205727E+01 eigvalue=   1.36231399E+01  local=  -4.48994693E+01
 4,5,6: 1st-order hamiltonian combined with 1st and 0th-order wfs
     kin1=  -8.06825894E+01  Hartree=   0.00000000E+00     xc=   0.00000000E+00
 7,8,9: eventually, occupation + non-local contributions
    edocc=   7.79314872E+00     enl0=   8.99074181E+00   enl1=  -8.21736784E+01
 1-9 gives the relaxation energy (to be shifted if some occ is /=2.0)
   erelax=  -8.14281339E+01
  No Ewald or frozen-wf contrib.: the relaxation energy is the total one
 2DEtotal=   -0.8142813388E+02 Ha. Also 2DEtotal=   -0.221577220794E+04 eV
    (  non-var. 2DEtotal :   -8.1428133877E+01 Ha)

 CALCULATION OF EFFECTIVE MASSES
 NOTE : Additional infos (eff. mass eigenvalues, eigenvectors and, if degenerate, average mass) are available in stdout.

 K-point (-0.000, 0.000, 0.176) | band =    58
 Effective mass tensor:
             -0.6999540897             -0.4364117856             -0.0874832699
             -0.4364117856             -1.3040458943             -0.1669460422
             -0.0874832699             -0.1669460422             -1.7230426615
 Effective mass tensor eigenvalues:
             -1.8390270684             -1.4167574938             -0.4712580833
 Angular average effective mass 1/(<1/m>)=  -0.8897899092
 Angular average effective mass for Frohlich model (<m**0.5>)**2=  -0.9985501215
 Effective masses along directions: (cart. coord. / red. coord. -> eff. mass)
    1:   1.000000  0.000000  0.000000 /   0.869109 -0.494620  0.000000 ->  -0.5533172933
    2:   0.000000  1.000000  0.000000 /   0.000000  1.000000  0.000000 ->  -1.0245698737
    3:   0.000000  0.000000  1.000000 /  -0.255981 -0.255981  0.932173 ->  -1.6998656977
    4:   0.577350  0.577350  0.577350 /   0.566034 -0.025700  0.823981 ->  -1.5188129133
    5:   0.000000  0.707107  0.707107 /  -0.237073  0.445509  0.863318 ->  -1.3926140733
    6:   0.707107  0.000000  0.707107 /   0.468788 -0.560840  0.682420 ->  -0.8589542306
    7:   0.707107  0.707107  0.000000 /   0.969420  0.245408  0.000000 ->  -1.2640240375

 K-point ( 0.000, 0.000, 0.000) | band =    59
 Effective mass tensor:
              0.2657724332             -0.0390273457              0.0271097812
             -0.0390273457              0.2117484177              0.0517333237
              0.0271097812              0.0517333237              0.2502881026
 Effective mass tensor eigenvalues:
              0.1553611362              0.2862239081              0.2862239092
 Angular average effective mass 1/(<1/m>)=   0.2234777928
 Angular average effective mass for Frohlich model (<m**0.5>)**2=   0.2296142198
 Effective masses along directions: (cart. coord. / red. coord. -> eff. mass)
    1:   1.000000  0.000000  0.000000 /   0.869109 -0.494620  0.000000 ->   0.2529287929
    2:   0.000000  1.000000  0.000000 /   0.000000  1.000000  0.000000 ->   0.1934768718
    3:   0.000000  0.000000  1.000000 /  -0.255981 -0.255981  0.932173 ->   0.2324557369
    4:   0.577350  0.577350  0.577350 /   0.566034 -0.025700  0.823981 ->   0.2578782794
    5:   0.000000  0.707107  0.707107 /  -0.237073  0.445509  0.863318 ->   0.2799666480
    6:   0.707107  0.000000  0.707107 /   0.468788 -0.560840  0.682420 ->   0.2842409339
    7:   0.707107  0.707107  0.000000 /   0.969420  0.245408  0.000000 ->   0.1838648351

 END OF EFFECTIVE MASSES SECTION

 ---- first-order wavefunction calculations are completed ----

 Total localisation tensor (bohr^2) in cartesian coordinates
  WARNING : still subject to testing - especially symmetries.
      direction              matrix element
   alpha     beta       real part   imaginary part
     1        1       2.2248364184    0.0000000000
     1        2      -0.7864188487    0.0000000000
     1        3      -0.2067986474    0.0000000000
     2        1      -0.7864188487    0.0000000000
     2        2       1.1362294961    0.0000000000
     2        3      -0.3946327009    0.0000000000
     3        1      -0.2067986474    0.0000000000
     3        2      -0.3946327009    0.0000000000
     3        3       1.6164265343    0.0000000000

 respfn : d/dk was computed, but no 2DTE, so no DDB output.

== END DATASET(S) ==============================================================

 -outvars: echo values of variables after computation  --------
            acell      1.0000000000E+00  1.0000000000E+00  1.0000000000E+00 Bohr
              amu      3.90983000E+01  1.18710000E+02  2.00590000E+02
                       7.89600000E+01
             ecut      4.30000000E+01 Hartree
           etotal     -8.1428133877E+01
            fcart      0.0000000000E+00  0.0000000000E+00  0.0000000000E+00
                       0.0000000000E+00  0.0000000000E+00  0.0000000000E+00
                       0.0000000000E+00  0.0000000000E+00  0.0000000000E+00
                       0.0000000000E+00  0.0000000000E+00  0.0000000000E+00
                       0.0000000000E+00  0.0000000000E+00  0.0000000000E+00
                       0.0000000000E+00  0.0000000000E+00  0.0000000000E+00
                       0.0000000000E+00  0.0000000000E+00  0.0000000000E+00
                       0.0000000000E+00  0.0000000000E+00  0.0000000000E+00
-          fftalg         512
           irdden           1
           irdwfk           1
           istwfk        0    1
              ixc     -116133
              kpt     -1.38777878E-17  1.38777878E-17  1.76470588E-01
                       0.00000000E+00  0.00000000E+00  0.00000000E+00
           kptopt           0
P           mkmem           2
P          mkqmem           2
P          mk1mem           2
            natom           8
            nband          67
           nbdbuf           4
            ngfft          80      80      80
             nkpt           2
            nstep        2000
             nsym           8
           ntypat           4
              occ      2.000000  2.000000  2.000000  2.000000  2.000000  2.000000
                       2.000000  2.000000  2.000000  2.000000  2.000000  2.000000
                       2.000000  2.000000  2.000000  2.000000  2.000000  2.000000
                       2.000000  2.000000  2.000000  2.000000  2.000000  2.000000
                       2.000000  2.000000  2.000000  2.000000  2.000000  2.000000
                       2.000000  2.000000  2.000000  2.000000  2.000000  2.000000
                       2.000000  2.000000  2.000000  2.000000  2.000000  2.000000
                       2.000000  2.000000  2.000000  2.000000  2.000000  2.000000
                       2.000000  2.000000  2.000000  2.000000  2.000000  2.000000
                       2.000000  2.000000  2.000000  2.000000  0.000000  0.000000
                       0.000000  0.000000  0.000000  0.000000  0.000000  0.000000
                       0.000000
        optdriver           1
            prtwf          -1
            rfdir           1       1       1
           rfelfd           2
            rprim      1.2070389435E+01  0.0000000000E+00 -3.4471302736E+00
                      -6.8693958077E+00  9.9250038963E+00 -3.4471302736E+00
                       0.0000000000E+00  0.0000000000E+00  1.2552968104E+01
          spgroup         121
           strten      0.0000000000E+00  0.0000000000E+00  0.0000000000E+00
                       0.0000000000E+00  0.0000000000E+00  0.0000000000E+00
           symrel      1  0  0   0  1  0   0  0  1      -1 -1 -1   0  0  1   0  1  0
                       0  1  0   1  0  0  -1 -1 -1       0  0  1  -1 -1 -1   1  0  0
                       0  1  0   1  0  0   0  0  1      -1 -1 -1   0  0  1   1  0  0
                       1  0  0   0  1  0  -1 -1 -1       0  0  1  -1 -1 -1   0  1  0
           tolwfr      1.00000000E-20
            typat      1  1  2  3  4  4  4  4
           useylm           1
              wtk        0.50000    0.50000
           xangst     -1.8175638491E+00  2.6260429285E+00  2.4093009226E+00
                       3.1936874938E+00  0.0000000000E+00  2.4093009226E+00
                       1.3761236447E+00  2.6260429285E+00 -1.8241427758E+00
                       0.0000000000E+00  0.0000000000E+00  0.0000000000E+00
                       3.7715252062E+00  2.9362311193E+00 -2.6772815831E+00
                       2.6792887478E-01  4.7722185286E+00 -2.6772815831E+00
                       1.2135759198E+00  2.3158547378E+00  7.1344913423E-01
                       2.5146457809E-01  4.7986732850E-01  3.9872875496E+00
            xcart     -3.4346979039E+00  4.9625019482E+00  4.5529189154E+00
                       6.0351947173E+00  0.0000000000E+00  4.5529189154E+00
                       2.6004968135E+00  4.9625019482E+00 -3.4471302736E+00
                       0.0000000000E+00  0.0000000000E+00  0.0000000000E+00
                       7.1271497430E+00  5.5486726783E+00 -5.0593289727E+00
                       5.0631219643E-01  9.0181860653E+00 -5.0593289727E+00
                       2.2933261299E+00  4.3763312180E+00  1.3482234734E+00
                       4.7519918472E-01  9.0681783099E-01  7.5348814818E+00
             xred      5.5511151231E-17  5.0000000000E-01  5.0000000000E-01
                       5.0000000000E-01  0.0000000000E+00  5.0000000000E-01
                       5.0000000000E-01  5.0000000000E-01 -4.8572257327E-17
                       0.0000000000E+00  0.0000000000E+00  0.0000000000E+00
                       9.0863300000E-01  5.5906000000E-01 -2.7755575616E-17
                       5.5906000000E-01  9.0863300000E-01 -1.4224732503E-16
                       4.4094000000E-01  4.4094000000E-01  3.4957300000E-01
                       9.1367000000E-02  9.1367000000E-02  6.5042700000E-01
            znucl       19.00000   50.00000   80.00000   34.00000

- Timing analysis has been suppressed with timopt=0

 Suggested references for the acknowledgment of ABINIT usage.

 Calculation completed.
.Delivered  14 WARNINGs and  11 COMMENTs to log file.