.Version 9.5.1 of ABINIT

 ABINIT is a project of the Universite Catholique de Louvain,
 Corning Inc. and other collaborators, see ~abinit/doc/developers/contributors.txt .
 acknowledgments of the ABINIT effort.

.Starting date : Tue 27 Apr 2021.
- ( at 18h48 )

- input  file    -> /scratch/users/j/a/jabreu/flow_simple_4atoms/flow/w243/t1/run.abi
- output file    -> /scratch/users/j/a/jabreu/flow_simple_4atoms/flow/w243/t1/run.abo
- root for input  files -> /scratch/users/j/a/jabreu/flow_simple_4atoms/flow/w243/t1/indata/in
- root for output files -> /scratch/users/j/a/jabreu/flow_simple_4atoms/flow/w243/t1/outdata/out

 Symmetries : space group P6_3 m c (#186); Bravais hP (primitive hexag.)
     intxc =       0      iscf =       7    lmnmax =      32     lnmax =       8
     mgfft =      72  mpssoang =       4    mqgrid =    3564     natom =       4
  nloc_mem =       1    nspden =       1   nspinor =       1    nsppol =       1
      nsym =      12    n1xccc =    2501    ntypat =       2    occopt =       1
   xclevel =       2
-    mband =          25        mffmem =           1         mkmem =           2
-   mkqmem =           2        mk1mem =           2           mpw =       10283
      nfft =      209952          nkpt =           2
  Rough estimation (10% accuracy) of disk space for files :

------------- Echo of variables that govern the present computation ------------
-
- outvars: echo of selected default values
-   iomode0 =  0 , fftalg0 =512 , wfoptalg0 =  0
-
- outvars: echo of global parameters not present in the input file
-  max_nthreads =    0
-
 -outvars: echo values of preprocessed input variables --------
            acell      1.0000000000E+00  1.0000000000E+00  1.0000000000E+00 Bohr
              amu      1.38905500E+02  1.40067400E+01
             ecut      5.20000000E+01 Hartree
-          fftalg         512
           irdden           1
           irdwfk           1
           istwfk        0    1
              ixc     -116133
              kpt      3.33333333E-01  3.33333333E-01  0.00000000E+00
                       0.00000000E+00  0.00000000E+00  0.00000000E+00
           kptopt           0
P           mkmem           2
P          mkqmem           2
P          mk1mem           2
            natom           4
            nband          25
           nbdbuf           4
            ngfft          54      54      72
             nkpt           2
            nstep         100
             nsym          12
           ntypat           2
              occ      2.000000  2.000000  2.000000  2.000000  2.000000  2.000000
                       2.000000  2.000000  2.000000  2.000000  2.000000  2.000000
                       2.000000  2.000000  2.000000  2.000000  0.000000  0.000000
                       0.000000  0.000000  0.000000  0.000000  0.000000  0.000000
                       0.000000
        optdriver           1
            prtwf          -1
            rfdir           1       1       1
           rfelfd           2
            rprim      7.7721664222E+00  0.0000000000E+00  0.0000000000E+00
                      -3.8860832111E+00  6.7308935641E+00  0.0000000000E+00
                       0.0000000000E+00  0.0000000000E+00  1.0977032911E+01
          spgroup         186
           symrel      1  0  0   0  1  0   0  0  1       0  1  0   1  0  0   0  0  1
                       1  1  0  -1  0  0   0  0  1      -1  0  0   1  1  0   0  0  1
                       0  1  0  -1 -1  0   0  0  1      -1 -1  0   0  1  0   0  0  1
                      -1  0  0   0 -1  0   0  0  1       0 -1  0  -1  0  0   0  0  1
                      -1 -1  0   1  0  0   0  0  1       1  0  0  -1 -1  0   0  0  1
                       0 -1  0   1  1  0   0  0  1       1  1  0   0 -1  0   0  0  1
            tnons      0.0000000  0.0000000  0.0000000     0.0000000  0.0000000  0.5000000
                       0.0000000  0.0000000  0.5000000     0.0000000  0.0000000  0.0000000
                       0.0000000  0.0000000  0.0000000     0.0000000  0.0000000  0.5000000
                       0.0000000  0.0000000  0.5000000     0.0000000  0.0000000  0.0000000
                       0.0000000  0.0000000  0.0000000     0.0000000  0.0000000  0.5000000
                       0.0000000  0.0000000  0.5000000     0.0000000  0.0000000  0.0000000
           tolwfr      1.00000000E-20
            typat      1  1  2  2
           useylm           1
              wtk        0.50000    0.50000
           xangst      2.0564266660E+00  1.1872784892E+00  2.9293756385E-02
                      -4.7000377687E-16  2.3745569784E+00  2.9336915737E+00
                       2.0564266660E+00  1.1872784892E+00  3.3978956680E+00
                      -4.7000377687E-16  2.3745569784E+00  4.9349785073E-01
            xcart      3.8860832111E+00  2.2436311880E+00  5.5357176972E-02
                      -8.8817841970E-16  4.4872623761E+00  5.5438736326E+00
                       3.8860832111E+00  2.2436311880E+00  6.4210922407E+00
                      -8.8817841970E-16  4.4872623761E+00  9.3257578505E-01
             xred      6.6666666667E-01  3.3333333333E-01  5.0430000000E-03
                       3.3333333333E-01  6.6666666667E-01  5.0504300000E-01
                       6.6666666667E-01  3.3333333333E-01  5.8495700000E-01
                       3.3333333333E-01  6.6666666667E-01  8.4957000000E-02
            znucl       57.00000    7.00000

 chkinp: Checking input parameters for consistency.

== DATASET  1 ==================================================================
-   mpi_nproc: 1, omp_nthreads: -1 (-1 if OMP is not activated)

--- !DatasetInfo
iteration_state: {dtset: 1, }
dimensions: {natom: 4, nkpt: 2, mband: 25, nsppol: 1, nspinor: 1, nspden: 1, mpw: 10283, }
cutoff_energies: {ecut:  52.0, pawecutdg:  -1.0, }
electrons: {nelect:   3.20000000E+01, charge:   0.00000000E+00, occopt:   1.00000000E+00, tsmear:   1.00000000E-02, }
meta: {optdriver: 1, rfelfd: 2, }
...

 Real(R)+Recip(G) space primitive vectors, cartesian coordinates (Bohr,Bohr^-1):
 R(1)=  7.7721664  0.0000000  0.0000000  G(1)=  0.1286643  0.0742843  0.0000000
 R(2)= -3.8860832  6.7308936  0.0000000  G(2)=  0.0000000  0.1485687  0.0000000
 R(3)=  0.0000000  0.0000000 10.9770329  G(3)=  0.0000000  0.0000000  0.0910993
 Unit cell volume ucvol=  5.7424838E+02 bohr^3
 Angles (23,13,12)=  9.00000000E+01  9.00000000E+01  1.20000000E+02 degrees

 getcut: wavevector=  0.0000  0.0000  0.0000  ngfft=  54  54  72
         ecut(hartree)=     52.000   => boxcut(ratio)=   2.02060

--- Pseudopotential description ------------------------------------------------
- pspini: atom type   1  psp file is /scratch/users/j/a/jabreu/pseudos/PBEsol/La.psp8
- pspatm: opening atomic psp file    /scratch/users/j/a/jabreu/pseudos/PBEsol/La.psp8
- La    ONCVPSP-3.3.0  r_core=   2.11664   1.60878   1.85636   1.66739
- 57.00000  11.00000    180112                znucl, zion, pspdat
    8 -116133    3    4       600   0.00000   pspcod,pspxc,lmax,lloc,mmax,r2well
    5.99000000000000    5.00000000000000    0.00000000000000   rchrg,fchrg,qchrg
     nproj     2     2     2     2
     extension_switch     1
  pspatm : epsatm=   29.08531775
         --- l  ekb(1:nproj) -->
             0    6.695600    0.639047
             1    6.383649    1.151322
             2    3.612966    0.847811
             3  -13.718437   -4.858923
 pspatm: atomic psp has been read  and splines computed

- pspini: atom type   2  psp file is /scratch/users/j/a/jabreu/pseudos/PBEsol/N.psp8
- pspatm: opening atomic psp file    /scratch/users/j/a/jabreu/pseudos/PBEsol/N.psp8
- N     ONCVPSP-3.3.0  r_core=   1.20551   1.35824
-  7.00000   5.00000    180112                znucl, zion, pspdat
    8 -116133    1    4       600   0.00000   pspcod,pspxc,lmax,lloc,mmax,r2well
    5.99000000000000    4.00000000000000    0.00000000000000   rchrg,fchrg,qchrg
     nproj     2     2
     extension_switch     1
  pspatm : epsatm=    5.26508895
         --- l  ekb(1:nproj) -->
             0    7.464189    0.625868
             1   -4.309714   -1.012941
 pspatm: atomic psp has been read  and splines computed

   2.19842603E+03                                ecore*ucvol(ha*bohr**3)

-inwffil : will read wavefunctions from disk file /scratch/users/j/a/jabreu/flow_simple_4atoms/flow/w243/t1/indata/in_WFK

 ==>  initialize data related to q vector <==

 The list of irreducible perturbations for this q vector is:
    1)    idir= 1    ipert=   5
    2)    idir= 2    ipert=   5
    3)    idir= 3    ipert=   5

 Perturbation wavevector (in red.coord.)   0.000000  0.000000  0.000000
 Perturbation : derivative vs k along direction   1

 dfpt_looppert : COMMENT -
  In a d/dk calculation, iscf is set to -3 automatically.
 The set of symmetries contains only one element for this perturbation.
 symkpt : not enough symmetry to change the number of k points.

[...]

 Initialisation of the first-order wave-functions :
  ireadwf=   0

--- !BeginCycle
iteration_state: {dtset: 1, }
solver: {iscf: 7, nstep: 100, nline: 4, wfoptalg: 0, }
tolerances: {tolwfr: 1.00E-20, }
...

     iter   2DEtotal(Ha)        deltaE(Ha) residm    vres2
-ETOT  1  -30.544105592128     -3.054E+01 2.409E-01 0.000E+00
 ETOT  2  -30.866406952901     -3.223E-01 7.140E-02 0.000E+00
 ETOT  3  -30.913599224035     -4.719E-02 2.358E-02 0.000E+00
 ETOT  4  -30.926930313337     -1.333E-02 2.169E-02 0.000E+00
 ETOT  5  -30.931534896082     -4.605E-03 1.291E-02 0.000E+00
 ETOT  6  -30.933279386778     -1.744E-03 1.479E-02 0.000E+00
 ETOT  7  -30.933962778635     -6.834E-04 8.193E-03 0.000E+00
 ETOT  8  -30.934236495859     -2.737E-04 1.013E-02 0.000E+00
 ETOT  9  -30.934347601600     -1.111E-04 5.279E-03 0.000E+00
 ETOT 10  -30.934393308622     -4.571E-05 6.862E-03 0.000E+00
 ETOT 11  -30.934412289081     -1.898E-05 3.454E-03 0.000E+00
 ETOT 12  -30.934420255714     -7.967E-06 4.652E-03 0.000E+00
 ETOT 13  -30.934423624304     -3.369E-06 2.296E-03 0.000E+00
 ETOT 14  -30.934425061393     -1.437E-06 3.174E-03 0.000E+00
 ETOT 15  -30.934425678139     -6.167E-07 1.552E-03 0.000E+00
 ETOT 16  -30.934425944807     -2.667E-07 2.185E-03 0.000E+00
 ETOT 17  -30.934426060671     -1.159E-07 1.068E-03 0.000E+00
 ETOT 18  -30.934426111335     -5.066E-08 1.521E-03 0.000E+00
 ETOT 19  -30.934426133578     -2.224E-08 7.481E-04 0.000E+00
 ETOT 20  -30.934426143399     -9.821E-09 1.070E-03 0.000E+00
 ETOT 21  -30.934426147750     -4.351E-09 5.338E-04 0.000E+00
 ETOT 22  -30.934426149687     -1.937E-09 7.627E-04 0.000E+00
 ETOT 23  -30.934426150552     -8.652E-10 3.877E-04 0.000E+00
 ETOT 24  -30.934426150941     -3.882E-10 5.501E-04 0.000E+00
 ETOT 25  -30.934426151115     -1.747E-10 2.865E-04 0.000E+00
 ETOT 26  -30.934426151194     -7.885E-11 4.015E-04 0.000E+00
 ETOT 27  -30.934426151230     -3.568E-11 2.151E-04 0.000E+00
 ETOT 28  -30.934426151246     -1.632E-11 2.965E-04 0.000E+00
 ETOT 29  -30.934426151254     -7.400E-12 1.638E-04 0.000E+00
 ETOT 30  -30.934426151257     -3.396E-12 2.213E-04 0.000E+00
 ETOT 31  -30.934426151259     -1.457E-12 1.263E-04 0.000E+00
 ETOT 32  -30.934426151259     -7.709E-13 1.670E-04 0.000E+00
[...]
 kpt#   1, nband= 25, wtk=  0.50000, kpt=  0.3333  0.3333  0.0000 (reduced coord)
   0.00000    0.00000    0.00000    0.00000   -0.00000   -0.00000   -0.00000   -0.00000
   0.00000    0.00000    0.00000    0.00000    0.00000   -0.00000   -0.00000    0.00000
  -0.00000    0.00000    0.00000    0.00000   -0.00000   -0.00000   -0.00000   -0.00000
   0.00558
 prteigrs : prtvol=0 or 1, do not print more k-points.

 Eight components of 2nd-order total energy (hartree) are
 1,2,3: 0th-order hamiltonian combined with 1st-order wavefunctions
     kin0=   9.86180569E+01 eigvalue=  -2.68850016E+00  local=  -5.08159461E+01
 4,5,6: 1st-order hamiltonian combined with 1st and 0th-order wfs
     kin1=  -5.71473891E+01  Hartree=   0.00000000E+00     xc=   0.00000000E+00
 7,8,9: eventually, occupation + non-local contributions
    edocc=   7.83114298E+00     enl0=  -2.20103274E+01   enl1=  -4.72146317E+00
 1-9 gives the relaxation energy (to be shifted if some occ is /=2.0)
   erelax=  -3.09344262E+01
  No Ewald or frozen-wf contrib.: the relaxation energy is the total one
 2DEtotal=   -0.3093442615E+02 Ha. Also 2DEtotal=   -0.841768544491E+03 eV
    (  non-var. 2DEtotal :   -3.0934426151E+01 Ha)

 Perturbation wavevector (in red.coord.)   0.000000  0.000000  0.000000
 Perturbation : derivative vs k along direction   2
 The set of symmetries contains only one element for this perturbation.
 symkpt : not enough symmetry to change the number of k points.

[...]

 Perturbation wavevector (in red.coord.)   0.000000  0.000000  0.000000
 Perturbation : derivative vs k along direction   3
 The set of symmetries contains only one element for this perturbation.
 symkpt : not enough symmetry to change the number of k points.

-inwffil : will read wavefunctions from disk file /scratch/users/j/a/jabreu/flow_simple_4atoms/flow/w243/t1/indata/in_WFK

 Initialisation of the first-order wave-functions :
  ireadwf=   0

--- !BeginCycle
iteration_state: {dtset: 1, }
solver: {iscf: 7, nstep: 100, nline: 4, wfoptalg: 0, }
tolerances: {tolwfr: 1.00E-20, }
...

     iter   2DEtotal(Ha)        deltaE(Ha) residm    vres2
-ETOT  1  -15.048404723003     -1.505E+01 1.155E-01 0.000E+00
 ETOT  2  -15.244118108263     -1.957E-01 4.178E-02 0.000E+00
 ETOT  3  -15.262495489525     -1.838E-02 6.852E-03 0.000E+00
 ETOT  4  -15.265285001371     -2.790E-03 1.163E-02 0.000E+00
 ETOT  5  -15.265932189519     -6.472E-04 2.875E-03 0.000E+00
 ETOT  6  -15.266150161989     -2.180E-04 3.481E-03 0.000E+00
 ETOT  7  -15.266230014352     -7.985E-05 1.251E-03 0.000E+00
 ETOT  8  -15.266260737889     -3.072E-05 1.676E-03 0.000E+00
 ETOT  9  -15.266272744596     -1.201E-05 6.878E-04 0.000E+00
 ETOT 10  -15.266277473044     -4.728E-06 9.433E-04 0.000E+00
 ETOT 11  -15.266279344678     -1.872E-06 3.954E-04 0.000E+00
 ETOT 12  -15.266280087638     -7.430E-07 5.480E-04 0.000E+00
 ETOT 13  -15.266280383333     -2.957E-07 2.342E-04 0.000E+00
 ETOT 14  -15.266280501214     -1.179E-07 3.249E-04 0.000E+00
 ETOT 15  -15.266280548294     -4.708E-08 1.405E-04 0.000E+00
 ETOT 16  -15.266280567120     -1.883E-08 1.943E-04 0.000E+00
 ETOT 17  -15.266280574660     -7.540E-09 8.456E-05 0.000E+00
 ETOT 18  -15.266280577682     -3.022E-09 1.166E-04 0.000E+00
 ETOT 19  -15.266280578896     -1.213E-09 5.094E-05 0.000E+00
 ETOT 20  -15.266280579383     -4.876E-10 7.002E-05 0.000E+00
 ETOT 21  -15.266280579579     -1.960E-10 3.068E-05 0.000E+00
 ETOT 22  -15.266280579658     -7.903E-11 4.207E-05 0.000E+00
 ETOT 23  -15.266280579690     -3.185E-11 1.847E-05 0.000E+00
 ETOT 24  -15.266280579703     -1.275E-11 2.529E-05 0.000E+00
 ETOT 25  -15.266280579708     -5.141E-12 1.112E-05 0.000E+00
 ETOT 26  -15.266280579710     -2.100E-12 1.520E-05 0.000E+00
 ETOT 27  -15.266280579711     -8.846E-13 6.689E-06 0.000E+00
 ETOT 28  -15.266280579712     -2.949E-13 9.139E-06 0.000E+00
 ETOT 29  -15.266280579712     -2.167E-13 4.023E-06 0.000E+00
 ETOT 30  -15.266280579712     -5.507E-14 5.498E-06 0.000E+00
 ETOT 31  -15.266280579712     -2.842E-14 2.420E-06 0.000E+00
 ETOT 32  -15.266280579712      5.329E-14 3.309E-06 0.000E+00
 ETOT 33  -15.266280579712     -9.948E-14 1.455E-06 0.000E+00
 ETOT 34  -15.266280579712      3.908E-14 1.993E-06 0.000E+00
 ETOT 35  -15.266280579712      1.421E-14 8.752E-07 0.000E+00
 ETOT 36  -15.266280579712      8.882E-15 1.201E-06 0.000E+00
 ETOT 37  -15.266280579712     -1.954E-14 5.264E-07 0.000E+00
 ETOT 38  -15.266280579712      5.151E-14 7.245E-07 0.000E+00
 ETOT 39  -15.266280579712     -3.375E-14 3.166E-07 0.000E+00
 ETOT 40  -15.266280579712     -5.329E-15 4.373E-07 0.000E+00
 ETOT 41  -15.266280579712     -1.066E-14 1.905E-07 0.000E+00
 ETOT 42  -15.266280579712      2.842E-14 2.641E-07 0.000E+00
 ETOT 43  -15.266280579712      1.243E-14 1.146E-07 0.000E+00
 ETOT 44  -15.266280579712     -2.665E-14 1.692E-07 0.000E+00
 ETOT 45  -15.266280579712      3.553E-15 6.893E-08 0.000E+00
 ETOT 46  -15.266280579712      5.329E-15 1.088E-07 0.000E+00
 ETOT 47  -15.266280579712      1.776E-15 4.148E-08 0.000E+00
 ETOT 48  -15.266280579712     -3.553E-15 6.994E-08 0.000E+00
 ETOT 49  -15.266280579712      1.421E-14 2.496E-08 0.000E+00
 ETOT 50  -15.266280579712     -1.066E-14 4.500E-08 0.000E+00
 ETOT 51  -15.266280579712      7.105E-15 1.503E-08 0.000E+00
 ETOT 52  -15.266280579712     -7.105E-15 2.896E-08 0.000E+00
 ETOT 53  -15.266280579712      3.553E-15 9.045E-09 0.000E+00
 ETOT 54  -15.266280579712      1.776E-15 1.864E-08 0.000E+00
 ETOT 55  -15.266280579712     -8.882E-15 5.446E-09 0.000E+00
 ETOT 56  -15.266280579712      7.105E-15 1.200E-08 0.000E+00
 ETOT 57  -15.266280579712     -3.553E-15 3.435E-09 0.000E+00
 ETOT 58  -15.266280579712      8.882E-15 7.729E-09 0.000E+00
 ETOT 59  -15.266280579712     -5.329E-15 2.225E-09 0.000E+00
 ETOT 60  -15.266280579712     -5.329E-15 4.978E-09 0.000E+00
 ETOT 61  -15.266280579712     -1.243E-14 1.441E-09 0.000E+00
[...]
 ETOT 86  -15.266280579712      1.066E-14 1.652E-11 0.000E+00
 ETOT 87  -15.266280579712     -8.882E-15 5.128E-12 0.000E+00
 ETOT 88  -15.266280579712     -1.776E-15 1.065E-11 0.000E+00
 ETOT 89  -15.266280579712      0.000E+00 3.324E-12 0.000E+00
 ETOT 90  -15.266280579712     -1.776E-15 6.871E-12 0.000E+00
 ETOT 91  -15.266280579712      1.066E-14 2.154E-12 0.000E+00
 ETOT 92  -15.266280579712      0.000E+00 4.432E-12 0.000E+00
 ETOT 93  -15.266280579712     -5.329E-15 1.396E-12 0.000E+00
 ETOT 94  -15.266280579712     -7.105E-15 2.859E-12 0.000E+00
 ETOT 95  -15.266280579712     -5.329E-15 9.051E-13 0.000E+00
 ETOT 96  -15.266280579712      1.776E-15 1.845E-12 0.000E+00
 ETOT 97  -15.266280579712      1.066E-14 5.867E-13 0.000E+00
 ETOT 98  -15.266280579712      1.776E-15 1.190E-12 0.000E+00
 ETOT 99  -15.266280579712     -1.421E-14 3.803E-13 0.000E+00
 ETOT  100  -15.266280579712      2.132E-14 7.680E-13 0.000E+00

 scprqt:  WARNING -
  nstep=  100 was not enough SCF cycles to converge;
  maximum residual=  7.680E-13 exceeds tolwfr=  1.000E-20

 ----iterations are completed or convergence reached----

 Mean square residual over all n,k,spin=   38.044E-15; max=  76.798E-14
 dfpt_looppert : ek2=    2.0968616559E+01
          f-sum rule ratio=    1.4106219151E+00
 prteigrs : about to open file /scratch/users/j/a/jabreu/flow_simple_4atoms/flow/w243/t1/tmpdata/tmp_1WF1_EIG
 Expectation of eigenvalue derivatives (hartree) for nkpt=   2  k points:
  (in case of degenerate eigenvalues, averaged derivative)
 kpt#   1, nband= 25, wtk=  0.50000, kpt=  0.3333  0.3333  0.0000 (reduced coord)
   0.00000    0.00000    0.00000    0.00000   -0.00000   -0.00000   -0.00000   -0.00000
   0.00000    0.00000   -0.00000    0.00000    0.00000    0.00000    0.00000    0.00000
   0.00000    0.00000   -0.00000   -0.00000    0.00000   -0.00000    0.00000    0.00000
   0.00001
 prteigrs : prtvol=0 or 1, do not print more k-points.

 Eight components of 2nd-order total energy (hartree) are
 1,2,3: 0th-order hamiltonian combined with 1st-order wavefunctions
     kin0=   5.64179462E+01 eigvalue=  -2.10283855E+00  local=  -2.78083522E+01
 4,5,6: 1st-order hamiltonian combined with 1st and 0th-order wfs
     kin1=  -2.95787900E+01  Hartree=   0.00000000E+00     xc=   0.00000000E+00
 7,8,9: eventually, occupation + non-local contributions
    edocc=   5.22156120E+00     enl0=  -1.64620361E+01   enl1=  -9.53771111E-01
 1-9 gives the relaxation energy (to be shifted if some occ is /=2.0)
   erelax=  -1.52662806E+01
  No Ewald or frozen-wf contrib.: the relaxation energy is the total one
 2DEtotal=   -0.1526628058E+02 Ha. Also 2DEtotal=   -0.415416620969E+03 eV
    (  non-var. 2DEtotal :   -1.5266280580E+01 Ha)

 CALCULATION OF EFFECTIVE MASSES
 NOTE : Additional infos (eff. mass eigenvalues, eigenvectors and, if degenerate, average mass) are available in stdout.

 K-point ( 0.333, 0.333, 0.000) | band =    16
 Effective mass tensor:
             -4.5570568300             -0.0000020528             -0.0000006482
             -0.0000020528             -4.5569770643             -0.0000001450
             -0.0000006482             -0.0000001450             -1.1461176077
 Effective mass tensor eigenvalues:
             -4.5570568828             -4.5569770115             -1.1461176077
 Angular average effective mass 1/(<1/m>)=  -2.2876412947
 Angular average effective mass for Frohlich model (<m**0.5>)**2=  -2.6417602080
 Effective masses along directions: (cart. coord. / red. coord. -> eff. mass)
    1:   1.000000  0.000000  0.000000 /   0.894427 -0.447214  0.000000 ->  -4.5570568300
    2:   0.000000  1.000000  0.000000 /   0.000000  1.000000  0.000000 ->  -4.5569770643
    3:   0.000000  0.000000  1.000000 /   0.000000  0.000000  1.000000 ->  -1.1461176077
    4:   0.577350  0.577350  0.577350 /   0.565350  0.206932  0.798473 ->  -2.2876421695
    5:   0.000000  0.707107  0.707107 /   0.000000  0.522733  0.852496 ->  -1.8315781930
    6:   0.707107  0.000000  0.707107 /   0.555150 -0.277575  0.784067 ->  -1.8315849591
    7:   0.707107  0.707107  0.000000 /   0.939071  0.343724  0.000000 ->  -4.5570189996

 K-point ( 0.000, 0.000, 0.000) | band =    17
 Effective mass tensor:
              0.4331395764             -0.0000000000             -0.0000000000
             -0.0000000000              0.4331395764              0.0000000000
             -0.0000000000              0.0000000000              0.3721824526
 Effective mass tensor eigenvalues:
              0.3721824526              0.4331395764              0.4331395764
 Angular average effective mass 1/(<1/m>)=   0.4107167804
 Angular average effective mass for Frohlich model (<m**0.5>)**2=   0.4113632689
 Effective masses along directions: (cart. coord. / red. coord. -> eff. mass)
    1:   1.000000  0.000000  0.000000 /   0.894427 -0.447214  0.000000 ->   0.4331395764
    2:   0.000000  1.000000  0.000000 /   0.000000  1.000000  0.000000 ->   0.4331395764
    3:   0.000000  0.000000  1.000000 /   0.000000  0.000000  1.000000 ->   0.3721824526
    4:   0.577350  0.577350  0.577350 /   0.565350  0.206932  0.798473 ->   0.4107167804
    5:   0.000000  0.707107  0.707107 /   0.000000  0.522733  0.852496 ->   0.4003540051
    6:   0.707107  0.000000  0.707107 /   0.555150 -0.277575  0.784067 ->   0.4003540051
    7:   0.707107  0.707107  0.000000 /   0.939071  0.343724  0.000000 ->   0.4331395764

 END OF EFFECTIVE MASSES SECTION

 ---- first-order wavefunction calculations are completed ----

 Total localisation tensor (bohr^2) in cartesian coordinates
  WARNING : still subject to testing - especially symmetries.
      direction              matrix element
   alpha     beta       real part   imaginary part
     1        1       2.2472809406    0.0000000000
     1        2      -0.7784809488    0.0000000000
     1        3       0.0000000000    0.0000000000
     2        1      -0.7784809488    0.0000000000
     2        2       1.3483685560    0.0000000000
     2        3       0.0000000000    0.0000000000
     3        1       0.0000000000    0.0000000000
     3        2       0.0000000000    0.0000000000
     3        3       2.1882743720    0.0000000000

 respfn : d/dk was computed, but no 2DTE, so no DDB output.

== END DATASET(S) ==============================================================

 -outvars: echo values of variables after computation  --------
            acell      1.0000000000E+00  1.0000000000E+00  1.0000000000E+00 Bohr
              amu      1.38905500E+02  1.40067400E+01
             ecut      5.20000000E+01 Hartree
           etotal     -1.5266280580E+01
            fcart      0.0000000000E+00  0.0000000000E+00  0.0000000000E+00
                       0.0000000000E+00  0.0000000000E+00  0.0000000000E+00
                       0.0000000000E+00  0.0000000000E+00  0.0000000000E+00
                       0.0000000000E+00  0.0000000000E+00  0.0000000000E+00
-          fftalg         512
           irdden           1
           irdwfk           1
           istwfk        0    1
              ixc     -116133
              kpt      3.33333333E-01  3.33333333E-01  0.00000000E+00
                       0.00000000E+00  0.00000000E+00  0.00000000E+00
           kptopt           0
P           mkmem           2
P          mkqmem           2
P          mk1mem           2
            natom           4
            nband          25
           nbdbuf           4
            ngfft          54      54      72
             nkpt           2
            nstep         100
             nsym          12
           ntypat           2
              occ      2.000000  2.000000  2.000000  2.000000  2.000000  2.000000
                       2.000000  2.000000  2.000000  2.000000  2.000000  2.000000
                       2.000000  2.000000  2.000000  2.000000  0.000000  0.000000
                       0.000000  0.000000  0.000000  0.000000  0.000000  0.000000
                       0.000000
        optdriver           1
            prtwf          -1
            rfdir           1       1       1
           rfelfd           2
            rprim      7.7721664222E+00  0.0000000000E+00  0.0000000000E+00
                      -3.8860832111E+00  6.7308935641E+00  0.0000000000E+00
                       0.0000000000E+00  0.0000000000E+00  1.0977032911E+01
          spgroup         186
           strten      0.0000000000E+00  0.0000000000E+00  0.0000000000E+00
                       0.0000000000E+00  0.0000000000E+00  0.0000000000E+00
           symrel      1  0  0   0  1  0   0  0  1       0  1  0   1  0  0   0  0  1
                       1  1  0  -1  0  0   0  0  1      -1  0  0   1  1  0   0  0  1
                       0  1  0  -1 -1  0   0  0  1      -1 -1  0   0  1  0   0  0  1
                      -1  0  0   0 -1  0   0  0  1       0 -1  0  -1  0  0   0  0  1
                      -1 -1  0   1  0  0   0  0  1       1  0  0  -1 -1  0   0  0  1
                       0 -1  0   1  1  0   0  0  1       1  1  0   0 -1  0   0  0  1
            tnons      0.0000000  0.0000000  0.0000000     0.0000000  0.0000000  0.5000000
                       0.0000000  0.0000000  0.5000000     0.0000000  0.0000000  0.0000000
                       0.0000000  0.0000000  0.0000000     0.0000000  0.0000000  0.5000000
                       0.0000000  0.0000000  0.5000000     0.0000000  0.0000000  0.0000000
                       0.0000000  0.0000000  0.0000000     0.0000000  0.0000000  0.5000000
                       0.0000000  0.0000000  0.5000000     0.0000000  0.0000000  0.0000000
           tolwfr      1.00000000E-20
            typat      1  1  2  2
           useylm           1
              wtk        0.50000    0.50000
           xangst      2.0564266660E+00  1.1872784892E+00  2.9293756385E-02
                      -4.7000377687E-16  2.3745569784E+00  2.9336915737E+00
                       2.0564266660E+00  1.1872784892E+00  3.3978956680E+00
                      -4.7000377687E-16  2.3745569784E+00  4.9349785073E-01
            xcart      3.8860832111E+00  2.2436311880E+00  5.5357176972E-02
                      -8.8817841970E-16  4.4872623761E+00  5.5438736326E+00
                       3.8860832111E+00  2.2436311880E+00  6.4210922407E+00
                      -8.8817841970E-16  4.4872623761E+00  9.3257578505E-01
             xred      6.6666666667E-01  3.3333333333E-01  5.0430000000E-03
                       3.3333333333E-01  6.6666666667E-01  5.0504300000E-01
                       6.6666666667E-01  3.3333333333E-01  5.8495700000E-01
                       3.3333333333E-01  6.6666666667E-01  8.4957000000E-02
            znucl       57.00000    7.00000

- Timing analysis has been suppressed with timopt=0

 Suggested references for the acknowledgment of ABINIT usage.

 Calculation completed.
.Delivered  17 WARNINGs and   9 COMMENTs to log file.