.Version 9.5.1 of ABINIT

 ABINIT is a project of the Universite Catholique de Louvain,
 Corning Inc. and other collaborators, see ~abinit/doc/developers/contributors.txt .
 acknowledgments of the ABINIT effort.

.Starting date : Tue 27 Apr 2021.
- ( at 15h30 )

- input  file    -> /scratch/users/j/a/jabreu/flow_simple/flow/w129/t1/run.abi
- output file    -> /scratch/users/j/a/jabreu/flow_simple/flow/w129/t1/run.abo
- root for input  files -> /scratch/users/j/a/jabreu/flow_simple/flow/w129/t1/indata/in
- root for output files -> /scratch/users/j/a/jabreu/flow_simple/flow/w129/t1/outdata/out

 Symmetries : space group F-4 3 m (#216); Bravais cF (face-center cubic)
     intxc =       0      iscf =       7    lmnmax =      18     lnmax =       6
     mgfft =      48  mpssoang =       3    mqgrid =    3001     natom =       3
  nloc_mem =       1    nspden =       1   nspinor =       1    nsppol =       1
      nsym =      24    n1xccc =    2501    ntypat =       3    occopt =       1
   xclevel =       2
-    mband =          31        mffmem =           1         mkmem =           2
-   mkqmem =           2        mk1mem =           2           mpw =        4880
      nfft =      110592          nkpt =           2
  Rough estimation (10% accuracy) of disk space for files :

------------- Echo of variables that govern the present computation ------------
-
- outvars: echo of selected default values
-   iomode0 =  0 , fftalg0 =512 , wfoptalg0 =  0
-
- outvars: echo of global parameters not present in the input file
-  max_nthreads =    0
-
 -outvars: echo values of preprocessed input variables --------
            acell      1.0000000000E+00  1.0000000000E+00  1.0000000000E+00 Bohr
              amu      5.09415000E+01  5.58470000E+01  1.21753000E+02
             ecut      4.70000000E+01 Hartree
-          fftalg         512
           irdden           1
           irdwfk           1
           istwfk        1    1
              ixc     -116133
              kpt      5.00000000E-01  5.00000000E-01  5.00000000E-01
                       5.00000000E-01  7.39557099E-32  5.00000000E-01
           kptopt           0
P           mkmem           2
P          mkqmem           2
P          mk1mem           2
            natom           3
            nband          31
           nbdbuf           4
            ngfft          48      48      48
             nkpt           2
            nstep         100
             nsym          24
           ntypat           3
              occ      2.000000  2.000000  2.000000  2.000000  2.000000  2.000000
                       2.000000  2.000000  2.000000  2.000000  2.000000  2.000000
                       2.000000  2.000000  2.000000  2.000000  2.000000  2.000000
                       2.000000  2.000000  2.000000  2.000000  0.000000  0.000000
                       0.000000  0.000000  0.000000  0.000000  0.000000  0.000000
                       0.000000
        optdriver           1
            prtwf          -1
            rfdir           1       1       1
           rfelfd           2
            rprim      6.6236942314E+00  0.0000000000E+00  3.8241916475E+00
                       2.2078980771E+00  6.2448788100E+00  3.8241916475E+00
                       0.0000000000E+00  0.0000000000E+00  7.6483832951E+00
          spgroup         216
           symrel      1  0  0   0  1  0   0  0  1       0 -1  1   0 -1  0   1 -1  0
                      -1  0  0  -1  0  1  -1  1  0       0  1 -1   1  0 -1   0  0 -1
                      -1  0  0  -1  1  0  -1  0  1       0 -1  1   1 -1  0   0 -1  0
                       1  0  0   0  0  1   0  1  0       0  1 -1   0  0 -1   1  0 -1
                      -1  0  1  -1  1  0  -1  0  0       0 -1  0   1 -1  0   0 -1  1
                       1  0 -1   0  0 -1   0  1 -1       0  1  0   0  0  1   1  0  0
                       1  0 -1   0  1 -1   0  0 -1       0 -1  0   0 -1  1   1 -1  0
                      -1  0  1  -1  0  0  -1  1  0       0  1  0   1  0  0   0  0  1
                       0  0 -1   0  1 -1   1  0 -1       1 -1  0   0 -1  1   0 -1  0
                       0  0  1   1  0  0   0  1  0      -1  1  0  -1  0  0  -1  0  1
                       0  0  1   0  1  0   1  0  0       1 -1  0   0 -1  0   0 -1  1
                       0  0 -1   1  0 -1   0  1 -1      -1  1  0  -1  0  1  -1  0  0
           tolwfr      1.00000000E-20
            typat      1  2  3
           useylm           1
              wtk        0.50000    0.50000
           xangst      0.0000000000E+00  0.0000000000E+00  0.0000000000E+00
                       1.1683693413E+00  8.2616188416E-01  2.0236750612E+00
                       2.3367386826E+00  1.6523237683E+00  4.0473501223E+00
            xcart      0.0000000000E+00  0.0000000000E+00  0.0000000000E+00
                       2.2078980771E+00  1.5612197025E+00  3.8241916475E+00
                       4.4157961542E+00  3.1224394050E+00  7.6483832951E+00
             xred      0.0000000000E+00  0.0000000000E+00  0.0000000000E+00
                       2.5000000000E-01  2.5000000000E-01  2.5000000000E-01
                       5.0000000000E-01  5.0000000000E-01  5.0000000000E-01
            znucl       23.00000   26.00000   51.00000

 chkinp: Checking input parameters for consistency.

== DATASET  1 ==================================================================
-   mpi_nproc: 1, omp_nthreads: -1 (-1 if OMP is not activated)

--- !DatasetInfo
iteration_state: {dtset: 1, }
dimensions: {natom: 3, nkpt: 2, mband: 31, nsppol: 1, nspinor: 1, nspden: 1, mpw: 4880, }
cutoff_energies: {ecut:  47.0, pawecutdg:  -1.0, }
electrons: {nelect:   4.40000000E+01, charge:   0.00000000E+00, occopt:   1.00000000E+00, tsmear:   1.00000000E-02, }
meta: {optdriver: 1, rfelfd: 2, }
...

 Real(R)+Recip(G) space primitive vectors, cartesian coordinates (Bohr,Bohr^-1):
 R(1)=  6.6236942  0.0000000  3.8241916  G(1)=  0.1509732 -0.0533771  0.0000000
 R(2)=  2.2078981  6.2448788  3.8241916  G(2)=  0.0000000  0.1601312  0.0000000
 R(3)=  0.0000000  0.0000000  7.6483833  G(3)= -0.0754866 -0.0533771  0.1307466
 Unit cell volume ucvol=  3.1636901E+02 bohr^3
 Angles (23,13,12)=  6.00000000E+01  6.00000000E+01  6.00000000E+01 degrees

 getcut: wavevector=  0.0000  0.0000  0.0000  ngfft=  48  48  48
         ecut(hartree)=     47.000   => boxcut(ratio)=   2.03356

--- Pseudopotential description ------------------------------------------------
- pspini: atom type   1  psp file is /scratch/users/j/a/jabreu/pseudos/PBEsol/V.psp8
- pspatm: opening atomic psp file    /scratch/users/j/a/jabreu/pseudos/PBEsol/V.psp8
- V     ONCVPSP-3.3.0  r_core=   1.31479   1.31479   1.66904
- 23.00000  13.00000    180112                znucl, zion, pspdat
    8 -116133    2    4       600   0.00000   pspcod,pspxc,lmax,lloc,mmax,r2well
    5.99000000000000    5.00000000000000    0.00000000000000   rchrg,fchrg,qchrg
     nproj     2     2     2
     extension_switch     1
  pspatm : epsatm=   13.89775296
         --- l  ekb(1:nproj) -->
             0   11.839471    1.392889
             1    1.770377   -0.260831
             2   -4.955866   -1.607689
 pspatm: atomic psp has been read  and splines computed

- pspini: atom type   2  psp file is /scratch/users/j/a/jabreu/pseudos/PBEsol/Fe.psp8
- pspatm: opening atomic psp file    /scratch/users/j/a/jabreu/pseudos/PBEsol/Fe.psp8
- Fe    ONCVPSP-3.3.0  r_core=   1.26437   1.20546   1.56719
- 26.00000  16.00000    180112                znucl, zion, pspdat
    8 -116133    2    4       600   0.00000   pspcod,pspxc,lmax,lloc,mmax,r2well
    5.99000000000000    3.00000000000000    0.00000000000000   rchrg,fchrg,qchrg
     nproj     2     2     2
     extension_switch     1
  pspatm : epsatm=   15.04792780
         --- l  ekb(1:nproj) -->
             0   10.133364    1.456638
             1    1.580231   -0.508538
             2   -5.545701   -2.037616
 pspatm: atomic psp has been read  and splines computed

- pspini: atom type   3  psp file is /scratch/users/j/a/jabreu/pseudos/PBEsol/Sb.psp8
- pspatm: opening atomic psp file    /scratch/users/j/a/jabreu/pseudos/PBEsol/Sb.psp8
- Sb    ONCVPSP-3.3.0  r_core=   1.81962   2.12485   1.81962
- 51.00000  15.00000    180112                znucl, zion, pspdat
    8 -116133    2    4       600   0.00000   pspcod,pspxc,lmax,lloc,mmax,r2well
    5.99000000000000    5.00000000000000    0.00000000000000   rchrg,fchrg,qchrg
     nproj     2     2     2
     extension_switch     1
  pspatm : epsatm=   26.35641246
         --- l  ekb(1:nproj) -->
             0    9.727814    1.485032
             1    5.505335    0.704623
             2   -4.710637   -1.436443
 pspatm: atomic psp has been read  and splines computed

   2.43329210E+03                                ecore*ucvol(ha*bohr**3)

-inwffil : will read wavefunctions from disk file /scratch/users/j/a/jabreu/flow_simple/flow/w129/t1/indata/in_WFK

 ==>  initialize data related to q vector <==

 The list of irreducible perturbations for this q vector is:
    1)    idir= 1    ipert=   4
    2)    idir= 2    ipert=   4
    3)    idir= 3    ipert=   4

 Perturbation wavevector (in red.coord.)   0.000000  0.000000  0.000000
 Perturbation : derivative vs k along direction   1

 dfpt_looppert : COMMENT -
  In a d/dk calculation, iscf is set to -3 automatically.
 The set of symmetries contains only one element for this perturbation.
 symkpt : not enough symmetry to change the number of k points.

[...]

 Initialisation of the first-order wave-functions :
  ireadwf=   0

--- !BeginCycle
iteration_state: {dtset: 1, }
solver: {iscf: 7, nstep: 100, nline: 4, wfoptalg: 0, }
tolerances: {tolwfr: 1.00E-20, }
...

     iter   2DEtotal(Ha)        deltaE(Ha) residm    vres2
-ETOT  1  -63.647264510656     -6.365E+01 1.176E-01 0.000E+00
 ETOT  2  -63.730149295574     -8.288E-02 3.161E-03 0.000E+00
 ETOT  3  -63.730962957622     -8.137E-04 5.924E-05 0.000E+00
 ETOT  4  -63.730978620677     -1.566E-05 3.708E-06 0.000E+00
 ETOT  5  -63.730978965959     -3.453E-07 1.054E-07 0.000E+00
 ETOT  6  -63.730978974076     -8.117E-09 9.211E-09 0.000E+00
 ETOT  7  -63.730978974277     -2.005E-10 2.753E-10 0.000E+00
 ETOT  8  -63.730978974282     -5.087E-12 2.486E-11 0.000E+00
 ETOT  9  -63.730978974282     -1.705E-13 7.659E-13 0.000E+00
 ETOT 10  -63.730978974282      1.421E-14 6.996E-14 0.000E+00
 ETOT 11  -63.730978974282     -2.132E-14 2.192E-15 0.000E+00
 ETOT 12  -63.730978974282      3.553E-14 2.021E-16 0.000E+00
 ETOT 13  -63.730978974282     -1.421E-14 6.405E-18 0.000E+00
 ETOT 14  -63.730978974282      7.105E-15 5.941E-19 0.000E+00
 ETOT 15  -63.730978974282     -2.132E-14 1.896E-20 0.000E+00
 ETOT 16  -63.730978974282      1.421E-14 9.728E-21 0.000E+00

 At SCF step   16   max residual=  9.73E-21 < tolwfr=  1.00E-20 =>converged.

 ----iterations are completed or convergence reached----

 dfpt_looppert: DFPT cycle converged with prtwf=-1. Will skip output of the 1st-order WFK file.
 dfpt_looppert : ek2=    8.9082906725E+01
          f-sum rule ratio=    1.0588642721E+00
 prteigrs : about to open file /scratch/users/j/a/jabreu/flow_simple/flow/w129/t1/tmpdata/tmp_1WF1_EIG
 Expectation of eigenvalue derivatives (hartree) for nkpt=   2  k points:
  (in case of degenerate eigenvalues, averaged derivative)
 kpt#   1, nband= 31, wtk=  0.50000, kpt=  0.5000  0.5000  0.5000 (reduced coord)
   0.00000    0.00000   -0.00000   -0.00000    0.00000   -0.00000   -0.00000   -0.00000
   0.00000    0.00000    0.00000    0.00000    0.00000    0.00000   -0.00000    0.00000
   0.00000   -0.00000   -0.00000   -0.00000   -0.00000   -0.00000   -0.00000   -0.00000
  -0.00000   -0.00000   -0.00000   -0.00000   -0.00000   -0.00000   -0.00000
 prteigrs : prtvol=0 or 1, do not print more k-points.

 Eight components of 2nd-order total energy (hartree) are
 1,2,3: 0th-order hamiltonian combined with 1st-order wavefunctions
     kin0=   6.84750936E+01 eigvalue=   2.13317925E+00  local=  -3.25504538E+01
 4,5,6: 1st-order hamiltonian combined with 1st and 0th-order wfs
     kin1=  -9.43267072E+01  Hartree=   0.00000000E+00     xc=   0.00000000E+00
 7,8,9: eventually, occupation + non-local contributions
    edocc=   1.85307038E+01     enl0=   7.14245609E+00   enl1=  -3.31352508E+01
 1-9 gives the relaxation energy (to be shifted if some occ is /=2.0)
   erelax=  -6.37309790E+01
  No Ewald or frozen-wf contrib.: the relaxation energy is the total one
 2DEtotal=   -0.6373097897E+02 Ha. Also 2DEtotal=   -0.173420813264E+04 eV
    (  non-var. 2DEtotal :   -6.3730978974E+01 Ha)

 Perturbation wavevector (in red.coord.)   0.000000  0.000000  0.000000
 Perturbation : derivative vs k along direction   2
 The set of symmetries contains only one element for this perturbation.
 symkpt : not enough symmetry to change the number of k points.

[...]

 Perturbation wavevector (in red.coord.)   0.000000  0.000000  0.000000
 Perturbation : derivative vs k along direction   3
 The set of symmetries contains only one element for this perturbation.
 symkpt : not enough symmetry to change the number of k points.

-inwffil : will read wavefunctions from disk file /scratch/users/j/a/jabreu/flow_simple/flow/w129/t1/indata/in_WFK

 Initialisation of the first-order wave-functions :
  ireadwf=   0

--- !BeginCycle
iteration_state: {dtset: 1, }
solver: {iscf: 7, nstep: 100, nline: 4, wfoptalg: 0, }
tolerances: {tolwfr: 1.00E-20, }
...

     iter   2DEtotal(Ha)        deltaE(Ha) residm    vres2
-ETOT  1  -63.650202737760     -6.365E+01 1.176E-01 0.000E+00
 ETOT  2  -63.730292740430     -8.009E-02 5.936E-03 0.000E+00
 ETOT  3  -63.731122318134     -8.296E-04 8.057E-05 0.000E+00
 ETOT  4  -63.731138238014     -1.592E-05 7.729E-06 0.000E+00
 ETOT  5  -63.731138589247     -3.512E-07 1.434E-07 0.000E+00
 ETOT  6  -63.731138597508     -8.261E-09 1.539E-08 0.000E+00
 ETOT  7  -63.731138597712     -2.039E-10 2.928E-10 0.000E+00
 ETOT  8  -63.731138597717     -5.194E-12 3.199E-11 0.000E+00
 ETOT  9  -63.731138597717     -9.237E-14 6.286E-13 0.000E+00
 ETOT 10  -63.731138597717     -3.553E-14 6.953E-14 0.000E+00
 ETOT 11  -63.731138597717      2.132E-14 1.379E-15 0.000E+00
 ETOT 12  -63.731138597717     -7.105E-15 1.554E-16 0.000E+00
 ETOT 13  -63.731138597717      7.105E-15 3.088E-18 0.000E+00
 ETOT 14  -63.731138597717      1.421E-14 3.526E-19 0.000E+00
 ETOT 15  -63.731138597717      7.105E-15 9.796E-21 0.000E+00

 At SCF step   15   max residual=  9.80E-21 < tolwfr=  1.00E-20 =>converged.

 ----iterations are completed or convergence reached----

 dfpt_looppert: DFPT cycle converged with prtwf=-1. Will skip output of the 1st-order WFK file.
 dfpt_looppert : ek2=    8.9082906724E+01
          f-sum rule ratio=    1.0588672035E+00
 prteigrs : about to open file /scratch/users/j/a/jabreu/flow_simple/flow/w129/t1/tmpdata/tmp_1WF1_EIG
 Expectation of eigenvalue derivatives (hartree) for nkpt=   2  k points:
  (in case of degenerate eigenvalues, averaged derivative)
 kpt#   1, nband= 31, wtk=  0.50000, kpt=  0.5000  0.5000  0.5000 (reduced coord)
   0.00000   -0.00000    0.00000    0.00000    0.00000    0.00000   -0.00000   -0.00000
  -0.00000    0.00000    0.00000    0.00000    0.00000    0.00000    0.00000    0.00000
   0.00000    0.00000    0.00000    0.00000    0.00000    0.00000    0.00000    0.00000
   0.00000    0.00000    0.00000    0.00000    0.00000    0.00000   -0.00000
 prteigrs : prtvol=0 or 1, do not print more k-points.

 Eight components of 2nd-order total energy (hartree) are
 1,2,3: 0th-order hamiltonian combined with 1st-order wavefunctions
     kin0=   6.84674311E+01 eigvalue=   2.13143029E+00  local=  -3.25437561E+01
 4,5,6: 1st-order hamiltonian combined with 1st and 0th-order wfs
     kin1=  -9.43269683E+01  Hartree=   0.00000000E+00     xc=   0.00000000E+00
 7,8,9: eventually, occupation + non-local contributions
    edocc=   1.85359142E+01     enl0=   7.14011907E+00   enl1=  -3.31353089E+01
 1-9 gives the relaxation energy (to be shifted if some occ is /=2.0)
   erelax=  -6.37311386E+01
  No Ewald or frozen-wf contrib.: the relaxation energy is the total one
 2DEtotal=   -0.6373113860E+02 Ha. Also 2DEtotal=   -0.173421247622E+04 eV
    (  non-var. 2DEtotal :   -6.3731138598E+01 Ha)

 CALCULATION OF EFFECTIVE MASSES
 NOTE : Additional infos (eff. mass eigenvalues, eigenvectors and, if degenerate, average mass) are available in stdout.

 COMMENTS:
 - At k-point ( 0.500, 0.500, 0.500), bands    21 through    22
   are DEGENERATE (effective mass tensor is therefore not defined).
   See Section IIIB Eqs. (67)-(70) and Appendix E of PRB 93 205147 (2016).
 - Angular average effective mass for Frohlich model is to be averaged over degenerate bands. See later.
 - Associated theta integrals calculated with ntheta=   1000 points.

 K-point ( 0.500, 0.500, 0.500) | band =    21
 Transport equivalent effective mass tensor:
             -0.9833371330              0.0613851177              0.1503616122
              0.0613851177             -1.0267432302              0.1063217028
              0.1503616122              0.1063217028             -0.8097215212
 Transport equivalent effective mass tensor eigenvalues:
             -1.0701507320             -1.0701489700             -0.6795021825
 Angular average effective mass 1/(<1/m>)=  -0.8382063497
 Angular average effective mass for Frohlich model (<m**0.5>)**2=  -0.8499995736
 Effective masses along directions: (cart. coord. / red. coord. -> eff. mass)
    1:   1.000000  0.000000  0.000000 /   0.948683  0.316228  0.000000 ->  -0.8013626817
    2:   0.000000  1.000000  0.000000 /   0.000000  1.000000  0.000000 ->  -0.8533252738
    3:   0.000000  0.000000  1.000000 /   0.408248  0.408248  0.816497 ->  -0.7166465253
    4:   0.577350  0.577350  0.577350 /   0.585539  0.688047  0.428644 ->  -0.7563931934
    5:   0.000000  0.707107  0.707107 /   0.289489  0.762222  0.578977 ->  -0.7315598315
    6:   0.707107  0.000000  0.707107 /   0.731423  0.422287  0.535439 ->  -0.7397745473
    7:   0.707107  0.707107  0.000000 /   0.616798  0.787122  0.000000 ->  -0.8001512704

 K-point ( 0.500, 0.500, 0.500) | band =    22
 Transport equivalent effective mass tensor:
             -1.7762457307              0.0498542045              0.1221181959
              0.0498542045             -1.8114976967              0.0863505406
              0.1221181959              0.0863505406             -1.6352264134
 Transport equivalent effective mass tensor eigenvalues:
             -1.8467500441             -1.8467476359             -1.5294721608
 Angular average effective mass 1/(<1/m>)=  -1.4406897729
 Angular average effective mass for Frohlich model (<m**0.5>)**2=  -1.4606159999
 Effective masses along directions: (cart. coord. / red. coord. -> eff. mass)
    1:   1.000000  0.000000  0.000000 /   0.948683  0.316228  0.000000 ->  -1.7186224657
    2:   0.000000  1.000000  0.000000 /   0.000000  1.000000  0.000000 ->  -1.6654178849
    3:   0.000000  0.000000  1.000000 /   0.408248  0.408248  0.816497 ->  -1.5061442654
    4:   0.577350  0.577350  0.577350 /   0.585539  0.688047  0.428644 ->  -1.1827577307
    5:   0.000000  0.707107  0.707107 /   0.289489  0.762222  0.578977 ->  -1.4503397782
    6:   0.707107  0.000000  0.707107 /   0.731423  0.422287  0.535439 ->  -1.2632466273
    7:   0.707107  0.707107  0.000000 /   0.616798  0.787122  0.000000 ->  -1.5811581631

 Angular average effective mass for Frohlich model, averaged over degenerate bands.
 Value of     (<<m**0.5>>)**2 =     1.134772E+00
 Absolute Value of <<m**0.5>> =     1.065257E+00

 K-point ( 0.500, 0.000, 0.500) | band =    23
 Effective mass tensor:
              0.4884859625             -0.0514572982              0.0630235220
             -0.0514572982              0.5248730585             -0.0891265825
              0.0630235220             -0.0891265825              0.5612572243
 Effective mass tensor eigenvalues:
              0.4520987217              0.4521014979              0.6704160256
 Angular average effective mass 1/(<1/m>)=   0.5071499615
 Angular average effective mass for Frohlich model (<m**0.5>)**2=   0.5120326789
 Effective masses along directions: (cart. coord. / red. coord. -> eff. mass)
    1:   1.000000  0.000000  0.000000 /   0.948683  0.316228  0.000000 ->   0.4780450938
    2:   0.000000  1.000000  0.000000 /   0.000000  1.000000  0.000000 ->   0.5071511462
    3:   0.000000  0.000000  1.000000 /   0.408248  0.408248  0.816497 ->   0.5400272323
    4:   0.577350  0.577350  0.577350 /   0.585539  0.688047  0.428644 ->   0.4667667549
    5:   0.000000  0.707107  0.707107 /   0.289489  0.762222  0.578977 ->   0.4533435041
    6:   0.707107  0.000000  0.707107 /   0.731423  0.422287  0.535439 ->   0.5669348422
    7:   0.707107  0.707107  0.000000 /   0.616798  0.787122  0.000000 ->   0.4542156255

 END OF EFFECTIVE MASSES SECTION

 ---- first-order wavefunction calculations are completed ----

 Total localisation tensor (bohr^2) in cartesian coordinates
  WARNING : still subject to testing - especially symmetries.
      direction              matrix element
   alpha     beta       real part   imaginary part
     1        1       1.7090960665    0.0000000000
     1        2       0.4834059569    0.0000000000
     1        3       1.1840967296    0.0000000000
     2        1       0.4834059569    0.0000000000
     2        2       1.3672785206    0.0000000000
     2        3       0.8372836780    0.0000000000
     3        1       1.1840967296    0.0000000000
     3        2       0.8372836780    0.0000000000
     3        3       3.0763783786    0.0000000000

 respfn : d/dk was computed, but no 2DTE, so no DDB output.

== END DATASET(S) ==============================================================

 -outvars: echo values of variables after computation  --------
            acell      1.0000000000E+00  1.0000000000E+00  1.0000000000E+00 Bohr
              amu      5.09415000E+01  5.58470000E+01  1.21753000E+02
             ecut      4.70000000E+01 Hartree
           etotal     -6.3731138598E+01
            fcart      0.0000000000E+00  0.0000000000E+00  0.0000000000E+00
                       0.0000000000E+00  0.0000000000E+00  0.0000000000E+00
                       0.0000000000E+00  0.0000000000E+00  0.0000000000E+00
-          fftalg         512
           irdden           1
           irdwfk           1
           istwfk        1    1
              ixc     -116133
              kpt      5.00000000E-01  5.00000000E-01  5.00000000E-01
                       5.00000000E-01  7.39557099E-32  5.00000000E-01
           kptopt           0
P           mkmem           2
P          mkqmem           2
P          mk1mem           2
            natom           3
            nband          31
           nbdbuf           4
            ngfft          48      48      48
             nkpt           2
            nstep         100
             nsym          24
           ntypat           3
              occ      2.000000  2.000000  2.000000  2.000000  2.000000  2.000000
                       2.000000  2.000000  2.000000  2.000000  2.000000  2.000000
                       2.000000  2.000000  2.000000  2.000000  2.000000  2.000000
                       2.000000  2.000000  2.000000  2.000000  0.000000  0.000000
                       0.000000  0.000000  0.000000  0.000000  0.000000  0.000000
                       0.000000
        optdriver           1
            prtwf          -1
            rfdir           1       1       1
           rfelfd           2
            rprim      6.6236942314E+00  0.0000000000E+00  3.8241916475E+00
                       2.2078980771E+00  6.2448788100E+00  3.8241916475E+00
                       0.0000000000E+00  0.0000000000E+00  7.6483832951E+00
          spgroup         216
           strten      0.0000000000E+00  0.0000000000E+00  0.0000000000E+00
                       0.0000000000E+00  0.0000000000E+00  0.0000000000E+00
           symrel      1  0  0   0  1  0   0  0  1       0 -1  1   0 -1  0   1 -1  0
                      -1  0  0  -1  0  1  -1  1  0       0  1 -1   1  0 -1   0  0 -1
                      -1  0  0  -1  1  0  -1  0  1       0 -1  1   1 -1  0   0 -1  0
                       1  0  0   0  0  1   0  1  0       0  1 -1   0  0 -1   1  0 -1
                      -1  0  1  -1  1  0  -1  0  0       0 -1  0   1 -1  0   0 -1  1
                       1  0 -1   0  0 -1   0  1 -1       0  1  0   0  0  1   1  0  0
                       1  0 -1   0  1 -1   0  0 -1       0 -1  0   0 -1  1   1 -1  0
                      -1  0  1  -1  0  0  -1  1  0       0  1  0   1  0  0   0  0  1
                       0  0 -1   0  1 -1   1  0 -1       1 -1  0   0 -1  1   0 -1  0
                       0  0  1   1  0  0   0  1  0      -1  1  0  -1  0  0  -1  0  1
                       0  0  1   0  1  0   1  0  0       1 -1  0   0 -1  0   0 -1  1
                       0  0 -1   1  0 -1   0  1 -1      -1  1  0  -1  0  1  -1  0  0
           tolwfr      1.00000000E-20
            typat      1  2  3
           useylm           1
              wtk        0.50000    0.50000
           xangst      0.0000000000E+00  0.0000000000E+00  0.0000000000E+00
                       1.1683693413E+00  8.2616188416E-01  2.0236750612E+00
                       2.3367386826E+00  1.6523237683E+00  4.0473501223E+00
            xcart      0.0000000000E+00  0.0000000000E+00  0.0000000000E+00
                       2.2078980771E+00  1.5612197025E+00  3.8241916475E+00
                       4.4157961542E+00  3.1224394050E+00  7.6483832951E+00
             xred      0.0000000000E+00  0.0000000000E+00  0.0000000000E+00
                       2.5000000000E-01  2.5000000000E-01  2.5000000000E-01
                       5.0000000000E-01  5.0000000000E-01  5.0000000000E-01
            znucl       23.00000   26.00000   51.00000

- Timing analysis has been suppressed with timopt=0

 Suggested references for the acknowledgment of ABINIT usage.

 Calculation completed.
.Delivered  14 WARNINGs and   9 COMMENTs to log file.