.Version 9.5.2 of ABINIT

 ABINIT is a project of the Universite Catholique de Louvain,
 Corning Inc. and other collaborators, see ~abinit/doc/developers/contributors.txt .
 acknowledgments of the ABINIT effort.

.Starting date : Wed 26 May 2021.
- ( at 02h35 )

- input  file    -> /scratch/users/j/a/jabreu/flow_simple_11atoms/flow/w245/t1/run.abi
- output file    -> /scratch/users/j/a/jabreu/flow_simple_11atoms/flow/w245/t1/run.abo
- root for input  files -> /scratch/users/j/a/jabreu/flow_simple_11atoms/flow/w245/t1/indata/in
- root for output files -> /scratch/users/j/a/jabreu/flow_simple_11atoms/flow/w245/t1/outdata/out

 Symmetries : space group P2/c (# 13); Bravais mP (primitive monocl.)
     intxc =       0      iscf =       7    lmnmax =      32     lnmax =       8
     mgfft =      64  mpssoang =       4    mqgrid =    3195     natom =      12
  nloc_mem =       1    nspden =       1   nspinor =       1    nsppol =       1
      nsym =       4    n1xccc =    2501    ntypat =       3    occopt =       1
   xclevel =       2
-    mband =          57        mffmem =           1         mkmem =           1
-   mkqmem =           1        mk1mem =           1           mpw =       12991
      nfft =      230400          nkpt =           1
  Rough estimation (10% accuracy) of disk space for files :

------------- Echo of variables that govern the present computation ------------
-
- outvars: echo of selected default values
-   iomode0 =  0 , fftalg0 =512 , wfoptalg0 =  0
-
- outvars: echo of global parameters not present in the input file
-  max_nthreads =    0
-
 -outvars: echo values of preprocessed input variables --------
            acell      1.0000000000E+00  1.0000000000E+00  1.0000000000E+00 Bohr
              amu      4.49559100E+01  1.80947900E+02  1.59994000E+01
             ecut      4.40000000E+01 Hartree
-          fftalg         512
           irdden           1
           irdwfk           1
           istwfk        1
              ixc     -116133
           kptopt           0
P           mkmem           1
P          mkqmem           1
P          mk1mem           1
            natom          12
            nband          57
           nbdbuf           4
            ngfft          64      60      60
             nkpt           1
            nstep        2000
             nsym           4
           ntypat           3
              occ      2.000000  2.000000  2.000000  2.000000  2.000000  2.000000
                       2.000000  2.000000  2.000000  2.000000  2.000000  2.000000
                       2.000000  2.000000  2.000000  2.000000  2.000000  2.000000
                       2.000000  2.000000  2.000000  2.000000  2.000000  2.000000
                       2.000000  2.000000  2.000000  2.000000  2.000000  2.000000
                       2.000000  2.000000  2.000000  2.000000  2.000000  2.000000
                       2.000000  2.000000  2.000000  2.000000  2.000000  2.000000
                       2.000000  2.000000  2.000000  2.000000  2.000000  2.000000
                       0.000000  0.000000  0.000000  0.000000  0.000000  0.000000
                       0.000000  0.000000  0.000000
        optdriver           1
            prtwf          -1
            rfdir           1       1       1
           rfelfd           2
            rprim      1.0698243014E+01  0.0000000000E+00  0.0000000000E+00
                       0.0000000000E+00  9.0530006720E+00  2.2609143590E-01
                       0.0000000000E+00  0.0000000000E+00  9.6117454705E+00
          spgroup          13
           symrel      1  0  0   0  1  0   0  0  1      -1  0  0   0 -1  0   0  0 -1
                       1  0  0   0 -1  0   0  0 -1      -1  0  0   0  1  0   0  0  1
            tnons      0.0000000  0.0000000  0.0000000    -0.0000000  0.0000000 -0.0000000
                       0.0000000  0.0000000  0.5000000    -0.0000000  0.0000000  0.5000000
           tolwfr      1.00000000E-20
            typat      1  1  2  2  3  3  3  3  3  3  3  3
           useylm           1
           xangst      3.8349758102E+00  0.0000000000E+00  3.8147374783E+00
                       1.8262905651E+00  0.0000000000E+00  1.2715791594E+00
                       1.0089678772E+00  2.3953208125E+00  3.8745586958E+00
                       4.6522984980E+00  2.3953208125E+00  1.3314003769E+00
                       5.0575206226E+00  3.4384590731E+00  2.9584667207E+00
                       2.1801366973E+00  3.6644048947E+00  3.1129605929E+00
                       5.0575206226E+00  1.3521825519E+00  4.7906506709E+00
                       3.4811296779E+00  1.1262367303E+00  2.0929984798E+00
                       2.1801366973E+00  1.1262367303E+00  4.6361567987E+00
                       6.0374575259E-01  3.4384590731E+00  4.1530840177E-01
                       3.4811296779E+00  3.6644048947E+00  5.6980227398E-01
                       6.0374575259E-01  1.3521825519E+00  2.2474923520E+00
            xcart      7.2470540075E+00  0.0000000000E+00  7.2088091029E+00
                       3.4511890070E+00  0.0000000000E+00  2.4029363676E+00
                       1.9066729648E+00  4.5265003360E+00  7.3218548208E+00
                       8.7915700497E+00  4.5265003360E+00  2.5159820856E+00
                       9.5573288882E+00  6.4977459673E+00  5.5906918753E+00
                       4.1198612902E+00  6.9247216910E+00  5.8826429830E+00
                       9.5573288882E+00  2.5552547047E+00  9.0530177664E+00
                       6.5783817243E+00  2.1282789810E+00  3.9551939234E+00
                       4.1198612902E+00  2.1282789810E+00  8.7610666587E+00
                       1.1409141263E+00  6.4977459673E+00  7.8481914004E-01
                       6.5783817243E+00  6.9247216910E+00  1.0767702477E+00
                       1.1409141263E+00  2.5552547047E+00  4.2471450311E+00
             xred      6.7740600000E-01  0.0000000000E+00  7.5000000000E-01
                       3.2259400000E-01  0.0000000000E+00  2.5000000000E-01
                       1.7822300000E-01  5.0000000000E-01  7.5000000000E-01
                       8.2177700000E-01  5.0000000000E-01  2.5000000000E-01
                       8.9335500000E-01  7.1774500000E-01  5.6476900000E-01
                       3.8509700000E-01  7.6490900000E-01  5.9403400000E-01
                       8.9335500000E-01  2.8225500000E-01  9.3523100000E-01
                       6.1490300000E-01  2.3509100000E-01  4.0596600000E-01
                       3.8509700000E-01  2.3509100000E-01  9.0596600000E-01
                       1.0664500000E-01  7.1774500000E-01  6.4769000000E-02
                       6.1490300000E-01  7.6490900000E-01  9.4034000000E-02
                       1.0664500000E-01  2.8225500000E-01  4.3523100000E-01
            znucl       21.00000   73.00000    8.00000

 chkinp: Checking input parameters for consistency.

== DATASET  1 ==================================================================
-   mpi_nproc: 1, omp_nthreads: -1 (-1 if OMP is not activated)

--- !DatasetInfo
iteration_state: {dtset: 1, }
dimensions: {natom: 12, nkpt: 1, mband: 57, nsppol: 1, nspinor: 1, nspden: 1, mpw: 12991, }
cutoff_energies: {ecut:  44.0, pawecutdg:  -1.0, }
electrons: {nelect:   9.60000000E+01, charge:   0.00000000E+00, occopt:   1.00000000E+00, tsmear:   1.00000000E-02, }
meta: {optdriver: 1, rfelfd: 2, }
...

 Real(R)+Recip(G) space primitive vectors, cartesian coordinates (Bohr,Bohr^-1):
 R(1)= 10.6982430  0.0000000  0.0000000  G(1)=  0.0934733  0.0000000  0.0000000
 R(2)=  0.0000000  9.0530007  0.2260914  G(2)=  0.0000000  0.1104606  0.0000000
 R(3)=  0.0000000  0.0000000  9.6117455  G(3)=  0.0000000 -0.0025983  0.1040394
 Unit cell volume ucvol=  9.3090909E+02 bohr^3
 Angles (23,13,12)=  8.85693812E+01  9.00000000E+01  9.00000000E+01 degrees

 getcut: wavevector=  0.0000  0.0000  0.0000  ngfft=  64  60  60
         ecut(hartree)=     44.000   => boxcut(ratio)=   2.00344

--- Pseudopotential description ------------------------------------------------
- pspini: atom type   1  psp file is /scratch/users/j/a/jabreu/pseudos/PBEsol/Sc.psp8
- pspatm: opening atomic psp file    /scratch/users/j/a/jabreu/pseudos/PBEsol/Sc.psp8
- Sc    ONCVPSP-3.3.0  r_core=   1.35663   1.35663   1.66161
- 21.00000  11.00000    180112                znucl, zion, pspdat
    8 -116133    2    4       600   0.00000   pspcod,pspxc,lmax,lloc,mmax,r2well
    5.99000000000000    5.00000000000000    0.00000000000000   rchrg,fchrg,qchrg
     nproj     2     2     2
     extension_switch     1
  pspatm : epsatm=   13.58981094
         --- l  ekb(1:nproj) -->
             0   10.810997    0.948773
             1    2.871172    0.364831
             2   -4.789751   -1.321945
 pspatm: atomic psp has been read  and splines computed

- pspini: atom type   2  psp file is /scratch/users/j/a/jabreu/pseudos/PBEsol/Ta.psp8
- pspatm: opening atomic psp file    /scratch/users/j/a/jabreu/pseudos/PBEsol/Ta.psp8
- Ta    ONCVPSP-3.3.0  r_core=   1.71294   1.71294   1.71294   2.25368
- 73.00000  13.00000    180112                znucl, zion, pspdat
    8 -116133    3    4       600   0.00000   pspcod,pspxc,lmax,lloc,mmax,r2well
    5.99000000000000    5.00000000000000    0.00000000000000   rchrg,fchrg,qchrg
     nproj     2     2     2     2
     extension_switch     1
  pspatm : epsatm=   21.70781236
         --- l  ekb(1:nproj) -->
             0   11.480337    1.447149
             1    5.630373    0.817168
             2    1.844704    0.232364
             3    4.923559    0.251242
 pspatm: atomic psp has been read  and splines computed

- pspini: atom type   3  psp file is /scratch/users/j/a/jabreu/pseudos/PBEsol/O.psp8
- pspatm: opening atomic psp file    /scratch/users/j/a/jabreu/pseudos/PBEsol/O.psp8
- O     ONCVPSP-3.3.0  r_core=   1.35509   1.45563   1.26150
-  8.00000   6.00000    180112                znucl, zion, pspdat
    8 -116133    2    4       600   0.00000   pspcod,pspxc,lmax,lloc,mmax,r2well
    5.99000000000000    4.00000000000000    0.00000000000000   rchrg,fchrg,qchrg
     nproj     2     2     1
     extension_switch     1
  pspatm : epsatm=    6.22910522
         --- l  ekb(1:nproj) -->
             0    6.050032    0.820363
             1   -4.739617   -1.153841
             2   -1.335834
 pspatm: atomic psp has been read  and splines computed

   1.15610965E+04                                ecore*ucvol(ha*bohr**3)

 ==>  initialize data related to q vector <==

 The list of irreducible perturbations for this q vector is:
    1)    idir= 1    ipert=  13
    2)    idir= 2    ipert=  13
    3)    idir= 3    ipert=  13

 Perturbation wavevector (in red.coord.)   0.000000  0.000000  0.000000
 Perturbation : derivative vs k along direction   1

 dfpt_looppert : COMMENT -
  In a d/dk calculation, iscf is set to -3 automatically.
 The set of symmetries contains only one element for this perturbation.
 symkpt : not enough symmetry to change the number of k points.

 Initialisation of the first-order wave-functions :
  ireadwf=   0

--- !BeginCycle
iteration_state: {dtset: 1, }
solver: {iscf: 7, nstep: 2000, nline: 4, wfoptalg: 0, }
tolerances: {tolwfr: 1.00E-20, }
...

[...]
  No Ewald or frozen-wf contrib.: the relaxation energy is the total one
 2DEtotal=   -0.3533474099E+02 Ha. Also 2DEtotal=   -0.961507200616E+03 eV
    (  non-var. 2DEtotal :   -3.5334740988E+01 Ha)

 Perturbation wavevector (in red.coord.)   0.000000  0.000000  0.000000
 Perturbation : derivative vs k along direction   2
 The set of symmetries contains only one element for this perturbation.
 symkpt : not enough symmetry to change the number of k points.

[...]

 Perturbation wavevector (in red.coord.)   0.000000  0.000000  0.000000
 Perturbation : derivative vs k along direction   3
 The set of symmetries contains only one element for this perturbation.
 symkpt : not enough symmetry to change the number of k points.

 Initialisation of the first-order wave-functions :
  ireadwf=   0

--- !BeginCycle
iteration_state: {dtset: 1, }
solver: {iscf: 7, nstep: 2000, nline: 4, wfoptalg: 0, }
tolerances: {tolwfr: 1.00E-20, }
...

     iter   2DEtotal(Ha)        deltaE(Ha) residm    vres2
-ETOT  1  -42.280075335970     -4.228E+01 1.050E-01 0.000E+00
 ETOT  2  -42.536093598757     -2.560E-01 7.451E-02 0.000E+00
 ETOT  3  -42.547054935188     -1.096E-02 5.110E-03 0.000E+00
 ETOT  4  -42.547715418191     -6.605E-04 4.379E-03 0.000E+00
 ETOT  5  -42.547760790579     -4.537E-05 4.348E-04 0.000E+00
 ETOT  6  -42.547764091707     -3.301E-06 3.783E-04 0.000E+00
 ETOT  7  -42.547764346775     -2.551E-07 4.232E-05 0.000E+00
 ETOT  8  -42.547764367236     -2.046E-08 3.557E-05 0.000E+00
 ETOT  9  -42.547764368945     -1.709E-09 4.160E-06 0.000E+00
 ETOT 10  -42.547764369092     -1.467E-10 3.459E-06 0.000E+00
 ETOT 11  -42.547764369105     -1.300E-11 4.105E-07 0.000E+00
 ETOT 12  -42.547764369106     -1.215E-12 3.402E-07 0.000E+00
 ETOT 13  -42.547764369106     -1.421E-14 5.789E-08 0.000E+00
 ETOT 14  -42.547764369106      5.684E-14 3.365E-08 0.000E+00
 ETOT 15  -42.547764369106     -9.948E-14 1.000E-08 0.000E+00
 ETOT 16  -42.547764369106      4.974E-14 5.476E-09 0.000E+00
 ETOT 17  -42.547764369106     -4.974E-14 1.757E-09 0.000E+00
 ETOT 18  -42.547764369106      2.132E-14 9.740E-10 0.000E+00
 ETOT 19  -42.547764369106     -4.263E-14 3.128E-10 0.000E+00
 ETOT 20  -42.547764369106      0.000E+00 1.749E-10 0.000E+00
 ETOT 21  -42.547764369106      0.000E+00 5.635E-11 0.000E+00
 ETOT 22  -42.547764369106      0.000E+00 3.172E-11 0.000E+00
 ETOT 23  -42.547764369106     -7.105E-15 1.028E-11 0.000E+00
 ETOT 24  -42.547764369106      2.132E-14 5.825E-12 0.000E+00
 ETOT 25  -42.547764369106     -2.132E-14 1.905E-12 0.000E+00
 ETOT 26  -42.547764369106      0.000E+00 1.087E-12 0.000E+00
 ETOT 27  -42.547764369106      1.421E-14 3.596E-13 0.000E+00
 ETOT 28  -42.547764369106     -1.421E-14 2.074E-13 0.000E+00
 ETOT 29  -42.547764369106      2.132E-14 6.950E-14 0.000E+00
 ETOT 30  -42.547764369106     -7.105E-15 4.064E-14 0.000E+00
 ETOT 31  -42.547764369106      7.105E-15 1.728E-14 0.000E+00
 ETOT 32  -42.547764369106      1.421E-14 9.480E-15 0.000E+00
 ETOT 33  -42.547764369106     -7.105E-15 5.691E-15 0.000E+00
 ETOT 34  -42.547764369106      7.105E-15 3.132E-15 0.000E+00
 ETOT 35  -42.547764369106     -1.421E-14 1.878E-15 0.000E+00
 ETOT 36  -42.547764369106      0.000E+00 1.037E-15 0.000E+00
 ETOT 37  -42.547764369106      0.000E+00 6.213E-16 0.000E+00
 ETOT 38  -42.547764369106      0.000E+00 3.441E-16 0.000E+00
 ETOT 39  -42.547764369106      7.105E-15 2.059E-16 0.000E+00
 ETOT 40  -42.547764369106     -7.105E-15 1.143E-16 0.000E+00
 ETOT 41  -42.547764369106      7.105E-15 6.833E-17 0.000E+00
 ETOT 42  -42.547764369106      1.421E-14 3.804E-17 0.000E+00
 ETOT 43  -42.547764369106     -3.553E-14 2.271E-17 0.000E+00
 ETOT 44  -42.547764369106      2.842E-14 1.267E-17 0.000E+00
 ETOT 45  -42.547764369106     -7.105E-15 7.557E-18 0.000E+00
 ETOT 46  -42.547764369106     -7.105E-15 4.224E-18 0.000E+00
 ETOT 47  -42.547764369106      7.105E-15 2.517E-18 0.000E+00
 ETOT 48  -42.547764369106      7.105E-15 1.409E-18 0.000E+00
 ETOT 49  -42.547764369106      0.000E+00 8.392E-19 0.000E+00
 ETOT 50  -42.547764369106      0.000E+00 4.706E-19 0.000E+00
 ETOT 51  -42.547764369106      0.000E+00 2.800E-19 0.000E+00
 ETOT 52  -42.547764369106      0.000E+00 1.572E-19 0.000E+00
 ETOT 53  -42.547764369106      0.000E+00 9.346E-20 0.000E+00
 ETOT 54  -42.547764369106     -1.421E-14 5.254E-20 0.000E+00
 ETOT 55  -42.547764369106      0.000E+00 3.122E-20 0.000E+00
 ETOT 56  -42.547764369106      0.000E+00 1.757E-20 0.000E+00
 ETOT 57  -42.547764369106      1.421E-14 1.043E-20 0.000E+00
 ETOT 58  -42.547764369106     -7.105E-15 9.968E-21 0.000E+00

 At SCF step   58   max residual=  9.97E-21 < tolwfr=  1.00E-20 =>converged.

 ----iterations are completed or convergence reached----

 dfpt_looppert: DFPT cycle converged with prtwf=-1. Will skip output of the 1st-order WFK file.
 dfpt_looppert : ek2=    8.2096989471E+01
          f-sum rule ratio=    1.0339256071E+00
 prteigrs : about to open file /scratch/users/j/a/jabreu/flow_simple_11atoms/flow/w245/t1/tmpdata/tmp_1WF1_EIG
 Expectation of eigenvalue derivatives (hartree) for nkpt=   1  k points:
  (in case of degenerate eigenvalues, averaged derivative)
 kpt#   1, nband= 57, wtk=  1.00000, kpt=  0.0000  0.0000  0.0000 (reduced coord)
   0.00000   -0.00000   -0.00000    0.00000   -0.00000   -0.00000    0.00000   -0.00000
   0.00000    0.00000    0.00000   -0.00000   -0.00000   -0.00000   -0.00000   -0.00000
  -0.00000    0.00000    0.00000   -0.00000    0.00000    0.00000    0.00000   -0.00000
  -0.00000    0.00000    0.00000    0.00000    0.00000    0.00000   -0.00000   -0.00000
  -0.00000    0.00000    0.00000   -0.00000   -0.00000   -0.00000    0.00000   -0.00000
   0.00000   -0.00000    0.00000   -0.00000    0.00000   -0.00000   -0.00000    0.00000
   0.00000   -0.00000   -0.00000    0.00000    0.00000    0.00000    0.00000   -0.00001
   0.00005

 Eight components of 2nd-order total energy (hartree) are
 1,2,3: 0th-order hamiltonian combined with 1st-order wavefunctions
     kin0=   8.20800539E+01 eigvalue=  -1.06328036E+00  local=  -4.51789537E+01
 4,5,6: 1st-order hamiltonian combined with 1st and 0th-order wfs
     kin1=  -8.48821797E+01  Hartree=   0.00000000E+00     xc=   0.00000000E+00
 7,8,9: eventually, occupation + non-local contributions
    edocc=   8.52714989E+00     enl0=  -1.81720529E+00   enl1=  -2.13349056E-01
 1-9 gives the relaxation energy (to be shifted if some occ is /=2.0)
   erelax=  -4.25477644E+01
  No Ewald or frozen-wf contrib.: the relaxation energy is the total one
 2DEtotal=   -0.4254776437E+02 Ha. Also 2DEtotal=   -0.115778354863E+04 eV
    (  non-var. 2DEtotal :   -4.2547764369E+01 Ha)

 CALCULATION OF EFFECTIVE MASSES
 NOTE : Additional infos (eff. mass eigenvalues, eigenvectors and, if degenerate, average mass) are available in stdout.

--- !WARNING
src_file: m_efmas.F90
src_line: 0
message: |

    Band(s)    48,
    are not band extrema, but saddle points;
    the transport equivalent formalism breaks down in these conditions.
    The associated tensor(s) will therefore not be printed.
...

 K-point ( 0.000, 0.000, 0.000) | band =    48
 Effective mass tensor:
     *** SADDLE POINT: TRANSPORT EQV. EFF. MASS NOT DEFINED (see WARNING above) ***
 Angular average effective mass 1/(<1/m>)=  -3.6154876540
 Angular average effective mass for Frohlich model (<m**0.5>)**2=  -7.7979653153
 Effective masses along directions: (cart. coord. / red. coord. -> eff. mass)
    1:   1.000000  0.000000  0.000000 /   1.000000  0.000000  0.000000 ->  -3.6043709349
    2:   0.000000  1.000000  0.000000 /   0.000000  1.000000  0.000000 ->  67.8283560496
    3:   0.000000  0.000000  1.000000 /   0.000000  0.023516  0.999723 ->  -1.7634639090
    4:   0.577350  0.577350  0.577350 /   0.625062  0.542146  0.561582 ->  -7.0740930304
    5:   0.000000  0.707107  0.707107 /   0.000000  0.694547  0.719447 -> -13.6412643843
    6:   0.707107  0.000000  0.707107 /   0.743778  0.015719  0.668241 ->  -2.3683239083
    7:   0.707107  0.707107  0.000000 /   0.763364  0.645969  0.000000 ->  -7.6117066970

--- !WARNING
src_file: m_efmas.F90
src_line: 0
message: |

    Band(s)    49,
    are not band extrema, but saddle points;
    the transport equivalent formalism breaks down in these conditions.
    The associated tensor(s) will therefore not be printed.
...

 K-point ( 0.000, 0.000, 0.000) | band =    49
 Effective mass tensor:
     *** SADDLE POINT: TRANSPORT EQV. EFF. MASS NOT DEFINED (see WARNING above) ***
 Angular average effective mass 1/(<1/m>)=   7.0365154604
 Angular average effective mass for Frohlich model (<m**0.5>)**2=   6.5491371859
 Effective masses along directions: (cart. coord. / red. coord. -> eff. mass)
    1:   1.000000  0.000000  0.000000 /   1.000000  0.000000  0.000000 ->  -1.9217743168
    2:   0.000000  1.000000  0.000000 /   0.000000  1.000000  0.000000 ->   3.9664534810
    3:   0.000000  0.000000  1.000000 /   0.000000  0.023516  0.999723 ->   1.4397076427
    4:   0.577350  0.577350  0.577350 /   0.625062  0.542146  0.561582 ->   7.8789466912
    5:   0.000000  0.707107  0.707107 /   0.000000  0.694547  0.719447 ->   2.2195150642
    6:   0.707107  0.000000  0.707107 /   0.743778  0.015719  0.668241 ->  11.4803110543
    7:   0.707107  0.707107  0.000000 /   0.763364  0.645969  0.000000 ->  -7.4571188193

 END OF EFFECTIVE MASSES SECTION

 ---- first-order wavefunction calculations are completed ----

 Total localisation tensor (bohr^2) in cartesian coordinates
  WARNING : still subject to testing - especially symmetries.
      direction              matrix element
   alpha     beta       real part   imaginary part
     1        1       0.7934343925    0.0000000000
     1        2       0.0000000000    0.0000000000
     1        3       0.0000000000    0.0000000000
     2        1       0.0000000000    0.0000000000
     2        2       0.7452442393    0.0000000000
     2        3       0.0186118776    0.0000000000
     3        1       0.0000000000    0.0000000000
     3        2       0.0186118776    0.0000000000
     3        3       0.7584910728    0.0000000000

 respfn : d/dk was computed, but no 2DTE, so no DDB output.

== END DATASET(S) ==============================================================

 -outvars: echo values of variables after computation  --------
            acell      1.0000000000E+00  1.0000000000E+00  1.0000000000E+00 Bohr
              amu      4.49559100E+01  1.80947900E+02  1.59994000E+01
             ecut      4.40000000E+01 Hartree
           etotal     -4.2547764369E+01
            fcart      0.0000000000E+00  0.0000000000E+00  0.0000000000E+00
                       0.0000000000E+00  0.0000000000E+00  0.0000000000E+00
                       0.0000000000E+00  0.0000000000E+00  0.0000000000E+00
                       0.0000000000E+00  0.0000000000E+00  0.0000000000E+00
                       0.0000000000E+00  0.0000000000E+00  0.0000000000E+00
                       0.0000000000E+00  0.0000000000E+00  0.0000000000E+00
                       0.0000000000E+00  0.0000000000E+00  0.0000000000E+00
                       0.0000000000E+00  0.0000000000E+00  0.0000000000E+00
                       0.0000000000E+00  0.0000000000E+00  0.0000000000E+00
                       0.0000000000E+00  0.0000000000E+00  0.0000000000E+00
                       0.0000000000E+00  0.0000000000E+00  0.0000000000E+00
                       0.0000000000E+00  0.0000000000E+00  0.0000000000E+00
-          fftalg         512
           irdden           1
           irdwfk           1
           istwfk        1
              ixc     -116133
           kptopt           0
P           mkmem           1
P          mkqmem           1
P          mk1mem           1
            natom          12
            nband          57
           nbdbuf           4
            ngfft          64      60      60
             nkpt           1
            nstep        2000
             nsym           4
           ntypat           3
              occ      2.000000  2.000000  2.000000  2.000000  2.000000  2.000000
                       2.000000  2.000000  2.000000  2.000000  2.000000  2.000000
                       2.000000  2.000000  2.000000  2.000000  2.000000  2.000000
                       2.000000  2.000000  2.000000  2.000000  2.000000  2.000000
                       2.000000  2.000000  2.000000  2.000000  2.000000  2.000000
                       2.000000  2.000000  2.000000  2.000000  2.000000  2.000000
                       2.000000  2.000000  2.000000  2.000000  2.000000  2.000000
                       2.000000  2.000000  2.000000  2.000000  2.000000  2.000000
                       0.000000  0.000000  0.000000  0.000000  0.000000  0.000000
                       0.000000  0.000000  0.000000
        optdriver           1
            prtwf          -1
            rfdir           1       1       1
           rfelfd           2
            rprim      1.0698243014E+01  0.0000000000E+00  0.0000000000E+00
                       0.0000000000E+00  9.0530006720E+00  2.2609143590E-01
                       0.0000000000E+00  0.0000000000E+00  9.6117454705E+00
          spgroup          13
           strten      0.0000000000E+00  0.0000000000E+00  0.0000000000E+00
                       0.0000000000E+00  0.0000000000E+00  0.0000000000E+00
           symrel      1  0  0   0  1  0   0  0  1      -1  0  0   0 -1  0   0  0 -1
                       1  0  0   0 -1  0   0  0 -1      -1  0  0   0  1  0   0  0  1
            tnons      0.0000000  0.0000000  0.0000000    -0.0000000  0.0000000 -0.0000000
                       0.0000000  0.0000000  0.5000000    -0.0000000  0.0000000  0.5000000
           tolwfr      1.00000000E-20
            typat      1  1  2  2  3  3  3  3  3  3  3  3
           useylm           1
           xangst      3.8349758102E+00  0.0000000000E+00  3.8147374783E+00
                       1.8262905651E+00  0.0000000000E+00  1.2715791594E+00
                       1.0089678772E+00  2.3953208125E+00  3.8745586958E+00
                       4.6522984980E+00  2.3953208125E+00  1.3314003769E+00
                       5.0575206226E+00  3.4384590731E+00  2.9584667207E+00
                       2.1801366973E+00  3.6644048947E+00  3.1129605929E+00
                       5.0575206226E+00  1.3521825519E+00  4.7906506709E+00
                       3.4811296779E+00  1.1262367303E+00  2.0929984798E+00
                       2.1801366973E+00  1.1262367303E+00  4.6361567987E+00
                       6.0374575259E-01  3.4384590731E+00  4.1530840177E-01
                       3.4811296779E+00  3.6644048947E+00  5.6980227398E-01
                       6.0374575259E-01  1.3521825519E+00  2.2474923520E+00
            xcart      7.2470540075E+00  0.0000000000E+00  7.2088091029E+00
                       3.4511890070E+00  0.0000000000E+00  2.4029363676E+00
                       1.9066729648E+00  4.5265003360E+00  7.3218548208E+00
                       8.7915700497E+00  4.5265003360E+00  2.5159820856E+00
                       9.5573288882E+00  6.4977459673E+00  5.5906918753E+00
                       4.1198612902E+00  6.9247216910E+00  5.8826429830E+00
                       9.5573288882E+00  2.5552547047E+00  9.0530177664E+00
                       6.5783817243E+00  2.1282789810E+00  3.9551939234E+00
                       4.1198612902E+00  2.1282789810E+00  8.7610666587E+00
                       1.1409141263E+00  6.4977459673E+00  7.8481914004E-01
                       6.5783817243E+00  6.9247216910E+00  1.0767702477E+00
                       1.1409141263E+00  2.5552547047E+00  4.2471450311E+00
             xred      6.7740600000E-01  0.0000000000E+00  7.5000000000E-01
                       3.2259400000E-01  0.0000000000E+00  2.5000000000E-01
                       1.7822300000E-01  5.0000000000E-01  7.5000000000E-01
                       8.2177700000E-01  5.0000000000E-01  2.5000000000E-01
                       8.9335500000E-01  7.1774500000E-01  5.6476900000E-01
                       3.8509700000E-01  7.6490900000E-01  5.9403400000E-01
                       8.9335500000E-01  2.8225500000E-01  9.3523100000E-01
                       6.1490300000E-01  2.3509100000E-01  4.0596600000E-01
                       3.8509700000E-01  2.3509100000E-01  9.0596600000E-01
                       1.0664500000E-01  7.1774500000E-01  6.4769000000E-02
                       6.1490300000E-01  7.6490900000E-01  9.4034000000E-02
                       1.0664500000E-01  2.8225500000E-01  4.3523100000E-01
            znucl       21.00000   73.00000    8.00000

- Timing analysis has been suppressed with timopt=0

 Suggested references for the acknowledgment of ABINIT usage.

 Calculation completed.
.Delivered   4 WARNINGs and   5 COMMENTs to log file.