.Version 9.5.2 of ABINIT

 ABINIT is a project of the Universite Catholique de Louvain,
 Corning Inc. and other collaborators, see ~abinit/doc/developers/contributors.txt .
 acknowledgments of the ABINIT effort.

.Starting date : Mon 24 May 2021.
- ( at 22h58 )

- input  file    -> /scratch/users/j/a/jabreu/flow_simple_10atoms/flow/w462/t1/run.abi
- output file    -> /scratch/users/j/a/jabreu/flow_simple_10atoms/flow/w462/t1/run.abo
- root for input  files -> /scratch/users/j/a/jabreu/flow_simple_10atoms/flow/w462/t1/indata/in
- root for output files -> /scratch/users/j/a/jabreu/flow_simple_10atoms/flow/w462/t1/outdata/out

 Symmetries : space group Fm -3 m (#225); Bravais cF (face-center cubic)
     intxc =       0      iscf =       7    lmnmax =      18     lnmax =       6
     mgfft =      72  mpssoang =       3    mqgrid =    3001     natom =      10
  nloc_mem =       1    nspden =       1   nspinor =       1    nsppol =       1
      nsym =      48    n1xccc =    2501    ntypat =       4    occopt =       1
   xclevel =       2
-    mband =          50        mffmem =           1         mkmem =           1
-   mkqmem =           1        mk1mem =           1           mpw =       13851
      nfft =      373248          nkpt =           1
  Rough estimation (10% accuracy) of disk space for files :

------------- Echo of variables that govern the present computation ------------
-
- outvars: echo of selected default values
-   iomode0 =  0 , fftalg0 =512 , wfoptalg0 =  0
-
- outvars: echo of global parameters not present in the input file
-  max_nthreads =    0
-
 -outvars: echo values of preprocessed input variables --------
            acell      1.0000000000E+00  1.0000000000E+00  1.0000000000E+00 Bohr
              amu      1.37327000E+02  4.00780000E+01  1.27600000E+02
                       1.59994000E+01
             ecut      4.40000000E+01 Hartree
-          fftalg         512
           irdden           1
           irdwfk           1
           istwfk        1
              ixc     -116133
           kptopt           0
P           mkmem           1
P          mkqmem           1
P          mk1mem           1
            natom          10
            nband          50
           nbdbuf           4
            ngfft          72      72      72
             nkpt           1
            nstep        2000
             nsym          48
           ntypat           4
              occ      2.000000  2.000000  2.000000  2.000000  2.000000  2.000000
                       2.000000  2.000000  2.000000  2.000000  2.000000  2.000000
                       2.000000  2.000000  2.000000  2.000000  2.000000  2.000000
                       2.000000  2.000000  2.000000  2.000000  2.000000  2.000000
                       2.000000  2.000000  2.000000  2.000000  2.000000  2.000000
                       2.000000  2.000000  2.000000  2.000000  2.000000  2.000000
                       2.000000  2.000000  2.000000  2.000000  2.000000  0.000000
                       0.000000  0.000000  0.000000  0.000000  0.000000  0.000000
                       0.000000  0.000000
        optdriver           1
            prtwf          -1
            rfdir           1       1       1
           rfelfd           2
            rprim      9.7082865930E+00  0.0000000000E+00  5.6050818778E+00
                       3.2360955310E+00  9.1530603782E+00  5.6050818778E+00
                       0.0000000000E+00  0.0000000000E+00  1.1210163756E+01
          spgroup         225
           symrel      1  0  0   0  1  0   0  0  1      -1  0  0   0 -1  0   0  0 -1
                       0 -1  1   0 -1  0   1 -1  0       0  1 -1   0  1  0  -1  1  0
                      -1  0  0  -1  0  1  -1  1  0       1  0  0   1  0 -1   1 -1  0
                       0  1 -1   1  0 -1   0  0 -1       0 -1  1  -1  0  1   0  0  1
                      -1  0  0  -1  1  0  -1  0  1       1  0  0   1 -1  0   1  0 -1
                       0 -1  1   1 -1  0   0 -1  0       0  1 -1  -1  1  0   0  1  0
                       1  0  0   0  0  1   0  1  0      -1  0  0   0  0 -1   0 -1  0
                       0  1 -1   0  0 -1   1  0 -1       0 -1  1   0  0  1  -1  0  1
                      -1  0  1  -1  1  0  -1  0  0       1  0 -1   1 -1  0   1  0  0
                       0 -1  0   1 -1  0   0 -1  1       0  1  0  -1  1  0   0  1 -1
                       1  0 -1   0  0 -1   0  1 -1      -1  0  1   0  0  1   0 -1  1
                       0  1  0   0  0  1   1  0  0       0 -1  0   0  0 -1  -1  0  0
                       1  0 -1   0  1 -1   0  0 -1      -1  0  1   0 -1  1   0  0  1
                       0 -1  0   0 -1  1   1 -1  0       0  1  0   0  1 -1  -1  1  0
                      -1  0  1  -1  0  0  -1  1  0       1  0 -1   1  0  0   1 -1  0
                       0  1  0   1  0  0   0  0  1       0 -1  0  -1  0  0   0  0 -1
                       0  0 -1   0  1 -1   1  0 -1       0  0  1   0 -1  1  -1  0  1
                       1 -1  0   0 -1  1   0 -1  0      -1  1  0   0  1 -1   0  1  0
                       0  0  1   1  0  0   0  1  0       0  0 -1  -1  0  0   0 -1  0
                      -1  1  0  -1  0  0  -1  0  1       1 -1  0   1  0  0   1  0 -1
                       0  0  1   0  1  0   1  0  0       0  0 -1   0 -1  0  -1  0  0
                       1 -1  0   0 -1  0   0 -1  1      -1  1  0   0  1  0   0  1 -1
                       0  0 -1   1  0 -1   0  1 -1       0  0  1  -1  0  1   0 -1  1
                      -1  1  0  -1  0  1  -1  0  0       1 -1  0   1  0 -1   1  0  0
           tolwfr      1.00000000E-20
            typat      1  1  2  3  4  4  4  4  4  4
           useylm           1
           xangst      1.7124679998E+00  1.2108977352E+00  2.9660815820E+00
                       5.1374039995E+00  3.6326932057E+00  8.8982447461E+00
                       0.0000000000E+00  0.0000000000E+00  0.0000000000E+00
                       3.4249359997E+00  2.4217954705E+00  5.9321631641E+00
                       5.0138597081E+00  3.5453341995E+00  5.9321631640E+00
                       2.6304741454E+00  3.5453341995E+00  7.3082114602E+00
                       4.2193978539E+00  1.2982567415E+00  7.3082114602E+00
                       2.6304741454E+00  3.5453341995E+00  4.5561148679E+00
                       4.2193978539E+00  1.2982567415E+00  4.5561148679E+00
                       1.8360122912E+00  1.2982567415E+00  5.9321631641E+00
            xcart      3.2360955310E+00  2.2882650945E+00  5.6050818778E+00
                       9.7082865930E+00  6.8647952836E+00  1.6815245633E+01
                       0.0000000000E+00  0.0000000000E+00  0.0000000000E+00
                       6.4721910620E+00  4.5765301891E+00  1.1210163756E+01
                       9.4748217170E+00  6.6997106867E+00  1.1210163756E+01
                       4.9708757345E+00  6.6997106867E+00  1.3810518181E+01
                       7.9735063895E+00  2.4533496915E+00  1.3810518181E+01
                       4.9708757345E+00  6.6997106867E+00  8.6098093302E+00
                       7.9735063895E+00  2.4533496915E+00  8.6098093302E+00
                       3.4695604070E+00  2.4533496915E+00  1.1210163756E+01
             xred      2.5000000000E-01  2.5000000000E-01  2.5000000000E-01
                       7.5000000000E-01  7.5000000000E-01  7.5000000000E-01
                       0.0000000000E+00  0.0000000000E+00  0.0000000000E+00
                       5.0000000000E-01  5.0000000000E-01  5.0000000000E-01
                       7.3196400000E-01  7.3196400000E-01  2.6803600000E-01
                       2.6803600000E-01  7.3196400000E-01  7.3196400000E-01
                       7.3196400000E-01  2.6803600000E-01  7.3196400000E-01
                       2.6803600000E-01  7.3196400000E-01  2.6803600000E-01
                       7.3196400000E-01  2.6803600000E-01  2.6803600000E-01
                       2.6803600000E-01  2.6803600000E-01  7.3196400000E-01
            znucl       56.00000   20.00000   52.00000    8.00000

 chkinp: Checking input parameters for consistency.

== DATASET  1 ==================================================================
-   mpi_nproc: 1, omp_nthreads: -1 (-1 if OMP is not activated)

--- !DatasetInfo
iteration_state: {dtset: 1, }
dimensions: {natom: 10, nkpt: 1, mband: 50, nsppol: 1, nspinor: 1, nspden: 1, mpw: 13851, }
cutoff_energies: {ecut:  44.0, pawecutdg:  -1.0, }
electrons: {nelect:   8.20000000E+01, charge:   0.00000000E+00, occopt:   1.00000000E+00, tsmear:   1.00000000E-02, }
meta: {optdriver: 1, rfelfd: 2, }
...

 Real(R)+Recip(G) space primitive vectors, cartesian coordinates (Bohr,Bohr^-1):
 R(1)=  9.7082866  0.0000000  5.6050819  G(1)=  0.1030048 -0.0364177  0.0000000
 R(2)=  3.2360955  9.1530604  5.6050819  G(2)=  0.0000000  0.1092531  0.0000000
 R(3)=  0.0000000  0.0000000 11.2101638  G(3)= -0.0515024 -0.0364177  0.0892048
 Unit cell volume ucvol=  9.9614113E+02 bohr^3
 Angles (23,13,12)=  6.00000000E+01  6.00000000E+01  6.00000000E+01 degrees

 getcut: wavevector=  0.0000  0.0000  0.0000  ngfft=  72  72  72
         ecut(hartree)=     44.000   => boxcut(ratio)=   2.15094

--- Pseudopotential description ------------------------------------------------
- pspini: atom type   1  psp file is /scratch/users/j/a/jabreu/pseudos/PBEsol/Ba.psp8
- pspatm: opening atomic psp file    /scratch/users/j/a/jabreu/pseudos/PBEsol/Ba.psp8
- Ba    ONCVPSP-3.3.0  r_core=   2.15444   1.91218   2.15444
- 56.00000  10.00000    180112                znucl, zion, pspdat
    8 -116133    2    4       600   0.00000   pspcod,pspxc,lmax,lloc,mmax,r2well
    5.99000000000000    5.00000000000000    0.00000000000000   rchrg,fchrg,qchrg
     nproj     2     2     2
     extension_switch     1
  pspatm : epsatm=   26.37418029
         --- l  ekb(1:nproj) -->
             0    6.652372    0.677024
             1    5.027722    0.408462
             2    2.543237    0.416854
 pspatm: atomic psp has been read  and splines computed

- pspini: atom type   2  psp file is /scratch/users/j/a/jabreu/pseudos/PBEsol/Ca.psp8
- pspatm: opening atomic psp file    /scratch/users/j/a/jabreu/pseudos/PBEsol/Ca.psp8
- Ca    ONCVPSP-3.3.0  r_core=   1.45885   1.45885   1.85192
- 20.00000  10.00000    180112                znucl, zion, pspdat
    8 -116133    2    4       400   0.00000   pspcod,pspxc,lmax,lloc,mmax,r2well
    3.99000000000000    6.00000000000000    0.00000000000000   rchrg,fchrg,qchrg
     nproj     2     2     2
     extension_switch     1
  pspatm : epsatm=   12.46045226
         --- l  ekb(1:nproj) -->
             0   10.054847    0.973777
             1    2.998958    0.458102
             2   -3.447298   -1.091650
 pspatm: atomic psp has been read  and splines computed

[...]

- pspini: atom type   4  psp file is /scratch/users/j/a/jabreu/pseudos/PBEsol/O.psp8
- pspatm: opening atomic psp file    /scratch/users/j/a/jabreu/pseudos/PBEsol/O.psp8
- O     ONCVPSP-3.3.0  r_core=   1.35509   1.45563   1.26150
-  8.00000   6.00000    180112                znucl, zion, pspdat
    8 -116133    2    4       600   0.00000   pspcod,pspxc,lmax,lloc,mmax,r2well
[...]
 ETOT  7  -56.698751348177     -4.339E-09 1.062E-06 0.000E+00
 ETOT  8  -56.698751348367     -1.901E-10 3.014E-07 0.000E+00
 ETOT  9  -56.698751348375     -8.413E-12 5.262E-08 0.000E+00
 ETOT 10  -56.698751348375     -3.695E-13 1.970E-08 0.000E+00
 ETOT 11  -56.698751348376     -2.132E-14 2.840E-09 0.000E+00
 ETOT 12  -56.698751348376      7.105E-15 1.372E-09 0.000E+00
 ETOT 13  -56.698751348376      0.000E+00 1.915E-10 0.000E+00
 ETOT 14  -56.698751348376     -7.105E-15 9.817E-11 0.000E+00
 ETOT 15  -56.698751348375      2.842E-14 1.350E-11 0.000E+00
 ETOT 16  -56.698751348375     -7.105E-15 7.100E-12 0.000E+00
 ETOT 17  -56.698751348376     -7.105E-15 9.654E-13 0.000E+00
 ETOT 18  -56.698751348376     -7.105E-15 5.157E-13 0.000E+00
 ETOT 19  -56.698751348376      0.000E+00 7.268E-14 0.000E+00
 ETOT 20  -56.698751348376      0.000E+00 3.752E-14 0.000E+00
 ETOT 21  -56.698751348375      2.842E-14 5.995E-15 0.000E+00
 ETOT 22  -56.698751348376     -2.842E-14 2.840E-15 0.000E+00
 ETOT 23  -56.698751348375      1.421E-14 5.005E-16 0.000E+00
 ETOT 24  -56.698751348375      0.000E+00 2.391E-16 0.000E+00
 ETOT 25  -56.698751348376     -7.105E-15 4.200E-17 0.000E+00
 ETOT 26  -56.698751348375      7.105E-15 2.017E-17 0.000E+00
 ETOT 27  -56.698751348376     -7.105E-15 3.534E-18 0.000E+00
 ETOT 28  -56.698751348375      7.105E-15 1.702E-18 0.000E+00
 ETOT 29  -56.698751348375      0.000E+00 2.978E-19 0.000E+00
 ETOT 30  -56.698751348375      0.000E+00 1.437E-19 0.000E+00
 ETOT 31  -56.698751348375      0.000E+00 2.510E-20 0.000E+00
 ETOT 32  -56.698751348375      0.000E+00 1.214E-20 0.000E+00
 ETOT 33  -56.698751348375      0.000E+00 9.856E-21 0.000E+00

 At SCF step   33   max residual=  9.86E-21 < tolwfr=  1.00E-20 =>converged.

 ----iterations are completed or convergence reached----

 dfpt_looppert: DFPT cycle converged with prtwf=-1. Will skip output of the 1st-order WFK file.
 dfpt_looppert : ek2=    7.7280679208E+01
          f-sum rule ratio=    1.1943039790E+00
 prteigrs : about to open file /scratch/users/j/a/jabreu/flow_simple_10atoms/flow/w462/t1/tmpdata/tmp_1WF1_EIG
 Expectation of eigenvalue derivatives (hartree) for nkpt=   1  k points:
  (in case of degenerate eigenvalues, averaged derivative)
 kpt#   1, nband= 50, wtk=  1.00000, kpt=  0.0000  0.0000  0.0000 (reduced coord)
   0.00000    0.00000    0.00000    0.00000    0.00000   -0.00000    0.00000   -0.00000
   0.00000   -0.00000   -0.00000   -0.00000   -0.00000   -0.00000   -0.00000    0.00000
   0.00000    0.00000    0.00000    0.00000   -0.00000   -0.00000   -0.00000   -0.00000
   0.00000    0.00000    0.00000   -0.00000   -0.00000   -0.00000    0.00000    0.00000
   0.00000    0.00000    0.00000    0.00000    0.00000    0.00000   -0.00000   -0.00000
  -0.00000   -0.00000   -0.00000   -0.00000    0.00000    0.00000    0.00000   -0.00000
  -0.00000   -0.00000

 Eight components of 2nd-order total energy (hartree) are
 1,2,3: 0th-order hamiltonian combined with 1st-order wavefunctions
     kin0=   7.43193491E+01 eigvalue=   1.68586133E+00  local=  -3.73889925E+01
 4,5,6: 1st-order hamiltonian combined with 1st and 0th-order wfs
     kin1=  -9.22966227E+01  Hartree=   0.00000000E+00     xc=   0.00000000E+00
 7,8,9: eventually, occupation + non-local contributions
    edocc=   1.32860009E+01     enl0=   4.79653253E+00   enl1=  -2.11008800E+01
 1-9 gives the relaxation energy (to be shifted if some occ is /=2.0)
   erelax=  -5.66987513E+01
  No Ewald or frozen-wf contrib.: the relaxation energy is the total one
 2DEtotal=   -0.5669875135E+02 Ha. Also 2DEtotal=   -0.154285148732E+04 eV
    (  non-var. 2DEtotal :   -5.6698751348E+01 Ha)

 CALCULATION OF EFFECTIVE MASSES
 NOTE : Additional infos (eff. mass eigenvalues, eigenvectors and, if degenerate, average mass) are available in stdout.

 COMMENTS:
 - At k-point ( 0.000, 0.000, 0.000), bands    39 through    41
   are DEGENERATE (effective mass tensor is therefore not defined).
   See Section IIIB Eqs. (67)-(70) and Appendix E of PRB 93 205147 (2016).
 - Angular average effective mass for Frohlich model is to be averaged over degenerate bands. See later.
 - Associated theta integrals calculated with ntheta=   1000 points.

 K-point ( 0.000, 0.000, 0.000) | band =    39
 Transport equivalent effective mass tensor:
             -1.0510351147             -0.0000002221              0.0000000001
             -0.0000002221             -1.0510349253              0.0000000000
              0.0000000001              0.0000000000             -1.0510340646
 Transport equivalent effective mass tensor eigenvalues:
             -1.0510352614             -1.0510347785             -1.0510340646
 Angular average effective mass 1/(<1/m>)=  -1.0257754784
 Angular average effective mass for Frohlich model (<m**0.5>)**2=  -1.0267972710
 Effective masses along directions: (cart. coord. / red. coord. -> eff. mass)
    1:   1.000000  0.000000  0.000000 /   0.948683  0.316228  0.000000 ->  -1.0698131636
    2:   0.000000  1.000000  0.000000 /   0.000000  1.000000  0.000000 ->  -1.1610291205
    3:   0.000000  0.000000  1.000000 /   0.408248  0.408248  0.816497 ->  -0.9918859011
    4:   0.577350  0.577350  0.577350 /   0.585539  0.688047  0.428644 ->  -1.0470461908
    5:   0.000000  0.707107  0.707107 /   0.289489  0.762222  0.578977 ->  -0.9967849184
    6:   0.707107  0.000000  0.707107 /   0.731423  0.422287  0.535439 ->  -1.0179458858
    7:   0.707107  0.707107  0.000000 /   0.616798  0.787122  0.000000 ->  -0.9981230222

[...]

 K-point ( 0.000, 0.000, 0.000) | band =    41
 Transport equivalent effective mass tensor:
            -17.4528721259             -0.0000000020             -0.0000000008
             -0.0000000020            -17.4528721266              0.0000000005
             -0.0000000008              0.0000000005            -17.4528721284
 Transport equivalent effective mass tensor eigenvalues:
            -17.4528721287            -17.4528721283            -17.4528721240
 Angular average effective mass 1/(<1/m>)=  -4.1924185353
 Angular average effective mass for Frohlich model (<m**0.5>)**2=  -4.6907918157
 Effective masses along directions: (cart. coord. / red. coord. -> eff. mass)
    1:   1.000000  0.000000  0.000000 /   0.948683  0.316228  0.000000 ->  -3.6325144059
    2:   0.000000  1.000000  0.000000 /   0.000000  1.000000  0.000000 ->  -2.7237912294
    3:   0.000000  0.000000  1.000000 /   0.408248  0.408248  0.816497 ->  -3.4048636817
    4:   0.577350  0.577350  0.577350 /   0.585539  0.688047  0.428644 ->  -3.5574191575
    5:   0.000000  0.707107  0.707107 /   0.289489  0.762222  0.578977 ->  -5.4293779982
    6:   0.707107  0.000000  0.707107 /   0.731423  0.422287  0.535439 ->  -3.5184516646
    7:   0.707107  0.707107  0.000000 /   0.616798  0.787122  0.000000 -> -10.8064237233

 Angular average effective mass for Frohlich model, averaged over degenerate bands.
 Value of     (<<m**0.5>>)**2 =     2.006209E+00
 Absolute Value of <<m**0.5>> =     1.416407E+00

 K-point ( 0.000, 0.000, 0.000) | band =    42
 Effective mass tensor:
              0.4668771658              0.0000000000             -0.0000000001
              0.0000000000              0.4668771659              0.0000000001
             -0.0000000001              0.0000000001              0.4668771659
 Effective mass tensor eigenvalues:
              0.4668771658              0.4668771659              0.4668771660
 Angular average effective mass 1/(<1/m>)=   0.4668771659
 Angular average effective mass for Frohlich model (<m**0.5>)**2=   0.4668771659
 Effective masses along directions: (cart. coord. / red. coord. -> eff. mass)
    1:   1.000000  0.000000  0.000000 /   0.948683  0.316228  0.000000 ->   0.4668771658
    2:   0.000000  1.000000  0.000000 /   0.000000  1.000000  0.000000 ->   0.4668771659
    3:   0.000000  0.000000  1.000000 /   0.408248  0.408248  0.816497 ->   0.4668771659
    4:   0.577350  0.577350  0.577350 /   0.585539  0.688047  0.428644 ->   0.4668771659
    5:   0.000000  0.707107  0.707107 /   0.289489  0.762222  0.578977 ->   0.4668771659
    6:   0.707107  0.000000  0.707107 /   0.731423  0.422287  0.535439 ->   0.4668771658
    7:   0.707107  0.707107  0.000000 /   0.616798  0.787122  0.000000 ->   0.4668771659

 END OF EFFECTIVE MASSES SECTION

 ---- first-order wavefunction calculations are completed ----

 Total localisation tensor (bohr^2) in cartesian coordinates
  WARNING : still subject to testing - especially symmetries.
      direction              matrix element
   alpha     beta       real part   imaginary part
     1        1       1.3678315849    0.0000000000
     1        2       0.3868811955    0.0000000000
     1        3       0.9476615204    0.0000000000
     2        1       0.3868811955    0.0000000000
     2        2       1.0942652675    0.0000000000
     2        3       0.6700978871    0.0000000000
     3        1       0.9476615204    0.0000000000
     3        2       0.6700978871    0.0000000000
     3        3       2.4620968525    0.0000000000

 respfn : d/dk was computed, but no 2DTE, so no DDB output.

== END DATASET(S) ==============================================================

 -outvars: echo values of variables after computation  --------
            acell      1.0000000000E+00  1.0000000000E+00  1.0000000000E+00 Bohr
              amu      1.37327000E+02  4.00780000E+01  1.27600000E+02
                       1.59994000E+01
             ecut      4.40000000E+01 Hartree
           etotal     -5.6698751348E+01
            fcart      0.0000000000E+00  0.0000000000E+00  0.0000000000E+00
                       0.0000000000E+00  0.0000000000E+00  0.0000000000E+00
                       0.0000000000E+00  0.0000000000E+00  0.0000000000E+00
                       0.0000000000E+00  0.0000000000E+00  0.0000000000E+00
                       0.0000000000E+00  0.0000000000E+00  0.0000000000E+00
                       0.0000000000E+00  0.0000000000E+00  0.0000000000E+00
                       0.0000000000E+00  0.0000000000E+00  0.0000000000E+00
                       0.0000000000E+00  0.0000000000E+00  0.0000000000E+00
                       0.0000000000E+00  0.0000000000E+00  0.0000000000E+00
                       0.0000000000E+00  0.0000000000E+00  0.0000000000E+00
-          fftalg         512
           irdden           1
           irdwfk           1
           istwfk        1
              ixc     -116133
           kptopt           0
P           mkmem           1
P          mkqmem           1
P          mk1mem           1
            natom          10
            nband          50
           nbdbuf           4
            ngfft          72      72      72
             nkpt           1
            nstep        2000
             nsym          48
           ntypat           4
              occ      2.000000  2.000000  2.000000  2.000000  2.000000  2.000000
                       2.000000  2.000000  2.000000  2.000000  2.000000  2.000000
                       2.000000  2.000000  2.000000  2.000000  2.000000  2.000000
                       2.000000  2.000000  2.000000  2.000000  2.000000  2.000000
                       2.000000  2.000000  2.000000  2.000000  2.000000  2.000000
                       2.000000  2.000000  2.000000  2.000000  2.000000  2.000000
                       2.000000  2.000000  2.000000  2.000000  2.000000  0.000000
                       0.000000  0.000000  0.000000  0.000000  0.000000  0.000000
                       0.000000  0.000000
        optdriver           1
            prtwf          -1
            rfdir           1       1       1
           rfelfd           2
            rprim      9.7082865930E+00  0.0000000000E+00  5.6050818778E+00
                       3.2360955310E+00  9.1530603782E+00  5.6050818778E+00
                       0.0000000000E+00  0.0000000000E+00  1.1210163756E+01
          spgroup         225
           strten      0.0000000000E+00  0.0000000000E+00  0.0000000000E+00
                       0.0000000000E+00  0.0000000000E+00  0.0000000000E+00
           symrel      1  0  0   0  1  0   0  0  1      -1  0  0   0 -1  0   0  0 -1
                       0 -1  1   0 -1  0   1 -1  0       0  1 -1   0  1  0  -1  1  0
                      -1  0  0  -1  0  1  -1  1  0       1  0  0   1  0 -1   1 -1  0
                       0  1 -1   1  0 -1   0  0 -1       0 -1  1  -1  0  1   0  0  1
                      -1  0  0  -1  1  0  -1  0  1       1  0  0   1 -1  0   1  0 -1
                       0 -1  1   1 -1  0   0 -1  0       0  1 -1  -1  1  0   0  1  0
                       1  0  0   0  0  1   0  1  0      -1  0  0   0  0 -1   0 -1  0
                       0  1 -1   0  0 -1   1  0 -1       0 -1  1   0  0  1  -1  0  1
                      -1  0  1  -1  1  0  -1  0  0       1  0 -1   1 -1  0   1  0  0
                       0 -1  0   1 -1  0   0 -1  1       0  1  0  -1  1  0   0  1 -1
                       1  0 -1   0  0 -1   0  1 -1      -1  0  1   0  0  1   0 -1  1
                       0  1  0   0  0  1   1  0  0       0 -1  0   0  0 -1  -1  0  0
                       1  0 -1   0  1 -1   0  0 -1      -1  0  1   0 -1  1   0  0  1
                       0 -1  0   0 -1  1   1 -1  0       0  1  0   0  1 -1  -1  1  0
                      -1  0  1  -1  0  0  -1  1  0       1  0 -1   1  0  0   1 -1  0
                       0  1  0   1  0  0   0  0  1       0 -1  0  -1  0  0   0  0 -1
                       0  0 -1   0  1 -1   1  0 -1       0  0  1   0 -1  1  -1  0  1
                       1 -1  0   0 -1  1   0 -1  0      -1  1  0   0  1 -1   0  1  0
                       0  0  1   1  0  0   0  1  0       0  0 -1  -1  0  0   0 -1  0
                      -1  1  0  -1  0  0  -1  0  1       1 -1  0   1  0  0   1  0 -1
                       0  0  1   0  1  0   1  0  0       0  0 -1   0 -1  0  -1  0  0
                       1 -1  0   0 -1  0   0 -1  1      -1  1  0   0  1  0   0  1 -1
                       0  0 -1   1  0 -1   0  1 -1       0  0  1  -1  0  1   0 -1  1
                      -1  1  0  -1  0  1  -1  0  0       1 -1  0   1  0 -1   1  0  0
           tolwfr      1.00000000E-20
            typat      1  1  2  3  4  4  4  4  4  4
           useylm           1
           xangst      1.7124679998E+00  1.2108977352E+00  2.9660815820E+00
                       5.1374039995E+00  3.6326932057E+00  8.8982447461E+00
                       0.0000000000E+00  0.0000000000E+00  0.0000000000E+00
                       3.4249359997E+00  2.4217954705E+00  5.9321631641E+00
                       5.0138597081E+00  3.5453341995E+00  5.9321631640E+00
                       2.6304741454E+00  3.5453341995E+00  7.3082114602E+00
                       4.2193978539E+00  1.2982567415E+00  7.3082114602E+00
                       2.6304741454E+00  3.5453341995E+00  4.5561148679E+00
                       4.2193978539E+00  1.2982567415E+00  4.5561148679E+00
                       1.8360122912E+00  1.2982567415E+00  5.9321631641E+00
            xcart      3.2360955310E+00  2.2882650945E+00  5.6050818778E+00
                       9.7082865930E+00  6.8647952836E+00  1.6815245633E+01
                       0.0000000000E+00  0.0000000000E+00  0.0000000000E+00
                       6.4721910620E+00  4.5765301891E+00  1.1210163756E+01
                       9.4748217170E+00  6.6997106867E+00  1.1210163756E+01
                       4.9708757345E+00  6.6997106867E+00  1.3810518181E+01
                       7.9735063895E+00  2.4533496915E+00  1.3810518181E+01
                       4.9708757345E+00  6.6997106867E+00  8.6098093302E+00
                       7.9735063895E+00  2.4533496915E+00  8.6098093302E+00
                       3.4695604070E+00  2.4533496915E+00  1.1210163756E+01
             xred      2.5000000000E-01  2.5000000000E-01  2.5000000000E-01
                       7.5000000000E-01  7.5000000000E-01  7.5000000000E-01
                       0.0000000000E+00  0.0000000000E+00  0.0000000000E+00
                       5.0000000000E-01  5.0000000000E-01  5.0000000000E-01
                       7.3196400000E-01  7.3196400000E-01  2.6803600000E-01
                       2.6803600000E-01  7.3196400000E-01  7.3196400000E-01
                       7.3196400000E-01  2.6803600000E-01  7.3196400000E-01
                       2.6803600000E-01  7.3196400000E-01  2.6803600000E-01
                       7.3196400000E-01  2.6803600000E-01  2.6803600000E-01
                       2.6803600000E-01  2.6803600000E-01  7.3196400000E-01
            znucl       56.00000   20.00000   52.00000    8.00000

- Timing analysis has been suppressed with timopt=0

 Suggested references for the acknowledgment of ABINIT usage.

 Calculation completed.
.Delivered   2 WARNINGs and   5 COMMENTs to log file.