.Version 9.5.2 of ABINIT

 ABINIT is a project of the Universite Catholique de Louvain,
 Corning Inc. and other collaborators, see ~abinit/doc/developers/contributors.txt .
 acknowledgments of the ABINIT effort.

.Starting date : Mon 31 May 2021.
- ( at 22h43 )

- input  file    -> /scratch/users/j/a/jabreu/flow_simple_11atoms/flow/w375/t1/run.abi
- output file    -> /scratch/users/j/a/jabreu/flow_simple_11atoms/flow/w375/t1/run.abo
- root for input  files -> /scratch/users/j/a/jabreu/flow_simple_11atoms/flow/w375/t1/indata/in
- root for output files -> /scratch/users/j/a/jabreu/flow_simple_11atoms/flow/w375/t1/outdata/out

 Symmetries : space group Fm -3 m (#225); Bravais cF (face-center cubic)
     intxc =       0      iscf =       7    lmnmax =      18     lnmax =       6
     mgfft =      80  mpssoang =       3    mqgrid =    3119     natom =      16
  nloc_mem =       1    nspden =       1   nspinor =       1    nsppol =       1
      nsym =      48    n1xccc =    2501    ntypat =       3    occopt =       1
   xclevel =       2
-    mband =         100        mffmem =           1         mkmem =           2
-   mkqmem =           2        mk1mem =           2           mpw =       20678
      nfft =      512000          nkpt =           2
  Rough estimation (10% accuracy) of disk space for files :

------------- Echo of variables that govern the present computation ------------
-
- outvars: echo of selected default values
-   iomode0 =  0 , fftalg0 =512 , wfoptalg0 =  0
-
- outvars: echo of global parameters not present in the input file
-  max_nthreads =    0
-
 -outvars: echo values of preprocessed input variables --------
            acell      1.0000000000E+00  1.0000000000E+00  1.0000000000E+00 Bohr
              amu      2.04383300E+02  1.06420000E+02  1.59994000E+01
             ecut      4.40000000E+01 Hartree
-          fftalg         512
           irdden           1
           irdwfk           1
           istwfk        1    1
              ixc     -116133
              kpt      0.00000000E+00  0.00000000E+00  0.00000000E+00
                       5.00000000E-01  5.00000000E-01  5.00000000E-01
           kptopt           0
P           mkmem           2
P          mkqmem           2
P          mk1mem           2
            natom          16
            nband         100
           nbdbuf           4
            ngfft          80      80      80
             nkpt           2
            nstep        2000
             nsym          48
           ntypat           3
              occ      2.000000  2.000000  2.000000  2.000000  2.000000  2.000000
                       2.000000  2.000000  2.000000  2.000000  2.000000  2.000000
                       2.000000  2.000000  2.000000  2.000000  2.000000  2.000000
                       2.000000  2.000000  2.000000  2.000000  2.000000  2.000000
                       2.000000  2.000000  2.000000  2.000000  2.000000  2.000000
                       2.000000  2.000000  2.000000  2.000000  2.000000  2.000000
                       2.000000  2.000000  2.000000  2.000000  2.000000  2.000000
                       2.000000  2.000000  2.000000  2.000000  2.000000  2.000000
                       2.000000  2.000000  2.000000  2.000000  2.000000  2.000000
                       2.000000  2.000000  2.000000  2.000000  2.000000  2.000000
                       2.000000  2.000000  2.000000  2.000000  2.000000  2.000000
                       2.000000  2.000000  2.000000  2.000000  2.000000  2.000000
                       2.000000  2.000000  2.000000  2.000000  2.000000  2.000000
                       2.000000  2.000000  2.000000  2.000000  2.000000  2.000000
                       2.000000  2.000000  2.000000  2.000000  2.000000  2.000000
                       2.000000  0.000000  0.000000  0.000000  0.000000  0.000000
                       0.000000  0.000000  0.000000  0.000000
        optdriver           1
            prtwf          -1
            rfdir           1       1       1
           rfelfd           2
            rprim      1.1077052800E+01  0.0000000000E+00  6.3953394161E+00
                       3.6923509335E+00  1.0443545534E+01  6.3953394161E+00
                       0.0000000000E+00  0.0000000000E+00  1.2790678832E+01
          spgroup         225
           symrel      1  0  0   0  1  0   0  0  1      -1  0  0   0 -1  0   0  0 -1
                       0 -1  1   0 -1  0   1 -1  0       0  1 -1   0  1  0  -1  1  0
                      -1  0  0  -1  0  1  -1  1  0       1  0  0   1  0 -1   1 -1  0
                       0  1 -1   1  0 -1   0  0 -1       0 -1  1  -1  0  1   0  0  1
                      -1  0  0  -1  1  0  -1  0  1       1  0  0   1 -1  0   1  0 -1
                       0 -1  1   1 -1  0   0 -1  0       0  1 -1  -1  1  0   0  1  0
                       1  0  0   0  0  1   0  1  0      -1  0  0   0  0 -1   0 -1  0
                       0  1 -1   0  0 -1   1  0 -1       0 -1  1   0  0  1  -1  0  1
                      -1  0  1  -1  1  0  -1  0  0       1  0 -1   1 -1  0   1  0  0
                       0 -1  0   1 -1  0   0 -1  1       0  1  0  -1  1  0   0  1 -1
                       1  0 -1   0  0 -1   0  1 -1      -1  0  1   0  0  1   0 -1  1
                       0  1  0   0  0  1   1  0  0       0 -1  0   0  0 -1  -1  0  0
                       1  0 -1   0  1 -1   0  0 -1      -1  0  1   0 -1  1   0  0  1
                       0 -1  0   0 -1  1   1 -1  0       0  1  0   0  1 -1  -1  1  0
                      -1  0  1  -1  0  0  -1  1  0       1  0 -1   1  0  0   1 -1  0
                       0  1  0   1  0  0   0  0  1       0 -1  0  -1  0  0   0  0 -1
                       0  0 -1   0  1 -1   1  0 -1       0  0  1   0 -1  1  -1  0  1
                       1 -1  0   0 -1  1   0 -1  0      -1  1  0   0  1 -1   0  1  0
                       0  0  1   1  0  0   0  1  0       0  0 -1  -1  0  0   0 -1  0
                      -1  1  0  -1  0  0  -1  0  1       1 -1  0   1  0  0   1  0 -1
                       0  0  1   0  1  0   1  0  0       0  0 -1   0 -1  0  -1  0  0
                       1 -1  0   0 -1  0   0 -1  1      -1  1  0   0  1  0   0  1 -1
                       0  0 -1   1  0 -1   0  1 -1       0  0  1  -1  0  1   0 -1  1
                      -1  1  0  -1  0  1  -1  0  0       1 -1  0   1  0 -1   1  0  0
           tolwfr      1.00000000E-20
            typat      1  1  2  2  2  2  2  2  3  3  3  3  3  3  3  3
           useylm           1
              wtk        0.50000    0.50000
           xangst      3.9078159202E+00  2.7632431368E+00  6.7685357204E+00
                       0.0000000000E+00  0.0000000000E+00  0.0000000000E+00
                       9.7695398006E-01  2.7632431368E+00  5.0764017903E+00
                       2.9308619402E+00  0.0000000000E+00  5.0764017903E+00
                       3.9078159202E+00  2.7632431368E+00  3.3842678602E+00
                       2.9308619402E+00  0.0000000000E+00  1.6921339301E+00
                       0.0000000000E+00  0.0000000000E+00  3.3842678602E+00
                       9.7695398006E-01  2.7632431368E+00  1.6921339301E+00
                       1.1112831984E+00  7.8579588541E-01  4.8437367592E+00
                       5.8617238803E+00  2.3573876562E+00  1.0152803581E+01
                       4.1764743569E+00  4.7406903882E+00  1.0152803581E+01
                       6.7043486420E+00  4.7406903882E+00  1.1612272480E+01
                       3.6391574835E+00  7.8579588541E-01  3.3842678602E+00
                       1.1112831984E+00  7.8579588541E-01  1.9247989612E+00
                       6.7043486420E+00  4.7406903882E+00  8.6933346816E+00
                       1.9539079601E+00  3.1690986174E+00  3.3842678602E+00
            xcart      7.3847018670E+00  5.2217727672E+00  1.2790678832E+01
                       0.0000000000E+00  0.0000000000E+00  0.0000000000E+00
                       1.8461754668E+00  5.2217727672E+00  9.5930091241E+00
                       5.5385264002E+00  0.0000000000E+00  9.5930091241E+00
                       7.3847018670E+00  5.2217727672E+00  6.3953394161E+00
                       5.5385264002E+00  0.0000000000E+00  3.1976697080E+00
                       0.0000000000E+00  0.0000000000E+00  6.3953394161E+00
                       1.8461754668E+00  5.2217727672E+00  3.1976697080E+00
                       2.1000209011E+00  1.4849390198E+00  9.1533359346E+00
                       1.1077052800E+01  4.4548170593E+00  1.9186018248E+01
                       7.8923927356E+00  8.9586065145E+00  1.9186018248E+01
                       1.2669382833E+01  8.9586065145E+00  2.1944014767E+01
                       6.8770109983E+00  1.4849390198E+00  6.3953394161E+00
                       2.1000209011E+00  1.4849390198E+00  3.6373428976E+00
                       1.2669382833E+01  8.9586065145E+00  1.6428021730E+01
                       3.6923509335E+00  5.9887284750E+00  6.3953394161E+00
             xred      5.0000000000E-01  5.0000000000E-01  5.0000000000E-01
                       0.0000000000E+00  0.0000000000E+00  0.0000000000E+00
                       0.0000000000E+00  5.0000000000E-01  5.0000000000E-01
                       5.0000000000E-01  0.0000000000E+00  5.0000000000E-01
                       5.0000000000E-01  5.0000000000E-01  0.0000000000E+00
                       5.0000000000E-01  0.0000000000E+00  0.0000000000E+00
                       0.0000000000E+00  0.0000000000E+00  5.0000000000E-01
                       0.0000000000E+00  5.0000000000E-01  0.0000000000E+00
                       1.4218725000E-01  1.4218725000E-01  5.7343825000E-01
                       8.5781275000E-01  4.2656175000E-01  8.5781275000E-01
                       4.2656175000E-01  8.5781275000E-01  8.5781275000E-01
                       8.5781275000E-01  8.5781275000E-01  8.5781275000E-01
                       5.7343825000E-01  1.4218725000E-01  1.4218725000E-01
                       1.4218725000E-01  1.4218725000E-01  1.4218725000E-01
                       8.5781275000E-01  8.5781275000E-01  4.2656175000E-01
                       1.4218725000E-01  5.7343825000E-01  1.4218725000E-01
            znucl       81.00000   46.00000    8.00000

 chkinp: Checking input parameters for consistency.

== DATASET  1 ==================================================================
-   mpi_nproc: 1, omp_nthreads: -1 (-1 if OMP is not activated)

--- !DatasetInfo
iteration_state: {dtset: 1, }
dimensions: {natom: 16, nkpt: 2, mband: 100, nsppol: 1, nspinor: 1, nspden: 1, mpw: 20678, }
cutoff_energies: {ecut:  44.0, pawecutdg:  -1.0, }
electrons: {nelect:   1.82000000E+02, charge:   0.00000000E+00, occopt:   1.00000000E+00, tsmear:   1.00000000E-02, }
meta: {optdriver: 1, rfelfd: 2, }
...

 Real(R)+Recip(G) space primitive vectors, cartesian coordinates (Bohr,Bohr^-1):
 R(1)= 11.0770528  0.0000000  6.3953394  G(1)=  0.0902767 -0.0319176  0.0000000
 R(2)=  3.6923509 10.4435455  6.3953394  G(2)=  0.0000000  0.0957529  0.0000000
 R(3)=  0.0000000  0.0000000 12.7906788  G(3)= -0.0451384 -0.0319176  0.0781819
 Unit cell volume ucvol=  1.4796731E+03 bohr^3
[...]
  -0.00000   -0.00000   -0.00000    0.00000    0.00000    0.00000   -0.00000   -0.00000
  -0.00000    0.00000   -0.00000   -0.00000
 prteigrs : prtvol=0 or 1, do not print more k-points.

 Eight components of 2nd-order total energy (hartree) are
 1,2,3: 0th-order hamiltonian combined with 1st-order wavefunctions
     kin0=   1.33099025E+02 eigvalue=  -3.82886036E+00  local=  -6.38597490E+01
 4,5,6: 1st-order hamiltonian combined with 1st and 0th-order wfs
     kin1=  -1.33128563E+02  Hartree=   0.00000000E+00     xc=   0.00000000E+00
 7,8,9: eventually, occupation + non-local contributions
    edocc=   9.37992043E+00     enl0=   4.99654668E+00   enl1=  -2.64452034E+01
 1-9 gives the relaxation energy (to be shifted if some occ is /=2.0)
   erelax=  -7.97868832E+01
  No Ewald or frozen-wf contrib.: the relaxation energy is the total one
 2DEtotal=   -0.7978688318E+02 Ha. Also 2DEtotal=   -0.217111150509E+04 eV
    (  non-var. 2DEtotal :   -7.9786883175E+01 Ha)

 CALCULATION OF EFFECTIVE MASSES
 NOTE : Additional infos (eff. mass eigenvalues, eigenvectors and, if degenerate, average mass) are available in stdout.

 COMMENTS:
 - At k-point ( 0.000, 0.000, 0.000), bands    90 through    91
   are DEGENERATE (effective mass tensor is therefore not defined).
   See Section IIIB Eqs. (67)-(70) and Appendix E of PRB 93 205147 (2016).
 - Angular average effective mass for Frohlich model is to be averaged over degenerate bands. See later.
 - Associated theta integrals calculated with ntheta=   1000 points.

 K-point ( 0.000, 0.000, 0.000) | band =    90
 Transport equivalent effective mass tensor:
             -0.7836335197             -0.0000004105              0.0000000001
             -0.0000004105             -0.7836326351             -0.0000000001
              0.0000000001             -0.0000000001             -0.7836287981
 Transport equivalent effective mass tensor eigenvalues:
             -0.7836336809             -0.7836324740             -0.7836287981
 Angular average effective mass 1/(<1/m>)=  -0.6832373719
 Angular average effective mass for Frohlich model (<m**0.5>)**2=  -0.6888327432
 Effective masses along directions: (cart. coord. / red. coord. -> eff. mass)
    1:   1.000000  0.000000  0.000000 /   0.948683  0.316228  0.000000 ->  -0.7145164478
    2:   0.000000  1.000000  0.000000 /   0.000000  1.000000  0.000000 ->  -0.9470940327
    3:   0.000000  0.000000  1.000000 /   0.408248  0.408248  0.816497 ->  -0.7145164483
    4:   0.577350  0.577350  0.577350 /   0.585539  0.688047  0.428644 ->  -0.7176149729
    5:   0.000000  0.707107  0.707107 /   0.289489  0.762222  0.578977 ->  -0.6363787797
    6:   0.707107  0.000000  0.707107 /   0.731423  0.422287  0.535439 ->  -0.7145164482
    7:   0.707107  0.707107  0.000000 /   0.616798  0.787122  0.000000 ->  -0.5835154079

 K-point ( 0.000, 0.000, 0.000) | band =    91
 Transport equivalent effective mass tensor:
             -2.7400248796              0.0000020425              0.0000000004
              0.0000020425             -2.7400249368             -0.0000000003
              0.0000000004             -0.0000000003             -2.7400254500
 Transport equivalent effective mass tensor eigenvalues:
             -2.7400269509             -2.7400254500             -2.7400228655
 Angular average effective mass 1/(<1/m>)=  -1.5429656656
 Angular average effective mass for Frohlich model (<m**0.5>)**2=  -1.6113055726
 Effective masses along directions: (cart. coord. / red. coord. -> eff. mass)
    1:   1.000000  0.000000  0.000000 /   0.948683  0.316228  0.000000 ->  -1.4041496035
    2:   0.000000  1.000000  0.000000 /   0.000000  1.000000  0.000000 ->  -0.9470940328
    3:   0.000000  0.000000  1.000000 /   0.408248  0.408248  0.816497 ->  -1.4041496057
    4:   0.577350  0.577350  0.577350 /   0.585539  0.688047  0.428644 ->  -1.3923352916
    5:   0.000000  0.707107  0.707107 /   0.289489  0.762222  0.578977 ->  -1.8507155276
    6:   0.707107  0.000000  0.707107 /   0.731423  0.422287  0.535439 ->  -1.4041496035
    7:   0.707107  0.707107  0.000000 /   0.616798  0.787122  0.000000 ->  -2.5127400371

 Angular average effective mass for Frohlich model, averaged over degenerate bands.
 Value of     (<<m**0.5>>)**2 =     1.101798E+00
 Absolute Value of <<m**0.5>> =     1.049666E+00

 K-point ( 0.500, 0.500, 0.500) | band =    92
 Effective mass tensor:
              4.6472145681             -0.6177589818             -1.5131943011
             -0.6177589818              5.0840361469             -1.0699899347
             -1.5131943011             -1.0699899347              2.8999283003
 Effective mass tensor eigenvalues:
              1.5894636044              5.5208577020              5.5208577089
 Angular average effective mass 1/(<1/m>)=   3.0260066683
 Angular average effective mass for Frohlich model (<m**0.5>)**2=   3.4012837625
 Effective masses along directions: (cart. coord. / red. coord. -> eff. mass)
    1:   1.000000  0.000000  0.000000 /   0.948683  0.316228  0.000000 ->   3.5626561507
    2:   0.000000  1.000000  0.000000 /   0.000000  1.000000  0.000000 ->   4.3306848177
    3:   0.000000  0.000000  1.000000 /   0.408248  0.408248  0.816497 ->   2.0841765529
    4:   0.577350  0.577350  0.577350 /   0.585539  0.688047  0.428644 ->   1.7432247435
    5:   0.000000  0.707107  0.707107 /   0.289489  0.762222  0.578977 ->   2.0951559303
    6:   0.707107  0.000000  0.707107 /   0.731423  0.422287  0.535439 ->   1.8093409053
    7:   0.707107  0.707107  0.000000 /   0.616798  0.787122  0.000000 ->   3.0656211518

 END OF EFFECTIVE MASSES SECTION

 ---- first-order wavefunction calculations are completed ----

 Total localisation tensor (bohr^2) in cartesian coordinates
  WARNING : still subject to testing - especially symmetries.
      direction              matrix element
   alpha     beta       real part   imaginary part
     1        1       1.1761192668    0.0000000000
     1        2       0.3326567626    0.0000000000
     1        3       0.8148393299    0.0000000000
     2        1       0.3326567626    0.0000000000
     2        2       0.9408954106    0.0000000000
     2        3       0.5761784143    0.0000000000
     3        1       0.8148393299    0.0000000000
     3        2       0.5761784143    0.0000000000
     3        3       2.1170146746    0.0000000000

 respfn : d/dk was computed, but no 2DTE, so no DDB output.

== END DATASET(S) ==============================================================

 -outvars: echo values of variables after computation  --------
            acell      1.0000000000E+00  1.0000000000E+00  1.0000000000E+00 Bohr
              amu      2.04383300E+02  1.06420000E+02  1.59994000E+01
             ecut      4.40000000E+01 Hartree
           etotal     -7.9786883176E+01
            fcart      0.0000000000E+00  0.0000000000E+00  0.0000000000E+00
                       0.0000000000E+00  0.0000000000E+00  0.0000000000E+00
                       0.0000000000E+00  0.0000000000E+00  0.0000000000E+00
                       0.0000000000E+00  0.0000000000E+00  0.0000000000E+00
                       0.0000000000E+00  0.0000000000E+00  0.0000000000E+00
                       0.0000000000E+00  0.0000000000E+00  0.0000000000E+00
                       0.0000000000E+00  0.0000000000E+00  0.0000000000E+00
                       0.0000000000E+00  0.0000000000E+00  0.0000000000E+00
                       0.0000000000E+00  0.0000000000E+00  0.0000000000E+00
                       0.0000000000E+00  0.0000000000E+00  0.0000000000E+00
                       0.0000000000E+00  0.0000000000E+00  0.0000000000E+00
                       0.0000000000E+00  0.0000000000E+00  0.0000000000E+00
                       0.0000000000E+00  0.0000000000E+00  0.0000000000E+00
                       0.0000000000E+00  0.0000000000E+00  0.0000000000E+00
                       0.0000000000E+00  0.0000000000E+00  0.0000000000E+00
                       0.0000000000E+00  0.0000000000E+00  0.0000000000E+00
-          fftalg         512
           irdden           1
           irdwfk           1
           istwfk        1    1
              ixc     -116133
              kpt      0.00000000E+00  0.00000000E+00  0.00000000E+00
                       5.00000000E-01  5.00000000E-01  5.00000000E-01
           kptopt           0
P           mkmem           2
P          mkqmem           2
P          mk1mem           2
            natom          16
            nband         100
           nbdbuf           4
            ngfft          80      80      80
             nkpt           2
            nstep        2000
             nsym          48
           ntypat           3
              occ      2.000000  2.000000  2.000000  2.000000  2.000000  2.000000
                       2.000000  2.000000  2.000000  2.000000  2.000000  2.000000
                       2.000000  2.000000  2.000000  2.000000  2.000000  2.000000
                       2.000000  2.000000  2.000000  2.000000  2.000000  2.000000
                       2.000000  2.000000  2.000000  2.000000  2.000000  2.000000
                       2.000000  2.000000  2.000000  2.000000  2.000000  2.000000
                       2.000000  2.000000  2.000000  2.000000  2.000000  2.000000
                       2.000000  2.000000  2.000000  2.000000  2.000000  2.000000
                       2.000000  2.000000  2.000000  2.000000  2.000000  2.000000
                       2.000000  2.000000  2.000000  2.000000  2.000000  2.000000
                       2.000000  2.000000  2.000000  2.000000  2.000000  2.000000
                       2.000000  2.000000  2.000000  2.000000  2.000000  2.000000
                       2.000000  2.000000  2.000000  2.000000  2.000000  2.000000
                       2.000000  2.000000  2.000000  2.000000  2.000000  2.000000
                       2.000000  2.000000  2.000000  2.000000  2.000000  2.000000
                       2.000000  0.000000  0.000000  0.000000  0.000000  0.000000
                       0.000000  0.000000  0.000000  0.000000
        optdriver           1
            prtwf          -1
            rfdir           1       1       1
           rfelfd           2
            rprim      1.1077052800E+01  0.0000000000E+00  6.3953394161E+00
                       3.6923509335E+00  1.0443545534E+01  6.3953394161E+00
                       0.0000000000E+00  0.0000000000E+00  1.2790678832E+01
          spgroup         225
           strten      0.0000000000E+00  0.0000000000E+00  0.0000000000E+00
                       0.0000000000E+00  0.0000000000E+00  0.0000000000E+00
           symrel      1  0  0   0  1  0   0  0  1      -1  0  0   0 -1  0   0  0 -1
                       0 -1  1   0 -1  0   1 -1  0       0  1 -1   0  1  0  -1  1  0
                      -1  0  0  -1  0  1  -1  1  0       1  0  0   1  0 -1   1 -1  0
                       0  1 -1   1  0 -1   0  0 -1       0 -1  1  -1  0  1   0  0  1
                      -1  0  0  -1  1  0  -1  0  1       1  0  0   1 -1  0   1  0 -1
                       0 -1  1   1 -1  0   0 -1  0       0  1 -1  -1  1  0   0  1  0
                       1  0  0   0  0  1   0  1  0      -1  0  0   0  0 -1   0 -1  0
                       0  1 -1   0  0 -1   1  0 -1       0 -1  1   0  0  1  -1  0  1
                      -1  0  1  -1  1  0  -1  0  0       1  0 -1   1 -1  0   1  0  0
                       0 -1  0   1 -1  0   0 -1  1       0  1  0  -1  1  0   0  1 -1
                       1  0 -1   0  0 -1   0  1 -1      -1  0  1   0  0  1   0 -1  1
                       0  1  0   0  0  1   1  0  0       0 -1  0   0  0 -1  -1  0  0
                       1  0 -1   0  1 -1   0  0 -1      -1  0  1   0 -1  1   0  0  1
                       0 -1  0   0 -1  1   1 -1  0       0  1  0   0  1 -1  -1  1  0
                      -1  0  1  -1  0  0  -1  1  0       1  0 -1   1  0  0   1 -1  0
                       0  1  0   1  0  0   0  0  1       0 -1  0  -1  0  0   0  0 -1
                       0  0 -1   0  1 -1   1  0 -1       0  0  1   0 -1  1  -1  0  1
                       1 -1  0   0 -1  1   0 -1  0      -1  1  0   0  1 -1   0  1  0
                       0  0  1   1  0  0   0  1  0       0  0 -1  -1  0  0   0 -1  0
                      -1  1  0  -1  0  0  -1  0  1       1 -1  0   1  0  0   1  0 -1
                       0  0  1   0  1  0   1  0  0       0  0 -1   0 -1  0  -1  0  0
                       1 -1  0   0 -1  0   0 -1  1      -1  1  0   0  1  0   0  1 -1
                       0  0 -1   1  0 -1   0  1 -1       0  0  1  -1  0  1   0 -1  1
                      -1  1  0  -1  0  1  -1  0  0       1 -1  0   1  0 -1   1  0  0
           tolwfr      1.00000000E-20
            typat      1  1  2  2  2  2  2  2  3  3  3  3  3  3  3  3
           useylm           1
              wtk        0.50000    0.50000
           xangst      3.9078159202E+00  2.7632431368E+00  6.7685357204E+00
                       0.0000000000E+00  0.0000000000E+00  0.0000000000E+00
                       9.7695398006E-01  2.7632431368E+00  5.0764017903E+00
                       2.9308619402E+00  0.0000000000E+00  5.0764017903E+00
                       3.9078159202E+00  2.7632431368E+00  3.3842678602E+00
                       2.9308619402E+00  0.0000000000E+00  1.6921339301E+00
                       0.0000000000E+00  0.0000000000E+00  3.3842678602E+00
                       9.7695398006E-01  2.7632431368E+00  1.6921339301E+00
                       1.1112831984E+00  7.8579588541E-01  4.8437367592E+00
                       5.8617238803E+00  2.3573876562E+00  1.0152803581E+01
                       4.1764743569E+00  4.7406903882E+00  1.0152803581E+01
                       6.7043486420E+00  4.7406903882E+00  1.1612272480E+01
                       3.6391574835E+00  7.8579588541E-01  3.3842678602E+00
                       1.1112831984E+00  7.8579588541E-01  1.9247989612E+00
                       6.7043486420E+00  4.7406903882E+00  8.6933346816E+00
                       1.9539079601E+00  3.1690986174E+00  3.3842678602E+00
            xcart      7.3847018670E+00  5.2217727672E+00  1.2790678832E+01
                       0.0000000000E+00  0.0000000000E+00  0.0000000000E+00
                       1.8461754668E+00  5.2217727672E+00  9.5930091241E+00
                       5.5385264002E+00  0.0000000000E+00  9.5930091241E+00
                       7.3847018670E+00  5.2217727672E+00  6.3953394161E+00
                       5.5385264002E+00  0.0000000000E+00  3.1976697080E+00
                       0.0000000000E+00  0.0000000000E+00  6.3953394161E+00
                       1.8461754668E+00  5.2217727672E+00  3.1976697080E+00
                       2.1000209011E+00  1.4849390198E+00  9.1533359346E+00
                       1.1077052800E+01  4.4548170593E+00  1.9186018248E+01
                       7.8923927356E+00  8.9586065145E+00  1.9186018248E+01
                       1.2669382833E+01  8.9586065145E+00  2.1944014767E+01
                       6.8770109983E+00  1.4849390198E+00  6.3953394161E+00
                       2.1000209011E+00  1.4849390198E+00  3.6373428976E+00
                       1.2669382833E+01  8.9586065145E+00  1.6428021730E+01
                       3.6923509335E+00  5.9887284750E+00  6.3953394161E+00
             xred      5.0000000000E-01  5.0000000000E-01  5.0000000000E-01
                       0.0000000000E+00  0.0000000000E+00  0.0000000000E+00
                       0.0000000000E+00  5.0000000000E-01  5.0000000000E-01
                       5.0000000000E-01  0.0000000000E+00  5.0000000000E-01
                       5.0000000000E-01  5.0000000000E-01  0.0000000000E+00
                       5.0000000000E-01  0.0000000000E+00  0.0000000000E+00
                       0.0000000000E+00  0.0000000000E+00  5.0000000000E-01
                       0.0000000000E+00  5.0000000000E-01  0.0000000000E+00
                       1.4218725000E-01  1.4218725000E-01  5.7343825000E-01
                       8.5781275000E-01  4.2656175000E-01  8.5781275000E-01
                       4.2656175000E-01  8.5781275000E-01  8.5781275000E-01
                       8.5781275000E-01  8.5781275000E-01  8.5781275000E-01
                       5.7343825000E-01  1.4218725000E-01  1.4218725000E-01
                       1.4218725000E-01  1.4218725000E-01  1.4218725000E-01
                       8.5781275000E-01  8.5781275000E-01  4.2656175000E-01
                       1.4218725000E-01  5.7343825000E-01  1.4218725000E-01
            znucl       81.00000   46.00000    8.00000

- Timing analysis has been suppressed with timopt=0

 Suggested references for the acknowledgment of ABINIT usage.

 Calculation completed.
.Delivered   2 WARNINGs and   5 COMMENTs to log file.