.Version 9.5.2 of ABINIT

 ABINIT is a project of the Universite Catholique de Louvain,
 Corning Inc. and other collaborators, see ~abinit/doc/developers/contributors.txt .
 acknowledgments of the ABINIT effort.

.Starting date : Mon 24 May 2021.
- ( at 23h23 )

- input  file    -> /scratch/users/j/a/jabreu/flow_simple_10atoms/flow/w498/t1/run.abi
- output file    -> /scratch/users/j/a/jabreu/flow_simple_10atoms/flow/w498/t1/run.abo
- root for input  files -> /scratch/users/j/a/jabreu/flow_simple_10atoms/flow/w498/t1/indata/in
- root for output files -> /scratch/users/j/a/jabreu/flow_simple_10atoms/flow/w498/t1/outdata/out

 Symmetries : space group Fm -3 m (#225); Bravais cF (face-center cubic)
     intxc =       0      iscf =       7    lmnmax =      32     lnmax =       8
     mgfft =      72  mpssoang =       4    mqgrid =    3001     natom =      10
  nloc_mem =       1    nspden =       1   nspinor =       1    nsppol =       1
      nsym =      48    n1xccc =    2501    ntypat =       4    occopt =       1
   xclevel =       2
-    mband =          52        mffmem =           1         mkmem =           1
-   mkqmem =           1        mk1mem =           1           mpw =       17182
      nfft =      373248          nkpt =           1
  Rough estimation (10% accuracy) of disk space for files :

------------- Echo of variables that govern the present computation ------------
-
- outvars: echo of selected default values
-   iomode0 =  0 , fftalg0 =512 , wfoptalg0 =  0
-
- outvars: echo of global parameters not present in the input file
-  max_nthreads =    0
-
 -outvars: echo values of preprocessed input variables --------
            acell      1.0000000000E+00  1.0000000000E+00  1.0000000000E+00 Bohr
              amu      1.32905430E+02  3.90983000E+01  1.02905500E+02
                       1.89984032E+01
             ecut      4.40000000E+01 Hartree
-          fftalg         512
           irdden           1
           irdwfk           1
           istwfk        1
              ixc     -116133
              kpt      5.00000000E-01  0.00000000E+00  5.00000000E-01
           kptopt           0
P           mkmem           1
P          mkqmem           1
P          mk1mem           1
            natom          10
            nband          52
           nbdbuf           4
            ngfft          72      72      72
             nkpt           1
            nstep        2000
             nsym          48
           ntypat           4
              occ      2.000000  2.000000  2.000000  2.000000  2.000000  2.000000
                       2.000000  2.000000  2.000000  2.000000  2.000000  2.000000
                       2.000000  2.000000  2.000000  2.000000  2.000000  2.000000
                       2.000000  2.000000  2.000000  2.000000  2.000000  2.000000
                       2.000000  2.000000  2.000000  2.000000  2.000000  2.000000
                       2.000000  2.000000  2.000000  2.000000  2.000000  2.000000
                       2.000000  2.000000  2.000000  2.000000  2.000000  2.000000
                       2.000000  0.000000  0.000000  0.000000  0.000000  0.000000
                       0.000000  0.000000  0.000000  0.000000
        optdriver           1
            prtwf          -1
            rfdir           1       1       1
           rfelfd           2
            rprim      1.0423175544E+01  0.0000000000E+00  6.0178232063E+00
                       3.4743918481E+00  9.8270641451E+00  6.0178232063E+00
                       0.0000000000E+00  0.0000000000E+00  1.2035646413E+01
          spgroup         225
           symrel      1  0  0   0  1  0   0  0  1      -1  0  0   0 -1  0   0  0 -1
                       0 -1  1   0 -1  0   1 -1  0       0  1 -1   0  1  0  -1  1  0
                      -1  0  0  -1  0  1  -1  1  0       1  0  0   1  0 -1   1 -1  0
                       0  1 -1   1  0 -1   0  0 -1       0 -1  1  -1  0  1   0  0  1
                      -1  0  0  -1  1  0  -1  0  1       1  0  0   1 -1  0   1  0 -1
                       0 -1  1   1 -1  0   0 -1  0       0  1 -1  -1  1  0   0  1  0
                       1  0  0   0  0  1   0  1  0      -1  0  0   0  0 -1   0 -1  0
                       0  1 -1   0  0 -1   1  0 -1       0 -1  1   0  0  1  -1  0  1
                      -1  0  1  -1  1  0  -1  0  0       1  0 -1   1 -1  0   1  0  0
                       0 -1  0   1 -1  0   0 -1  1       0  1  0  -1  1  0   0  1 -1
                       1  0 -1   0  0 -1   0  1 -1      -1  0  1   0  0  1   0 -1  1
                       0  1  0   0  0  1   1  0  0       0 -1  0   0  0 -1  -1  0  0
                       1  0 -1   0  1 -1   0  0 -1      -1  0  1   0 -1  1   0  0  1
                       0 -1  0   0 -1  1   1 -1  0       0  1  0   0  1 -1  -1  1  0
                      -1  0  1  -1  0  0  -1  1  0       1  0 -1   1  0  0   1 -1  0
                       0  1  0   1  0  0   0  0  1       0 -1  0  -1  0  0   0  0 -1
                       0  0 -1   0  1 -1   1  0 -1       0  0  1   0 -1  1  -1  0  1
                       1 -1  0   0 -1  1   0 -1  0      -1  1  0   0  1 -1   0  1  0
                       0  0  1   1  0  0   0  1  0       0  0 -1  -1  0  0   0 -1  0
                      -1  1  0  -1  0  0  -1  0  1       1 -1  0   1  0  0   1  0 -1
                       0  0  1   0  1  0   1  0  0       0  0 -1   0 -1  0  -1  0  0
                       1 -1  0   0 -1  0   0 -1  1      -1  1  0   0  1  0   0  1 -1
                       0  0 -1   1  0 -1   0  1 -1       0  0  1  -1  0  1   0 -1  1
                      -1  1  0  -1  0  1  -1  0  0       1 -1  0   1  0 -1   1  0  0
           tolwfr      1.00000000E-20
            typat      1  1  2  3  4  4  4  4  4  4
           useylm           1
           xangst      5.5157069391E+00  3.9001937797E+00  9.5534846583E+00
                       1.8385689797E+00  1.3000645932E+00  3.1844948861E+00
                       3.6771379594E+00  2.6001291865E+00  6.3689897722E+00
                       0.0000000000E+00  0.0000000000E+00  0.0000000000E+00
                       1.6185437528E+00  1.1444832632E+00  6.3689897722E+00
                       4.7064350627E+00  1.1444832632E+00  4.5861948931E+00
                       4.7064350627E+00  1.1444832632E+00  8.1517846512E+00
                       2.6478408561E+00  4.0557751097E+00  4.5861948931E+00
                       5.7357321661E+00  4.0557751097E+00  6.3689897722E+00
                       2.6478408561E+00  4.0557751097E+00  8.1517846512E+00
            xcart      1.0423175544E+01  7.3702981088E+00  1.8053469619E+01
                       3.4743918481E+00  2.4567660363E+00  6.0178232063E+00
                       6.9487836961E+00  4.9135320725E+00  1.2035646413E+01
                       0.0000000000E+00  0.0000000000E+00  0.0000000000E+00
                       3.0586044268E+00  2.1627599312E+00  1.2035646413E+01
                       8.8938733308E+00  2.1627599312E+00  8.6666523401E+00
                       8.8938733308E+00  2.1627599312E+00  1.5404640485E+01
                       5.0036940615E+00  7.6643042139E+00  8.6666523401E+00
                       1.0838962965E+01  7.6643042139E+00  1.2035646413E+01
                       5.0036940615E+00  7.6643042139E+00  1.5404640485E+01
             xred      7.5000000000E-01  7.5000000000E-01  7.5000000000E-01
                       2.5000000000E-01  2.5000000000E-01  2.5000000000E-01
                       5.0000000000E-01  5.0000000000E-01  5.0000000000E-01
                       0.0000000000E+00  0.0000000000E+00  0.0000000000E+00
                       2.2008200000E-01  2.2008200000E-01  7.7991800000E-01
                       7.7991800000E-01  2.2008200000E-01  2.2008200000E-01
                       7.7991800000E-01  2.2008200000E-01  7.7991800000E-01
                       2.2008200000E-01  7.7991800000E-01  2.2008200000E-01
                       7.7991800000E-01  7.7991800000E-01  2.2008200000E-01
                       2.2008200000E-01  7.7991800000E-01  7.7991800000E-01
            znucl       55.00000   19.00000   45.00000    9.00000

 chkinp: Checking input parameters for consistency.

== DATASET  1 ==================================================================
-   mpi_nproc: 1, omp_nthreads: -1 (-1 if OMP is not activated)

--- !DatasetInfo
iteration_state: {dtset: 1, }
dimensions: {natom: 10, nkpt: 1, mband: 52, nsppol: 1, nspinor: 1, nspden: 1, mpw: 17182, }
cutoff_energies: {ecut:  44.0, pawecutdg:  -1.0, }
electrons: {nelect:   8.60000000E+01, charge:   0.00000000E+00, occopt:   1.00000000E+00, tsmear:   1.00000000E-02, }
meta: {optdriver: 1, rfelfd: 2, }
...

 Real(R)+Recip(G) space primitive vectors, cartesian coordinates (Bohr,Bohr^-1):
 R(1)= 10.4231755  0.0000000  6.0178232  G(1)=  0.0959401 -0.0339199  0.0000000
 R(2)=  3.4743918  9.8270641  6.0178232  G(2)=  0.0000000  0.1017598  0.0000000
 R(3)=  0.0000000  0.0000000 12.0356464  G(3)= -0.0479700 -0.0339199  0.0830865
 Unit cell volume ucvol=  1.2328018E+03 bohr^3
 Angles (23,13,12)=  6.00000000E+01  6.00000000E+01  6.00000000E+01 degrees

 getcut: wavevector=  0.0000  0.0000  0.0000  ngfft=  72  72  72
         ecut(hartree)=     44.000   => boxcut(ratio)=   2.00342

--- Pseudopotential description ------------------------------------------------
- pspini: atom type   1  psp file is /scratch/users/j/a/jabreu/pseudos/PBEsol/Cs.psp8
- pspatm: opening atomic psp file    /scratch/users/j/a/jabreu/pseudos/PBEsol/Cs.psp8
- Cs    ONCVPSP-3.3.0  r_core=   2.27353   1.85623   2.01788   1.90105
- 55.00000   9.00000    180112                znucl, zion, pspdat
    8 -116133    3    4       600   0.00000   pspcod,pspxc,lmax,lloc,mmax,r2well
    5.99000000000000    5.00000000000000    0.00000000000000   rchrg,fchrg,qchrg
     nproj     2     2     2     2
     extension_switch     1
  pspatm : epsatm=   22.12462445
         --- l  ekb(1:nproj) -->
             0    6.214110    0.767882
             1    6.311966    0.793598
             2    3.769790    0.913105
             3   -9.247129   -2.432478
 pspatm: atomic psp has been read  and splines computed

- pspini: atom type   2  psp file is /scratch/users/j/a/jabreu/pseudos/PBEsol/K.psp8
- pspatm: opening atomic psp file    /scratch/users/j/a/jabreu/pseudos/PBEsol/K.psp8
- K     ONCVPSP-3.3.0  r_core=   1.36296   1.46408   1.61068
- 19.00000   9.00000    180112                znucl, zion, pspdat
    8 -116133    2    4       400   0.00000   pspcod,pspxc,lmax,lloc,mmax,r2well
    3.99000000000000    5.00000000000000    0.00000000000000   rchrg,fchrg,qchrg
     nproj     2     2     2
     extension_switch     1
  pspatm : epsatm=    8.32487830
         --- l  ekb(1:nproj) -->
             0   10.921326    0.816676
             1    4.431000    0.560368
             2   -3.384038   -1.043186
 pspatm: atomic psp has been read  and splines computed

[...]

- pspini: atom type   4  psp file is /scratch/users/j/a/jabreu/pseudos/PBEsol/F.psp8
- pspatm: opening atomic psp file    /scratch/users/j/a/jabreu/pseudos/PBEsol/F.psp8
- F     ONCVPSP-3.3.0  r_core=   1.30942   1.45782   1.60379
-  9.00000   7.00000    180112                znucl, zion, pspdat
[...]
solver: {iscf: 7, nstep: 2000, nline: 4, wfoptalg: 0, }
tolerances: {tolwfr: 1.00E-20, }
...

     iter   2DEtotal(Ha)        deltaE(Ha) residm    vres2
-ETOT  1  -36.545830803134     -3.655E+01 1.976E-02 0.000E+00
 ETOT  2  -36.593600873431     -4.777E-02 1.089E-03 0.000E+00
 ETOT  3  -36.594259480017     -6.586E-04 1.179E-04 0.000E+00
 ETOT  4  -36.594281018966     -2.154E-05 1.469E-05 0.000E+00
 ETOT  5  -36.594281917688     -8.987E-07 2.495E-06 0.000E+00
 ETOT  6  -36.594281963925     -4.624E-08 3.057E-07 0.000E+00
 ETOT  7  -36.594281966565     -2.640E-09 5.592E-08 0.000E+00
 ETOT  8  -36.594281966726     -1.611E-10 6.531E-09 0.000E+00
 ETOT  9  -36.594281966736     -1.038E-11 1.262E-09 0.000E+00
 ETOT 10  -36.594281966737     -6.253E-13 1.425E-10 0.000E+00
 ETOT 11  -36.594281966737     -1.137E-13 2.857E-11 0.000E+00
 ETOT 12  -36.594281966737      4.974E-14 3.154E-12 0.000E+00
 ETOT 13  -36.594281966737     -2.842E-14 6.473E-13 0.000E+00
 ETOT 14  -36.594281966737     -7.105E-15 7.033E-14 0.000E+00
 ETOT 15  -36.594281966737      7.105E-15 1.467E-14 0.000E+00
 ETOT 16  -36.594281966737      7.105E-15 1.576E-15 0.000E+00
 ETOT 17  -36.594281966737      7.105E-15 3.325E-16 0.000E+00
 ETOT 18  -36.594281966737      0.000E+00 3.545E-17 0.000E+00
 ETOT 19  -36.594281966737      0.000E+00 7.540E-18 0.000E+00
 ETOT 20  -36.594281966737      7.105E-15 7.992E-19 0.000E+00
 ETOT 21  -36.594281966737      0.000E+00 1.711E-19 0.000E+00
 ETOT 22  -36.594281966737     -7.105E-15 1.806E-20 0.000E+00
 ETOT 23  -36.594281966737      0.000E+00 9.910E-21 0.000E+00

 At SCF step   23   max residual=  9.91E-21 < tolwfr=  1.00E-20 =>converged.

 ----iterations are completed or convergence reached----

 dfpt_looppert: DFPT cycle converged with prtwf=-1. Will skip output of the 1st-order WFK file.
 dfpt_looppert : ek2=    7.0313805269E+01
          f-sum rule ratio=    9.9608084616E-01
 prteigrs : about to open file /scratch/users/j/a/jabreu/flow_simple_10atoms/flow/w498/t1/tmpdata/tmp_1WF1_EIG
 Expectation of eigenvalue derivatives (hartree) for nkpt=   1  k points:
  (in case of degenerate eigenvalues, averaged derivative)
 kpt#   1, nband= 52, wtk=  1.00000, kpt=  0.5000  0.0000  0.5000 (reduced coord)
  -0.00000    0.00000   -0.00000   -0.00000   -0.00000    0.00000    0.00000    0.00000
  -0.00000    0.00000    0.00000   -0.00000    0.00000   -0.00000   -0.00000   -0.00000
  -0.00000   -0.00000   -0.00000   -0.00000   -0.00000    0.00000   -0.00000    0.00000
  -0.00000   -0.00000   -0.00000   -0.00000    0.00000    0.00000    0.00000    0.00000
  -0.00000    0.00000    0.00000   -0.00000   -0.00000    0.00000    0.00000   -0.00000
   0.00000   -0.00000   -0.00000    0.00000   -0.00000   -0.00000    0.00000    0.00000
  -0.00000    0.00000    0.00000   -0.00001

 Eight components of 2nd-order total energy (hartree) are
 1,2,3: 0th-order hamiltonian combined with 1st-order wavefunctions
     kin0=   5.13976766E+01 eigvalue=   1.64067721E+00  local=  -2.48936456E+01
 4,5,6: 1st-order hamiltonian combined with 1st and 0th-order wfs
     kin1=  -7.00382346E+01  Hartree=   0.00000000E+00     xc=   0.00000000E+00
 7,8,9: eventually, occupation + non-local contributions
    edocc=   5.99067241E+00     enl0=   2.45890127E+00   enl1=  -3.15032928E+00
 1-9 gives the relaxation energy (to be shifted if some occ is /=2.0)
   erelax=  -3.65942820E+01
  No Ewald or frozen-wf contrib.: the relaxation energy is the total one
 2DEtotal=   -0.3659428197E+02 Ha. Also 2DEtotal=   -0.995781053678E+03 eV
    (  non-var. 2DEtotal :   -3.6594281967E+01 Ha)

 CALCULATION OF EFFECTIVE MASSES
 NOTE : Additional infos (eff. mass eigenvalues, eigenvectors and, if degenerate, average mass) are available in stdout.

 COMMENTS:
 - At k-point ( 0.500, 0.000, 0.500), bands    42 through    43
   are DEGENERATE (effective mass tensor is therefore not defined).
   See Section IIIB Eqs. (67)-(70) and Appendix E of PRB 93 205147 (2016).
 - Angular average effective mass for Frohlich model is to be averaged over degenerate bands. See later.
 - Associated theta integrals calculated with ntheta=   1000 points.

 K-point ( 0.500, 0.000, 0.500) | band =    42
 Transport equivalent effective mass tensor:
             -8.4083113874              2.1572246145             -2.6420497541
              2.1572246145             -9.9336994500              3.7364225273
             -2.6420497541              3.7364225273            -11.4590874877
 Transport equivalent effective mass tensor eigenvalues:
            -16.0352519159             -6.8829232075             -6.8829232017
 Angular average effective mass 1/(<1/m>)=  -7.5433284933
 Angular average effective mass for Frohlich model (<m**0.5>)**2=  -7.8784975622
 Effective masses along directions: (cart. coord. / red. coord. -> eff. mass)
    1:   1.000000  0.000000  0.000000 /   0.948683  0.316228  0.000000 ->  -6.9909224708
    2:   0.000000  1.000000  0.000000 /   0.000000  1.000000  0.000000 ->  -9.2599376856
    3:   0.000000  0.000000  1.000000 /   0.408248  0.408248  0.816497 ->  -7.5712668436
    4:   0.577350  0.577350  0.577350 /   0.585539  0.688047  0.428644 ->  -7.2747054799
    5:   0.000000  0.707107  0.707107 /   0.289489  0.762222  0.578977 ->  -6.2049686068
    6:   0.707107  0.000000  0.707107 /   0.731423  0.422287  0.535439 ->  -9.0548028941
    7:   0.707107  0.707107  0.000000 /   0.616798  0.787122  0.000000 ->  -5.3806555228

 K-point ( 0.500, 0.000, 0.500) | band =    43
 Transport equivalent effective mass tensor:
          -3783.8384549998             75.9866436125            -93.0642672786
             75.9866436125          -3837.5691241577            131.6127507057
            -93.0642672786            131.6127507057          -3891.2997952515
 Transport equivalent effective mass tensor eigenvalues:
          -4052.4918362199          -3730.1077834759          -3730.1077547133
 Angular average effective mass 1/(<1/m>)= -22.8028707020
 Angular average effective mass for Frohlich model (<m**0.5>)**2= -35.7653390722
 Effective masses along directions: (cart. coord. / red. coord. -> eff. mass)
    1:   1.000000  0.000000  0.000000 /   0.948683  0.316228  0.000000 -> -24.7655021951
    2:   0.000000  1.000000  0.000000 /   0.000000  1.000000  0.000000 -> -14.6135774872
    3:   0.000000  0.000000  1.000000 /   0.408248  0.408248  0.816497 -> -26.7784069962
    4:   0.577350  0.577350  0.577350 /   0.585539  0.688047  0.428644 -> -20.4472212974
    5:   0.000000  0.707107  0.707107 /   0.289489  0.762222  0.578977 -> -34.5943615623
    6:   0.707107  0.000000  0.707107 /   0.731423  0.422287  0.535439 -> -18.5670036008
    7:   0.707107  0.707107  0.000000 /   0.616798  0.787122  0.000000 -> **************

 Angular average effective mass for Frohlich model, averaged over degenerate bands.
 Value of     (<<m**0.5>>)**2 =     1.930407E+01
 Absolute Value of <<m**0.5>> =     4.393640E+00

 K-point ( 0.500, 0.000, 0.500) | band =    44
 Effective mass tensor:
              2.7071221669              0.4105751156             -0.5028497575
              0.4105751156              2.4168017174              0.7111369458
             -0.5028497575              0.7111369458              2.1264812694
 Effective mass tensor eigenvalues:
              1.2555199416              2.9974425970              2.9974426150
 Angular average effective mass 1/(<1/m>)=   2.0495748002
 Angular average effective mass for Frohlich model (<m**0.5>)**2=   2.1679716792
 Effective masses along directions: (cart. coord. / red. coord. -> eff. mass)
    1:   1.000000  0.000000  0.000000 /   0.948683  0.316228  0.000000 ->   2.4345003569
    2:   0.000000  1.000000  0.000000 /   0.000000  1.000000  0.000000 ->   2.0495748000
    3:   0.000000  0.000000  1.000000 /   0.408248  0.408248  0.816497 ->   1.7697541045
    4:   0.577350  0.577350  0.577350 /   0.585539  0.688047  0.428644 ->   2.6435698763
    5:   0.000000  0.707107  0.707107 /   0.289489  0.762222  0.578977 ->   2.9628373965
    6:   0.707107  0.000000  0.707107 /   0.731423  0.422287  0.535439 ->   1.6089490934
    7:   0.707107  0.707107  0.000000 /   0.616798  0.787122  0.000000 ->   2.9391393573

 END OF EFFECTIVE MASSES SECTION

 ---- first-order wavefunction calculations are completed ----

 Total localisation tensor (bohr^2) in cartesian coordinates
  WARNING : still subject to testing - especially symmetries.
      direction              matrix element
   alpha     beta       real part   imaginary part
     1        1       0.7271929970    0.0000000000
     1        2       0.2056812455    0.0000000000
     1        3       0.5038140895    0.0000000000
     2        1       0.2056812455    0.0000000000
     2        2       0.5817544139    0.0000000000
     2        3       0.3562503674    0.0000000000
     3        1       0.5038140895    0.0000000000
     3        2       0.3562503674    0.0000000000
     3        3       1.3089473914    0.0000000000

 respfn : d/dk was computed, but no 2DTE, so no DDB output.

== END DATASET(S) ==============================================================

 -outvars: echo values of variables after computation  --------
            acell      1.0000000000E+00  1.0000000000E+00  1.0000000000E+00 Bohr
              amu      1.32905430E+02  3.90983000E+01  1.02905500E+02
                       1.89984032E+01
             ecut      4.40000000E+01 Hartree
           etotal     -3.6594281967E+01
            fcart      0.0000000000E+00  0.0000000000E+00  0.0000000000E+00
                       0.0000000000E+00  0.0000000000E+00  0.0000000000E+00
                       0.0000000000E+00  0.0000000000E+00  0.0000000000E+00
                       0.0000000000E+00  0.0000000000E+00  0.0000000000E+00
                       0.0000000000E+00  0.0000000000E+00  0.0000000000E+00
                       0.0000000000E+00  0.0000000000E+00  0.0000000000E+00
                       0.0000000000E+00  0.0000000000E+00  0.0000000000E+00
                       0.0000000000E+00  0.0000000000E+00  0.0000000000E+00
                       0.0000000000E+00  0.0000000000E+00  0.0000000000E+00
                       0.0000000000E+00  0.0000000000E+00  0.0000000000E+00
-          fftalg         512
           irdden           1
           irdwfk           1
           istwfk        1
              ixc     -116133
              kpt      5.00000000E-01  0.00000000E+00  5.00000000E-01
           kptopt           0
P           mkmem           1
P          mkqmem           1
P          mk1mem           1
            natom          10
            nband          52
           nbdbuf           4
            ngfft          72      72      72
             nkpt           1
            nstep        2000
             nsym          48
           ntypat           4
              occ      2.000000  2.000000  2.000000  2.000000  2.000000  2.000000
                       2.000000  2.000000  2.000000  2.000000  2.000000  2.000000
                       2.000000  2.000000  2.000000  2.000000  2.000000  2.000000
                       2.000000  2.000000  2.000000  2.000000  2.000000  2.000000
                       2.000000  2.000000  2.000000  2.000000  2.000000  2.000000
                       2.000000  2.000000  2.000000  2.000000  2.000000  2.000000
                       2.000000  2.000000  2.000000  2.000000  2.000000  2.000000
                       2.000000  0.000000  0.000000  0.000000  0.000000  0.000000
                       0.000000  0.000000  0.000000  0.000000
        optdriver           1
            prtwf          -1
            rfdir           1       1       1
           rfelfd           2
            rprim      1.0423175544E+01  0.0000000000E+00  6.0178232063E+00
                       3.4743918481E+00  9.8270641451E+00  6.0178232063E+00
                       0.0000000000E+00  0.0000000000E+00  1.2035646413E+01
          spgroup         225
           strten      0.0000000000E+00  0.0000000000E+00  0.0000000000E+00
                       0.0000000000E+00  0.0000000000E+00  0.0000000000E+00
           symrel      1  0  0   0  1  0   0  0  1      -1  0  0   0 -1  0   0  0 -1
                       0 -1  1   0 -1  0   1 -1  0       0  1 -1   0  1  0  -1  1  0
                      -1  0  0  -1  0  1  -1  1  0       1  0  0   1  0 -1   1 -1  0
                       0  1 -1   1  0 -1   0  0 -1       0 -1  1  -1  0  1   0  0  1
                      -1  0  0  -1  1  0  -1  0  1       1  0  0   1 -1  0   1  0 -1
                       0 -1  1   1 -1  0   0 -1  0       0  1 -1  -1  1  0   0  1  0
                       1  0  0   0  0  1   0  1  0      -1  0  0   0  0 -1   0 -1  0
                       0  1 -1   0  0 -1   1  0 -1       0 -1  1   0  0  1  -1  0  1
                      -1  0  1  -1  1  0  -1  0  0       1  0 -1   1 -1  0   1  0  0
                       0 -1  0   1 -1  0   0 -1  1       0  1  0  -1  1  0   0  1 -1
                       1  0 -1   0  0 -1   0  1 -1      -1  0  1   0  0  1   0 -1  1
                       0  1  0   0  0  1   1  0  0       0 -1  0   0  0 -1  -1  0  0
                       1  0 -1   0  1 -1   0  0 -1      -1  0  1   0 -1  1   0  0  1
                       0 -1  0   0 -1  1   1 -1  0       0  1  0   0  1 -1  -1  1  0
                      -1  0  1  -1  0  0  -1  1  0       1  0 -1   1  0  0   1 -1  0
                       0  1  0   1  0  0   0  0  1       0 -1  0  -1  0  0   0  0 -1
                       0  0 -1   0  1 -1   1  0 -1       0  0  1   0 -1  1  -1  0  1
                       1 -1  0   0 -1  1   0 -1  0      -1  1  0   0  1 -1   0  1  0
                       0  0  1   1  0  0   0  1  0       0  0 -1  -1  0  0   0 -1  0
                      -1  1  0  -1  0  0  -1  0  1       1 -1  0   1  0  0   1  0 -1
                       0  0  1   0  1  0   1  0  0       0  0 -1   0 -1  0  -1  0  0
                       1 -1  0   0 -1  0   0 -1  1      -1  1  0   0  1  0   0  1 -1
                       0  0 -1   1  0 -1   0  1 -1       0  0  1  -1  0  1   0 -1  1
                      -1  1  0  -1  0  1  -1  0  0       1 -1  0   1  0 -1   1  0  0
           tolwfr      1.00000000E-20
            typat      1  1  2  3  4  4  4  4  4  4
           useylm           1
           xangst      5.5157069391E+00  3.9001937797E+00  9.5534846583E+00
                       1.8385689797E+00  1.3000645932E+00  3.1844948861E+00
                       3.6771379594E+00  2.6001291865E+00  6.3689897722E+00
                       0.0000000000E+00  0.0000000000E+00  0.0000000000E+00
                       1.6185437528E+00  1.1444832632E+00  6.3689897722E+00
                       4.7064350627E+00  1.1444832632E+00  4.5861948931E+00
                       4.7064350627E+00  1.1444832632E+00  8.1517846512E+00
                       2.6478408561E+00  4.0557751097E+00  4.5861948931E+00
                       5.7357321661E+00  4.0557751097E+00  6.3689897722E+00
                       2.6478408561E+00  4.0557751097E+00  8.1517846512E+00
            xcart      1.0423175544E+01  7.3702981088E+00  1.8053469619E+01
                       3.4743918481E+00  2.4567660363E+00  6.0178232063E+00
                       6.9487836961E+00  4.9135320725E+00  1.2035646413E+01
                       0.0000000000E+00  0.0000000000E+00  0.0000000000E+00
                       3.0586044268E+00  2.1627599312E+00  1.2035646413E+01
                       8.8938733308E+00  2.1627599312E+00  8.6666523401E+00
                       8.8938733308E+00  2.1627599312E+00  1.5404640485E+01
                       5.0036940615E+00  7.6643042139E+00  8.6666523401E+00
                       1.0838962965E+01  7.6643042139E+00  1.2035646413E+01
                       5.0036940615E+00  7.6643042139E+00  1.5404640485E+01
             xred      7.5000000000E-01  7.5000000000E-01  7.5000000000E-01
                       2.5000000000E-01  2.5000000000E-01  2.5000000000E-01
                       5.0000000000E-01  5.0000000000E-01  5.0000000000E-01
                       0.0000000000E+00  0.0000000000E+00  0.0000000000E+00
                       2.2008200000E-01  2.2008200000E-01  7.7991800000E-01
                       7.7991800000E-01  2.2008200000E-01  2.2008200000E-01
                       7.7991800000E-01  2.2008200000E-01  7.7991800000E-01
                       2.2008200000E-01  7.7991800000E-01  2.2008200000E-01
                       7.7991800000E-01  7.7991800000E-01  2.2008200000E-01
                       2.2008200000E-01  7.7991800000E-01  7.7991800000E-01
            znucl       55.00000   19.00000   45.00000    9.00000

- Timing analysis has been suppressed with timopt=0

 Suggested references for the acknowledgment of ABINIT usage.

 Calculation completed.
.Delivered   2 WARNINGs and   5 COMMENTs to log file.