.Version 9.5.1 of ABINIT

 ABINIT is a project of the Universite Catholique de Louvain,
 Corning Inc. and other collaborators, see ~abinit/doc/developers/contributors.txt .
 acknowledgments of the ABINIT effort.

.Starting date : Tue 11 May 2021.
- ( at 22h03 )

- input  file    -> /scratch/users/j/a/jabreu/flow_simple_8atoms/flow/w383/t1/run.abi
- output file    -> /scratch/users/j/a/jabreu/flow_simple_8atoms/flow/w383/t1/run.abo
- root for input  files -> /scratch/users/j/a/jabreu/flow_simple_8atoms/flow/w383/t1/indata/in
- root for output files -> /scratch/users/j/a/jabreu/flow_simple_8atoms/flow/w383/t1/outdata/out

 Symmetries : space group P4/n m m (#129); Bravais tP (primitive tetrag.)
     intxc =       0      iscf =       7    lmnmax =      18     lnmax =       6
     mgfft =     100  mpssoang =       3    mqgrid =    4947     natom =       8
  nloc_mem =       1    nspden =       1   nspinor =       1    nsppol =       1
      nsym =      16    n1xccc =    2501    ntypat =       4    occopt =       1
   xclevel =       2
-    mband =          61        mffmem =           1         mkmem =           2
-   mkqmem =           2        mk1mem =           2           mpw =       12560
      nfft =      230400          nkpt =           2
  Rough estimation (10% accuracy) of disk space for files :

------------- Echo of variables that govern the present computation ------------
-
- outvars: echo of selected default values
-   iomode0 =  0 , fftalg0 =512 , wfoptalg0 =  0
-
- outvars: echo of global parameters not present in the input file
-  max_nthreads =    0
-
 -outvars: echo values of preprocessed input variables --------
            acell      1.0000000000E+00  1.0000000000E+00  1.0000000000E+00 Bohr
              amu      8.89058500E+01  6.53900000E+01  7.49215900E+01
                       1.59994000E+01
             ecut      4.40000000E+01 Hartree
-          fftalg         512
           irdden           1
           irdwfk           1
           istwfk        0    1
              ixc     -116133
              kpt      0.00000000E+00  1.20000000E-01  0.00000000E+00
                       0.00000000E+00  0.00000000E+00  0.00000000E+00
           kptopt           0
P           mkmem           2
P          mkqmem           2
P          mk1mem           2
            natom           8
            nband          61
           nbdbuf           4
            ngfft          48      48     100
             nkpt           2
            nstep        2000
             nsym          16
           ntypat           4
              occ      2.000000  2.000000  2.000000  2.000000  2.000000  2.000000
                       2.000000  2.000000  2.000000  2.000000  2.000000  2.000000
                       2.000000  2.000000  2.000000  2.000000  2.000000  2.000000
                       2.000000  2.000000  2.000000  2.000000  2.000000  2.000000
                       2.000000  2.000000  2.000000  2.000000  2.000000  2.000000
                       2.000000  2.000000  2.000000  2.000000  2.000000  2.000000
                       2.000000  2.000000  2.000000  2.000000  2.000000  2.000000
                       2.000000  2.000000  2.000000  2.000000  2.000000  2.000000
                       2.000000  2.000000  2.000000  2.000000  0.000000  0.000000
                       0.000000  0.000000  0.000000  0.000000  0.000000  0.000000
                       0.000000
        optdriver           1
            prtwf          -1
            rfdir           1       1       1
           rfelfd           2
            rprim      7.3817451121E+00  0.0000000000E+00  0.0000000000E+00
                       0.0000000000E+00  7.3817451121E+00  0.0000000000E+00
                       0.0000000000E+00  0.0000000000E+00  1.6566096819E+01
          spgroup         129
           symrel      1  0  0   0  1  0   0  0  1      -1  0  0   0 -1  0   0  0 -1
                      -1  0  0   0  1  0   0  0 -1       1  0  0   0 -1  0   0  0  1
                      -1  0  0   0 -1  0   0  0  1       1  0  0   0  1  0   0  0 -1
                       1  0  0   0 -1  0   0  0 -1      -1  0  0   0  1  0   0  0  1
                       0  1  0   1  0  0   0  0  1       0 -1  0  -1  0  0   0  0 -1
                       0 -1  0   1  0  0   0  0 -1       0  1  0  -1  0  0   0  0  1
                       0 -1  0  -1  0  0   0  0  1       0  1  0   1  0  0   0  0 -1
                       0  1  0  -1  0  0   0  0 -1       0 -1  0   1  0  0   0  0  1
            tnons      0.0000000  0.0000000  0.0000000     0.5000000  0.5000000  0.0000000
                       0.5000000  0.5000000  0.0000000     0.0000000  0.0000000  0.0000000
                       0.0000000  0.0000000  0.0000000     0.5000000  0.5000000  0.0000000
                       0.5000000  0.5000000  0.0000000     0.0000000  0.0000000  0.0000000
                       0.5000000  0.5000000  0.0000000     0.0000000  0.0000000  0.0000000
                       0.0000000  0.0000000  0.0000000     0.5000000  0.5000000  0.0000000
                       0.5000000  0.5000000  0.0000000     0.0000000  0.0000000  0.0000000
                       0.0000000  0.0000000  0.0000000     0.5000000  0.5000000  0.0000000
           tolwfr      1.00000000E-20
            typat      1  1  2  2  3  3  4  4
           useylm           1
              wtk        0.50000    0.50000
           xangst      0.0000000000E+00  1.9531256365E+00  7.6878092076E+00
                       1.9531256365E+00  0.0000000000E+00  1.0785916641E+00
                       0.0000000000E+00  0.0000000000E+00  4.3832004358E+00
                       1.9531256365E+00  1.9531256365E+00  4.3832004358E+00
                       0.0000000000E+00  1.9531256365E+00  2.7720674516E+00
                       1.9531256365E+00  0.0000000000E+00  5.9943334201E+00
                       0.0000000000E+00  0.0000000000E+00  0.0000000000E+00
                       1.9531256365E+00  1.9531256365E+00  0.0000000000E+00
            xcart      0.0000000000E+00  3.6908725560E+00  1.4527853964E+01
                       3.6908725560E+00  0.0000000000E+00  2.0382428543E+00
                       0.0000000000E+00  0.0000000000E+00  8.2830484093E+00
                       3.6908725560E+00  3.6908725560E+00  8.2830484093E+00
                       0.0000000000E+00  3.6908725560E+00  5.2384483055E+00
                       3.6908725560E+00  0.0000000000E+00  1.1327648513E+01
                       0.0000000000E+00  0.0000000000E+00  0.0000000000E+00
                       3.6908725560E+00  3.6908725560E+00  0.0000000000E+00
             xred      0.0000000000E+00  5.0000000000E-01  8.7696300000E-01
                       5.0000000000E-01  0.0000000000E+00  1.2303700000E-01
                       0.0000000000E+00  0.0000000000E+00  5.0000000000E-01
                       5.0000000000E-01  5.0000000000E-01  5.0000000000E-01
                       0.0000000000E+00  5.0000000000E-01  3.1621500000E-01
                       5.0000000000E-01  0.0000000000E+00  6.8378500000E-01
                       0.0000000000E+00  0.0000000000E+00  0.0000000000E+00
                       5.0000000000E-01  5.0000000000E-01  0.0000000000E+00
            znucl       39.00000   30.00000   33.00000    8.00000

 chkinp: Checking input parameters for consistency.

== DATASET  1 ==================================================================
-   mpi_nproc: 1, omp_nthreads: -1 (-1 if OMP is not activated)

--- !DatasetInfo
iteration_state: {dtset: 1, }
dimensions: {natom: 8, nkpt: 2, mband: 61, nsppol: 1, nspinor: 1, nspden: 1, mpw: 12560, }
cutoff_energies: {ecut:  44.0, pawecutdg:  -1.0, }
electrons: {nelect:   1.04000000E+02, charge:   0.00000000E+00, occopt:   1.00000000E+00, tsmear:   1.00000000E-02, }
meta: {optdriver: 1, rfelfd: 2, }
...

 Real(R)+Recip(G) space primitive vectors, cartesian coordinates (Bohr,Bohr^-1):
 R(1)=  7.3817451  0.0000000  0.0000000  G(1)=  0.1354693  0.0000000  0.0000000
 R(2)=  0.0000000  7.3817451  0.0000000  G(2)=  0.0000000  0.1354693  0.0000000
 R(3)=  0.0000000  0.0000000 16.5660968  G(3)=  0.0000000  0.0000000  0.0603642
 Unit cell volume ucvol=  9.0268928E+02 bohr^3
 Angles (23,13,12)=  9.00000000E+01  9.00000000E+01  9.00000000E+01 degrees

 getcut: wavevector=  0.0000  0.0000  0.0000  ngfft=  48  48 100
         ecut(hartree)=     44.000   => boxcut(ratio)=   2.02157

--- Pseudopotential description ------------------------------------------------
- pspini: atom type   1  psp file is /scratch/users/j/a/jabreu/pseudos/PBEsol/Y.psp8
- pspatm: opening atomic psp file    /scratch/users/j/a/jabreu/pseudos/PBEsol/Y.psp8
- Y     ONCVPSP-3.3.0  r_core=   1.60520   1.51226   1.56736
- 39.00000  11.00000    180112                znucl, zion, pspdat
    8 -116133    2    4       600   0.00000   pspcod,pspxc,lmax,lloc,mmax,r2well
    5.99000000000000    4.00000000000000    0.00000000000000   rchrg,fchrg,qchrg
     nproj     2     2     2
     extension_switch     1
  pspatm : epsatm=   18.54790046
         --- l  ekb(1:nproj) -->
             0   10.130768    0.866504
             1    5.598307    0.427135
             2    1.217602    0.315447
 pspatm: atomic psp has been read  and splines computed

- pspini: atom type   2  psp file is /scratch/users/j/a/jabreu/pseudos/PBEsol/Zn.psp8
- pspatm: opening atomic psp file    /scratch/users/j/a/jabreu/pseudos/PBEsol/Zn.psp8
- Zn    ONCVPSP-3.3.0  r_core=   1.35823   1.66358   1.85211
- 30.00000  20.00000    180112                znucl, zion, pspdat
    8 -116133    2    4       600   0.00000   pspcod,pspxc,lmax,lloc,mmax,r2well
    5.99000000000000    2.50000000000000    0.00000000000000   rchrg,fchrg,qchrg
     nproj     2     2     2
     extension_switch     1
  pspatm : epsatm=   26.57343589
         --- l  ekb(1:nproj) -->
             0    2.830835   -1.519107
             1   -4.626739   -1.324150
             2   -6.948510   -2.555500
 pspatm: atomic psp has been read  and splines computed

[...]

- pspini: atom type   4  psp file is /scratch/users/j/a/jabreu/pseudos/PBEsol/O.psp8
- pspatm: opening atomic psp file    /scratch/users/j/a/jabreu/pseudos/PBEsol/O.psp8
- O     ONCVPSP-3.3.0  r_core=   1.35509   1.45563   1.26150
-  8.00000   6.00000    180112                znucl, zion, pspdat
    8 -116133    2    4       600   0.00000   pspcod,pspxc,lmax,lloc,mmax,r2well
    5.99000000000000    4.00000000000000    0.00000000000000   rchrg,fchrg,qchrg
     nproj     2     2     1
     extension_switch     1
  pspatm : epsatm=    6.22910522
         --- l  ekb(1:nproj) -->
             0    6.050032    0.820363
             1   -4.739617   -1.153841
             2   -1.335834
 pspatm: atomic psp has been read  and splines computed

   1.66695350E+04                                ecore*ucvol(ha*bohr**3)

-inwffil : will read wavefunctions from disk file /scratch/users/j/a/jabreu/flow_simple_8atoms/flow/w383/t1/indata/in_WFK

 ==>  initialize data related to q vector <==

 The list of irreducible perturbations for this q vector is:
    1)    idir= 1    ipert=   9
    2)    idir= 2    ipert=   9
    3)    idir= 3    ipert=   9

[...]
 2DEtotal=   -0.1377782919E+03 Ha. Also 2DEtotal=   -0.374913798746E+04 eV
    (  non-var. 2DEtotal :   -1.3777829186E+02 Ha)

 Perturbation wavevector (in red.coord.)   0.000000  0.000000  0.000000
 Perturbation : derivative vs k along direction   2
 The set of symmetries contains only one element for this perturbation.
 symkpt : not enough symmetry to change the number of k points.

[...]

 Perturbation wavevector (in red.coord.)   0.000000  0.000000  0.000000
 Perturbation : derivative vs k along direction   3
 The set of symmetries contains only one element for this perturbation.
 symkpt : not enough symmetry to change the number of k points.

-inwffil : will read wavefunctions from disk file /scratch/users/j/a/jabreu/flow_simple_8atoms/flow/w383/t1/indata/in_WFK

 Initialisation of the first-order wave-functions :
  ireadwf=   0

--- !BeginCycle
iteration_state: {dtset: 1, }
solver: {iscf: 7, nstep: 2000, nline: 4, wfoptalg: 0, }
tolerances: {tolwfr: 1.00E-20, }
...

     iter   2DEtotal(Ha)        deltaE(Ha) residm    vres2
-ETOT  1  -23.914904571066     -2.391E+01 7.105E-02 0.000E+00
 ETOT  2  -23.949783918263     -3.488E-02 1.491E-02 0.000E+00
 ETOT  3  -23.950365544532     -5.816E-04 2.184E-03 0.000E+00
 ETOT  4  -23.950388684175     -2.314E-05 5.962E-04 0.000E+00
 ETOT  5  -23.950390032473     -1.348E-06 1.241E-04 0.000E+00
 ETOT  6  -23.950390128243     -9.577E-08 3.565E-05 0.000E+00
 ETOT  7  -23.950390135850     -7.607E-09 7.725E-06 0.000E+00
 ETOT  8  -23.950390136493     -6.426E-10 2.212E-06 0.000E+00
 ETOT  9  -23.950390136549     -5.612E-11 4.982E-07 0.000E+00
 ETOT 10  -23.950390136554     -5.016E-12 1.401E-07 0.000E+00
 ETOT 11  -23.950390136555     -4.334E-13 3.302E-08 0.000E+00
 ETOT 12  -23.950390136555     -4.263E-14 9.022E-09 0.000E+00
 ETOT 13  -23.950390136555     -7.105E-15 3.653E-09 0.000E+00
 ETOT 14  -23.950390136555      1.066E-14 2.143E-09 0.000E+00
 ETOT 15  -23.950390136555     -3.553E-15 9.461E-10 0.000E+00
 ETOT 16  -23.950390136555      7.105E-15 5.548E-10 0.000E+00
 ETOT 17  -23.950390136555      0.000E+00 2.457E-10 0.000E+00
 ETOT 18  -23.950390136555     -1.776E-14 1.440E-10 0.000E+00
 ETOT 19  -23.950390136555      1.776E-14 6.390E-11 0.000E+00
 ETOT 20  -23.950390136555      3.553E-15 3.746E-11 0.000E+00
 ETOT 21  -23.950390136555     -1.066E-14 1.664E-11 0.000E+00
 ETOT 22  -23.950390136555      0.000E+00 9.755E-12 0.000E+00
 ETOT 23  -23.950390136555      7.105E-15 4.335E-12 0.000E+00
 ETOT 24  -23.950390136555     -3.553E-15 2.542E-12 0.000E+00
 ETOT 25  -23.950390136555      3.553E-15 1.130E-12 0.000E+00
 ETOT 26  -23.950390136555      0.000E+00 6.630E-13 0.000E+00
 ETOT 27  -23.950390136555      0.000E+00 2.949E-13 0.000E+00
 ETOT 28  -23.950390136555     -3.553E-15 1.730E-13 0.000E+00
 ETOT 29  -23.950390136555      0.000E+00 7.695E-14 0.000E+00
 ETOT 30  -23.950390136555      0.000E+00 4.516E-14 0.000E+00
 ETOT 31  -23.950390136555     -3.553E-15 2.009E-14 0.000E+00
 ETOT 32  -23.950390136555      3.553E-15 1.179E-14 0.000E+00
 ETOT 33  -23.950390136555      0.000E+00 5.246E-15 0.000E+00
 ETOT 34  -23.950390136555      0.000E+00 3.080E-15 0.000E+00
 ETOT 35  -23.950390136555      0.000E+00 1.370E-15 0.000E+00
 ETOT 36  -23.950390136555     -3.553E-15 8.046E-16 0.000E+00
 ETOT 37  -23.950390136555     -3.553E-15 3.580E-16 0.000E+00
 ETOT 38  -23.950390136555      7.105E-15 2.102E-16 0.000E+00
 ETOT 39  -23.950390136555      7.105E-15 9.355E-17 0.000E+00
 ETOT 40  -23.950390136555      0.000E+00 5.495E-17 0.000E+00
 ETOT 41  -23.950390136555     -1.066E-14 2.445E-17 0.000E+00
 ETOT 42  -23.950390136555      0.000E+00 1.437E-17 0.000E+00
 ETOT 43  -23.950390136555      0.000E+00 6.393E-18 0.000E+00
 ETOT 44  -23.950390136555      0.000E+00 3.757E-18 0.000E+00
 ETOT 45  -23.950390136555      7.105E-15 1.672E-18 0.000E+00
 ETOT 46  -23.950390136555     -7.105E-15 9.825E-19 0.000E+00
 ETOT 47  -23.950390136555      0.000E+00 4.372E-19 0.000E+00
 ETOT 48  -23.950390136555      3.553E-15 2.570E-19 0.000E+00
 ETOT 49  -23.950390136555     -3.553E-15 1.144E-19 0.000E+00
 ETOT 50  -23.950390136555      7.105E-15 6.724E-20 0.000E+00
 ETOT 51  -23.950390136555     -7.105E-15 2.993E-20 0.000E+00
 ETOT 52  -23.950390136555      0.000E+00 1.760E-20 0.000E+00
 ETOT 53  -23.950390136555      0.000E+00 9.931E-21 0.000E+00

 At SCF step   53   max residual=  9.93E-21 < tolwfr=  1.00E-20 =>converged.

 ----iterations are completed or convergence reached----

 dfpt_looppert: DFPT cycle converged with prtwf=-1. Will skip output of the 1st-order WFK file.
 dfpt_looppert : ek2=    2.9921453138E+01
          f-sum rule ratio=    1.0557825859E+00
 prteigrs : about to open file /scratch/users/j/a/jabreu/flow_simple_8atoms/flow/w383/t1/tmpdata/tmp_1WF1_EIG
 Expectation of eigenvalue derivatives (hartree) for nkpt=   2  k points:
  (in case of degenerate eigenvalues, averaged derivative)
 kpt#   1, nband= 61, wtk=  0.50000, kpt=  0.0000  0.1200  0.0000 (reduced coord)
   0.00000   -0.00000    0.00000    0.00000   -0.00000    0.00000    0.00000    0.00000
   0.00000    0.00000   -0.00000   -0.00000   -0.00000    0.00000    0.00000    0.00000
   0.00000    0.00000   -0.00000    0.00000    0.00000    0.00000   -0.00000   -0.00000
   0.00000    0.00000   -0.00000    0.00000   -0.00000   -0.00000    0.00000   -0.00000
   0.00000   -0.00000    0.00000    0.00000   -0.00000   -0.00000    0.00000    0.00000
   0.00000   -0.00000   -0.00000   -0.00000    0.00000   -0.00000   -0.00000   -0.00000
   0.00000    0.00000   -0.00000   -0.00000    0.00000    0.00000   -0.00000    0.00000
   0.00000   -0.00000   -0.00000    0.00000    0.00011
 prteigrs : prtvol=0 or 1, do not print more k-points.

 Eight components of 2nd-order total energy (hartree) are
 1,2,3: 0th-order hamiltonian combined with 1st-order wavefunctions
     kin0=   3.08021297E+01 eigvalue=   1.22860890E+00  local=  -1.22939293E+01
 4,5,6: 1st-order hamiltonian combined with 1st and 0th-order wfs
     kin1=  -3.15905492E+01  Hartree=   0.00000000E+00     xc=   0.00000000E+00
 7,8,9: eventually, occupation + non-local contributions
    edocc=   3.60190775E+00     enl0=   6.11673132E-01   enl1=  -1.63102311E+01
 1-9 gives the relaxation energy (to be shifted if some occ is /=2.0)
   erelax=  -2.39503901E+01
  No Ewald or frozen-wf contrib.: the relaxation energy is the total one
 2DEtotal=   -0.2395039014E+02 Ha. Also 2DEtotal=   -0.651723259603E+03 eV
    (  non-var. 2DEtotal :   -2.3950390136E+01 Ha)

 CALCULATION OF EFFECTIVE MASSES
 NOTE : Additional infos (eff. mass eigenvalues, eigenvectors and, if degenerate, average mass) are available in stdout.

 K-point ( 0.000, 0.120, 0.000) | band =    52
 Effective mass tensor:
             -0.1251155648             -0.0000000014              0.0000024143
             -0.0000000014            -12.6832101277             -0.0000482184
              0.0000024143             -0.0000482184             -1.2396880137
 Effective mass tensor eigenvalues:
            -12.6832101279             -1.2396880135             -0.1251155648
 Angular average effective mass 1/(<1/m>)=  -0.3379097713
 Angular average effective mass for Frohlich model (<m**0.5>)**2=  -0.6653316463
 Effective masses along directions: (cart. coord. / red. coord. -> eff. mass)
    1:   1.000000  0.000000  0.000000 /   1.000000  0.000000  0.000000 ->  -0.1251155648
    2:   0.000000  1.000000  0.000000 /   0.000000  1.000000  0.000000 -> -12.6832101258
    3:   0.000000  0.000000  1.000000 /   0.000000  0.000000  1.000000 ->  -1.2396880134
    4:   0.577350  0.577350  0.577350 /   0.376985  0.376985  0.846029 ->  -0.3379088199
    5:   0.000000  0.707107  0.707107 /   0.000000  0.407015  0.913422 ->  -2.2586292473
    6:   0.707107  0.000000  0.707107 /   0.407015  0.000000  0.913422 ->  -0.2272909006
    7:   0.707107  0.707107  0.000000 /   0.707107  0.707107  0.000000 ->  -0.2477867970

 K-point ( 0.000, 0.000, 0.000) | band =    53
 Effective mass tensor:
              0.2041246904             -0.0000000059              0.0000002780
             -0.0000000059              0.2041245971             -0.0000001975
              0.0000002780             -0.0000001975              1.5274245997
 Effective mass tensor eigenvalues:
              0.2041245968              0.2041246908              1.5274245997
 Angular average effective mass 1/(<1/m>)=   0.2870090562
 Angular average effective mass for Frohlich model (<m**0.5>)**2=   0.3373349106
 Effective masses along directions: (cart. coord. / red. coord. -> eff. mass)
    1:   1.000000  0.000000  0.000000 /   1.000000  0.000000  0.000000 ->   0.2041246904
    2:   0.000000  1.000000  0.000000 /   0.000000  1.000000  0.000000 ->   0.2041245971
    3:   0.000000  0.000000  1.000000 /   0.000000  0.000000  1.000000 ->   1.5274245997
    4:   0.577350  0.577350  0.577350 /   0.376985  0.376985  0.846029 ->   0.2870090627
    5:   0.000000  0.707107  0.707107 /   0.000000  0.407015  0.913422 ->   0.3601224389
    6:   0.707107  0.000000  0.707107 /   0.407015  0.000000  0.913422 ->   0.3601227819
    7:   0.707107  0.707107  0.000000 /   0.707107  0.707107  0.000000 ->   0.2041246379

 END OF EFFECTIVE MASSES SECTION

 ---- first-order wavefunction calculations are completed ----

 Total localisation tensor (bohr^2) in cartesian coordinates
  WARNING : still subject to testing - especially symmetries.
      direction              matrix element
   alpha     beta       real part   imaginary part
     1        1       2.2415059985    0.0000000000
     1        2       0.0000000000    0.0000000000
     1        3       0.0000000000    0.0000000000
     2        1       0.0000000000    0.0000000000
     2        2       1.5470961041    0.0000000000
     2        3       0.0000000000    0.0000000000
     3        1       0.0000000000    0.0000000000
     3        2       0.0000000000    0.0000000000
     3        3       1.0075853945    0.0000000000

 respfn : d/dk was computed, but no 2DTE, so no DDB output.

== END DATASET(S) ==============================================================

 -outvars: echo values of variables after computation  --------
            acell      1.0000000000E+00  1.0000000000E+00  1.0000000000E+00 Bohr
              amu      8.89058500E+01  6.53900000E+01  7.49215900E+01
                       1.59994000E+01
             ecut      4.40000000E+01 Hartree
           etotal     -2.3950390137E+01
            fcart      0.0000000000E+00  0.0000000000E+00  0.0000000000E+00
                       0.0000000000E+00  0.0000000000E+00  0.0000000000E+00
                       0.0000000000E+00  0.0000000000E+00  0.0000000000E+00
                       0.0000000000E+00  0.0000000000E+00  0.0000000000E+00
                       0.0000000000E+00  0.0000000000E+00  0.0000000000E+00
                       0.0000000000E+00  0.0000000000E+00  0.0000000000E+00
                       0.0000000000E+00  0.0000000000E+00  0.0000000000E+00
                       0.0000000000E+00  0.0000000000E+00  0.0000000000E+00
-          fftalg         512
           irdden           1
           irdwfk           1
           istwfk        0    1
              ixc     -116133
              kpt      0.00000000E+00  1.20000000E-01  0.00000000E+00
                       0.00000000E+00  0.00000000E+00  0.00000000E+00
           kptopt           0
P           mkmem           2
P          mkqmem           2
P          mk1mem           2
            natom           8
            nband          61
           nbdbuf           4
            ngfft          48      48     100
             nkpt           2
            nstep        2000
             nsym          16
           ntypat           4
              occ      2.000000  2.000000  2.000000  2.000000  2.000000  2.000000
                       2.000000  2.000000  2.000000  2.000000  2.000000  2.000000
                       2.000000  2.000000  2.000000  2.000000  2.000000  2.000000
                       2.000000  2.000000  2.000000  2.000000  2.000000  2.000000
                       2.000000  2.000000  2.000000  2.000000  2.000000  2.000000
                       2.000000  2.000000  2.000000  2.000000  2.000000  2.000000
                       2.000000  2.000000  2.000000  2.000000  2.000000  2.000000
                       2.000000  2.000000  2.000000  2.000000  2.000000  2.000000
                       2.000000  2.000000  2.000000  2.000000  0.000000  0.000000
                       0.000000  0.000000  0.000000  0.000000  0.000000  0.000000
                       0.000000
        optdriver           1
            prtwf          -1
            rfdir           1       1       1
           rfelfd           2
            rprim      7.3817451121E+00  0.0000000000E+00  0.0000000000E+00
                       0.0000000000E+00  7.3817451121E+00  0.0000000000E+00
                       0.0000000000E+00  0.0000000000E+00  1.6566096819E+01
          spgroup         129
           strten      0.0000000000E+00  0.0000000000E+00  0.0000000000E+00
                       0.0000000000E+00  0.0000000000E+00  0.0000000000E+00
           symrel      1  0  0   0  1  0   0  0  1      -1  0  0   0 -1  0   0  0 -1
                      -1  0  0   0  1  0   0  0 -1       1  0  0   0 -1  0   0  0  1
                      -1  0  0   0 -1  0   0  0  1       1  0  0   0  1  0   0  0 -1
                       1  0  0   0 -1  0   0  0 -1      -1  0  0   0  1  0   0  0  1
                       0  1  0   1  0  0   0  0  1       0 -1  0  -1  0  0   0  0 -1
                       0 -1  0   1  0  0   0  0 -1       0  1  0  -1  0  0   0  0  1
                       0 -1  0  -1  0  0   0  0  1       0  1  0   1  0  0   0  0 -1
                       0  1  0  -1  0  0   0  0 -1       0 -1  0   1  0  0   0  0  1
            tnons      0.0000000  0.0000000  0.0000000     0.5000000  0.5000000  0.0000000
                       0.5000000  0.5000000  0.0000000     0.0000000  0.0000000  0.0000000
                       0.0000000  0.0000000  0.0000000     0.5000000  0.5000000  0.0000000
                       0.5000000  0.5000000  0.0000000     0.0000000  0.0000000  0.0000000
                       0.5000000  0.5000000  0.0000000     0.0000000  0.0000000  0.0000000
                       0.0000000  0.0000000  0.0000000     0.5000000  0.5000000  0.0000000
                       0.5000000  0.5000000  0.0000000     0.0000000  0.0000000  0.0000000
                       0.0000000  0.0000000  0.0000000     0.5000000  0.5000000  0.0000000
           tolwfr      1.00000000E-20
            typat      1  1  2  2  3  3  4  4
           useylm           1
              wtk        0.50000    0.50000
           xangst      0.0000000000E+00  1.9531256365E+00  7.6878092076E+00
                       1.9531256365E+00  0.0000000000E+00  1.0785916641E+00
                       0.0000000000E+00  0.0000000000E+00  4.3832004358E+00
                       1.9531256365E+00  1.9531256365E+00  4.3832004358E+00
                       0.0000000000E+00  1.9531256365E+00  2.7720674516E+00
                       1.9531256365E+00  0.0000000000E+00  5.9943334201E+00
                       0.0000000000E+00  0.0000000000E+00  0.0000000000E+00
                       1.9531256365E+00  1.9531256365E+00  0.0000000000E+00
            xcart      0.0000000000E+00  3.6908725560E+00  1.4527853964E+01
                       3.6908725560E+00  0.0000000000E+00  2.0382428543E+00
                       0.0000000000E+00  0.0000000000E+00  8.2830484093E+00
                       3.6908725560E+00  3.6908725560E+00  8.2830484093E+00
                       0.0000000000E+00  3.6908725560E+00  5.2384483055E+00
                       3.6908725560E+00  0.0000000000E+00  1.1327648513E+01
                       0.0000000000E+00  0.0000000000E+00  0.0000000000E+00
                       3.6908725560E+00  3.6908725560E+00  0.0000000000E+00
             xred      0.0000000000E+00  5.0000000000E-01  8.7696300000E-01
                       5.0000000000E-01  0.0000000000E+00  1.2303700000E-01
                       0.0000000000E+00  0.0000000000E+00  5.0000000000E-01
                       5.0000000000E-01  5.0000000000E-01  5.0000000000E-01
                       0.0000000000E+00  5.0000000000E-01  3.1621500000E-01
                       5.0000000000E-01  0.0000000000E+00  6.8378500000E-01
                       0.0000000000E+00  0.0000000000E+00  0.0000000000E+00
                       5.0000000000E-01  5.0000000000E-01  0.0000000000E+00
            znucl       39.00000   30.00000   33.00000    8.00000

- Timing analysis has been suppressed with timopt=0

 Suggested references for the acknowledgment of ABINIT usage.

 Calculation completed.
.Delivered  14 WARNINGs and   9 COMMENTs to log file.