.Version 9.5.1 of ABINIT

 ABINIT is a project of the Universite Catholique de Louvain,
 Corning Inc. and other collaborators, see ~abinit/doc/developers/contributors.txt .
 acknowledgments of the ABINIT effort.

.Starting date : Tue  4 May 2021.
- ( at 21h49 )

- input  file    -> /scratch/users/j/a/jabreu/flow_simple_6atoms/flow/w262/t1/run.abi
- output file    -> /scratch/users/j/a/jabreu/flow_simple_6atoms/flow/w262/t1/run.abo
- root for input  files -> /scratch/users/j/a/jabreu/flow_simple_6atoms/flow/w262/t1/indata/in
- root for output files -> /scratch/users/j/a/jabreu/flow_simple_6atoms/flow/w262/t1/outdata/out

 Symmetries : space group P4/m m m (#123); Bravais tP (primitive tetrag.)
     intxc =       0      iscf =       7    lmnmax =      18     lnmax =       6
     mgfft =      72  mpssoang =       3    mqgrid =    3461     natom =       6
  nloc_mem =       1    nspden =       1   nspinor =       1    nsppol =       1
      nsym =      16    n1xccc =    2501    ntypat =       3    occopt =       1
   xclevel =       2
-    mband =          29        mffmem =           1         mkmem =           2
-   mkqmem =           2        mk1mem =           2           mpw =        7391
      nfft =      145800          nkpt =           2
  Rough estimation (10% accuracy) of disk space for files :

------------- Echo of variables that govern the present computation ------------
-
- outvars: echo of selected default values
-   iomode0 =  0 , fftalg0 =512 , wfoptalg0 =  0
-
- outvars: echo of global parameters not present in the input file
-  max_nthreads =    0
-
 -outvars: echo values of preprocessed input variables --------
            acell      1.0000000000E+00  1.0000000000E+00  1.0000000000E+00 Bohr
              amu      8.54678000E+01  2.69815390E+01  1.89984032E+01
             ecut      4.20000000E+01 Hartree
-          fftalg         512
           irdden           1
           irdwfk           1
           istwfk        1    1
              ixc     -116133
              kpt      0.00000000E+00  5.00000000E-01  0.00000000E+00
                       0.00000000E+00  0.00000000E+00  0.00000000E+00
           kptopt           0
P           mkmem           2
P          mkqmem           2
P          mk1mem           2
            natom           6
            nband          29
           nbdbuf           4
            ngfft          45      45      72
             nkpt           2
            nstep        1000
             nsym          16
           ntypat           3
              occ      2.000000  2.000000  2.000000  2.000000  2.000000  2.000000
                       2.000000  2.000000  2.000000  2.000000  2.000000  2.000000
                       2.000000  2.000000  2.000000  2.000000  2.000000  2.000000
                       2.000000  2.000000  0.000000  0.000000  0.000000  0.000000
                       0.000000  0.000000  0.000000  0.000000  0.000000
        optdriver           1
            prtwf          -1
            rfdir           1       1       1
           rfelfd           2
            rprim      6.9208158336E+00  0.0000000000E+00  0.0000000000E+00
                       0.0000000000E+00  6.9208158336E+00  0.0000000000E+00
                       0.0000000000E+00  0.0000000000E+00  1.1861688959E+01
          spgroup         123
           symrel      1  0  0   0  1  0   0  0  1      -1  0  0   0 -1  0   0  0 -1
                      -1  0  0   0  1  0   0  0 -1       1  0  0   0 -1  0   0  0  1
                      -1  0  0   0 -1  0   0  0  1       1  0  0   0  1  0   0  0 -1
                       1  0  0   0 -1  0   0  0 -1      -1  0  0   0  1  0   0  0  1
                       0  1  0   1  0  0   0  0  1       0 -1  0  -1  0  0   0  0 -1
                       0 -1  0   1  0  0   0  0 -1       0  1  0  -1  0  0   0  0  1
                       0 -1  0  -1  0  0   0  0  1       0  1  0   1  0  0   0  0 -1
                       0  1  0  -1  0  0   0  0 -1       0 -1  0   1  0  0   0  0  1
           tolwfr      1.00000000E-20
            typat      1  2  3  3  3  3
           useylm           1
              wtk        0.50000    0.50000
           xangst      0.0000000000E+00  0.0000000000E+00  0.0000000000E+00
                       1.8311690020E+00  1.8311690020E+00  3.1384677263E+00
                       1.8311690020E+00  1.8311690020E+00  4.9083124465E+00
                       1.8311690020E+00  1.8311690020E+00  1.3686230061E+00
                       1.8311690020E+00  0.0000000000E+00  3.1384677263E+00
                       0.0000000000E+00  1.8311690020E+00  3.1384677263E+00
            xcart      0.0000000000E+00  0.0000000000E+00  0.0000000000E+00
                       3.4604079168E+00  3.4604079168E+00  5.9308444796E+00
                       3.4604079168E+00  3.4604079168E+00  9.2753662985E+00
                       3.4604079168E+00  3.4604079168E+00  2.5863226606E+00
                       3.4604079168E+00  0.0000000000E+00  5.9308444796E+00
                       0.0000000000E+00  3.4604079168E+00  5.9308444796E+00
             xred      0.0000000000E+00  0.0000000000E+00  0.0000000000E+00
                       5.0000000000E-01  5.0000000000E-01  5.0000000000E-01
                       5.0000000000E-01  5.0000000000E-01  7.8196000000E-01
                       5.0000000000E-01  5.0000000000E-01  2.1804000000E-01
                       5.0000000000E-01  0.0000000000E+00  5.0000000000E-01
                       0.0000000000E+00  5.0000000000E-01  5.0000000000E-01
            znucl       37.00000   13.00000    9.00000

 chkinp: Checking input parameters for consistency.

== DATASET  1 ==================================================================
-   mpi_nproc: 1, omp_nthreads: -1 (-1 if OMP is not activated)

--- !DatasetInfo
iteration_state: {dtset: 1, }
dimensions: {natom: 6, nkpt: 2, mband: 29, nsppol: 1, nspinor: 1, nspden: 1, mpw: 7391, }
cutoff_energies: {ecut:  42.0, pawecutdg:  -1.0, }
electrons: {nelect:   4.00000000E+01, charge:   0.00000000E+00, occopt:   1.00000000E+00, tsmear:   1.00000000E-02, }
meta: {optdriver: 1, rfelfd: 2, }
...

 Real(R)+Recip(G) space primitive vectors, cartesian coordinates (Bohr,Bohr^-1):
 R(1)=  6.9208158  0.0000000  0.0000000  G(1)=  0.1444916  0.0000000  0.0000000
 R(2)=  0.0000000  6.9208158  0.0000000  G(2)=  0.0000000  0.1444916  0.0000000
 R(3)=  0.0000000  0.0000000 11.8616890  G(3)=  0.0000000  0.0000000  0.0843050
 Unit cell volume ucvol=  5.6814752E+02 bohr^3
 Angles (23,13,12)=  9.00000000E+01  9.00000000E+01  9.00000000E+01 degrees

 getcut: wavevector=  0.0000  0.0000  0.0000  ngfft=  45  45  72
         ecut(hartree)=     42.000   => boxcut(ratio)=   2.08064

--- Pseudopotential description ------------------------------------------------
- pspini: atom type   1  psp file is /scratch/users/j/a/jabreu/pseudos/PBEsol/Rb.psp8
- pspatm: opening atomic psp file    /scratch/users/j/a/jabreu/pseudos/PBEsol/Rb.psp8
- Rb    ONCVPSP-3.3.0  r_core=   1.71227   1.75361   1.90633
- 37.00000   9.00000    180112                znucl, zion, pspdat
    8 -116133    2    4       600   0.00000   pspcod,pspxc,lmax,lloc,mmax,r2well
    5.99000000000000    7.00000000000000    0.00000000000000   rchrg,fchrg,qchrg
     nproj     2     2     2
     extension_switch     1
  pspatm : epsatm=   34.48400912
         --- l  ekb(1:nproj) -->
             0    8.196957   -0.477221
             1    3.231347   -0.378736
             2   -1.047201    0.996637
 pspatm: atomic psp has been read  and splines computed

- pspini: atom type   2  psp file is /scratch/users/j/a/jabreu/pseudos/PBEsol/Al.psp8
- pspatm: opening atomic psp file    /scratch/users/j/a/jabreu/pseudos/PBEsol/Al.psp8
- Al    ONCVPSP-3.3.0  r_core=   1.76802   1.76802   1.70587
- 13.00000   3.00000    180112                znucl, zion, pspdat
    8 -116133    2    4       600   0.00000   pspcod,pspxc,lmax,lloc,mmax,r2well
    5.99000000000000    5.00000000000000    0.00000000000000   rchrg,fchrg,qchrg
     nproj     2     2     2
     extension_switch     1
  pspatm : epsatm=    0.68509324
         --- l  ekb(1:nproj) -->
             0    5.834965    0.726662
             1    6.225605    0.924840
             2   -2.432733   -0.548689
 pspatm: atomic psp has been read  and splines computed

- pspini: atom type   3  psp file is /scratch/users/j/a/jabreu/pseudos/PBEsol/F.psp8
- pspatm: opening atomic psp file    /scratch/users/j/a/jabreu/pseudos/PBEsol/F.psp8
- F     ONCVPSP-3.3.0  r_core=   1.30942   1.45782   1.60379
-  9.00000   7.00000    180112                znucl, zion, pspdat
    8 -116133    2    4       600   0.00000   pspcod,pspxc,lmax,lloc,mmax,r2well
    5.99000000000000    2.50000000000000    0.00000000000000   rchrg,fchrg,qchrg
     nproj     2     2     1
     extension_switch     1
  pspatm : epsatm=    4.89824824
         --- l  ekb(1:nproj) -->
             0    6.506434    1.065875
             1   -3.978753   -1.295852
             2   -2.394754
 pspatm: atomic psp has been read  and splines computed

   2.19048381E+03                                ecore*ucvol(ha*bohr**3)

-inwffil : will read wavefunctions from disk file /scratch/users/j/a/jabreu/flow_simple_6atoms/flow/w262/t1/indata/in_WFK

 ==>  initialize data related to q vector <==

 The list of irreducible perturbations for this q vector is:
    1)    idir= 1    ipert=   7
    2)    idir= 2    ipert=   7
    3)    idir= 3    ipert=   7

 Perturbation wavevector (in red.coord.)   0.000000  0.000000  0.000000
 Perturbation : derivative vs k along direction   1

 dfpt_looppert : COMMENT -
  In a d/dk calculation, iscf is set to -3 automatically.
 The set of symmetries contains only one element for this perturbation.
 symkpt : not enough symmetry to change the number of k points.

[...]

 Initialisation of the first-order wave-functions :
  ireadwf=   0

--- !BeginCycle
iteration_state: {dtset: 1, }
solver: {iscf: 7, nstep: 1000, nline: 4, wfoptalg: 0, }
tolerances: {tolwfr: 1.00E-20, }
...

     iter   2DEtotal(Ha)        deltaE(Ha) residm    vres2
-ETOT  1  -36.458156662129     -3.646E+01 9.198E-02 0.000E+00
 ETOT  2  -36.469436008521     -1.128E-02 1.008E-03 0.000E+00
 ETOT  3  -36.469443071854     -7.063E-06 1.161E-05 0.000E+00
 ETOT  4  -36.469443081845     -9.991E-09 1.908E-07 0.000E+00
 ETOT  5  -36.469443081868     -2.380E-11 2.889E-09 0.000E+00
 ETOT  6  -36.469443081869     -9.237E-14 9.201E-11 0.000E+00
 ETOT  7  -36.469443081869     -2.842E-14 1.704E-12 0.000E+00
 ETOT  8  -36.469443081869      7.105E-15 4.908E-14 0.000E+00
 ETOT  9  -36.469443081869     -2.132E-14 1.346E-15 0.000E+00
 ETOT 10  -36.469443081869      0.000E+00 4.585E-17 0.000E+00
 ETOT 11  -36.469443081869      7.105E-15 1.353E-18 0.000E+00
 ETOT 12  -36.469443081869     -7.105E-15 4.677E-20 0.000E+00
 ETOT 13  -36.469443081869      1.421E-14 9.882E-21 0.000E+00

 At SCF step   13   max residual=  9.88E-21 < tolwfr=  1.00E-20 =>converged.

 ----iterations are completed or convergence reached----

 dfpt_looppert: DFPT cycle converged with prtwf=-1. Will skip output of the 1st-order WFK file.
 dfpt_looppert : ek2=    6.5937904093E+01
          f-sum rule ratio=    1.0652488459E+00
 prteigrs : about to open file /scratch/users/j/a/jabreu/flow_simple_6atoms/flow/w262/t1/tmpdata/tmp_1WF1_EIG
 Expectation of eigenvalue derivatives (hartree) for nkpt=   2  k points:
  (in case of degenerate eigenvalues, averaged derivative)
 kpt#   1, nband= 29, wtk=  0.50000, kpt=  0.0000  0.5000  0.0000 (reduced coord)
   0.00000   -0.00000   -0.00000    0.00000    0.00000   -0.00000   -0.00000    0.00000
  -0.00000   -0.00000   -0.00000    0.00000   -0.00000    0.00000   -0.00000   -0.00000
   0.00000    0.00000   -0.00000   -0.00000    0.00000   -0.00000    0.00000    0.00000
  -0.00000    0.00000    0.00000   -0.00000    0.00000
 prteigrs : prtvol=0 or 1, do not print more k-points.

 Eight components of 2nd-order total energy (hartree) are
 1,2,3: 0th-order hamiltonian combined with 1st-order wavefunctions
     kin0=   3.90890061E+01 eigvalue=   1.92889086E+00  local=  -1.49305082E+01
 4,5,6: 1st-order hamiltonian combined with 1st and 0th-order wfs
     kin1=  -7.02402762E+01  Hartree=   0.00000000E+00     xc=   0.00000000E+00
 7,8,9: eventually, occupation + non-local contributions
    edocc=   1.11092209E+01     enl0=  -7.27166553E-01   enl1=  -2.69860993E+00
 1-9 gives the relaxation energy (to be shifted if some occ is /=2.0)
   erelax=  -3.64694431E+01
  No Ewald or frozen-wf contrib.: the relaxation energy is the total one
 2DEtotal=   -0.3646944308E+02 Ha. Also 2DEtotal=   -0.992384014861E+03 eV
    (  non-var. 2DEtotal :   -3.6469443082E+01 Ha)

 Perturbation wavevector (in red.coord.)   0.000000  0.000000  0.000000
 Perturbation : derivative vs k along direction   2
 The set of symmetries contains only one element for this perturbation.
 symkpt : not enough symmetry to change the number of k points.

[...]

 Perturbation wavevector (in red.coord.)   0.000000  0.000000  0.000000
 Perturbation : derivative vs k along direction   3
 The set of symmetries contains only one element for this perturbation.
 symkpt : not enough symmetry to change the number of k points.

-inwffil : will read wavefunctions from disk file /scratch/users/j/a/jabreu/flow_simple_6atoms/flow/w262/t1/indata/in_WFK

 Initialisation of the first-order wave-functions :
  ireadwf=   0

--- !BeginCycle
iteration_state: {dtset: 1, }
solver: {iscf: 7, nstep: 1000, nline: 4, wfoptalg: 0, }
tolerances: {tolwfr: 1.00E-20, }
...

     iter   2DEtotal(Ha)        deltaE(Ha) residm    vres2
-ETOT  1  -11.808623699568     -1.181E+01 9.456E-03 0.000E+00
 ETOT  2  -11.814293794603     -5.670E-03 2.631E-05 0.000E+00
 ETOT  3  -11.814298377687     -4.583E-06 3.732E-07 0.000E+00
 ETOT  4  -11.814298389993     -1.231E-08 6.884E-09 0.000E+00
 ETOT  5  -11.814298390059     -6.595E-11 6.021E-11 0.000E+00
 ETOT  6  -11.814298390060     -5.578E-13 1.522E-12 0.000E+00
 ETOT  7  -11.814298390060     -1.954E-14 1.703E-14 0.000E+00
 ETOT  8  -11.814298390060      0.000E+00 5.009E-16 0.000E+00
 ETOT  9  -11.814298390060     -7.105E-15 5.785E-18 0.000E+00
 ETOT 10  -11.814298390060      5.329E-15 1.784E-19 0.000E+00
 ETOT 11  -11.814298390060      0.000E+00 9.353E-21 0.000E+00

 At SCF step   11   max residual=  9.35E-21 < tolwfr=  1.00E-20 =>converged.

 ----iterations are completed or convergence reached----

 dfpt_looppert: DFPT cycle converged with prtwf=-1. Will skip output of the 1st-order WFK file.
 dfpt_looppert : ek2=    2.2446914918E+01
          f-sum rule ratio=    1.0123515033E+00
 prteigrs : about to open file /scratch/users/j/a/jabreu/flow_simple_6atoms/flow/w262/t1/tmpdata/tmp_1WF1_EIG
 Expectation of eigenvalue derivatives (hartree) for nkpt=   2  k points:
  (in case of degenerate eigenvalues, averaged derivative)
 kpt#   1, nband= 29, wtk=  0.50000, kpt=  0.0000  0.5000  0.0000 (reduced coord)
  -0.00000    0.00000    0.00000   -0.00000   -0.00000   -0.00000   -0.00000    0.00000
   0.00000    0.00000    0.00000    0.00000   -0.00000   -0.00000    0.00000    0.00000
   0.00000   -0.00000   -0.00000    0.00000    0.00000   -0.00000   -0.00000    0.00000
  -0.00000   -0.00000    0.00000   -0.00000    0.00000
 prteigrs : prtvol=0 or 1, do not print more k-points.

 Eight components of 2nd-order total energy (hartree) are
 1,2,3: 0th-order hamiltonian combined with 1st-order wavefunctions
     kin0=   1.38709130E+01 eigvalue=   7.11817683E-01  local=  -5.56927318E+00
 4,5,6: 1st-order hamiltonian combined with 1st and 0th-order wfs
     kin1=  -2.27241681E+01  Hartree=   0.00000000E+00     xc=   0.00000000E+00
 7,8,9: eventually, occupation + non-local contributions
    edocc=   2.82108902E+00     enl0=  -2.02481669E-02   enl1=  -9.04428718E-01
 1-9 gives the relaxation energy (to be shifted if some occ is /=2.0)
   erelax=  -1.18142984E+01
  No Ewald or frozen-wf contrib.: the relaxation energy is the total one
 2DEtotal=   -0.1181429839E+02 Ha. Also 2DEtotal=   -0.321483408528E+03 eV
    (  non-var. 2DEtotal :   -1.1814298390E+01 Ha)

 CALCULATION OF EFFECTIVE MASSES
 NOTE : Additional infos (eff. mass eigenvalues, eigenvectors and, if degenerate, average mass) are available in stdout.

 K-point ( 0.000, 0.500, 0.000) | band =    20
 Effective mass tensor:
             -9.4497241801              0.0000000001              0.0000000115
              0.0000000001             -2.6420934404              0.0000009596
              0.0000000115              0.0000009596             -2.3404684068
 Effective mass tensor eigenvalues:
             -9.4497241801             -2.6420934404             -2.3404684068
 Angular average effective mass 1/(<1/m>)=  -3.2910042754
 Angular average effective mass for Frohlich model (<m**0.5>)**2=  -3.5933924343
 Effective masses along directions: (cart. coord. / red. coord. -> eff. mass)
    1:   1.000000  0.000000  0.000000 /   1.000000  0.000000  0.000000 ->  -9.4497241801
    2:   0.000000  1.000000  0.000000 /   0.000000  1.000000  0.000000 ->  -2.6420934404
    3:   0.000000  0.000000  1.000000 /   0.000000  0.000000  1.000000 ->  -2.3404684068
    4:   0.577350  0.577350  0.577350 /   0.450035  0.450035  0.771322 ->  -3.2910031511
    5:   0.000000  0.707107  0.707107 /   0.000000  0.503952  0.863731 ->  -2.4821503607
    6:   0.707107  0.000000  0.707107 /   0.503952  0.000000  0.863731 ->  -3.7517251208
    7:   0.707107  0.707107  0.000000 /   0.707107  0.707107  0.000000 ->  -4.1295783732

 K-point ( 0.000, 0.000, 0.000) | band =    21
 Effective mass tensor:
              0.4940893987              0.0000000000              0.0000000000
              0.0000000000              0.4940893987              0.0000000000
              0.0000000000              0.0000000000              0.5012543984
 Effective mass tensor eigenvalues:
              0.4940893987              0.4940893987              0.5012543984
 Angular average effective mass 1/(<1/m>)=   0.4964548635
 Angular average effective mass for Frohlich model (<m**0.5>)**2=   0.4964617067
 Effective masses along directions: (cart. coord. / red. coord. -> eff. mass)
    1:   1.000000  0.000000  0.000000 /   1.000000  0.000000  0.000000 ->   0.4940893987
    2:   0.000000  1.000000  0.000000 /   0.000000  1.000000  0.000000 ->   0.4940893987
    3:   0.000000  0.000000  1.000000 /   0.000000  0.000000  1.000000 ->   0.5012543984
    4:   0.577350  0.577350  0.577350 /   0.450035  0.450035  0.771322 ->   0.4964548636
    5:   0.000000  0.707107  0.707107 /   0.000000  0.503952  0.863731 ->   0.4976461099
    6:   0.707107  0.000000  0.707107 /   0.503952  0.000000  0.863731 ->   0.4976461099
    7:   0.707107  0.707107  0.000000 /   0.707107  0.707107  0.000000 ->   0.4940893987

 END OF EFFECTIVE MASSES SECTION

 ---- first-order wavefunction calculations are completed ----

 Total localisation tensor (bohr^2) in cartesian coordinates
  WARNING : still subject to testing - especially symmetries.
      direction              matrix element
   alpha     beta       real part   imaginary part
     1        1       0.5610510093    0.0000000000
     1        2       0.0000000000    0.0000000000
     1        3       0.0000000000    0.0000000000
     2        1       0.0000000000    0.0000000000
     2        2       0.4997488302    0.0000000000
     2        3       0.0000000000    0.0000000000
     3        1       0.0000000000    0.0000000000
     3        2       0.0000000000    0.0000000000
     3        3       0.4974524542    0.0000000000

 respfn : d/dk was computed, but no 2DTE, so no DDB output.

== END DATASET(S) ==============================================================

 -outvars: echo values of variables after computation  --------
            acell      1.0000000000E+00  1.0000000000E+00  1.0000000000E+00 Bohr
              amu      8.54678000E+01  2.69815390E+01  1.89984032E+01
             ecut      4.20000000E+01 Hartree
           etotal     -1.1814298390E+01
            fcart      0.0000000000E+00  0.0000000000E+00  0.0000000000E+00
                       0.0000000000E+00  0.0000000000E+00  0.0000000000E+00
                       0.0000000000E+00  0.0000000000E+00  0.0000000000E+00
                       0.0000000000E+00  0.0000000000E+00  0.0000000000E+00
                       0.0000000000E+00  0.0000000000E+00  0.0000000000E+00
                       0.0000000000E+00  0.0000000000E+00  0.0000000000E+00
-          fftalg         512
           irdden           1
           irdwfk           1
           istwfk        1    1
              ixc     -116133
              kpt      0.00000000E+00  5.00000000E-01  0.00000000E+00
                       0.00000000E+00  0.00000000E+00  0.00000000E+00
           kptopt           0
P           mkmem           2
P          mkqmem           2
P          mk1mem           2
            natom           6
            nband          29
           nbdbuf           4
            ngfft          45      45      72
             nkpt           2
            nstep        1000
             nsym          16
           ntypat           3
              occ      2.000000  2.000000  2.000000  2.000000  2.000000  2.000000
                       2.000000  2.000000  2.000000  2.000000  2.000000  2.000000
                       2.000000  2.000000  2.000000  2.000000  2.000000  2.000000
                       2.000000  2.000000  0.000000  0.000000  0.000000  0.000000
                       0.000000  0.000000  0.000000  0.000000  0.000000
        optdriver           1
            prtwf          -1
            rfdir           1       1       1
           rfelfd           2
            rprim      6.9208158336E+00  0.0000000000E+00  0.0000000000E+00
                       0.0000000000E+00  6.9208158336E+00  0.0000000000E+00
                       0.0000000000E+00  0.0000000000E+00  1.1861688959E+01
          spgroup         123
           strten      0.0000000000E+00  0.0000000000E+00  0.0000000000E+00
                       0.0000000000E+00  0.0000000000E+00  0.0000000000E+00
           symrel      1  0  0   0  1  0   0  0  1      -1  0  0   0 -1  0   0  0 -1
                      -1  0  0   0  1  0   0  0 -1       1  0  0   0 -1  0   0  0  1
                      -1  0  0   0 -1  0   0  0  1       1  0  0   0  1  0   0  0 -1
                       1  0  0   0 -1  0   0  0 -1      -1  0  0   0  1  0   0  0  1
                       0  1  0   1  0  0   0  0  1       0 -1  0  -1  0  0   0  0 -1
                       0 -1  0   1  0  0   0  0 -1       0  1  0  -1  0  0   0  0  1
                       0 -1  0  -1  0  0   0  0  1       0  1  0   1  0  0   0  0 -1
                       0  1  0  -1  0  0   0  0 -1       0 -1  0   1  0  0   0  0  1
           tolwfr      1.00000000E-20
            typat      1  2  3  3  3  3
           useylm           1
              wtk        0.50000    0.50000
           xangst      0.0000000000E+00  0.0000000000E+00  0.0000000000E+00
                       1.8311690020E+00  1.8311690020E+00  3.1384677263E+00
                       1.8311690020E+00  1.8311690020E+00  4.9083124465E+00
                       1.8311690020E+00  1.8311690020E+00  1.3686230061E+00
                       1.8311690020E+00  0.0000000000E+00  3.1384677263E+00
                       0.0000000000E+00  1.8311690020E+00  3.1384677263E+00
            xcart      0.0000000000E+00  0.0000000000E+00  0.0000000000E+00
                       3.4604079168E+00  3.4604079168E+00  5.9308444796E+00
                       3.4604079168E+00  3.4604079168E+00  9.2753662985E+00
                       3.4604079168E+00  3.4604079168E+00  2.5863226606E+00
                       3.4604079168E+00  0.0000000000E+00  5.9308444796E+00
                       0.0000000000E+00  3.4604079168E+00  5.9308444796E+00
             xred      0.0000000000E+00  0.0000000000E+00  0.0000000000E+00
                       5.0000000000E-01  5.0000000000E-01  5.0000000000E-01
                       5.0000000000E-01  5.0000000000E-01  7.8196000000E-01
                       5.0000000000E-01  5.0000000000E-01  2.1804000000E-01
                       5.0000000000E-01  0.0000000000E+00  5.0000000000E-01
                       0.0000000000E+00  5.0000000000E-01  5.0000000000E-01
            znucl       37.00000   13.00000    9.00000

- Timing analysis has been suppressed with timopt=0

 Suggested references for the acknowledgment of ABINIT usage.

 Calculation completed.
.Delivered  14 WARNINGs and   9 COMMENTs to log file.