.Version 9.5.2 of ABINIT

 ABINIT is a project of the Universite Catholique de Louvain,
 Corning Inc. and other collaborators, see ~abinit/doc/developers/contributors.txt .
 acknowledgments of the ABINIT effort.

.Starting date : Mon 31 May 2021.
- ( at 22h27 )

- input  file    -> /scratch/users/j/a/jabreu/flow_simple_11atoms/flow/w364/t1/run.abi
- output file    -> /scratch/users/j/a/jabreu/flow_simple_11atoms/flow/w364/t1/run.abo
- root for input  files -> /scratch/users/j/a/jabreu/flow_simple_11atoms/flow/w364/t1/indata/in
- root for output files -> /scratch/users/j/a/jabreu/flow_simple_11atoms/flow/w364/t1/outdata/out

 Symmetries : space group C2/m (# 12); Bravais mC (1-face-center monocl.)
     intxc =       0      iscf =       7    lmnmax =      18     lnmax =       6
     mgfft =      64  mpssoang =       3    mqgrid =    3001     natom =      11
  nloc_mem =       1    nspden =       1   nspinor =       1    nsppol =       1
      nsym =       4    n1xccc =    2501    ntypat =       3    occopt =       1
   xclevel =       2
-    mband =          57        mffmem =           1         mkmem =           1
-   mkqmem =           1        mk1mem =           1           mpw =       13485
      nfft =      245760          nkpt =           1
  Rough estimation (10% accuracy) of disk space for files :

------------- Echo of variables that govern the present computation ------------
-
- outvars: echo of selected default values
-   iomode0 =  0 , fftalg0 =512 , wfoptalg0 =  0
-
- outvars: echo of global parameters not present in the input file
-  max_nthreads =    0
-
 -outvars: echo values of preprocessed input variables --------
            acell      1.0000000000E+00  1.0000000000E+00  1.0000000000E+00 Bohr
              amu      1.14820000E+02  7.26100000E+01  1.59994000E+01
             ecut      4.40000000E+01 Hartree
-          fftalg         512
           irdden           1
           irdwfk           1
           istwfk        1
              ixc     -116133
           kptopt           0
P           mkmem           1
P          mkqmem           1
P          mk1mem           1
            natom          11
            nband          57
           nbdbuf           4
            ngfft          64      64      60
             nkpt           1
            nstep        2000
             nsym           4
           ntypat           3
              occ      2.000000  2.000000  2.000000  2.000000  2.000000  2.000000
                       2.000000  2.000000  2.000000  2.000000  2.000000  2.000000
                       2.000000  2.000000  2.000000  2.000000  2.000000  2.000000
                       2.000000  2.000000  2.000000  2.000000  2.000000  2.000000
                       2.000000  2.000000  2.000000  2.000000  2.000000  2.000000
                       2.000000  2.000000  2.000000  2.000000  2.000000  2.000000
                       2.000000  2.000000  2.000000  2.000000  2.000000  2.000000
                       2.000000  2.000000  2.000000  2.000000  2.000000  2.000000
                       0.000000  0.000000  0.000000  0.000000  0.000000  0.000000
                       0.000000  0.000000  0.000000
        optdriver           1
            prtwf          -1
            rfdir           1       1       1
           rfelfd           2
            rprim      1.0396529770E+01  0.0000000000E+00  1.3140784879E+00
                      -3.1176299433E+00  9.9180751560E+00  1.3140784879E+00
                       0.0000000000E+00  0.0000000000E+00  9.3683189069E+00
          spgroup          12
           symrel      1  0  0   0  1  0   0  0  1      -1  0  0   0 -1  0   0  0 -1
                       0 -1  0  -1  0  0   0  0 -1       0  1  0   1  0  0   0  0  1
           tolwfr      1.00000000E-20
            typat      1  1  2  2  3  3  3  3  3  3  3
           useylm           1
           xangst      3.3061670685E+00  1.6112384909E+00  6.9538038610E-01
                       5.4566082356E-01  3.6371808348E+00  6.9538038610E-01
                       2.9400925264E+00  4.0061079744E+00  3.0739979378E+00
                       9.1173536571E-01  1.2423113512E+00  3.2742636828E+00
                      -2.6385524146E-01  2.1362063855E+00  4.2407400171E+00
                       1.7348081780E+00  4.8595429441E+00  2.1075216034E+00
                       4.1156831335E+00  3.1122129401E+00  2.1075216034E+00
                       2.1170197141E+00  3.8887638151E-01  4.2407400171E+00
                       0.0000000000E+00  0.0000000000E+00  2.4787504242E+00
                       1.5897880369E+00  2.1662115988E+00  1.9305479102E+00
                       2.2620398552E+00  3.0822077269E+00  4.4177137103E+00
            xcart      6.2477503090E+00  3.0447994825E+00  1.3140784879E+00
                       1.0311495180E+00  6.8732756735E+00  1.3140784879E+00
                       5.5559696801E+00  7.5704469304E+00  5.8090142354E+00
                       1.7229301469E+00  2.3476282256E+00  6.1874616473E+00
                      -4.9861414509E-01  4.0368450319E+00  8.0138372331E+00
                       3.2783123494E+00  9.1832052954E+00  3.9826386496E+00
                       7.7775139721E+00  5.8812301241E+00  3.9826386496E+00
                       4.0005874776E+00  7.3486986061E-01  8.0138372331E+00
                       0.0000000000E+00  0.0000000000E+00  4.6841594534E+00
                       3.0042639990E+00  4.0935466676E+00  3.6482068367E+00
                       4.2746358280E+00  5.8245284884E+00  8.3482690460E+00
             xred      6.9300500000E-01  3.0699500000E-01  0.0000000000E+00
                       3.0699500000E-01  6.9300500000E-01 -3.1225022568E-17
                       7.6329800000E-01  7.6329800000E-01  4.0593700000E-01
                       2.3670200000E-01  2.3670200000E-01  5.9406300000E-01
                       7.4094000000E-02  4.0701900000E-01  7.8793400000E-01
                       5.9298100000E-01  9.2590600000E-01  2.1206600000E-01
                       9.2590600000E-01  5.9298100000E-01  2.1206600000E-01
                       4.0701900000E-01  7.4094000000E-02  7.8793400000E-01
                       0.0000000000E+00  0.0000000000E+00  5.0000000000E-01
                       4.1273600000E-01  4.1273600000E-01  2.7363200000E-01
                       5.8726400000E-01  5.8726400000E-01  7.2636800000E-01
            znucl       49.00000   32.00000    8.00000

 chkinp: Checking input parameters for consistency.

== DATASET  1 ==================================================================
-   mpi_nproc: 1, omp_nthreads: -1 (-1 if OMP is not activated)

--- !DatasetInfo
iteration_state: {dtset: 1, }
dimensions: {natom: 11, nkpt: 1, mband: 57, nsppol: 1, nspinor: 1, nspden: 1, mpw: 13485, }
cutoff_energies: {ecut:  44.0, pawecutdg:  -1.0, }
electrons: {nelect:   9.60000000E+01, charge:   0.00000000E+00, occopt:   1.00000000E+00, tsmear:   1.00000000E-02, }
meta: {optdriver: 1, rfelfd: 2, }
...

 Real(R)+Recip(G) space primitive vectors, cartesian coordinates (Bohr,Bohr^-1):
 R(1)= 10.3965298  0.0000000  1.3140785  G(1)=  0.0961859  0.0302349  0.0000000
 R(2)= -3.1176299  9.9180752  1.3140785  G(2)=  0.0000000  0.1008260  0.0000000
 R(3)=  0.0000000  0.0000000  9.3683189  G(3)= -0.0134918 -0.0183837  0.1067427
 Unit cell volume ucvol=  9.6600075E+02 bohr^3
 Angles (23,13,12)=  8.27962499E+01  8.27962499E+01  1.06226312E+02 degrees

 getcut: wavevector=  0.0000  0.0000  0.0000  ngfft=  64  64  60
         ecut(hartree)=     44.000   => boxcut(ratio)=   2.04554

--- Pseudopotential description ------------------------------------------------
- pspini: atom type   1  psp file is /scratch/users/j/a/jabreu/pseudos/PBEsol/In.psp8
- pspatm: opening atomic psp file    /scratch/users/j/a/jabreu/pseudos/PBEsol/In.psp8
- In    ONCVPSP-3.3.0  r_core=   2.10853   2.37566   1.87143
- 49.00000  13.00000    180112                znucl, zion, pspdat
    8 -116133    2    4       600   0.00000   pspcod,pspxc,lmax,lloc,mmax,r2well
    5.99000000000000    5.00000000000000    0.00000000000000   rchrg,fchrg,qchrg
     nproj     2     2     2
     extension_switch     1
  pspatm : epsatm=   25.17984752
         --- l  ekb(1:nproj) -->
             0   12.999887    1.931740
             1    5.981707    1.012544
             2   -4.048011   -1.239028
 pspatm: atomic psp has been read  and splines computed

- pspini: atom type   2  psp file is /scratch/users/j/a/jabreu/pseudos/PBEsol/Ge.psp8
- pspatm: opening atomic psp file    /scratch/users/j/a/jabreu/pseudos/PBEsol/Ge.psp8
- Ge    ONCVPSP-3.3.0  r_core=   1.91022   1.82122   1.91022
- 32.00000  14.00000    180112                znucl, zion, pspdat
    8 -116133    2    4       600   0.00000   pspcod,pspxc,lmax,lloc,mmax,r2well
    5.99000000000000    5.00000000000000    0.00000000000000   rchrg,fchrg,qchrg
     nproj     2     2     2
     extension_switch     1
  pspatm : epsatm=   30.86751540
         --- l  ekb(1:nproj) -->
             0    6.339734    0.583066
             1    3.813259    0.738801
             2   -9.332373   -3.602819
 pspatm: atomic psp has been read  and splines computed

- pspini: atom type   3  psp file is /scratch/users/j/a/jabreu/pseudos/PBEsol/O.psp8
- pspatm: opening atomic psp file    /scratch/users/j/a/jabreu/pseudos/PBEsol/O.psp8
- O     ONCVPSP-3.3.0  r_core=   1.35509   1.45563   1.26150
-  8.00000   6.00000    180112                znucl, zion, pspdat
    8 -116133    2    4       600   0.00000   pspcod,pspxc,lmax,lloc,mmax,r2well
    5.99000000000000    4.00000000000000    0.00000000000000   rchrg,fchrg,qchrg
     nproj     2     2     1
     extension_switch     1
  pspatm : epsatm=    6.22910522
         --- l  ekb(1:nproj) -->
             0    6.050032    0.820363
             1   -4.739617   -1.153841
             2   -1.335834
 pspatm: atomic psp has been read  and splines computed

   1.49470524E+04                                ecore*ucvol(ha*bohr**3)

 ==>  initialize data related to q vector <==

 The list of irreducible perturbations for this q vector is:
    1)    idir= 1    ipert=  12
    2)    idir= 2    ipert=  12
    3)    idir= 3    ipert=  12

 Perturbation wavevector (in red.coord.)   0.000000  0.000000  0.000000
 Perturbation : derivative vs k along direction   1

 dfpt_looppert : COMMENT -
  In a d/dk calculation, iscf is set to -3 automatically.
 The set of symmetries contains only one element for this perturbation.
 symkpt : not enough symmetry to change the number of k points.

 Initialisation of the first-order wave-functions :
  ireadwf=   0

--- !BeginCycle
iteration_state: {dtset: 1, }
solver: {iscf: 7, nstep: 2000, nline: 4, wfoptalg: 0, }
tolerances: {tolwfr: 1.00E-20, }
...

     iter   2DEtotal(Ha)        deltaE(Ha) residm    vres2
-ETOT  1  -72.223282089142     -7.222E+01 2.354E-01 0.000E+00
 ETOT  2  -72.387301705458     -1.640E-01 4.203E-02 0.000E+00
 ETOT  3  -72.389684919172     -2.383E-03 7.255E-03 0.000E+00
 ETOT  4  -72.389746918468     -6.200E-05 1.456E-03 0.000E+00
 ETOT  5  -72.389748811581     -1.893E-06 3.274E-04 0.000E+00
 ETOT  6  -72.389748874569     -6.299E-08 6.922E-05 0.000E+00
[...]
 ETOT 27  -72.389748876856     -1.421E-14 2.465E-17 0.000E+00
 ETOT 28  -72.389748876856      0.000E+00 6.544E-18 0.000E+00
 ETOT 29  -72.389748876856      0.000E+00 1.922E-18 0.000E+00
 ETOT 30  -72.389748876856      0.000E+00 5.109E-19 0.000E+00
 ETOT 31  -72.389748876856      0.000E+00 1.502E-19 0.000E+00
 ETOT 32  -72.389748876856      1.421E-14 3.994E-20 0.000E+00
 ETOT 33  -72.389748876856     -1.421E-14 1.175E-20 0.000E+00
 ETOT 34  -72.389748876856      0.000E+00 9.965E-21 0.000E+00

 At SCF step   34   max residual=  9.97E-21 < tolwfr=  1.00E-20 =>converged.

 ----iterations are completed or convergence reached----

 dfpt_looppert: DFPT cycle converged with prtwf=-1. Will skip output of the 1st-order WFK file.
 dfpt_looppert : ek2=    7.7055949377E+01
          f-sum rule ratio=    1.0752384554E+00
 prteigrs : about to open file /scratch/users/j/a/jabreu/flow_simple_11atoms/flow/w364/t1/tmpdata/tmp_1WF1_EIG
 Expectation of eigenvalue derivatives (hartree) for nkpt=   1  k points:
  (in case of degenerate eigenvalues, averaged derivative)
 kpt#   1, nband= 57, wtk=  1.00000, kpt=  0.0000  0.0000  0.0000 (reduced coord)
  -0.00000    0.00000    0.00000    0.00000   -0.00000   -0.00000    0.00000    0.00000
   0.00000   -0.00000    0.00000    0.00000   -0.00000   -0.00000   -0.00000   -0.00000
  -0.00000    0.00000   -0.00000    0.00000    0.00000   -0.00000   -0.00000   -0.00000
   0.00000    0.00000    0.00000    0.00000    0.00000   -0.00000    0.00000   -0.00000
  -0.00000   -0.00000    0.00000    0.00000    0.00000    0.00000    0.00000    0.00000
  -0.00000    0.00000    0.00000   -0.00000    0.00000   -0.00000   -0.00000   -0.00000
  -0.00000   -0.00000   -0.00000   -0.00000   -0.00000   -0.00000    0.00000    0.00000
   0.00092

 Eight components of 2nd-order total energy (hartree) are
 1,2,3: 0th-order hamiltonian combined with 1st-order wavefunctions
     kin0=   9.15624808E+01 eigvalue=   5.97341560E+00  local=  -3.92807630E+01
 4,5,6: 1st-order hamiltonian combined with 1st and 0th-order wfs
     kin1=  -8.28535200E+01  Hartree=   0.00000000E+00     xc=   0.00000000E+00
 7,8,9: eventually, occupation + non-local contributions
    edocc=   7.73554520E+00     enl0=   6.39907028E+00   enl1=  -6.19259778E+01
 1-9 gives the relaxation energy (to be shifted if some occ is /=2.0)
   erelax=  -7.23897489E+01
  No Ewald or frozen-wf contrib.: the relaxation energy is the total one
 2DEtotal=   -0.7238974888E+02 Ha. Also 2DEtotal=   -0.196982524422E+04 eV
    (  non-var. 2DEtotal :   -7.2389748877E+01 Ha)

 Perturbation wavevector (in red.coord.)   0.000000  0.000000  0.000000
 Perturbation : derivative vs k along direction   2
 The set of symmetries contains only one element for this perturbation.
 symkpt : not enough symmetry to change the number of k points.

[...]

 Perturbation wavevector (in red.coord.)   0.000000  0.000000  0.000000
 Perturbation : derivative vs k along direction   3
 The set of symmetries contains only one element for this perturbation.
 symkpt : not enough symmetry to change the number of k points.

 Initialisation of the first-order wave-functions :
  ireadwf=   0

--- !BeginCycle
iteration_state: {dtset: 1, }
solver: {iscf: 7, nstep: 2000, nline: 4, wfoptalg: 0, }
tolerances: {tolwfr: 1.00E-20, }
...

     iter   2DEtotal(Ha)        deltaE(Ha) residm    vres2
-ETOT  1  -84.247521661806     -8.425E+01 1.054E-01 0.000E+00
 ETOT  2  -84.384909528640     -1.374E-01 2.530E-02 0.000E+00
 ETOT  3  -84.386311295931     -1.402E-03 1.050E-03 0.000E+00
 ETOT  4  -84.386342303874     -3.101E-05 3.952E-04 0.000E+00
 ETOT  5  -84.386343237710     -9.338E-07 2.387E-05 0.000E+00
 ETOT  6  -84.386343271216     -3.351E-08 9.390E-06 0.000E+00
 ETOT  7  -84.386343272530     -1.314E-09 6.722E-07 0.000E+00
 ETOT  8  -84.386343272584     -5.441E-11 2.606E-07 0.000E+00
 ETOT  9  -84.386343272587     -2.331E-12 2.009E-08 0.000E+00
 ETOT 10  -84.386343272587     -1.279E-13 7.803E-09 0.000E+00
 ETOT 11  -84.386343272587     -4.263E-14 6.130E-10 0.000E+00
 ETOT 12  -84.386343272587      1.421E-14 2.402E-10 0.000E+00
 ETOT 13  -84.386343272587      0.000E+00 1.903E-11 0.000E+00
 ETOT 14  -84.386343272587      0.000E+00 7.594E-12 0.000E+00
 ETOT 15  -84.386343272587      1.421E-14 6.089E-13 0.000E+00
 ETOT 16  -84.386343272587      0.000E+00 2.504E-13 0.000E+00
 ETOT 17  -84.386343272587      1.421E-14 2.050E-14 0.000E+00
 ETOT 18  -84.386343272587      1.421E-14 8.805E-15 0.000E+00
 ETOT 19  -84.386343272587     -2.842E-14 7.452E-16 0.000E+00
 ETOT 20  -84.386343272587      0.000E+00 3.367E-16 0.000E+00
 ETOT 21  -84.386343272587      0.000E+00 2.976E-17 0.000E+00
 ETOT 22  -84.386343272587      0.000E+00 1.418E-17 0.000E+00
 ETOT 23  -84.386343272587      0.000E+00 1.290E-18 0.000E+00
 ETOT 24  -84.386343272587      1.421E-14 6.477E-19 0.000E+00
 ETOT 25  -84.386343272587     -1.421E-14 5.919E-20 0.000E+00
 ETOT 26  -84.386343272587      0.000E+00 3.095E-20 0.000E+00
 ETOT 27  -84.386343272587      0.000E+00 9.941E-21 0.000E+00

 At SCF step   27   max residual=  9.94E-21 < tolwfr=  1.00E-20 =>converged.

 ----iterations are completed or convergence reached----

 dfpt_looppert: DFPT cycle converged with prtwf=-1. Will skip output of the 1st-order WFK file.
 dfpt_looppert : ek2=    9.0306422000E+01
          f-sum rule ratio=    1.0637060067E+00
 prteigrs : about to open file /scratch/users/j/a/jabreu/flow_simple_11atoms/flow/w364/t1/tmpdata/tmp_1WF1_EIG
 Expectation of eigenvalue derivatives (hartree) for nkpt=   1  k points:
  (in case of degenerate eigenvalues, averaged derivative)
 kpt#   1, nband= 57, wtk=  1.00000, kpt=  0.0000  0.0000  0.0000 (reduced coord)
   0.00000    0.00000   -0.00000    0.00000   -0.00000    0.00000    0.00000   -0.00000
   0.00000   -0.00000   -0.00000    0.00000   -0.00000   -0.00000    0.00000   -0.00000
   0.00000    0.00000    0.00000   -0.00000    0.00000    0.00000   -0.00000   -0.00000
   0.00000   -0.00000   -0.00000   -0.00000    0.00000   -0.00000    0.00000    0.00000
   0.00000   -0.00000   -0.00000   -0.00000    0.00000    0.00000   -0.00000    0.00000
   0.00000   -0.00000   -0.00000   -0.00000    0.00000    0.00000    0.00000   -0.00000
   0.00000    0.00000   -0.00000   -0.00000   -0.00000    0.00000   -0.00000   -0.00000
   0.00047

 Eight components of 2nd-order total energy (hartree) are
 1,2,3: 0th-order hamiltonian combined with 1st-order wavefunctions
     kin0=   1.05360273E+02 eigvalue=   7.24893433E+00  local=  -4.49579342E+01
 4,5,6: 1st-order hamiltonian combined with 1st and 0th-order wfs
     kin1=  -9.60594835E+01  Hartree=   0.00000000E+00     xc=   0.00000000E+00
 7,8,9: eventually, occupation + non-local contributions
    edocc=   8.85461458E+00     enl0=   7.88045574E+00   enl1=  -7.27132030E+01
 1-9 gives the relaxation energy (to be shifted if some occ is /=2.0)
   erelax=  -8.43863433E+01
  No Ewald or frozen-wf contrib.: the relaxation energy is the total one
 2DEtotal=   -0.8438634327E+02 Ha. Also 2DEtotal=   -0.229626917933E+04 eV
    (  non-var. 2DEtotal :   -8.4386343272E+01 Ha)

 CALCULATION OF EFFECTIVE MASSES
 NOTE : Additional infos (eff. mass eigenvalues, eigenvectors and, if degenerate, average mass) are available in stdout.

 K-point ( 0.000, 0.000, 0.000) | band =    48
 Effective mass tensor:
            -24.3608959348             16.3614329023              1.2668471101
             16.3614329023            -14.0759257453              1.7275152322
              1.2668471101              1.7275152322             -3.2792256992
 Effective mass tensor eigenvalues:
            -36.3689688564             -4.8997615851             -0.4473169378
 Angular average effective mass 1/(<1/m>)=  -1.2159834132
 Angular average effective mass for Frohlich model (<m**0.5>)**2=  -2.3946391723
 Effective masses along directions: (cart. coord. / red. coord. -> eff. mass)
    1:   1.000000  0.000000  0.000000 /   0.957860 -0.287236  0.000000 ->  -1.8462933988
    2:   0.000000  1.000000  0.000000 /   0.000000  1.000000  0.000000 ->  -1.0182879503
    3:   0.000000  0.000000  1.000000 /   0.137587  0.137587  0.980887 ->  -1.0599140822
    4:   0.577350  0.577350  0.577350 /   0.686784  0.475887  0.549417 ->  -0.4544921332
    5:   0.000000  0.707107  0.707107 /   0.089484  0.764865  0.637945 ->  -0.5711875707
    6:   0.707107  0.000000  0.707107 /   0.775288 -0.119402  0.620219 ->  -0.7570924415
    7:   0.707107  0.707107  0.000000 /   0.836870  0.547402  0.000000 ->  -0.6838188621

 K-point ( 0.000, 0.000, 0.000) | band =    49
 Effective mass tensor:
              0.2379233343             -0.0096210179             -0.0040676472
             -0.0096210179              0.2318747851             -0.0055424331
             -0.0040676472             -0.0055424331              0.2428066457
 Effective mass tensor eigenvalues:
              0.2224877812              0.2449842084              0.2451327756
 Angular average effective mass 1/(<1/m>)=   0.2370427223
 Angular average effective mass for Frohlich model (<m**0.5>)**2=   0.2371927459
 Effective masses along directions: (cart. coord. / red. coord. -> eff. mass)
    1:   1.000000  0.000000  0.000000 /   0.957860 -0.287236  0.000000 ->   0.2374480280
    2:   0.000000  1.000000  0.000000 /   0.000000  1.000000  0.000000 ->   0.2313515618
    3:   0.000000  0.000000  1.000000 /   0.137587  0.137587  0.980887 ->   0.2425964082
    4:   0.577350  0.577350  0.577350 /   0.686784  0.475887  0.549417 ->   0.2245272325
    5:   0.000000  0.707107  0.707107 /   0.089484  0.764865  0.637945 ->   0.2312741635
    6:   0.707107  0.000000  0.707107 /   0.775288 -0.119402  0.620219 ->   0.2357744050
    7:   0.707107  0.707107  0.000000 /   0.836870  0.547402  0.000000 ->   0.2250497314

 END OF EFFECTIVE MASSES SECTION

 ---- first-order wavefunction calculations are completed ----

 Total localisation tensor (bohr^2) in cartesian coordinates
  WARNING : still subject to testing - especially symmetries.
      direction              matrix element
   alpha     beta       real part   imaginary part
     1        1       1.1259150024    0.0000000000
     1        2      -0.2955182216    0.0000000000
     1        3       0.0914155792    0.0000000000
     2        1      -0.2955182216    0.0000000000
     2        2       0.9401282337    0.0000000000
     2        3       0.1245606903    0.0000000000
     3        1       0.0914155792    0.0000000000
     3        2       0.1245606903    0.0000000000
     3        3       0.9806182375    0.0000000000

 respfn : d/dk was computed, but no 2DTE, so no DDB output.

== END DATASET(S) ==============================================================

 -outvars: echo values of variables after computation  --------
            acell      1.0000000000E+00  1.0000000000E+00  1.0000000000E+00 Bohr
              amu      1.14820000E+02  7.26100000E+01  1.59994000E+01
             ecut      4.40000000E+01 Hartree
           etotal     -8.4386343273E+01
            fcart      0.0000000000E+00  0.0000000000E+00  0.0000000000E+00
                       0.0000000000E+00  0.0000000000E+00  0.0000000000E+00
                       0.0000000000E+00  0.0000000000E+00  0.0000000000E+00
                       0.0000000000E+00  0.0000000000E+00  0.0000000000E+00
                       0.0000000000E+00  0.0000000000E+00  0.0000000000E+00
                       0.0000000000E+00  0.0000000000E+00  0.0000000000E+00
                       0.0000000000E+00  0.0000000000E+00  0.0000000000E+00
                       0.0000000000E+00  0.0000000000E+00  0.0000000000E+00
                       0.0000000000E+00  0.0000000000E+00  0.0000000000E+00
                       0.0000000000E+00  0.0000000000E+00  0.0000000000E+00
                       0.0000000000E+00  0.0000000000E+00  0.0000000000E+00
-          fftalg         512
           irdden           1
           irdwfk           1
           istwfk        1
              ixc     -116133
           kptopt           0
P           mkmem           1
P          mkqmem           1
P          mk1mem           1
            natom          11
            nband          57
           nbdbuf           4
            ngfft          64      64      60
             nkpt           1
            nstep        2000
             nsym           4
           ntypat           3
              occ      2.000000  2.000000  2.000000  2.000000  2.000000  2.000000
                       2.000000  2.000000  2.000000  2.000000  2.000000  2.000000
                       2.000000  2.000000  2.000000  2.000000  2.000000  2.000000
                       2.000000  2.000000  2.000000  2.000000  2.000000  2.000000
                       2.000000  2.000000  2.000000  2.000000  2.000000  2.000000
                       2.000000  2.000000  2.000000  2.000000  2.000000  2.000000
                       2.000000  2.000000  2.000000  2.000000  2.000000  2.000000
                       2.000000  2.000000  2.000000  2.000000  2.000000  2.000000
                       0.000000  0.000000  0.000000  0.000000  0.000000  0.000000
                       0.000000  0.000000  0.000000
        optdriver           1
            prtwf          -1
            rfdir           1       1       1
           rfelfd           2
            rprim      1.0396529770E+01  0.0000000000E+00  1.3140784879E+00
                      -3.1176299433E+00  9.9180751560E+00  1.3140784879E+00
                       0.0000000000E+00  0.0000000000E+00  9.3683189069E+00
          spgroup          12
           strten      0.0000000000E+00  0.0000000000E+00  0.0000000000E+00
                       0.0000000000E+00  0.0000000000E+00  0.0000000000E+00
           symrel      1  0  0   0  1  0   0  0  1      -1  0  0   0 -1  0   0  0 -1
                       0 -1  0  -1  0  0   0  0 -1       0  1  0   1  0  0   0  0  1
           tolwfr      1.00000000E-20
            typat      1  1  2  2  3  3  3  3  3  3  3
           useylm           1
           xangst      3.3061670685E+00  1.6112384909E+00  6.9538038610E-01
                       5.4566082356E-01  3.6371808348E+00  6.9538038610E-01
                       2.9400925264E+00  4.0061079744E+00  3.0739979378E+00
                       9.1173536571E-01  1.2423113512E+00  3.2742636828E+00
                      -2.6385524146E-01  2.1362063855E+00  4.2407400171E+00
                       1.7348081780E+00  4.8595429441E+00  2.1075216034E+00
                       4.1156831335E+00  3.1122129401E+00  2.1075216034E+00
                       2.1170197141E+00  3.8887638151E-01  4.2407400171E+00
                       0.0000000000E+00  0.0000000000E+00  2.4787504242E+00
                       1.5897880369E+00  2.1662115988E+00  1.9305479102E+00
                       2.2620398552E+00  3.0822077269E+00  4.4177137103E+00
            xcart      6.2477503090E+00  3.0447994825E+00  1.3140784879E+00
                       1.0311495180E+00  6.8732756735E+00  1.3140784879E+00
                       5.5559696801E+00  7.5704469304E+00  5.8090142354E+00
                       1.7229301469E+00  2.3476282256E+00  6.1874616473E+00
                      -4.9861414509E-01  4.0368450319E+00  8.0138372331E+00
                       3.2783123494E+00  9.1832052954E+00  3.9826386496E+00
                       7.7775139721E+00  5.8812301241E+00  3.9826386496E+00
                       4.0005874776E+00  7.3486986061E-01  8.0138372331E+00
                       0.0000000000E+00  0.0000000000E+00  4.6841594534E+00
                       3.0042639990E+00  4.0935466676E+00  3.6482068367E+00
                       4.2746358280E+00  5.8245284884E+00  8.3482690460E+00
             xred      6.9300500000E-01  3.0699500000E-01  0.0000000000E+00
                       3.0699500000E-01  6.9300500000E-01 -3.1225022568E-17
                       7.6329800000E-01  7.6329800000E-01  4.0593700000E-01
                       2.3670200000E-01  2.3670200000E-01  5.9406300000E-01
                       7.4094000000E-02  4.0701900000E-01  7.8793400000E-01
                       5.9298100000E-01  9.2590600000E-01  2.1206600000E-01
                       9.2590600000E-01  5.9298100000E-01  2.1206600000E-01
                       4.0701900000E-01  7.4094000000E-02  7.8793400000E-01
                       0.0000000000E+00  0.0000000000E+00  5.0000000000E-01
                       4.1273600000E-01  4.1273600000E-01  2.7363200000E-01
                       5.8726400000E-01  5.8726400000E-01  7.2636800000E-01
            znucl       49.00000   32.00000    8.00000

- Timing analysis has been suppressed with timopt=0

 Suggested references for the acknowledgment of ABINIT usage.

 Calculation completed.
.Delivered   2 WARNINGs and   5 COMMENTs to log file.