.Version 9.5.2 of ABINIT

 ABINIT is a project of the Universite Catholique de Louvain,
 Corning Inc. and other collaborators, see ~abinit/doc/developers/contributors.txt .
 acknowledgments of the ABINIT effort.

.Starting date : Tue 25 May 2021.
- ( at 11h17 )

- input  file    -> /scratch/users/j/a/jabreu/flow_simple_10atoms/flow/w460/t1/run.abi
- output file    -> /scratch/users/j/a/jabreu/flow_simple_10atoms/flow/w460/t1/run.abo
- root for input  files -> /scratch/users/j/a/jabreu/flow_simple_10atoms/flow/w460/t1/indata/in
- root for output files -> /scratch/users/j/a/jabreu/flow_simple_10atoms/flow/w460/t1/outdata/out

 Symmetries : space group Cm c 2_1 (# 36); Bravais oC (1-face-center ortho.)
     intxc =       0      iscf =       7    lmnmax =      32     lnmax =       8
     mgfft =      90  mpssoang =       4    mqgrid =    4497     natom =      10
  nloc_mem =       1    nspden =       1   nspinor =       1    nsppol =       1
      nsym =       4    n1xccc =    2501    ntypat =       2    occopt =       1
   xclevel =       2
-    mband =          75        mffmem =           1         mkmem =           1
-   mkqmem =           1        mk1mem =           1           mpw =       34602
      nfft =      576000          nkpt =           1
  Rough estimation (10% accuracy) of disk space for files :

------------- Echo of variables that govern the present computation ------------
-
- outvars: echo of selected default values
-   iomode0 =  0 , fftalg0 =512 , wfoptalg0 =  0
-
- outvars: echo of global parameters not present in the input file
-  max_nthreads =    0
-
 -outvars: echo values of preprocessed input variables --------
            acell      1.0000000000E+00  1.0000000000E+00  1.0000000000E+00 Bohr
              amu      1.32905430E+02  1.27600000E+02
             ecut      4.00000000E+01 Hartree
-          fftalg         512
           irdden           1
           irdwfk           1
              ixc     -116133
              kpt     -5.00000000E-01  5.00000000E-01  0.00000000E+00
           kptopt           0
P           mkmem           1
P          mkqmem           1
P          mk1mem           1
            natom          10
            nband          75
           nbdbuf           4
            ngfft          80      80      90
             nkpt           1
            nstep        2000
             nsym           4
           ntypat           2
              occ      2.000000  2.000000  2.000000  2.000000  2.000000  2.000000
                       2.000000  2.000000  2.000000  2.000000  2.000000  2.000000
                       2.000000  2.000000  2.000000  2.000000  2.000000  2.000000
                       2.000000  2.000000  2.000000  2.000000  2.000000  2.000000
                       2.000000  2.000000  2.000000  2.000000  2.000000  2.000000
                       2.000000  2.000000  2.000000  2.000000  2.000000  2.000000
                       2.000000  2.000000  2.000000  2.000000  2.000000  2.000000
                       2.000000  2.000000  2.000000  2.000000  2.000000  2.000000
                       2.000000  2.000000  2.000000  2.000000  2.000000  2.000000
                       2.000000  2.000000  2.000000  2.000000  2.000000  2.000000
                       2.000000  2.000000  2.000000  2.000000  2.000000  2.000000
                       0.000000  0.000000  0.000000  0.000000  0.000000  0.000000
                       0.000000  0.000000  0.000000
        optdriver           1
            prtwf          -1
            rfdir           1       1       1
           rfelfd           2
            rprim      1.3942945516E+01  0.0000000000E+00  0.0000000000E+00
                      -5.0465751496E+00  1.2997607816E+01  0.0000000000E+00
                       0.0000000000E+00  0.0000000000E+00  1.5793289030E+01
          spgroup          36
           symrel      1  0  0   0  1  0   0  0  1       0  1  0   1  0  0   0  0  1
                      -1  0  0   0 -1  0   0  0  1       0 -1  0  -1  0  0   0  0  1
            tnons      0.0000000  0.0000000  0.0000000     0.0000000 -0.0000000  0.5000000
                      -0.0000000 -0.0000000  0.5000000    -0.0000000 -0.0000000  0.0000000
           tolwfr      1.00000000E-20
            typat      1  1  1  1  2  2  2  2  2  2
           useylm           1
           xangst     -1.8187441929E+00  6.2950209462E+00  7.2555858647E+00
                       6.5265006300E+00  5.8301687599E-01  3.0768615630E+00
                       3.1882318709E+00  2.8679354307E+00  1.2763411933E+00
                       1.5195245662E+00  4.0101023915E+00  5.4550654950E+00
                       5.1286191147E+00  1.5398138394E+00  6.6780778087E+00
                      -4.2086267753E-01  5.3382239828E+00  2.4993535070E+00
                      -5.1030971127E-01  2.9637602536E+00  7.9671557537E-02
                       5.2180661484E+00  3.9142775685E+00  4.2583958593E+00
                       1.7602365106E+00  6.2810310172E+00  7.9671557537E-02
                       2.9475199265E+00  5.9700680493E-01  4.2583958593E+00
            xcart     -3.4369284304E+00  1.1895865589E+01  1.3711070218E+01
                       1.2333298797E+01  1.1017422265E+00  5.8144257028E+00
                       6.0248850841E+00  5.4196125308E+00  2.4119353074E+00
                       2.8714852824E+00  7.5779952847E+00  1.0308579823E+01
                       9.6916855666E+00  2.9098264521E+00  1.2619738153E+01
                      -7.9531520009E-01  1.0087781363E+01  4.7230936375E+00
                      -9.6434559726E-01  5.6006952029E+00  1.5055742432E-01
                       9.8607159638E+00  7.3969126126E+00  8.0472019394E+00
                       3.3263649341E+00  1.1869428455E+01  1.5055742432E-01
                       5.5700054324E+00  1.1281793608E+00  8.0472019394E+00
             xred      8.4765000000E-02  9.1523500000E-01  8.6815800000E-01
                       9.1523500000E-01  8.4765000000E-02  3.6815800000E-01
                       5.8303000000E-01  4.1697000000E-01  1.5271900000E-01
                       4.1697000000E-01  5.8303000000E-01  6.5271900000E-01
                       7.7612600000E-01  2.2387400000E-01  7.9905700000E-01
                       2.2387400000E-01  7.7612600000E-01  2.9905700000E-01
                       8.6799000000E-02  4.3090200000E-01  9.5330000000E-03
                       9.1320100000E-01  5.6909800000E-01  5.0953300000E-01
                       5.6909800000E-01  9.1320100000E-01  9.5330000000E-03
                       4.3090200000E-01  8.6799000000E-02  5.0953300000E-01
            znucl       55.00000   52.00000

 chkinp: Checking input parameters for consistency.

== DATASET  1 ==================================================================
-   mpi_nproc: 1, omp_nthreads: -1 (-1 if OMP is not activated)

--- !DatasetInfo
iteration_state: {dtset: 1, }
dimensions: {natom: 10, nkpt: 1, mband: 75, nsppol: 1, nspinor: 1, nspden: 1, mpw: 34602, }
cutoff_energies: {ecut:  40.0, pawecutdg:  -1.0, }
electrons: {nelect:   1.32000000E+02, charge:   0.00000000E+00, occopt:   1.00000000E+00, tsmear:   1.00000000E-02, }
meta: {optdriver: 1, rfelfd: 2, }
...

 Real(R)+Recip(G) space primitive vectors, cartesian coordinates (Bohr,Bohr^-1):
 R(1)= 13.9429455  0.0000000  0.0000000  G(1)=  0.0717209  0.0278470  0.0000000
 R(2)= -5.0465751 12.9976078  0.0000000  G(2)=  0.0000000  0.0769372  0.0000000
 R(3)=  0.0000000  0.0000000 15.7932890  G(3)=  0.0000000  0.0000000  0.0633180
 Unit cell volume ucvol=  2.8621378E+03 bohr^3
 Angles (23,13,12)=  9.00000000E+01  9.00000000E+01  1.11219674E+02 degrees

 getcut: wavevector=  0.0000  0.0000  0.0000  ngfft=  80  80  90
         ecut(hartree)=     40.000   => boxcut(ratio)=   2.00159

--- Pseudopotential description ------------------------------------------------
- pspini: atom type   1  psp file is /scratch/users/j/a/jabreu/pseudos/PBEsol/Cs.psp8
- pspatm: opening atomic psp file    /scratch/users/j/a/jabreu/pseudos/PBEsol/Cs.psp8
- Cs    ONCVPSP-3.3.0  r_core=   2.27353   1.85623   2.01788   1.90105
- 55.00000   9.00000    180112                znucl, zion, pspdat
    8 -116133    3    4       600   0.00000   pspcod,pspxc,lmax,lloc,mmax,r2well
    5.99000000000000    5.00000000000000    0.00000000000000   rchrg,fchrg,qchrg
     nproj     2     2     2     2
     extension_switch     1
  pspatm : epsatm=   22.12462445
         --- l  ekb(1:nproj) -->
             0    6.214110    0.767882
             1    6.311966    0.793598
             2    3.769790    0.913105
             3   -9.247129   -2.432478
 pspatm: atomic psp has been read  and splines computed

- pspini: atom type   2  psp file is /scratch/users/j/a/jabreu/pseudos/PBEsol/Te.psp8
- pspatm: opening atomic psp file    /scratch/users/j/a/jabreu/pseudos/PBEsol/Te.psp8
- Te    ONCVPSP-3.3.0  r_core=   2.26547   1.91704   1.80604
- 52.00000  16.00000    180112                znucl, zion, pspdat
    8 -116133    2    4       600   0.00000   pspcod,pspxc,lmax,lloc,mmax,r2well
    5.99000000000000    5.00000000000000    0.00000000000000   rchrg,fchrg,qchrg
     nproj     2     2     2
     extension_switch     1
  pspatm : epsatm=   36.82679836
         --- l  ekb(1:nproj) -->
             0    6.345999    0.785432
             1    5.709019    1.070069
             2   -6.035173   -1.870937
 pspatm: atomic psp has been read  and splines computed

   4.08486260E+04                                ecore*ucvol(ha*bohr**3)

 ==>  initialize data related to q vector <==

 The list of irreducible perturbations for this q vector is:
    1)    idir= 1    ipert=  11
    2)    idir= 2    ipert=  11
    3)    idir= 3    ipert=  11

 Perturbation wavevector (in red.coord.)   0.000000  0.000000  0.000000
 Perturbation : derivative vs k along direction   1

 dfpt_looppert : COMMENT -
  In a d/dk calculation, iscf is set to -3 automatically.
 The set of symmetries contains only one element for this perturbation.
 symkpt : not enough symmetry to change the number of k points.

 Initialisation of the first-order wave-functions :
  ireadwf=   0

--- !BeginCycle
iteration_state: {dtset: 1, }
solver: {iscf: 7, nstep: 2000, nline: 4, wfoptalg: 0, }
tolerances: {tolwfr: 1.00E-20, }
...

     iter   2DEtotal(Ha)        deltaE(Ha) residm    vres2
-ETOT  1  -64.246473354488     -6.425E+01 2.471E-02 0.000E+00
 ETOT  2  -64.288701125461     -4.223E-02 2.858E-03 0.000E+00
 ETOT  3  -64.289591051519     -8.899E-04 2.096E-04 0.000E+00
 ETOT  4  -64.289683559224     -9.251E-05 4.896E-05 0.000E+00
 ETOT  5  -64.289694552396     -1.099E-05 6.352E-06 0.000E+00
 ETOT  6  -64.289695937870     -1.385E-06 1.797E-06 0.000E+00
 ETOT  7  -64.289696118312     -1.804E-07 2.586E-07 0.000E+00
 ETOT  8  -64.289696142264     -2.395E-08 7.155E-08 0.000E+00
 ETOT  9  -64.289696145482     -3.219E-09 1.042E-08 0.000E+00
 ETOT 10  -64.289696145919     -4.364E-10 2.857E-09 0.000E+00
 ETOT 11  -64.289696145978     -5.957E-11 4.161E-10 0.000E+00
 ETOT 12  -64.289696145986     -8.100E-12 1.139E-10 0.000E+00
 ETOT 13  -64.289696145988     -1.222E-12 1.656E-11 0.000E+00
 ETOT 14  -64.289696145988     -1.279E-13 4.539E-12 0.000E+00
[...]
 ETOT 27  -64.289696145988     -1.421E-14 9.929E-21 0.000E+00

 At SCF step   27   max residual=  9.93E-21 < tolwfr=  1.00E-20 =>converged.

 ----iterations are completed or convergence reached----

 dfpt_looppert: DFPT cycle converged with prtwf=-1. Will skip output of the 1st-order WFK file.
 dfpt_looppert : ek2=    6.1693130235E+01
          f-sum rule ratio=    1.0590199165E+00
 prteigrs : about to open file /scratch/users/j/a/jabreu/flow_simple_10atoms/flow/w460/t1/tmpdata/tmp_1WF1_EIG
 Expectation of eigenvalue derivatives (hartree) for nkpt=   1  k points:
  (in case of degenerate eigenvalues, averaged derivative)
 kpt#   1, nband= 75, wtk=  1.00000, kpt= -0.5000  0.5000  0.0000 (reduced coord)
   0.00000    0.00000    0.00000    0.00000    0.00000    0.00000    0.00000   -0.00000
  -0.00000    0.00000    0.00000    0.00000   -0.00000   -0.00000    0.00000    0.00000
   0.00000    0.00000   -0.00000   -0.00000    0.00000    0.00000   -0.00000    0.00000
  -0.00000   -0.00000   -0.00000    0.00000    0.00000   -0.00000    0.00000    0.00000
  -0.00000   -0.00000    0.00000    0.00000   -0.00000    0.00000   -0.00000   -0.00000
   0.00000   -0.00000    0.00000   -0.00000   -0.00000   -0.00000   -0.00000    0.00000
   0.00000    0.00000   -0.00000   -0.00000   -0.00000    0.00000    0.00000    0.00000
   0.00000    0.00000    0.00000   -0.00000    0.00000    0.00000    0.00000   -0.00000
   0.00000    0.00000    0.00000   -0.00000   -0.00000    0.00000    0.00000    0.00000
   0.00000   -0.00000   -0.00000

 Eight components of 2nd-order total energy (hartree) are
 1,2,3: 0th-order hamiltonian combined with 1st-order wavefunctions
     kin0=   7.58027907E+01 eigvalue=   1.15285384E+01  local=  -4.26768385E+01
 4,5,6: 1st-order hamiltonian combined with 1st and 0th-order wfs
     kin1=  -6.53342536E+01  Hartree=   0.00000000E+00     xc=   0.00000000E+00
 7,8,9: eventually, occupation + non-local contributions
    edocc=   7.88403238E+00     enl0=   1.17511731E+01   enl1=  -6.32451387E+01
 1-9 gives the relaxation energy (to be shifted if some occ is /=2.0)
   erelax=  -6.42896961E+01
  No Ewald or frozen-wf contrib.: the relaxation energy is the total one
 2DEtotal=   -0.6428969615E+02 Ha. Also 2DEtotal=   -0.174941160007E+04 eV
    (  non-var. 2DEtotal :   -6.4289696146E+01 Ha)

 Perturbation wavevector (in red.coord.)   0.000000  0.000000  0.000000
 Perturbation : derivative vs k along direction   2
 The set of symmetries contains only one element for this perturbation.
 symkpt : not enough symmetry to change the number of k points.

[...]

 Perturbation wavevector (in red.coord.)   0.000000  0.000000  0.000000
 Perturbation : derivative vs k along direction   3
 The set of symmetries contains only one element for this perturbation.
 symkpt : not enough symmetry to change the number of k points.

 Initialisation of the first-order wave-functions :
  ireadwf=   0

--- !BeginCycle
iteration_state: {dtset: 1, }
solver: {iscf: 7, nstep: 2000, nline: 4, wfoptalg: 0, }
tolerances: {tolwfr: 1.00E-20, }
...

     iter   2DEtotal(Ha)        deltaE(Ha) residm    vres2
-ETOT  1  -42.519333101992     -4.252E+01 2.535E-02 0.000E+00
 ETOT  2  -42.547392237178     -2.806E-02 3.313E-03 0.000E+00
 ETOT  3  -42.547851536707     -4.593E-04 2.219E-04 0.000E+00
 ETOT  4  -42.547893034774     -4.150E-05 5.867E-05 0.000E+00
 ETOT  5  -42.547897429801     -4.395E-06 6.069E-06 0.000E+00
 ETOT  6  -42.547897931244     -5.014E-07 1.654E-06 0.000E+00
 ETOT  7  -42.547897991021     -5.978E-08 2.134E-07 0.000E+00
 ETOT  8  -42.547897998378     -7.356E-09 5.596E-08 0.000E+00
 ETOT  9  -42.547897999311     -9.333E-10 7.872E-09 0.000E+00
 ETOT 10  -42.547897999432     -1.209E-10 1.980E-09 0.000E+00
 ETOT 11  -42.547897999448     -1.595E-11 2.874E-10 0.000E+00
 ETOT 12  -42.547897999450     -2.146E-12 7.027E-11 0.000E+00
 ETOT 13  -42.547897999450     -2.487E-13 1.035E-11 0.000E+00
 ETOT 14  -42.547897999450     -2.842E-14 2.485E-12 0.000E+00
 ETOT 15  -42.547897999450     -3.553E-14 3.692E-13 0.000E+00
 ETOT 16  -42.547897999450      1.421E-14 8.769E-14 0.000E+00
 ETOT 17  -42.547897999450     -3.553E-14 1.312E-14 0.000E+00
 ETOT 18  -42.547897999450      7.105E-15 3.094E-15 0.000E+00
 ETOT 19  -42.547897999450     -1.421E-14 4.660E-16 0.000E+00
 ETOT 20  -42.547897999450      1.421E-14 1.093E-16 0.000E+00
 ETOT 21  -42.547897999450      7.105E-15 1.655E-17 0.000E+00
 ETOT 22  -42.547897999450      7.105E-15 3.866E-18 0.000E+00
 ETOT 23  -42.547897999450     -7.105E-15 5.887E-19 0.000E+00
 ETOT 24  -42.547897999450      2.132E-14 1.371E-19 0.000E+00
 ETOT 25  -42.547897999450     -7.105E-15 2.097E-20 0.000E+00
 ETOT 26  -42.547897999450     -2.132E-14 9.983E-21 0.000E+00

 At SCF step   26   max residual=  9.98E-21 < tolwfr=  1.00E-20 =>converged.

 ----iterations are completed or convergence reached----

 dfpt_looppert: DFPT cycle converged with prtwf=-1. Will skip output of the 1st-order WFK file.
 dfpt_looppert : ek2=    4.1784816261E+01
          f-sum rule ratio=    1.0155307612E+00
 prteigrs : about to open file /scratch/users/j/a/jabreu/flow_simple_10atoms/flow/w460/t1/tmpdata/tmp_1WF1_EIG
 Expectation of eigenvalue derivatives (hartree) for nkpt=   1  k points:
  (in case of degenerate eigenvalues, averaged derivative)
 kpt#   1, nband= 75, wtk=  1.00000, kpt= -0.5000  0.5000  0.0000 (reduced coord)
  -0.00000    0.00000   -0.00000    0.00000    0.00000    0.00000    0.00000    0.00000
   0.00000    0.00000   -0.00000    0.00000   -0.00000   -0.00000    0.00000    0.00000
  -0.00000    0.00000    0.00000   -0.00000   -0.00000    0.00000   -0.00000   -0.00000
   0.00000   -0.00000   -0.00000    0.00000    0.00000    0.00000    0.00000   -0.00000
   0.00000   -0.00000    0.00000    0.00000   -0.00000    0.00000   -0.00000    0.00000
   0.00000    0.00000    0.00000    0.00000    0.00000   -0.00000   -0.00000    0.00000
   0.00000    0.00000    0.00000    0.00000    0.00000   -0.00000    0.00000    0.00000
   0.00000    0.00000   -0.00000   -0.00000   -0.00000    0.00000   -0.00000    0.00000
  -0.00000    0.00000   -0.00000    0.00000   -0.00000    0.00000    0.00000    0.00000
  -0.00000   -0.00000   -0.00000

 Eight components of 2nd-order total energy (hartree) are
 1,2,3: 0th-order hamiltonian combined with 1st-order wavefunctions
     kin0=   5.00999990E+01 eigvalue=   7.94290919E+00  local=  -2.83821499E+01
 4,5,6: 1st-order hamiltonian combined with 1st and 0th-order wfs
     kin1=  -4.24337663E+01  Hartree=   0.00000000E+00     xc=   0.00000000E+00
 7,8,9: eventually, occupation + non-local contributions
    edocc=   4.74346973E+00     enl0=   8.14366999E+00   enl1=  -4.26620297E+01
 1-9 gives the relaxation energy (to be shifted if some occ is /=2.0)
   erelax=  -4.25478980E+01
  No Ewald or frozen-wf contrib.: the relaxation energy is the total one
 2DEtotal=   -0.4254789800E+02 Ha. Also 2DEtotal=   -0.115778718490E+04 eV
    (  non-var. 2DEtotal :   -4.2547897999E+01 Ha)

 CALCULATION OF EFFECTIVE MASSES
 NOTE : Additional infos (eff. mass eigenvalues, eigenvectors and, if degenerate, average mass) are available in stdout.

 K-point (-0.500, 0.500, 0.000) | band =    66
 Effective mass tensor:
             -2.6638840968              1.6756709373              0.0000000014
              1.6756709373             -1.3626601249             -0.0000000041
              0.0000000014             -0.0000000041             -2.2262917447
 Effective mass tensor eigenvalues:
             -3.8108173944             -2.2262917447             -0.2157268273
 Angular average effective mass 1/(<1/m>)=  -0.5610538412
 Angular average effective mass for Frohlich model (<m**0.5>)**2=  -0.9023959634
 Effective masses along directions: (cart. coord. / red. coord. -> eff. mass)
    1:   1.000000  0.000000  0.000000 /   0.940303 -0.340338  0.000000 ->  -0.6033019761
    2:   0.000000  1.000000  0.000000 /   0.000000  1.000000  0.000000 ->  -0.3086078509
    3:   0.000000  0.000000  1.000000 /   0.000000  0.000000  1.000000 ->  -2.2262917447
    4:   0.577350  0.577350  0.577350 /   0.619196  0.353099  0.701368 ->  -0.3183474867
    5:   0.000000  0.707107  0.707107 /   0.000000  0.635456  0.772137 ->  -0.5420736298
    6:   0.707107  0.000000  0.707107 /   0.643618 -0.232954  0.729032 ->  -0.9493420928
    7:   0.707107  0.707107  0.000000 /   0.868682  0.495370  0.000000 ->  -0.2228539545

 K-point (-0.500, 0.500, 0.000) | band =    67
 Effective mass tensor:
              8.4255032492             -5.5632597047              0.0000006546
             -5.5632597047              4.1054147224             -0.0000004462
              0.0000006546             -0.0000004462              0.7531666416
 Effective mass tensor eigenvalues:
              0.2975741208              0.7531666416             12.2333438507
 Angular average effective mass 1/(<1/m>)=   0.6289336526
 Angular average effective mass for Frohlich model (<m**0.5>)**2=   0.9016428899
 Effective masses along directions: (cart. coord. / red. coord. -> eff. mass)
    1:   1.000000  0.000000  0.000000 /   0.940303 -0.340338  0.000000 ->   0.8867134717
    2:   0.000000  1.000000  0.000000 /   0.000000  1.000000  0.000000 ->   0.4320604281
    3:   0.000000  0.000000  1.000000 /   0.000000  0.000000  1.000000 ->   0.7531666416
    4:   0.577350  0.577350  0.577350 /   0.619196  0.353099  0.701368 ->   0.3833160247
    5:   0.000000  0.707107  0.707107 /   0.000000  0.635456  0.772137 ->   0.5491158653
    6:   0.707107  0.000000  0.707107 /   0.643618 -0.232954  0.729032 ->   0.8145022832
    7:   0.707107  0.707107  0.000000 /   0.868682  0.495370  0.000000 ->   0.3077532433

 END OF EFFECTIVE MASSES SECTION

 ---- first-order wavefunction calculations are completed ----

 Total localisation tensor (bohr^2) in cartesian coordinates
  WARNING : still subject to testing - especially symmetries.
      direction              matrix element
   alpha     beta       real part   imaginary part
     1        1       3.6344229193    0.0000000000
     1        2      -1.0842325702    0.0000000000
     1        3       0.0000000000    0.0000000000
     2        1      -1.0842325702    0.0000000000
     2        2       2.7924739670    0.0000000000
     2        3       0.0000000000    0.0000000000
     3        1       0.0000000000    0.0000000000
     3        2       0.0000000000    0.0000000000
     3        3       1.7990680354    0.0000000000

 respfn : d/dk was computed, but no 2DTE, so no DDB output.

== END DATASET(S) ==============================================================

 -outvars: echo values of variables after computation  --------
            acell      1.0000000000E+00  1.0000000000E+00  1.0000000000E+00 Bohr
              amu      1.32905430E+02  1.27600000E+02
             ecut      4.00000000E+01 Hartree
           etotal     -4.2547897999E+01
            fcart      0.0000000000E+00  0.0000000000E+00  0.0000000000E+00
                       0.0000000000E+00  0.0000000000E+00  0.0000000000E+00
                       0.0000000000E+00  0.0000000000E+00  0.0000000000E+00
                       0.0000000000E+00  0.0000000000E+00  0.0000000000E+00
                       0.0000000000E+00  0.0000000000E+00  0.0000000000E+00
                       0.0000000000E+00  0.0000000000E+00  0.0000000000E+00
                       0.0000000000E+00  0.0000000000E+00  0.0000000000E+00
                       0.0000000000E+00  0.0000000000E+00  0.0000000000E+00
                       0.0000000000E+00  0.0000000000E+00  0.0000000000E+00
                       0.0000000000E+00  0.0000000000E+00  0.0000000000E+00
-          fftalg         512
           irdden           1
           irdwfk           1
              ixc     -116133
              kpt     -5.00000000E-01  5.00000000E-01  0.00000000E+00
           kptopt           0
P           mkmem           1
P          mkqmem           1
P          mk1mem           1
            natom          10
            nband          75
           nbdbuf           4
            ngfft          80      80      90
             nkpt           1
            nstep        2000
             nsym           4
           ntypat           2
              occ      2.000000  2.000000  2.000000  2.000000  2.000000  2.000000
                       2.000000  2.000000  2.000000  2.000000  2.000000  2.000000
                       2.000000  2.000000  2.000000  2.000000  2.000000  2.000000
                       2.000000  2.000000  2.000000  2.000000  2.000000  2.000000
                       2.000000  2.000000  2.000000  2.000000  2.000000  2.000000
                       2.000000  2.000000  2.000000  2.000000  2.000000  2.000000
                       2.000000  2.000000  2.000000  2.000000  2.000000  2.000000
                       2.000000  2.000000  2.000000  2.000000  2.000000  2.000000
                       2.000000  2.000000  2.000000  2.000000  2.000000  2.000000
                       2.000000  2.000000  2.000000  2.000000  2.000000  2.000000
                       2.000000  2.000000  2.000000  2.000000  2.000000  2.000000
                       0.000000  0.000000  0.000000  0.000000  0.000000  0.000000
                       0.000000  0.000000  0.000000
        optdriver           1
            prtwf          -1
            rfdir           1       1       1
           rfelfd           2
            rprim      1.3942945516E+01  0.0000000000E+00  0.0000000000E+00
                      -5.0465751496E+00  1.2997607816E+01  0.0000000000E+00
                       0.0000000000E+00  0.0000000000E+00  1.5793289030E+01
          spgroup          36
           strten      0.0000000000E+00  0.0000000000E+00  0.0000000000E+00
                       0.0000000000E+00  0.0000000000E+00  0.0000000000E+00
           symrel      1  0  0   0  1  0   0  0  1       0  1  0   1  0  0   0  0  1
                      -1  0  0   0 -1  0   0  0  1       0 -1  0  -1  0  0   0  0  1
            tnons      0.0000000  0.0000000  0.0000000     0.0000000 -0.0000000  0.5000000
                      -0.0000000 -0.0000000  0.5000000    -0.0000000 -0.0000000  0.0000000
           tolwfr      1.00000000E-20
            typat      1  1  1  1  2  2  2  2  2  2
           useylm           1
           xangst     -1.8187441929E+00  6.2950209462E+00  7.2555858647E+00
                       6.5265006300E+00  5.8301687599E-01  3.0768615630E+00
                       3.1882318709E+00  2.8679354307E+00  1.2763411933E+00
                       1.5195245662E+00  4.0101023915E+00  5.4550654950E+00
                       5.1286191147E+00  1.5398138394E+00  6.6780778087E+00
                      -4.2086267753E-01  5.3382239828E+00  2.4993535070E+00
                      -5.1030971127E-01  2.9637602536E+00  7.9671557537E-02
                       5.2180661484E+00  3.9142775685E+00  4.2583958593E+00
                       1.7602365106E+00  6.2810310172E+00  7.9671557537E-02
                       2.9475199265E+00  5.9700680493E-01  4.2583958593E+00
            xcart     -3.4369284304E+00  1.1895865589E+01  1.3711070218E+01
                       1.2333298797E+01  1.1017422265E+00  5.8144257028E+00
                       6.0248850841E+00  5.4196125308E+00  2.4119353074E+00
                       2.8714852824E+00  7.5779952847E+00  1.0308579823E+01
                       9.6916855666E+00  2.9098264521E+00  1.2619738153E+01
                      -7.9531520009E-01  1.0087781363E+01  4.7230936375E+00
                      -9.6434559726E-01  5.6006952029E+00  1.5055742432E-01
                       9.8607159638E+00  7.3969126126E+00  8.0472019394E+00
                       3.3263649341E+00  1.1869428455E+01  1.5055742432E-01
                       5.5700054324E+00  1.1281793608E+00  8.0472019394E+00
             xred      8.4765000000E-02  9.1523500000E-01  8.6815800000E-01
                       9.1523500000E-01  8.4765000000E-02  3.6815800000E-01
                       5.8303000000E-01  4.1697000000E-01  1.5271900000E-01
                       4.1697000000E-01  5.8303000000E-01  6.5271900000E-01
                       7.7612600000E-01  2.2387400000E-01  7.9905700000E-01
                       2.2387400000E-01  7.7612600000E-01  2.9905700000E-01
                       8.6799000000E-02  4.3090200000E-01  9.5330000000E-03
                       9.1320100000E-01  5.6909800000E-01  5.0953300000E-01
                       5.6909800000E-01  9.1320100000E-01  9.5330000000E-03
                       4.3090200000E-01  8.6799000000E-02  5.0953300000E-01
            znucl       55.00000   52.00000

- Timing analysis has been suppressed with timopt=0

 Suggested references for the acknowledgment of ABINIT usage.

 Calculation completed.
.Delivered   2 WARNINGs and   7 COMMENTs to log file.