.Version 9.7.2 of ABINIT

 ABINIT is a project of the Universite Catholique de Louvain,
 Corning Inc. and other collaborators, see ~abinit/doc/developers/contributors.txt .
 acknowledgments of the ABINIT effort.

.Starting date : Wed  1 Dec 2021.
- ( at 21h17 )

- input  file    -> /scratch/users/j/a/jabreu/flow_simple_remain_atoms/flow/w169/t1/run.abi
- output file    -> /scratch/users/j/a/jabreu/flow_simple_remain_atoms/flow/w169/t1/run.abo
- root for input  files -> /scratch/users/j/a/jabreu/flow_simple_remain_atoms/flow/w169/t1/indata/in
- root for output files -> /scratch/users/j/a/jabreu/flow_simple_remain_atoms/flow/w169/t1/outdata/out

 Symmetries : space group C2/m (# 12); Bravais mC (1-face-center monocl.)
     intxc =       0      iscf =       7    lmnmax =       8     lnmax =       4
     mgfft =      64  mpssoang =       2    mqgrid =    3001     natom =       5
  nloc_mem =       1    nspden =       1   nspinor =       1    nsppol =       1
      nsym =       4    n1xccc =    2501    ntypat =       3    occopt =       1
   xclevel =       2
-    mband =          25        mffmem =           1         mkmem =           2
-   mkqmem =           2        mk1mem =           2           mpw =        6022
      nfft =      102400          nkpt =           2
  Rough estimation (10% accuracy) of disk space for files :

------------- Echo of variables that govern the present computation ------------
-
- outvars: echo of selected default values
-   iomode0 =  0 , fftalg0 =512 , wfoptalg0 =  0
-
- outvars: echo of global parameters not present in the input file
-  max_nthreads =    0
-
 -outvars: echo values of preprocessed input variables --------
            acell      1.0000000000E+00  1.0000000000E+00  1.0000000000E+00 Bohr
              amu      2.29897680E+01  1.20110000E+01  1.40067400E+01
             ecut      4.40000000E+01 Hartree
-          fftalg         512
           irdden           1
           irdwfk           1
           istwfk        1    1
              ixc     -116133
              kpt      0.00000000E+00  0.00000000E+00  5.00000000E-01
                       0.00000000E+00  0.00000000E+00  0.00000000E+00
           kptopt           0
P           mkmem           2
P          mkqmem           2
P          mk1mem           2
            natom           5
            nband          25
           nbdbuf           4
            ngfft          40      40      64
             nkpt           2
            nstep        2000
             nsym           4
           ntypat           3
              occ      2.000000  2.000000  2.000000  2.000000  2.000000  2.000000
                       2.000000  2.000000  2.000000  2.000000  2.000000  2.000000
                       2.000000  2.000000  2.000000  2.000000  0.000000  0.000000
                       0.000000  0.000000  0.000000  0.000000  0.000000  0.000000
                       0.000000
        optdriver           1
            prtwf          -1
            rfdir           1       1       1
           rfelfd           2
            rprim      6.4650586658E+00  0.0000000000E+00  1.5690364036E+00
                      -2.9562027900E-01  6.4582963855E+00  1.5690364036E+00
                       0.0000000000E+00  0.0000000000E+00  1.0399227851E+01
          spgroup          12
           symrel      1  0  0   0  1  0   0  0  1      -1  0  0   0 -1  0   0  0 -1
                       0 -1  0  -1  0  0   0  0 -1       0  1  0   1  0  0   0  0  1
           tolwfr      1.00000000E-20
            typat      1  1  2  3  3
           useylm           1
              wtk        0.50000    0.50000
           xangst      1.0577778131E+00  1.1073038093E+00  2.2445661005E+00
                       2.2069483710E+00  2.3102794442E+00  4.9190648740E+00
                       0.0000000000E+00  0.0000000000E+00  0.0000000000E+00
                       5.2135065379E-01  5.4576070492E-01  4.5167402962E+00
                       2.7433755303E+00  2.8718225486E+00  2.6468906782E+00
            xcart      1.9989103762E+00  2.0925009455E+00  4.2416152170E+00
                       4.1705280106E+00  4.3657954400E+00  9.2956854417E+00
                       0.0000000000E+00  0.0000000000E+00  0.0000000000E+00
                       9.8520995486E-01  1.0313382664E+00  8.5354021732E+00
                       5.1842284319E+00  5.4269581191E+00  5.0018984855E+00
             xred      3.2400200000E-01  3.2400200000E-01  3.1010700000E-01
                       6.7599800000E-01  6.7599800000E-01  6.8989300000E-01
                       0.0000000000E+00  0.0000000000E+00  0.0000000000E+00
                       1.5969200000E-01  1.5969200000E-01  7.7258400000E-01
                       8.4030800000E-01  8.4030800000E-01  2.2741600000E-01
            znucl       11.00000    6.00000    7.00000

 chkinp: Checking input parameters for consistency.

== DATASET  1 ==================================================================
-   mpi_nproc: 1, omp_nthreads: -1 (-1 if OMP is not activated)

--- !DatasetInfo
iteration_state: {dtset: 1, }
dimensions: {natom: 5, nkpt: 2, mband: 25, nsppol: 1, nspinor: 1, nspden: 1, mpw: 6022, }
cutoff_energies: {ecut:  44.0, pawecutdg:  -1.0, }
electrons: {nelect:   3.20000000E+01, charge:   0.00000000E+00, occopt:   1.00000000E+00, tsmear:   1.00000000E-02, }
meta: {optdriver: 1, rfelfd: 2, }
...

 Real(R)+Recip(G) space primitive vectors, cartesian coordinates (Bohr,Bohr^-1):
 R(1)=  6.4650587  0.0000000  1.5690364  G(1)=  0.1546776  0.0070802  0.0000000
 R(2)= -0.2956203  6.4582964  1.5690364  G(2)=  0.0000000  0.1548396  0.0000000
 R(3)=  0.0000000  0.0000000 10.3992279  G(3)= -0.0233378 -0.0244305  0.0961610
 Unit cell volume ucvol=  4.3420172E+02 bohr^3
 Angles (23,13,12)=  7.63583623E+01  7.63583623E+01  8.92871023E+01 degrees

 getcut: wavevector=  0.0000  0.0000  0.0000  ngfft=  40  40  64
         ecut(hartree)=     44.000   => boxcut(ratio)=   2.01383

--- Pseudopotential description ------------------------------------------------
- pspini: atom type   1  psp file is /scratch/users/j/a/jabreu/pseudos/PBEsol/Na.psp8
- pspatm: opening atomic psp file    /scratch/users/j/a/jabreu/pseudos/PBEsol/Na.psp8
- Na    ONCVPSP-3.3.0  r_core=   1.20708   1.55069
- 11.00000   9.00000    180112                znucl, zion, pspdat
    8 -116133    1    4       400   0.00000   pspcod,pspxc,lmax,lloc,mmax,r2well
    3.99000000000000    0.00000000000000    0.00000000000000   rchrg,fchrg,qchrg
     nproj     2     2
     extension_switch     1
  pspatm : epsatm=    9.32878306
         --- l  ekb(1:nproj) -->
             0    2.657905   -0.678300
             1   -6.761319   -2.404728
 pspatm: atomic psp has been read  and splines computed

- pspini: atom type   2  psp file is /scratch/users/j/a/jabreu/pseudos/PBEsol/C.psp8
- pspatm: opening atomic psp file    /scratch/users/j/a/jabreu/pseudos/PBEsol/C.psp8
- C     ONCVPSP-3.3.0  r_core=   1.20440   1.26326
-  6.00000   4.00000    180112                znucl, zion, pspdat
    8 -116133    1    4       600   0.00000   pspcod,pspxc,lmax,lloc,mmax,r2well
    5.99000000000000    4.00000000000000    0.00000000000000   rchrg,fchrg,qchrg
     nproj     2     2
     extension_switch     1
  pspatm : epsatm=    4.34909529
         --- l  ekb(1:nproj) -->
             0    6.468939    0.390031
             1   -4.179695   -0.878453
 pspatm: atomic psp has been read  and splines computed

- pspini: atom type   3  psp file is /scratch/users/j/a/jabreu/pseudos/PBEsol/N.psp8
- pspatm: opening atomic psp file    /scratch/users/j/a/jabreu/pseudos/PBEsol/N.psp8
- N     ONCVPSP-3.3.0  r_core=   1.20551   1.35824
-  7.00000   5.00000    180112                znucl, zion, pspdat
    8 -116133    1    4       600   0.00000   pspcod,pspxc,lmax,lloc,mmax,r2well
    5.99000000000000    4.00000000000000    0.00000000000000   rchrg,fchrg,qchrg
     nproj     2     2
     extension_switch     1
  pspatm : epsatm=    5.26508895
         --- l  ekb(1:nproj) -->
             0    7.464189    0.625868
             1   -4.309714   -1.012941
 pspatm: atomic psp has been read  and splines computed

   1.07317886E+03                                ecore*ucvol(ha*bohr**3)

 ==>  initialize data related to q vector <==

 The list of irreducible perturbations for this q vector is:
    1)    idir= 1    ipert=   6
    2)    idir= 2    ipert=   6
    3)    idir= 3    ipert=   6

 Perturbation wavevector (in red.coord.)   0.000000  0.000000  0.000000
 Perturbation : derivative vs k along direction   1

 dfpt_looppert : COMMENT -
  In a d/dk calculation, iscf is set to -3 automatically.
 The set of symmetries contains only one element for this perturbation.
 symkpt : not enough symmetry to change the number of k points.

 Initialisation of the first-order wave-functions :
  ireadwf=   0

--- !BeginCycle
iteration_state: {dtset: 1, }
solver: {iscf: 7, nstep: 2000, nline: 4, wfoptalg: 0, }
tolerances: {tolwfr: 1.00E-20, }
...

     iter   2DEtotal(Ha)        deltaE(Ha) residm    vres2
-ETOT  1  -37.030459322004     -3.703E+01 2.154E-02 0.000E+00
 ETOT  2  -37.040928560628     -1.047E-02 1.129E-04 0.000E+00
 ETOT  3  -37.040935879796     -7.319E-06 7.515E-07 0.000E+00
 ETOT  4  -37.040935897990     -1.819E-08 1.648E-08 0.000E+00
 ETOT  5  -37.040935898054     -6.388E-11 1.256E-10 0.000E+00
 ETOT  6  -37.040935898054     -2.629E-13 2.832E-12 0.000E+00
 ETOT  7  -37.040935898054      4.263E-14 2.196E-14 0.000E+00
 ETOT  8  -37.040935898054     -1.421E-14 5.059E-16 0.000E+00
 ETOT  9  -37.040935898054      0.000E+00 3.984E-18 0.000E+00
 ETOT 10  -37.040935898054      0.000E+00 9.222E-20 0.000E+00
 ETOT 11  -37.040935898054      0.000E+00 9.851E-21 0.000E+00

 At SCF step   11   max residual=  9.85E-21 < tolwfr=  1.00E-20 =>converged.

 ----iterations are completed or convergence reached----

 dfpt_looppert: DFPT cycle converged with prtwf=-1. Will skip output of the 1st-order WFK file.
 dfpt_looppert : ek2=    6.0576442809E+01
          f-sum rule ratio=    1.1169730871E+00
 prteigrs : about to open file /scratch/users/j/a/jabreu/flow_simple_remain_atoms/flow/w169/t1/tmpdata/tmp_1WF1_EIG
 Expectation of eigenvalue derivatives (hartree) for nkpt=   2  k points:
  (in case of degenerate eigenvalues, averaged derivative)
 kpt#   1, nband= 25, wtk=  0.50000, kpt=  0.0000  0.0000  0.5000 (reduced coord)
   0.00000    0.00000    0.00000    0.00000   -0.00000   -0.00000   -0.00000    0.00000
   0.00000    0.00000    0.00000    0.00000    0.00000    0.00000    0.00000   -0.00000
  -0.00000    0.00000    0.00000    0.00000   -0.00000   -0.00000   -0.00000    0.00000
  -0.00011
 prteigrs : prtvol=0 or 1, do not print more k-points.

 Eight components of 2nd-order total energy (hartree) are
 1,2,3: 0th-order hamiltonian combined with 1st-order wavefunctions
     kin0=   3.71125717E+01 eigvalue=   4.25003107E+00  local=  -1.32840796E+01
 4,5,6: 1st-order hamiltonian combined with 1st and 0th-order wfs
     kin1=  -6.76622563E+01  Hartree=   0.00000000E+00     xc=   0.00000000E+00
 7,8,9: eventually, occupation + non-local contributions
    edocc=   1.02903803E+01     enl0=  -1.32796759E+00   enl1=  -6.41961546E+00
 1-9 gives the relaxation energy (to be shifted if some occ is /=2.0)
   erelax=  -3.70409359E+01
  No Ewald or frozen-wf contrib.: the relaxation energy is the total one
 2DEtotal=   -0.3704093590E+02 Ha. Also 2DEtotal=   -0.100793512526E+04 eV
    (  non-var. 2DEtotal :   -3.7040935898E+01 Ha)

 Perturbation wavevector (in red.coord.)   0.000000  0.000000  0.000000
 Perturbation : derivative vs k along direction   2
 The set of symmetries contains only one element for this perturbation.
 symkpt : not enough symmetry to change the number of k points.

[...]

 Perturbation wavevector (in red.coord.)   0.000000  0.000000  0.000000
 Perturbation : derivative vs k along direction   3
 The set of symmetries contains only one element for this perturbation.
 symkpt : not enough symmetry to change the number of k points.

 Initialisation of the first-order wave-functions :
  ireadwf=   0

--- !BeginCycle
iteration_state: {dtset: 1, }
solver: {iscf: 7, nstep: 2000, nline: 4, wfoptalg: 0, }
tolerances: {tolwfr: 1.00E-20, }
...

     iter   2DEtotal(Ha)        deltaE(Ha) residm    vres2
-ETOT  1  -14.749838773617     -1.475E+01 1.195E-02 0.000E+00
 ETOT  2  -14.754320352813     -4.482E-03 1.174E-04 0.000E+00
 ETOT  3  -14.754321965519     -1.613E-06 2.676E-07 0.000E+00
 ETOT  4  -14.754321967271     -1.752E-09 3.694E-09 0.000E+00
 ETOT  5  -14.754321967273     -2.601E-12 1.184E-11 0.000E+00
 ETOT  6  -14.754321967273      1.776E-15 1.865E-13 0.000E+00
 ETOT  7  -14.754321967274     -1.599E-14 5.422E-16 0.000E+00
 ETOT  8  -14.754321967274      5.329E-15 9.950E-18 0.000E+00
 ETOT  9  -14.754321967274      0.000E+00 2.639E-20 0.000E+00
 ETOT 10  -14.754321967274      1.776E-15 9.753E-21 0.000E+00

 At SCF step   10   max residual=  9.75E-21 < tolwfr=  1.00E-20 =>converged.

 ----iterations are completed or convergence reached----

 dfpt_looppert: DFPT cycle converged with prtwf=-1. Will skip output of the 1st-order WFK file.
 dfpt_looppert : ek2=    2.6247613683E+01
          f-sum rule ratio=    1.0025130974E+00
 prteigrs : about to open file /scratch/users/j/a/jabreu/flow_simple_remain_atoms/flow/w169/t1/tmpdata/tmp_1WF1_EIG
 Expectation of eigenvalue derivatives (hartree) for nkpt=   2  k points:
  (in case of degenerate eigenvalues, averaged derivative)
 kpt#   1, nband= 25, wtk=  0.50000, kpt=  0.0000  0.0000  0.5000 (reduced coord)
  -0.00000   -0.00000    0.00000    0.00000    0.00000    0.00000    0.00000   -0.00000
   0.00000    0.00000   -0.00000    0.00000    0.00000   -0.00000    0.00000    0.00000
   0.00000   -0.00000   -0.00000    0.00000   -0.00000   -0.00000    0.00000    0.00000
  -0.00004
 prteigrs : prtvol=0 or 1, do not print more k-points.

 Eight components of 2nd-order total energy (hartree) are
 1,2,3: 0th-order hamiltonian combined with 1st-order wavefunctions
     kin0=   1.45364084E+01 eigvalue=   1.92732253E+00  local=  -5.43838224E+00
 4,5,6: 1st-order hamiltonian combined with 1st and 0th-order wfs
     kin1=  -2.63135765E+01  Hartree=   0.00000000E+00     xc=   0.00000000E+00
 7,8,9: eventually, occupation + non-local contributions
    edocc=   4.30447836E+00     enl0=  -5.75505089E-01   enl1=  -3.19506744E+00
 1-9 gives the relaxation energy (to be shifted if some occ is /=2.0)
   erelax=  -1.47543220E+01
  No Ewald or frozen-wf contrib.: the relaxation energy is the total one
 2DEtotal=   -0.1475432197E+02 Ha. Also 2DEtotal=   -0.401485518646E+03 eV
    (  non-var. 2DEtotal :   -1.4754321967E+01 Ha)

 CALCULATION OF EFFECTIVE MASSES
 NOTE : Additional infos (eff. mass eigenvalues, eigenvectors and, if degenerate, average mass) are available in stdout.

 K-point ( 0.000, 0.000, 0.500) | band =    16
 Effective mass tensor:
             -2.2082860860             -0.6704636525             -0.2831841147
             -0.6704636525             -2.2696653286             -0.2964430902
             -0.2831841147             -0.2964430902             -3.3771373518
 Effective mass tensor eigenvalues:
             -3.6154370538             -2.6718416794             -1.5678100332
 Angular average effective mass 1/(<1/m>)=  -2.3279313731
 Angular average effective mass for Frohlich model (<m**0.5>)**2=  -2.4157505754
 Effective masses along directions: (cart. coord. / red. coord. -> eff. mass)
    1:   1.000000  0.000000  0.000000 /   0.998956 -0.045678  0.000000 ->  -1.9987677970
    2:   0.000000  1.000000  0.000000 /   0.000000  1.000000  0.000000 ->  -2.0528452235
    3:   0.000000  0.000000  1.000000 /   0.147558  0.147558  0.977984 ->  -3.3193835431
    4:   0.577350  0.577350  0.577350 /   0.526931  0.507098  0.682052 ->  -3.4061323975
    5:   0.000000  0.707107  0.707107 /   0.118593  0.606733  0.786009 ->  -2.7509810670
    6:   0.707107  0.000000  0.707107 /   0.608517  0.096451  0.787657 ->  -2.6920146898
    7:   0.707107  0.707107  0.000000 /   0.723832  0.689977  0.000000 ->  -2.8591410844

 K-point ( 0.000, 0.000, 0.000) | band =    17
 Effective mass tensor:
              0.6114065970              0.0287983813             -0.0518874177
              0.0287983813              0.6140430157             -0.0543168282
             -0.0518874177             -0.0543168282              0.9420124165
 Effective mass tensor eigenvalues:
              0.5838962712              0.6238199787              0.9597457793
 Angular average effective mass 1/(<1/m>)=   0.6884520247
 Angular average effective mass for Frohlich model (<m**0.5>)**2=   0.6977033171
 Effective masses along directions: (cart. coord. / red. coord. -> eff. mass)
    1:   1.000000  0.000000  0.000000 /   0.998956 -0.045678  0.000000 ->   0.6074584249
    2:   0.000000  1.000000  0.000000 /   0.000000  1.000000  0.000000 ->   0.6098167152
    3:   0.000000  0.000000  1.000000 /   0.147558  0.147558  0.977984 ->   0.9332171666
    4:   0.577350  0.577350  0.577350 /   0.526931  0.507098  0.682052 ->   0.6559814930
    5:   0.000000  0.707107  0.707107 /   0.118593  0.606733  0.786009 ->   0.6913607948
    6:   0.707107  0.000000  0.707107 /   0.608517  0.096451  0.787657 ->   0.6917791095
    7:   0.707107  0.707107  0.000000 /   0.723832  0.689977  0.000000 ->   0.6355339651

 END OF EFFECTIVE MASSES SECTION

 ---- first-order wavefunction calculations are completed ----

 Total localisation tensor (bohr^2) in cartesian coordinates
  WARNING : still subject to testing - especially symmetries.
      direction              matrix element
   alpha     beta       real part   imaginary part
     1        1       0.6815401050    0.0000000000
     1        2      -0.0310666992    0.0000000000
     1        3       0.1575135256    0.0000000000
     2        1      -0.0310666992    0.0000000000
     2        2       0.6787015833    0.0000000000
     2        3       0.1648898452    0.0000000000
     3        1       0.1575135256    0.0000000000
     3        2       0.1648898452    0.0000000000
     3        3       0.8149419024    0.0000000000

 respfn : d/dk was computed, but no 2DTE, so no DDB output.

== END DATASET(S) ==============================================================

 -outvars: echo values of variables after computation  --------
            acell      1.0000000000E+00  1.0000000000E+00  1.0000000000E+00 Bohr
              amu      2.29897680E+01  1.20110000E+01  1.40067400E+01
             ecut      4.40000000E+01 Hartree
           etotal     -1.4754321967E+01
            fcart      0.0000000000E+00  0.0000000000E+00  0.0000000000E+00
                       0.0000000000E+00  0.0000000000E+00  0.0000000000E+00
                       0.0000000000E+00  0.0000000000E+00  0.0000000000E+00
                       0.0000000000E+00  0.0000000000E+00  0.0000000000E+00
                       0.0000000000E+00  0.0000000000E+00  0.0000000000E+00
-          fftalg         512
           irdden           1
           irdwfk           1
           istwfk        1    1
              ixc     -116133
              kpt      0.00000000E+00  0.00000000E+00  5.00000000E-01
                       0.00000000E+00  0.00000000E+00  0.00000000E+00
           kptopt           0
P           mkmem           2
P          mkqmem           2
P          mk1mem           2
            natom           5
            nband          25
           nbdbuf           4
            ngfft          40      40      64
             nkpt           2
            nstep        2000
             nsym           4
           ntypat           3
              occ      2.000000  2.000000  2.000000  2.000000  2.000000  2.000000
                       2.000000  2.000000  2.000000  2.000000  2.000000  2.000000
                       2.000000  2.000000  2.000000  2.000000  0.000000  0.000000
                       0.000000  0.000000  0.000000  0.000000  0.000000  0.000000
                       0.000000
        optdriver           1
            prtwf          -1
            rfdir           1       1       1
           rfelfd           2
            rprim      6.4650586658E+00  0.0000000000E+00  1.5690364036E+00
                      -2.9562027900E-01  6.4582963855E+00  1.5690364036E+00
                       0.0000000000E+00  0.0000000000E+00  1.0399227851E+01
          spgroup          12
           strten      0.0000000000E+00  0.0000000000E+00  0.0000000000E+00
                       0.0000000000E+00  0.0000000000E+00  0.0000000000E+00
           symrel      1  0  0   0  1  0   0  0  1      -1  0  0   0 -1  0   0  0 -1
                       0 -1  0  -1  0  0   0  0 -1       0  1  0   1  0  0   0  0  1
           tolwfr      1.00000000E-20
            typat      1  1  2  3  3
           useylm           1
              wtk        0.50000    0.50000
           xangst      1.0577778131E+00  1.1073038093E+00  2.2445661005E+00
                       2.2069483710E+00  2.3102794442E+00  4.9190648740E+00
                       0.0000000000E+00  0.0000000000E+00  0.0000000000E+00
                       5.2135065379E-01  5.4576070492E-01  4.5167402962E+00
                       2.7433755303E+00  2.8718225486E+00  2.6468906782E+00
            xcart      1.9989103762E+00  2.0925009455E+00  4.2416152170E+00
                       4.1705280106E+00  4.3657954400E+00  9.2956854417E+00
                       0.0000000000E+00  0.0000000000E+00  0.0000000000E+00
                       9.8520995486E-01  1.0313382664E+00  8.5354021732E+00
                       5.1842284319E+00  5.4269581191E+00  5.0018984855E+00
             xred      3.2400200000E-01  3.2400200000E-01  3.1010700000E-01
                       6.7599800000E-01  6.7599800000E-01  6.8989300000E-01
                       0.0000000000E+00  0.0000000000E+00  0.0000000000E+00
                       1.5969200000E-01  1.5969200000E-01  7.7258400000E-01
                       8.4030800000E-01  8.4030800000E-01  2.2741600000E-01
            znucl       11.00000    6.00000    7.00000

- Timing analysis has been suppressed with timopt=0

 Suggested references for the acknowledgment of ABINIT usage.

 Calculation completed.
.Delivered   2 WARNINGs and   5 COMMENTs to log file.