.Version 9.5.2 of ABINIT

 ABINIT is a project of the Universite Catholique de Louvain,
 Corning Inc. and other collaborators, see ~abinit/doc/developers/contributors.txt .
 acknowledgments of the ABINIT effort.

.Starting date : Wed 26 May 2021.
- ( at 02h35 )

- input  file    -> /scratch/users/j/a/jabreu/flow_simple_11atoms/flow/w242/t1/run.abi
- output file    -> /scratch/users/j/a/jabreu/flow_simple_11atoms/flow/w242/t1/run.abo
- root for input  files -> /scratch/users/j/a/jabreu/flow_simple_11atoms/flow/w242/t1/indata/in
- root for output files -> /scratch/users/j/a/jabreu/flow_simple_11atoms/flow/w242/t1/outdata/out

 Symmetries : space group Cm (#  8); Bravais mC (1-face-center monocl.)
     intxc =       0      iscf =       7    lmnmax =      32     lnmax =       8
     mgfft =      96  mpssoang =       4    mqgrid =    4530     natom =      11
  nloc_mem =       1    nspden =       1   nspinor =       1    nsppol =       1
      nsym =       2    n1xccc =    2501    ntypat =       3    occopt =       1
   xclevel =       2
-    mband =          57        mffmem =           1         mkmem =           1
-   mkqmem =           1        mk1mem =           1           mpw =       27487
      nfft =      497664          nkpt =           1
  Rough estimation (10% accuracy) of disk space for files :

------------- Echo of variables that govern the present computation ------------
-
- outvars: echo of selected default values
-   iomode0 =  0 , fftalg0 =512 , wfoptalg0 =  0
-
- outvars: echo of global parameters not present in the input file
-  max_nthreads =    0
-
 -outvars: echo values of preprocessed input variables --------
            acell      1.0000000000E+00  1.0000000000E+00  1.0000000000E+00 Bohr
              amu      1.32905430E+02  1.21753000E+02  1.59994000E+01
             ecut      4.40000000E+01 Hartree
-          fftalg         512
           irdden           1
           irdwfk           1
           istwfk        1
              ixc     -116133
           kptopt           0
P           mkmem           1
P          mkqmem           1
P          mk1mem           1
            natom          11
            nband          57
           nbdbuf           4
            ngfft          72      72      96
             nkpt           1
            nstep        2000
             nsym           2
           ntypat           3
              occ      2.000000  2.000000  2.000000  2.000000  2.000000  2.000000
                       2.000000  2.000000  2.000000  2.000000  2.000000  2.000000
                       2.000000  2.000000  2.000000  2.000000  2.000000  2.000000
                       2.000000  2.000000  2.000000  2.000000  2.000000  2.000000
                       2.000000  2.000000  2.000000  2.000000  2.000000  2.000000
                       2.000000  2.000000  2.000000  2.000000  2.000000  2.000000
                       2.000000  2.000000  2.000000  2.000000  2.000000  2.000000
                       2.000000  2.000000  2.000000  2.000000  2.000000  2.000000
                       0.000000  0.000000  0.000000  0.000000  0.000000  0.000000
                       0.000000  0.000000  0.000000
        optdriver           1
            prtwf          -1
            rfdir           1       1       1
           rfelfd           2
            rprim      1.1816138087E+01  0.0000000000E+00  1.6030500789E+00
                       4.6236759965E+00  1.0873947746E+01  1.6030500789E+00
                       0.0000000000E+00  0.0000000000E+00  1.5368700281E+01
          spgroup           8
           symrel      1  0  0   0  1  0   0  0  1       0  1  0   1  0  0   0  0  1
           tolwfr      1.00000000E-20
            typat      1  1  1  1  2  2  3  3  3  3  3
           useylm           1
           xangst      5.6112258277E-02  3.7114882278E-02  8.0570461995E+00
                       8.6680737658E+00  5.7334091921E+00  5.7478398791E+00
                       5.7670178154E+00  3.8145352529E+00  8.0663844337E+00
                       2.8642828471E+00  1.8945507443E+00  1.7671146498E+00
                       5.6578033518E+00  3.7422964572E+00  3.6861586985E+00
                       3.1354398980E+00  2.0739048165E+00  6.0035150081E+00
                       4.1905981947E+00  4.5679961344E+00  2.7424121637E+00
                       4.0894530177E+00  9.2123741210E-01  7.2185587344E+00
                       2.4479904537E+00  3.4028880516E+00  7.2185587344E+00
                       5.8435437231E+00  2.0689849368E+00  2.7424121637E+00
                       4.7525777824E+00  3.1435442153E+00  5.3844758477E+00
            xcart      1.0603680084E-01  7.0136962960E-02  1.5225610757E+01
                       1.6380285517E+01  1.0834573181E+01  1.0861843227E+01
                       1.0898084275E+01  7.2084269522E+00  1.5243257462E+01
                       5.4127101482E+00  3.5801820516E+00  3.3393627334E+00
                       1.0691698849E+01  7.0719154122E+00  6.9658304225E+00
                       5.9251227134E+00  3.9191121289E+00  1.1344999200E+01
                       7.9190829209E+00  8.6322616700E+00  5.1824079329E+00
                       7.7279462367E+00  1.7408864122E+00  1.3641099082E+01
                       4.6260315334E+00  6.4305264784E+00  1.3641099082E+01
                       1.1042697282E+01  3.9098149035E+00  5.1824079329E+00
                       8.9810704340E+00  5.9404376535E+00  1.0175184721E+01
             xred      6.4500000000E-03  6.4500000000E-03  9.8934400000E-01
                       9.9637900000E-01  9.9637900000E-01  4.9889400000E-01
                       6.6290800000E-01  6.6290800000E-01  8.5354700000E-01
                       3.2924400000E-01  3.2924400000E-01  1.4859900000E-01
                       6.5035400000E-01  6.5035400000E-01  3.1757600000E-01
                       3.6041300000E-01  3.6041300000E-01  6.6300200000E-01
                       3.5955800000E-01  7.9384800000E-01  2.1689800000E-01
                       5.9137000000E-01  1.6009700000E-01  8.0920700000E-01
                       1.6009700000E-01  5.9137000000E-01  8.0920700000E-01
                       7.9384800000E-01  3.5955800000E-01  2.1689800000E-01
                       5.4630000000E-01  5.4630000000E-01  5.4810700000E-01
            znucl       55.00000   51.00000    8.00000

 chkinp: Checking input parameters for consistency.

== DATASET  1 ==================================================================
-   mpi_nproc: 1, omp_nthreads: -1 (-1 if OMP is not activated)

--- !DatasetInfo
iteration_state: {dtset: 1, }
dimensions: {natom: 11, nkpt: 1, mband: 57, nsppol: 1, nspinor: 1, nspden: 1, mpw: 27487, }
cutoff_energies: {ecut:  44.0, pawecutdg:  -1.0, }
electrons: {nelect:   9.60000000E+01, charge:   0.00000000E+00, occopt:   1.00000000E+00, tsmear:   1.00000000E-02, }
meta: {optdriver: 1, rfelfd: 2, }
...

 Real(R)+Recip(G) space primitive vectors, cartesian coordinates (Bohr,Bohr^-1):
 R(1)= 11.8161381  0.0000000  1.6030501  G(1)=  0.0846300 -0.0359853  0.0000000
 R(2)=  4.6236760 10.8739477  1.6030501  G(2)=  0.0000000  0.0919629  0.0000000
 R(3)=  0.0000000  0.0000000 15.3687003  G(3)= -0.0088274 -0.0058388  0.0650673
 Unit cell volume ucvol=  1.9746946E+03 bohr^3
 Angles (23,13,12)=  8.22740706E+01  8.22740706E+01  6.62777960E+01 degrees

 getcut: wavevector=  0.0000  0.0000  0.0000  ngfft=  72  72  96
         ecut(hartree)=     44.000   => boxcut(ratio)=   2.02234

--- Pseudopotential description ------------------------------------------------
- pspini: atom type   1  psp file is /scratch/users/j/a/jabreu/pseudos/PBEsol/Cs.psp8
- pspatm: opening atomic psp file    /scratch/users/j/a/jabreu/pseudos/PBEsol/Cs.psp8
- Cs    ONCVPSP-3.3.0  r_core=   2.27353   1.85623   2.01788   1.90105
- 55.00000   9.00000    180112                znucl, zion, pspdat
    8 -116133    3    4       600   0.00000   pspcod,pspxc,lmax,lloc,mmax,r2well
    5.99000000000000    5.00000000000000    0.00000000000000   rchrg,fchrg,qchrg
     nproj     2     2     2     2
     extension_switch     1
  pspatm : epsatm=   22.12462445
         --- l  ekb(1:nproj) -->
             0    6.214110    0.767882
             1    6.311966    0.793598
             2    3.769790    0.913105
             3   -9.247129   -2.432478
 pspatm: atomic psp has been read  and splines computed

- pspini: atom type   2  psp file is /scratch/users/j/a/jabreu/pseudos/PBEsol/Sb.psp8
- pspatm: opening atomic psp file    /scratch/users/j/a/jabreu/pseudos/PBEsol/Sb.psp8
- Sb    ONCVPSP-3.3.0  r_core=   1.81962   2.12485   1.81962
- 51.00000  15.00000    180112                znucl, zion, pspdat
    8 -116133    2    4       600   0.00000   pspcod,pspxc,lmax,lloc,mmax,r2well
    5.99000000000000    5.00000000000000    0.00000000000000   rchrg,fchrg,qchrg
     nproj     2     2     2
     extension_switch     1
  pspatm : epsatm=   26.35641246
         --- l  ekb(1:nproj) -->
             0    9.727814    1.485032
             1    5.505335    0.704623
             2   -4.710637   -1.436443
 pspatm: atomic psp has been read  and splines computed

- pspini: atom type   3  psp file is /scratch/users/j/a/jabreu/pseudos/PBEsol/O.psp8
- pspatm: opening atomic psp file    /scratch/users/j/a/jabreu/pseudos/PBEsol/O.psp8
- O     ONCVPSP-3.3.0  r_core=   1.35509   1.45563   1.26150
-  8.00000   6.00000    180112                znucl, zion, pspdat
    8 -116133    2    4       600   0.00000   pspcod,pspxc,lmax,lloc,mmax,r2well
    5.99000000000000    4.00000000000000    0.00000000000000   rchrg,fchrg,qchrg
     nproj     2     2     1
     extension_switch     1
  pspatm : epsatm=    6.22910522
         --- l  ekb(1:nproj) -->
             0    6.050032    0.820363
             1   -4.739617   -1.153841
             2   -1.335834
 pspatm: atomic psp has been read  and splines computed

   1.65462575E+04                                ecore*ucvol(ha*bohr**3)

 ==>  initialize data related to q vector <==

 The list of irreducible perturbations for this q vector is:
    1)    idir= 1    ipert=  12
    2)    idir= 2    ipert=  12
    3)    idir= 3    ipert=  12

 Perturbation wavevector (in red.coord.)   0.000000  0.000000  0.000000
 Perturbation : derivative vs k along direction   1

 dfpt_looppert : COMMENT -
  In a d/dk calculation, iscf is set to -3 automatically.
 The set of symmetries contains only one element for this perturbation.
 symkpt : not enough symmetry to change the number of k points.

 Initialisation of the first-order wave-functions :
  ireadwf=   0

--- !BeginCycle
iteration_state: {dtset: 1, }
solver: {iscf: 7, nstep: 2000, nline: 4, wfoptalg: 0, }
tolerances: {tolwfr: 1.00E-20, }
...

     iter   2DEtotal(Ha)        deltaE(Ha) residm    vres2
-ETOT  1  -46.669061474401     -4.667E+01 4.082E-02 0.000E+00
 ETOT  2  -46.800111214810     -1.310E-01 6.947E-03 0.000E+00
 ETOT  3  -46.803795683537     -3.684E-03 3.994E-04 0.000E+00
 ETOT  4  -46.804098151127     -3.025E-04 2.241E-04 0.000E+00
 ETOT  5  -46.804132012400     -3.386E-05 1.721E-05 0.000E+00
 ETOT  6  -46.804136222946     -4.211E-06 1.042E-05 0.000E+00
 ETOT  7  -46.804136765973     -5.430E-07 8.588E-07 0.000E+00
[...]
 ETOT 25  -46.804136848654      0.000E+00 3.740E-18 0.000E+00
 ETOT 26  -46.804136848654     -7.105E-15 2.196E-18 0.000E+00
 ETOT 27  -46.804136848654      7.105E-15 2.053E-19 0.000E+00
 ETOT 28  -46.804136848654      0.000E+00 1.204E-19 0.000E+00
 ETOT 29  -46.804136848654      0.000E+00 1.128E-20 0.000E+00
 ETOT 30  -46.804136848654      0.000E+00 9.970E-21 0.000E+00

 At SCF step   30   max residual=  9.97E-21 < tolwfr=  1.00E-20 =>converged.

 ----iterations are completed or convergence reached----

 dfpt_looppert: DFPT cycle converged with prtwf=-1. Will skip output of the 1st-order WFK file.
 dfpt_looppert : ek2=    6.4104199608E+01
          f-sum rule ratio=    1.0275882373E+00
 prteigrs : about to open file /scratch/users/j/a/jabreu/flow_simple_11atoms/flow/w242/t1/tmpdata/tmp_1WF1_EIG
 Expectation of eigenvalue derivatives (hartree) for nkpt=   1  k points:
  (in case of degenerate eigenvalues, averaged derivative)
 kpt#   1, nband= 57, wtk=  1.00000, kpt=  0.0000  0.0000  0.0000 (reduced coord)
   0.00000    0.00000   -0.00000   -0.00000   -0.00000    0.00000   -0.00000   -0.00000
  -0.00000   -0.00000   -0.00000   -0.00000   -0.00000   -0.00000   -0.00000    0.00000
  -0.00000    0.00000    0.00000    0.00000   -0.00000   -0.00000    0.00000   -0.00000
   0.00000   -0.00000   -0.00000   -0.00000   -0.00000    0.00000    0.00000   -0.00000
   0.00000    0.00000   -0.00000   -0.00000   -0.00000    0.00000    0.00000    0.00000
   0.00000   -0.00000    0.00000   -0.00000   -0.00000   -0.00000    0.00000   -0.00000
   0.00000    0.00000    0.00000   -0.00000    0.00000   -0.00000   -0.00000   -0.00000
   0.00001

 Eight components of 2nd-order total energy (hartree) are
 1,2,3: 0th-order hamiltonian combined with 1st-order wavefunctions
     kin0=   6.39121790E+01 eigvalue=   5.46170971E+00  local=  -3.73610422E+01
 4,5,6: 1st-order hamiltonian combined with 1st and 0th-order wfs
     kin1=  -6.58727215E+01  Hartree=   0.00000000E+00     xc=   0.00000000E+00
 7,8,9: eventually, occupation + non-local contributions
    edocc=   6.01216064E+00     enl0=   8.77912969E+00   enl1=  -2.77355522E+01
 1-9 gives the relaxation energy (to be shifted if some occ is /=2.0)
   erelax=  -4.68041368E+01
  No Ewald or frozen-wf contrib.: the relaxation energy is the total one
 2DEtotal=   -0.4680413685E+02 Ha. Also 2DEtotal=   -0.127360533402E+04 eV
    (  non-var. 2DEtotal :   -4.6804136849E+01 Ha)

 Perturbation wavevector (in red.coord.)   0.000000  0.000000  0.000000
 Perturbation : derivative vs k along direction   2
 The set of symmetries contains only one element for this perturbation.
 symkpt : not enough symmetry to change the number of k points.

[...]

 Perturbation wavevector (in red.coord.)   0.000000  0.000000  0.000000
 Perturbation : derivative vs k along direction   3
 The set of symmetries contains only one element for this perturbation.
 symkpt : not enough symmetry to change the number of k points.

 Initialisation of the first-order wave-functions :
  ireadwf=   0

--- !BeginCycle
iteration_state: {dtset: 1, }
solver: {iscf: 7, nstep: 2000, nline: 4, wfoptalg: 0, }
tolerances: {tolwfr: 1.00E-20, }
...

     iter   2DEtotal(Ha)        deltaE(Ha) residm    vres2
-ETOT  1  -23.709174016604     -2.371E+01 2.963E-02 0.000E+00
 ETOT  2  -23.751993707773     -4.282E-02 4.932E-03 0.000E+00
 ETOT  3  -23.753120924589     -1.127E-03 3.621E-04 0.000E+00
 ETOT  4  -23.753211317871     -9.039E-05 1.277E-04 0.000E+00
 ETOT  5  -23.753221004615     -9.687E-06 1.306E-05 0.000E+00
 ETOT  6  -23.753222182051     -1.177E-06 5.270E-06 0.000E+00
 ETOT  7  -23.753222332363     -1.503E-07 6.064E-07 0.000E+00
 ETOT  8  -23.753222352151     -1.979E-08 2.642E-07 0.000E+00
 ETOT  9  -23.753222354816     -2.665E-09 3.044E-08 0.000E+00
 ETOT 10  -23.753222355181     -3.651E-10 1.586E-08 0.000E+00
 ETOT 11  -23.753222355232     -5.078E-11 1.673E-09 0.000E+00
 ETOT 12  -23.753222355239     -7.166E-12 9.662E-10 0.000E+00
 ETOT 13  -23.753222355240     -1.037E-12 1.029E-10 0.000E+00
 ETOT 14  -23.753222355240     -1.350E-13 5.917E-11 0.000E+00
 ETOT 15  -23.753222355240     -2.132E-14 6.348E-12 0.000E+00
 ETOT 16  -23.753222355240      1.421E-14 3.631E-12 0.000E+00
 ETOT 17  -23.753222355240      0.000E+00 3.918E-13 0.000E+00
 ETOT 18  -23.753222355240     -3.553E-15 2.231E-13 0.000E+00
 ETOT 19  -23.753222355240     -1.776E-14 2.418E-14 0.000E+00
 ETOT 20  -23.753222355240      7.105E-15 1.371E-14 0.000E+00
 ETOT 21  -23.753222355240      3.553E-15 1.492E-15 0.000E+00
 ETOT 22  -23.753222355240      0.000E+00 8.433E-16 0.000E+00
 ETOT 23  -23.753222355240     -3.553E-15 9.211E-17 0.000E+00
 ETOT 24  -23.753222355240      3.553E-15 5.189E-17 0.000E+00
 ETOT 25  -23.753222355240      0.000E+00 5.688E-18 0.000E+00
 ETOT 26  -23.753222355240      0.000E+00 3.196E-18 0.000E+00
 ETOT 27  -23.753222355240      3.553E-15 3.515E-19 0.000E+00
 ETOT 28  -23.753222355240     -3.553E-15 1.970E-19 0.000E+00
 ETOT 29  -23.753222355240      3.553E-15 2.175E-20 0.000E+00
 ETOT 30  -23.753222355240      3.553E-15 1.216E-20 0.000E+00
 ETOT 31  -23.753222355240     -3.553E-15 9.917E-21 0.000E+00

 At SCF step   31   max residual=  9.92E-21 < tolwfr=  1.00E-20 =>converged.

 ----iterations are completed or convergence reached----

 dfpt_looppert: DFPT cycle converged with prtwf=-1. Will skip output of the 1st-order WFK file.
 dfpt_looppert : ek2=    3.2940313683E+01
          f-sum rule ratio=    1.0069162634E+00
 prteigrs : about to open file /scratch/users/j/a/jabreu/flow_simple_11atoms/flow/w242/t1/tmpdata/tmp_1WF1_EIG
 Expectation of eigenvalue derivatives (hartree) for nkpt=   1  k points:
  (in case of degenerate eigenvalues, averaged derivative)
 kpt#   1, nband= 57, wtk=  1.00000, kpt=  0.0000  0.0000  0.0000 (reduced coord)
   0.00000    0.00000    0.00000   -0.00000    0.00000   -0.00000   -0.00000    0.00000
  -0.00000    0.00000   -0.00000   -0.00000   -0.00000   -0.00000   -0.00000    0.00000
   0.00000   -0.00000    0.00000   -0.00000   -0.00000   -0.00000    0.00000   -0.00000
  -0.00000    0.00000   -0.00000   -0.00000    0.00000    0.00000   -0.00000   -0.00000
  -0.00000   -0.00000    0.00000   -0.00000   -0.00000    0.00000   -0.00000    0.00000
   0.00000    0.00000   -0.00000    0.00000   -0.00000   -0.00000   -0.00000   -0.00000
  -0.00000    0.00000    0.00000    0.00000    0.00000    0.00000   -0.00000   -0.00000
  -0.00000

 Eight components of 2nd-order total energy (hartree) are
 1,2,3: 0th-order hamiltonian combined with 1st-order wavefunctions
     kin0=   3.15500779E+01 eigvalue=   2.92692585E+00  local=  -1.82737697E+01
 4,5,6: 1st-order hamiltonian combined with 1st and 0th-order wfs
     kin1=  -3.31681376E+01  Hartree=   0.00000000E+00     xc=   0.00000000E+00
 7,8,9: eventually, occupation + non-local contributions
    edocc=   3.41041167E+00     enl0=   4.13957665E+00   enl1=  -1.43383071E+01
 1-9 gives the relaxation energy (to be shifted if some occ is /=2.0)
   erelax=  -2.37532224E+01
  No Ewald or frozen-wf contrib.: the relaxation energy is the total one
 2DEtotal=   -0.2375322236E+02 Ha. Also 2DEtotal=   -0.646358051420E+03 eV
    (  non-var. 2DEtotal :   -2.3753222355E+01 Ha)

 CALCULATION OF EFFECTIVE MASSES
 NOTE : Additional infos (eff. mass eigenvalues, eigenvectors and, if degenerate, average mass) are available in stdout.

 K-point ( 0.000, 0.000, 0.000) | band =    48
 Effective mass tensor:
             -2.0224457317              0.2663678569              0.3914558762
              0.2663678569             -2.2489690228              0.2589263283
              0.3914558762              0.2589263283             -2.3099880778
 Effective mass tensor eigenvalues:
             -2.6016136304             -2.4251551887             -1.5546340132
 Angular average effective mass 1/(<1/m>)=  -2.0833915151
 Angular average effective mass for Frohlich model (<m**0.5>)**2=  -2.1183586814
 Effective masses along directions: (cart. coord. / red. coord. -> eff. mass)
    1:   1.000000  0.000000  0.000000 /   0.931244  0.364397  0.000000 ->  -1.9127506187
    2:   0.000000  1.000000  0.000000 /   0.000000  1.000000  0.000000 ->  -2.1707398126
    3:   0.000000  0.000000  1.000000 /   0.103190  0.103190  0.989295 ->  -2.1906762809
    4:   0.577350  0.577350  0.577350 /   0.504073  0.642363  0.577304 ->  -1.5725767213
    5:   0.000000  0.707107  0.707107 /   0.080715  0.628230  0.773830 ->  -1.9135290762
    6:   0.707107  0.000000  0.707107 /   0.629071  0.291899  0.720461 ->  -1.7052345944
    7:   0.707107  0.707107  0.000000 /   0.606317  0.795223  0.000000 ->  -1.7705249800

 K-point ( 0.000, 0.000, 0.000) | band =    49
 Effective mass tensor:
             28.0676970460             16.7548917958             37.8975425885
             16.7548917958             13.8191032411             25.0669388756
             37.8975425885             25.0669388756             53.9258868047
 Effective mass tensor eigenvalues:
              0.5036699455              2.7367528563             92.5722642900
 Angular average effective mass 1/(<1/m>)=   1.2703111729
 Angular average effective mass for Frohlich model (<m**0.5>)**2=   2.3036533188
 Effective masses along directions: (cart. coord. / red. coord. -> eff. mass)
    1:   1.000000  0.000000  0.000000 /   0.931244  0.364397  0.000000 ->   1.0919722182
    2:   0.000000  1.000000  0.000000 /   0.000000  1.000000  0.000000 ->   1.6496527335
    3:   0.000000  0.000000  1.000000 /   0.103190  0.103190  0.989295 ->   1.1909530223
    4:   0.577350  0.577350  0.577350 /   0.504073  0.642363  0.577304 ->   7.7146524712
    5:   0.000000  0.707107  0.707107 /   0.080715  0.628230  0.773830 ->   5.3964447946
    6:   0.707107  0.000000  0.707107 /   0.629071  0.291899  0.720461 ->  15.4040095019
    7:   0.707107  0.707107  0.000000 /   0.606317  0.795223  0.000000 ->   0.8888708009

 END OF EFFECTIVE MASSES SECTION

 ---- first-order wavefunction calculations are completed ----

 Total localisation tensor (bohr^2) in cartesian coordinates
  WARNING : still subject to testing - especially symmetries.
      direction              matrix element
   alpha     beta       real part   imaginary part
     1        1       1.2907300143    0.0000000000
     1        2       0.4030746945    0.0000000000
     1        3       0.2112782926    0.0000000000
     2        1       0.4030746945    0.0000000000
     2        2       0.9479498928    0.0000000000
     2        3       0.1397478805    0.0000000000
     3        1       0.2112782926    0.0000000000
     3        2       0.1397478805    0.0000000000
     3        3       0.9915541993    0.0000000000

 respfn : d/dk was computed, but no 2DTE, so no DDB output.

== END DATASET(S) ==============================================================

 -outvars: echo values of variables after computation  --------
            acell      1.0000000000E+00  1.0000000000E+00  1.0000000000E+00 Bohr
              amu      1.32905430E+02  1.21753000E+02  1.59994000E+01
             ecut      4.40000000E+01 Hartree
           etotal     -2.3753222355E+01
            fcart      0.0000000000E+00  0.0000000000E+00  0.0000000000E+00
                       0.0000000000E+00  0.0000000000E+00  0.0000000000E+00
                       0.0000000000E+00  0.0000000000E+00  0.0000000000E+00
                       0.0000000000E+00  0.0000000000E+00  0.0000000000E+00
                       0.0000000000E+00  0.0000000000E+00  0.0000000000E+00
                       0.0000000000E+00  0.0000000000E+00  0.0000000000E+00
                       0.0000000000E+00  0.0000000000E+00  0.0000000000E+00
                       0.0000000000E+00  0.0000000000E+00  0.0000000000E+00
                       0.0000000000E+00  0.0000000000E+00  0.0000000000E+00
                       0.0000000000E+00  0.0000000000E+00  0.0000000000E+00
                       0.0000000000E+00  0.0000000000E+00  0.0000000000E+00
-          fftalg         512
           irdden           1
           irdwfk           1
           istwfk        1
              ixc     -116133
           kptopt           0
P           mkmem           1
P          mkqmem           1
P          mk1mem           1
            natom          11
            nband          57
           nbdbuf           4
            ngfft          72      72      96
             nkpt           1
            nstep        2000
             nsym           2
           ntypat           3
              occ      2.000000  2.000000  2.000000  2.000000  2.000000  2.000000
                       2.000000  2.000000  2.000000  2.000000  2.000000  2.000000
                       2.000000  2.000000  2.000000  2.000000  2.000000  2.000000
                       2.000000  2.000000  2.000000  2.000000  2.000000  2.000000
                       2.000000  2.000000  2.000000  2.000000  2.000000  2.000000
                       2.000000  2.000000  2.000000  2.000000  2.000000  2.000000
                       2.000000  2.000000  2.000000  2.000000  2.000000  2.000000
                       2.000000  2.000000  2.000000  2.000000  2.000000  2.000000
                       0.000000  0.000000  0.000000  0.000000  0.000000  0.000000
                       0.000000  0.000000  0.000000
        optdriver           1
            prtwf          -1
            rfdir           1       1       1
           rfelfd           2
            rprim      1.1816138087E+01  0.0000000000E+00  1.6030500789E+00
                       4.6236759965E+00  1.0873947746E+01  1.6030500789E+00
                       0.0000000000E+00  0.0000000000E+00  1.5368700281E+01
          spgroup           8
           strten      0.0000000000E+00  0.0000000000E+00  0.0000000000E+00
                       0.0000000000E+00  0.0000000000E+00  0.0000000000E+00
           symrel      1  0  0   0  1  0   0  0  1       0  1  0   1  0  0   0  0  1
           tolwfr      1.00000000E-20
            typat      1  1  1  1  2  2  3  3  3  3  3
           useylm           1
           xangst      5.6112258277E-02  3.7114882278E-02  8.0570461995E+00
                       8.6680737658E+00  5.7334091921E+00  5.7478398791E+00
                       5.7670178154E+00  3.8145352529E+00  8.0663844337E+00
                       2.8642828471E+00  1.8945507443E+00  1.7671146498E+00
                       5.6578033518E+00  3.7422964572E+00  3.6861586985E+00
                       3.1354398980E+00  2.0739048165E+00  6.0035150081E+00
                       4.1905981947E+00  4.5679961344E+00  2.7424121637E+00
                       4.0894530177E+00  9.2123741210E-01  7.2185587344E+00
                       2.4479904537E+00  3.4028880516E+00  7.2185587344E+00
                       5.8435437231E+00  2.0689849368E+00  2.7424121637E+00
                       4.7525777824E+00  3.1435442153E+00  5.3844758477E+00
            xcart      1.0603680084E-01  7.0136962960E-02  1.5225610757E+01
                       1.6380285517E+01  1.0834573181E+01  1.0861843227E+01
                       1.0898084275E+01  7.2084269522E+00  1.5243257462E+01
                       5.4127101482E+00  3.5801820516E+00  3.3393627334E+00
                       1.0691698849E+01  7.0719154122E+00  6.9658304225E+00
                       5.9251227134E+00  3.9191121289E+00  1.1344999200E+01
                       7.9190829209E+00  8.6322616700E+00  5.1824079329E+00
                       7.7279462367E+00  1.7408864122E+00  1.3641099082E+01
                       4.6260315334E+00  6.4305264784E+00  1.3641099082E+01
                       1.1042697282E+01  3.9098149035E+00  5.1824079329E+00
                       8.9810704340E+00  5.9404376535E+00  1.0175184721E+01
             xred      6.4500000000E-03  6.4500000000E-03  9.8934400000E-01
                       9.9637900000E-01  9.9637900000E-01  4.9889400000E-01
                       6.6290800000E-01  6.6290800000E-01  8.5354700000E-01
                       3.2924400000E-01  3.2924400000E-01  1.4859900000E-01
                       6.5035400000E-01  6.5035400000E-01  3.1757600000E-01
                       3.6041300000E-01  3.6041300000E-01  6.6300200000E-01
                       3.5955800000E-01  7.9384800000E-01  2.1689800000E-01
                       5.9137000000E-01  1.6009700000E-01  8.0920700000E-01
                       1.6009700000E-01  5.9137000000E-01  8.0920700000E-01
                       7.9384800000E-01  3.5955800000E-01  2.1689800000E-01
                       5.4630000000E-01  5.4630000000E-01  5.4810700000E-01
            znucl       55.00000   51.00000    8.00000

- Timing analysis has been suppressed with timopt=0

 Suggested references for the acknowledgment of ABINIT usage.

 Calculation completed.
.Delivered   2 WARNINGs and   5 COMMENTs to log file.