.Version 9.7.2 of ABINIT

 ABINIT is a project of the Universite Catholique de Louvain,
 Corning Inc. and other collaborators, see ~abinit/doc/developers/contributors.txt .
 acknowledgments of the ABINIT effort.

.Starting date : Wed  1 Dec 2021.
- ( at 21h40 )

- input  file    -> /scratch/users/j/a/jabreu/flow_simple_remain_atoms/flow/w230/t1/run.abi
- output file    -> /scratch/users/j/a/jabreu/flow_simple_remain_atoms/flow/w230/t1/run.abo
- root for input  files -> /scratch/users/j/a/jabreu/flow_simple_remain_atoms/flow/w230/t1/indata/in
- root for output files -> /scratch/users/j/a/jabreu/flow_simple_remain_atoms/flow/w230/t1/outdata/out

 Symmetries : space group I4/m m m (#139); Bravais tI (body-center tetrag.)
     intxc =       0      iscf =       7    lmnmax =      25     lnmax =       7
     mgfft =      90  mpssoang =       4    mqgrid =    3001     natom =       5
  nloc_mem =       1    nspden =       1   nspinor =       1    nsppol =       1
      nsym =      16    n1xccc =    2501    ntypat =       3    occopt =       1
   xclevel =       2
-    mband =          34        mffmem =           1         mkmem =           2
-   mkqmem =           2        mk1mem =           2           mpw =        9829
      nfft =      729000          nkpt =           2
  Rough estimation (10% accuracy) of disk space for files :

------------- Echo of variables that govern the present computation ------------
-
- outvars: echo of selected default values
-   iomode0 =  0 , fftalg0 =512 , wfoptalg0 =  0
-
- outvars: echo of global parameters not present in the input file
-  max_nthreads =    0
-
 -outvars: echo values of preprocessed input variables --------
            acell      1.0000000000E+00  1.0000000000E+00  1.0000000000E+00 Bohr
              amu      3.90983000E+01  2.00590000E+02  1.59994000E+01
             ecut      4.40000000E+01 Hartree
-          fftalg         512
           irdden           1
           irdwfk           1
           istwfk        1    0
              ixc     -116133
              kpt      0.00000000E+00  0.00000000E+00  0.00000000E+00
                      -2.39711940E-01  2.39711940E-01  2.39711940E-01
           kptopt           0
P           mkmem           2
P          mkqmem           2
P          mk1mem           2
            natom           5
            nband          34
           nbdbuf           4
            ngfft          90      90      90
             nkpt           2
            nstep        2000
             nsym          16
           ntypat           3
              occ      2.000000  2.000000  2.000000  2.000000  2.000000  2.000000
                       2.000000  2.000000  2.000000  2.000000  2.000000  2.000000
                       2.000000  2.000000  2.000000  2.000000  2.000000  2.000000
                       2.000000  2.000000  2.000000  2.000000  2.000000  2.000000
                       2.000000  0.000000  0.000000  0.000000  0.000000  0.000000
                       0.000000  0.000000  0.000000  0.000000
        optdriver           1
            prtwf          -1
            rfdir           1       1       1
           rfelfd           2
            rprim      7.0925275796E+00  0.0000000000E+00 -1.2170888745E+01
                      -5.1748070900E-01  7.0736243315E+00 -1.2170888745E+01
                       0.0000000000E+00  0.0000000000E+00  1.4086677405E+01
          spgroup         139
           symrel      1  0  0   0  1  0   0  0  1      -1  0  0   0 -1  0   0  0 -1
                      -1 -1 -1   0  0  1   0  1  0       1  1  1   0  0 -1   0 -1  0
                       0  1  0   1  0  0  -1 -1 -1       0 -1  0  -1  0  0   1  1  1
                       0  0  1  -1 -1 -1   1  0  0       0  0 -1   1  1  1  -1  0  0
                       0  1  0   1  0  0   0  0  1       0 -1  0  -1  0  0   0  0 -1
                      -1 -1 -1   0  0  1   1  0  0       1  1  1   0  0 -1  -1  0  0
                       1  0  0   0  1  0  -1 -1 -1      -1  0  0   0 -1  0   1  1  1
                       0  0  1  -1 -1 -1   0  1  0       0  0 -1   1  1  1   0 -1  0
           tolwfr      1.00000000E-20
            typat      1  1  2  3  3
           useylm           1
              wtk        0.50000    0.50000
           xangst      2.3295461733E+00  2.5061927035E+00 -8.6243179277E+00
                       1.1498187761E+00  1.2370080748E+00 -4.2567959365E+00
                       0.0000000000E+00  0.0000000000E+00  0.0000000000E+00
                       2.9873131582E+00  3.2138373243E+00 -1.1059466742E+01
                       4.9205179113E-01  5.2936345408E-01 -1.8216471227E+00
            xcart      4.4022042814E+00  4.7360178459E+00 -1.6297598966E+01
                       2.1728425892E+00  2.3376064856E+00 -8.0441785235E+00
                       0.0000000000E+00  0.0000000000E+00  0.0000000000E+00
                       5.6452037422E+00  6.0732723785E+00 -2.0899363317E+01
                       9.2984312844E-01  1.0003519530E+00 -3.4424141726E+00
             xred      6.6953200000E-01  6.6953200000E-01  1.1102230246E-16
                       3.3046800000E-01  3.3046800000E-01  0.0000000000E+00
                       0.0000000000E+00  0.0000000000E+00  0.0000000000E+00
                       8.5858000000E-01  8.5858000000E-01  1.1102230246E-16
                       1.4142000000E-01  1.4142000000E-01 -1.3877787808E-17
            znucl       19.00000   80.00000    8.00000

 chkinp: Checking input parameters for consistency.

== DATASET  1 ==================================================================
-   mpi_nproc: 1, omp_nthreads: -1 (-1 if OMP is not activated)

--- !DatasetInfo
iteration_state: {dtset: 1, }
dimensions: {natom: 5, nkpt: 2, mband: 34, nsppol: 1, nspinor: 1, nspden: 1, mpw: 9829, }
cutoff_energies: {ecut:  44.0, pawecutdg:  -1.0, }
electrons: {nelect:   5.00000000E+01, charge:   0.00000000E+00, occopt:   1.00000000E+00, tsmear:   1.00000000E-02, }
meta: {optdriver: 1, rfelfd: 2, }
...

 Real(R)+Recip(G) space primitive vectors, cartesian coordinates (Bohr,Bohr^-1):
 R(1)=  7.0925276  0.0000000-12.1708887  G(1)=  0.1409935  0.0103146  0.0000000
 R(2)= -0.5174807  7.0736243-12.1708887  G(2)=  0.0000000  0.1413702  0.0000000
 R(3)=  0.0000000  0.0000000 14.0866774  G(3)=  0.1218183  0.1310557  0.0709891
 Unit cell volume ucvol=  7.0672685E+02 bohr^3
 Angles (23,13,12)=  1.49768709E+02  1.49768709E+02  4.32810183E+01 degrees

 getcut: wavevector=  0.0000  0.0000  0.0000  ngfft=  90  90  90
         ecut(hartree)=     44.000   => boxcut(ratio)=   2.13971

--- Pseudopotential description ------------------------------------------------
- pspini: atom type   1  psp file is /scratch/users/j/a/jabreu/pseudos/PBEsol/K.psp8
- pspatm: opening atomic psp file    /scratch/users/j/a/jabreu/pseudos/PBEsol/K.psp8
- K     ONCVPSP-3.3.0  r_core=   1.36296   1.46408   1.61068
- 19.00000   9.00000    180112                znucl, zion, pspdat
    8 -116133    2    4       400   0.00000   pspcod,pspxc,lmax,lloc,mmax,r2well
    3.99000000000000    5.00000000000000    0.00000000000000   rchrg,fchrg,qchrg
     nproj     2     2     2
     extension_switch     1
  pspatm : epsatm=    8.32487830
         --- l  ekb(1:nproj) -->
             0   10.921326    0.816676
             1    4.431000    0.560368
             2   -3.384038   -1.043186
 pspatm: atomic psp has been read  and splines computed

- pspini: atom type   2  psp file is /scratch/users/j/a/jabreu/pseudos/PBEsol/Hg.psp8
- pspatm: opening atomic psp file    /scratch/users/j/a/jabreu/pseudos/PBEsol/Hg.psp8
- Hg    ONCVPSP-3.3.0  r_core=   1.60079   1.60079   1.45509   1.60079
- 80.00000  20.00000    180112                znucl, zion, pspdat
    8 -116133    3    4       600   0.00000   pspcod,pspxc,lmax,lloc,mmax,r2well
    5.99000000000000    5.00000000000000    0.00000000000000   rchrg,fchrg,qchrg
     nproj     2     2     2     1
     extension_switch     1
  pspatm : epsatm=   30.52477316
         --- l  ekb(1:nproj) -->
             0   15.280580    2.063595
             1   11.999965    1.374025
             2    2.245749    0.205661
             3    0.961656
 pspatm: atomic psp has been read  and splines computed

- pspini: atom type   3  psp file is /scratch/users/j/a/jabreu/pseudos/PBEsol/O.psp8
- pspatm: opening atomic psp file    /scratch/users/j/a/jabreu/pseudos/PBEsol/O.psp8
- O     ONCVPSP-3.3.0  r_core=   1.35509   1.45563   1.26150
-  8.00000   6.00000    180112                znucl, zion, pspdat
    8 -116133    2    4       600   0.00000   pspcod,pspxc,lmax,lloc,mmax,r2well
    5.99000000000000    4.00000000000000    0.00000000000000   rchrg,fchrg,qchrg
     nproj     2     2     1
     extension_switch     1
  pspatm : epsatm=    6.22910522
         --- l  ekb(1:nproj) -->
             0    6.050032    0.820363
             1   -4.739617   -1.153841
             2   -1.335834
 pspatm: atomic psp has been read  and splines computed

   2.98163701E+03                                ecore*ucvol(ha*bohr**3)

 ==>  initialize data related to q vector <==

 The list of irreducible perturbations for this q vector is:
    1)    idir= 1    ipert=   6
    2)    idir= 2    ipert=   6
    3)    idir= 3    ipert=   6

 Perturbation wavevector (in red.coord.)   0.000000  0.000000  0.000000
 Perturbation : derivative vs k along direction   1

 dfpt_looppert : COMMENT -
  In a d/dk calculation, iscf is set to -3 automatically.
 The set of symmetries contains only one element for this perturbation.
 symkpt : not enough symmetry to change the number of k points.

 Initialisation of the first-order wave-functions :
  ireadwf=   0

--- !BeginCycle
iteration_state: {dtset: 1, }
solver: {iscf: 7, nstep: 2000, nline: 4, wfoptalg: 0, }
tolerances: {tolwfr: 1.00E-20, }
...

     iter   2DEtotal(Ha)        deltaE(Ha) residm    vres2
-ETOT  1  -40.023484719047     -4.002E+01 1.549E-01 0.000E+00
 ETOT  2  -40.089410025681     -6.593E-02 1.820E-03 0.000E+00
 ETOT  3  -40.089939842824     -5.298E-04 2.606E-04 0.000E+00
 ETOT  4  -40.089946018331     -6.176E-06 1.193E-05 0.000E+00
 ETOT  5  -40.089946105940     -8.761E-08 1.960E-06 0.000E+00
 ETOT  6  -40.089946107294     -1.355E-09 8.964E-08 0.000E+00
 ETOT  7  -40.089946107316     -2.203E-11 1.570E-08 0.000E+00
 ETOT  8  -40.089946107317     -3.340E-13 7.144E-10 0.000E+00
 ETOT  9  -40.089946107317     -2.842E-14 1.301E-10 0.000E+00
 ETOT 10  -40.089946107317     -2.842E-14 5.893E-12 0.000E+00
 ETOT 11  -40.089946107317      2.842E-14 1.096E-12 0.000E+00
 ETOT 12  -40.089946107317     -2.132E-14 4.995E-14 0.000E+00
 ETOT 13  -40.089946107317     -7.105E-15 9.480E-15 0.000E+00
 ETOT 14  -40.089946107317      1.421E-14 4.450E-16 0.000E+00
 ETOT 15  -40.089946107317     -1.421E-14 8.824E-17 0.000E+00
 ETOT 16  -40.089946107317      1.421E-14 4.533E-18 0.000E+00
 ETOT 17  -40.089946107317      1.421E-14 9.922E-19 0.000E+00
 ETOT 18  -40.089946107317      0.000E+00 6.046E-20 0.000E+00
 ETOT 19  -40.089946107317      0.000E+00 1.476E-20 0.000E+00
 ETOT 20  -40.089946107317      0.000E+00 9.816E-21 0.000E+00

 At SCF step   20   max residual=  9.82E-21 < tolwfr=  1.00E-20 =>converged.

 ----iterations are completed or convergence reached----

 dfpt_looppert: DFPT cycle converged with prtwf=-1. Will skip output of the 1st-order WFK file.
 dfpt_looppert : ek2=    7.8899773026E+01
          f-sum rule ratio=    1.0229307203E+00
 prteigrs : about to open file /scratch/users/j/a/jabreu/flow_simple_remain_atoms/flow/w230/t1/tmpdata/tmp_1WF1_EIG
 Expectation of eigenvalue derivatives (hartree) for nkpt=   2  k points:
  (in case of degenerate eigenvalues, averaged derivative)
 kpt#   1, nband= 34, wtk=  0.50000, kpt=  0.0000  0.0000  0.0000 (reduced coord)
  -0.00000   -0.00000    0.00000    0.00000   -0.00000    0.00000   -0.00000    0.00000
   0.00000   -0.00000   -0.00000   -0.00000   -0.00000   -0.00000   -0.00000   -0.00000
  -0.00000    0.00000   -0.00000   -0.00000    0.00000   -0.00000   -0.00000   -0.00000
  -0.00000   -0.00000   -0.00000   -0.00000    0.00000   -0.00000   -0.00000   -0.00000
  -0.00000   -0.00000
 prteigrs : prtvol=0 or 1, do not print more k-points.

 Eight components of 2nd-order total energy (hartree) are
 1,2,3: 0th-order hamiltonian combined with 1st-order wavefunctions
     kin0=   5.69225894E+01 eigvalue=   2.42919661E+00  local=  -3.01637270E+01
 4,5,6: 1st-order hamiltonian combined with 1st and 0th-order wfs
     kin1=  -8.07090016E+01  Hartree=   0.00000000E+00     xc=   0.00000000E+00
 7,8,9: eventually, occupation + non-local contributions
    edocc=   9.20798165E+00     enl0=   1.69390548E+00   enl1=   5.29109435E-01
 1-9 gives the relaxation energy (to be shifted if some occ is /=2.0)
   erelax=  -4.00899461E+01
  No Ewald or frozen-wf contrib.: the relaxation energy is the total one
 2DEtotal=   -0.4008994611E+02 Ha. Also 2DEtotal=   -0.109090291245E+04 eV
    (  non-var. 2DEtotal :   -4.0089946107E+01 Ha)

 Perturbation wavevector (in red.coord.)   0.000000  0.000000  0.000000
 Perturbation : derivative vs k along direction   2
 The set of symmetries contains only one element for this perturbation.
 symkpt : not enough symmetry to change the number of k points.

[...]

 Perturbation wavevector (in red.coord.)   0.000000  0.000000  0.000000
 Perturbation : derivative vs k along direction   3
 The set of symmetries contains only one element for this perturbation.
 symkpt : not enough symmetry to change the number of k points.

 Initialisation of the first-order wave-functions :
  ireadwf=   0

--- !BeginCycle
iteration_state: {dtset: 1, }
solver: {iscf: 7, nstep: 2000, nline: 4, wfoptalg: 0, }
tolerances: {tolwfr: 1.00E-20, }
...

     iter   2DEtotal(Ha)        deltaE(Ha) residm    vres2
-ETOT  1  -74.395748110328     -7.440E+01 4.523E-01 0.000E+00
 ETOT  2  -74.513924368265     -1.182E-01 1.250E-02 0.000E+00
 ETOT  3  -74.514897712928     -9.733E-04 1.455E-03 0.000E+00
 ETOT  4  -74.514909486777     -1.177E-05 1.307E-04 0.000E+00
 ETOT  5  -74.514909660608     -1.738E-07 2.244E-05 0.000E+00
 ETOT  6  -74.514909663428     -2.820E-09 2.033E-06 0.000E+00
 ETOT  7  -74.514909663477     -4.862E-11 4.018E-07 0.000E+00
 ETOT  8  -74.514909663478     -7.532E-13 3.637E-08 0.000E+00
 ETOT  9  -74.514909663478     -4.263E-14 7.596E-09 0.000E+00
 ETOT 10  -74.514909663478      0.000E+00 6.922E-10 0.000E+00
 ETOT 11  -74.514909663478      4.263E-14 1.476E-10 0.000E+00
 ETOT 12  -74.514909663478      0.000E+00 1.360E-11 0.000E+00
 ETOT 13  -74.514909663478      0.000E+00 2.917E-12 0.000E+00
 ETOT 14  -74.514909663478     -4.263E-14 2.710E-13 0.000E+00
 ETOT 15  -74.514909663478      4.263E-14 5.864E-14 0.000E+00
 ETOT 16  -74.514909663478     -1.421E-14 5.296E-15 0.000E+00
 ETOT 17  -74.514909663478      1.421E-14 1.308E-15 0.000E+00
 ETOT 18  -74.514909663478      0.000E+00 1.341E-16 0.000E+00
 ETOT 19  -74.514909663478      0.000E+00 4.259E-17 0.000E+00
 ETOT 20  -74.514909663478      0.000E+00 4.682E-18 0.000E+00
 ETOT 21  -74.514909663478      0.000E+00 1.103E-18 0.000E+00
 ETOT 22  -74.514909663478      0.000E+00 1.170E-19 0.000E+00
 ETOT 23  -74.514909663478     -2.842E-14 2.708E-20 0.000E+00
 ETOT 24  -74.514909663478      0.000E+00 1.000E-20 0.000E+00

 At SCF step   24   max residual=  1.00E-20 < tolwfr=  1.00E-20 =>converged.

 ----iterations are completed or convergence reached----

 dfpt_looppert: DFPT cycle converged with prtwf=-1. Will skip output of the 1st-order WFK file.
 dfpt_looppert : ek2=    1.4628627104E+02
          f-sum rule ratio=    1.0242186521E+00
 prteigrs : about to open file /scratch/users/j/a/jabreu/flow_simple_remain_atoms/flow/w230/t1/tmpdata/tmp_1WF1_EIG
 Expectation of eigenvalue derivatives (hartree) for nkpt=   2  k points:
  (in case of degenerate eigenvalues, averaged derivative)
 kpt#   1, nband= 34, wtk=  0.50000, kpt=  0.0000  0.0000  0.0000 (reduced coord)
  -0.00000    0.00000    0.00000    0.00000   -0.00000    0.00000    0.00000    0.00000
   0.00000   -0.00000   -0.00000   -0.00000    0.00000    0.00000   -0.00000   -0.00000
  -0.00000   -0.00000   -0.00000   -0.00000   -0.00000    0.00000    0.00000   -0.00000
  -0.00000   -0.00000   -0.00000    0.00000   -0.00000   -0.00000   -0.00000   -0.00000
   0.00000    0.00000
 prteigrs : prtvol=0 or 1, do not print more k-points.

 Eight components of 2nd-order total energy (hartree) are
 1,2,3: 0th-order hamiltonian combined with 1st-order wavefunctions
     kin0=   1.06174249E+02 eigvalue=   5.00897278E+00  local=  -5.64323715E+01
 4,5,6: 1st-order hamiltonian combined with 1st and 0th-order wfs
     kin1=  -1.49829127E+02  Hartree=   0.00000000E+00     xc=   0.00000000E+00
 7,8,9: eventually, occupation + non-local contributions
    edocc=   1.65351750E+01     enl0=   3.22888465E+00   enl1=   7.99308016E-01
 1-9 gives the relaxation energy (to be shifted if some occ is /=2.0)
   erelax=  -7.45149097E+01
  No Ewald or frozen-wf contrib.: the relaxation energy is the total one
 2DEtotal=   -0.7451490966E+02 Ha. Also 2DEtotal=   -0.202765381015E+04 eV
    (  non-var. 2DEtotal :   -7.4514909663E+01 Ha)

 CALCULATION OF EFFECTIVE MASSES
 NOTE : Additional infos (eff. mass eigenvalues, eigenvectors and, if degenerate, average mass) are available in stdout.

 COMMENTS:
 - At k-point ( 0.000, 0.000, 0.000), bands    24 through    25
   are DEGENERATE (effective mass tensor is therefore not defined).
   See Section IIIB Eqs. (67)-(70) and Appendix E of PRB 93 205147 (2016).
 - Angular average effective mass for Frohlich model is to be averaged over degenerate bands. See later.
 - Associated theta integrals calculated with ntheta=   1000 points.

 K-point ( 0.000, 0.000, 0.000) | band =    24
 Transport equivalent effective mass tensor:
             -2.0859958584             -0.9366416192              3.2231739237
             -0.9366416192             -2.2230384661              3.4675831074
              3.2231739237              3.4675831074            -13.1480297799
 Transport equivalent effective mass tensor eigenvalues:
            -15.0263191017             -1.2153725026             -1.2153725001
 Angular average effective mass 1/(<1/m>)=  -1.7475535694
 Angular average effective mass for Frohlich model (<m**0.5>)**2=  -2.1692258745
 Effective masses along directions: (cart. coord. / red. coord. -> eff. mass)
    1:   1.000000  0.000000  0.000000 /   0.997349 -0.072768  0.000000 ->  -1.3283149884
    2:   0.000000  1.000000  0.000000 /   0.000000  1.000000  0.000000 ->  -1.3433166928
    3:   0.000000  0.000000  1.000000 /  -0.547209 -0.547209  0.633344 ->  -5.7652233614
    4:   0.577350  0.577350  0.577350 /  -0.317553 -0.351093  0.880848 ->  -1.2389986362
    5:   0.000000  0.707107  0.707107 /  -0.630568 -0.264087  0.729824 ->  -1.5471876036
    6:   0.707107  0.000000  0.707107 /  -0.258744 -0.646475  0.717720 ->  -1.5781738990
    7:   0.707107  0.707107  0.000000 /   0.734329  0.678794  0.000000 ->  -1.3438945204

 K-point ( 0.000, 0.000, 0.000) | band =    25
 Transport equivalent effective mass tensor:
             -4.6616389422             -0.7909166079              2.7217046852
             -0.7909166079             -4.7773601293              2.9280881053
              2.7217046852              2.9280881053            -14.0026151942
 Transport equivalent effective mass tensor eigenvalues:
            -15.5886756325             -3.9264693170             -3.9264693163
 Angular average effective mass 1/(<1/m>)=  -5.0899064175
 Angular average effective mass for Frohlich model (<m**0.5>)**2=  -5.5826870665
 Effective masses along directions: (cart. coord. / red. coord. -> eff. mass)
    1:   1.000000  0.000000  0.000000 /   0.997349 -0.072768  0.000000 ->  -3.6585118425
    2:   0.000000  1.000000  0.000000 /   0.000000  1.000000  0.000000 ->  -3.6725480155
    3:   0.000000  0.000000  1.000000 /  -0.547209 -0.547209  0.633344 -> -11.1422752691
    4:   0.577350  0.577350  0.577350 /  -0.317553 -0.351093  0.880848 ->  -4.4213962698
    5:   0.000000  0.707107  0.707107 /  -0.630568 -0.264087  0.729824 ->  -4.2957135577
    6:   0.707107  0.000000  0.707107 /  -0.258744 -0.646475  0.717720 ->  -4.2854225231
    7:   0.707107  0.707107  0.000000 /   0.734329  0.678794  0.000000 ->  -4.7006857199

 Angular average effective mass for Frohlich model, averaged over degenerate bands.
 Value of     (<<m**0.5>>)**2 =     3.677957E+00
 Absolute Value of <<m**0.5>> =     1.917800E+00

 K-point (-0.240, 0.240, 0.240) | band =    26
 Effective mass tensor:
              1.3511089176              0.2168579016             -0.5757582088
              0.2168579016              0.7514715060             -0.8025817818
             -0.5757582088             -0.8025817818              3.3261169532
 Effective mass tensor eigenvalues:
              0.5182427417              1.1955198953              3.7149347397
 Angular average effective mass 1/(<1/m>)=   0.9883904957
 Angular average effective mass for Frohlich model (<m**0.5>)**2=   1.1637238929
 Effective masses along directions: (cart. coord. / red. coord. -> eff. mass)
    1:   1.000000  0.000000  0.000000 /   0.997349 -0.072768  0.000000 ->   1.2405567628
    2:   0.000000  1.000000  0.000000 /   0.000000  1.000000  0.000000 ->   0.5529582278
    3:   0.000000  0.000000  1.000000 /  -0.547209 -0.547209  0.633344 ->   2.3770299592
    4:   0.577350  0.577350  0.577350 /  -0.317553 -0.351093  0.880848 ->   0.7754957373
    5:   0.000000  0.707107  0.707107 /  -0.630568 -0.264087  0.729824 ->   0.6529739619
    6:   0.707107  0.000000  0.707107 /  -0.258744 -0.646475  0.717720 ->   1.3778781142
    7:   0.707107  0.707107  0.000000 /   0.734329  0.678794  0.000000 ->   0.8370602199

 END OF EFFECTIVE MASSES SECTION

 ---- first-order wavefunction calculations are completed ----

 Total localisation tensor (bohr^2) in cartesian coordinates
  WARNING : still subject to testing - especially symmetries.
      direction              matrix element
   alpha     beta       real part   imaginary part
     1        1       0.6380937619    0.0000000000
     1        2      -0.0496029916    0.0000000000
     1        3      -1.0034049020    0.0000000000
     2        1      -0.0496029916    0.0000000000
     2        2       0.6780405953    0.0000000000
     2        3      -1.1666376759    0.0000000000
     3        1      -1.0034049020    0.0000000000
     3        2      -1.1666376759    0.0000000000
     3        3       8.6271079846    0.0000000000

 respfn : d/dk was computed, but no 2DTE, so no DDB output.

== END DATASET(S) ==============================================================

 -outvars: echo values of variables after computation  --------
            acell      1.0000000000E+00  1.0000000000E+00  1.0000000000E+00 Bohr
              amu      3.90983000E+01  2.00590000E+02  1.59994000E+01
             ecut      4.40000000E+01 Hartree
           etotal     -7.4514909663E+01
            fcart      0.0000000000E+00  0.0000000000E+00  0.0000000000E+00
                       0.0000000000E+00  0.0000000000E+00  0.0000000000E+00
                       0.0000000000E+00  0.0000000000E+00  0.0000000000E+00
                       0.0000000000E+00  0.0000000000E+00  0.0000000000E+00
                       0.0000000000E+00  0.0000000000E+00  0.0000000000E+00
-          fftalg         512
           irdden           1
           irdwfk           1
           istwfk        1    0
              ixc     -116133
              kpt      0.00000000E+00  0.00000000E+00  0.00000000E+00
                      -2.39711940E-01  2.39711940E-01  2.39711940E-01
           kptopt           0
P           mkmem           2
P          mkqmem           2
P          mk1mem           2
            natom           5
            nband          34
           nbdbuf           4
            ngfft          90      90      90
             nkpt           2
            nstep        2000
             nsym          16
           ntypat           3
              occ      2.000000  2.000000  2.000000  2.000000  2.000000  2.000000
                       2.000000  2.000000  2.000000  2.000000  2.000000  2.000000
                       2.000000  2.000000  2.000000  2.000000  2.000000  2.000000
                       2.000000  2.000000  2.000000  2.000000  2.000000  2.000000
                       2.000000  0.000000  0.000000  0.000000  0.000000  0.000000
                       0.000000  0.000000  0.000000  0.000000
        optdriver           1
            prtwf          -1
            rfdir           1       1       1
           rfelfd           2
            rprim      7.0925275796E+00  0.0000000000E+00 -1.2170888745E+01
                      -5.1748070900E-01  7.0736243315E+00 -1.2170888745E+01
                       0.0000000000E+00  0.0000000000E+00  1.4086677405E+01
          spgroup         139
           strten      0.0000000000E+00  0.0000000000E+00  0.0000000000E+00
                       0.0000000000E+00  0.0000000000E+00  0.0000000000E+00
           symrel      1  0  0   0  1  0   0  0  1      -1  0  0   0 -1  0   0  0 -1
                      -1 -1 -1   0  0  1   0  1  0       1  1  1   0  0 -1   0 -1  0
                       0  1  0   1  0  0  -1 -1 -1       0 -1  0  -1  0  0   1  1  1
                       0  0  1  -1 -1 -1   1  0  0       0  0 -1   1  1  1  -1  0  0
                       0  1  0   1  0  0   0  0  1       0 -1  0  -1  0  0   0  0 -1
                      -1 -1 -1   0  0  1   1  0  0       1  1  1   0  0 -1  -1  0  0
                       1  0  0   0  1  0  -1 -1 -1      -1  0  0   0 -1  0   1  1  1
                       0  0  1  -1 -1 -1   0  1  0       0  0 -1   1  1  1   0 -1  0
           tolwfr      1.00000000E-20
            typat      1  1  2  3  3
           useylm           1
              wtk        0.50000    0.50000
           xangst      2.3295461733E+00  2.5061927035E+00 -8.6243179277E+00
                       1.1498187761E+00  1.2370080748E+00 -4.2567959365E+00
                       0.0000000000E+00  0.0000000000E+00  0.0000000000E+00
                       2.9873131582E+00  3.2138373243E+00 -1.1059466742E+01
                       4.9205179113E-01  5.2936345408E-01 -1.8216471227E+00
            xcart      4.4022042814E+00  4.7360178459E+00 -1.6297598966E+01
                       2.1728425892E+00  2.3376064856E+00 -8.0441785235E+00
                       0.0000000000E+00  0.0000000000E+00  0.0000000000E+00
                       5.6452037422E+00  6.0732723785E+00 -2.0899363317E+01
                       9.2984312844E-01  1.0003519530E+00 -3.4424141726E+00
             xred      6.6953200000E-01  6.6953200000E-01  1.1102230246E-16
                       3.3046800000E-01  3.3046800000E-01  0.0000000000E+00
                       0.0000000000E+00  0.0000000000E+00  0.0000000000E+00
                       8.5858000000E-01  8.5858000000E-01  1.1102230246E-16
                       1.4142000000E-01  1.4142000000E-01 -1.3877787808E-17
            znucl       19.00000   80.00000    8.00000

- Timing analysis has been suppressed with timopt=0

 Suggested references for the acknowledgment of ABINIT usage.

 Calculation completed.
.Delivered   2 WARNINGs and   5 COMMENTs to log file.