.Version 9.5.2 of ABINIT

 ABINIT is a project of the Universite Catholique de Louvain,
 Corning Inc. and other collaborators, see ~abinit/doc/developers/contributors.txt .
 acknowledgments of the ABINIT effort.

.Starting date : Mon 24 May 2021.
- ( at 11h19 )

- input  file    -> /scratch/users/j/a/jabreu/flow_simple_10atoms/flow/w316/t1/run.abi
- output file    -> /scratch/users/j/a/jabreu/flow_simple_10atoms/flow/w316/t1/run.abo
- root for input  files -> /scratch/users/j/a/jabreu/flow_simple_10atoms/flow/w316/t1/indata/in
- root for output files -> /scratch/users/j/a/jabreu/flow_simple_10atoms/flow/w316/t1/outdata/out

 Symmetries : space group Fm -3 m (#225); Bravais cF (face-center cubic)
     intxc =       0      iscf =       7    lmnmax =      18     lnmax =       6
     mgfft =      72  mpssoang =       3    mqgrid =    3001     natom =      10
  nloc_mem =       1    nspden =       1   nspinor =       1    nsppol =       1
      nsym =      48    n1xccc =    2501    ntypat =       4    occopt =       1
   xclevel =       2
-    mband =          51        mffmem =           1         mkmem =           2
-   mkqmem =           2        mk1mem =           2           mpw =       17244
      nfft =      373248          nkpt =           2
  Rough estimation (10% accuracy) of disk space for files :

------------- Echo of variables that govern the present computation ------------
-
- outvars: echo of selected default values
-   iomode0 =  0 , fftalg0 =512 , wfoptalg0 =  0
-
- outvars: echo of global parameters not present in the input file
-  max_nthreads =    0
-
 -outvars: echo values of preprocessed input variables --------
            acell      1.0000000000E+00  1.0000000000E+00  1.0000000000E+00 Bohr
              amu      8.54678000E+01  2.29897680E+01  2.08980370E+02
                       1.89984032E+01
             ecut      4.40000000E+01 Hartree
-          fftalg         512
           irdden           1
           irdwfk           1
              ixc     -116133
              kpt      5.00000000E-01  2.50000000E-01  7.50000000E-01
                       4.73684210E-01  4.73684210E-01  4.73684210E-01
           kptopt           0
P           mkmem           2
P          mkqmem           2
P          mk1mem           2
            natom          10
            nband          51
           nbdbuf           4
            ngfft          72      72      72
             nkpt           2
            nstep        2000
             nsym          48
           ntypat           4
              occ      2.000000  2.000000  2.000000  2.000000  2.000000  2.000000
                       2.000000  2.000000  2.000000  2.000000  2.000000  2.000000
                       2.000000  2.000000  2.000000  2.000000  2.000000  2.000000
                       2.000000  2.000000  2.000000  2.000000  2.000000  2.000000
                       2.000000  2.000000  2.000000  2.000000  2.000000  2.000000
                       2.000000  2.000000  2.000000  2.000000  2.000000  2.000000
                       2.000000  2.000000  2.000000  2.000000  2.000000  2.000000
                       0.000000  0.000000  0.000000  0.000000  0.000000  0.000000
                       0.000000  0.000000  0.000000
        optdriver           1
            prtwf          -1
            rfdir           1       1       1
           rfelfd           2
            rprim      1.0429169133E+01  0.0000000000E+00  6.0212836066E+00
                       3.4763897111E+00  9.8327149552E+00  6.0212836066E+00
                       0.0000000000E+00  0.0000000000E+00  1.2042567213E+01
          spgroup         225
           symrel      1  0  0   0  1  0   0  0  1      -1  0  0   0 -1  0   0  0 -1
                       0 -1  1   0 -1  0   1 -1  0       0  1 -1   0  1  0  -1  1  0
                      -1  0  0  -1  0  1  -1  1  0       1  0  0   1  0 -1   1 -1  0
                       0  1 -1   1  0 -1   0  0 -1       0 -1  1  -1  0  1   0  0  1
                      -1  0  0  -1  1  0  -1  0  1       1  0  0   1 -1  0   1  0 -1
                       0 -1  1   1 -1  0   0 -1  0       0  1 -1  -1  1  0   0  1  0
                       1  0  0   0  0  1   0  1  0      -1  0  0   0  0 -1   0 -1  0
                       0  1 -1   0  0 -1   1  0 -1       0 -1  1   0  0  1  -1  0  1
                      -1  0  1  -1  1  0  -1  0  0       1  0 -1   1 -1  0   1  0  0
                       0 -1  0   1 -1  0   0 -1  1       0  1  0  -1  1  0   0  1 -1
                       1  0 -1   0  0 -1   0  1 -1      -1  0  1   0  0  1   0 -1  1
                       0  1  0   0  0  1   1  0  0       0 -1  0   0  0 -1  -1  0  0
                       1  0 -1   0  1 -1   0  0 -1      -1  0  1   0 -1  1   0  0  1
                       0 -1  0   0 -1  1   1 -1  0       0  1  0   0  1 -1  -1  1  0
                      -1  0  1  -1  0  0  -1  1  0       1  0 -1   1  0  0   1 -1  0
                       0  1  0   1  0  0   0  0  1       0 -1  0  -1  0  0   0  0 -1
                       0  0 -1   0  1 -1   1  0 -1       0  0  1   0 -1  1  -1  0  1
                       1 -1  0   0 -1  1   0 -1  0      -1  1  0   0  1 -1   0  1  0
                       0  0  1   1  0  0   0  1  0       0  0 -1  -1  0  0   0 -1  0
                      -1  1  0  -1  0  0  -1  0  1       1 -1  0   1  0  0   1  0 -1
                       0  0  1   0  1  0   1  0  0       0  0 -1   0 -1  0  -1  0  0
                       1 -1  0   0 -1  0   0 -1  1      -1  1  0   0  1  0   0  1 -1
                       0  0 -1   1  0 -1   0  1 -1       0  0  1  -1  0  1   0 -1  1
                      -1  1  0  -1  0  1  -1  0  0       1 -1  0   1  0 -1   1  0  0
           tolwfr      1.00000000E-20
            typat      1  1  2  3  4  4  4  4  4  4
           useylm           1
              wtk        0.50000    0.50000
           xangst      5.5188786099E+00  3.9024364896E+00  9.5589781532E+00
                       1.8396262033E+00  1.3008121632E+00  3.1863260511E+00
                       0.0000000000E+00  0.0000000000E+00  0.0000000000E+00
                       3.6792524066E+00  2.6016243264E+00  6.3726521021E+00
                       5.5151625650E+00  3.8998088491E+00  6.3726521021E+00
                       4.5972074858E+00  1.3034398038E+00  4.7827072659E+00
                       1.8433422482E+00  1.3034398038E+00  6.3726521021E+00
                       4.5972074858E+00  1.3034398038E+00  7.9625969384E+00
                       2.7612973274E+00  3.8998088491E+00  4.7827072659E+00
                       2.7612973274E+00  3.8998088491E+00  7.9625969384E+00
            xcart      1.0429169133E+01  7.3745362164E+00  1.8063850820E+01
                       3.4763897111E+00  2.4581787388E+00  6.0212836066E+00
                       0.0000000000E+00  0.0000000000E+00  0.0000000000E+00
                       6.9527794222E+00  4.9163574776E+00  1.2042567213E+01
                       1.0422146826E+01  7.3695706953E+00  1.2042567213E+01
                       8.6874631242E+00  2.4631442599E+00  9.0380069063E+00
                       3.4834120183E+00  2.4631442599E+00  1.2042567213E+01
                       8.6874631242E+00  2.4631442599E+00  1.5047127520E+01
                       5.2180957203E+00  7.3695706953E+00  9.0380069063E+00
                       5.2180957203E+00  7.3695706953E+00  1.5047127520E+01
             xred      7.5000000000E-01  7.5000000000E-01  7.5000000000E-01
                       2.5000000000E-01  2.5000000000E-01  2.5000000000E-01
                       0.0000000000E+00  0.0000000000E+00  0.0000000000E+00
                       5.0000000000E-01  5.0000000000E-01  5.0000000000E-01
                       7.4949500000E-01  7.4949500000E-01  2.5050500000E-01
                       7.4949500000E-01  2.5050500000E-01  2.5050500000E-01
                       2.5050500000E-01  2.5050500000E-01  7.4949500000E-01
                       7.4949500000E-01  2.5050500000E-01  7.4949500000E-01
                       2.5050500000E-01  7.4949500000E-01  2.5050500000E-01
                       2.5050500000E-01  7.4949500000E-01  7.4949500000E-01
            znucl       37.00000   11.00000   83.00000    9.00000

 chkinp: Checking input parameters for consistency.

== DATASET  1 ==================================================================
-   mpi_nproc: 1, omp_nthreads: -1 (-1 if OMP is not activated)

--- !DatasetInfo
iteration_state: {dtset: 1, }
dimensions: {natom: 10, nkpt: 2, mband: 51, nsppol: 1, nspinor: 1, nspden: 1, mpw: 17244, }
cutoff_energies: {ecut:  44.0, pawecutdg:  -1.0, }
electrons: {nelect:   8.40000000E+01, charge:   0.00000000E+00, occopt:   1.00000000E+00, tsmear:   1.00000000E-02, }
meta: {optdriver: 1, rfelfd: 2, }
...

 Real(R)+Recip(G) space primitive vectors, cartesian coordinates (Bohr,Bohr^-1):
 R(1)= 10.4291691  0.0000000  6.0212836  G(1)=  0.0958849 -0.0339004  0.0000000
 R(2)=  3.4763897  9.8327150  6.0212836  G(2)=  0.0000000  0.1017013  0.0000000
 R(3)=  0.0000000  0.0000000 12.0425672  G(3)= -0.0479425 -0.0339004  0.0830388
 Unit cell volume ucvol=  1.2349297E+03 bohr^3
 Angles (23,13,12)=  6.00000000E+01  6.00000000E+01  6.00000000E+01 degrees

 getcut: wavevector=  0.0000  0.0000  0.0000  ngfft=  72  72  72
         ecut(hartree)=     44.000   => boxcut(ratio)=   2.00227

--- Pseudopotential description ------------------------------------------------
- pspini: atom type   1  psp file is /scratch/users/j/a/jabreu/pseudos/PBEsol/Rb.psp8
- pspatm: opening atomic psp file    /scratch/users/j/a/jabreu/pseudos/PBEsol/Rb.psp8
- Rb    ONCVPSP-3.3.0  r_core=   1.71227   1.75361   1.90633
- 37.00000   9.00000    180112                znucl, zion, pspdat
    8 -116133    2    4       600   0.00000   pspcod,pspxc,lmax,lloc,mmax,r2well
    5.99000000000000    7.00000000000000    0.00000000000000   rchrg,fchrg,qchrg
     nproj     2     2     2
     extension_switch     1
  pspatm : epsatm=   34.48400912
         --- l  ekb(1:nproj) -->
             0    8.196957   -0.477221
             1    3.231347   -0.378736
             2   -1.047201    0.996637
 pspatm: atomic psp has been read  and splines computed

- pspini: atom type   2  psp file is /scratch/users/j/a/jabreu/pseudos/PBEsol/Na.psp8
- pspatm: opening atomic psp file    /scratch/users/j/a/jabreu/pseudos/PBEsol/Na.psp8
- Na    ONCVPSP-3.3.0  r_core=   1.20708   1.55069
- 11.00000   9.00000    180112                znucl, zion, pspdat
    8 -116133    1    4       400   0.00000   pspcod,pspxc,lmax,lloc,mmax,r2well
    3.99000000000000    0.00000000000000    0.00000000000000   rchrg,fchrg,qchrg
     nproj     2     2
     extension_switch     1
  pspatm : epsatm=    9.32878306
         --- l  ekb(1:nproj) -->
             0    2.657905   -0.678300
             1   -6.761319   -2.404728
 pspatm: atomic psp has been read  and splines computed

[...]

- pspini: atom type   4  psp file is /scratch/users/j/a/jabreu/pseudos/PBEsol/F.psp8
- pspatm: opening atomic psp file    /scratch/users/j/a/jabreu/pseudos/PBEsol/F.psp8
- F     ONCVPSP-3.3.0  r_core=   1.30942   1.45782   1.60379
-  9.00000   7.00000    180112                znucl, zion, pspdat
[...]
   erelax=  -4.40503411E+01
  No Ewald or frozen-wf contrib.: the relaxation energy is the total one
 2DEtotal=   -0.4405034107E+02 Ha. Also 2DEtotal=   -0.119867073994E+04 eV
    (  non-var. 2DEtotal :   -4.4050341067E+01 Ha)

 Perturbation wavevector (in red.coord.)   0.000000  0.000000  0.000000
 Perturbation : derivative vs k along direction   2
 The set of symmetries contains only one element for this perturbation.
 symkpt : not enough symmetry to change the number of k points.

[...]

 Perturbation wavevector (in red.coord.)   0.000000  0.000000  0.000000
 Perturbation : derivative vs k along direction   3
 The set of symmetries contains only one element for this perturbation.
 symkpt : not enough symmetry to change the number of k points.

 Initialisation of the first-order wave-functions :
  ireadwf=   0

--- !BeginCycle
iteration_state: {dtset: 1, }
solver: {iscf: 7, nstep: 2000, nline: 4, wfoptalg: 0, }
tolerances: {tolwfr: 1.00E-20, }
...

     iter   2DEtotal(Ha)        deltaE(Ha) residm    vres2
-ETOT  1  -43.992727904037     -4.399E+01 6.829E-02 0.000E+00
 ETOT  2  -44.049992708453     -5.726E-02 8.211E-03 0.000E+00
 ETOT  3  -44.050336959818     -3.443E-04 1.264E-03 0.000E+00
 ETOT  4  -44.050340986828     -4.027E-06 2.047E-04 0.000E+00
 ETOT  5  -44.050341049914     -6.309E-08 4.131E-05 0.000E+00
 ETOT  6  -44.050341051039     -1.125E-09 9.302E-06 0.000E+00
 ETOT  7  -44.050341051061     -2.164E-11 1.741E-06 0.000E+00
 ETOT  8  -44.050341051061     -4.263E-13 9.599E-07 0.000E+00
 ETOT  9  -44.050341051061     -1.421E-14 1.592E-07 0.000E+00
 ETOT 10  -44.050341051061      0.000E+00 1.082E-07 0.000E+00
 ETOT 11  -44.050341051061      7.105E-15 1.842E-08 0.000E+00
 ETOT 12  -44.050341051061     -2.132E-14 1.259E-08 0.000E+00
 ETOT 13  -44.050341051061      2.842E-14 2.171E-09 0.000E+00
 ETOT 14  -44.050341051061     -2.842E-14 1.488E-09 0.000E+00
 ETOT 15  -44.050341051061      2.842E-14 2.583E-10 0.000E+00
 ETOT 16  -44.050341051061     -2.842E-14 1.772E-10 0.000E+00
 ETOT 17  -44.050341051061      1.421E-14 3.087E-11 0.000E+00
 ETOT 18  -44.050341051061      7.105E-15 2.120E-11 0.000E+00
 ETOT 19  -44.050341051061     -7.105E-15 3.701E-12 0.000E+00
 ETOT 20  -44.050341051061      0.000E+00 2.543E-12 0.000E+00
 ETOT 21  -44.050341051061      1.421E-14 4.445E-13 0.000E+00
 ETOT 22  -44.050341051061      0.000E+00 3.056E-13 0.000E+00
 ETOT 23  -44.050341051061      7.105E-15 5.346E-14 0.000E+00
 ETOT 24  -44.050341051061     -7.105E-15 3.678E-14 0.000E+00
 ETOT 25  -44.050341051061      1.421E-14 6.436E-15 0.000E+00
 ETOT 26  -44.050341051061     -1.421E-14 4.430E-15 0.000E+00
 ETOT 27  -44.050341051061      1.421E-14 7.753E-16 0.000E+00
 ETOT 28  -44.050341051061     -2.842E-14 5.340E-16 0.000E+00
 ETOT 29  -44.050341051061      1.421E-14 9.344E-17 0.000E+00
 ETOT 30  -44.050341051061      7.105E-15 6.440E-17 0.000E+00
 ETOT 31  -44.050341051061      0.000E+00 1.127E-17 0.000E+00
 ETOT 32  -44.050341051061     -7.105E-15 7.769E-18 0.000E+00
 ETOT 33  -44.050341051061      7.105E-15 1.359E-18 0.000E+00
 ETOT 34  -44.050341051061     -7.105E-15 9.374E-19 0.000E+00
 ETOT 35  -44.050341051061      0.000E+00 1.640E-19 0.000E+00
 ETOT 36  -44.050341051061      0.000E+00 1.131E-19 0.000E+00
 ETOT 37  -44.050341051061     -1.421E-14 1.979E-20 0.000E+00
 ETOT 38  -44.050341051061      1.421E-14 9.858E-21 0.000E+00

 At SCF step   38   max residual=  9.86E-21 < tolwfr=  1.00E-20 =>converged.

 ----iterations are completed or convergence reached----

 dfpt_looppert: DFPT cycle converged with prtwf=-1. Will skip output of the 1st-order WFK file.
 dfpt_looppert : ek2=    6.8599684710E+01
          f-sum rule ratio=    1.0018634444E+00
 prteigrs : about to open file /scratch/users/j/a/jabreu/flow_simple_10atoms/flow/w316/t1/tmpdata/tmp_1WF1_EIG
 Expectation of eigenvalue derivatives (hartree) for nkpt=   2  k points:
  (in case of degenerate eigenvalues, averaged derivative)
 kpt#   1, nband= 51, wtk=  0.50000, kpt=  0.5000  0.2500  0.7500 (reduced coord)
   0.00000    0.00000    0.00000    0.00000   -0.00000   -0.00000    0.00000    0.00000
  -0.00000    0.00000    0.00000    0.00000   -0.00000   -0.00000    0.00000    0.00000
  -0.00000   -0.00000   -0.00000   -0.00000   -0.00000    0.00000   -0.00000    0.00000
  -0.00000    0.00000    0.00000   -0.00000   -0.00000    0.00000    0.00000   -0.00000
  -0.00000    0.00000   -0.00000   -0.00000   -0.00000    0.00000    0.00000    0.00000
   0.00000   -0.00000   -0.00000   -0.00000    0.00000   -0.00000    0.00000    0.00000
  -0.00000   -0.00000   -0.00000
 prteigrs : prtvol=0 or 1, do not print more k-points.

 Eight components of 2nd-order total energy (hartree) are
 1,2,3: 0th-order hamiltonian combined with 1st-order wavefunctions
     kin0=   5.52956542E+01 eigvalue=   6.71308732E+00  local=  -2.52986644E+01
 4,5,6: 1st-order hamiltonian combined with 1st and 0th-order wfs
     kin1=  -6.87275164E+01  Hartree=   0.00000000E+00     xc=   0.00000000E+00
 7,8,9: eventually, occupation + non-local contributions
    edocc=   5.89199383E+00     enl0=   1.44827003E+00   enl1=  -1.93731657E+01
 1-9 gives the relaxation energy (to be shifted if some occ is /=2.0)
   erelax=  -4.40503411E+01
  No Ewald or frozen-wf contrib.: the relaxation energy is the total one
 2DEtotal=   -0.4405034105E+02 Ha. Also 2DEtotal=   -0.119867073950E+04 eV
    (  non-var. 2DEtotal :   -4.4050341051E+01 Ha)

 CALCULATION OF EFFECTIVE MASSES
 NOTE : Additional infos (eff. mass eigenvalues, eigenvectors and, if degenerate, average mass) are available in stdout.

 K-point ( 0.500, 0.250, 0.750) | band =    42
 Effective mass tensor:
             -5.0418401226              0.5430796164              0.6651340027
              0.5430796164             -5.4258554302             -0.9406414956
              0.6651340027             -0.9406414956             -5.8098706932
 Effective mass tensor eigenvalues:
             -6.9619165572             -4.6578248682             -4.6578248206
 Angular average effective mass 1/(<1/m>)=  -5.2353866339
 Angular average effective mass for Frohlich model (<m**0.5>)**2=  -5.2877566442
 Effective masses along directions: (cart. coord. / red. coord. -> eff. mass)
    1:   1.000000  0.000000  0.000000 /   0.948683  0.316228  0.000000 ->  -4.9297468148
    2:   0.000000  1.000000  0.000000 /   0.000000  1.000000  0.000000 ->  -5.2353866527
    3:   0.000000  0.000000  1.000000 /   0.408248  0.408248  0.816497 ->  -5.5814302109
    4:   0.577350  0.577350  0.577350 /   0.585539  0.688047  0.428644 ->  -5.0888303711
    5:   0.000000  0.707107  0.707107 /   0.289489  0.762222  0.578977 ->  -6.4070085832
    6:   0.707107  0.000000  0.707107 /   0.731423  0.422287  0.535439 ->  -4.7276998563
    7:   0.707107  0.707107  0.000000 /   0.616798  0.787122  0.000000 ->  -4.6799701492

 K-point ( 0.474, 0.474, 0.474) | band =    43
 Effective mass tensor:
             48.1033707773             33.4278162355             81.8811043721
             33.4278162355             24.4663272997             57.8986775556
             81.8811043721             57.8986775556            142.6515314296
 Effective mass tensor eigenvalues:
              0.8292943864              0.8292945659            213.5626405544
 Angular average effective mass 1/(<1/m>)=   1.2415311920
 Angular average effective mass for Frohlich model (<m**0.5>)**2=   1.8943279539
 Effective masses along directions: (cart. coord. / red. coord. -> eff. mass)
    1:   1.000000  0.000000  0.000000 /   0.948683  0.316228  0.000000 ->   1.0650540495
    2:   0.000000  1.000000  0.000000 /   0.000000  1.000000  0.000000 ->   0.9325036406
    3:   0.000000  0.000000  1.000000 /   0.408248  0.408248  0.816497 ->   2.4687111339
    4:   0.577350  0.577350  0.577350 /   0.585539  0.688047  0.428644 ->   6.5161031923
    5:   0.000000  0.707107  0.707107 /   0.289489  0.762222  0.578977 ->   2.4282982410
    6:   0.707107  0.000000  0.707107 /   0.731423  0.422287  0.535439 ->   4.7694635565
    7:   0.707107  0.707107  0.000000 /   0.616798  0.787122  0.000000 ->   1.2241307059

 END OF EFFECTIVE MASSES SECTION

 ---- first-order wavefunction calculations are completed ----

 Total localisation tensor (bohr^2) in cartesian coordinates
  WARNING : still subject to testing - especially symmetries.
      direction              matrix element
   alpha     beta       real part   imaginary part
     1        1       0.7005984080    0.0000000000
     1        2       0.1981591532    0.0000000000
     1        3       0.4853888150    0.0000000000
     2        1       0.1981591532    0.0000000000
     2        2       0.5604787239    0.0000000000
     2        3       0.3432217213    0.0000000000
     3        1       0.4853888150    0.0000000000
     3        2       0.3432217213    0.0000000000
     3        3       1.2610771303    0.0000000000

 respfn : d/dk was computed, but no 2DTE, so no DDB output.

== END DATASET(S) ==============================================================

 -outvars: echo values of variables after computation  --------
            acell      1.0000000000E+00  1.0000000000E+00  1.0000000000E+00 Bohr
              amu      8.54678000E+01  2.29897680E+01  2.08980370E+02
                       1.89984032E+01
             ecut      4.40000000E+01 Hartree
           etotal     -4.4050341051E+01
            fcart      0.0000000000E+00  0.0000000000E+00  0.0000000000E+00
                       0.0000000000E+00  0.0000000000E+00  0.0000000000E+00
                       0.0000000000E+00  0.0000000000E+00  0.0000000000E+00
                       0.0000000000E+00  0.0000000000E+00  0.0000000000E+00
                       0.0000000000E+00  0.0000000000E+00  0.0000000000E+00
                       0.0000000000E+00  0.0000000000E+00  0.0000000000E+00
                       0.0000000000E+00  0.0000000000E+00  0.0000000000E+00
                       0.0000000000E+00  0.0000000000E+00  0.0000000000E+00
                       0.0000000000E+00  0.0000000000E+00  0.0000000000E+00
                       0.0000000000E+00  0.0000000000E+00  0.0000000000E+00
-          fftalg         512
           irdden           1
           irdwfk           1
              ixc     -116133
              kpt      5.00000000E-01  2.50000000E-01  7.50000000E-01
                       4.73684210E-01  4.73684210E-01  4.73684210E-01
           kptopt           0
P           mkmem           2
P          mkqmem           2
P          mk1mem           2
            natom          10
            nband          51
           nbdbuf           4
            ngfft          72      72      72
             nkpt           2
            nstep        2000
             nsym          48
           ntypat           4
              occ      2.000000  2.000000  2.000000  2.000000  2.000000  2.000000
                       2.000000  2.000000  2.000000  2.000000  2.000000  2.000000
                       2.000000  2.000000  2.000000  2.000000  2.000000  2.000000
                       2.000000  2.000000  2.000000  2.000000  2.000000  2.000000
                       2.000000  2.000000  2.000000  2.000000  2.000000  2.000000
                       2.000000  2.000000  2.000000  2.000000  2.000000  2.000000
                       2.000000  2.000000  2.000000  2.000000  2.000000  2.000000
                       0.000000  0.000000  0.000000  0.000000  0.000000  0.000000
                       0.000000  0.000000  0.000000
        optdriver           1
            prtwf          -1
            rfdir           1       1       1
           rfelfd           2
            rprim      1.0429169133E+01  0.0000000000E+00  6.0212836066E+00
                       3.4763897111E+00  9.8327149552E+00  6.0212836066E+00
                       0.0000000000E+00  0.0000000000E+00  1.2042567213E+01
          spgroup         225
           strten      0.0000000000E+00  0.0000000000E+00  0.0000000000E+00
                       0.0000000000E+00  0.0000000000E+00  0.0000000000E+00
           symrel      1  0  0   0  1  0   0  0  1      -1  0  0   0 -1  0   0  0 -1
                       0 -1  1   0 -1  0   1 -1  0       0  1 -1   0  1  0  -1  1  0
                      -1  0  0  -1  0  1  -1  1  0       1  0  0   1  0 -1   1 -1  0
                       0  1 -1   1  0 -1   0  0 -1       0 -1  1  -1  0  1   0  0  1
                      -1  0  0  -1  1  0  -1  0  1       1  0  0   1 -1  0   1  0 -1
                       0 -1  1   1 -1  0   0 -1  0       0  1 -1  -1  1  0   0  1  0
                       1  0  0   0  0  1   0  1  0      -1  0  0   0  0 -1   0 -1  0
                       0  1 -1   0  0 -1   1  0 -1       0 -1  1   0  0  1  -1  0  1
                      -1  0  1  -1  1  0  -1  0  0       1  0 -1   1 -1  0   1  0  0
                       0 -1  0   1 -1  0   0 -1  1       0  1  0  -1  1  0   0  1 -1
                       1  0 -1   0  0 -1   0  1 -1      -1  0  1   0  0  1   0 -1  1
                       0  1  0   0  0  1   1  0  0       0 -1  0   0  0 -1  -1  0  0
                       1  0 -1   0  1 -1   0  0 -1      -1  0  1   0 -1  1   0  0  1
                       0 -1  0   0 -1  1   1 -1  0       0  1  0   0  1 -1  -1  1  0
                      -1  0  1  -1  0  0  -1  1  0       1  0 -1   1  0  0   1 -1  0
                       0  1  0   1  0  0   0  0  1       0 -1  0  -1  0  0   0  0 -1
                       0  0 -1   0  1 -1   1  0 -1       0  0  1   0 -1  1  -1  0  1
                       1 -1  0   0 -1  1   0 -1  0      -1  1  0   0  1 -1   0  1  0
                       0  0  1   1  0  0   0  1  0       0  0 -1  -1  0  0   0 -1  0
                      -1  1  0  -1  0  0  -1  0  1       1 -1  0   1  0  0   1  0 -1
                       0  0  1   0  1  0   1  0  0       0  0 -1   0 -1  0  -1  0  0
                       1 -1  0   0 -1  0   0 -1  1      -1  1  0   0  1  0   0  1 -1
                       0  0 -1   1  0 -1   0  1 -1       0  0  1  -1  0  1   0 -1  1
                      -1  1  0  -1  0  1  -1  0  0       1 -1  0   1  0 -1   1  0  0
           tolwfr      1.00000000E-20
            typat      1  1  2  3  4  4  4  4  4  4
           useylm           1
              wtk        0.50000    0.50000
           xangst      5.5188786099E+00  3.9024364896E+00  9.5589781532E+00
                       1.8396262033E+00  1.3008121632E+00  3.1863260511E+00
                       0.0000000000E+00  0.0000000000E+00  0.0000000000E+00
                       3.6792524066E+00  2.6016243264E+00  6.3726521021E+00
                       5.5151625650E+00  3.8998088491E+00  6.3726521021E+00
                       4.5972074858E+00  1.3034398038E+00  4.7827072659E+00
                       1.8433422482E+00  1.3034398038E+00  6.3726521021E+00
                       4.5972074858E+00  1.3034398038E+00  7.9625969384E+00
                       2.7612973274E+00  3.8998088491E+00  4.7827072659E+00
                       2.7612973274E+00  3.8998088491E+00  7.9625969384E+00
            xcart      1.0429169133E+01  7.3745362164E+00  1.8063850820E+01
                       3.4763897111E+00  2.4581787388E+00  6.0212836066E+00
                       0.0000000000E+00  0.0000000000E+00  0.0000000000E+00
                       6.9527794222E+00  4.9163574776E+00  1.2042567213E+01
                       1.0422146826E+01  7.3695706953E+00  1.2042567213E+01
                       8.6874631242E+00  2.4631442599E+00  9.0380069063E+00
                       3.4834120183E+00  2.4631442599E+00  1.2042567213E+01
                       8.6874631242E+00  2.4631442599E+00  1.5047127520E+01
                       5.2180957203E+00  7.3695706953E+00  9.0380069063E+00
                       5.2180957203E+00  7.3695706953E+00  1.5047127520E+01
             xred      7.5000000000E-01  7.5000000000E-01  7.5000000000E-01
                       2.5000000000E-01  2.5000000000E-01  2.5000000000E-01
                       0.0000000000E+00  0.0000000000E+00  0.0000000000E+00
                       5.0000000000E-01  5.0000000000E-01  5.0000000000E-01
                       7.4949500000E-01  7.4949500000E-01  2.5050500000E-01
                       7.4949500000E-01  2.5050500000E-01  2.5050500000E-01
                       2.5050500000E-01  2.5050500000E-01  7.4949500000E-01
                       7.4949500000E-01  2.5050500000E-01  7.4949500000E-01
                       2.5050500000E-01  7.4949500000E-01  2.5050500000E-01
                       2.5050500000E-01  7.4949500000E-01  7.4949500000E-01
            znucl       37.00000   11.00000   83.00000    9.00000

- Timing analysis has been suppressed with timopt=0

 Suggested references for the acknowledgment of ABINIT usage.

 Calculation completed.
.Delivered   2 WARNINGs and   5 COMMENTs to log file.