.Version 9.5.1 of ABINIT

 ABINIT is a project of the Universite Catholique de Louvain,
 Corning Inc. and other collaborators, see ~abinit/doc/developers/contributors.txt .
 acknowledgments of the ABINIT effort.

.Starting date : Wed  5 May 2021.
- ( at 19h25 )

- input  file    -> /scratch/users/j/a/jabreu/flow_simple_7atoms/flow/w103/t1/run.abi
- output file    -> /scratch/users/j/a/jabreu/flow_simple_7atoms/flow/w103/t1/run.abo
- root for input  files -> /scratch/users/j/a/jabreu/flow_simple_7atoms/flow/w103/t1/indata/in
- root for output files -> /scratch/users/j/a/jabreu/flow_simple_7atoms/flow/w103/t1/outdata/out

 Symmetries : space group R-3 m (#166); Bravais hR (rhombohedral)
     intxc =       0      iscf =       7    lmnmax =      18     lnmax =       6
     mgfft =      90  mpssoang =       3    mqgrid =    3001     natom =       7
  nloc_mem =       1    nspden =       1   nspinor =       1    nsppol =       1
      nsym =      12    n1xccc =    2501    ntypat =       3    occopt =       1
   xclevel =       2
-    mband =          25        mffmem =           1         mkmem =           2
-   mkqmem =           2        mk1mem =           2           mpw =        8798
      nfft =      729000          nkpt =           2
  Rough estimation (10% accuracy) of disk space for files :

------------- Echo of variables that govern the present computation ------------
-
- outvars: echo of selected default values
-   iomode0 =  0 , fftalg0 =512 , wfoptalg0 =  0
-
- outvars: echo of global parameters not present in the input file
-  max_nthreads =    0
-
 -outvars: echo values of preprocessed input variables --------
            acell      1.0000000000E+00  1.0000000000E+00  1.0000000000E+00 Bohr
              amu      8.76200000E+01  6.94100000E+00  3.09737620E+01
             ecut      3.70000000E+01 Hartree
-          fftalg         512
           irdden           1
           irdwfk           1
           istwfk        1    1
              ixc     -116133
              kpt      0.00000000E+00  0.00000000E+00  0.00000000E+00
                       5.00000000E-01  5.00000000E-01  5.55111512E-17
           kptopt           0
P           mkmem           2
P          mkqmem           2
P          mk1mem           2
            natom           7
            nband          25
           nbdbuf           4
            ngfft          90      90      90
             nkpt           2
            nstep        2000
             nsym          12
           ntypat           3
              occ      2.000000  2.000000  2.000000  2.000000  2.000000  2.000000
                       2.000000  2.000000  2.000000  2.000000  2.000000  2.000000
                       2.000000  2.000000  2.000000  2.000000  0.000000  0.000000
                       0.000000  0.000000  0.000000  0.000000  0.000000  0.000000
                       0.000000
        optdriver           1
            prtwf          -1
            rfdir           1       1       1
           rfelfd           2
            rprim      7.7536103864E+00  0.0000000000E+00  1.3258571161E+01
                       3.5922233466E+00  6.8712739322E+00  1.3258571161E+01
                       0.0000000000E+00  0.0000000000E+00  1.5359302824E+01
          spgroup         166
           symrel      1  0  0   0  1  0   0  0  1      -1  0  0   0 -1  0   0  0 -1
                       0  1  0   1  0  0   0  0  1       0 -1  0  -1  0  0   0  0 -1
                       0  0  1   1  0  0   0  1  0       0  0 -1  -1  0  0   0 -1  0
                       1  0  0   0  0  1   0  1  0      -1  0  0   0  0 -1   0 -1  0
                       0  1  0   0  0  1   1  0  0       0 -1  0   0  0 -1  -1  0  0
                       0  0  1   0  1  0   1  0  0       0  0 -1   0 -1  0  -1  0  0
           tolwfr      1.00000000E-20
            typat      1  2  2  2  2  3  3
           useylm           1
              wtk        0.50000    0.50000
           xangst      0.0000000000E+00  0.0000000000E+00  0.0000000000E+00
                       2.5840248795E+00  1.5649394494E+00  9.5374018930E+00
                       8.2663675590E-01  5.0062848847E-01  3.0510414288E+00
                       3.4199317444E+00  2.0711821095E+00  1.2622658455E+01
                       5.1773198681E+00  3.1354930704E+00  1.9109018919E+01
                       4.5253262024E+00  2.7406320859E+00  1.6702569326E+01
                       1.4786304215E+00  8.9548947304E-01  5.4574910223E+00
            xcart      0.0000000000E+00  0.0000000000E+00  0.0000000000E+00
                       4.8830993428E+00  2.9573069739E+00  1.8023077597E+01
                       1.5621170800E+00  9.4605073753E-01  5.7656327206E+00
                       6.4627343902E+00  3.9139669583E+00  2.3853367549E+01
                       9.7837166530E+00  5.9252231947E+00  3.6110812425E+01
                       8.5516271846E+00  5.1790440733E+00  3.1563281741E+01
                       2.7942065484E+00  1.6922298589E+00  1.0313163405E+01
             xred      0.0000000000E+00  0.0000000000E+00  0.0000000000E+00
                       4.3038700000E-01  4.3038700000E-01  4.3038700000E-01
                       1.3768200000E-01  1.3768200000E-01  1.3768200000E-01
                       5.6961300000E-01  5.6961300000E-01  5.6961300000E-01
                       8.6231800000E-01  8.6231800000E-01  8.6231800000E-01
                       7.5372400000E-01  7.5372400000E-01  7.5372400000E-01
                       2.4627600000E-01  2.4627600000E-01  2.4627600000E-01
            znucl       38.00000    3.00000   15.00000

 chkinp: Checking input parameters for consistency.

== DATASET  1 ==================================================================
-   mpi_nproc: 1, omp_nthreads: -1 (-1 if OMP is not activated)

--- !DatasetInfo
iteration_state: {dtset: 1, }
dimensions: {natom: 7, nkpt: 2, mband: 25, nsppol: 1, nspinor: 1, nspden: 1, mpw: 8798, }
cutoff_energies: {ecut:  37.0, pawecutdg:  -1.0, }
electrons: {nelect:   3.20000000E+01, charge:   0.00000000E+00, occopt:   1.00000000E+00, tsmear:   1.00000000E-02, }
meta: {optdriver: 1, rfelfd: 2, }
...

 Real(R)+Recip(G) space primitive vectors, cartesian coordinates (Bohr,Bohr^-1):
 R(1)=  7.7536104  0.0000000 13.2585712  G(1)=  0.1289722 -0.0674252  0.0000000
 R(2)=  3.5922233  6.8712739 13.2585712  G(2)=  0.0000000  0.1455334  0.0000000
 R(3)=  0.0000000  0.0000000 15.3593028  G(3)= -0.1113323 -0.0674252  0.0651071
 Unit cell volume ucvol=  8.1830036E+02 bohr^3
 Angles (23,13,12)=  3.03190894E+01  3.03190894E+01  3.03190894E+01 degrees

 getcut: wavevector=  0.0000  0.0000  0.0000  ngfft=  90  90  90
         ecut(hartree)=     37.000   => boxcut(ratio)=   2.14002

--- Pseudopotential description ------------------------------------------------
- pspini: atom type   1  psp file is /scratch/users/j/a/jabreu/pseudos/PBEsol/Sr.psp8
- pspatm: opening atomic psp file    /scratch/users/j/a/jabreu/pseudos/PBEsol/Sr.psp8
- Sr    ONCVPSP-3.3.0  r_core=   1.66721   1.31335   1.51547
- 38.00000  10.00000    180112                znucl, zion, pspdat
    8 -116133    2    4       600   0.00000   pspcod,pspxc,lmax,lloc,mmax,r2well
    5.99000000000000    6.00000000000000    0.00000000000000   rchrg,fchrg,qchrg
     nproj     2     2     2
     extension_switch     1
  pspatm : epsatm=   12.46450977
         --- l  ekb(1:nproj) -->
             0   10.029206    1.044171
             1    7.472414    1.670829
             2    4.142950    0.968140
 pspatm: atomic psp has been read  and splines computed

- pspini: atom type   2  psp file is /scratch/users/j/a/jabreu/pseudos/PBEsol/Li.psp8
- pspatm: opening atomic psp file    /scratch/users/j/a/jabreu/pseudos/PBEsol/Li.psp8
- Li    ONCVPSP-3.3.0  r_core=   1.40824   1.10935
-  3.00000   3.00000    180112                znucl, zion, pspdat
    8 -116133    1    4       400   0.00000   pspcod,pspxc,lmax,lloc,mmax,r2well
    3.99000000000000    0.00000000000000    0.00000000000000   rchrg,fchrg,qchrg
     nproj     2     2
     extension_switch     1
  pspatm : epsatm=    2.60859637
         --- l  ekb(1:nproj) -->
             0   -4.855856   -1.482423
             1   -2.171544   -0.427615
 pspatm: atomic psp has been read  and splines computed

- pspini: atom type   3  psp file is /scratch/users/j/a/jabreu/pseudos/PBEsol/P.psp8
- pspatm: opening atomic psp file    /scratch/users/j/a/jabreu/pseudos/PBEsol/P.psp8
- P     ONCVPSP-3.3.0  r_core=   1.46089   1.55067   1.70594
- 15.00000   5.00000    180112                znucl, zion, pspdat
    8 -116133    2    4       600   0.00000   pspcod,pspxc,lmax,lloc,mmax,r2well
    5.99000000000000    5.00000000000000    0.00000000000000   rchrg,fchrg,qchrg
     nproj     2     2     2
     extension_switch     1
  pspatm : epsatm=    7.31221086
         --- l  ekb(1:nproj) -->
             0    6.742364    1.063650
             1    3.449117    0.910422
             2   -3.077645   -0.799176
 pspatm: atomic psp has been read  and splines computed

   1.20074614E+03                                ecore*ucvol(ha*bohr**3)

-inwffil : will read wavefunctions from disk file /scratch/users/j/a/jabreu/flow_simple_7atoms/flow/w103/t1/indata/in_WFK

 ==>  initialize data related to q vector <==

 The list of irreducible perturbations for this q vector is:
    1)    idir= 1    ipert=   8
    2)    idir= 2    ipert=   8
    3)    idir= 3    ipert=   8

 Perturbation wavevector (in red.coord.)   0.000000  0.000000  0.000000
 Perturbation : derivative vs k along direction   1

 dfpt_looppert : COMMENT -
  In a d/dk calculation, iscf is set to -3 automatically.
 The set of symmetries contains only one element for this perturbation.
 symkpt : not enough symmetry to change the number of k points.

[...]

 Initialisation of the first-order wave-functions :
  ireadwf=   0

--- !BeginCycle
iteration_state: {dtset: 1, }
solver: {iscf: 7, nstep: 2000, nline: 4, wfoptalg: 0, }
tolerances: {tolwfr: 1.00E-20, }
...

     iter   2DEtotal(Ha)        deltaE(Ha) residm    vres2
-ETOT  1  -36.754761588288     -3.675E+01 7.525E-02 0.000E+00
 ETOT  2  -36.763121981139     -8.360E-03 3.415E-03 0.000E+00
 ETOT  3  -36.763139950243     -1.797E-05 9.059E-05 0.000E+00
 ETOT  4  -36.763140018891     -6.865E-08 3.852E-06 0.000E+00
 ETOT  5  -36.763140019223     -3.318E-10 2.682E-07 0.000E+00
 ETOT  6  -36.763140019225     -1.791E-12 1.379E-08 0.000E+00
 ETOT  7  -36.763140019225     -7.105E-15 1.099E-09 0.000E+00
 ETOT  8  -36.763140019225     -4.974E-14 5.867E-11 0.000E+00
 ETOT  9  -36.763140019225      1.350E-13 4.697E-12 0.000E+00
 ETOT 10  -36.763140019225     -1.421E-14 2.531E-13 0.000E+00
 ETOT 11  -36.763140019225      0.000E+00 2.033E-14 0.000E+00
 ETOT 12  -36.763140019225      0.000E+00 1.099E-15 0.000E+00
 ETOT 13  -36.763140019225      0.000E+00 8.855E-17 0.000E+00
 ETOT 14  -36.763140019225      0.000E+00 4.794E-18 0.000E+00
 ETOT 15  -36.763140019225      7.105E-15 3.871E-19 0.000E+00
 ETOT 16  -36.763140019225     -7.105E-15 2.097E-20 0.000E+00
 ETOT 17  -36.763140019225      0.000E+00 9.875E-21 0.000E+00

 At SCF step   17   max residual=  9.88E-21 < tolwfr=  1.00E-20 =>converged.

 ----iterations are completed or convergence reached----

 dfpt_looppert: DFPT cycle converged with prtwf=-1. Will skip output of the 1st-order WFK file.
 dfpt_looppert : ek2=    5.3513725366E+01
          f-sum rule ratio=    1.3758171431E+00
 prteigrs : about to open file /scratch/users/j/a/jabreu/flow_simple_7atoms/flow/w103/t1/tmpdata/tmp_1WF1_EIG
 Expectation of eigenvalue derivatives (hartree) for nkpt=   2  k points:
  (in case of degenerate eigenvalues, averaged derivative)
 kpt#   1, nband= 25, wtk=  0.50000, kpt=  0.0000  0.0000  0.0000 (reduced coord)
  -0.00000   -0.00000    0.00000   -0.00000   -0.00000    0.00000   -0.00000   -0.00000
   0.00000    0.00000   -0.00000   -0.00000   -0.00000    0.00000   -0.00000   -0.00000
  -0.00000   -0.00000   -0.00000   -0.00000   -0.00000   -0.00000    0.00000   -0.00000
  -0.00000
 prteigrs : prtvol=0 or 1, do not print more k-points.

 Eight components of 2nd-order total energy (hartree) are
 1,2,3: 0th-order hamiltonian combined with 1st-order wavefunctions
     kin0=   1.95599465E+01 eigvalue=   3.37871057E+00  local=  -1.00638679E+01
 4,5,6: 1st-order hamiltonian combined with 1st and 0th-order wfs
     kin1=  -7.36251008E+01  Hartree=   0.00000000E+00     xc=   0.00000000E+00
 7,8,9: eventually, occupation + non-local contributions
    edocc=   2.32168822E+01     enl0=   6.71468598E-01   enl1=   9.88207142E-02
 1-9 gives the relaxation energy (to be shifted if some occ is /=2.0)
   erelax=  -3.67631400E+01
  No Ewald or frozen-wf contrib.: the relaxation energy is the total one
 2DEtotal=   -0.3676314002E+02 Ha. Also 2DEtotal=   -0.100037591496E+04 eV
    (  non-var. 2DEtotal :   -3.6763140019E+01 Ha)

 Perturbation wavevector (in red.coord.)   0.000000  0.000000  0.000000
 Perturbation : derivative vs k along direction   2
 The set of symmetries contains only one element for this perturbation.
 symkpt : not enough symmetry to change the number of k points.

[...]

 Perturbation wavevector (in red.coord.)   0.000000  0.000000  0.000000
 Perturbation : derivative vs k along direction   3
 The set of symmetries contains only one element for this perturbation.
 symkpt : not enough symmetry to change the number of k points.

-inwffil : will read wavefunctions from disk file /scratch/users/j/a/jabreu/flow_simple_7atoms/flow/w103/t1/indata/in_WFK

 Initialisation of the first-order wave-functions :
  ireadwf=   0

--- !BeginCycle
iteration_state: {dtset: 1, }
solver: {iscf: 7, nstep: 2000, nline: 4, wfoptalg: 0, }
tolerances: {tolwfr: 1.00E-20, }
...

     iter   2DEtotal(Ha)        deltaE(Ha) residm    vres2
-ETOT  1  -33.335829508233     -3.334E+01 1.463E-01 0.000E+00
 ETOT  2  -33.344061182100     -8.232E-03 7.402E-03 0.000E+00
 ETOT  3  -33.344077722600     -1.654E-05 2.177E-04 0.000E+00
 ETOT  4  -33.344077786343     -6.374E-08 1.386E-05 0.000E+00
 ETOT  5  -33.344077786654     -3.104E-10 5.057E-07 0.000E+00
 ETOT  6  -33.344077786655     -1.720E-12 3.645E-08 0.000E+00
 ETOT  7  -33.344077786655      2.132E-14 1.428E-09 0.000E+00
 ETOT  8  -33.344077786655     -2.842E-14 1.073E-10 0.000E+00
 ETOT  9  -33.344077786655     -7.105E-15 4.398E-12 0.000E+00
 ETOT 10  -33.344077786655      2.132E-14 3.178E-13 0.000E+00
 ETOT 11  -33.344077786655      1.421E-14 1.353E-14 0.000E+00
 ETOT 12  -33.344077786655     -7.105E-15 9.457E-16 0.000E+00
 ETOT 13  -33.344077786655      7.105E-15 4.140E-17 0.000E+00
 ETOT 14  -33.344077786655      0.000E+00 2.848E-18 0.000E+00
 ETOT 15  -33.344077786655      0.000E+00 1.270E-19 0.000E+00
 ETOT 16  -33.344077786655     -7.105E-15 9.455E-21 0.000E+00

 At SCF step   16   max residual=  9.46E-21 < tolwfr=  1.00E-20 =>converged.

 ----iterations are completed or convergence reached----

 dfpt_looppert: DFPT cycle converged with prtwf=-1. Will skip output of the 1st-order WFK file.
 dfpt_looppert : ek2=    5.3513725367E+01
          f-sum rule ratio=    1.2430892738E+00
 prteigrs : about to open file /scratch/users/j/a/jabreu/flow_simple_7atoms/flow/w103/t1/tmpdata/tmp_1WF1_EIG
 Expectation of eigenvalue derivatives (hartree) for nkpt=   2  k points:
  (in case of degenerate eigenvalues, averaged derivative)
 kpt#   1, nband= 25, wtk=  0.50000, kpt=  0.0000  0.0000  0.0000 (reduced coord)
   0.00000    0.00000   -0.00000   -0.00000    0.00000   -0.00000    0.00000    0.00000
  -0.00000   -0.00000   -0.00000   -0.00000   -0.00000   -0.00000    0.00000    0.00000
   0.00000    0.00000   -0.00000   -0.00000    0.00000    0.00000   -0.00000    0.00000
   0.00000
 prteigrs : prtvol=0 or 1, do not print more k-points.

 Eight components of 2nd-order total energy (hartree) are
 1,2,3: 0th-order hamiltonian combined with 1st-order wavefunctions
     kin0=   2.02367875E+01 eigvalue=   3.53911649E+00  local=  -1.08078942E+01
 4,5,6: 1st-order hamiltonian combined with 1st and 0th-order wfs
     kin1=  -6.65223380E+01  Hartree=   0.00000000E+00     xc=   0.00000000E+00
 7,8,9: eventually, occupation + non-local contributions
    edocc=   1.92445394E+01     enl0=   1.13152855E+00   enl1=  -1.65817567E-01
 1-9 gives the relaxation energy (to be shifted if some occ is /=2.0)
   erelax=  -3.33440778E+01
  No Ewald or frozen-wf contrib.: the relaxation energy is the total one
 2DEtotal=   -0.3334407779E+02 Ha. Also 2DEtotal=   -0.907338500110E+03 eV
    (  non-var. 2DEtotal :   -3.3344077787E+01 Ha)

 CALCULATION OF EFFECTIVE MASSES
 NOTE : Additional infos (eff. mass eigenvalues, eigenvectors and, if degenerate, average mass) are available in stdout.

 COMMENTS:
 - At k-point ( 0.000, 0.000, 0.000), bands    15 through    16
   are DEGENERATE (effective mass tensor is therefore not defined).
   See Section IIIB Eqs. (67)-(70) and Appendix E of PRB 93 205147 (2016).
 - Angular average effective mass for Frohlich model is to be averaged over degenerate bands. See later.
 - Associated theta integrals calculated with ntheta=   1000 points.

 K-point ( 0.000, 0.000, 0.000) | band =    15
 Transport equivalent effective mass tensor:
             -0.3135346695             -0.0485517324             -0.2958950500
             -0.0485517324             -0.2627703072             -0.1792010404
             -0.2958950500             -0.1792010404             -1.3254918824
 Transport equivalent effective mass tensor eigenvalues:
             -1.4350643400             -0.2333663872             -0.2333661319
 Angular average effective mass 1/(<1/m>)=  -0.2807414382
 Angular average effective mass for Frohlich model (<m**0.5>)**2=  -0.3225291743
 Effective masses along directions: (cart. coord. / red. coord. -> eff. mass)
    1:   1.000000  0.000000  0.000000 /   0.907351  0.420373  0.000000 ->  -0.2168218260
    2:   0.000000  1.000000  0.000000 /   0.000000  1.000000  0.000000 ->  -0.2162667922
    3:   0.000000  0.000000  1.000000 /   0.547013  0.547013  0.633683 ->  -0.9320508986
    4:   0.577350  0.577350  0.577350 /   0.596668  0.673619  0.436147 ->  -0.3720327239
    5:   0.000000  0.707107  0.707107 /   0.463885  0.704294  0.537384 ->  -0.4592818090
    6:   0.707107  0.000000  0.707107 /   0.677682  0.543470  0.495366 ->  -0.5873790812
    7:   0.707107  0.707107  0.000000 /   0.595370  0.803452  0.000000 ->  -0.2087440471

 K-point ( 0.000, 0.000, 0.000) | band =    16
 Transport equivalent effective mass tensor:
             -2.0809778454             -0.1783187778             -1.0867516807
             -0.1783187778             -1.8945335610             -0.6581591290
             -1.0867516807             -0.6581591290             -5.7976329652
 Transport equivalent effective mass tensor eigenvalues:
             -6.2000673321             -1.7865398217             -1.7865372178
 Angular average effective mass 1/(<1/m>)=  -0.9421482325
 Angular average effective mass for Frohlich model (<m**0.5>)**2=  -1.0686505127
 Effective masses along directions: (cart. coord. / red. coord. -> eff. mass)
    1:   1.000000  0.000000  0.000000 /   0.907351  0.420373  0.000000 ->  -0.7594867916
    2:   0.000000  1.000000  0.000000 /   0.000000  1.000000  0.000000 ->  -0.6615211283
    3:   0.000000  0.000000  1.000000 /   0.547013  0.547013  0.633683 ->  -1.3643449046
    4:   0.577350  0.577350  0.577350 /   0.596668  0.673619  0.436147 ->  -1.9486798933
    5:   0.000000  0.707107  0.707107 /   0.463885  0.704294  0.537384 ->  -0.9404598033
    6:   0.707107  0.000000  0.707107 /   0.677682  0.543470  0.495366 ->  -1.0424347745
    7:   0.707107  0.707107  0.000000 /   0.595370  0.803452  0.000000 ->  -0.9580310767

 Angular average effective mass for Frohlich model, averaged over degenerate bands.
 Value of     (<<m**0.5>>)**2 =     6.413383E-01
 Absolute Value of <<m**0.5>> =     8.008360E-01

 K-point ( 0.500, 0.500, 0.000) | band =    17
 Effective mass tensor:
              0.6032340839             -0.4336381678             -0.2401065004
             -0.4336381678              1.0566362233             -0.1454135127
             -0.2401065004             -0.1454135127              0.6770701025
 Effective mass tensor eigenvalues:
              0.1815852376              0.8360986154              1.3192565568
 Angular average effective mass 1/(<1/m>)=   0.4020860524
 Angular average effective mass for Frohlich model (<m**0.5>)**2=   0.5070752497
 Effective masses along directions: (cart. coord. / red. coord. -> eff. mass)
    1:   1.000000  0.000000  0.000000 /   0.907351  0.420373  0.000000 ->   0.2884946989
    2:   0.000000  1.000000  0.000000 /   0.000000  1.000000  0.000000 ->   0.5709942023
    3:   0.000000  0.000000  1.000000 /   0.547013  0.547013  0.633683 ->   0.4457341066
    4:   0.577350  0.577350  0.577350 /   0.596668  0.673619  0.436147 ->   0.1896334494
    5:   0.000000  0.707107  0.707107 /   0.463885  0.704294  0.537384 ->   0.3383874046
    6:   0.707107  0.000000  0.707107 /   0.677682  0.543470  0.495366 ->   0.2254096656
    7:   0.707107  0.707107  0.000000 /   0.595370  0.803452  0.000000 ->   0.2353504960

 END OF EFFECTIVE MASSES SECTION

 ---- first-order wavefunction calculations are completed ----

 Total localisation tensor (bohr^2) in cartesian coordinates
  WARNING : still subject to testing - especially symmetries.
      direction              matrix element
   alpha     beta       real part   imaginary part
     1        1       4.6009300844    0.0000000000
     1        2       1.5552108080    0.0000000000
     1        3       9.4781116440    0.0000000000
     2        1       1.5552108080    0.0000000000
     2        2       2.9748371559    0.0000000000
     2        3       5.7401422957    0.0000000000
     3        1       9.4781116440    0.0000000000
     3        2       5.7401422957    0.0000000000
     3        3      35.1663118872    0.0000000000

 respfn : d/dk was computed, but no 2DTE, so no DDB output.

== END DATASET(S) ==============================================================

 -outvars: echo values of variables after computation  --------
            acell      1.0000000000E+00  1.0000000000E+00  1.0000000000E+00 Bohr
              amu      8.76200000E+01  6.94100000E+00  3.09737620E+01
             ecut      3.70000000E+01 Hartree
           etotal     -3.3344077787E+01
            fcart      0.0000000000E+00  0.0000000000E+00  0.0000000000E+00
                       0.0000000000E+00  0.0000000000E+00  0.0000000000E+00
                       0.0000000000E+00  0.0000000000E+00  0.0000000000E+00
                       0.0000000000E+00  0.0000000000E+00  0.0000000000E+00
                       0.0000000000E+00  0.0000000000E+00  0.0000000000E+00
                       0.0000000000E+00  0.0000000000E+00  0.0000000000E+00
                       0.0000000000E+00  0.0000000000E+00  0.0000000000E+00
-          fftalg         512
           irdden           1
           irdwfk           1
           istwfk        1    1
              ixc     -116133
              kpt      0.00000000E+00  0.00000000E+00  0.00000000E+00
                       5.00000000E-01  5.00000000E-01  5.55111512E-17
           kptopt           0
P           mkmem           2
P          mkqmem           2
P          mk1mem           2
            natom           7
            nband          25
           nbdbuf           4
            ngfft          90      90      90
             nkpt           2
            nstep        2000
             nsym          12
           ntypat           3
              occ      2.000000  2.000000  2.000000  2.000000  2.000000  2.000000
                       2.000000  2.000000  2.000000  2.000000  2.000000  2.000000
                       2.000000  2.000000  2.000000  2.000000  0.000000  0.000000
                       0.000000  0.000000  0.000000  0.000000  0.000000  0.000000
                       0.000000
        optdriver           1
            prtwf          -1
            rfdir           1       1       1
           rfelfd           2
            rprim      7.7536103864E+00  0.0000000000E+00  1.3258571161E+01
                       3.5922233466E+00  6.8712739322E+00  1.3258571161E+01
                       0.0000000000E+00  0.0000000000E+00  1.5359302824E+01
          spgroup         166
           strten      0.0000000000E+00  0.0000000000E+00  0.0000000000E+00
                       0.0000000000E+00  0.0000000000E+00  0.0000000000E+00
           symrel      1  0  0   0  1  0   0  0  1      -1  0  0   0 -1  0   0  0 -1
                       0  1  0   1  0  0   0  0  1       0 -1  0  -1  0  0   0  0 -1
                       0  0  1   1  0  0   0  1  0       0  0 -1  -1  0  0   0 -1  0
                       1  0  0   0  0  1   0  1  0      -1  0  0   0  0 -1   0 -1  0
                       0  1  0   0  0  1   1  0  0       0 -1  0   0  0 -1  -1  0  0
                       0  0  1   0  1  0   1  0  0       0  0 -1   0 -1  0  -1  0  0
           tolwfr      1.00000000E-20
            typat      1  2  2  2  2  3  3
           useylm           1
              wtk        0.50000    0.50000
           xangst      0.0000000000E+00  0.0000000000E+00  0.0000000000E+00
                       2.5840248795E+00  1.5649394494E+00  9.5374018930E+00
                       8.2663675590E-01  5.0062848847E-01  3.0510414288E+00
                       3.4199317444E+00  2.0711821095E+00  1.2622658455E+01
                       5.1773198681E+00  3.1354930704E+00  1.9109018919E+01
                       4.5253262024E+00  2.7406320859E+00  1.6702569326E+01
                       1.4786304215E+00  8.9548947304E-01  5.4574910223E+00
            xcart      0.0000000000E+00  0.0000000000E+00  0.0000000000E+00
                       4.8830993428E+00  2.9573069739E+00  1.8023077597E+01
                       1.5621170800E+00  9.4605073753E-01  5.7656327206E+00
                       6.4627343902E+00  3.9139669583E+00  2.3853367549E+01
                       9.7837166530E+00  5.9252231947E+00  3.6110812425E+01
                       8.5516271846E+00  5.1790440733E+00  3.1563281741E+01
                       2.7942065484E+00  1.6922298589E+00  1.0313163405E+01
             xred      0.0000000000E+00  0.0000000000E+00  0.0000000000E+00
                       4.3038700000E-01  4.3038700000E-01  4.3038700000E-01
                       1.3768200000E-01  1.3768200000E-01  1.3768200000E-01
                       5.6961300000E-01  5.6961300000E-01  5.6961300000E-01
                       8.6231800000E-01  8.6231800000E-01  8.6231800000E-01
                       7.5372400000E-01  7.5372400000E-01  7.5372400000E-01
                       2.4627600000E-01  2.4627600000E-01  2.4627600000E-01
            znucl       38.00000    3.00000   15.00000

- Timing analysis has been suppressed with timopt=0

 Suggested references for the acknowledgment of ABINIT usage.

 Calculation completed.
.Delivered  14 WARNINGs and   9 COMMENTs to log file.