.Version 9.5.2 of ABINIT

 ABINIT is a project of the Universite Catholique de Louvain,
 Corning Inc. and other collaborators, see ~abinit/doc/developers/contributors.txt .
 acknowledgments of the ABINIT effort.

.Starting date : Tue  1 Jun 2021.
- ( at 19h45 )

- input  file    -> /scratch/users/j/a/jabreu/flow_simple_11atoms/flow/w408/t1/run.abi
- output file    -> /scratch/users/j/a/jabreu/flow_simple_11atoms/flow/w408/t1/run.abo
- root for input  files -> /scratch/users/j/a/jabreu/flow_simple_11atoms/flow/w408/t1/indata/in
- root for output files -> /scratch/users/j/a/jabreu/flow_simple_11atoms/flow/w408/t1/outdata/out

 Symmetries : space group Cm c 2_1 (# 36); Bravais oC (1-face-center ortho.)
     intxc =       0      iscf =       7    lmnmax =      25     lnmax =       7
     mgfft =      90  mpssoang =       4    mqgrid =    3984     natom =      12
  nloc_mem =       1    nspden =       1   nspinor =       1    nsppol =       1
      nsym =       4    n1xccc =    2501    ntypat =       4    occopt =       1
   xclevel =       2
-    mband =          87        mffmem =           1         mkmem =           1
-   mkqmem =           1        mk1mem =           1           mpw =       32871
      nfft =      648000          nkpt =           1
  Rough estimation (10% accuracy) of disk space for files :

------------- Echo of variables that govern the present computation ------------
-
- outvars: echo of selected default values
-   iomode0 =  0 , fftalg0 =512 , wfoptalg0 =  0
-
- outvars: echo of global parameters not present in the input file
-  max_nthreads =    0
-
 -outvars: echo values of preprocessed input variables --------
            acell      1.0000000000E+00  1.0000000000E+00  1.0000000000E+00 Bohr
              amu      1.07868200E+02  2.00590000E+02  3.20660000E+01
                       1.26904470E+02
             ecut      4.30000000E+01 Hartree
-          fftalg         512
           irdden           1
           irdwfk           1
           istwfk        1
              ixc     -116133
           kptopt           0
P           mkmem           1
P          mkqmem           1
P          mk1mem           1
            natom          12
            nband          87
           nbdbuf           4
            ngfft          90      90      80
             nkpt           1
            nstep        2000
             nsym           4
           ntypat           4
              occ      2.000000  2.000000  2.000000  2.000000  2.000000  2.000000
                       2.000000  2.000000  2.000000  2.000000  2.000000  2.000000
                       2.000000  2.000000  2.000000  2.000000  2.000000  2.000000
                       2.000000  2.000000  2.000000  2.000000  2.000000  2.000000
                       2.000000  2.000000  2.000000  2.000000  2.000000  2.000000
                       2.000000  2.000000  2.000000  2.000000  2.000000  2.000000
                       2.000000  2.000000  2.000000  2.000000  2.000000  2.000000
                       2.000000  2.000000  2.000000  2.000000  2.000000  2.000000
                       2.000000  2.000000  2.000000  2.000000  2.000000  2.000000
                       2.000000  2.000000  2.000000  2.000000  2.000000  2.000000
                       2.000000  2.000000  2.000000  2.000000  2.000000  2.000000
                       2.000000  2.000000  2.000000  2.000000  2.000000  2.000000
                       2.000000  2.000000  2.000000  2.000000  2.000000  2.000000
                       0.000000  0.000000  0.000000  0.000000  0.000000  0.000000
                       0.000000  0.000000  0.000000
        optdriver           1
            prtwf          -1
            rfdir           1       1       1
           rfelfd           2
            rprim      1.4640281517E+01  0.0000000000E+00  0.0000000000E+00
                      -7.8551007803E+00  1.2354563312E+01  0.0000000000E+00
                       0.0000000000E+00  0.0000000000E+00  1.3496084890E+01
          spgroup          36
           symrel      1  0  0   0  1  0   0  0  1       0 -1  0  -1  0  0   0  0  1
                      -1  0  0   0 -1  0   0  0  1       0  1  0   1  0  0   0  0  1
            tnons      0.0000000  0.0000000  0.0000000    -0.0000000 -0.0000000  0.5000000
                      -0.0000000 -0.0000000  0.5000000     0.0000000  0.0000000  0.0000000
           tolwfr      1.00000000E-20
            typat      1  1  1  1  2  2  3  3  4  4  4  4
           useylm           1
           xangst      4.2908035316E+00  3.2793566820E+00  1.5881194892E+00
                       4.6517722849E-01  5.3804075441E+00  1.5881194892E+00
                       3.1253857735E+00  1.1573457827E+00  5.1590297535E+00
                      -7.0024052958E-01  3.2583966448E+00  5.1590297535E+00
                       3.4529546750E+00  6.2871939305E+00  4.3349993591E+00
                       1.3760832705E-01  2.5055939625E-01  7.6408909473E-01
                       2.8539482305E+00  5.1965136185E+00  2.3087577478E+00
                       7.3661477155E-01  1.3412397082E+00  5.8796680122E+00
                       4.3882152571E+00  3.5581787858E+00  5.8948658063E+00
                       6.4820283567E-01  5.6122101260E+00  5.8948658063E+00
                      -7.9765225511E-01  2.9795745409E+00  2.3239555419E+00
                       2.9423601664E+00  9.2554320071E-01  2.3239555419E+00
            xcart      8.1084435648E+00  6.1970860209E+00  3.0011109008E+00
                       8.7905756510E-01  1.0167496742E+01  3.0011109008E+00
                       5.9061231716E+00  2.1870665703E+00  9.7491533456E+00
                      -1.3232628281E+00  6.1574772910E+00  9.7491533456E+00
                       6.5251386850E+00  1.1881074673E+01  8.1919615750E+00
                       2.6004205173E-01  4.7348863893E-01  1.4439191302E+00
                       5.3931805530E+00  9.8199875848E+00  4.3629198505E+00
                       1.3920001837E+00  2.5345757271E+00  1.1110962295E+01
                       8.2925250481E+00  6.7239834371E+00  1.1139681964E+01
                       1.2249258380E+00  1.0605540138E+01  1.1139681964E+01
                      -1.5073443114E+00  5.6305798748E+00  4.3916395192E+00
                       5.5602548987E+00  1.7490231735E+00  4.3916395192E+00
             xred      8.2297500000E-01  5.0160300000E-01  2.2236900000E-01
                       5.0160300000E-01  8.2297500000E-01  2.2236900000E-01
                       4.9839700000E-01  1.7702500000E-01  7.2236900000E-01
                       1.7702500000E-01  4.9839700000E-01  7.2236900000E-01
                       9.6167500000E-01  9.6167500000E-01  6.0698800000E-01
                       3.8325000000E-02  3.8325000000E-02  1.0698800000E-01
                       7.9484700000E-01  7.9484700000E-01  3.2327300000E-01
                       2.0515300000E-01  2.0515300000E-01  8.2327300000E-01
                       8.5843100000E-01  5.4425100000E-01  8.2540100000E-01
                       5.4425100000E-01  8.5843100000E-01  8.2540100000E-01
                       1.4156900000E-01  4.5574900000E-01  3.2540100000E-01
                       4.5574900000E-01  1.4156900000E-01  3.2540100000E-01
            znucl       47.00000   80.00000   16.00000   53.00000

 chkinp: Checking input parameters for consistency.

== DATASET  1 ==================================================================
-   mpi_nproc: 1, omp_nthreads: -1 (-1 if OMP is not activated)

--- !DatasetInfo
iteration_state: {dtset: 1, }
dimensions: {natom: 12, nkpt: 1, mband: 87, nsppol: 1, nspinor: 1, nspden: 1, mpw: 32871, }
cutoff_energies: {ecut:  43.0, pawecutdg:  -1.0, }
electrons: {nelect:   1.56000000E+02, charge:   0.00000000E+00, occopt:   1.00000000E+00, tsmear:   1.00000000E-02, }
meta: {optdriver: 1, rfelfd: 2, }
...

 Real(R)+Recip(G) space primitive vectors, cartesian coordinates (Bohr,Bohr^-1):
 R(1)= 14.6402815  0.0000000  0.0000000  G(1)=  0.0683047  0.0434285  0.0000000
 R(2)= -7.8551008 12.3545633  0.0000000  G(2)=  0.0000000  0.0809418  0.0000000
 R(3)=  0.0000000  0.0000000 13.4960849  G(3)=  0.0000000  0.0000000  0.0740956
 Unit cell volume ucvol=  2.4410947E+03 bohr^3
 Angles (23,13,12)=  9.00000000E+01  9.00000000E+01  1.22448430E+02 degrees

 getcut: wavevector=  0.0000  0.0000  0.0000  ngfft=  90  90  80
         ecut(hartree)=     43.000   => boxcut(ratio)=   2.00809

--- Pseudopotential description ------------------------------------------------
- pspini: atom type   1  psp file is /scratch/users/j/a/jabreu/pseudos/PBEsol/Ag.psp8
- pspatm: opening atomic psp file    /scratch/users/j/a/jabreu/pseudos/PBEsol/Ag.psp8
- Ag    ONCVPSP-3.3.0  r_core=   1.41384   1.46535   1.61207
- 47.00000  19.00000    180112                znucl, zion, pspdat
    8 -116133    2    4       600   0.00000   pspcod,pspxc,lmax,lloc,mmax,r2well
    5.99000000000000    7.00000000000000    0.00000000000000   rchrg,fchrg,qchrg
     nproj     2     2     2
     extension_switch     1
  pspatm : epsatm=   27.64581383
         --- l  ekb(1:nproj) -->
             0    9.559407   -0.398585
             1    3.418858   -0.136622
             2   -1.644397   -0.401551
 pspatm: atomic psp has been read  and splines computed

- pspini: atom type   2  psp file is /scratch/users/j/a/jabreu/pseudos/PBEsol/Hg.psp8
- pspatm: opening atomic psp file    /scratch/users/j/a/jabreu/pseudos/PBEsol/Hg.psp8
- Hg    ONCVPSP-3.3.0  r_core=   1.60079   1.60079   1.45509   1.60079
- 80.00000  20.00000    180112                znucl, zion, pspdat
    8 -116133    3    4       600   0.00000   pspcod,pspxc,lmax,lloc,mmax,r2well
    5.99000000000000    5.00000000000000    0.00000000000000   rchrg,fchrg,qchrg
     nproj     2     2     2     1
     extension_switch     1
  pspatm : epsatm=   30.52477316
         --- l  ekb(1:nproj) -->
             0   15.280580    2.063595
             1   11.999965    1.374025
             2    2.245749    0.205661
             3    0.961656
 pspatm: atomic psp has been read  and splines computed

[...]

- pspini: atom type   4  psp file is /scratch/users/j/a/jabreu/pseudos/PBEsol/I.psp8
- pspatm: opening atomic psp file    /scratch/users/j/a/jabreu/pseudos/PBEsol/I.psp8
- I     ONCVPSP-3.3.0  r_core=   2.02042   2.17032   2.27639
- 53.00000   7.00000    180112                znucl, zion, pspdat
    8 -116133    2    4       600   0.00000   pspcod,pspxc,lmax,lloc,mmax,r2well
    5.99000000000000    4.00000000000000    0.00000000000000   rchrg,fchrg,qchrg
     nproj     2     2     2
     extension_switch     1
  pspatm : epsatm=   18.14229533
         --- l  ekb(1:nproj) -->
             0    6.015861    0.935228
             1    4.063749    0.754139
             2    4.149534    0.722940
 pspatm: atomic psp has been read  and splines computed

   4.08156532E+04                                ecore*ucvol(ha*bohr**3)

 ==>  initialize data related to q vector <==

 The list of irreducible perturbations for this q vector is:
    1)    idir= 1    ipert=  13
    2)    idir= 2    ipert=  13
    3)    idir= 3    ipert=  13

 Perturbation wavevector (in red.coord.)   0.000000  0.000000  0.000000
[...]
   0.00000    0.00000    0.00000   -0.00000   -0.00000    0.00000    0.00000    0.00000
   0.00000   -0.00000   -0.00000    0.00000   -0.00000   -0.00000    0.00000    0.00000
  -0.00000   -0.00000   -0.00000    0.00000   -0.00000   -0.00000    0.00000    0.00000
  -0.00000   -0.00000    0.00000   -0.00000   -0.00000   -0.00000   -0.00000    0.00000
   0.00000   -0.00000    0.00000   -0.00000   -0.00000   -0.00000    0.00000   -0.00000
  -0.00000    0.00000    0.00000   -0.00000   -0.00000   -0.00000    0.00000    0.00000
   0.00000    0.00000   -0.00000   -0.00000    0.00000    0.00000    0.00000   -0.00000
   0.00000    0.00000    0.00000    0.00000   -0.00000    0.00000    0.00000   -0.00000
  -0.00000    0.00000   -0.00000    0.00000    0.00000   -0.00000    0.00000    0.00000
   0.00000    0.00000   -0.00000    0.00000    0.00000    0.00000    0.00000   -0.00000
  -0.00000    0.00000    0.00000   -0.00000   -0.00000    0.00000   -0.00002

 Eight components of 2nd-order total energy (hartree) are
 1,2,3: 0th-order hamiltonian combined with 1st-order wavefunctions
     kin0=   7.22638261E+01 eigvalue=  -2.14208200E-01  local=  -4.05285588E+01
 4,5,6: 1st-order hamiltonian combined with 1st and 0th-order wfs
     kin1=  -8.39370748E+01  Hartree=   0.00000000E+00     xc=   0.00000000E+00
 7,8,9: eventually, occupation + non-local contributions
    edocc=   8.11803847E+00     enl0=   5.07438170E+00   enl1=  -5.48988374E+00
 1-9 gives the relaxation energy (to be shifted if some occ is /=2.0)
   erelax=  -4.47134793E+01
  No Ewald or frozen-wf contrib.: the relaxation energy is the total one
 2DEtotal=   -0.4471347928E+02 Ha. Also 2DEtotal=   -0.121671564838E+04 eV
    (  non-var. 2DEtotal :   -4.4713479279E+01 Ha)

 Perturbation wavevector (in red.coord.)   0.000000  0.000000  0.000000
 Perturbation : derivative vs k along direction   2
 The set of symmetries contains only one element for this perturbation.
 symkpt : not enough symmetry to change the number of k points.

[...]

 Perturbation wavevector (in red.coord.)   0.000000  0.000000  0.000000
 Perturbation : derivative vs k along direction   3
 The set of symmetries contains only one element for this perturbation.
 symkpt : not enough symmetry to change the number of k points.

 Initialisation of the first-order wave-functions :
  ireadwf=   0

--- !BeginCycle
iteration_state: {dtset: 1, }
solver: {iscf: 7, nstep: 2000, nline: 4, wfoptalg: 0, }
tolerances: {tolwfr: 1.00E-20, }
...

     iter   2DEtotal(Ha)        deltaE(Ha) residm    vres2
-ETOT  1  -36.093550240338     -3.609E+01 1.221E-01 0.000E+00
 ETOT  2  -36.182219266233     -8.867E-02 5.783E-03 0.000E+00
 ETOT  3  -36.183260718631     -1.041E-03 4.670E-04 0.000E+00
 ETOT  4  -36.183280593526     -1.987E-05 3.435E-05 0.000E+00
 ETOT  5  -36.183281060241     -4.667E-07 4.691E-06 0.000E+00
 ETOT  6  -36.183281072650     -1.241E-08 3.387E-07 0.000E+00
 ETOT  7  -36.183281073009     -3.588E-10 3.961E-08 0.000E+00
 ETOT  8  -36.183281073020     -1.099E-11 3.620E-09 0.000E+00
 ETOT  9  -36.183281073021     -3.908E-13 4.052E-10 0.000E+00
 ETOT 10  -36.183281073021      2.132E-14 3.988E-11 0.000E+00
 ETOT 11  -36.183281073021      0.000E+00 4.327E-12 0.000E+00
 ETOT 12  -36.183281073021     -2.842E-14 4.422E-13 0.000E+00
 ETOT 13  -36.183281073021     -7.105E-15 4.675E-14 0.000E+00
 ETOT 14  -36.183281073021     -1.421E-14 4.897E-15 0.000E+00
 ETOT 15  -36.183281073021      1.421E-14 5.076E-16 0.000E+00
 ETOT 16  -36.183281073021     -1.421E-14 5.410E-17 0.000E+00
 ETOT 17  -36.183281073021      0.000E+00 5.534E-18 0.000E+00
 ETOT 18  -36.183281073021     -7.105E-15 5.961E-19 0.000E+00
 ETOT 19  -36.183281073021      2.842E-14 6.051E-20 0.000E+00
 ETOT 20  -36.183281073021     -2.132E-14 9.916E-21 0.000E+00

 At SCF step   20   max residual=  9.92E-21 < tolwfr=  1.00E-20 =>converged.

 ----iterations are completed or convergence reached----

 dfpt_looppert: DFPT cycle converged with prtwf=-1. Will skip output of the 1st-order WFK file.
 dfpt_looppert : ek2=    6.7623668683E+01
          f-sum rule ratio=    1.0027589058E+00
 prteigrs : about to open file /scratch/users/j/a/jabreu/flow_simple_11atoms/flow/w408/t1/tmpdata/tmp_1WF1_EIG
 Expectation of eigenvalue derivatives (hartree) for nkpt=   1  k points:
  (in case of degenerate eigenvalues, averaged derivative)
 kpt#   1, nband= 87, wtk=  1.00000, kpt=  0.0000  0.0000  0.0000 (reduced coord)
   0.00000    0.00000   -0.00000   -0.00000   -0.00000   -0.00000    0.00000    0.00000
  -0.00000    0.00000   -0.00000   -0.00000    0.00000    0.00000    0.00000   -0.00000
   0.00000    0.00000   -0.00000    0.00000   -0.00000    0.00000   -0.00000   -0.00000
   0.00000   -0.00000    0.00000    0.00000    0.00000   -0.00000   -0.00000   -0.00000
  -0.00000   -0.00000    0.00000    0.00000   -0.00000   -0.00000   -0.00000   -0.00000
  -0.00000   -0.00000   -0.00000   -0.00000   -0.00000    0.00000    0.00000   -0.00000
   0.00000    0.00000    0.00000   -0.00000   -0.00000    0.00000   -0.00000   -0.00000
   0.00000    0.00000   -0.00000    0.00000   -0.00000   -0.00000   -0.00000   -0.00000
   0.00000   -0.00000    0.00000   -0.00000    0.00000   -0.00000    0.00000    0.00000
   0.00000   -0.00000   -0.00000    0.00000    0.00000    0.00000   -0.00000   -0.00000
  -0.00000   -0.00000    0.00000    0.00000   -0.00000   -0.00000   -0.00000

 Eight components of 2nd-order total energy (hartree) are
 1,2,3: 0th-order hamiltonian combined with 1st-order wavefunctions
     kin0=   5.73282719E+01 eigvalue=   1.87369355E-01  local=  -3.18372781E+01
 4,5,6: 1st-order hamiltonian combined with 1st and 0th-order wfs
     kin1=  -6.78102360E+01  Hartree=   0.00000000E+00     xc=   0.00000000E+00
 7,8,9: eventually, occupation + non-local contributions
    edocc=   6.57949850E+00     enl0=   3.92541937E+00   enl1=  -4.55632613E+00
 1-9 gives the relaxation energy (to be shifted if some occ is /=2.0)
   erelax=  -3.61832811E+01
  No Ewald or frozen-wf contrib.: the relaxation energy is the total one
 2DEtotal=   -0.3618328107E+02 Ha. Also 2DEtotal=   -0.984597150592E+03 eV
    (  non-var. 2DEtotal :   -3.6183281073E+01 Ha)

 CALCULATION OF EFFECTIVE MASSES
 NOTE : Additional infos (eff. mass eigenvalues, eigenvectors and, if degenerate, average mass) are available in stdout.

 K-point ( 0.000, 0.000, 0.000) | band =    78
 Effective mass tensor:
             -1.3170335094             -0.5942165200              0.0000013215
             -0.5942165200             -2.0726459165              0.0000069206
              0.0000013215              0.0000069206             -1.9030577818
 Effective mass tensor eigenvalues:
             -2.3989922533             -1.9030577817             -0.9906871726
 Angular average effective mass 1/(<1/m>)=  -1.5371118856
 Angular average effective mass for Frohlich model (<m**0.5>)**2=  -1.6078648340
 Effective masses along directions: (cart. coord. / red. coord. -> eff. mass)
    1:   1.000000  0.000000  0.000000 /   0.881177 -0.472787  0.000000 ->  -1.1466748052
    2:   0.000000  1.000000  0.000000 /   0.000000  1.000000  0.000000 ->  -1.8045485066
    3:   0.000000  0.000000  1.000000 /   0.000000  0.000000  1.000000 ->  -1.9030577818
    4:   0.577350  0.577350  0.577350 /   0.717172  0.220412  0.661122 ->  -2.0665854045
    5:   0.000000  0.707107  0.707107 /   0.000000  0.675224  0.737613 ->  -1.8524881528
    6:   0.707107  0.000000  0.707107 /   0.683957 -0.366971  0.630503 ->  -1.4310693133
    7:   0.707107  0.707107  0.000000 /   0.955875  0.293773  0.000000 ->  -2.1593683176

 K-point ( 0.000, 0.000, 0.000) | band =    79
 Effective mass tensor:
              0.2525411120             -0.0091266978              0.0000000188
             -0.0091266978              0.2409351533             -0.0000000102
              0.0000000188             -0.0000000102              0.1791089648
 Effective mass tensor eigenvalues:
              0.1791089648              0.2359228110              0.2575534543
 Angular average effective mass 1/(<1/m>)=   0.2189052869
 Angular average effective mass for Frohlich model (<m**0.5>)**2=   0.2205455950
 Effective masses along directions: (cart. coord. / red. coord. -> eff. mass)
    1:   1.000000  0.000000  0.000000 /   0.881177 -0.472787  0.000000 ->   0.2521953899
    2:   0.000000  1.000000  0.000000 /   0.000000  1.000000  0.000000 ->   0.2406053194
    3:   0.000000  0.000000  1.000000 /   0.000000  0.000000  1.000000 ->   0.1791089648
    4:   0.577350  0.577350  0.577350 /   0.717172  0.220412  0.661122 ->   0.2142098052
    5:   0.000000  0.707107  0.707107 /   0.000000  0.675224  0.737613 ->   0.2053519232
    6:   0.707107  0.000000  0.707107 /   0.683957 -0.366971  0.630503 ->   0.2094597867
    7:   0.707107  0.707107  0.000000 /   0.955875  0.293773  0.000000 ->   0.2374798241

 END OF EFFECTIVE MASSES SECTION

 ---- first-order wavefunction calculations are completed ----

 Total localisation tensor (bohr^2) in cartesian coordinates
  WARNING : still subject to testing - especially symmetries.
      direction              matrix element
   alpha     beta       real part   imaginary part
     1        1       2.5970813424    0.0000000000
     1        2      -0.9130437731    0.0000000000
     1        3       0.0000000000    0.0000000000
     2        1      -0.9130437731    0.0000000000
     2        2       1.4360423139    0.0000000000
     2        3       0.0000000000    0.0000000000
     3        1       0.0000000000    0.0000000000
     3        2       0.0000000000    0.0000000000
     3        3       1.3050296609    0.0000000000

 respfn : d/dk was computed, but no 2DTE, so no DDB output.

== END DATASET(S) ==============================================================

 -outvars: echo values of variables after computation  --------
            acell      1.0000000000E+00  1.0000000000E+00  1.0000000000E+00 Bohr
              amu      1.07868200E+02  2.00590000E+02  3.20660000E+01
                       1.26904470E+02
             ecut      4.30000000E+01 Hartree
           etotal     -3.6183281073E+01
            fcart      0.0000000000E+00  0.0000000000E+00  0.0000000000E+00
                       0.0000000000E+00  0.0000000000E+00  0.0000000000E+00
                       0.0000000000E+00  0.0000000000E+00  0.0000000000E+00
                       0.0000000000E+00  0.0000000000E+00  0.0000000000E+00
                       0.0000000000E+00  0.0000000000E+00  0.0000000000E+00
                       0.0000000000E+00  0.0000000000E+00  0.0000000000E+00
                       0.0000000000E+00  0.0000000000E+00  0.0000000000E+00
                       0.0000000000E+00  0.0000000000E+00  0.0000000000E+00
                       0.0000000000E+00  0.0000000000E+00  0.0000000000E+00
                       0.0000000000E+00  0.0000000000E+00  0.0000000000E+00
                       0.0000000000E+00  0.0000000000E+00  0.0000000000E+00
                       0.0000000000E+00  0.0000000000E+00  0.0000000000E+00
-          fftalg         512
           irdden           1
           irdwfk           1
           istwfk        1
              ixc     -116133
           kptopt           0
P           mkmem           1
P          mkqmem           1
P          mk1mem           1
            natom          12
            nband          87
           nbdbuf           4
            ngfft          90      90      80
             nkpt           1
            nstep        2000
             nsym           4
           ntypat           4
              occ      2.000000  2.000000  2.000000  2.000000  2.000000  2.000000
                       2.000000  2.000000  2.000000  2.000000  2.000000  2.000000
                       2.000000  2.000000  2.000000  2.000000  2.000000  2.000000
                       2.000000  2.000000  2.000000  2.000000  2.000000  2.000000
                       2.000000  2.000000  2.000000  2.000000  2.000000  2.000000
                       2.000000  2.000000  2.000000  2.000000  2.000000  2.000000
                       2.000000  2.000000  2.000000  2.000000  2.000000  2.000000
                       2.000000  2.000000  2.000000  2.000000  2.000000  2.000000
                       2.000000  2.000000  2.000000  2.000000  2.000000  2.000000
                       2.000000  2.000000  2.000000  2.000000  2.000000  2.000000
                       2.000000  2.000000  2.000000  2.000000  2.000000  2.000000
                       2.000000  2.000000  2.000000  2.000000  2.000000  2.000000
                       2.000000  2.000000  2.000000  2.000000  2.000000  2.000000
                       0.000000  0.000000  0.000000  0.000000  0.000000  0.000000
                       0.000000  0.000000  0.000000
        optdriver           1
            prtwf          -1
            rfdir           1       1       1
           rfelfd           2
            rprim      1.4640281517E+01  0.0000000000E+00  0.0000000000E+00
                      -7.8551007803E+00  1.2354563312E+01  0.0000000000E+00
                       0.0000000000E+00  0.0000000000E+00  1.3496084890E+01
          spgroup          36
           strten      0.0000000000E+00  0.0000000000E+00  0.0000000000E+00
                       0.0000000000E+00  0.0000000000E+00  0.0000000000E+00
           symrel      1  0  0   0  1  0   0  0  1       0 -1  0  -1  0  0   0  0  1
                      -1  0  0   0 -1  0   0  0  1       0  1  0   1  0  0   0  0  1
            tnons      0.0000000  0.0000000  0.0000000    -0.0000000 -0.0000000  0.5000000
                      -0.0000000 -0.0000000  0.5000000     0.0000000  0.0000000  0.0000000
           tolwfr      1.00000000E-20
            typat      1  1  1  1  2  2  3  3  4  4  4  4
           useylm           1
           xangst      4.2908035316E+00  3.2793566820E+00  1.5881194892E+00
                       4.6517722849E-01  5.3804075441E+00  1.5881194892E+00
                       3.1253857735E+00  1.1573457827E+00  5.1590297535E+00
                      -7.0024052958E-01  3.2583966448E+00  5.1590297535E+00
                       3.4529546750E+00  6.2871939305E+00  4.3349993591E+00
                       1.3760832705E-01  2.5055939625E-01  7.6408909473E-01
                       2.8539482305E+00  5.1965136185E+00  2.3087577478E+00
                       7.3661477155E-01  1.3412397082E+00  5.8796680122E+00
                       4.3882152571E+00  3.5581787858E+00  5.8948658063E+00
                       6.4820283567E-01  5.6122101260E+00  5.8948658063E+00
                      -7.9765225511E-01  2.9795745409E+00  2.3239555419E+00
                       2.9423601664E+00  9.2554320071E-01  2.3239555419E+00
            xcart      8.1084435648E+00  6.1970860209E+00  3.0011109008E+00
                       8.7905756510E-01  1.0167496742E+01  3.0011109008E+00
                       5.9061231716E+00  2.1870665703E+00  9.7491533456E+00
                      -1.3232628281E+00  6.1574772910E+00  9.7491533456E+00
                       6.5251386850E+00  1.1881074673E+01  8.1919615750E+00
                       2.6004205173E-01  4.7348863893E-01  1.4439191302E+00
                       5.3931805530E+00  9.8199875848E+00  4.3629198505E+00
                       1.3920001837E+00  2.5345757271E+00  1.1110962295E+01
                       8.2925250481E+00  6.7239834371E+00  1.1139681964E+01
                       1.2249258380E+00  1.0605540138E+01  1.1139681964E+01
                      -1.5073443114E+00  5.6305798748E+00  4.3916395192E+00
                       5.5602548987E+00  1.7490231735E+00  4.3916395192E+00
             xred      8.2297500000E-01  5.0160300000E-01  2.2236900000E-01
                       5.0160300000E-01  8.2297500000E-01  2.2236900000E-01
                       4.9839700000E-01  1.7702500000E-01  7.2236900000E-01
                       1.7702500000E-01  4.9839700000E-01  7.2236900000E-01
                       9.6167500000E-01  9.6167500000E-01  6.0698800000E-01
                       3.8325000000E-02  3.8325000000E-02  1.0698800000E-01
                       7.9484700000E-01  7.9484700000E-01  3.2327300000E-01
                       2.0515300000E-01  2.0515300000E-01  8.2327300000E-01
                       8.5843100000E-01  5.4425100000E-01  8.2540100000E-01
                       5.4425100000E-01  8.5843100000E-01  8.2540100000E-01
                       1.4156900000E-01  4.5574900000E-01  3.2540100000E-01
                       4.5574900000E-01  1.4156900000E-01  3.2540100000E-01
            znucl       47.00000   80.00000   16.00000   53.00000

- Timing analysis has been suppressed with timopt=0

 Suggested references for the acknowledgment of ABINIT usage.

 Calculation completed.
.Delivered   2 WARNINGs and   5 COMMENTs to log file.