.Version 9.5.2 of ABINIT

 ABINIT is a project of the Universite Catholique de Louvain,
 Corning Inc. and other collaborators, see ~abinit/doc/developers/contributors.txt .
 acknowledgments of the ABINIT effort.

.Starting date : Mon 31 May 2021.
- ( at 22h33 )

- input  file    -> /scratch/users/j/a/jabreu/flow_simple_11atoms/flow/w368/t1/run.abi
- output file    -> /scratch/users/j/a/jabreu/flow_simple_11atoms/flow/w368/t1/run.abo
- root for input  files -> /scratch/users/j/a/jabreu/flow_simple_11atoms/flow/w368/t1/indata/in
- root for output files -> /scratch/users/j/a/jabreu/flow_simple_11atoms/flow/w368/t1/outdata/out

 Symmetries : space group R-3 (#148); Bravais hR (rhombohedral)
     intxc =       0      iscf =       7    lmnmax =      18     lnmax =       6
     mgfft =     108  mpssoang =       3    mqgrid =    3001     natom =      12
  nloc_mem =       1    nspden =       1   nspinor =       1    nsppol =       1
      nsym =       6    n1xccc =    2501    ntypat =       4    occopt =       1
   xclevel =       2
-    mband =          50        mffmem =           1         mkmem =           2
-   mkqmem =           2        mk1mem =           2           mpw =       16057
      nfft =     1259712          nkpt =           2
  Rough estimation (10% accuracy) of disk space for files :

------------- Echo of variables that govern the present computation ------------
-
- outvars: echo of selected default values
-   iomode0 =  0 , fftalg0 =512 , wfoptalg0 =  0
-
- outvars: echo of global parameters not present in the input file
-  max_nthreads =    0
-
 -outvars: echo values of preprocessed input variables --------
            acell      1.0000000000E+00  1.0000000000E+00  1.0000000000E+00 Bohr
              amu      3.90983000E+01  1.21753000E+02  3.09737620E+01
                       1.59994000E+01
             ecut      4.40000000E+01 Hartree
-          fftalg         512
           irdden           1
           irdwfk           1
           istwfk        1    1
              ixc     -116133
              kpt      5.00000000E-01  5.00000000E-01  5.00000000E-01
                       0.00000000E+00  0.00000000E+00  0.00000000E+00
           kptopt           0
P           mkmem           2
P          mkqmem           2
P          mk1mem           2
            natom          12
            nband          50
           nbdbuf           4
            ngfft         108     108     108
             nkpt           2
            nstep        2000
             nsym           6
           ntypat           4
              occ      2.000000  2.000000  2.000000  2.000000  2.000000  2.000000
                       2.000000  2.000000  2.000000  2.000000  2.000000  2.000000
                       2.000000  2.000000  2.000000  2.000000  2.000000  2.000000
                       2.000000  2.000000  2.000000  2.000000  2.000000  2.000000
                       2.000000  2.000000  2.000000  2.000000  2.000000  2.000000
                       2.000000  2.000000  2.000000  2.000000  2.000000  2.000000
                       2.000000  2.000000  2.000000  2.000000  2.000000  0.000000
                       0.000000  0.000000  0.000000  0.000000  0.000000  0.000000
                       0.000000  0.000000
        optdriver           1
            prtwf          -1
            rfdir           1       1       1
           rfelfd           2
            rprim      8.7171933734E+00  0.0000000000E+00  1.4629633309E+01
                       4.0281567520E+00  7.7306800148E+00  1.4629633309E+01
                       0.0000000000E+00  0.0000000000E+00  1.7029845304E+01
          spgroup         148
           symrel      1  0  0   0  1  0   0  0  1      -1  0  0   0 -1  0   0  0 -1
                       0  0  1   1  0  0   0  1  0       0  0 -1  -1  0  0   0 -1  0
                       0  1  0   0  0  1   1  0  0       0 -1  0   0  0 -1  -1  0  0
           tolwfr      1.00000000E-20
            typat      1  2  3  3  4  4  4  4  4  4  4  4
           useylm           1
              wtk        0.50000    0.50000
           xangst      3.3722744009E+00  2.0454498354E+00  1.2247571518E+01
                       0.0000000000E+00  0.0000000000E+00  0.0000000000E+00
                       4.9579920143E+00  3.0072653479E+00  1.8006649092E+01
                       1.7865567876E+00  1.0836343229E+00  6.4884939435E+00
                       5.3467747854E+00  3.2430811685E+00  1.9418647117E+01
                       3.4001040998E+00  3.0127430625E+00  8.8129346276E+00
                       1.3977740164E+00  8.4781850226E-01  5.0764959183E+00
                       8.6619124518E-01  1.6231503533E+00  9.7427019383E+00
                       5.8783575567E+00  2.4677493175E+00  1.4752441097E+01
                       3.4066405994E+00  1.8118594642E-02  9.3112629081E+00
                       3.3379082024E+00  4.0727810761E+00  1.5183880127E+01
                       3.3444447020E+00  1.0781566082E+00  1.5682208408E+01
            xcart      6.3726750627E+00  3.8653400074E+00  2.3144555961E+01
                       0.0000000000E+00  0.0000000000E+00  0.0000000000E+00
                       9.3692470760E+00  5.6829079164E+00  3.4027635354E+01
                       3.3761030494E+00  2.0477720984E+00  1.2261476568E+01
                       1.0103940039E+01  6.1285352351E+00  3.6695924922E+01
                       6.4252655720E+00  5.6932592969E+00  1.6654032873E+01
                       2.6414100867E+00  1.6021447797E+00  9.5931870004E+00
                       1.6368642321E+00  3.0673096402E+00  1.8411038458E+01
                       1.1108485893E+01  4.6633703746E+00  2.7878073465E+01
                       6.4376177661E+00  3.4239181786E-02  1.7595736848E+01
                       6.3077323593E+00  7.6964408330E+00  2.8693375075E+01
                       6.3200845534E+00  2.0374207179E+00  2.9635079049E+01
             xred      5.0000000000E-01  5.0000000000E-01  5.0000000000E-01
                       0.0000000000E+00  0.0000000000E+00  0.0000000000E+00
                       7.3511100000E-01  7.3511100000E-01  7.3511100000E-01
                       2.6488900000E-01  2.6488900000E-01  2.6488900000E-01
                       7.9275500000E-01  7.9275500000E-01  7.9275500000E-01
                       3.9677100000E-01  7.3645000000E-01  4.4290000000E-03
                       2.0724500000E-01  2.0724500000E-01  2.0724500000E-01
                       4.4290000000E-03  3.9677100000E-01  7.3645000000E-01
                       9.9557100000E-01  6.0322900000E-01  2.6355000000E-01
                       7.3645000000E-01  4.4290000000E-03  3.9677100000E-01
                       2.6355000000E-01  9.9557100000E-01  6.0322900000E-01
                       6.0322900000E-01  2.6355000000E-01  9.9557100000E-01
            znucl       19.00000   51.00000   15.00000    8.00000

 chkinp: Checking input parameters for consistency.

== DATASET  1 ==================================================================
-   mpi_nproc: 1, omp_nthreads: -1 (-1 if OMP is not activated)

--- !DatasetInfo
iteration_state: {dtset: 1, }
dimensions: {natom: 12, nkpt: 2, mband: 50, nsppol: 1, nspinor: 1, nspden: 1, mpw: 16057, }
cutoff_energies: {ecut:  44.0, pawecutdg:  -1.0, }
electrons: {nelect:   8.20000000E+01, charge:   0.00000000E+00, occopt:   1.00000000E+00, tsmear:   1.00000000E-02, }
meta: {optdriver: 1, rfelfd: 2, }
...

 Real(R)+Recip(G) space primitive vectors, cartesian coordinates (Bohr,Bohr^-1):
 R(1)=  8.7171934  0.0000000 14.6296333  G(1)=  0.1147158 -0.0597740  0.0000000
 R(2)=  4.0281568  7.7306800 14.6296333  G(2)=  0.0000000  0.1293547  0.0000000
 R(3)=  0.0000000  0.0000000 17.0298453  G(3)= -0.0985476 -0.0597740  0.0587204
 Unit cell volume ucvol=  1.1476384E+03 bohr^3
 Angles (23,13,12)=  3.07889652E+01  3.07889652E+01  3.07889652E+01 degrees

 getcut: wavevector=  0.0000  0.0000  0.0000  ngfft= 108 108 108
         ecut(hartree)=     44.000   => boxcut(ratio)=   2.12413

--- Pseudopotential description ------------------------------------------------
- pspini: atom type   1  psp file is /scratch/users/j/a/jabreu/pseudos/PBEsol/K.psp8
- pspatm: opening atomic psp file    /scratch/users/j/a/jabreu/pseudos/PBEsol/K.psp8
- K     ONCVPSP-3.3.0  r_core=   1.36296   1.46408   1.61068
- 19.00000   9.00000    180112                znucl, zion, pspdat
    8 -116133    2    4       400   0.00000   pspcod,pspxc,lmax,lloc,mmax,r2well
    3.99000000000000    5.00000000000000    0.00000000000000   rchrg,fchrg,qchrg
     nproj     2     2     2
     extension_switch     1
  pspatm : epsatm=    8.32487830
         --- l  ekb(1:nproj) -->
             0   10.921326    0.816676
             1    4.431000    0.560368
             2   -3.384038   -1.043186
 pspatm: atomic psp has been read  and splines computed

- pspini: atom type   2  psp file is /scratch/users/j/a/jabreu/pseudos/PBEsol/Sb.psp8
- pspatm: opening atomic psp file    /scratch/users/j/a/jabreu/pseudos/PBEsol/Sb.psp8
- Sb    ONCVPSP-3.3.0  r_core=   1.81962   2.12485   1.81962
- 51.00000  15.00000    180112                znucl, zion, pspdat
    8 -116133    2    4       600   0.00000   pspcod,pspxc,lmax,lloc,mmax,r2well
    5.99000000000000    5.00000000000000    0.00000000000000   rchrg,fchrg,qchrg
     nproj     2     2     2
     extension_switch     1
  pspatm : epsatm=   26.35641246
         --- l  ekb(1:nproj) -->
             0    9.727814    1.485032
             1    5.505335    0.704623
             2   -4.710637   -1.436443
 pspatm: atomic psp has been read  and splines computed

[...]

- pspini: atom type   4  psp file is /scratch/users/j/a/jabreu/pseudos/PBEsol/O.psp8
- pspatm: opening atomic psp file    /scratch/users/j/a/jabreu/pseudos/PBEsol/O.psp8
- O     ONCVPSP-3.3.0  r_core=   1.35509   1.45563   1.26150
-  8.00000   6.00000    180112                znucl, zion, pspdat
    8 -116133    2    4       600   0.00000   pspcod,pspxc,lmax,lloc,mmax,r2well
    5.99000000000000    4.00000000000000    0.00000000000000   rchrg,fchrg,qchrg
     nproj     2     2     1
     extension_switch     1
  pspatm : epsatm=    6.22910522
         --- l  ekb(1:nproj) -->
             0    6.050032    0.820363
             1   -4.739617   -1.153841
             2   -1.335834
 pspatm: atomic psp has been read  and splines computed

   8.12936144E+03                                ecore*ucvol(ha*bohr**3)

 ==>  initialize data related to q vector <==

 The list of irreducible perturbations for this q vector is:
    1)    idir= 1    ipert=  13
    2)    idir= 2    ipert=  13
    3)    idir= 3    ipert=  13

 Perturbation wavevector (in red.coord.)   0.000000  0.000000  0.000000
 Perturbation : derivative vs k along direction   1

 dfpt_looppert : COMMENT -
  In a d/dk calculation, iscf is set to -3 automatically.
 The set of symmetries contains only one element for this perturbation.
 symkpt : not enough symmetry to change the number of k points.

 Initialisation of the first-order wave-functions :
  ireadwf=   0

--- !BeginCycle
iteration_state: {dtset: 1, }
solver: {iscf: 7, nstep: 2000, nline: 4, wfoptalg: 0, }
tolerances: {tolwfr: 1.00E-20, }
...

[...]
 The set of symmetries contains only one element for this perturbation.
 symkpt : not enough symmetry to change the number of k points.

 Initialisation of the first-order wave-functions :
  ireadwf=   0

--- !BeginCycle
iteration_state: {dtset: 1, }
solver: {iscf: 7, nstep: 2000, nline: 4, wfoptalg: 0, }
tolerances: {tolwfr: 1.00E-20, }
...

     iter   2DEtotal(Ha)        deltaE(Ha) residm    vres2
-ETOT  1  -66.803223149740     -6.680E+01 1.616E-01 0.000E+00
 ETOT  2  -66.941903571847     -1.387E-01 3.432E-02 0.000E+00
 ETOT  3  -66.944078914237     -2.175E-03 4.531E-03 0.000E+00
 ETOT  4  -66.944137637045     -5.872E-05 1.792E-03 0.000E+00
 ETOT  5  -66.944139624743     -1.988E-06 3.116E-04 0.000E+00
 ETOT  6  -66.944139699629     -7.489E-08 1.300E-04 0.000E+00
 ETOT  7  -66.944139702671     -3.042E-09 2.350E-05 0.000E+00
 ETOT  8  -66.944139702802     -1.314E-10 9.963E-06 0.000E+00
 ETOT  9  -66.944139702808     -5.926E-12 1.826E-06 0.000E+00
 ETOT 10  -66.944139702809     -2.416E-13 7.862E-07 0.000E+00
 ETOT 11  -66.944139702809     -4.263E-14 1.447E-07 0.000E+00
 ETOT 12  -66.944139702809     -4.263E-14 6.320E-08 0.000E+00
 ETOT 13  -66.944139702809      2.842E-14 1.161E-08 0.000E+00
 ETOT 14  -66.944139702809      2.842E-14 5.141E-09 0.000E+00
 ETOT 15  -66.944139702809      0.000E+00 9.390E-10 0.000E+00
 ETOT 16  -66.944139702809     -1.421E-14 4.216E-10 0.000E+00
 ETOT 17  -66.944139702809      1.421E-14 7.643E-11 0.000E+00
 ETOT 18  -66.944139702809     -1.421E-14 3.477E-11 0.000E+00
 ETOT 19  -66.944139702809      1.421E-14 6.250E-12 0.000E+00
 ETOT 20  -66.944139702809      2.842E-14 2.879E-12 0.000E+00
 ETOT 21  -66.944139702809     -2.842E-14 5.129E-13 0.000E+00
 ETOT 22  -66.944139702809      1.421E-14 2.392E-13 0.000E+00
 ETOT 23  -66.944139702809     -1.421E-14 4.223E-14 0.000E+00
 ETOT 24  -66.944139702809      0.000E+00 1.992E-14 0.000E+00
 ETOT 25  -66.944139702809      0.000E+00 3.485E-15 0.000E+00
 ETOT 26  -66.944139702809      0.000E+00 1.662E-15 0.000E+00
 ETOT 27  -66.944139702809      0.000E+00 2.883E-16 0.000E+00
 ETOT 28  -66.944139702809      0.000E+00 1.390E-16 0.000E+00
 ETOT 29  -66.944139702809      0.000E+00 2.390E-17 0.000E+00
 ETOT 30  -66.944139702809      0.000E+00 1.164E-17 0.000E+00
 ETOT 31  -66.944139702809      1.421E-14 1.985E-18 0.000E+00
 ETOT 32  -66.944139702809      0.000E+00 9.761E-19 0.000E+00
 ETOT 33  -66.944139702809      0.000E+00 1.651E-19 0.000E+00
 ETOT 34  -66.944139702809     -1.421E-14 8.194E-20 0.000E+00
 ETOT 35  -66.944139702809      0.000E+00 1.375E-20 0.000E+00
 ETOT 36  -66.944139702809      0.000E+00 9.714E-21 0.000E+00

 At SCF step   36   max residual=  9.71E-21 < tolwfr=  1.00E-20 =>converged.

 ----iterations are completed or convergence reached----

 dfpt_looppert: DFPT cycle converged with prtwf=-1. Will skip output of the 1st-order WFK file.
 dfpt_looppert : ek2=    1.0833485086E+02
          f-sum rule ratio=    1.0329097606E+00
 prteigrs : about to open file /scratch/users/j/a/jabreu/flow_simple_11atoms/flow/w368/t1/tmpdata/tmp_1WF1_EIG
 Expectation of eigenvalue derivatives (hartree) for nkpt=   2  k points:
  (in case of degenerate eigenvalues, averaged derivative)
 kpt#   1, nband= 50, wtk=  0.50000, kpt=  0.5000  0.5000  0.5000 (reduced coord)
   0.00000    0.00000   -0.00000   -0.00000   -0.00000   -0.00000   -0.00000    0.00000
  -0.00000   -0.00000   -0.00000   -0.00000    0.00000   -0.00000   -0.00000   -0.00000
  -0.00000   -0.00000    0.00000   -0.00000   -0.00000   -0.00000   -0.00000   -0.00000
   0.00000    0.00000   -0.00000   -0.00000   -0.00000    0.00000    0.00000   -0.00000
   0.00000    0.00000    0.00000    0.00000    0.00000   -0.00000   -0.00000   -0.00000
  -0.00000    0.00000   -0.00000    0.00000    0.00000   -0.00000    0.00000   -0.00670
  -0.00368   -0.00536
 prteigrs : prtvol=0 or 1, do not print more k-points.

 Eight components of 2nd-order total energy (hartree) are
 1,2,3: 0th-order hamiltonian combined with 1st-order wavefunctions
     kin0=   9.37659429E+01 eigvalue=   7.69596926E+00  local=  -4.61849033E+01
 4,5,6: 1st-order hamiltonian combined with 1st and 0th-order wfs
     kin1=  -1.11900125E+02  Hartree=   0.00000000E+00     xc=   0.00000000E+00
 7,8,9: eventually, occupation + non-local contributions
    edocc=   1.09667164E+01     enl0=   7.00414374E-01   enl1=  -2.19881545E+01
 1-9 gives the relaxation energy (to be shifted if some occ is /=2.0)
   erelax=  -6.69441397E+01
  No Ewald or frozen-wf contrib.: the relaxation energy is the total one
 2DEtotal=   -0.6694413970E+02 Ha. Also 2DEtotal=   -0.182164268263E+04 eV
    (  non-var. 2DEtotal :   -6.6944139702E+01 Ha)

 CALCULATION OF EFFECTIVE MASSES
 NOTE : Additional infos (eff. mass eigenvalues, eigenvectors and, if degenerate, average mass) are available in stdout.

 COMMENTS:
 - At k-point ( 0.500, 0.500, 0.500), bands    40 through    41
   are DEGENERATE (effective mass tensor is therefore not defined).
   See Section IIIB Eqs. (67)-(70) and Appendix E of PRB 93 205147 (2016).
 - Angular average effective mass for Frohlich model is to be averaged over degenerate bands. See later.
 - Associated theta integrals calculated with ntheta=   1000 points.

 K-point ( 0.500, 0.500, 0.500) | band =    40
 Transport equivalent effective mass tensor:
             -2.2987786735              0.0209883074              0.1271410542
              0.0209883074             -2.3207614214              0.0769112570
              0.1271410542              0.0769112570             -1.8737630591
 Transport equivalent effective mass tensor eigenvalues:
             -2.3340485932             -2.3334621446             -1.8257924162
 Angular average effective mass 1/(<1/m>)=  -1.9691696198
 Angular average effective mass for Frohlich model (<m**0.5>)**2=  -1.9882504093
 Effective masses along directions: (cart. coord. / red. coord. -> eff. mass)
    1:   1.000000  0.000000  0.000000 /   0.907768  0.419473  0.000000 ->  -1.9572952939
    2:   0.000000  1.000000  0.000000 /   0.000000  1.000000  0.000000 ->  -2.1085671799
    3:   0.000000  0.000000  1.000000 /   0.545947  0.545947  0.635518 ->  -1.7063036432
    4:   0.577350  0.577350  0.577350 /   0.596592  0.674317  0.435172 ->  -2.0091951677
    5:   0.000000  0.707107  0.707107 /   0.461701  0.705676  0.537450 ->  -1.6584641109
    6:   0.707107  0.000000  0.707107 /   0.678732  0.542414  0.495086 ->  -1.6561884348
    7:   0.707107  0.707107  0.000000 /   0.595534  0.803330  0.000000 ->  -2.3769821957

 K-point ( 0.500, 0.500, 0.500) | band =    41
 Transport equivalent effective mass tensor:
             -7.4811310557              0.2039430354              1.2212327354
              0.2039430354             -7.6926703932              0.7410031585
              1.2212327354              0.7410031585             -3.3837219359
 Transport equivalent effective mass tensor eigenvalues:
             -7.8175274404             -7.8165013688             -2.9234945756
 Angular average effective mass 1/(<1/m>)=  -3.6899461460
 Angular average effective mass for Frohlich model (<m**0.5>)**2=  -4.1217751358
 Effective masses along directions: (cart. coord. / red. coord. -> eff. mass)
    1:   1.000000  0.000000  0.000000 /   0.907768  0.419473  0.000000 ->  -7.0078278651
    2:   0.000000  1.000000  0.000000 /   0.000000  1.000000  0.000000 ->  -6.2955793236
    3:   0.000000  0.000000  1.000000 /   0.545947  0.545947  0.635518 ->  -2.1563870215
    4:   0.577350  0.577350  0.577350 /   0.596592  0.674317  0.435172 ->  -2.3763112743
    5:   0.000000  0.707107  0.707107 /   0.461701  0.705676  0.537450 ->  -3.2239220791
    6:   0.707107  0.000000  0.707107 /   0.678732  0.542414  0.495086 ->  -2.7318765582
    7:   0.707107  0.707107  0.000000 /   0.595534  0.803330  0.000000 ->  -4.1261713628

 Angular average effective mass for Frohlich model, averaged over degenerate bands.
 Value of     (<<m**0.5>>)**2 =     2.958862E+00
 Absolute Value of <<m**0.5>> =     1.720134E+00

 K-point ( 0.000, 0.000, 0.000) | band =    42
 Effective mass tensor:
              0.8981318263              0.0208405588              0.1247873386
              0.0208405588              0.8764134135              0.0756896367
              0.1247873386              0.0756896367              1.3169806111
 Effective mass tensor eigenvalues:
              0.8637725932              0.8637725933              1.3639806643
 Angular average effective mass 1/(<1/m>)=   0.9840671452
 Angular average effective mass for Frohlich model (<m**0.5>)**2=   0.9966520001
 Effective masses along directions: (cart. coord. / red. coord. -> eff. mass)
    1:   1.000000  0.000000  0.000000 /   0.907768  0.419473  0.000000 ->   0.8860936563
    2:   0.000000  1.000000  0.000000 /   0.000000  1.000000  0.000000 ->   0.8718525697
    3:   0.000000  0.000000  1.000000 /   0.545947  0.545947  0.635518 ->   1.2935929950
    4:   0.577350  0.577350  0.577350 /   0.596592  0.674317  0.435172 ->   1.1223869147
    5:   0.000000  0.707107  0.707107 /   0.461701  0.705676  0.537450 ->   1.1163600458
    6:   0.707107  0.000000  0.707107 /   0.678732  0.542414  0.495086 ->   1.1836022044
    7:   0.707107  0.707107  0.000000 /   0.595534  0.803330  0.000000 ->   0.8927957967

 END OF EFFECTIVE MASSES SECTION

 ---- first-order wavefunction calculations are completed ----

 Total localisation tensor (bohr^2) in cartesian coordinates
  WARNING : still subject to testing - especially symmetries.
      direction              matrix element
   alpha     beta       real part   imaginary part
     1        1       1.0240701298    0.0000000000
     1        2       0.3458170048    0.0000000000
     1        3       2.0706674832    0.0000000000
     2        1       0.3458170048    0.0000000000
     2        2       0.6636783950    0.0000000000
     2        3       1.2559531031    0.0000000000
     3        1       2.0706674832    0.0000000000
     3        2       1.2559531031    0.0000000000
     3        3       7.9742151954    0.0000000000

 respfn : d/dk was computed, but no 2DTE, so no DDB output.

== END DATASET(S) ==============================================================

 -outvars: echo values of variables after computation  --------
            acell      1.0000000000E+00  1.0000000000E+00  1.0000000000E+00 Bohr
              amu      3.90983000E+01  1.21753000E+02  3.09737620E+01
                       1.59994000E+01
             ecut      4.40000000E+01 Hartree
           etotal     -6.6944139703E+01
            fcart      0.0000000000E+00  0.0000000000E+00  0.0000000000E+00
                       0.0000000000E+00  0.0000000000E+00  0.0000000000E+00
                       0.0000000000E+00  0.0000000000E+00  0.0000000000E+00
                       0.0000000000E+00  0.0000000000E+00  0.0000000000E+00
                       0.0000000000E+00  0.0000000000E+00  0.0000000000E+00
                       0.0000000000E+00  0.0000000000E+00  0.0000000000E+00
                       0.0000000000E+00  0.0000000000E+00  0.0000000000E+00
                       0.0000000000E+00  0.0000000000E+00  0.0000000000E+00
                       0.0000000000E+00  0.0000000000E+00  0.0000000000E+00
                       0.0000000000E+00  0.0000000000E+00  0.0000000000E+00
                       0.0000000000E+00  0.0000000000E+00  0.0000000000E+00
                       0.0000000000E+00  0.0000000000E+00  0.0000000000E+00
-          fftalg         512
           irdden           1
           irdwfk           1
           istwfk        1    1
              ixc     -116133
              kpt      5.00000000E-01  5.00000000E-01  5.00000000E-01
                       0.00000000E+00  0.00000000E+00  0.00000000E+00
           kptopt           0
P           mkmem           2
P          mkqmem           2
P          mk1mem           2
            natom          12
            nband          50
           nbdbuf           4
            ngfft         108     108     108
             nkpt           2
            nstep        2000
             nsym           6
           ntypat           4
              occ      2.000000  2.000000  2.000000  2.000000  2.000000  2.000000
                       2.000000  2.000000  2.000000  2.000000  2.000000  2.000000
                       2.000000  2.000000  2.000000  2.000000  2.000000  2.000000
                       2.000000  2.000000  2.000000  2.000000  2.000000  2.000000
                       2.000000  2.000000  2.000000  2.000000  2.000000  2.000000
                       2.000000  2.000000  2.000000  2.000000  2.000000  2.000000
                       2.000000  2.000000  2.000000  2.000000  2.000000  0.000000
                       0.000000  0.000000  0.000000  0.000000  0.000000  0.000000
                       0.000000  0.000000
        optdriver           1
            prtwf          -1
            rfdir           1       1       1
           rfelfd           2
            rprim      8.7171933734E+00  0.0000000000E+00  1.4629633309E+01
                       4.0281567520E+00  7.7306800148E+00  1.4629633309E+01
                       0.0000000000E+00  0.0000000000E+00  1.7029845304E+01
          spgroup         148
           strten      0.0000000000E+00  0.0000000000E+00  0.0000000000E+00
                       0.0000000000E+00  0.0000000000E+00  0.0000000000E+00
           symrel      1  0  0   0  1  0   0  0  1      -1  0  0   0 -1  0   0  0 -1
                       0  0  1   1  0  0   0  1  0       0  0 -1  -1  0  0   0 -1  0
                       0  1  0   0  0  1   1  0  0       0 -1  0   0  0 -1  -1  0  0
           tolwfr      1.00000000E-20
            typat      1  2  3  3  4  4  4  4  4  4  4  4
           useylm           1
              wtk        0.50000    0.50000
           xangst      3.3722744009E+00  2.0454498354E+00  1.2247571518E+01
                       0.0000000000E+00  0.0000000000E+00  0.0000000000E+00
                       4.9579920143E+00  3.0072653479E+00  1.8006649092E+01
                       1.7865567876E+00  1.0836343229E+00  6.4884939435E+00
                       5.3467747854E+00  3.2430811685E+00  1.9418647117E+01
                       3.4001040998E+00  3.0127430625E+00  8.8129346276E+00
                       1.3977740164E+00  8.4781850226E-01  5.0764959183E+00
                       8.6619124518E-01  1.6231503533E+00  9.7427019383E+00
                       5.8783575567E+00  2.4677493175E+00  1.4752441097E+01
                       3.4066405994E+00  1.8118594642E-02  9.3112629081E+00
                       3.3379082024E+00  4.0727810761E+00  1.5183880127E+01
                       3.3444447020E+00  1.0781566082E+00  1.5682208408E+01
            xcart      6.3726750627E+00  3.8653400074E+00  2.3144555961E+01
                       0.0000000000E+00  0.0000000000E+00  0.0000000000E+00
                       9.3692470760E+00  5.6829079164E+00  3.4027635354E+01
                       3.3761030494E+00  2.0477720984E+00  1.2261476568E+01
                       1.0103940039E+01  6.1285352351E+00  3.6695924922E+01
                       6.4252655720E+00  5.6932592969E+00  1.6654032873E+01
                       2.6414100867E+00  1.6021447797E+00  9.5931870004E+00
                       1.6368642321E+00  3.0673096402E+00  1.8411038458E+01
                       1.1108485893E+01  4.6633703746E+00  2.7878073465E+01
                       6.4376177661E+00  3.4239181786E-02  1.7595736848E+01
                       6.3077323593E+00  7.6964408330E+00  2.8693375075E+01
                       6.3200845534E+00  2.0374207179E+00  2.9635079049E+01
             xred      5.0000000000E-01  5.0000000000E-01  5.0000000000E-01
                       0.0000000000E+00  0.0000000000E+00  0.0000000000E+00
                       7.3511100000E-01  7.3511100000E-01  7.3511100000E-01
                       2.6488900000E-01  2.6488900000E-01  2.6488900000E-01
                       7.9275500000E-01  7.9275500000E-01  7.9275500000E-01
                       3.9677100000E-01  7.3645000000E-01  4.4290000000E-03
                       2.0724500000E-01  2.0724500000E-01  2.0724500000E-01
                       4.4290000000E-03  3.9677100000E-01  7.3645000000E-01
                       9.9557100000E-01  6.0322900000E-01  2.6355000000E-01
                       7.3645000000E-01  4.4290000000E-03  3.9677100000E-01
                       2.6355000000E-01  9.9557100000E-01  6.0322900000E-01
                       6.0322900000E-01  2.6355000000E-01  9.9557100000E-01
            znucl       19.00000   51.00000   15.00000    8.00000

- Timing analysis has been suppressed with timopt=0

 Suggested references for the acknowledgment of ABINIT usage.

 Calculation completed.
.Delivered   2 WARNINGs and   5 COMMENTs to log file.