.Version 9.5.1 of ABINIT

 ABINIT is a project of the Universite Catholique de Louvain,
 Corning Inc. and other collaborators, see ~abinit/doc/developers/contributors.txt .
 acknowledgments of the ABINIT effort.

.Starting date : Tue 11 May 2021.
- ( at 21h51 )

- input  file    -> /scratch/users/j/a/jabreu/flow_simple_8atoms/flow/w363/t1/run.abi
- output file    -> /scratch/users/j/a/jabreu/flow_simple_8atoms/flow/w363/t1/run.abo
- root for input  files -> /scratch/users/j/a/jabreu/flow_simple_8atoms/flow/w363/t1/indata/in
- root for output files -> /scratch/users/j/a/jabreu/flow_simple_8atoms/flow/w363/t1/outdata/out

 Symmetries : space group P4/n m m (#129); Bravais tP (primitive tetrag.)
     intxc =       0      iscf =       7    lmnmax =      32     lnmax =       8
     mgfft =     120  mpssoang =       4    mqgrid =    5429     natom =       8
  nloc_mem =       1    nspden =       1   nspinor =       1    nsppol =       1
      nsym =      16    n1xccc =    2501    ntypat =       3    occopt =       1
   xclevel =       2
-    mband =          51        mffmem =           1         mkmem =           2
-   mkqmem =           2        mk1mem =           2           mpw =       21872
      nfft =      432000          nkpt =           2
  Rough estimation (10% accuracy) of disk space for files :

------------- Echo of variables that govern the present computation ------------
-
- outvars: echo of selected default values
-   iomode0 =  0 , fftalg0 =512 , wfoptalg0 =  0
-
- outvars: echo of global parameters not present in the input file
-  max_nthreads =    0
-
 -outvars: echo values of preprocessed input variables --------
            acell      1.0000000000E+00  1.0000000000E+00  1.0000000000E+00 Bohr
              amu      1.32905430E+02  1.07868200E+02  3.54527000E+01
             ecut      4.30000000E+01 Hartree
-          fftalg         512
           irdden           1
           irdwfk           1
           istwfk        0    1
              ixc     -116133
              kpt      5.00000000E-01  5.00000000E-01  5.00000000E-02
                       0.00000000E+00  0.00000000E+00  0.00000000E+00
           kptopt           0
P           mkmem           2
P          mkqmem           2
P          mk1mem           2
            natom           8
            nband          51
           nbdbuf           4
            ngfft          60      60     120
             nkpt           2
            nstep        2000
             nsym          16
           ntypat           3
              occ      2.000000  2.000000  2.000000  2.000000  2.000000  2.000000
                       2.000000  2.000000  2.000000  2.000000  2.000000  2.000000
                       2.000000  2.000000  2.000000  2.000000  2.000000  2.000000
                       2.000000  2.000000  2.000000  2.000000  2.000000  2.000000
                       2.000000  2.000000  2.000000  2.000000  2.000000  2.000000
                       2.000000  2.000000  2.000000  2.000000  2.000000  2.000000
                       2.000000  2.000000  2.000000  2.000000  2.000000  2.000000
                       0.000000  0.000000  0.000000  0.000000  0.000000  0.000000
                       0.000000  0.000000  0.000000
        optdriver           1
            prtwf          -1
            rfdir           1       1       1
           rfelfd           2
            rprim      9.3871576244E+00  0.0000000000E+00  0.0000000000E+00
                       0.0000000000E+00  9.3871576244E+00  0.0000000000E+00
                       0.0000000000E+00  0.0000000000E+00  1.8389485355E+01
          spgroup         129
           symrel      1  0  0   0  1  0   0  0  1      -1  0  0   0 -1  0   0  0 -1
                      -1  0  0   0  1  0   0  0 -1       1  0  0   0 -1  0   0  0  1
                      -1  0  0   0 -1  0   0  0  1       1  0  0   0  1  0   0  0 -1
                       1  0  0   0 -1  0   0  0 -1      -1  0  0   0  1  0   0  0  1
                       0  1  0   1  0  0   0  0  1       0 -1  0  -1  0  0   0  0 -1
                       0 -1  0   1  0  0   0  0 -1       0  1  0  -1  0  0   0  0  1
                       0 -1  0  -1  0  0   0  0  1       0  1  0   1  0  0   0  0 -1
                       0  1  0  -1  0  0   0  0 -1       0 -1  0   1  0  0   0  0  1
            tnons      0.0000000  0.0000000  0.0000000     0.5000000  0.5000000  0.0000000
                       0.5000000  0.5000000  0.0000000     0.0000000  0.0000000  0.0000000
                       0.0000000  0.0000000  0.0000000     0.5000000  0.5000000  0.0000000
                       0.5000000  0.5000000  0.0000000     0.0000000  0.0000000  0.0000000
                       0.5000000  0.5000000  0.0000000     0.0000000  0.0000000  0.0000000
                       0.0000000  0.0000000  0.0000000     0.5000000  0.5000000  0.0000000
                       0.5000000  0.5000000  0.0000000     0.0000000  0.0000000  0.0000000
                       0.0000000  0.0000000  0.0000000     0.5000000  0.5000000  0.0000000
           tolwfr      1.00000000E-20
            typat      1  1  2  2  3  3  3  3
           useylm           1
              wtk        0.50000    0.50000
           xangst      0.0000000000E+00  2.4837349341E+00  6.8654880879E+00
                       2.4837349341E+00  0.0000000000E+00  2.8658084396E+00
                       2.4837349341E+00  0.0000000000E+00  8.7476473432E+00
                       0.0000000000E+00  2.4837349341E+00  9.8364918429E-01
                       2.4837349341E+00  0.0000000000E+00  6.2727158912E+00
                       0.0000000000E+00  2.4837349341E+00  3.4585806362E+00
                       0.0000000000E+00  0.0000000000E+00  0.0000000000E+00
                       2.4837349341E+00  2.4837349341E+00  0.0000000000E+00
            xcart      0.0000000000E+00  4.6935788122E+00  1.2973892255E+01
                       4.6935788122E+00  0.0000000000E+00  5.4155931001E+00
                       4.6935788122E+00  0.0000000000E+00  1.6530657786E+01
                       0.0000000000E+00  4.6935788122E+00  1.8588275691E+00
                       4.6935788122E+00  0.0000000000E+00  1.1853715144E+01
                       0.0000000000E+00  4.6935788122E+00  6.5357702110E+00
                       0.0000000000E+00  0.0000000000E+00  0.0000000000E+00
                       4.6935788122E+00  4.6935788122E+00  0.0000000000E+00
             xred      0.0000000000E+00  5.0000000000E-01  7.0550600000E-01
                       5.0000000000E-01  0.0000000000E+00  2.9449400000E-01
                       5.0000000000E-01  0.0000000000E+00  8.9891900000E-01
                       0.0000000000E+00  5.0000000000E-01  1.0108100000E-01
                       5.0000000000E-01  0.0000000000E+00  6.4459200000E-01
                       0.0000000000E+00  5.0000000000E-01  3.5540800000E-01
                       0.0000000000E+00  0.0000000000E+00  0.0000000000E+00
                       5.0000000000E-01  5.0000000000E-01  0.0000000000E+00
            znucl       55.00000   47.00000   17.00000

 chkinp: Checking input parameters for consistency.

== DATASET  1 ==================================================================
-   mpi_nproc: 1, omp_nthreads: -1 (-1 if OMP is not activated)

--- !DatasetInfo
iteration_state: {dtset: 1, }
dimensions: {natom: 8, nkpt: 2, mband: 51, nsppol: 1, nspinor: 1, nspden: 1, mpw: 21872, }
cutoff_energies: {ecut:  43.0, pawecutdg:  -1.0, }
electrons: {nelect:   8.40000000E+01, charge:   0.00000000E+00, occopt:   1.00000000E+00, tsmear:   1.00000000E-02, }
meta: {optdriver: 1, rfelfd: 2, }
...

 Real(R)+Recip(G) space primitive vectors, cartesian coordinates (Bohr,Bohr^-1):
 R(1)=  9.3871576  0.0000000  0.0000000  G(1)=  0.1065285  0.0000000  0.0000000
 R(2)=  0.0000000  9.3871576  0.0000000  G(2)=  0.0000000  0.1065285  0.0000000
 R(3)=  0.0000000  0.0000000 18.3894854  G(3)=  0.0000000  0.0000000  0.0543789
 Unit cell volume ucvol=  1.6204581E+03 bohr^3
 Angles (23,13,12)=  9.00000000E+01  9.00000000E+01  9.00000000E+01 degrees

 getcut: wavevector=  0.0000  0.0000  0.0000  ngfft=  60  60 120
         ecut(hartree)=     43.000   => boxcut(ratio)=   2.16530

--- Pseudopotential description ------------------------------------------------
- pspini: atom type   1  psp file is /scratch/users/j/a/jabreu/pseudos/PBEsol/Cs.psp8
- pspatm: opening atomic psp file    /scratch/users/j/a/jabreu/pseudos/PBEsol/Cs.psp8
- Cs    ONCVPSP-3.3.0  r_core=   2.27353   1.85623   2.01788   1.90105
- 55.00000   9.00000    180112                znucl, zion, pspdat
    8 -116133    3    4       600   0.00000   pspcod,pspxc,lmax,lloc,mmax,r2well
    5.99000000000000    5.00000000000000    0.00000000000000   rchrg,fchrg,qchrg
     nproj     2     2     2     2
     extension_switch     1
  pspatm : epsatm=   22.12462445
         --- l  ekb(1:nproj) -->
             0    6.214110    0.767882
             1    6.311966    0.793598
             2    3.769790    0.913105
             3   -9.247129   -2.432478
 pspatm: atomic psp has been read  and splines computed

- pspini: atom type   2  psp file is /scratch/users/j/a/jabreu/pseudos/PBEsol/Ag.psp8
- pspatm: opening atomic psp file    /scratch/users/j/a/jabreu/pseudos/PBEsol/Ag.psp8
- Ag    ONCVPSP-3.3.0  r_core=   1.41384   1.46535   1.61207
- 47.00000  19.00000    180112                znucl, zion, pspdat
    8 -116133    2    4       600   0.00000   pspcod,pspxc,lmax,lloc,mmax,r2well
    5.99000000000000    7.00000000000000    0.00000000000000   rchrg,fchrg,qchrg
     nproj     2     2     2
     extension_switch     1
  pspatm : epsatm=   27.64581383
         --- l  ekb(1:nproj) -->
             0    9.559407   -0.398585
             1    3.418858   -0.136622
             2   -1.644397   -0.401551
 pspatm: atomic psp has been read  and splines computed

- pspini: atom type   3  psp file is /scratch/users/j/a/jabreu/pseudos/PBEsol/Cl.psp8
- pspatm: opening atomic psp file    /scratch/users/j/a/jabreu/pseudos/PBEsol/Cl.psp8
- Cl    ONCVPSP-3.3.0  r_core=   1.56009   1.35202   1.75774
- 17.00000   7.00000    180112                znucl, zion, pspdat
    8 -116133    2    4       600   0.00000   pspcod,pspxc,lmax,lloc,mmax,r2well
    5.99000000000000    8.00000000000000    0.00000000000000   rchrg,fchrg,qchrg
     nproj     2     2     2
     extension_switch     1
  pspatm : epsatm=    8.95520722
         --- l  ekb(1:nproj) -->
             0    8.193503    0.707970
             1    3.869736    1.114731
             2   -2.915303   -0.810552
 pspatm: atomic psp has been read  and splines computed

   1.13703833E+04                                ecore*ucvol(ha*bohr**3)

-inwffil : will read wavefunctions from disk file /scratch/users/j/a/jabreu/flow_simple_8atoms/flow/w363/t1/indata/in_WFK

 ==>  initialize data related to q vector <==

 The list of irreducible perturbations for this q vector is:
    1)    idir= 1    ipert=   9
    2)    idir= 2    ipert=   9
    3)    idir= 3    ipert=   9

 Perturbation wavevector (in red.coord.)   0.000000  0.000000  0.000000
 Perturbation : derivative vs k along direction   1

 dfpt_looppert : COMMENT -
[...]
...

     iter   2DEtotal(Ha)        deltaE(Ha) residm    vres2
-ETOT  1  -9.9984199223449     -9.998E+00 1.904E-02 0.000E+00
 ETOT  2  -10.012410124628     -1.399E-02 1.110E-02 0.000E+00
 ETOT  3  -10.012668984151     -2.589E-04 6.958E-04 0.000E+00
 ETOT  4  -10.012681497511     -1.251E-05 1.162E-03 0.000E+00
 ETOT  5  -10.012682208139     -7.106E-07 1.075E-04 0.000E+00
 ETOT  6  -10.012682254929     -4.679E-08 1.513E-04 0.000E+00
 ETOT  7  -10.012682258200     -3.271E-09 1.690E-05 0.000E+00
 ETOT  8  -10.012682258440     -2.406E-10 2.109E-05 0.000E+00
 ETOT  9  -10.012682258458     -1.814E-11 2.435E-06 0.000E+00
 ETOT 10  -10.012682258460     -1.409E-12 2.923E-06 0.000E+00
 ETOT 11  -10.012682258460     -1.137E-13 3.409E-07 0.000E+00
 ETOT 12  -10.012682258460     -8.882E-15 4.065E-07 0.000E+00
 ETOT 13  -10.012682258460      1.776E-15 4.778E-08 0.000E+00
 ETOT 14  -10.012682258460      3.553E-15 5.684E-08 0.000E+00
 ETOT 15  -10.012682258460     -1.066E-14 6.734E-09 0.000E+00
 ETOT 16  -10.012682258460      7.105E-15 7.980E-09 0.000E+00
 ETOT 17  -10.012682258460     -1.776E-15 9.530E-10 0.000E+00
 ETOT 18  -10.012682258460      0.000E+00 1.123E-09 0.000E+00
 ETOT 19  -10.012682258460      1.776E-15 1.352E-10 0.000E+00
 ETOT 20  -10.012682258460     -3.553E-15 1.584E-10 0.000E+00
 ETOT 21  -10.012682258460      1.776E-15 1.922E-11 0.000E+00
 ETOT 22  -10.012682258460      1.776E-15 2.238E-11 0.000E+00
 ETOT 23  -10.012682258460      0.000E+00 2.733E-12 0.000E+00
 ETOT 24  -10.012682258460      0.000E+00 3.163E-12 0.000E+00
 ETOT 25  -10.012682258460      0.000E+00 3.890E-13 0.000E+00
 ETOT 26  -10.012682258460     -3.553E-15 4.475E-13 0.000E+00
 ETOT 27  -10.012682258460      0.000E+00 5.538E-14 0.000E+00
 ETOT 28  -10.012682258460      0.000E+00 6.335E-14 0.000E+00
 ETOT 29  -10.012682258460      1.776E-15 7.885E-15 0.000E+00
 ETOT 30  -10.012682258460     -1.776E-15 8.972E-15 0.000E+00
 ETOT 31  -10.012682258460      0.000E+00 1.123E-15 0.000E+00
 ETOT 32  -10.012682258460      3.553E-15 1.271E-15 0.000E+00
 ETOT 33  -10.012682258460     -5.329E-15 1.599E-16 0.000E+00
 ETOT 34  -10.012682258460      3.553E-15 1.802E-16 0.000E+00
 ETOT 35  -10.012682258460     -3.553E-15 2.277E-17 0.000E+00
 ETOT 36  -10.012682258460      3.553E-15 2.555E-17 0.000E+00
 ETOT 37  -10.012682258460     -1.776E-15 3.243E-18 0.000E+00
 ETOT 38  -10.012682258460     -1.776E-15 3.624E-18 0.000E+00
 ETOT 39  -10.012682258460      5.329E-15 4.619E-19 0.000E+00
 ETOT 40  -10.012682258460     -7.105E-15 5.142E-19 0.000E+00
 ETOT 41  -10.012682258460      1.776E-15 6.578E-20 0.000E+00
 ETOT 42  -10.012682258460      3.553E-15 7.298E-20 0.000E+00
 ETOT 43  -10.012682258460     -3.553E-15 9.985E-21 0.000E+00

 At SCF step   43   max residual=  9.98E-21 < tolwfr=  1.00E-20 =>converged.

 ----iterations are completed or convergence reached----

 dfpt_looppert: DFPT cycle converged with prtwf=-1. Will skip output of the 1st-order WFK file.
 dfpt_looppert : ek2=    1.9612360513E+01
          f-sum rule ratio=    9.9686897719E-01
 prteigrs : about to open file /scratch/users/j/a/jabreu/flow_simple_8atoms/flow/w363/t1/tmpdata/tmp_1WF1_EIG
 Expectation of eigenvalue derivatives (hartree) for nkpt=   2  k points:
  (in case of degenerate eigenvalues, averaged derivative)
 kpt#   1, nband= 51, wtk=  0.50000, kpt=  0.5000  0.5000  0.0500 (reduced coord)
   0.00000    0.00000    0.00000    0.00000    0.00000    0.00000    0.00000    0.00000
   0.00000    0.00000    0.00000    0.00000   -0.00002   -0.00002   -0.00388   -0.00388
   0.00396    0.00396    0.00100    0.00100   -0.00215   -0.00215    0.00000    0.00000
  -0.00235   -0.00235    0.00051    0.00051    0.00053    0.00053   -0.00135   -0.00135
   0.00096    0.00096   -0.00178   -0.00178    0.00161    0.00161    0.00551    0.00551
  -0.00000   -0.00000    0.01216    0.01216   -0.00778   -0.00778   -0.14294   -0.14294
   0.00232    0.00232   -0.00012
 prteigrs : prtvol=0 or 1, do not print more k-points.

 Eight components of 2nd-order total energy (hartree) are
 1,2,3: 0th-order hamiltonian combined with 1st-order wavefunctions
     kin0=   1.51265942E+01 eigvalue=   2.60149611E-01  local=  -8.38954323E+00
 4,5,6: 1st-order hamiltonian combined with 1st and 0th-order wfs
     kin1=  -1.95509538E+01  Hartree=   0.00000000E+00     xc=   0.00000000E+00
 7,8,9: eventually, occupation + non-local contributions
    edocc=   1.95737765E+00     enl0=   1.05810406E+00   enl1=  -4.74410752E-01
 1-9 gives the relaxation energy (to be shifted if some occ is /=2.0)
   erelax=  -1.00126823E+01
  No Ewald or frozen-wf contrib.: the relaxation energy is the total one
 2DEtotal=   -0.1001268226E+02 Ha. Also 2DEtotal=   -0.272458940403E+03 eV
    (  non-var. 2DEtotal :   -1.0012682258E+01 Ha)

 CALCULATION OF EFFECTIVE MASSES
 NOTE : Additional infos (eff. mass eigenvalues, eigenvectors and, if degenerate, average mass) are available in stdout.

 COMMENTS:
 - At k-point ( 0.500, 0.500, 0.050), bands    41 through    42
   are DEGENERATE (effective mass tensor is therefore not defined).
   See Section IIIB Eqs. (67)-(70) and Appendix E of PRB 93 205147 (2016).
 - Angular average effective mass for Frohlich model is to be averaged over degenerate bands. See later.
 - Associated theta integrals calculated with ntheta=   1000 points.

 K-point ( 0.500, 0.500, 0.050) | band =    41
 Transport equivalent effective mass tensor:
             -0.7998228479              0.0000000201             -0.0000001230
              0.0000000201             -0.7998214368              0.0000000071
             -0.0000001230              0.0000000071         -26967.2086828346
 Transport equivalent effective mass tensor eigenvalues:
         -26967.2086828346             -0.7998228482             -0.7998214365
 Angular average effective mass 1/(<1/m>)=  -0.9856925516
 Angular average effective mass for Frohlich model (<m**0.5>)**2=  -1.6436260020
 Effective masses along directions: (cart. coord. / red. coord. -> eff. mass)
    1:   1.000000  0.000000  0.000000 /   1.000000  0.000000  0.000000 ->  -0.9815262204
    2:   0.000000  1.000000  0.000000 /   0.000000  1.000000  0.000000 ->  -0.9815262201
    3:   0.000000  0.000000  1.000000 /   0.000000  0.000000  1.000000 -> **************
    4:   0.577350  0.577350  0.577350 /   0.413884  0.413884  0.810802 ->  -0.8292602465
    5:   0.000000  0.707107  0.707107 /   0.000000  0.454654  0.890668 ->  -1.9629525109
    6:   0.707107  0.000000  0.707107 /   0.454654  0.000000  0.890668 ->  -1.9629525115
    7:   0.707107  0.707107  0.000000 /   0.707107  0.707107  0.000000 ->  -0.5528480904

 K-point ( 0.500, 0.500, 0.050) | band =    42
 Transport equivalent effective mass tensor:
             -4.8272301520              0.0000000870             -0.0000007409
              0.0000000870             -4.8272352720              0.0000000883
             -0.0000007409              0.0000000883         -75935.2741274747
 Transport equivalent effective mass tensor eigenvalues:
         -75935.2741274747             -4.8272352735             -4.8272301505
 Angular average effective mass 1/(<1/m>)=  -2.9074153982
 Angular average effective mass for Frohlich model (<m**0.5>)**2=  -5.5973958294
 Effective masses along directions: (cart. coord. / red. coord. -> eff. mass)
    1:   1.000000  0.000000  0.000000 /   1.000000  0.000000  0.000000 ->  -0.9815262205
    2:   0.000000  1.000000  0.000000 /   0.000000  1.000000  0.000000 ->  -0.9815262202
    3:   0.000000  0.000000  1.000000 /   0.000000  0.000000  1.000000 -> **************
    4:   0.577350  0.577350  0.577350 /   0.413884  0.413884  0.810802 ->  -6.5544041995
    5:   0.000000  0.707107  0.707107 /   0.000000  0.454654  0.890668 ->  -1.9629525111
    6:   0.707107  0.000000  0.707107 /   0.454654  0.000000  0.890668 ->  -1.9629525117
    7:   0.707107  0.707107  0.000000 /   0.707107  0.707107  0.000000 ->  -4.3700980040

 Angular average effective mass for Frohlich model, averaged over degenerate bands.
 Value of     (<<m**0.5>>)**2 =     3.326833E+00
 Absolute Value of <<m**0.5>> =     1.823961E+00

 K-point ( 0.000, 0.000, 0.000) | band =    43
 Effective mass tensor:
              0.3129153932              0.0000000000             -0.0000000002
              0.0000000000              0.3129153931             -0.0000000005
             -0.0000000002             -0.0000000005              0.3686849642
 Effective mass tensor eigenvalues:
              0.3129153931              0.3129153933              0.3686849642
 Angular average effective mass 1/(<1/m>)=   0.3295310279
 Angular average effective mass for Frohlich model (<m**0.5>)**2=   0.3301049423
 Effective masses along directions: (cart. coord. / red. coord. -> eff. mass)
    1:   1.000000  0.000000  0.000000 /   1.000000  0.000000  0.000000 ->   0.3129153932
    2:   0.000000  1.000000  0.000000 /   0.000000  1.000000  0.000000 ->   0.3129153931
    3:   0.000000  0.000000  1.000000 /   0.000000  0.000000  1.000000 ->   0.3686849642
    4:   0.577350  0.577350  0.577350 /   0.413884  0.413884  0.810802 ->   0.3295310275
    5:   0.000000  0.707107  0.707107 /   0.000000  0.454654  0.890668 ->   0.3385186029
    6:   0.707107  0.000000  0.707107 /   0.454654  0.000000  0.890668 ->   0.3385186032
    7:   0.707107  0.707107  0.000000 /   0.707107  0.707107  0.000000 ->   0.3129153932

 END OF EFFECTIVE MASSES SECTION

 ---- first-order wavefunction calculations are completed ----

 Total localisation tensor (bohr^2) in cartesian coordinates
  WARNING : still subject to testing - especially symmetries.
      direction              matrix element
   alpha     beta       real part   imaginary part
     1        1       1.0078360564    0.0000000000
     1        2       0.0000000000    0.0000000000
     1        3       0.0000000000    0.0000000000
     2        1       0.0000000000    0.0000000000
     2        2       1.0078319031    0.0000000000
     2        3       0.0000000000    0.0000000000
     3        1       0.0000000000    0.0000000000
     3        2       0.0000000000    0.0000000000
     3        3       0.8222293074    0.0000000000

 respfn : d/dk was computed, but no 2DTE, so no DDB output.

== END DATASET(S) ==============================================================

 -outvars: echo values of variables after computation  --------
            acell      1.0000000000E+00  1.0000000000E+00  1.0000000000E+00 Bohr
              amu      1.32905430E+02  1.07868200E+02  3.54527000E+01
             ecut      4.30000000E+01 Hartree
           etotal     -1.0012682258E+01
            fcart      0.0000000000E+00  0.0000000000E+00  0.0000000000E+00
                       0.0000000000E+00  0.0000000000E+00  0.0000000000E+00
                       0.0000000000E+00  0.0000000000E+00  0.0000000000E+00
                       0.0000000000E+00  0.0000000000E+00  0.0000000000E+00
                       0.0000000000E+00  0.0000000000E+00  0.0000000000E+00
                       0.0000000000E+00  0.0000000000E+00  0.0000000000E+00
                       0.0000000000E+00  0.0000000000E+00  0.0000000000E+00
                       0.0000000000E+00  0.0000000000E+00  0.0000000000E+00
-          fftalg         512
           irdden           1
           irdwfk           1
           istwfk        0    1
              ixc     -116133
              kpt      5.00000000E-01  5.00000000E-01  5.00000000E-02
                       0.00000000E+00  0.00000000E+00  0.00000000E+00
           kptopt           0
P           mkmem           2
P          mkqmem           2
P          mk1mem           2
            natom           8
            nband          51
           nbdbuf           4
            ngfft          60      60     120
             nkpt           2
            nstep        2000
             nsym          16
           ntypat           3
              occ      2.000000  2.000000  2.000000  2.000000  2.000000  2.000000
                       2.000000  2.000000  2.000000  2.000000  2.000000  2.000000
                       2.000000  2.000000  2.000000  2.000000  2.000000  2.000000
                       2.000000  2.000000  2.000000  2.000000  2.000000  2.000000
                       2.000000  2.000000  2.000000  2.000000  2.000000  2.000000
                       2.000000  2.000000  2.000000  2.000000  2.000000  2.000000
                       2.000000  2.000000  2.000000  2.000000  2.000000  2.000000
                       0.000000  0.000000  0.000000  0.000000  0.000000  0.000000
                       0.000000  0.000000  0.000000
        optdriver           1
            prtwf          -1
            rfdir           1       1       1
           rfelfd           2
            rprim      9.3871576244E+00  0.0000000000E+00  0.0000000000E+00
                       0.0000000000E+00  9.3871576244E+00  0.0000000000E+00
                       0.0000000000E+00  0.0000000000E+00  1.8389485355E+01
          spgroup         129
           strten      0.0000000000E+00  0.0000000000E+00  0.0000000000E+00
                       0.0000000000E+00  0.0000000000E+00  0.0000000000E+00
           symrel      1  0  0   0  1  0   0  0  1      -1  0  0   0 -1  0   0  0 -1
                      -1  0  0   0  1  0   0  0 -1       1  0  0   0 -1  0   0  0  1
                      -1  0  0   0 -1  0   0  0  1       1  0  0   0  1  0   0  0 -1
                       1  0  0   0 -1  0   0  0 -1      -1  0  0   0  1  0   0  0  1
                       0  1  0   1  0  0   0  0  1       0 -1  0  -1  0  0   0  0 -1
                       0 -1  0   1  0  0   0  0 -1       0  1  0  -1  0  0   0  0  1
                       0 -1  0  -1  0  0   0  0  1       0  1  0   1  0  0   0  0 -1
                       0  1  0  -1  0  0   0  0 -1       0 -1  0   1  0  0   0  0  1
            tnons      0.0000000  0.0000000  0.0000000     0.5000000  0.5000000  0.0000000
                       0.5000000  0.5000000  0.0000000     0.0000000  0.0000000  0.0000000
                       0.0000000  0.0000000  0.0000000     0.5000000  0.5000000  0.0000000
                       0.5000000  0.5000000  0.0000000     0.0000000  0.0000000  0.0000000
                       0.5000000  0.5000000  0.0000000     0.0000000  0.0000000  0.0000000
                       0.0000000  0.0000000  0.0000000     0.5000000  0.5000000  0.0000000
                       0.5000000  0.5000000  0.0000000     0.0000000  0.0000000  0.0000000
                       0.0000000  0.0000000  0.0000000     0.5000000  0.5000000  0.0000000
           tolwfr      1.00000000E-20
            typat      1  1  2  2  3  3  3  3
           useylm           1
              wtk        0.50000    0.50000
           xangst      0.0000000000E+00  2.4837349341E+00  6.8654880879E+00
                       2.4837349341E+00  0.0000000000E+00  2.8658084396E+00
                       2.4837349341E+00  0.0000000000E+00  8.7476473432E+00
                       0.0000000000E+00  2.4837349341E+00  9.8364918429E-01
                       2.4837349341E+00  0.0000000000E+00  6.2727158912E+00
                       0.0000000000E+00  2.4837349341E+00  3.4585806362E+00
                       0.0000000000E+00  0.0000000000E+00  0.0000000000E+00
                       2.4837349341E+00  2.4837349341E+00  0.0000000000E+00
            xcart      0.0000000000E+00  4.6935788122E+00  1.2973892255E+01
                       4.6935788122E+00  0.0000000000E+00  5.4155931001E+00
                       4.6935788122E+00  0.0000000000E+00  1.6530657786E+01
                       0.0000000000E+00  4.6935788122E+00  1.8588275691E+00
                       4.6935788122E+00  0.0000000000E+00  1.1853715144E+01
                       0.0000000000E+00  4.6935788122E+00  6.5357702110E+00
                       0.0000000000E+00  0.0000000000E+00  0.0000000000E+00
                       4.6935788122E+00  4.6935788122E+00  0.0000000000E+00
             xred      0.0000000000E+00  5.0000000000E-01  7.0550600000E-01
                       5.0000000000E-01  0.0000000000E+00  2.9449400000E-01
                       5.0000000000E-01  0.0000000000E+00  8.9891900000E-01
                       0.0000000000E+00  5.0000000000E-01  1.0108100000E-01
                       5.0000000000E-01  0.0000000000E+00  6.4459200000E-01
                       0.0000000000E+00  5.0000000000E-01  3.5540800000E-01
                       0.0000000000E+00  0.0000000000E+00  0.0000000000E+00
                       5.0000000000E-01  5.0000000000E-01  0.0000000000E+00
            znucl       55.00000   47.00000   17.00000

- Timing analysis has been suppressed with timopt=0

 Suggested references for the acknowledgment of ABINIT usage.

 Calculation completed.
.Delivered  14 WARNINGs and   9 COMMENTs to log file.