.Version 9.7.2 of ABINIT

 ABINIT is a project of the Universite Catholique de Louvain,
 Corning Inc. and other collaborators, see ~abinit/doc/developers/contributors.txt .
 acknowledgments of the ABINIT effort.

.Starting date : Wed  1 Dec 2021.
- ( at 21h29 )

- input  file    -> /scratch/users/j/a/jabreu/flow_simple_remain_atoms/flow/w206/t1/run.abi
- output file    -> /scratch/users/j/a/jabreu/flow_simple_remain_atoms/flow/w206/t1/run.abo
- root for input  files -> /scratch/users/j/a/jabreu/flow_simple_remain_atoms/flow/w206/t1/indata/in
- root for output files -> /scratch/users/j/a/jabreu/flow_simple_remain_atoms/flow/w206/t1/outdata/out

 Symmetries : space group Pm -3 m (#221); Bravais cP (primitive cubic)
     intxc =       0      iscf =       7    lmnmax =      32     lnmax =       8
     mgfft =      54  mpssoang =       4    mqgrid =    3001     natom =       5
  nloc_mem =       1    nspden =       1   nspinor =       1    nsppol =       1
      nsym =      48    n1xccc =    2501    ntypat =       3    occopt =       1
   xclevel =       2
-    mband =          34        mffmem =           1         mkmem =           2
-   mkqmem =           2        mk1mem =           2           mpw =        8385
      nfft =      157464          nkpt =           2
  Rough estimation (10% accuracy) of disk space for files :

------------- Echo of variables that govern the present computation ------------
-
- outvars: echo of selected default values
-   iomode0 =  0 , fftalg0 =512 , wfoptalg0 =  0
-
- outvars: echo of global parameters not present in the input file
-  max_nthreads =    0
-
 -outvars: echo values of preprocessed input variables --------
            acell      1.0000000000E+00  1.0000000000E+00  1.0000000000E+00 Bohr
              amu      1.32905430E+02  2.00590000E+02  1.89984032E+01
             ecut      4.20000000E+01 Hartree
-          fftalg         512
           irdden           1
           irdwfk           1
           istwfk        1    1
              ixc     -116133
              kpt      5.00000000E-01  5.00000000E-01  5.00000000E-01
                       0.00000000E+00  0.00000000E+00  0.00000000E+00
           kptopt           0
P           mkmem           2
P          mkqmem           2
P          mk1mem           2
            natom           5
            nband          34
           nbdbuf           4
            ngfft          54      54      54
             nkpt           2
            nstep        2000
             nsym          48
           ntypat           3
              occ      2.000000  2.000000  2.000000  2.000000  2.000000  2.000000
                       2.000000  2.000000  2.000000  2.000000  2.000000  2.000000
                       2.000000  2.000000  2.000000  2.000000  2.000000  2.000000
                       2.000000  2.000000  2.000000  2.000000  2.000000  2.000000
                       2.000000  0.000000  0.000000  0.000000  0.000000  0.000000
                       0.000000  0.000000  0.000000  0.000000
        optdriver           1
            prtwf          -1
            rfdir           1       1       1
           rfelfd           2
            rprim      8.6281104249E+00  0.0000000000E+00  0.0000000000E+00
                       0.0000000000E+00  8.6281104249E+00  0.0000000000E+00
                       0.0000000000E+00  0.0000000000E+00  8.6281104249E+00
          spgroup         221
           symrel      1  0  0   0  1  0   0  0  1      -1  0  0   0 -1  0   0  0 -1
                      -1  0  0   0  1  0   0  0 -1       1  0  0   0 -1  0   0  0  1
                      -1  0  0   0 -1  0   0  0  1       1  0  0   0  1  0   0  0 -1
                       1  0  0   0 -1  0   0  0 -1      -1  0  0   0  1  0   0  0  1
                       0  1  0   1  0  0   0  0  1       0 -1  0  -1  0  0   0  0 -1
                       0 -1  0   1  0  0   0  0 -1       0  1  0  -1  0  0   0  0  1
                       0 -1  0  -1  0  0   0  0  1       0  1  0   1  0  0   0  0 -1
                       0  1  0  -1  0  0   0  0 -1       0 -1  0   1  0  0   0  0  1
                       0  0  1   1  0  0   0  1  0       0  0 -1  -1  0  0   0 -1  0
                       0  0 -1   1  0  0   0 -1  0       0  0  1  -1  0  0   0  1  0
                       0  0 -1  -1  0  0   0  1  0       0  0  1   1  0  0   0 -1  0
                       0  0  1  -1  0  0   0 -1  0       0  0 -1   1  0  0   0  1  0
                       1  0  0   0  0  1   0  1  0      -1  0  0   0  0 -1   0 -1  0
                      -1  0  0   0  0  1   0 -1  0       1  0  0   0  0 -1   0  1  0
                      -1  0  0   0  0 -1   0  1  0       1  0  0   0  0  1   0 -1  0
                       1  0  0   0  0 -1   0 -1  0      -1  0  0   0  0  1   0  1  0
                       0  1  0   0  0  1   1  0  0       0 -1  0   0  0 -1  -1  0  0
                       0 -1  0   0  0  1  -1  0  0       0  1  0   0  0 -1   1  0  0
                       0 -1  0   0  0 -1   1  0  0       0  1  0   0  0  1  -1  0  0
                       0  1  0   0  0 -1  -1  0  0       0 -1  0   0  0  1   1  0  0
                       0  0  1   0  1  0   1  0  0       0  0 -1   0 -1  0  -1  0  0
                       0  0 -1   0  1  0  -1  0  0       0  0  1   0 -1  0   1  0  0
                       0  0 -1   0 -1  0   1  0  0       0  0  1   0  1  0  -1  0  0
                       0  0  1   0 -1  0  -1  0  0       0  0 -1   0  1  0   1  0  0
           tolwfr      1.00000000E-20
            typat      1  2  3  3  3
           useylm           1
              wtk        0.50000    0.50000
           xangst      0.0000000000E+00  0.0000000000E+00  0.0000000000E+00
                       2.2828996950E+00  2.2828996950E+00  2.2828996950E+00
                       0.0000000000E+00  2.2828996950E+00  2.2828996950E+00
                       2.2828996950E+00  2.2828996950E+00  0.0000000000E+00
                       2.2828996950E+00  0.0000000000E+00  2.2828996950E+00
            xcart      0.0000000000E+00  0.0000000000E+00  0.0000000000E+00
                       4.3140552124E+00  4.3140552124E+00  4.3140552124E+00
                       0.0000000000E+00  4.3140552124E+00  4.3140552124E+00
                       4.3140552124E+00  4.3140552124E+00  0.0000000000E+00
                       4.3140552124E+00  0.0000000000E+00  4.3140552124E+00
             xred      0.0000000000E+00  0.0000000000E+00  0.0000000000E+00
                       5.0000000000E-01  5.0000000000E-01  5.0000000000E-01
                       0.0000000000E+00  5.0000000000E-01  5.0000000000E-01
                       5.0000000000E-01  5.0000000000E-01  0.0000000000E+00
                       5.0000000000E-01  0.0000000000E+00  5.0000000000E-01
            znucl       55.00000   80.00000    9.00000

 chkinp: Checking input parameters for consistency.

== DATASET  1 ==================================================================
-   mpi_nproc: 1, omp_nthreads: -1 (-1 if OMP is not activated)

--- !DatasetInfo
iteration_state: {dtset: 1, }
dimensions: {natom: 5, nkpt: 2, mband: 34, nsppol: 1, nspinor: 1, nspden: 1, mpw: 8385, }
cutoff_energies: {ecut:  42.0, pawecutdg:  -1.0, }
electrons: {nelect:   5.00000000E+01, charge:   0.00000000E+00, occopt:   1.00000000E+00, tsmear:   1.00000000E-02, }
meta: {optdriver: 1, rfelfd: 2, }
...

 Real(R)+Recip(G) space primitive vectors, cartesian coordinates (Bohr,Bohr^-1):
 R(1)=  8.6281104  0.0000000  0.0000000  G(1)=  0.1159002  0.0000000  0.0000000
 R(2)=  0.0000000  8.6281104  0.0000000  G(2)=  0.0000000  0.1159002  0.0000000
 R(3)=  0.0000000  0.0000000  8.6281104  G(3)=  0.0000000  0.0000000  0.1159002
 Unit cell volume ucvol=  6.4231355E+02 bohr^3
 Angles (23,13,12)=  9.00000000E+01  9.00000000E+01  9.00000000E+01 degrees

 getcut: wavevector=  0.0000  0.0000  0.0000  ngfft=  54  54  54
         ecut(hartree)=     42.000   => boxcut(ratio)=   2.14530

--- Pseudopotential description ------------------------------------------------
- pspini: atom type   1  psp file is /scratch/users/j/a/jabreu/pseudos/PBEsol/Cs.psp8
- pspatm: opening atomic psp file    /scratch/users/j/a/jabreu/pseudos/PBEsol/Cs.psp8
- Cs    ONCVPSP-3.3.0  r_core=   2.27353   1.85623   2.01788   1.90105
- 55.00000   9.00000    180112                znucl, zion, pspdat
    8 -116133    3    4       600   0.00000   pspcod,pspxc,lmax,lloc,mmax,r2well
    5.99000000000000    5.00000000000000    0.00000000000000   rchrg,fchrg,qchrg
     nproj     2     2     2     2
     extension_switch     1
  pspatm : epsatm=   22.12462445
         --- l  ekb(1:nproj) -->
             0    6.214110    0.767882
             1    6.311966    0.793598
             2    3.769790    0.913105
             3   -9.247129   -2.432478
 pspatm: atomic psp has been read  and splines computed

- pspini: atom type   2  psp file is /scratch/users/j/a/jabreu/pseudos/PBEsol/Hg.psp8
- pspatm: opening atomic psp file    /scratch/users/j/a/jabreu/pseudos/PBEsol/Hg.psp8
- Hg    ONCVPSP-3.3.0  r_core=   1.60079   1.60079   1.45509   1.60079
- 80.00000  20.00000    180112                znucl, zion, pspdat
    8 -116133    3    4       600   0.00000   pspcod,pspxc,lmax,lloc,mmax,r2well
    5.99000000000000    5.00000000000000    0.00000000000000   rchrg,fchrg,qchrg
     nproj     2     2     2     1
     extension_switch     1
  pspatm : epsatm=   30.52477316
         --- l  ekb(1:nproj) -->
             0   15.280580    2.063595
             1   11.999965    1.374025
             2    2.245749    0.205661
             3    0.961656
 pspatm: atomic psp has been read  and splines computed

- pspini: atom type   3  psp file is /scratch/users/j/a/jabreu/pseudos/PBEsol/F.psp8
- pspatm: opening atomic psp file    /scratch/users/j/a/jabreu/pseudos/PBEsol/F.psp8
- F     ONCVPSP-3.3.0  r_core=   1.30942   1.45782   1.60379
-  9.00000   7.00000    180112                znucl, zion, pspdat
    8 -116133    2    4       600   0.00000   pspcod,pspxc,lmax,lloc,mmax,r2well
    5.99000000000000    2.50000000000000    0.00000000000000   rchrg,fchrg,qchrg
     nproj     2     2     1
     extension_switch     1
  pspatm : epsatm=    4.89824824
         --- l  ekb(1:nproj) -->
             0    6.506434    1.065875
             1   -3.978753   -1.295852
             2   -2.394754
 pspatm: atomic psp has been read  and splines computed

   3.36720712E+03                                ecore*ucvol(ha*bohr**3)

 ==>  initialize data related to q vector <==

 The list of irreducible perturbations for this q vector is:
    1)    idir= 1    ipert=   6
    2)    idir= 2    ipert=   6
    3)    idir= 3    ipert=   6

 Perturbation wavevector (in red.coord.)   0.000000  0.000000  0.000000
 Perturbation : derivative vs k along direction   1

 dfpt_looppert : COMMENT -
  In a d/dk calculation, iscf is set to -3 automatically.
 The set of symmetries contains only one element for this perturbation.
 symkpt : not enough symmetry to change the number of k points.

 Initialisation of the first-order wave-functions :
  ireadwf=   0

--- !BeginCycle
iteration_state: {dtset: 1, }
solver: {iscf: 7, nstep: 2000, nline: 4, wfoptalg: 0, }
tolerances: {tolwfr: 1.00E-20, }
...

[...]
    edocc=   8.44610767E+00     enl0=   1.97191938E+00   enl1=  -3.71717363E+00
 1-9 gives the relaxation energy (to be shifted if some occ is /=2.0)
   erelax=  -3.09569990E+01
  No Ewald or frozen-wf contrib.: the relaxation energy is the total one
 2DEtotal=   -0.3095699899E+02 Ha. Also 2DEtotal=   -0.842382782765E+03 eV
    (  non-var. 2DEtotal :   -3.0956998993E+01 Ha)

 Perturbation wavevector (in red.coord.)   0.000000  0.000000  0.000000
 Perturbation : derivative vs k along direction   2
 The set of symmetries contains only one element for this perturbation.
 symkpt : not enough symmetry to change the number of k points.

[...]

 Perturbation wavevector (in red.coord.)   0.000000  0.000000  0.000000
 Perturbation : derivative vs k along direction   3
 The set of symmetries contains only one element for this perturbation.
 symkpt : not enough symmetry to change the number of k points.

 Initialisation of the first-order wave-functions :
  ireadwf=   0

--- !BeginCycle
iteration_state: {dtset: 1, }
solver: {iscf: 7, nstep: 2000, nline: 4, wfoptalg: 0, }
tolerances: {tolwfr: 1.00E-20, }
...

     iter   2DEtotal(Ha)        deltaE(Ha) residm    vres2
-ETOT  1  -30.940696782172     -3.094E+01 1.573E-01 0.000E+00
 ETOT  2  -30.956931048692     -1.623E-02 4.995E-03 0.000E+00
 ETOT  3  -30.956997927602     -6.688E-05 1.121E-03 0.000E+00
 ETOT  4  -30.956998969811     -1.042E-06 5.774E-05 0.000E+00
 ETOT  5  -30.956998992079     -2.227E-08 1.548E-05 0.000E+00
 ETOT  6  -30.956998992664     -5.846E-10 2.510E-06 0.000E+00
 ETOT  7  -30.956998992680     -1.640E-11 7.289E-07 0.000E+00
 ETOT  8  -30.956998992681     -5.045E-13 2.867E-07 0.000E+00
 ETOT  9  -30.956998992681     -2.132E-14 8.218E-08 0.000E+00
 ETOT 10  -30.956998992681     -1.066E-14 2.738E-08 0.000E+00
 ETOT 11  -30.956998992681     -3.197E-14 7.832E-09 0.000E+00
 ETOT 12  -30.956998992681      1.776E-14 2.548E-09 0.000E+00
 ETOT 13  -30.956998992681      0.000E+00 7.432E-10 0.000E+00
 ETOT 14  -30.956998992681      3.553E-15 2.398E-10 0.000E+00
 ETOT 15  -30.956998992681      7.105E-15 7.033E-11 0.000E+00
 ETOT 16  -30.956998992681     -7.105E-15 2.299E-11 0.000E+00
 ETOT 17  -30.956998992681      7.105E-15 6.752E-12 0.000E+00
 ETOT 18  -30.956998992681     -3.553E-15 2.246E-12 0.000E+00
 ETOT 19  -30.956998992681      0.000E+00 6.594E-13 0.000E+00
 ETOT 20  -30.956998992681      3.553E-15 2.221E-13 0.000E+00
 ETOT 21  -30.956998992681     -7.105E-15 6.516E-14 0.000E+00
 ETOT 22  -30.956998992681      3.553E-15 2.211E-14 0.000E+00
 ETOT 23  -30.956998992681     -3.553E-15 6.490E-15 0.000E+00
 ETOT 24  -30.956998992681      0.000E+00 2.213E-15 0.000E+00
 ETOT 25  -30.956998992681      3.553E-15 6.576E-16 0.000E+00
 ETOT 26  -30.956998992681     -3.553E-15 2.262E-16 0.000E+00
 ETOT 27  -30.956998992681      1.066E-14 7.245E-17 0.000E+00
 ETOT 28  -30.956998992681     -1.066E-14 2.344E-17 0.000E+00
 ETOT 29  -30.956998992681      3.553E-15 7.734E-18 0.000E+00
 ETOT 30  -30.956998992681     -7.105E-15 2.450E-18 0.000E+00
 ETOT 31  -30.956998992681      1.776E-14 8.469E-19 0.000E+00
 ETOT 32  -30.956998992681     -1.776E-14 2.794E-19 0.000E+00
 ETOT 33  -30.956998992681      1.421E-14 9.677E-20 0.000E+00
 ETOT 34  -30.956998992681      3.553E-15 3.197E-20 0.000E+00
 ETOT 35  -30.956998992681     -1.066E-14 1.109E-20 0.000E+00
 ETOT 36  -30.956998992681     -1.421E-14 9.806E-21 0.000E+00

 At SCF step   36   max residual=  9.81E-21 < tolwfr=  1.00E-20 =>converged.

 ----iterations are completed or convergence reached----

 dfpt_looppert: DFPT cycle converged with prtwf=-1. Will skip output of the 1st-order WFK file.
 dfpt_looppert : ek2=    5.3030820587E+01
          f-sum rule ratio=    1.0974151203E+00
 prteigrs : about to open file /scratch/users/j/a/jabreu/flow_simple_remain_atoms/flow/w206/t1/tmpdata/tmp_1WF1_EIG
 Expectation of eigenvalue derivatives (hartree) for nkpt=   2  k points:
  (in case of degenerate eigenvalues, averaged derivative)
 kpt#   1, nband= 34, wtk=  0.50000, kpt=  0.5000  0.5000  0.5000 (reduced coord)
  -0.00000   -0.00000   -0.00000   -0.00000    0.00000    0.00000    0.00000    0.00000
   0.00000    0.00000    0.00000    0.00000    0.00000   -0.00000   -0.00000   -0.00000
  -0.00000    0.00000    0.00000    0.00000   -0.00000   -0.00000   -0.00000   -0.00000
  -0.00000   -0.00000   -0.00000   -0.00000   -0.00000   -0.00000   -0.00000    0.00000
   0.00000    0.00000
 prteigrs : prtvol=0 or 1, do not print more k-points.

 Eight components of 2nd-order total energy (hartree) are
 1,2,3: 0th-order hamiltonian combined with 1st-order wavefunctions
     kin0=   3.85842739E+01 eigvalue=   6.72800522E-01  local=  -1.87169072E+01
 4,5,6: 1st-order hamiltonian combined with 1st and 0th-order wfs
     kin1=  -5.81968244E+01  Hartree=   0.00000000E+00     xc=   0.00000000E+00
 7,8,9: eventually, occupation + non-local contributions
    edocc=   8.44424397E+00     enl0=   1.97258780E+00   enl1=  -3.71717363E+00
 1-9 gives the relaxation energy (to be shifted if some occ is /=2.0)
   erelax=  -3.09569990E+01
  No Ewald or frozen-wf contrib.: the relaxation energy is the total one
 2DEtotal=   -0.3095699899E+02 Ha. Also 2DEtotal=   -0.842382782743E+03 eV
    (  non-var. 2DEtotal :   -3.0956998993E+01 Ha)

 CALCULATION OF EFFECTIVE MASSES
 NOTE : Additional infos (eff. mass eigenvalues, eigenvectors and, if degenerate, average mass) are available in stdout.

 COMMENTS:
 - At k-point ( 0.500, 0.500, 0.500), bands    24 through    25
   are DEGENERATE (effective mass tensor is therefore not defined).
   See Section IIIB Eqs. (67)-(70) and Appendix E of PRB 93 205147 (2016).
 - Angular average effective mass for Frohlich model is to be averaged over degenerate bands. See later.
 - Associated theta integrals calculated with ntheta=   1000 points.

 K-point ( 0.500, 0.500, 0.500) | band =    24
 Transport equivalent effective mass tensor:
             -0.6402516107              0.0000000000             -0.0000000000
              0.0000000000             -0.6402521545             -0.0000000000
             -0.0000000000             -0.0000000000             -0.6402465363
 Transport equivalent effective mass tensor eigenvalues:
             -0.6402521545             -0.6402516107             -0.6402465363
 Angular average effective mass 1/(<1/m>)=  -0.4965994671
 Angular average effective mass for Frohlich model (<m**0.5>)**2=  -0.5040076981
 Effective masses along directions: (cart. coord. / red. coord. -> eff. mass)
    1:   1.000000  0.000000  0.000000 /   1.000000  0.000000  0.000000 ->  -0.3956183140
    2:   0.000000  1.000000  0.000000 /   0.000000  1.000000  0.000000 ->  -0.3956183140
    3:   0.000000  0.000000  1.000000 /   0.000000  0.000000  1.000000 ->  -0.3956183140
    4:   0.577350  0.577350  0.577350 /   0.577350  0.577350  0.577350 ->  -0.7910494964
    5:   0.000000  0.707107  0.707107 /   0.000000  0.707107  0.707107 ->  -0.5274494940
    6:   0.707107  0.000000  0.707107 /   0.707107  0.000000  0.707107 ->  -0.5274494940
    7:   0.707107  0.707107  0.000000 /   0.707107  0.707107  0.000000 ->  -0.5274494940

 K-point ( 0.500, 0.500, 0.500) | band =    25
 Transport equivalent effective mass tensor:
          -6292.6429561415              0.0000000653             -0.0000000079
              0.0000000653          -6292.6427212306             -0.0000000097
             -0.0000000079             -0.0000000097          -6292.6434156792
 Transport equivalent effective mass tensor eigenvalues:
          -6292.6434156792          -6292.6429561415          -6292.6427212306
 Angular average effective mass 1/(<1/m>)=  -1.9432888982
 Angular average effective mass for Frohlich model (<m**0.5>)**2=  -3.3866107986
 Effective masses along directions: (cart. coord. / red. coord. -> eff. mass)
    1:   1.000000  0.000000  0.000000 /   1.000000  0.000000  0.000000 -> **************
    2:   0.000000  1.000000  0.000000 /   0.000000  1.000000  0.000000 -> **************
    3:   0.000000  0.000000  1.000000 /   0.000000  0.000000  1.000000 -> **************
    4:   0.577350  0.577350  0.577350 /   0.577350  0.577350  0.577350 ->  -0.7910494965
    5:   0.000000  0.707107  0.707107 /   0.000000  0.707107  0.707107 ->  -1.5813509968
    6:   0.707107  0.000000  0.707107 /   0.707107  0.000000  0.707107 ->  -1.5813509971
    7:   0.707107  0.707107  0.000000 /   0.707107  0.707107  0.000000 ->  -1.5813509974

 Angular average effective mass for Frohlich model, averaged over degenerate bands.
 Value of     (<<m**0.5>>)**2 =     1.625892E+00
 Absolute Value of <<m**0.5>> =     1.275105E+00

 K-point ( 0.000, 0.000, 0.000) | band =    26
 Effective mass tensor:
              0.3201183647             -0.0000000000             -0.0000000000
             -0.0000000000              0.3201183648             -0.0000000000
             -0.0000000000             -0.0000000000              0.3201183648
 Effective mass tensor eigenvalues:
              0.3201183647              0.3201183648              0.3201183648
 Angular average effective mass 1/(<1/m>)=   0.3201183648
 Angular average effective mass for Frohlich model (<m**0.5>)**2=   0.3201183648
 Effective masses along directions: (cart. coord. / red. coord. -> eff. mass)
    1:   1.000000  0.000000  0.000000 /   1.000000  0.000000  0.000000 ->   0.3201183647
    2:   0.000000  1.000000  0.000000 /   0.000000  1.000000  0.000000 ->   0.3201183648
    3:   0.000000  0.000000  1.000000 /   0.000000  0.000000  1.000000 ->   0.3201183648
    4:   0.577350  0.577350  0.577350 /   0.577350  0.577350  0.577350 ->   0.3201183648
    5:   0.000000  0.707107  0.707107 /   0.000000  0.707107  0.707107 ->   0.3201183648
    6:   0.707107  0.000000  0.707107 /   0.707107  0.000000  0.707107 ->   0.3201183648
    7:   0.707107  0.707107  0.000000 /   0.707107  0.707107  0.000000 ->   0.3201183648

 END OF EFFECTIVE MASSES SECTION

 ---- first-order wavefunction calculations are completed ----

 Total localisation tensor (bohr^2) in cartesian coordinates
  WARNING : still subject to testing - especially symmetries.
      direction              matrix element
   alpha     beta       real part   imaginary part
     1        1       0.7929396169    0.0000000000
     1        2       0.0000000000    0.0000000000
     1        3       0.0000000000    0.0000000000
     2        1       0.0000000000    0.0000000000
     2        2       0.7929396168    0.0000000000
     2        3       0.0000000000    0.0000000000
     3        1       0.0000000000    0.0000000000
     3        2       0.0000000000    0.0000000000
     3        3       0.7929396168    0.0000000000

 respfn : d/dk was computed, but no 2DTE, so no DDB output.

== END DATASET(S) ==============================================================

 -outvars: echo values of variables after computation  --------
            acell      1.0000000000E+00  1.0000000000E+00  1.0000000000E+00 Bohr
              amu      1.32905430E+02  2.00590000E+02  1.89984032E+01
             ecut      4.20000000E+01 Hartree
           etotal     -3.0956998993E+01
            fcart      0.0000000000E+00  0.0000000000E+00  0.0000000000E+00
                       0.0000000000E+00  0.0000000000E+00  0.0000000000E+00
                       0.0000000000E+00  0.0000000000E+00  0.0000000000E+00
                       0.0000000000E+00  0.0000000000E+00  0.0000000000E+00
                       0.0000000000E+00  0.0000000000E+00  0.0000000000E+00
-          fftalg         512
           irdden           1
           irdwfk           1
           istwfk        1    1
              ixc     -116133
              kpt      5.00000000E-01  5.00000000E-01  5.00000000E-01
                       0.00000000E+00  0.00000000E+00  0.00000000E+00
           kptopt           0
P           mkmem           2
P          mkqmem           2
P          mk1mem           2
            natom           5
            nband          34
           nbdbuf           4
            ngfft          54      54      54
             nkpt           2
            nstep        2000
             nsym          48
           ntypat           3
              occ      2.000000  2.000000  2.000000  2.000000  2.000000  2.000000
                       2.000000  2.000000  2.000000  2.000000  2.000000  2.000000
                       2.000000  2.000000  2.000000  2.000000  2.000000  2.000000
                       2.000000  2.000000  2.000000  2.000000  2.000000  2.000000
                       2.000000  0.000000  0.000000  0.000000  0.000000  0.000000
                       0.000000  0.000000  0.000000  0.000000
        optdriver           1
            prtwf          -1
            rfdir           1       1       1
           rfelfd           2
            rprim      8.6281104249E+00  0.0000000000E+00  0.0000000000E+00
                       0.0000000000E+00  8.6281104249E+00  0.0000000000E+00
                       0.0000000000E+00  0.0000000000E+00  8.6281104249E+00
          spgroup         221
           strten      0.0000000000E+00  0.0000000000E+00  0.0000000000E+00
                       0.0000000000E+00  0.0000000000E+00  0.0000000000E+00
           symrel      1  0  0   0  1  0   0  0  1      -1  0  0   0 -1  0   0  0 -1
                      -1  0  0   0  1  0   0  0 -1       1  0  0   0 -1  0   0  0  1
                      -1  0  0   0 -1  0   0  0  1       1  0  0   0  1  0   0  0 -1
                       1  0  0   0 -1  0   0  0 -1      -1  0  0   0  1  0   0  0  1
                       0  1  0   1  0  0   0  0  1       0 -1  0  -1  0  0   0  0 -1
                       0 -1  0   1  0  0   0  0 -1       0  1  0  -1  0  0   0  0  1
                       0 -1  0  -1  0  0   0  0  1       0  1  0   1  0  0   0  0 -1
                       0  1  0  -1  0  0   0  0 -1       0 -1  0   1  0  0   0  0  1
                       0  0  1   1  0  0   0  1  0       0  0 -1  -1  0  0   0 -1  0
                       0  0 -1   1  0  0   0 -1  0       0  0  1  -1  0  0   0  1  0
                       0  0 -1  -1  0  0   0  1  0       0  0  1   1  0  0   0 -1  0
                       0  0  1  -1  0  0   0 -1  0       0  0 -1   1  0  0   0  1  0
                       1  0  0   0  0  1   0  1  0      -1  0  0   0  0 -1   0 -1  0
                      -1  0  0   0  0  1   0 -1  0       1  0  0   0  0 -1   0  1  0
                      -1  0  0   0  0 -1   0  1  0       1  0  0   0  0  1   0 -1  0
                       1  0  0   0  0 -1   0 -1  0      -1  0  0   0  0  1   0  1  0
                       0  1  0   0  0  1   1  0  0       0 -1  0   0  0 -1  -1  0  0
                       0 -1  0   0  0  1  -1  0  0       0  1  0   0  0 -1   1  0  0
                       0 -1  0   0  0 -1   1  0  0       0  1  0   0  0  1  -1  0  0
                       0  1  0   0  0 -1  -1  0  0       0 -1  0   0  0  1   1  0  0
                       0  0  1   0  1  0   1  0  0       0  0 -1   0 -1  0  -1  0  0
                       0  0 -1   0  1  0  -1  0  0       0  0  1   0 -1  0   1  0  0
                       0  0 -1   0 -1  0   1  0  0       0  0  1   0  1  0  -1  0  0
                       0  0  1   0 -1  0  -1  0  0       0  0 -1   0  1  0   1  0  0
           tolwfr      1.00000000E-20
            typat      1  2  3  3  3
           useylm           1
              wtk        0.50000    0.50000
           xangst      0.0000000000E+00  0.0000000000E+00  0.0000000000E+00
                       2.2828996950E+00  2.2828996950E+00  2.2828996950E+00
                       0.0000000000E+00  2.2828996950E+00  2.2828996950E+00
                       2.2828996950E+00  2.2828996950E+00  0.0000000000E+00
                       2.2828996950E+00  0.0000000000E+00  2.2828996950E+00
            xcart      0.0000000000E+00  0.0000000000E+00  0.0000000000E+00
                       4.3140552124E+00  4.3140552124E+00  4.3140552124E+00
                       0.0000000000E+00  4.3140552124E+00  4.3140552124E+00
                       4.3140552124E+00  4.3140552124E+00  0.0000000000E+00
                       4.3140552124E+00  0.0000000000E+00  4.3140552124E+00
             xred      0.0000000000E+00  0.0000000000E+00  0.0000000000E+00
                       5.0000000000E-01  5.0000000000E-01  5.0000000000E-01
                       0.0000000000E+00  5.0000000000E-01  5.0000000000E-01
                       5.0000000000E-01  5.0000000000E-01  0.0000000000E+00
                       5.0000000000E-01  0.0000000000E+00  5.0000000000E-01
            znucl       55.00000   80.00000    9.00000

- Timing analysis has been suppressed with timopt=0

 Suggested references for the acknowledgment of ABINIT usage.

 Calculation completed.
.Delivered   2 WARNINGs and   5 COMMENTs to log file.