.Version 9.5.1 of ABINIT

 ABINIT is a project of the Universite Catholique de Louvain,
 Corning Inc. and other collaborators, see ~abinit/doc/developers/contributors.txt .
 acknowledgments of the ABINIT effort.

.Starting date : Sun 25 Apr 2021.
- ( at 17h18 )

- input  file    -> /scratch/users/j/a/jabreu/flow_simple2/flow/w173/t1/run.abi
- output file    -> /scratch/users/j/a/jabreu/flow_simple2/flow/w173/t1/run.abo
- root for input  files -> /scratch/users/j/a/jabreu/flow_simple2/flow/w173/t1/indata/in
- root for output files -> /scratch/users/j/a/jabreu/flow_simple2/flow/w173/t1/outdata/out

 Symmetries : space group Fm -3 m (#225); Bravais cF (face-center cubic)
     intxc =       0      iscf =       7    lmnmax =      18     lnmax =       6
     mgfft =      45  mpssoang =       3    mqgrid =    3001     natom =       2
  nloc_mem =       1    nspden =       1   nspinor =       1    nsppol =       1
      nsym =      48    n1xccc =    2501    ntypat =       2    occopt =       1
   xclevel =       2
-    mband =          22        mffmem =           1         mkmem =           2
-   mkqmem =           2        mk1mem =           2           mpw =        3143
      nfft =       91125          nkpt =           2
  Rough estimation (10% accuracy) of disk space for files :

------------- Echo of variables that govern the present computation ------------
-
- outvars: echo of selected default values
-   iomode0 =  0 , fftalg0 =512 , wfoptalg0 =  0
-
- outvars: echo of global parameters not present in the input file
-  max_nthreads =    0
-
 -outvars: echo values of preprocessed input variables --------
            acell      1.0000000000E+00  1.0000000000E+00  1.0000000000E+00 Bohr
              amu      6.35460000E+01  3.54527000E+01
             ecut      4.60000000E+01 Hartree
-          fftalg         512
           irdden           1
           irdwfk           1
           istwfk        1    1
              ixc     -116133
              kpt      5.00000000E-01  5.00000000E-01  5.00000000E-01
                       0.00000000E+00  0.00000000E+00  0.00000000E+00
           kptopt           0
P           mkmem           2
P          mkqmem           2
P          mk1mem           2
            natom           2
            nband          22
           nbdbuf           4
            ngfft          45      45      45
             nkpt           2
            nstep         100
             nsym          48
           ntypat           2
              occ      2.000000  2.000000  2.000000  2.000000  2.000000  2.000000
                       2.000000  2.000000  2.000000  2.000000  2.000000  2.000000
                       2.000000  0.000000  0.000000  0.000000  0.000000  0.000000
                       0.000000  0.000000  0.000000  0.000000
        optdriver           1
            prtwf          -1
            rfdir           1       1       1
           rfelfd           2
            rprim      5.7893597358E+00  0.0000000000E+00  3.3424884019E+00
                       1.9297865786E+00  5.4582607039E+00  3.3424884019E+00
                       0.0000000000E+00  0.0000000000E+00  6.6849768038E+00
          spgroup         225
           symrel      1  0  0   0  1  0   0  0  1      -1  0  0   0 -1  0   0  0 -1
                       0 -1  1   0 -1  0   1 -1  0       0  1 -1   0  1  0  -1  1  0
                      -1  0  0  -1  0  1  -1  1  0       1  0  0   1  0 -1   1 -1  0
                       0  1 -1   1  0 -1   0  0 -1       0 -1  1  -1  0  1   0  0  1
                      -1  0  0  -1  1  0  -1  0  1       1  0  0   1 -1  0   1  0 -1
                       0 -1  1   1 -1  0   0 -1  0       0  1 -1  -1  1  0   0  1  0
                       1  0  0   0  0  1   0  1  0      -1  0  0   0  0 -1   0 -1  0
                       0  1 -1   0  0 -1   1  0 -1       0 -1  1   0  0  1  -1  0  1
                      -1  0  1  -1  1  0  -1  0  0       1  0 -1   1 -1  0   1  0  0
                       0 -1  0   1 -1  0   0 -1  1       0  1  0  -1  1  0   0  1 -1
                       1  0 -1   0  0 -1   0  1 -1      -1  0  1   0  0  1   0 -1  1
                       0  1  0   0  0  1   1  0  0       0 -1  0   0  0 -1  -1  0  0
                       1  0 -1   0  1 -1   0  0 -1      -1  0  1   0 -1  1   0  0  1
                       0 -1  0   0 -1  1   1 -1  0       0  1  0   0  1 -1  -1  1  0
                      -1  0  1  -1  0  0  -1  1  0       1  0 -1   1  0  0   1 -1  0
                       0  1  0   1  0  0   0  0  1       0 -1  0  -1  0  0   0  0 -1
                       0  0 -1   0  1 -1   1  0 -1       0  0  1   0 -1  1  -1  0  1
                       1 -1  0   0 -1  1   0 -1  0      -1  1  0   0  1 -1   0  1  0
                       0  0  1   1  0  0   0  1  0       0  0 -1  -1  0  0   0 -1  0
                      -1  1  0  -1  0  0  -1  0  1       1 -1  0   1  0  0   1  0 -1
                       0  0  1   0  1  0   1  0  0       0  0 -1   0 -1  0  -1  0  0
                       1 -1  0   0 -1  0   0 -1  1      -1  1  0   0  1  0   0  1 -1
                       0  0 -1   1  0 -1   0  1 -1       0  0  1  -1  0  1   0 -1  1
                      -1  1  0  -1  0  1  -1  0  0       1 -1  0   1  0 -1   1  0  0
           tolwfr      1.00000000E-20
            typat      1  2
           useylm           1
              wtk        0.50000    0.50000
           xangst      0.0000000000E+00  0.0000000000E+00  0.0000000000E+00
                       2.0423981497E+00  1.4441935815E+00  3.5375373645E+00
            xcart      0.0000000000E+00  0.0000000000E+00  0.0000000000E+00
                       3.8595731572E+00  2.7291303519E+00  6.6849768038E+00
             xred      0.0000000000E+00  0.0000000000E+00  0.0000000000E+00
                       5.0000000000E-01  5.0000000000E-01  5.0000000000E-01
            znucl       29.00000   17.00000

 chkinp: Checking input parameters for consistency.

== DATASET  1 ==================================================================
-   mpi_nproc: 1, omp_nthreads: -1 (-1 if OMP is not activated)

--- !DatasetInfo
iteration_state: {dtset: 1, }
dimensions: {natom: 2, nkpt: 2, mband: 22, nsppol: 1, nspinor: 1, nspden: 1, mpw: 3143, }
cutoff_energies: {ecut:  46.0, pawecutdg:  -1.0, }
electrons: {nelect:   2.60000000E+01, charge:   0.00000000E+00, occopt:   1.00000000E+00, tsmear:   1.00000000E-02, }
meta: {optdriver: 1, rfelfd: 2, }
...

 Real(R)+Recip(G) space primitive vectors, cartesian coordinates (Bohr,Bohr^-1):
 R(1)=  5.7893597  0.0000000  3.3424884  G(1)=  0.1727307 -0.0610695  0.0000000
 R(2)=  1.9297866  5.4582607  3.3424884  G(2)=  0.0000000  0.1832085  0.0000000
 R(3)=  0.0000000  0.0000000  6.6849768  G(3)= -0.0863653 -0.0610695  0.1495892
 Unit cell volume ucvol=  2.1124416E+02 bohr^3
 Angles (23,13,12)=  6.00000000E+01  6.00000000E+01  6.00000000E+01 degrees

 getcut: wavevector=  0.0000  0.0000  0.0000  ngfft=  45  45  45
         ecut(hartree)=     46.000   => boxcut(ratio)=   2.15580

--- Pseudopotential description ------------------------------------------------
- pspini: atom type   1  psp file is /scratch/users/j/a/jabreu/pseudos/PBEsol/Cu.psp8
- pspatm: opening atomic psp file    /scratch/users/j/a/jabreu/pseudos/PBEsol/Cu.psp8
- Cu    ONCVPSP-3.3.0  r_core=   1.26204   1.45626   1.76249
- 29.00000  19.00000    180112                znucl, zion, pspdat
    8 -116133    2    4       600   0.00000   pspcod,pspxc,lmax,lloc,mmax,r2well
    5.99000000000000    3.50000000000000    0.00000000000000   rchrg,fchrg,qchrg
     nproj     2     2     2
     extension_switch     1
  pspatm : epsatm=   21.63488701
         --- l  ekb(1:nproj) -->
             0    5.008230   -0.401634
             1   -3.496700   -0.765945
             2   -6.895851   -2.521180
 pspatm: atomic psp has been read  and splines computed

- pspini: atom type   2  psp file is /scratch/users/j/a/jabreu/pseudos/PBEsol/Cl.psp8
- pspatm: opening atomic psp file    /scratch/users/j/a/jabreu/pseudos/PBEsol/Cl.psp8
- Cl    ONCVPSP-3.3.0  r_core=   1.56009   1.35202   1.75774
- 17.00000   7.00000    180112                znucl, zion, pspdat
    8 -116133    2    4       600   0.00000   pspcod,pspxc,lmax,lloc,mmax,r2well
    5.99000000000000    8.00000000000000    0.00000000000000   rchrg,fchrg,qchrg
     nproj     2     2     2
     extension_switch     1
  pspatm : epsatm=    8.95520722
         --- l  ekb(1:nproj) -->
             0    8.193503    0.707970
             1    3.869736    1.114731
             2   -2.915303   -0.810552
 pspatm: atomic psp has been read  and splines computed

   7.95342450E+02                                ecore*ucvol(ha*bohr**3)

-inwffil : will read wavefunctions from disk file /scratch/users/j/a/jabreu/flow_simple2/flow/w173/t1/indata/in_WFK

 ==>  initialize data related to q vector <==

 The list of irreducible perturbations for this q vector is:
    1)    idir= 1    ipert=   3
    2)    idir= 2    ipert=   3
    3)    idir= 3    ipert=   3

 Perturbation wavevector (in red.coord.)   0.000000  0.000000  0.000000
 Perturbation : derivative vs k along direction   1

 dfpt_looppert : COMMENT -
  In a d/dk calculation, iscf is set to -3 automatically.
 The set of symmetries contains only one element for this perturbation.
 symkpt : not enough symmetry to change the number of k points.

[...]

 Initialisation of the first-order wave-functions :
  ireadwf=   0

--- !BeginCycle
iteration_state: {dtset: 1, }
solver: {iscf: 7, nstep: 100, nline: 4, wfoptalg: 0, }
tolerances: {tolwfr: 1.00E-20, }
...

     iter   2DEtotal(Ha)        deltaE(Ha) residm    vres2
-ETOT  1  -45.355765901200     -4.536E+01 3.744E+00 0.000E+00
 ETOT  2  -45.384561843491     -2.880E-02 2.517E-04 0.000E+00
 ETOT  3  -45.384620068243     -5.822E-05 2.838E-05 0.000E+00
 ETOT  4  -45.384620259659     -1.914E-07 3.817E-09 0.000E+00
 ETOT  5  -45.384620260656     -9.964E-10 4.770E-09 0.000E+00
 ETOT  6  -45.384620260663     -7.454E-12 2.253E-12 0.000E+00
 ETOT  7  -45.384620260663     -4.974E-14 8.393E-12 0.000E+00
 ETOT  8  -45.384620260663     -7.105E-15 5.141E-15 0.000E+00
 ETOT  9  -45.384620260663     -1.421E-14 1.521E-14 0.000E+00
 ETOT 10  -45.384620260663      0.000E+00 2.426E-17 0.000E+00
 ETOT 11  -45.384620260663      7.105E-15 2.123E-17 0.000E+00
 ETOT 12  -45.384620260663      1.421E-14 1.974E-18 0.000E+00
 ETOT 13  -45.384620260663     -7.105E-15 2.293E-18 0.000E+00
 ETOT 14  -45.384620260663      7.105E-15 3.035E-19 0.000E+00
 ETOT 15  -45.384620260663     -1.421E-14 3.903E-19 0.000E+00
 ETOT 16  -45.384620260663      1.421E-14 5.319E-20 0.000E+00
 ETOT 17  -45.384620260663     -2.842E-14 6.827E-20 0.000E+00
 ETOT 18  -45.384620260663      1.421E-14 9.918E-21 0.000E+00

 At SCF step   18   max residual=  9.92E-21 < tolwfr=  1.00E-20 =>converged.

 ----iterations are completed or convergence reached----

 dfpt_looppert: DFPT cycle converged with prtwf=-1. Will skip output of the 1st-order WFK file.
 dfpt_looppert : ek2=    6.8905601809E+01
          f-sum rule ratio=    1.2464697282E+00
 prteigrs : about to open file /scratch/users/j/a/jabreu/flow_simple2/flow/w173/t1/tmpdata/tmp_1WF1_EIG
 Expectation of eigenvalue derivatives (hartree) for nkpt=   2  k points:
  (in case of degenerate eigenvalues, averaged derivative)
 kpt#   1, nband= 22, wtk=  0.50000, kpt=  0.5000  0.5000  0.5000 (reduced coord)
  -0.00000    0.00000    0.00000    0.00000    0.00000    0.00000   -0.00000   -0.00000
  -0.00000   -0.00000   -0.00000    0.00000    0.00000    0.00000   -0.00000   -0.00000
  -0.00000    0.00000    0.00000    0.00000   -0.00000    0.00000
 prteigrs : prtvol=0 or 1, do not print more k-points.

 Eight components of 2nd-order total energy (hartree) are
 1,2,3: 0th-order hamiltonian combined with 1st-order wavefunctions
     kin0=   4.20780250E+01 eigvalue=  -7.18561569E-01  local=  -1.49831831E+01
 4,5,6: 1st-order hamiltonian combined with 1st and 0th-order wfs
     kin1=  -8.58887468E+01  Hartree=   0.00000000E+00     xc=   0.00000000E+00
 7,8,9: eventually, occupation + non-local contributions
    edocc=   1.89181845E+01     enl0=   9.01554907E-02   enl1=  -4.88049376E+00
 1-9 gives the relaxation energy (to be shifted if some occ is /=2.0)
   erelax=  -4.53846203E+01
  No Ewald or frozen-wf contrib.: the relaxation energy is the total one
 2DEtotal=   -0.4538462026E+02 Ha. Also 2DEtotal=   -0.123497832325E+04 eV
    (  non-var. 2DEtotal :   -4.5384620261E+01 Ha)

 Perturbation wavevector (in red.coord.)   0.000000  0.000000  0.000000
 Perturbation : derivative vs k along direction   2
 The set of symmetries contains only one element for this perturbation.
 symkpt : not enough symmetry to change the number of k points.

[...]

 Perturbation wavevector (in red.coord.)   0.000000  0.000000  0.000000
 Perturbation : derivative vs k along direction   3
 The set of symmetries contains only one element for this perturbation.
 symkpt : not enough symmetry to change the number of k points.

-inwffil : will read wavefunctions from disk file /scratch/users/j/a/jabreu/flow_simple2/flow/w173/t1/indata/in_WFK

 Initialisation of the first-order wave-functions :
  ireadwf=   0

--- !BeginCycle
iteration_state: {dtset: 1, }
solver: {iscf: 7, nstep: 100, nline: 4, wfoptalg: 0, }
tolerances: {tolwfr: 1.00E-20, }
...

     iter   2DEtotal(Ha)        deltaE(Ha) residm    vres2
-ETOT  1  -45.355160965481     -4.536E+01 2.356E+00 0.000E+00
 ETOT  2  -45.384563347562     -2.940E-02 2.886E-04 0.000E+00
 ETOT  3  -45.384620088111     -5.674E-05 1.459E-04 0.000E+00
 ETOT  4  -45.384620267804     -1.797E-07 5.239E-08 0.000E+00
 ETOT  5  -45.384620268726     -9.215E-10 4.566E-08 0.000E+00
 ETOT  6  -45.384620268733     -6.985E-12 2.136E-11 0.000E+00
 ETOT  7  -45.384620268733     -7.105E-14 4.364E-11 0.000E+00
 ETOT  8  -45.384620268733     -2.842E-14 2.194E-14 0.000E+00
 ETOT  9  -45.384620268733     -7.105E-15 5.137E-14 0.000E+00
 ETOT 10  -45.384620268733      7.105E-15 2.829E-17 0.000E+00
 ETOT 11  -45.384620268733      7.105E-15 5.367E-17 0.000E+00
 ETOT 12  -45.384620268733      0.000E+00 1.392E-18 0.000E+00
 ETOT 13  -45.384620268733     -7.105E-15 2.302E-18 0.000E+00
 ETOT 14  -45.384620268733      0.000E+00 7.130E-20 0.000E+00
 ETOT 15  -45.384620268733      0.000E+00 1.181E-19 0.000E+00
 ETOT 16  -45.384620268733      0.000E+00 9.918E-21 0.000E+00

 At SCF step   16   max residual=  9.92E-21 < tolwfr=  1.00E-20 =>converged.

 ----iterations are completed or convergence reached----

 dfpt_looppert: DFPT cycle converged with prtwf=-1. Will skip output of the 1st-order WFK file.
 dfpt_looppert : ek2=    6.8905601809E+01
          f-sum rule ratio=    1.2464697290E+00
 prteigrs : about to open file /scratch/users/j/a/jabreu/flow_simple2/flow/w173/t1/tmpdata/tmp_1WF1_EIG
 Expectation of eigenvalue derivatives (hartree) for nkpt=   2  k points:
  (in case of degenerate eigenvalues, averaged derivative)
 kpt#   1, nband= 22, wtk=  0.50000, kpt=  0.5000  0.5000  0.5000 (reduced coord)
   0.00000    0.00000   -0.00000   -0.00000   -0.00000   -0.00000    0.00000    0.00000
   0.00000    0.00000   -0.00000    0.00000    0.00000    0.00000    0.00000    0.00000
  -0.00000   -0.00000   -0.00000   -0.00000   -0.00000   -0.00000
 prteigrs : prtvol=0 or 1, do not print more k-points.

 Eight components of 2nd-order total energy (hartree) are
 1,2,3: 0th-order hamiltonian combined with 1st-order wavefunctions
     kin0=   4.21117810E+01 eigvalue=  -7.11520389E-01  local=  -1.50092375E+01
 4,5,6: 1st-order hamiltonian combined with 1st and 0th-order wfs
     kin1=  -8.58887468E+01  Hartree=   0.00000000E+00     xc=   0.00000000E+00
 7,8,9: eventually, occupation + non-local contributions
    edocc=   1.88998590E+01     enl0=   9.37381198E-02   enl1=  -4.88049372E+00
 1-9 gives the relaxation energy (to be shifted if some occ is /=2.0)
   erelax=  -4.53846203E+01
  No Ewald or frozen-wf contrib.: the relaxation energy is the total one
 2DEtotal=   -0.4538462027E+02 Ha. Also 2DEtotal=   -0.123497832347E+04 eV
    (  non-var. 2DEtotal :   -4.5384620269E+01 Ha)

 CALCULATION OF EFFECTIVE MASSES
 NOTE : Additional infos (eff. mass eigenvalues, eigenvectors and, if degenerate, average mass) are available in stdout.

 COMMENTS:
 - At k-point ( 0.500, 0.500, 0.500), bands    12 through    13
   are DEGENERATE (effective mass tensor is therefore not defined).
   See Section IIIB Eqs. (67)-(70) and Appendix E of PRB 93 205147 (2016).
 - Angular average effective mass for Frohlich model is to be averaged over degenerate bands. See later.
 - Associated theta integrals calculated with ntheta=   1000 points.

 K-point ( 0.500, 0.500, 0.500) | band =    12
 Transport equivalent effective mass tensor:
             -0.6114177470             -0.0670467193             -0.1642285209
             -0.0670467193             -0.5640097590             -0.1161279475
             -0.1642285209             -0.1161279475             -0.8010477749
 Transport equivalent effective mass tensor eigenvalues:
             -0.9432761848             -0.5166001717             -0.5165989243
 Angular average effective mass 1/(<1/m>)=  -0.4900948335
 Angular average effective mass for Frohlich model (<m**0.5>)**2=  -0.5049246790
 Effective masses along directions: (cart. coord. / red. coord. -> eff. mass)
    1:   1.000000  0.000000  0.000000 /   0.948683  0.316228  0.000000 ->  -0.5070163609
    2:   0.000000  1.000000  0.000000 /   0.000000  1.000000  0.000000 ->  -0.5955372272
    3:   0.000000  0.000000  1.000000 /   0.408248  0.408248  0.816497 ->  -0.6465547100
    4:   0.577350  0.577350  0.577350 /   0.585539  0.688047  0.428644 ->  -0.6727318137
    5:   0.000000  0.707107  0.707107 /   0.289489  0.762222  0.578977 ->  -0.5181610615
    6:   0.707107  0.000000  0.707107 /   0.731423  0.422287  0.535439 ->  -0.6653443272
    7:   0.707107  0.707107  0.000000 /   0.616798  0.787122  0.000000 ->  -0.4055390135

 K-point ( 0.500, 0.500, 0.500) | band =    13
 Transport equivalent effective mass tensor:
            -14.0615528457             -1.4200349676             -3.4783747791
             -1.4200349676            -13.0574366614             -2.4595829576
             -3.4783747791             -2.4595829576            -18.0780447444
 Transport equivalent effective mass tensor eigenvalues:
            -21.0904011192            -12.0533202548            -12.0533128776
 Angular average effective mass 1/(<1/m>)=  -1.6196777317
 Angular average effective mass for Frohlich model (<m**0.5>)**2=  -2.0109850238
 Effective masses along directions: (cart. coord. / red. coord. -> eff. mass)
    1:   1.000000  0.000000  0.000000 /   0.948683  0.316228  0.000000 ->  -1.1986719319
    2:   0.000000  1.000000  0.000000 /   0.000000  1.000000  0.000000 ->  -0.7835917269
    3:   0.000000  0.000000  1.000000 /   0.408248  0.408248  0.816497 ->  -1.5039525928
    4:   0.577350  0.577350  0.577350 /   0.585539  0.688047  0.428644 ->  -2.2488532135
    5:   0.000000  0.707107  0.707107 /   0.289489  0.762222  0.578977 ->  -3.4579856929
    6:   0.707107  0.000000  0.707107 /   0.731423  0.422287  0.535439 ->  -2.0374656980
    7:   0.707107  0.707107  0.000000 /   0.616798  0.787122  0.000000 ->  -4.8843614087

 Angular average effective mass for Frohlich model, averaged over degenerate bands.
 Value of     (<<m**0.5>>)**2 =     1.132812E+00
 Absolute Value of <<m**0.5>> =     1.064336E+00

 K-point ( 0.000, 0.000, 0.000) | band =    14
 Effective mass tensor:
              0.2526091767             -0.0000000000             -0.0000000000
             -0.0000000000              0.2526091767              0.0000000000
             -0.0000000000              0.0000000000              0.2526091767
 Effective mass tensor eigenvalues:
              0.2526091767              0.2526091767              0.2526091767
 Angular average effective mass 1/(<1/m>)=   0.2526091767
 Angular average effective mass for Frohlich model (<m**0.5>)**2=   0.2526091767
 Effective masses along directions: (cart. coord. / red. coord. -> eff. mass)
    1:   1.000000  0.000000  0.000000 /   0.948683  0.316228  0.000000 ->   0.2526091767
    2:   0.000000  1.000000  0.000000 /   0.000000  1.000000  0.000000 ->   0.2526091767
    3:   0.000000  0.000000  1.000000 /   0.408248  0.408248  0.816497 ->   0.2526091767
    4:   0.577350  0.577350  0.577350 /   0.585539  0.688047  0.428644 ->   0.2526091767
    5:   0.000000  0.707107  0.707107 /   0.289489  0.762222  0.578977 ->   0.2526091767
    6:   0.707107  0.000000  0.707107 /   0.731423  0.422287  0.535439 ->   0.2526091767
    7:   0.707107  0.707107  0.000000 /   0.616798  0.787122  0.000000 ->   0.2526091767

 END OF EFFECTIVE MASSES SECTION

 ---- first-order wavefunction calculations are completed ----

 Total localisation tensor (bohr^2) in cartesian coordinates
  WARNING : still subject to testing - especially symmetries.
      direction              matrix element
   alpha     beta       real part   imaginary part
     1        1       1.5655251217    0.0000000000
     1        2       0.4427973720    0.0000000000
     1        3       1.0846276206    0.0000000000
     2        1       0.4427973720    0.0000000000
     2        2       1.2524200977    0.0000000000
     2        3       0.7669475457    0.0000000000
     3        1       1.0846276206    0.0000000000
     3        2       0.7669475457    0.0000000000
     3        3       2.8179452197    0.0000000000

 respfn : d/dk was computed, but no 2DTE, so no DDB output.

== END DATASET(S) ==============================================================

 -outvars: echo values of variables after computation  --------
            acell      1.0000000000E+00  1.0000000000E+00  1.0000000000E+00 Bohr
              amu      6.35460000E+01  3.54527000E+01
             ecut      4.60000000E+01 Hartree
           etotal     -4.5384620269E+01
            fcart      0.0000000000E+00  0.0000000000E+00  0.0000000000E+00
                       0.0000000000E+00  0.0000000000E+00  0.0000000000E+00
-          fftalg         512
           irdden           1
           irdwfk           1
           istwfk        1    1
              ixc     -116133
              kpt      5.00000000E-01  5.00000000E-01  5.00000000E-01
                       0.00000000E+00  0.00000000E+00  0.00000000E+00
           kptopt           0
P           mkmem           2
P          mkqmem           2
P          mk1mem           2
            natom           2
            nband          22
           nbdbuf           4
            ngfft          45      45      45
             nkpt           2
            nstep         100
             nsym          48
           ntypat           2
              occ      2.000000  2.000000  2.000000  2.000000  2.000000  2.000000
                       2.000000  2.000000  2.000000  2.000000  2.000000  2.000000
                       2.000000  0.000000  0.000000  0.000000  0.000000  0.000000
                       0.000000  0.000000  0.000000  0.000000
        optdriver           1
            prtwf          -1
            rfdir           1       1       1
           rfelfd           2
            rprim      5.7893597358E+00  0.0000000000E+00  3.3424884019E+00
                       1.9297865786E+00  5.4582607039E+00  3.3424884019E+00
                       0.0000000000E+00  0.0000000000E+00  6.6849768038E+00
          spgroup         225
           strten      0.0000000000E+00  0.0000000000E+00  0.0000000000E+00
                       0.0000000000E+00  0.0000000000E+00  0.0000000000E+00
           symrel      1  0  0   0  1  0   0  0  1      -1  0  0   0 -1  0   0  0 -1
                       0 -1  1   0 -1  0   1 -1  0       0  1 -1   0  1  0  -1  1  0
                      -1  0  0  -1  0  1  -1  1  0       1  0  0   1  0 -1   1 -1  0
                       0  1 -1   1  0 -1   0  0 -1       0 -1  1  -1  0  1   0  0  1
                      -1  0  0  -1  1  0  -1  0  1       1  0  0   1 -1  0   1  0 -1
                       0 -1  1   1 -1  0   0 -1  0       0  1 -1  -1  1  0   0  1  0
                       1  0  0   0  0  1   0  1  0      -1  0  0   0  0 -1   0 -1  0
                       0  1 -1   0  0 -1   1  0 -1       0 -1  1   0  0  1  -1  0  1
                      -1  0  1  -1  1  0  -1  0  0       1  0 -1   1 -1  0   1  0  0
                       0 -1  0   1 -1  0   0 -1  1       0  1  0  -1  1  0   0  1 -1
                       1  0 -1   0  0 -1   0  1 -1      -1  0  1   0  0  1   0 -1  1
                       0  1  0   0  0  1   1  0  0       0 -1  0   0  0 -1  -1  0  0
                       1  0 -1   0  1 -1   0  0 -1      -1  0  1   0 -1  1   0  0  1
                       0 -1  0   0 -1  1   1 -1  0       0  1  0   0  1 -1  -1  1  0
                      -1  0  1  -1  0  0  -1  1  0       1  0 -1   1  0  0   1 -1  0
                       0  1  0   1  0  0   0  0  1       0 -1  0  -1  0  0   0  0 -1
                       0  0 -1   0  1 -1   1  0 -1       0  0  1   0 -1  1  -1  0  1
                       1 -1  0   0 -1  1   0 -1  0      -1  1  0   0  1 -1   0  1  0
                       0  0  1   1  0  0   0  1  0       0  0 -1  -1  0  0   0 -1  0
                      -1  1  0  -1  0  0  -1  0  1       1 -1  0   1  0  0   1  0 -1
                       0  0  1   0  1  0   1  0  0       0  0 -1   0 -1  0  -1  0  0
                       1 -1  0   0 -1  0   0 -1  1      -1  1  0   0  1  0   0  1 -1
                       0  0 -1   1  0 -1   0  1 -1       0  0  1  -1  0  1   0 -1  1
                      -1  1  0  -1  0  1  -1  0  0       1 -1  0   1  0 -1   1  0  0
           tolwfr      1.00000000E-20
            typat      1  2
           useylm           1
              wtk        0.50000    0.50000
           xangst      0.0000000000E+00  0.0000000000E+00  0.0000000000E+00
                       2.0423981497E+00  1.4441935815E+00  3.5375373645E+00
            xcart      0.0000000000E+00  0.0000000000E+00  0.0000000000E+00
                       3.8595731572E+00  2.7291303519E+00  6.6849768038E+00
             xred      0.0000000000E+00  0.0000000000E+00  0.0000000000E+00
                       5.0000000000E-01  5.0000000000E-01  5.0000000000E-01
            znucl       29.00000   17.00000

- Timing analysis has been suppressed with timopt=0

 Suggested references for the acknowledgment of ABINIT usage.

 Calculation completed.
.Delivered  14 WARNINGs and   9 COMMENTs to log file.