.Version 9.5.1 of ABINIT

 ABINIT is a project of the Universite Catholique de Louvain,
 Corning Inc. and other collaborators, see ~abinit/doc/developers/contributors.txt .
 acknowledgments of the ABINIT effort.

.Starting date : Tue 11 May 2021.
- ( at 21h24 )

- input  file    -> /scratch/users/j/a/jabreu/flow_simple_8atoms/flow/w288/t1/run.abi
- output file    -> /scratch/users/j/a/jabreu/flow_simple_8atoms/flow/w288/t1/run.abo
- root for input  files -> /scratch/users/j/a/jabreu/flow_simple_8atoms/flow/w288/t1/indata/in
- root for output files -> /scratch/users/j/a/jabreu/flow_simple_8atoms/flow/w288/t1/outdata/out

 Symmetries : space group R3 m (#160); Bravais hR (rhombohedral)
     intxc =       0      iscf =       7    lmnmax =      18     lnmax =       6
     mgfft =     144  mpssoang =       3    mqgrid =    3001     natom =       8
  nloc_mem =       1    nspden =       1   nspinor =       1    nsppol =       1
      nsym =       6    n1xccc =    2501    ntypat =       2    occopt =       1
   xclevel =       2
-    mband =          61        mffmem =           1         mkmem =           1
-   mkqmem =           1        mk1mem =           1           mpw =       13491
      nfft =     2985984          nkpt =           1
  Rough estimation (10% accuracy) of disk space for files :

------------- Echo of variables that govern the present computation ------------
-
- outvars: echo of selected default values
-   iomode0 =  0 , fftalg0 =512 , wfoptalg0 =  0
-
- outvars: echo of global parameters not present in the input file
-  max_nthreads =    0
-
 -outvars: echo values of preprocessed input variables --------
            acell      1.0000000000E+00  1.0000000000E+00  1.0000000000E+00 Bohr
              amu      6.53900000E+01  3.20660000E+01
             ecut      4.20000000E+01 Hartree
-          fftalg         512
           irdden           1
           irdwfk           1
           istwfk        1
              ixc     -116133
           kptopt           0
P           mkmem           1
P          mkqmem           1
P          mk1mem           1
            natom           8
            nband          61
           nbdbuf           4
            ngfft         144     144     144
             nkpt           1
            nstep        2000
             nsym           6
           ntypat           2
              occ      2.000000  2.000000  2.000000  2.000000  2.000000  2.000000
                       2.000000  2.000000  2.000000  2.000000  2.000000  2.000000
                       2.000000  2.000000  2.000000  2.000000  2.000000  2.000000
                       2.000000  2.000000  2.000000  2.000000  2.000000  2.000000
                       2.000000  2.000000  2.000000  2.000000  2.000000  2.000000
                       2.000000  2.000000  2.000000  2.000000  2.000000  2.000000
                       2.000000  2.000000  2.000000  2.000000  2.000000  2.000000
                       2.000000  2.000000  2.000000  2.000000  2.000000  2.000000
                       2.000000  2.000000  2.000000  2.000000  0.000000  0.000000
                       0.000000  0.000000  0.000000  0.000000  0.000000  0.000000
                       0.000000
        optdriver           1
            prtwf          -1
            rfdir           1       1       1
           rfelfd           2
            rprim      7.0702026459E+00  0.0000000000E+00  2.2694258607E+01
                       3.4532499631E+00  6.1695080959E+00  2.2694258607E+01
                       0.0000000000E+00  0.0000000000E+00  2.3770089170E+01
          spgroup         160
           symrel      1  0  0   0  1  0   0  0  1       0  1  0   1  0  0   0  0  1
                       0  0  1   1  0  0   0  1  0       1  0  0   0  0  1   0  1  0
                       0  1  0   0  0  1   1  0  0       0  0  1   0  1  0   1  0  0
           tolwfr      1.00000000E-20
            typat      1  1  1  1  2  2  2  2
           useylm           1
           xangst      3.2485928430E+00  1.9045289212E+00  2.1349281655E+01
                       5.5681252989E+00  3.2643843600E+00  3.6592913006E+01
                       2.3196772439E+00  1.3599403226E+00  1.5244582877E+01
                       9.2829189668E-01  5.4422294514E-01  6.1005998960E+00
                       1.9717348458E+00  1.1559546611E+00  1.2957955831E+01
                       5.8023255437E-01  3.4016872358E-01  3.8132043094E+00
                       2.9011572031E+00  1.7008403531E+00  1.9065984950E+01
                       5.2207843281E+00  3.0607512929E+00  3.4310238453E+01
            xcart      6.1389507905E+00  3.5990380733E+00  4.0344295461E+01
                       1.0522231888E+01  6.1687924330E+00  6.9150583985E+01
                       4.3835547077E+00  2.5699147669E+00  2.8808086648E+01
                       1.7542174561E+00  1.0284323216E+00  1.1528463050E+01
                       3.7260388653E+00  2.1844377315E+00  2.4486987762E+01
                       1.0964806211E+00  6.4282572654E-01  7.2059118335E+00
                       5.4823925823E+00  3.2141224632E+00  3.6029490009E+01
                       9.8658525789E+00  5.7839817045E+00  6.4836954229E+01
             xred      5.8335900000E-01  5.8335900000E-01  5.8335900000E-01
                       9.9988400000E-01  9.9988400000E-01  9.9988400000E-01
                       4.1655100000E-01  4.1655100000E-01  4.1655100000E-01
                       1.6669600000E-01  1.6669600000E-01  1.6669600000E-01
                       3.5407000000E-01  3.5407000000E-01  3.5407000000E-01
                       1.0419400000E-01  1.0419400000E-01  1.0419400000E-01
                       5.2096900000E-01  5.2096900000E-01  5.2096900000E-01
                       9.3751100000E-01  9.3751100000E-01  9.3751100000E-01
            znucl       30.00000   16.00000

 chkinp: Checking input parameters for consistency.

== DATASET  1 ==================================================================
-   mpi_nproc: 1, omp_nthreads: -1 (-1 if OMP is not activated)

--- !DatasetInfo
iteration_state: {dtset: 1, }
dimensions: {natom: 8, nkpt: 1, mband: 61, nsppol: 1, nspinor: 1, nspden: 1, mpw: 13491, }
cutoff_energies: {ecut:  42.0, pawecutdg:  -1.0, }
electrons: {nelect:   1.04000000E+02, charge:   0.00000000E+00, occopt:   1.00000000E+00, tsmear:   1.00000000E-02, }
meta: {optdriver: 1, rfelfd: 2, }
...

 Real(R)+Recip(G) space primitive vectors, cartesian coordinates (Bohr,Bohr^-1):
 R(1)=  7.0702026  0.0000000 22.6942586  G(1)=  0.1414387 -0.0791673  0.0000000
 R(2)=  3.4532500  6.1695081 22.6942586  G(2)=  0.0000000  0.1620875  0.0000000
 R(3)=  0.0000000  0.0000000 23.7700892  G(3)= -0.1350372 -0.0791673  0.0420697
 Unit cell volume ucvol=  1.0368435E+03 bohr^3
 Angles (23,13,12)=  1.73039773E+01  1.73039773E+01  1.73039773E+01 degrees

 getcut: wavevector=  0.0000  0.0000  0.0000  ngfft= 144 144 144
         ecut(hartree)=     42.000   => boxcut(ratio)=   2.07675

--- Pseudopotential description ------------------------------------------------
- pspini: atom type   1  psp file is /scratch/users/j/a/jabreu/pseudos/PBEsol/Zn.psp8
- pspatm: opening atomic psp file    /scratch/users/j/a/jabreu/pseudos/PBEsol/Zn.psp8
- Zn    ONCVPSP-3.3.0  r_core=   1.35823   1.66358   1.85211
- 30.00000  20.00000    180112                znucl, zion, pspdat
    8 -116133    2    4       600   0.00000   pspcod,pspxc,lmax,lloc,mmax,r2well
    5.99000000000000    2.50000000000000    0.00000000000000   rchrg,fchrg,qchrg
     nproj     2     2     2
     extension_switch     1
  pspatm : epsatm=   26.57343589
         --- l  ekb(1:nproj) -->
             0    2.830835   -1.519107
             1   -4.626739   -1.324150
             2   -6.948510   -2.555500
 pspatm: atomic psp has been read  and splines computed

- pspini: atom type   2  psp file is /scratch/users/j/a/jabreu/pseudos/PBEsol/S.psp8
- pspatm: opening atomic psp file    /scratch/users/j/a/jabreu/pseudos/PBEsol/S.psp8
- S     ONCVPSP-3.3.0  r_core=   1.45376   1.45376   1.61851
- 16.00000   6.00000    180112                znucl, zion, pspdat
    8 -116133    2    4       600   0.00000   pspcod,pspxc,lmax,lloc,mmax,r2well
    5.99000000000000    6.00000000000000    0.00000000000000   rchrg,fchrg,qchrg
     nproj     2     2     2
     extension_switch     1
  pspatm : epsatm=    8.71840985
         --- l  ekb(1:nproj) -->
             0    6.834532    0.579453
             1    3.282851    0.896984
             2   -3.496974   -0.974265
 pspatm: atomic psp has been read  and splines computed

   1.46814078E+04                                ecore*ucvol(ha*bohr**3)

-inwffil : will read wavefunctions from disk file /scratch/users/j/a/jabreu/flow_simple_8atoms/flow/w288/t1/indata/in_WFK

 ==>  initialize data related to q vector <==

 The list of irreducible perturbations for this q vector is:
    1)    idir= 1    ipert=   9
    2)    idir= 2    ipert=   9
    3)    idir= 3    ipert=   9

 Perturbation wavevector (in red.coord.)   0.000000  0.000000  0.000000
 Perturbation : derivative vs k along direction   1

 dfpt_looppert : COMMENT -
  In a d/dk calculation, iscf is set to -3 automatically.
 The set of symmetries contains only one element for this perturbation.
 symkpt : not enough symmetry to change the number of k points.

[...]

 Initialisation of the first-order wave-functions :
  ireadwf=   0

--- !BeginCycle
iteration_state: {dtset: 1, }
solver: {iscf: 7, nstep: 2000, nline: 4, wfoptalg: 0, }
tolerances: {tolwfr: 1.00E-20, }
...

     iter   2DEtotal(Ha)        deltaE(Ha) residm    vres2
-ETOT  1  -168.51611178685     -1.685E+02 1.361E-01 0.000E+00
 ETOT  2  -168.77506977910     -2.590E-01 9.809E-02 0.000E+00
 ETOT  3  -168.77770519880     -2.635E-03 2.742E-03 0.000E+00
 ETOT  4  -168.77775252286     -4.732E-05 1.900E-03 0.000E+00
 ETOT  5  -168.77775358583     -1.063E-06 1.694E-04 0.000E+00
 ETOT  6  -168.77775361225     -2.642E-08 1.595E-04 0.000E+00
 ETOT  7  -168.77775361294     -6.907E-10 1.683E-05 0.000E+00
 ETOT  8  -168.77775361296     -1.842E-11 1.650E-05 0.000E+00
 ETOT  9  -168.77775361296     -9.379E-13 1.795E-06 0.000E+00
 ETOT 10  -168.77775361296      3.695E-13 1.764E-06 0.000E+00
 ETOT 11  -168.77775361296     -3.126E-13 1.961E-07 0.000E+00
 ETOT 12  -168.77775361296      5.684E-14 1.922E-07 0.000E+00
 ETOT 13  -168.77775361296     -5.684E-14 2.186E-08 0.000E+00
 ETOT 14  -168.77775361296     -8.527E-14 2.135E-08 0.000E+00
 ETOT 15  -168.77775361296     -2.842E-14 2.483E-09 0.000E+00
 ETOT 16  -168.77775361296      8.527E-14 2.416E-09 0.000E+00
 ETOT 17  -168.77775361296      0.000E+00 2.861E-10 0.000E+00
 ETOT 18  -168.77775361296      0.000E+00 2.776E-10 0.000E+00
 ETOT 19  -168.77775361296      0.000E+00 3.333E-11 0.000E+00
 ETOT 20  -168.77775361296     -5.684E-14 3.227E-11 0.000E+00
 ETOT 21  -168.77775361296      0.000E+00 3.911E-12 0.000E+00
 ETOT 22  -168.77775361296      5.684E-14 3.782E-12 0.000E+00
 ETOT 23  -168.77775361296      0.000E+00 4.612E-13 0.000E+00
 ETOT 24  -168.77775361296      0.000E+00 4.459E-13 0.000E+00
 ETOT 25  -168.77775361296      0.000E+00 5.459E-14 0.000E+00
 ETOT 26  -168.77775361296      0.000E+00 5.282E-14 0.000E+00
[...]
 4,5,6: 1st-order hamiltonian combined with 1st and 0th-order wfs
     kin1=  -3.08236949E+02  Hartree=   0.00000000E+00     xc=   0.00000000E+00
 7,8,9: eventually, occupation + non-local contributions
    edocc=   5.03180782E+01     enl0=  -1.56663816E+01   enl1=  -2.93185579E+01
 1-9 gives the relaxation energy (to be shifted if some occ is /=2.0)
   erelax=  -1.68777754E+02
  No Ewald or frozen-wf contrib.: the relaxation energy is the total one
 2DEtotal=   -0.1687777536E+03 Ha. Also 2DEtotal=   -0.459267624059E+04 eV
    (  non-var. 2DEtotal :   -1.6877775361E+02 Ha)

 Perturbation wavevector (in red.coord.)   0.000000  0.000000  0.000000
 Perturbation : derivative vs k along direction   2
 The set of symmetries contains only one element for this perturbation.
 symkpt : not enough symmetry to change the number of k points.

[...]

 Perturbation wavevector (in red.coord.)   0.000000  0.000000  0.000000
 Perturbation : derivative vs k along direction   3
 The set of symmetries contains only one element for this perturbation.
 symkpt : not enough symmetry to change the number of k points.

-inwffil : will read wavefunctions from disk file /scratch/users/j/a/jabreu/flow_simple_8atoms/flow/w288/t1/indata/in_WFK

 Initialisation of the first-order wave-functions :
  ireadwf=   0

--- !BeginCycle
iteration_state: {dtset: 1, }
solver: {iscf: 7, nstep: 2000, nline: 4, wfoptalg: 0, }
tolerances: {tolwfr: 1.00E-20, }
...

     iter   2DEtotal(Ha)        deltaE(Ha) residm    vres2
-ETOT  1  -168.51690639110     -1.685E+02 1.354E-01 0.000E+00
 ETOT  2  -168.77513407509     -2.582E-01 3.777E-02 0.000E+00
 ETOT  3  -168.77776719305     -2.633E-03 1.097E-03 0.000E+00
 ETOT  4  -168.77781457230     -4.738E-05 9.650E-04 0.000E+00
 ETOT  5  -168.77781563649     -1.064E-06 8.289E-05 0.000E+00
 ETOT  6  -168.77781566289     -2.639E-08 9.056E-05 0.000E+00
 ETOT  7  -168.77781566357     -6.870E-10 7.863E-06 0.000E+00
 ETOT  8  -168.77781566359     -1.850E-11 9.088E-06 0.000E+00
 ETOT  9  -168.77781566359     -7.105E-13 7.823E-07 0.000E+00
 ETOT 10  -168.77781566359      2.274E-13 9.232E-07 0.000E+00
 ETOT 11  -168.77781566359      2.842E-14 7.945E-08 0.000E+00
 ETOT 12  -168.77781566359     -8.527E-14 9.519E-08 0.000E+00
 ETOT 13  -168.77781566359      1.137E-13 8.186E-09 0.000E+00
 ETOT 14  -168.77781566359      2.842E-14 9.969E-09 0.000E+00
 ETOT 15  -168.77781566359     -8.527E-14 8.533E-10 0.000E+00
 ETOT 16  -168.77781566359      8.527E-14 1.058E-09 0.000E+00
 ETOT 17  -168.77781566359     -2.842E-14 8.980E-11 0.000E+00
 ETOT 18  -168.77781566359      2.842E-14 1.136E-10 0.000E+00
 ETOT 19  -168.77781566359     -8.527E-14 9.527E-12 0.000E+00
 ETOT 20  -168.77781566359     -2.842E-14 1.229E-11 0.000E+00
 ETOT 21  -168.77781566359      0.000E+00 1.018E-12 0.000E+00
 ETOT 22  -168.77781566359      2.842E-14 1.338E-12 0.000E+00
 ETOT 23  -168.77781566359      0.000E+00 1.094E-13 0.000E+00
 ETOT 24  -168.77781566359      0.000E+00 1.463E-13 0.000E+00
 ETOT 25  -168.77781566359      0.000E+00 1.182E-14 0.000E+00
 ETOT 26  -168.77781566359      0.000E+00 1.607E-14 0.000E+00
 ETOT 27  -168.77781566359      0.000E+00 1.282E-15 0.000E+00
 ETOT 28  -168.77781566359      5.684E-14 1.770E-15 0.000E+00
 ETOT 29  -168.77781566359      0.000E+00 1.398E-16 0.000E+00
 ETOT 30  -168.77781566359     -5.684E-14 1.954E-16 0.000E+00
 ETOT 31  -168.77781566359      0.000E+00 1.529E-17 0.000E+00
 ETOT 32  -168.77781566359      0.000E+00 2.164E-17 0.000E+00
 ETOT 33  -168.77781566359      0.000E+00 1.678E-18 0.000E+00
 ETOT 34  -168.77781566359      5.684E-14 2.401E-18 0.000E+00
 ETOT 35  -168.77781566359     -5.684E-14 1.847E-19 0.000E+00
 ETOT 36  -168.77781566359      2.842E-14 2.669E-19 0.000E+00
 ETOT 37  -168.77781566359     -2.842E-14 2.038E-20 0.000E+00
 ETOT 38  -168.77781566359      0.000E+00 2.973E-20 0.000E+00
 ETOT 39  -168.77781566359      2.842E-14 9.769E-21 0.000E+00

 At SCF step   39   max residual=  9.77E-21 < tolwfr=  1.00E-20 =>converged.

 ----iterations are completed or convergence reached----

 dfpt_looppert: DFPT cycle converged with prtwf=-1. Will skip output of the 1st-order WFK file.
 dfpt_looppert : ek2=    2.1573568834E+02
          f-sum rule ratio=    1.4287717802E+00
 prteigrs : about to open file /scratch/users/j/a/jabreu/flow_simple_8atoms/flow/w288/t1/tmpdata/tmp_1WF1_EIG
 Expectation of eigenvalue derivatives (hartree) for nkpt=   1  k points:
  (in case of degenerate eigenvalues, averaged derivative)
 kpt#   1, nband= 61, wtk=  1.00000, kpt=  0.0000  0.0000  0.0000 (reduced coord)
  -0.00000    0.00000    0.00000    0.00000    0.00000    0.00000   -0.00000   -0.00000
  -0.00000    0.00000   -0.00000   -0.00000    0.00000   -0.00000   -0.00000   -0.00000
  -0.00000    0.00000   -0.00000   -0.00000   -0.00000    0.00000    0.00000    0.00000
  -0.00000    0.00000    0.00000    0.00000    0.00000    0.00000    0.00000   -0.00000
  -0.00000    0.00000    0.00000    0.00000    0.00000   -0.00000   -0.00000   -0.00000
   0.00000    0.00000    0.00000   -0.00000   -0.00000   -0.00000   -0.00000    0.00000
   0.00000   -0.00000    0.00000    0.00000   -0.00000    0.00000    0.00000    0.00000
  -0.00000   -0.00000    0.00000   -0.00388   -0.00457

 Eight components of 2nd-order total energy (hartree) are
 1,2,3: 0th-order hamiltonian combined with 1st-order wavefunctions
     kin0=   2.29020420E+02 eigvalue=  -3.45386728E+00  local=  -9.14413390E+01
 4,5,6: 1st-order hamiltonian combined with 1st and 0th-order wfs
     kin1=  -3.08237063E+02  Hartree=   0.00000000E+00     xc=   0.00000000E+00
 7,8,9: eventually, occupation + non-local contributions
    edocc=   5.03215838E+01     enl0=  -1.56689818E+01   enl1=  -2.93185678E+01
 1-9 gives the relaxation energy (to be shifted if some occ is /=2.0)
   erelax=  -1.68777816E+02
  No Ewald or frozen-wf contrib.: the relaxation energy is the total one
 2DEtotal=   -0.1687778157E+03 Ha. Also 2DEtotal=   -0.459267792907E+04 eV
    (  non-var. 2DEtotal :   -1.6877781566E+02 Ha)

 CALCULATION OF EFFECTIVE MASSES
 NOTE : Additional infos (eff. mass eigenvalues, eigenvectors and, if degenerate, average mass) are available in stdout.

 COMMENTS:
 - At k-point ( 0.000, 0.000, 0.000), bands    51 through    52
   are DEGENERATE (effective mass tensor is therefore not defined).
   See Section IIIB Eqs. (67)-(70) and Appendix E of PRB 93 205147 (2016).
 - Angular average effective mass for Frohlich model is to be averaged over degenerate bands. See later.
 - Associated theta integrals calculated with ntheta=   1000 points.

 K-point ( 0.000, 0.000, 0.000) | band =    51
 Transport equivalent effective mass tensor:
             -0.2013620217             -0.0178770701             -0.2003903255
             -0.0178770701             -0.1813470998             -0.1174812224
             -0.2003903255             -0.1174812224             -1.4877909850
 Transport equivalent effective mass tensor eigenvalues:
             -1.5287638962             -0.1708695518             -0.1708666585
 Angular average effective mass 1/(<1/m>)=  -0.2307607992
 Angular average effective mass for Frohlich model (<m**0.5>)**2=  -0.2764166087
 Effective masses along directions: (cart. coord. / red. coord. -> eff. mass)
    1:   1.000000  0.000000  0.000000 /   0.898549  0.438872  0.000000 ->  -0.1660431874
    2:   0.000000  1.000000  0.000000 /   0.000000  1.000000  0.000000 ->  -0.1651102059
    3:   0.000000  0.000000  1.000000 /   0.568232  0.568232  0.595169 ->  -1.2921143615
    4:   0.577350  0.577350  0.577350 /   0.595846  0.646945  0.475846 ->  -0.2767643927
    5:   0.000000  0.707107  0.707107 /   0.518848  0.659898  0.543444 ->  -0.3614253322
    6:   0.707107  0.000000  0.707107 /   0.644223  0.565938  0.514481 ->  -0.3894297927
    7:   0.707107  0.707107  0.000000 /   0.592099  0.805865  0.000000 ->  -0.1650317108

 K-point ( 0.000, 0.000, 0.000) | band =    52
 Transport equivalent effective mass tensor:
             -2.0538192993             -0.0132375781             -0.1484169143
             -0.0132375781             -2.0389755815             -0.0869747345
             -0.1484169143             -0.0869747345             -3.0063368036
 Transport equivalent effective mass tensor eigenvalues:
             -3.0366843179             -2.0312294165             -2.0312179499
 Angular average effective mass 1/(<1/m>)=  -1.3941082186
 Angular average effective mass for Frohlich model (<m**0.5>)**2=  -1.4416227847
 Effective masses along directions: (cart. coord. / red. coord. -> eff. mass)
    1:   1.000000  0.000000  0.000000 /   0.898549  0.438872  0.000000 ->  -1.3286711789
    2:   0.000000  1.000000  0.000000 /   0.000000  1.000000  0.000000 ->  -1.2493043094
    3:   0.000000  0.000000  1.000000 /   0.568232  0.568232  0.595169 ->  -1.3399518167
    4:   0.577350  0.577350  0.577350 /   0.595846  0.646945  0.475846 ->  -1.9111097171
    5:   0.000000  0.707107  0.707107 /   0.518848  0.659898  0.543444 ->  -1.0617016664
    6:   0.707107  0.000000  0.707107 /   0.644223  0.565938  0.514481 ->  -1.3136259765
    7:   0.707107  0.707107  0.000000 /   0.592099  0.805865  0.000000 ->  -1.4628582796

 Angular average effective mass for Frohlich model, averaged over degenerate bands.
 Value of     (<<m**0.5>>)**2 =     7.451396E-01
 Absolute Value of <<m**0.5>> =     8.632147E-01

 K-point ( 0.000, 0.000, 0.000) | band =    53
 Effective mass tensor:
              0.1724689488             -0.0001414394             -0.0015851801
             -0.0001414394              0.1726273922             -0.0009293767
             -0.0015851801             -0.0009293767              0.1622927057
 Effective mass tensor eigenvalues:
              0.1619685832              0.1727101563              0.1727103071
 Angular average effective mass 1/(<1/m>)=   0.1689747997
 Angular average effective mass for Frohlich model (<m**0.5>)**2=   0.1690217679
 Effective masses along directions: (cart. coord. / red. coord. -> eff. mass)
    1:   1.000000  0.000000  0.000000 /   0.898549  0.438872  0.000000 ->   0.1724533344
    2:   0.000000  1.000000  0.000000 /   0.000000  1.000000  0.000000 ->   0.1726219387
    3:   0.000000  0.000000  1.000000 /   0.568232  0.568232  0.595169 ->   0.1622731186
    4:   0.577350  0.577350  0.577350 /   0.595846  0.646945  0.475846 ->   0.1671866219
    5:   0.000000  0.707107  0.707107 /   0.518848  0.659898  0.543444 ->   0.1663630104
    6:   0.707107  0.000000  0.707107 /   0.644223  0.565938  0.514481 ->   0.1656389570
    7:   0.707107  0.707107  0.000000 /   0.592099  0.805865  0.000000 ->   0.1723872098

 END OF EFFECTIVE MASSES SECTION

 ---- first-order wavefunction calculations are completed ----

 Total localisation tensor (bohr^2) in cartesian coordinates
  WARNING : still subject to testing - especially symmetries.
      direction              matrix element
   alpha     beta       real part   imaginary part
     1        1       3.2720668486    0.0000000000
     1        2       1.1259587920    0.0000000000
     1        3      12.6216729700    0.0000000000
     2        1       1.1259587920    0.0000000000
     2        2       2.0116157118    0.0000000000
     2        3       7.3996381028    0.0000000000
     3        1      12.6216729700    0.0000000000
     3        2       7.3996381028    0.0000000000
     3        3      84.2993401039    0.0000000000

 respfn : d/dk was computed, but no 2DTE, so no DDB output.

== END DATASET(S) ==============================================================

 -outvars: echo values of variables after computation  --------
            acell      1.0000000000E+00  1.0000000000E+00  1.0000000000E+00 Bohr
              amu      6.53900000E+01  3.20660000E+01
             ecut      4.20000000E+01 Hartree
           etotal     -1.6877781566E+02
            fcart      0.0000000000E+00  0.0000000000E+00  0.0000000000E+00
                       0.0000000000E+00  0.0000000000E+00  0.0000000000E+00
                       0.0000000000E+00  0.0000000000E+00  0.0000000000E+00
                       0.0000000000E+00  0.0000000000E+00  0.0000000000E+00
                       0.0000000000E+00  0.0000000000E+00  0.0000000000E+00
                       0.0000000000E+00  0.0000000000E+00  0.0000000000E+00
                       0.0000000000E+00  0.0000000000E+00  0.0000000000E+00
                       0.0000000000E+00  0.0000000000E+00  0.0000000000E+00
-          fftalg         512
           irdden           1
           irdwfk           1
           istwfk        1
              ixc     -116133
           kptopt           0
P           mkmem           1
P          mkqmem           1
P          mk1mem           1
            natom           8
            nband          61
           nbdbuf           4
            ngfft         144     144     144
             nkpt           1
            nstep        2000
             nsym           6
           ntypat           2
              occ      2.000000  2.000000  2.000000  2.000000  2.000000  2.000000
                       2.000000  2.000000  2.000000  2.000000  2.000000  2.000000
                       2.000000  2.000000  2.000000  2.000000  2.000000  2.000000
                       2.000000  2.000000  2.000000  2.000000  2.000000  2.000000
                       2.000000  2.000000  2.000000  2.000000  2.000000  2.000000
                       2.000000  2.000000  2.000000  2.000000  2.000000  2.000000
                       2.000000  2.000000  2.000000  2.000000  2.000000  2.000000
                       2.000000  2.000000  2.000000  2.000000  2.000000  2.000000
                       2.000000  2.000000  2.000000  2.000000  0.000000  0.000000
                       0.000000  0.000000  0.000000  0.000000  0.000000  0.000000
                       0.000000
        optdriver           1
            prtwf          -1
            rfdir           1       1       1
           rfelfd           2
            rprim      7.0702026459E+00  0.0000000000E+00  2.2694258607E+01
                       3.4532499631E+00  6.1695080959E+00  2.2694258607E+01
                       0.0000000000E+00  0.0000000000E+00  2.3770089170E+01
          spgroup         160
           strten      0.0000000000E+00  0.0000000000E+00  0.0000000000E+00
                       0.0000000000E+00  0.0000000000E+00  0.0000000000E+00
           symrel      1  0  0   0  1  0   0  0  1       0  1  0   1  0  0   0  0  1
                       0  0  1   1  0  0   0  1  0       1  0  0   0  0  1   0  1  0
                       0  1  0   0  0  1   1  0  0       0  0  1   0  1  0   1  0  0
           tolwfr      1.00000000E-20
            typat      1  1  1  1  2  2  2  2
           useylm           1
           xangst      3.2485928430E+00  1.9045289212E+00  2.1349281655E+01
                       5.5681252989E+00  3.2643843600E+00  3.6592913006E+01
                       2.3196772439E+00  1.3599403226E+00  1.5244582877E+01
                       9.2829189668E-01  5.4422294514E-01  6.1005998960E+00
                       1.9717348458E+00  1.1559546611E+00  1.2957955831E+01
                       5.8023255437E-01  3.4016872358E-01  3.8132043094E+00
                       2.9011572031E+00  1.7008403531E+00  1.9065984950E+01
                       5.2207843281E+00  3.0607512929E+00  3.4310238453E+01
            xcart      6.1389507905E+00  3.5990380733E+00  4.0344295461E+01
                       1.0522231888E+01  6.1687924330E+00  6.9150583985E+01
                       4.3835547077E+00  2.5699147669E+00  2.8808086648E+01
                       1.7542174561E+00  1.0284323216E+00  1.1528463050E+01
                       3.7260388653E+00  2.1844377315E+00  2.4486987762E+01
                       1.0964806211E+00  6.4282572654E-01  7.2059118335E+00
                       5.4823925823E+00  3.2141224632E+00  3.6029490009E+01
                       9.8658525789E+00  5.7839817045E+00  6.4836954229E+01
             xred      5.8335900000E-01  5.8335900000E-01  5.8335900000E-01
                       9.9988400000E-01  9.9988400000E-01  9.9988400000E-01
                       4.1655100000E-01  4.1655100000E-01  4.1655100000E-01
                       1.6669600000E-01  1.6669600000E-01  1.6669600000E-01
                       3.5407000000E-01  3.5407000000E-01  3.5407000000E-01
                       1.0419400000E-01  1.0419400000E-01  1.0419400000E-01
                       5.2096900000E-01  5.2096900000E-01  5.2096900000E-01
                       9.3751100000E-01  9.3751100000E-01  9.3751100000E-01
            znucl       30.00000   16.00000

- Timing analysis has been suppressed with timopt=0

 Suggested references for the acknowledgment of ABINIT usage.

 Calculation completed.
.Delivered   6 WARNINGs and   5 COMMENTs to log file.