.Version 9.7.2 of ABINIT

 ABINIT is a project of the Universite Catholique de Louvain,
 Corning Inc. and other collaborators, see ~abinit/doc/developers/contributors.txt .
 acknowledgments of the ABINIT effort.

.Starting date : Wed  1 Dec 2021.
- ( at 21h22 )

- input  file    -> /scratch/users/j/a/jabreu/flow_simple_remain_atoms/flow/w183/t1/run.abi
- output file    -> /scratch/users/j/a/jabreu/flow_simple_remain_atoms/flow/w183/t1/run.abo
- root for input  files -> /scratch/users/j/a/jabreu/flow_simple_remain_atoms/flow/w183/t1/indata/in
- root for output files -> /scratch/users/j/a/jabreu/flow_simple_remain_atoms/flow/w183/t1/outdata/out

 Symmetries : space group P-3 m 1 (#164); Bravais hP (primitive hexag.)
     intxc =       0      iscf =       7    lmnmax =      32     lnmax =       8
     mgfft =      64  mpssoang =       4    mqgrid =    3001     natom =       5
  nloc_mem =       1    nspden =       1   nspinor =       1    nsppol =       1
      nsym =      12    n1xccc =    2501    ntypat =       3    occopt =       1
   xclevel =       2
-    mband =          31        mffmem =           1         mkmem =           2
-   mkqmem =           2        mk1mem =           2           mpw =       12400
      nfft =      245760          nkpt =           2
  Rough estimation (10% accuracy) of disk space for files :

------------- Echo of variables that govern the present computation ------------
-
- outvars: echo of selected default values
-   iomode0 =  0 , fftalg0 =512 , wfoptalg0 =  0
-
- outvars: echo of global parameters not present in the input file
-  max_nthreads =    0
-
 -outvars: echo values of preprocessed input variables --------
            acell      1.0000000000E+00  1.0000000000E+00  1.0000000000E+00 Bohr
              amu      1.32905430E+02  1.95080000E+02  1.20110000E+01
             ecut      4.20000000E+01 Hartree
-          fftalg         512
           irdden           1
           irdwfk           1
           istwfk        1    1
              ixc     -116133
              kpt      5.00000000E-01  0.00000000E+00  5.00000000E-01
                       0.00000000E+00  0.00000000E+00  5.00000000E-01
           kptopt           0
P           mkmem           2
P          mkqmem           2
P          mk1mem           2
            natom           5
            nband          31
           nbdbuf           4
            ngfft          64      64      60
             nkpt           2
            nstep        2000
             nsym          12
           ntypat           3
              occ      2.000000  2.000000  2.000000  2.000000  2.000000  2.000000
                       2.000000  2.000000  2.000000  2.000000  2.000000  2.000000
                       2.000000  2.000000  2.000000  2.000000  2.000000  2.000000
                       2.000000  2.000000  2.000000  2.000000  0.000000  0.000000
                       0.000000  0.000000  0.000000  0.000000  0.000000  0.000000
                       0.000000
        optdriver           1
            prtwf          -1
            rfdir           1       1       1
           rfelfd           2
            rprim      1.0546812741E+01  0.0000000000E+00  0.0000000000E+00
                      -5.2734063703E+00  9.1338077623E+00  0.0000000000E+00
                       0.0000000000E+00  0.0000000000E+00  9.8374209296E+00
          spgroup         164
           symrel      1  0  0   0  1  0   0  0  1      -1  0  0   0 -1  0   0  0 -1
                      -1  0  0   1  1  0   0  0  1       1  0  0  -1 -1  0   0  0 -1
                       0  1  0  -1 -1  0   0  0  1       0 -1  0   1  1  0   0  0 -1
                       0 -1  0  -1  0  0   0  0  1       0  1  0   1  0  0   0  0 -1
                      -1 -1  0   1  0  0   0  0  1       1  1  0  -1  0  0   0  0 -1
                       1  1  0   0 -1  0   0  0  1      -1 -1  0   0  1  0   0  0 -1
           tolwfr      1.00000000E-20
            typat      1  1  2  3  3
           useylm           1
              wtk        0.50000    0.50000
           xangst     -7.0500566530E-16  3.2222685970E+00  1.4065229889E+00
                       2.7905664628E+00  1.6111342985E+00  3.7992159583E+00
                       0.0000000000E+00  0.0000000000E+00  0.0000000000E+00
                       0.0000000000E+00  0.0000000000E+00  1.9653382420E+00
                       0.0000000000E+00  0.0000000000E+00  3.2404007053E+00
            xcart     -1.3322676296E-15  6.0892051749E+00  2.6579432487E+00
                       5.2734063703E+00  3.0446025874E+00  7.1794776809E+00
                       0.0000000000E+00  0.0000000000E+00  0.0000000000E+00
                       0.0000000000E+00  0.0000000000E+00  3.7139510358E+00
                       0.0000000000E+00  0.0000000000E+00  6.1234698938E+00
             xred      3.3333333333E-01  6.6666666667E-01  2.7018700000E-01
                       6.6666666667E-01  3.3333333333E-01  7.2981300000E-01
                       0.0000000000E+00  0.0000000000E+00  0.0000000000E+00
                       0.0000000000E+00  0.0000000000E+00  3.7753300000E-01
                       0.0000000000E+00  0.0000000000E+00  6.2246700000E-01
            znucl       55.00000   78.00000    6.00000

 chkinp: Checking input parameters for consistency.

== DATASET  1 ==================================================================
-   mpi_nproc: 1, omp_nthreads: -1 (-1 if OMP is not activated)

--- !DatasetInfo
iteration_state: {dtset: 1, }
dimensions: {natom: 5, nkpt: 2, mband: 31, nsppol: 1, nspinor: 1, nspden: 1, mpw: 12400, }
cutoff_energies: {ecut:  42.0, pawecutdg:  -1.0, }
electrons: {nelect:   4.40000000E+01, charge:   0.00000000E+00, occopt:   1.00000000E+00, tsmear:   1.00000000E-02, }
meta: {optdriver: 1, rfelfd: 2, }
...

 Real(R)+Recip(G) space primitive vectors, cartesian coordinates (Bohr,Bohr^-1):
 R(1)= 10.5468127  0.0000000  0.0000000  G(1)=  0.0948154  0.0547417  0.0000000
 R(2)= -5.2734064  9.1338078  0.0000000  G(2)=  0.0000000  0.1094834  0.0000000
 R(3)=  0.0000000  0.0000000  9.8374209  G(3)=  0.0000000  0.0000000  0.1016527
 Unit cell volume ucvol=  9.4766394E+02 bohr^3
 Angles (23,13,12)=  9.00000000E+01  9.00000000E+01  1.20000000E+02 degrees

 getcut: wavevector=  0.0000  0.0000  0.0000  ngfft=  64  64  60
         ecut(hartree)=     42.000   => boxcut(ratio)=   2.08003

--- Pseudopotential description ------------------------------------------------
- pspini: atom type   1  psp file is /scratch/users/j/a/jabreu/pseudos/PBEsol/Cs.psp8
- pspatm: opening atomic psp file    /scratch/users/j/a/jabreu/pseudos/PBEsol/Cs.psp8
- Cs    ONCVPSP-3.3.0  r_core=   2.27353   1.85623   2.01788   1.90105
- 55.00000   9.00000    180112                znucl, zion, pspdat
    8 -116133    3    4       600   0.00000   pspcod,pspxc,lmax,lloc,mmax,r2well
    5.99000000000000    5.00000000000000    0.00000000000000   rchrg,fchrg,qchrg
     nproj     2     2     2     2
     extension_switch     1
  pspatm : epsatm=   22.12462445
         --- l  ekb(1:nproj) -->
             0    6.214110    0.767882
             1    6.311966    0.793598
             2    3.769790    0.913105
             3   -9.247129   -2.432478
 pspatm: atomic psp has been read  and splines computed

- pspini: atom type   2  psp file is /scratch/users/j/a/jabreu/pseudos/PBEsol/Pt.psp8
- pspatm: opening atomic psp file    /scratch/users/j/a/jabreu/pseudos/PBEsol/Pt.psp8
- Pt    ONCVPSP-3.3.0  r_core=   1.45722   1.45722   1.45722   1.91724
- 78.00000  18.00000    180112                znucl, zion, pspdat
    8 -116133    3    4       500   0.00000   pspcod,pspxc,lmax,lloc,mmax,r2well
    4.99000000000000    5.00000000000000    0.00000000000000   rchrg,fchrg,qchrg
     nproj     2     2     2     2
     extension_switch     1
  pspatm : epsatm=   26.54019552
         --- l  ekb(1:nproj) -->
             0   18.149684    1.747248
             1    8.048135    1.208190
             2    2.365973    0.348456
             3    3.491561    0.381218
 pspatm: atomic psp has been read  and splines computed

- pspini: atom type   3  psp file is /scratch/users/j/a/jabreu/pseudos/PBEsol/C.psp8
- pspatm: opening atomic psp file    /scratch/users/j/a/jabreu/pseudos/PBEsol/C.psp8
- C     ONCVPSP-3.3.0  r_core=   1.20440   1.26326
-  6.00000   4.00000    180112                znucl, zion, pspdat
    8 -116133    1    4       600   0.00000   pspcod,pspxc,lmax,lloc,mmax,r2well
    5.99000000000000    4.00000000000000    0.00000000000000   rchrg,fchrg,qchrg
     nproj     2     2
     extension_switch     1
  pspatm : epsatm=    4.34909529
         --- l  ekb(1:nproj) -->
             0    6.468939    0.390031
             1   -4.179695   -0.878453
 pspatm: atomic psp has been read  and splines computed

   3.49745594E+03                                ecore*ucvol(ha*bohr**3)

 ==>  initialize data related to q vector <==

 The list of irreducible perturbations for this q vector is:
    1)    idir= 1    ipert=   6
    2)    idir= 2    ipert=   6
    3)    idir= 3    ipert=   6

 Perturbation wavevector (in red.coord.)   0.000000  0.000000  0.000000
 Perturbation : derivative vs k along direction   1

 dfpt_looppert : COMMENT -
  In a d/dk calculation, iscf is set to -3 automatically.
 The set of symmetries contains only one element for this perturbation.
 symkpt : not enough symmetry to change the number of k points.

 Initialisation of the first-order wave-functions :
  ireadwf=   0

--- !BeginCycle
iteration_state: {dtset: 1, }
solver: {iscf: 7, nstep: 2000, nline: 4, wfoptalg: 0, }
tolerances: {tolwfr: 1.00E-20, }
...

     iter   2DEtotal(Ha)        deltaE(Ha) residm    vres2
-ETOT  1  -23.070938143610     -2.307E+01 3.113E-02 0.000E+00
 ETOT  2  -23.096934247795     -2.600E-02 4.783E-03 0.000E+00
 ETOT  3  -23.097865603455     -9.314E-04 6.372E-04 0.000E+00
 ETOT  4  -23.097915400091     -4.980E-05 6.455E-05 0.000E+00
 ETOT  5  -23.097918298276     -2.898E-06 1.596E-05 0.000E+00
 ETOT  6  -23.097918494413     -1.961E-07 1.536E-06 0.000E+00
 ETOT  7  -23.097918508653     -1.424E-08 4.129E-07 0.000E+00
 ETOT  8  -23.097918509781     -1.128E-09 3.846E-08 0.000E+00
 ETOT  9  -23.097918509876     -9.511E-11 1.800E-08 0.000E+00
 ETOT 10  -23.097918509884     -8.388E-12 1.833E-09 0.000E+00
 ETOT 11  -23.097918509885     -7.851E-13 6.173E-10 0.000E+00
 ETOT 12  -23.097918509885     -3.908E-14 5.904E-11 0.000E+00
 ETOT 13  -23.097918509885     -1.066E-14 2.224E-11 0.000E+00
 ETOT 14  -23.097918509885      0.000E+00 2.153E-12 0.000E+00
 ETOT 15  -23.097918509885      3.553E-15 8.341E-13 0.000E+00
 ETOT 16  -23.097918509885     -3.553E-15 8.070E-14 0.000E+00
 ETOT 17  -23.097918509885      1.776E-14 3.235E-14 0.000E+00
 ETOT 18  -23.097918509885     -3.553E-15 3.102E-15 0.000E+00
 ETOT 19  -23.097918509885      0.000E+00 1.280E-15 0.000E+00
 ETOT 20  -23.097918509885      0.000E+00 1.216E-16 0.000E+00
 ETOT 21  -23.097918509885      0.000E+00 5.114E-17 0.000E+00
 ETOT 22  -23.097918509885      0.000E+00 4.831E-18 0.000E+00
 ETOT 23  -23.097918509885      0.000E+00 2.054E-18 0.000E+00
 ETOT 24  -23.097918509885     -7.105E-15 1.934E-19 0.000E+00
 ETOT 25  -23.097918509885      0.000E+00 8.279E-20 0.000E+00
 ETOT 26  -23.097918509885      7.105E-15 9.600E-21 0.000E+00

 At SCF step   26   max residual=  9.60E-21 < tolwfr=  1.00E-20 =>converged.

 ----iterations are completed or convergence reached----

 dfpt_looppert: DFPT cycle converged with prtwf=-1. Will skip output of the 1st-order WFK file.
 dfpt_looppert : ek2=    4.1642680338E+01
          f-sum rule ratio=    1.0171372312E+00
 prteigrs : about to open file /scratch/users/j/a/jabreu/flow_simple_remain_atoms/flow/w183/t1/tmpdata/tmp_1WF1_EIG
 Expectation of eigenvalue derivatives (hartree) for nkpt=   2  k points:
  (in case of degenerate eigenvalues, averaged derivative)
 kpt#   1, nband= 31, wtk=  0.50000, kpt=  0.5000  0.0000  0.5000 (reduced coord)
  -0.00000    0.00000    0.00000    0.00000   -0.00000   -0.00000    0.00000    0.00000
  -0.00000    0.00000   -0.00000    0.00000   -0.00000    0.00000    0.00000   -0.00000
  -0.00000   -0.00000   -0.00000   -0.00000   -0.00000    0.00000    0.00000    0.00000
  -0.00000   -0.00000    0.00000   -0.00000   -0.00000   -0.00000    0.00003
 prteigrs : prtvol=0 or 1, do not print more k-points.

 Eight components of 2nd-order total energy (hartree) are
 1,2,3: 0th-order hamiltonian combined with 1st-order wavefunctions
     kin0=   2.93252070E+01 eigvalue=   1.71418753E-02  local=  -1.63979278E+01
 4,5,6: 1st-order hamiltonian combined with 1st and 0th-order wfs
     kin1=  -4.23563206E+01  Hartree=   0.00000000E+00     xc=   0.00000000E+00
 7,8,9: eventually, occupation + non-local contributions
    edocc=   7.04751466E+00     enl0=   3.10598278E+00   enl1=  -3.83951644E+00
 1-9 gives the relaxation energy (to be shifted if some occ is /=2.0)
   erelax=  -2.30979185E+01
  No Ewald or frozen-wf contrib.: the relaxation energy is the total one
 2DEtotal=   -0.2309791851E+02 Ha. Also 2DEtotal=   -0.628526326939E+03 eV
    (  non-var. 2DEtotal :   -2.3097918510E+01 Ha)

 Perturbation wavevector (in red.coord.)   0.000000  0.000000  0.000000
 Perturbation : derivative vs k along direction   2
 The set of symmetries contains only one element for this perturbation.
 symkpt : not enough symmetry to change the number of k points.

[...]

 Perturbation wavevector (in red.coord.)   0.000000  0.000000  0.000000
 Perturbation : derivative vs k along direction   3
 The set of symmetries contains only one element for this perturbation.
 symkpt : not enough symmetry to change the number of k points.

 Initialisation of the first-order wave-functions :
  ireadwf=   0

--- !BeginCycle
iteration_state: {dtset: 1, }
solver: {iscf: 7, nstep: 2000, nline: 4, wfoptalg: 0, }
tolerances: {tolwfr: 1.00E-20, }
...

     iter   2DEtotal(Ha)        deltaE(Ha) residm    vres2
-ETOT  1  -30.768092237871     -3.077E+01 8.060E-02 0.000E+00
 ETOT  2  -30.795405698581     -2.731E-02 4.218E-03 0.000E+00
 ETOT  3  -30.796472610222     -1.067E-03 2.235E-04 0.000E+00
 ETOT  4  -30.796541130770     -6.852E-05 2.684E-05 0.000E+00
 ETOT  5  -30.796545945519     -4.815E-06 4.209E-06 0.000E+00
 ETOT  6  -30.796546312003     -3.665E-07 2.760E-07 0.000E+00
 ETOT  7  -30.796546341953     -2.995E-08 9.097E-08 0.000E+00
 ETOT  8  -30.796546344519     -2.566E-09 6.664E-09 0.000E+00
 ETOT  9  -30.796546344746     -2.268E-10 2.057E-09 0.000E+00
 ETOT 10  -30.796546344766     -2.068E-11 1.482E-10 0.000E+00
 ETOT 11  -30.796546344768     -1.847E-12 4.549E-11 0.000E+00
 ETOT 12  -30.796546344768     -1.457E-13 4.172E-12 0.000E+00
 ETOT 13  -30.796546344768     -1.066E-13 1.031E-12 0.000E+00
 ETOT 14  -30.796546344768      1.066E-14 1.240E-13 0.000E+00
 ETOT 15  -30.796546344768     -1.421E-14 2.375E-14 0.000E+00
 ETOT 16  -30.796546344768      2.487E-14 3.915E-15 0.000E+00
 ETOT 17  -30.796546344768     -1.776E-14 6.453E-16 0.000E+00
 ETOT 18  -30.796546344768      3.908E-14 1.258E-16 0.000E+00
 ETOT 19  -30.796546344768     -7.105E-15 2.026E-17 0.000E+00
 ETOT 20  -30.796546344768      3.553E-15 4.039E-18 0.000E+00
 ETOT 21  -30.796546344768     -1.421E-14 6.441E-19 0.000E+00
 ETOT 22  -30.796546344768      3.553E-15 1.305E-19 0.000E+00
 ETOT 23  -30.796546344768      0.000E+00 2.069E-20 0.000E+00
 ETOT 24  -30.796546344768     -3.553E-15 9.942E-21 0.000E+00

 At SCF step   24   max residual=  9.94E-21 < tolwfr=  1.00E-20 =>converged.

 ----iterations are completed or convergence reached----

 dfpt_looppert: DFPT cycle converged with prtwf=-1. Will skip output of the 1st-order WFK file.
 dfpt_looppert : ek2=    3.5898797359E+01
          f-sum rule ratio=    1.6321136372E+00
 prteigrs : about to open file /scratch/users/j/a/jabreu/flow_simple_remain_atoms/flow/w183/t1/tmpdata/tmp_1WF1_EIG
 Expectation of eigenvalue derivatives (hartree) for nkpt=   2  k points:
  (in case of degenerate eigenvalues, averaged derivative)
 kpt#   1, nband= 31, wtk=  0.50000, kpt=  0.5000  0.0000  0.5000 (reduced coord)
   0.00000   -0.00000   -0.00000    0.00000   -0.00000   -0.00000    0.00000   -0.00000
   0.00000   -0.00000   -0.00000   -0.00000   -0.00000    0.00000    0.00000   -0.00000
   0.00000   -0.00000    0.00000    0.00000    0.00000    0.00000   -0.00000   -0.00000
   0.00000    0.00000    0.00000    0.00000    0.00000   -0.00000    0.00000
 prteigrs : prtvol=0 or 1, do not print more k-points.

 Eight components of 2nd-order total energy (hartree) are
 1,2,3: 0th-order hamiltonian combined with 1st-order wavefunctions
     kin0=   2.99675920E+01 eigvalue=  -2.29116176E-01  local=  -2.03239490E+01
 4,5,6: 1st-order hamiltonian combined with 1st and 0th-order wfs
     kin1=  -5.85909167E+01  Hartree=   0.00000000E+00     xc=   0.00000000E+00
 7,8,9: eventually, occupation + non-local contributions
    edocc=   1.65542893E+01     enl0=   4.82773022E+00   enl1=  -3.00217596E+00
 1-9 gives the relaxation energy (to be shifted if some occ is /=2.0)
   erelax=  -3.07965463E+01
  No Ewald or frozen-wf contrib.: the relaxation energy is the total one
 2DEtotal=   -0.3079654634E+02 Ha. Also 2DEtotal=   -0.838016644150E+03 eV
    (  non-var. 2DEtotal :   -3.0796546345E+01 Ha)

 CALCULATION OF EFFECTIVE MASSES
 NOTE : Additional infos (eff. mass eigenvalues, eigenvectors and, if degenerate, average mass) are available in stdout.

 K-point ( 0.500, 0.000, 0.500) | band =    22
 Effective mass tensor:
             -6.6872180216             -2.3370002715             -0.0250742222
             -2.3370002715             -3.9887294242             -0.0144767659
             -0.0250742222             -0.0144767659             -0.1278285116
 Effective mass tensor eigenvalues:
             -8.0366034715             -2.6394499696             -0.1277225163
 Angular average effective mass 1/(<1/m>)=  -0.3600243141
 Angular average effective mass for Frohlich model (<m**0.5>)**2=  -0.7845752705
 Effective masses along directions: (cart. coord. / red. coord. -> eff. mass)
    1:   1.000000  0.000000  0.000000 /   0.894427 -0.447214  0.000000 ->  -5.3158128141
    2:   0.000000  1.000000  0.000000 /   0.000000  1.000000  0.000000 ->  -3.1717559750
    3:   0.000000  0.000000  1.000000 /   0.000000  0.000000  1.000000 ->  -0.1277242009
    4:   0.577350  0.577350  0.577350 /   0.706405  0.258562  0.658891 ->  -0.3733457252
    5:   0.000000  0.707107  0.707107 /   0.000000  0.680413  0.732828 ->  -0.2464132954
    6:   0.707107  0.000000  0.707107 /   0.686803 -0.343401  0.640607 ->  -0.2509841124
    7:   0.707107  0.707107  0.000000 /   0.939071  0.343724  0.000000 ->  -7.0636168261

 COMMENTS:
 - At k-point ( 0.000, 0.000, 0.500), bands    23 through    24
   are DEGENERATE (effective mass tensor is therefore not defined).
   See Section IIIB Eqs. (67)-(70) and Appendix E of PRB 93 205147 (2016).
 - Angular average effective mass for Frohlich model is to be averaged over degenerate bands. See later.
 - Associated theta integrals calculated with ntheta=   1000 points.

 K-point ( 0.000, 0.000, 0.500) | band =    23
 Transport equivalent effective mass tensor:
              1.0002752737              0.0000000000             -0.0000000000
              0.0000000000              1.0002752709              0.0000000005
             -0.0000000000              0.0000000005              0.1622553739
 Transport equivalent effective mass tensor eigenvalues:
              1.0002752737              1.0002752709              0.1622553739
 Angular average effective mass 1/(<1/m>)=   0.3456945268
 Angular average effective mass for Frohlich model (<m**0.5>)**2=   0.4574689161
 Effective masses along directions: (cart. coord. / red. coord. -> eff. mass)
    1:   1.000000  0.000000  0.000000 /   0.894427 -0.447214  0.000000 ->   0.9280610028
    2:   0.000000  1.000000  0.000000 /   0.000000  1.000000  0.000000 ->   0.9280610029
    3:   0.000000  0.000000  1.000000 /   0.000000  0.000000  1.000000 ->   0.1368996247
    4:   0.577350  0.577350  0.577350 /   0.706405  0.258562  0.658891 ->   0.3634705241
    5:   0.000000  0.707107  0.707107 /   0.000000  0.680413  0.732828 ->   0.2627881560
    6:   0.707107  0.000000  0.707107 /   0.686803 -0.343401  0.640607 ->   0.2645897652
    7:   0.707107  0.707107  0.000000 /   0.939071  0.343724  0.000000 ->   0.9280610029

 K-point ( 0.000, 0.000, 0.500) | band =    24
 Transport equivalent effective mass tensor:
              0.8307830839              0.0000000000             -0.0000000000
              0.0000000000              0.8307830871              0.0000000001
             -0.0000000000              0.0000000001              0.1206048495
 Transport equivalent effective mass tensor eigenvalues:
              0.8307830871              0.8307830839              0.1206048495
 Angular average effective mass 1/(<1/m>)=   0.2872848439
 Angular average effective mass for Frohlich model (<m**0.5>)**2=   0.3679752141
 Effective masses along directions: (cart. coord. / red. coord. -> eff. mass)
    1:   1.000000  0.000000  0.000000 /   0.894427 -0.447214  0.000000 ->   0.8487145620
    2:   0.000000  1.000000  0.000000 /   0.000000  1.000000  0.000000 ->   0.8487145620
    3:   0.000000  0.000000  1.000000 /   0.000000  0.000000  1.000000 ->   0.1368996247
    4:   0.577350  0.577350  0.577350 /   0.706405  0.258562  0.658891 ->   0.2760647635
    5:   0.000000  0.707107  0.707107 /   0.000000  0.680413  0.732828 ->   0.2161153177
    6:   0.707107  0.000000  0.707107 /   0.686803 -0.343401  0.640607 ->   0.2149118687
    7:   0.707107  0.707107  0.000000 /   0.939071  0.343724  0.000000 ->   0.8487145620

 Angular average effective mass for Frohlich model, averaged over degenerate bands.
 Value of     (<<m**0.5>>)**2 =     4.115056E-01
 Absolute Value of <<m**0.5>> =     6.414870E-01

 END OF EFFECTIVE MASSES SECTION

 ---- first-order wavefunction calculations are completed ----

 Total localisation tensor (bohr^2) in cartesian coordinates
  WARNING : still subject to testing - especially symmetries.
      direction              matrix element
   alpha     beta       real part   imaginary part
     1        1       1.8105128384    0.0000000000
     1        2      -0.6433445206    0.0000000000
     1        3       0.0000000000    0.0000000000
     2        1      -0.6433445206    0.0000000000
     2        2       1.1143053964    0.0000000000
     2        3       0.0000000000    0.0000000000
     3        1       0.0000000000    0.0000000000
     3        2       0.0000000000    0.0000000000
     3        3       6.4878379718    0.0000000000

 respfn : d/dk was computed, but no 2DTE, so no DDB output.

== END DATASET(S) ==============================================================

 -outvars: echo values of variables after computation  --------
            acell      1.0000000000E+00  1.0000000000E+00  1.0000000000E+00 Bohr
              amu      1.32905430E+02  1.95080000E+02  1.20110000E+01
             ecut      4.20000000E+01 Hartree
           etotal     -3.0796546345E+01
            fcart      0.0000000000E+00  0.0000000000E+00  0.0000000000E+00
                       0.0000000000E+00  0.0000000000E+00  0.0000000000E+00
                       0.0000000000E+00  0.0000000000E+00  0.0000000000E+00
                       0.0000000000E+00  0.0000000000E+00  0.0000000000E+00
                       0.0000000000E+00  0.0000000000E+00  0.0000000000E+00
-          fftalg         512
           irdden           1
           irdwfk           1
           istwfk        1    1
              ixc     -116133
              kpt      5.00000000E-01  0.00000000E+00  5.00000000E-01
                       0.00000000E+00  0.00000000E+00  5.00000000E-01
           kptopt           0
P           mkmem           2
P          mkqmem           2
P          mk1mem           2
            natom           5
            nband          31
           nbdbuf           4
            ngfft          64      64      60
             nkpt           2
            nstep        2000
             nsym          12
           ntypat           3
              occ      2.000000  2.000000  2.000000  2.000000  2.000000  2.000000
                       2.000000  2.000000  2.000000  2.000000  2.000000  2.000000
                       2.000000  2.000000  2.000000  2.000000  2.000000  2.000000
                       2.000000  2.000000  2.000000  2.000000  0.000000  0.000000
                       0.000000  0.000000  0.000000  0.000000  0.000000  0.000000
                       0.000000
        optdriver           1
            prtwf          -1
            rfdir           1       1       1
           rfelfd           2
            rprim      1.0546812741E+01  0.0000000000E+00  0.0000000000E+00
                      -5.2734063703E+00  9.1338077623E+00  0.0000000000E+00
                       0.0000000000E+00  0.0000000000E+00  9.8374209296E+00
          spgroup         164
           strten      0.0000000000E+00  0.0000000000E+00  0.0000000000E+00
                       0.0000000000E+00  0.0000000000E+00  0.0000000000E+00
           symrel      1  0  0   0  1  0   0  0  1      -1  0  0   0 -1  0   0  0 -1
                      -1  0  0   1  1  0   0  0  1       1  0  0  -1 -1  0   0  0 -1
                       0  1  0  -1 -1  0   0  0  1       0 -1  0   1  1  0   0  0 -1
                       0 -1  0  -1  0  0   0  0  1       0  1  0   1  0  0   0  0 -1
                      -1 -1  0   1  0  0   0  0  1       1  1  0  -1  0  0   0  0 -1
                       1  1  0   0 -1  0   0  0  1      -1 -1  0   0  1  0   0  0 -1
           tolwfr      1.00000000E-20
            typat      1  1  2  3  3
           useylm           1
              wtk        0.50000    0.50000
           xangst     -7.0500566530E-16  3.2222685970E+00  1.4065229889E+00
                       2.7905664628E+00  1.6111342985E+00  3.7992159583E+00
                       0.0000000000E+00  0.0000000000E+00  0.0000000000E+00
                       0.0000000000E+00  0.0000000000E+00  1.9653382420E+00
                       0.0000000000E+00  0.0000000000E+00  3.2404007053E+00
            xcart     -1.3322676296E-15  6.0892051749E+00  2.6579432487E+00
                       5.2734063703E+00  3.0446025874E+00  7.1794776809E+00
                       0.0000000000E+00  0.0000000000E+00  0.0000000000E+00
                       0.0000000000E+00  0.0000000000E+00  3.7139510358E+00
                       0.0000000000E+00  0.0000000000E+00  6.1234698938E+00
             xred      3.3333333333E-01  6.6666666667E-01  2.7018700000E-01
                       6.6666666667E-01  3.3333333333E-01  7.2981300000E-01
                       0.0000000000E+00  0.0000000000E+00  0.0000000000E+00
                       0.0000000000E+00  0.0000000000E+00  3.7753300000E-01
                       0.0000000000E+00  0.0000000000E+00  6.2246700000E-01
            znucl       55.00000   78.00000    6.00000

- Timing analysis has been suppressed with timopt=0

 Suggested references for the acknowledgment of ABINIT usage.

 Calculation completed.
.Delivered   2 WARNINGs and   5 COMMENTs to log file.