.Version 9.5.2 of ABINIT

 ABINIT is a project of the Universite Catholique de Louvain,
 Corning Inc. and other collaborators, see ~abinit/doc/developers/contributors.txt .
 acknowledgments of the ABINIT effort.

.Starting date : Tue 25 May 2021.
- ( at 11h17 )

- input  file    -> /scratch/users/j/a/jabreu/flow_simple_10atoms/flow/w473/t1/run.abi
- output file    -> /scratch/users/j/a/jabreu/flow_simple_10atoms/flow/w473/t1/run.abo
- root for input  files -> /scratch/users/j/a/jabreu/flow_simple_10atoms/flow/w473/t1/indata/in
- root for output files -> /scratch/users/j/a/jabreu/flow_simple_10atoms/flow/w473/t1/outdata/out

 Symmetries : space group Cm c m (# 63); Bravais oC (1-face-center ortho.)
     intxc =       0      iscf =       7    lmnmax =      18     lnmax =       6
     mgfft =      90  mpssoang =       3    mqgrid =    3245     natom =      10
  nloc_mem =       1    nspden =       1   nspinor =       1    nsppol =       1
      nsym =       8    n1xccc =    2501    ntypat =       4    occopt =       1
   xclevel =       2
-    mband =          53        mffmem =           1         mkmem =           2
-   mkqmem =           2        mk1mem =           2           mpw =       21214
      nfft =      583200          nkpt =           2
  Rough estimation (10% accuracy) of disk space for files :

------------- Echo of variables that govern the present computation ------------
-
- outvars: echo of selected default values
-   iomode0 =  0 , fftalg0 =512 , wfoptalg0 =  0
-
- outvars: echo of global parameters not present in the input file
-  max_nthreads =    0
-
 -outvars: echo values of preprocessed input variables --------
            acell      1.0000000000E+00  1.0000000000E+00  1.0000000000E+00 Bohr
              amu      8.76200000E+01  2.08980370E+02  1.26904470E+02
                       1.59994000E+01
             ecut      4.40000000E+01 Hartree
-          fftalg         512
           irdden           1
           irdwfk           1
              ixc     -116133
              kpt      2.97812011E-01  2.97812011E-01  0.00000000E+00
                      -5.00000000E-01  5.00000000E-01  0.00000000E+00
           kptopt           0
P           mkmem           2
P          mkqmem           2
P          mk1mem           2
            natom          10
            nband          53
           nbdbuf           4
            ngfft          90      90      72
             nkpt           2
            nstep        2000
             nsym           8
           ntypat           4
              occ      2.000000  2.000000  2.000000  2.000000  2.000000  2.000000
                       2.000000  2.000000  2.000000  2.000000  2.000000  2.000000
                       2.000000  2.000000  2.000000  2.000000  2.000000  2.000000
                       2.000000  2.000000  2.000000  2.000000  2.000000  2.000000
                       2.000000  2.000000  2.000000  2.000000  2.000000  2.000000
                       2.000000  2.000000  2.000000  2.000000  2.000000  2.000000
                       2.000000  2.000000  2.000000  2.000000  2.000000  2.000000
                       2.000000  2.000000  0.000000  0.000000  0.000000  0.000000
                       0.000000  0.000000  0.000000  0.000000  0.000000
        optdriver           1
            prtwf          -1
            rfdir           1       1       1
           rfelfd           2
            rprim      1.3804799204E+01  0.0000000000E+00  0.0000000000E+00
                      -9.3722364927E+00  1.0135761649E+01  0.0000000000E+00
                       0.0000000000E+00  0.0000000000E+00  1.0867043141E+01
          spgroup          63
           symrel      1  0  0   0  1  0   0  0  1      -1  0  0   0 -1  0   0  0 -1
                       0  1  0   1  0  0   0  0 -1       0 -1  0  -1  0  0   0  0  1
                      -1  0  0   0 -1  0   0  0  1       1  0  0   0  1  0   0  0 -1
                       0 -1  0  -1  0  0   0  0 -1       0  1  0   1  0  0   0  0  1
            tnons      0.0000000  0.0000000  0.0000000    -0.0000000 -0.0000000 -0.0000000
                      -0.0000000 -0.0000000 -0.0000000    -0.0000000 -0.0000000  0.0000000
                      -0.0000000 -0.0000000  0.5000000     0.0000000  0.0000000  0.5000000
                      -0.0000000 -0.0000000  0.5000000    -0.0000000 -0.0000000  0.5000000
           tolwfr      1.00000000E-20
            typat      1  1  2  2  3  3  4  4  4  4
           useylm           1
              wtk        0.50000    0.50000
           xangst      6.1592886697E+00  5.0112246126E-01  4.3129436662E+00
                      -3.8136775071E+00  4.8624915948E+00  1.4376478887E+00
                       2.1011374588E+00  2.2758297165E+00  4.3129436662E+00
                       2.4447370379E-01  3.0877843396E+00  1.4376478887E+00
                      -1.9562656017E+00  4.0502097913E+00  4.3129436662E+00
                       4.3018767644E+00  1.3134042648E+00  1.4376478887E+00
                       1.7205925754E+00  3.9344093639E+00  2.8752957774E+00
                       1.7205925754E+00  3.9344093639E+00  0.0000000000E+00
                       6.2501858723E-01  1.4292046922E+00  0.0000000000E+00
                       6.2501858723E-01  1.4292046922E+00  2.8752957774E+00
            xcart      1.1639368759E+01  9.4698421082E-01  8.1502823556E+00
                      -7.2068060475E+00  9.1887774377E+00  2.7167607852E+00
                       3.9705743647E+00  4.3006948893E+00  8.1502823556E+00
                       4.6198834686E-01  5.8350667592E+00  2.7167607852E+00
                      -3.6968062305E+00  7.6537872863E+00  8.1502823556E+00
                       8.1293689421E+00  2.4819743622E+00  2.7167607852E+00
                       3.2514487538E+00  7.4349561924E+00  5.4335215704E+00
                       3.2514487538E+00  7.4349561924E+00  0.0000000000E+00
                       1.1811139578E+00  2.7008054561E+00  0.0000000000E+00
                       1.1811139578E+00  2.7008054561E+00  5.4335215704E+00
             xred      9.0657000000E-01  9.3430000000E-02  7.5000000000E-01
                       9.3430000000E-02  9.0657000000E-01  2.5000000000E-01
                       5.7569100000E-01  4.2430900000E-01  7.5000000000E-01
                       4.2430900000E-01  5.7569100000E-01  2.5000000000E-01
                       2.4487300000E-01  7.5512700000E-01  7.5000000000E-01
                       7.5512700000E-01  2.4487300000E-01  2.5000000000E-01
                       7.3353700000E-01  7.3353700000E-01  5.0000000000E-01
                       7.3353700000E-01  7.3353700000E-01  0.0000000000E+00
                       2.6646300000E-01  2.6646300000E-01  0.0000000000E+00
                       2.6646300000E-01  2.6646300000E-01  5.0000000000E-01
            znucl       38.00000   83.00000   53.00000    8.00000

 chkinp: Checking input parameters for consistency.

== DATASET  1 ==================================================================
-   mpi_nproc: 1, omp_nthreads: -1 (-1 if OMP is not activated)

--- !DatasetInfo
iteration_state: {dtset: 1, }
dimensions: {natom: 10, nkpt: 2, mband: 53, nsppol: 1, nspinor: 1, nspden: 1, mpw: 21214, }
cutoff_energies: {ecut:  44.0, pawecutdg:  -1.0, }
electrons: {nelect:   8.80000000E+01, charge:   0.00000000E+00, occopt:   1.00000000E+00, tsmear:   1.00000000E-02, }
meta: {optdriver: 1, rfelfd: 2, }
...

 Real(R)+Recip(G) space primitive vectors, cartesian coordinates (Bohr,Bohr^-1):
 R(1)= 13.8047992  0.0000000  0.0000000  G(1)=  0.0724386  0.0669818  0.0000000
 R(2)= -9.3722365 10.1357616  0.0000000  G(2)=  0.0000000  0.0986606  0.0000000
 R(3)=  0.0000000  0.0000000 10.8670431  G(3)=  0.0000000  0.0000000  0.0920214
 Unit cell volume ucvol=  1.5205401E+03 bohr^3
 Angles (23,13,12)=  9.00000000E+01  9.00000000E+01  1.32758640E+02 degrees

 getcut: wavevector=  0.0000  0.0000  0.0000  ngfft=  90  90  72
         ecut(hartree)=     44.000   => boxcut(ratio)=   2.18354

--- Pseudopotential description ------------------------------------------------
- pspini: atom type   1  psp file is /scratch/users/j/a/jabreu/pseudos/PBEsol/Sr.psp8
- pspatm: opening atomic psp file    /scratch/users/j/a/jabreu/pseudos/PBEsol/Sr.psp8
- Sr    ONCVPSP-3.3.0  r_core=   1.66721   1.31335   1.51547
- 38.00000  10.00000    180112                znucl, zion, pspdat
    8 -116133    2    4       600   0.00000   pspcod,pspxc,lmax,lloc,mmax,r2well
    5.99000000000000    6.00000000000000    0.00000000000000   rchrg,fchrg,qchrg
     nproj     2     2     2
     extension_switch     1
  pspatm : epsatm=   12.46450977
         --- l  ekb(1:nproj) -->
             0   10.029206    1.044171
             1    7.472414    1.670829
             2    4.142950    0.968140
 pspatm: atomic psp has been read  and splines computed

- pspini: atom type   2  psp file is /scratch/users/j/a/jabreu/pseudos/PBEsol/Bi.psp8
- pspatm: opening atomic psp file    /scratch/users/j/a/jabreu/pseudos/PBEsol/Bi.psp8
- Bi    ONCVPSP-3.3.0  r_core=   2.42776   2.51622   2.10397
- 83.00000  15.00000    180112                znucl, zion, pspdat
    8 -116133    2    4       600   0.00000   pspcod,pspxc,lmax,lloc,mmax,r2well
    5.99000000000000    6.00000000000000    0.00000000000000   rchrg,fchrg,qchrg
     nproj     2     2     2
     extension_switch     1
  pspatm : epsatm=   42.90078186
         --- l  ekb(1:nproj) -->
             0    6.017688    0.961606
             1    4.379371    0.528498
             2   -3.458170   -0.753782
 pspatm: atomic psp has been read  and splines computed

[...]

- pspini: atom type   4  psp file is /scratch/users/j/a/jabreu/pseudos/PBEsol/O.psp8
- pspatm: opening atomic psp file    /scratch/users/j/a/jabreu/pseudos/PBEsol/O.psp8
- O     ONCVPSP-3.3.0  r_core=   1.35509   1.45563   1.26150
-  8.00000   6.00000    180112                znucl, zion, pspdat
    8 -116133    2    4       600   0.00000   pspcod,pspxc,lmax,lloc,mmax,r2well
    5.99000000000000    4.00000000000000    0.00000000000000   rchrg,fchrg,qchrg
     nproj     2     2     1
     extension_switch     1
  pspatm : epsatm=    6.22910522
         --- l  ekb(1:nproj) -->
             0    6.050032    0.820363
             1   -4.739617   -1.153841
             2   -1.335834
 pspatm: atomic psp has been read  and splines computed

   1.51299803E+04                                ecore*ucvol(ha*bohr**3)

 ==>  initialize data related to q vector <==

 The list of irreducible perturbations for this q vector is:
    1)    idir= 1    ipert=  11
    2)    idir= 2    ipert=  11
    3)    idir= 3    ipert=  11

 Perturbation wavevector (in red.coord.)   0.000000  0.000000  0.000000
 Perturbation : derivative vs k along direction   1

 dfpt_looppert : COMMENT -
  In a d/dk calculation, iscf is set to -3 automatically.
 The set of symmetries contains only one element for this perturbation.
 symkpt : not enough symmetry to change the number of k points.

 Initialisation of the first-order wave-functions :
  ireadwf=   0

--- !BeginCycle
iteration_state: {dtset: 1, }
solver: {iscf: 7, nstep: 2000, nline: 4, wfoptalg: 0, }
tolerances: {tolwfr: 1.00E-20, }
...

[...]
 ETOT 14  -49.837874914906      0.000E+00 1.016E-14 0.000E+00
 ETOT 15  -49.837874914906      0.000E+00 6.683E-16 0.000E+00
 ETOT 16  -49.837874914906      0.000E+00 1.941E-16 0.000E+00
 ETOT 17  -49.837874914906      0.000E+00 1.302E-17 0.000E+00
 ETOT 18  -49.837874914906     -7.105E-15 3.835E-18 0.000E+00
 ETOT 19  -49.837874914906      7.105E-15 2.592E-19 0.000E+00
 ETOT 20  -49.837874914906      0.000E+00 7.678E-20 0.000E+00
 ETOT 21  -49.837874914906     -1.421E-14 9.974E-21 0.000E+00

 At SCF step   21   max residual=  9.97E-21 < tolwfr=  1.00E-20 =>converged.

 ----iterations are completed or convergence reached----

 dfpt_looppert: DFPT cycle converged with prtwf=-1. Will skip output of the 1st-order WFK file.
 dfpt_looppert : ek2=    6.7633151730E+01
          f-sum rule ratio=    1.0051861192E+00
 prteigrs : about to open file /scratch/users/j/a/jabreu/flow_simple_10atoms/flow/w473/t1/tmpdata/tmp_1WF1_EIG
 Expectation of eigenvalue derivatives (hartree) for nkpt=   2  k points:
  (in case of degenerate eigenvalues, averaged derivative)
 kpt#   1, nband= 53, wtk=  0.50000, kpt=  0.2978  0.2978  0.0000 (reduced coord)
  -0.00000   -0.00001   -0.00029    0.00047   -0.00013    0.00000   -0.00001   -0.00000
   0.00001   -0.00001   -0.00001   -0.00000    0.00555   -0.00689   -0.05446    0.06790
  -0.00107   -0.00009   -0.00029   -0.03267    0.03804   -0.01459   -0.03449    0.02751
   0.01596   -0.01274    0.00492   -0.01878   -0.00313   -0.01390   -0.05938    0.06930
   0.01697   -0.03756   -0.03721    0.07868   -0.03639    0.05630    0.05201    0.02144
  -0.01299   -0.00995   -0.01020   -0.00368    0.02746   -0.09592   -0.07031   -0.03758
  -0.11118    0.04659    0.05834    0.02181   -0.00974
 prteigrs : prtvol=0 or 1, do not print more k-points.

 Eight components of 2nd-order total energy (hartree) are
 1,2,3: 0th-order hamiltonian combined with 1st-order wavefunctions
     kin0=   6.43662556E+01 eigvalue=   4.72444638E+00  local=  -3.52353926E+01
 4,5,6: 1st-order hamiltonian combined with 1st and 0th-order wfs
     kin1=  -6.79839053E+01  Hartree=   0.00000000E+00     xc=   0.00000000E+00
 7,8,9: eventually, occupation + non-local contributions
    edocc=   9.13578140E+00     enl0=   6.84678414E+00   enl1=  -3.16918445E+01
 1-9 gives the relaxation energy (to be shifted if some occ is /=2.0)
   erelax=  -4.98378749E+01
  No Ewald or frozen-wf contrib.: the relaxation energy is the total one
 2DEtotal=   -0.4983787491E+02 Ha. Also 2DEtotal=   -0.135615754508E+04 eV
    (  non-var. 2DEtotal :   -4.9837874915E+01 Ha)

 Perturbation wavevector (in red.coord.)   0.000000  0.000000  0.000000
 Perturbation : derivative vs k along direction   2
 The set of symmetries contains only one element for this perturbation.
 symkpt : not enough symmetry to change the number of k points.

[...]

 Perturbation wavevector (in red.coord.)   0.000000  0.000000  0.000000
 Perturbation : derivative vs k along direction   3
 The set of symmetries contains only one element for this perturbation.
 symkpt : not enough symmetry to change the number of k points.

 Initialisation of the first-order wave-functions :
  ireadwf=   0

--- !BeginCycle
iteration_state: {dtset: 1, }
solver: {iscf: 7, nstep: 2000, nline: 4, wfoptalg: 0, }
tolerances: {tolwfr: 1.00E-20, }
...

     iter   2DEtotal(Ha)        deltaE(Ha) residm    vres2
-ETOT  1  -44.935639556906     -4.494E+01 6.347E-02 0.000E+00
 ETOT  2  -44.985447947966     -4.981E-02 2.938E-03 0.000E+00
 ETOT  3  -44.985728079711     -2.801E-04 1.917E-04 0.000E+00
 ETOT  4  -44.985731683448     -3.604E-06 1.090E-05 0.000E+00
 ETOT  5  -44.985731744128     -6.068E-08 1.106E-06 0.000E+00
 ETOT  6  -44.985731745323     -1.195E-09 9.631E-08 0.000E+00
 ETOT  7  -44.985731745349     -2.613E-11 1.173E-08 0.000E+00
 ETOT  8  -44.985731745350     -6.395E-13 1.246E-09 0.000E+00
 ETOT  9  -44.985731745350      1.421E-14 1.576E-10 0.000E+00
 ETOT 10  -44.985731745350     -1.421E-14 1.754E-11 0.000E+00
 ETOT 11  -44.985731745350      1.421E-14 2.229E-12 0.000E+00
 ETOT 12  -44.985731745350      0.000E+00 2.570E-13 0.000E+00
 ETOT 13  -44.985731745350     -7.105E-15 3.353E-14 0.000E+00
 ETOT 14  -44.985731745350      0.000E+00 4.673E-15 0.000E+00
 ETOT 15  -44.985731745350     -7.105E-15 6.055E-16 0.000E+00
 ETOT 16  -44.985731745350      0.000E+00 8.158E-17 0.000E+00
 ETOT 17  -44.985731745350      0.000E+00 1.062E-17 0.000E+00
 ETOT 18  -44.985731745350      0.000E+00 1.483E-18 0.000E+00
 ETOT 19  -44.985731745350      7.105E-15 1.992E-19 0.000E+00
 ETOT 20  -44.985731745350      0.000E+00 2.855E-20 0.000E+00
 ETOT 21  -44.985731745350     -7.105E-15 9.966E-21 0.000E+00

 At SCF step   21   max residual=  9.97E-21 < tolwfr=  1.00E-20 =>converged.

 ----iterations are completed or convergence reached----

 dfpt_looppert: DFPT cycle converged with prtwf=-1. Will skip output of the 1st-order WFK file.
 dfpt_looppert : ek2=    5.8836878279E+01
          f-sum rule ratio=    1.0669959298E+00
 prteigrs : about to open file /scratch/users/j/a/jabreu/flow_simple_10atoms/flow/w473/t1/tmpdata/tmp_1WF1_EIG
 Expectation of eigenvalue derivatives (hartree) for nkpt=   2  k points:
  (in case of degenerate eigenvalues, averaged derivative)
 kpt#   1, nband= 53, wtk=  0.50000, kpt=  0.2978  0.2978  0.0000 (reduced coord)
  -0.00000   -0.00000    0.00000    0.00000   -0.00000   -0.00000    0.00000    0.00000
   0.00000    0.00000   -0.00000   -0.00000    0.00000   -0.00000   -0.00000    0.00000
   0.00000   -0.00000    0.00000   -0.00000   -0.00000    0.00000    0.00000   -0.00000
   0.00000   -0.00000   -0.00000    0.00000   -0.00000    0.00000   -0.00000   -0.00000
   0.00000   -0.00000   -0.00000    0.00000    0.00000    0.00000   -0.00000   -0.00000
  -0.00000    0.00000   -0.00000    0.00000   -0.00000    0.00000   -0.00000    0.00000
   0.00000    0.00000    0.00000    0.00000    0.00000
 prteigrs : prtvol=0 or 1, do not print more k-points.

 Eight components of 2nd-order total energy (hartree) are
 1,2,3: 0th-order hamiltonian combined with 1st-order wavefunctions
     kin0=   5.59287532E+01 eigvalue=   4.45660347E+00  local=  -3.10699886E+01
 4,5,6: 1st-order hamiltonian combined with 1st and 0th-order wfs
     kin1=  -6.27787096E+01  Hartree=   0.00000000E+00     xc=   0.00000000E+00
 7,8,9: eventually, occupation + non-local contributions
    edocc=   9.33612812E+00     enl0=   6.33423557E+00   enl1=  -2.71927538E+01
 1-9 gives the relaxation energy (to be shifted if some occ is /=2.0)
   erelax=  -4.49857317E+01
  No Ewald or frozen-wf contrib.: the relaxation energy is the total one
 2DEtotal=   -0.4498573175E+02 Ha. Also 2DEtotal=   -0.122412401475E+04 eV
    (  non-var. 2DEtotal :   -4.4985731745E+01 Ha)

 CALCULATION OF EFFECTIVE MASSES
 NOTE : Additional infos (eff. mass eigenvalues, eigenvectors and, if degenerate, average mass) are available in stdout.

 K-point ( 0.298, 0.298, 0.000) | band =    44
 Effective mass tensor:
             -2.2872169563              0.5872573687              0.0000007080
              0.5872573687             -1.2011792307             -0.0000003633
              0.0000007080             -0.0000003633             -4.0781278103
 Effective mass tensor eigenvalues:
             -4.0781278103             -2.5440360161             -0.9443601708
 Angular average effective mass 1/(<1/m>)=  -1.7676122812
 Angular average effective mass for Frohlich model (<m**0.5>)**2=  -1.9869193019
 Effective masses along directions: (cart. coord. / red. coord. -> eff. mass)
    1:   1.000000  0.000000  0.000000 /   0.827345 -0.561694  0.000000 ->  -2.0001064166
    2:   0.000000  1.000000  0.000000 /   0.000000  1.000000  0.000000 ->  -1.0503972000
    3:   0.000000  0.000000  1.000000 /   0.000000  0.000000  1.000000 ->  -4.0781278103
    4:   0.577350  0.577350  0.577350 /   0.785013  0.043418  0.617956 ->  -1.3723197119
    5:   0.000000  0.707107  0.707107 /   0.000000  0.682073  0.731284 ->  -1.6705209891
    6:   0.707107  0.000000  0.707107 /   0.693276 -0.470673  0.545742 ->  -2.6839005781
    7:   0.707107  0.707107  0.000000 /   0.998474  0.055224  0.000000 ->  -1.0304663013

 K-point (-0.500, 0.500, 0.000) | band =    45
 Effective mass tensor:
              7.5575473275             -3.1236079005              0.0000000186
             -3.1236079005              1.7809332023             -0.0000000087
              0.0000000186             -0.0000000087              0.3226774981
 Effective mass tensor eigenvalues:
              0.3226774981              0.4149196371              8.9235608927
 Angular average effective mass 1/(<1/m>)=   0.5336902967
 Angular average effective mass for Frohlich model (<m**0.5>)**2=   0.7113636586
 Effective masses along directions: (cart. coord. / red. coord. -> eff. mass)
    1:   1.000000  0.000000  0.000000 /   0.827345 -0.561694  0.000000 ->   2.0790002920
    2:   0.000000  1.000000  0.000000 /   0.000000  1.000000  0.000000 ->   0.4899156415
    3:   0.000000  0.000000  1.000000 /   0.000000  0.000000  1.000000 ->   0.3226774981
    4:   0.577350  0.577350  0.577350 /   0.785013  0.043418  0.617956 ->   0.4104805721
    5:   0.000000  0.707107  0.707107 /   0.000000  0.682073  0.731284 ->   0.3890870976
    6:   0.707107  0.000000  0.707107 /   0.693276 -0.470673  0.545742 ->   0.5586483062
    7:   0.707107  0.707107  0.000000 /   0.998474  0.055224  0.000000 ->   0.4751229036

 END OF EFFECTIVE MASSES SECTION

 ---- first-order wavefunction calculations are completed ----

 Total localisation tensor (bohr^2) in cartesian coordinates
  WARNING : still subject to testing - especially symmetries.
      direction              matrix element
   alpha     beta       real part   imaginary part
     1        1       2.8639997199    0.0000000000
     1        2      -0.9772051199    0.0000000000
     1        3       0.0000000000    0.0000000000
     2        1      -0.9772051199    0.0000000000
     2        2       1.0568147939    0.0000000000
     2        3       0.0000000000    0.0000000000
     3        1       0.0000000000    0.0000000000
     3        2       0.0000000000    0.0000000000
     3        3       1.2415877170    0.0000000000

 respfn : d/dk was computed, but no 2DTE, so no DDB output.

== END DATASET(S) ==============================================================

 -outvars: echo values of variables after computation  --------
            acell      1.0000000000E+00  1.0000000000E+00  1.0000000000E+00 Bohr
              amu      8.76200000E+01  2.08980370E+02  1.26904470E+02
                       1.59994000E+01
             ecut      4.40000000E+01 Hartree
           etotal     -4.4985731745E+01
            fcart      0.0000000000E+00  0.0000000000E+00  0.0000000000E+00
                       0.0000000000E+00  0.0000000000E+00  0.0000000000E+00
                       0.0000000000E+00  0.0000000000E+00  0.0000000000E+00
                       0.0000000000E+00  0.0000000000E+00  0.0000000000E+00
                       0.0000000000E+00  0.0000000000E+00  0.0000000000E+00
                       0.0000000000E+00  0.0000000000E+00  0.0000000000E+00
                       0.0000000000E+00  0.0000000000E+00  0.0000000000E+00
                       0.0000000000E+00  0.0000000000E+00  0.0000000000E+00
                       0.0000000000E+00  0.0000000000E+00  0.0000000000E+00
                       0.0000000000E+00  0.0000000000E+00  0.0000000000E+00
-          fftalg         512
           irdden           1
           irdwfk           1
              ixc     -116133
              kpt      2.97812011E-01  2.97812011E-01  0.00000000E+00
                      -5.00000000E-01  5.00000000E-01  0.00000000E+00
           kptopt           0
P           mkmem           2
P          mkqmem           2
P          mk1mem           2
            natom          10
            nband          53
           nbdbuf           4
            ngfft          90      90      72
             nkpt           2
            nstep        2000
             nsym           8
           ntypat           4
              occ      2.000000  2.000000  2.000000  2.000000  2.000000  2.000000
                       2.000000  2.000000  2.000000  2.000000  2.000000  2.000000
                       2.000000  2.000000  2.000000  2.000000  2.000000  2.000000
                       2.000000  2.000000  2.000000  2.000000  2.000000  2.000000
                       2.000000  2.000000  2.000000  2.000000  2.000000  2.000000
                       2.000000  2.000000  2.000000  2.000000  2.000000  2.000000
                       2.000000  2.000000  2.000000  2.000000  2.000000  2.000000
                       2.000000  2.000000  0.000000  0.000000  0.000000  0.000000
                       0.000000  0.000000  0.000000  0.000000  0.000000
        optdriver           1
            prtwf          -1
            rfdir           1       1       1
           rfelfd           2
            rprim      1.3804799204E+01  0.0000000000E+00  0.0000000000E+00
                      -9.3722364927E+00  1.0135761649E+01  0.0000000000E+00
                       0.0000000000E+00  0.0000000000E+00  1.0867043141E+01
          spgroup          63
           strten      0.0000000000E+00  0.0000000000E+00  0.0000000000E+00
                       0.0000000000E+00  0.0000000000E+00  0.0000000000E+00
           symrel      1  0  0   0  1  0   0  0  1      -1  0  0   0 -1  0   0  0 -1
                       0  1  0   1  0  0   0  0 -1       0 -1  0  -1  0  0   0  0  1
                      -1  0  0   0 -1  0   0  0  1       1  0  0   0  1  0   0  0 -1
                       0 -1  0  -1  0  0   0  0 -1       0  1  0   1  0  0   0  0  1
            tnons      0.0000000  0.0000000  0.0000000    -0.0000000 -0.0000000 -0.0000000
                      -0.0000000 -0.0000000 -0.0000000    -0.0000000 -0.0000000  0.0000000
                      -0.0000000 -0.0000000  0.5000000     0.0000000  0.0000000  0.5000000
                      -0.0000000 -0.0000000  0.5000000    -0.0000000 -0.0000000  0.5000000
           tolwfr      1.00000000E-20
            typat      1  1  2  2  3  3  4  4  4  4
           useylm           1
              wtk        0.50000    0.50000
           xangst      6.1592886697E+00  5.0112246126E-01  4.3129436662E+00
                      -3.8136775071E+00  4.8624915948E+00  1.4376478887E+00
                       2.1011374588E+00  2.2758297165E+00  4.3129436662E+00
                       2.4447370379E-01  3.0877843396E+00  1.4376478887E+00
                      -1.9562656017E+00  4.0502097913E+00  4.3129436662E+00
                       4.3018767644E+00  1.3134042648E+00  1.4376478887E+00
                       1.7205925754E+00  3.9344093639E+00  2.8752957774E+00
                       1.7205925754E+00  3.9344093639E+00  0.0000000000E+00
                       6.2501858723E-01  1.4292046922E+00  0.0000000000E+00
                       6.2501858723E-01  1.4292046922E+00  2.8752957774E+00
            xcart      1.1639368759E+01  9.4698421082E-01  8.1502823556E+00
                      -7.2068060475E+00  9.1887774377E+00  2.7167607852E+00
                       3.9705743647E+00  4.3006948893E+00  8.1502823556E+00
                       4.6198834686E-01  5.8350667592E+00  2.7167607852E+00
                      -3.6968062305E+00  7.6537872863E+00  8.1502823556E+00
                       8.1293689421E+00  2.4819743622E+00  2.7167607852E+00
                       3.2514487538E+00  7.4349561924E+00  5.4335215704E+00
                       3.2514487538E+00  7.4349561924E+00  0.0000000000E+00
                       1.1811139578E+00  2.7008054561E+00  0.0000000000E+00
                       1.1811139578E+00  2.7008054561E+00  5.4335215704E+00
             xred      9.0657000000E-01  9.3430000000E-02  7.5000000000E-01
                       9.3430000000E-02  9.0657000000E-01  2.5000000000E-01
                       5.7569100000E-01  4.2430900000E-01  7.5000000000E-01
                       4.2430900000E-01  5.7569100000E-01  2.5000000000E-01
                       2.4487300000E-01  7.5512700000E-01  7.5000000000E-01
                       7.5512700000E-01  2.4487300000E-01  2.5000000000E-01
                       7.3353700000E-01  7.3353700000E-01  5.0000000000E-01
                       7.3353700000E-01  7.3353700000E-01  0.0000000000E+00
                       2.6646300000E-01  2.6646300000E-01  0.0000000000E+00
                       2.6646300000E-01  2.6646300000E-01  5.0000000000E-01
            znucl       38.00000   83.00000   53.00000    8.00000

- Timing analysis has been suppressed with timopt=0

 Suggested references for the acknowledgment of ABINIT usage.

 Calculation completed.
.Delivered   2 WARNINGs and   7 COMMENTs to log file.