.Version 9.5.1 of ABINIT

 ABINIT is a project of the Universite Catholique de Louvain,
 Corning Inc. and other collaborators, see ~abinit/doc/developers/contributors.txt .
 acknowledgments of the ABINIT effort.

.Starting date : Tue 27 Apr 2021.
- ( at 15h30 )

- input  file    -> /scratch/users/j/a/jabreu/flow_simple/flow/w130/t1/run.abi
- output file    -> /scratch/users/j/a/jabreu/flow_simple/flow/w130/t1/run.abo
- root for input  files -> /scratch/users/j/a/jabreu/flow_simple/flow/w130/t1/indata/in
- root for output files -> /scratch/users/j/a/jabreu/flow_simple/flow/w130/t1/outdata/out

 Symmetries : space group F-4 3 m (#216); Bravais cF (face-center cubic)
     intxc =       0      iscf =       7    lmnmax =      18     lnmax =       6
     mgfft =      50  mpssoang =       3    mqgrid =    3001     natom =       3
  nloc_mem =       1    nspden =       1   nspinor =       1    nsppol =       1
      nsym =      24    n1xccc =    2501    ntypat =       3    occopt =       1
   xclevel =       2
-    mband =          31        mffmem =           1         mkmem =           2
-   mkqmem =           2        mk1mem =           2           mpw =        5346
      nfft =      125000          nkpt =           2
  Rough estimation (10% accuracy) of disk space for files :

------------- Echo of variables that govern the present computation ------------
-
- outvars: echo of selected default values
-   iomode0 =  0 , fftalg0 =512 , wfoptalg0 =  0
-
- outvars: echo of global parameters not present in the input file
-  max_nthreads =    0
-
 -outvars: echo values of preprocessed input variables --------
            acell      1.0000000000E+00  1.0000000000E+00  1.0000000000E+00 Bohr
              amu      4.78800000E+01  5.89332000E+01  1.21753000E+02
             ecut      4.80000000E+01 Hartree
-          fftalg         512
           irdden           1
           irdwfk           1
           istwfk        1    1
              ixc     -116133
              kpt      0.00000000E+00  0.00000000E+00  0.00000000E+00
                       5.00000000E-01  0.00000000E+00  5.00000000E-01
           kptopt           0
P           mkmem           2
P          mkqmem           2
P          mk1mem           2
            natom           3
            nband          31
           nbdbuf           4
            ngfft          50      50      50
             nkpt           2
            nstep         100
             nsym          24
           ntypat           3
              occ      2.000000  2.000000  2.000000  2.000000  2.000000  2.000000
                       2.000000  2.000000  2.000000  2.000000  2.000000  2.000000
                       2.000000  2.000000  2.000000  2.000000  2.000000  2.000000
                       2.000000  2.000000  2.000000  2.000000  0.000000  0.000000
                       0.000000  0.000000  0.000000  0.000000  0.000000  0.000000
                       0.000000
        optdriver           1
            prtwf          -1
            rfdir           1       1       1
           rfelfd           2
            rprim      6.7360595168E+00  0.0000000000E+00  3.8890657753E+00
                       2.2453531723E+00  6.3508178171E+00  3.8890657753E+00
                       0.0000000000E+00  0.0000000000E+00  7.7781315506E+00
          spgroup         216
           symrel      1  0  0   0  1  0   0  0  1       0 -1  1   0 -1  0   1 -1  0
                      -1  0  0  -1  0  1  -1  1  0       0  1 -1   1  0 -1   0  0 -1
                      -1  0  0  -1  1  0  -1  0  1       0 -1  1   1 -1  0   0 -1  0
                       1  0  0   0  0  1   0  1  0       0  1 -1   0  0 -1   1  0 -1
                      -1  0  1  -1  1  0  -1  0  0       0 -1  0   1 -1  0   0 -1  1
                       1  0 -1   0  0 -1   0  1 -1       0  1  0   0  0  1   1  0  0
                       1  0 -1   0  1 -1   0  0 -1       0 -1  0   0 -1  1   1 -1  0
                      -1  0  1  -1  0  0  -1  1  0       0  1  0   1  0  0   0  0  1
                       0  0 -1   0  1 -1   1  0 -1       1 -1  0   0 -1  1   0 -1  0
                       0  0  1   1  0  0   0  1  0      -1  1  0  -1  0  0  -1  0  1
                       0  0  1   0  1  0   1  0  0       1 -1  0   0 -1  0   0 -1  1
                       0  0 -1   1  0 -1   0  1 -1      -1  1  0  -1  0  1  -1  0  0
           tolwfr      1.00000000E-20
            typat      1  2  3
           useylm           1
              wtk        0.50000    0.50000
           xangst      0.0000000000E+00  0.0000000000E+00  0.0000000000E+00
                       1.1881897240E+00  8.4017701118E-01  2.0580049710E+00
                       2.3763794480E+00  1.6803540224E+00  4.1160099420E+00
            xcart      0.0000000000E+00  0.0000000000E+00  0.0000000000E+00
                       2.2453531723E+00  1.5877044543E+00  3.8890657753E+00
                       4.4907063446E+00  3.1754089086E+00  7.7781315506E+00
             xred      0.0000000000E+00  0.0000000000E+00  0.0000000000E+00
                       2.5000000000E-01  2.5000000000E-01  2.5000000000E-01
                       5.0000000000E-01  5.0000000000E-01  5.0000000000E-01
            znucl       22.00000   27.00000   51.00000

 chkinp: Checking input parameters for consistency.

== DATASET  1 ==================================================================
-   mpi_nproc: 1, omp_nthreads: -1 (-1 if OMP is not activated)

--- !DatasetInfo
iteration_state: {dtset: 1, }
dimensions: {natom: 3, nkpt: 2, mband: 31, nsppol: 1, nspinor: 1, nspden: 1, mpw: 5346, }
cutoff_energies: {ecut:  48.0, pawecutdg:  -1.0, }
electrons: {nelect:   4.40000000E+01, charge:   0.00000000E+00, occopt:   1.00000000E+00, tsmear:   1.00000000E-02, }
meta: {optdriver: 1, rfelfd: 2, }
...

 Real(R)+Recip(G) space primitive vectors, cartesian coordinates (Bohr,Bohr^-1):
 R(1)=  6.7360595  0.0000000  3.8890658  G(1)=  0.1484547 -0.0524867  0.0000000
 R(2)=  2.2453532  6.3508178  3.8890658  G(2)=  0.0000000  0.1574600  0.0000000
 R(3)=  0.0000000  0.0000000  7.7781316  G(3)= -0.0742274 -0.0524867  0.1285656
 Unit cell volume ucvol=  3.3274448E+02 bohr^3
 Angles (23,13,12)=  6.00000000E+01  6.00000000E+01  6.00000000E+01 degrees

 getcut: wavevector=  0.0000  0.0000  0.0000  ngfft=  50  50  50
         ecut(hartree)=     48.000   => boxcut(ratio)=   2.06197

--- Pseudopotential description ------------------------------------------------
- pspini: atom type   1  psp file is /scratch/users/j/a/jabreu/pseudos/PBEsol/Ti.psp8
- pspatm: opening atomic psp file    /scratch/users/j/a/jabreu/pseudos/PBEsol/Ti.psp8
- Ti    ONCVPSP-3.3.0  r_core=   1.35825   1.31050   1.66360
- 22.00000  12.00000    180112                znucl, zion, pspdat
    8 -116133    2    4       600   0.00000   pspcod,pspxc,lmax,lloc,mmax,r2well
    5.99000000000000    2.50000000000000    0.00000000000000   rchrg,fchrg,qchrg
     nproj     2     2     2
     extension_switch     1
  pspatm : epsatm=   14.76919902
         --- l  ekb(1:nproj) -->
             0   11.321950    1.254474
             1    1.946894   -0.084268
             2   -5.237105   -1.488377
 pspatm: atomic psp has been read  and splines computed

- pspini: atom type   2  psp file is /scratch/users/j/a/jabreu/pseudos/PBEsol/Co.psp8
- pspatm: opening atomic psp file    /scratch/users/j/a/jabreu/pseudos/PBEsol/Co.psp8
- Co    ONCVPSP-3.3.0  r_core=   1.26190   1.32357   1.66026
- 27.00000  17.00000    180112                znucl, zion, pspdat
    8 -116133    2    4       600   0.00000   pspcod,pspxc,lmax,lloc,mmax,r2well
    5.99000000000000    6.00000000000000    0.00000000000000   rchrg,fchrg,qchrg
     nproj     2     2     2
     extension_switch     1
  pspatm : epsatm=   18.79313233
         --- l  ekb(1:nproj) -->
             0    6.295970   -0.649806
             1   -2.108725   -0.098055
             2   -6.914380   -2.516418
 pspatm: atomic psp has been read  and splines computed

- pspini: atom type   3  psp file is /scratch/users/j/a/jabreu/pseudos/PBEsol/Sb.psp8
- pspatm: opening atomic psp file    /scratch/users/j/a/jabreu/pseudos/PBEsol/Sb.psp8
- Sb    ONCVPSP-3.3.0  r_core=   1.81962   2.12485   1.81962
- 51.00000  15.00000    180112                znucl, zion, pspdat
    8 -116133    2    4       600   0.00000   pspcod,pspxc,lmax,lloc,mmax,r2well
    5.99000000000000    5.00000000000000    0.00000000000000   rchrg,fchrg,qchrg
     nproj     2     2     2
     extension_switch     1
  pspatm : epsatm=   26.35641246
         --- l  ekb(1:nproj) -->
             0    9.727814    1.485032
             1    5.505335    0.704623
             2   -4.710637   -1.436443
 pspatm: atomic psp has been read  and splines computed

   2.63642473E+03                                ecore*ucvol(ha*bohr**3)

-inwffil : will read wavefunctions from disk file /scratch/users/j/a/jabreu/flow_simple/flow/w130/t1/indata/in_WFK

 ==>  initialize data related to q vector <==

 The list of irreducible perturbations for this q vector is:
    1)    idir= 1    ipert=   4
    2)    idir= 2    ipert=   4
    3)    idir= 3    ipert=   4

 Perturbation wavevector (in red.coord.)   0.000000  0.000000  0.000000
 Perturbation : derivative vs k along direction   1

 dfpt_looppert : COMMENT -
  In a d/dk calculation, iscf is set to -3 automatically.
 The set of symmetries contains only one element for this perturbation.
 symkpt : not enough symmetry to change the number of k points.

[...]

 Initialisation of the first-order wave-functions :
  ireadwf=   0

--- !BeginCycle
iteration_state: {dtset: 1, }
solver: {iscf: 7, nstep: 100, nline: 4, wfoptalg: 0, }
tolerances: {tolwfr: 1.00E-20, }
...

     iter   2DEtotal(Ha)        deltaE(Ha) residm    vres2
-ETOT  1  -65.508473948636     -6.551E+01 3.120E-01 0.000E+00
 ETOT  2  -65.608342568546     -9.987E-02 2.269E-02 0.000E+00
 ETOT  3  -65.610371409231     -2.029E-03 2.893E-03 0.000E+00
 ETOT  4  -65.610470557070     -9.915E-05 4.303E-04 0.000E+00
 ETOT  5  -65.610476054995     -5.498E-06 7.163E-05 0.000E+00
 ETOT  6  -65.610476379622     -3.246E-07 1.062E-05 0.000E+00
 ETOT  7  -65.610476399189     -1.957E-08 1.934E-06 0.000E+00
 ETOT  8  -65.610476400379     -1.190E-09 3.000E-07 0.000E+00
 ETOT  9  -65.610476400452     -7.316E-11 5.503E-08 0.000E+00
 ETOT 10  -65.610476400456     -4.491E-12 9.116E-09 0.000E+00
 ETOT 11  -65.610476400457     -3.268E-13 1.608E-09 0.000E+00
 ETOT 12  -65.610476400457      1.421E-14 2.783E-10 0.000E+00
 ETOT 13  -65.610476400457      0.000E+00 4.759E-11 0.000E+00
 ETOT 14  -65.610476400457      1.421E-14 8.541E-12 0.000E+00
 ETOT 15  -65.610476400457     -1.421E-14 1.423E-12 0.000E+00
 ETOT 16  -65.610476400457     -2.842E-14 2.632E-13 0.000E+00
 ETOT 17  -65.610476400457      1.421E-14 4.285E-14 0.000E+00
 ETOT 18  -65.610476400457     -1.421E-14 8.133E-15 0.000E+00
 ETOT 19  -65.610476400457      0.000E+00 1.298E-15 0.000E+00
 ETOT 20  -65.610476400457      0.000E+00 2.518E-16 0.000E+00
 ETOT 21  -65.610476400457      0.000E+00 3.951E-17 0.000E+00
 ETOT 22  -65.610476400457      0.000E+00 7.809E-18 0.000E+00
 ETOT 23  -65.610476400457      1.421E-14 1.207E-18 0.000E+00
 ETOT 24  -65.610476400457     -1.421E-14 2.425E-19 0.000E+00
 ETOT 25  -65.610476400457      1.421E-14 3.697E-20 0.000E+00
 ETOT 26  -65.610476400457      1.421E-14 9.831E-21 0.000E+00

 At SCF step   26   max residual=  9.83E-21 < tolwfr=  1.00E-20 =>converged.

 ----iterations are completed or convergence reached----

 dfpt_looppert: DFPT cycle converged with prtwf=-1. Will skip output of the 1st-order WFK file.
 dfpt_looppert : ek2=    8.6135682622E+01
          f-sum rule ratio=    1.1307749783E+00
 prteigrs : about to open file /scratch/users/j/a/jabreu/flow_simple/flow/w130/t1/tmpdata/tmp_1WF1_EIG
 Expectation of eigenvalue derivatives (hartree) for nkpt=   2  k points:
  (in case of degenerate eigenvalues, averaged derivative)
 kpt#   1, nband= 31, wtk=  0.50000, kpt=  0.0000  0.0000  0.0000 (reduced coord)
   0.00000    0.00000    0.00000    0.00000    0.00000    0.00000    0.00000    0.00000
  -0.00000   -0.00000    0.00000    0.00000    0.00000   -0.00000    0.00000    0.00000
   0.00000   -0.00000   -0.00000    0.00000    0.00000    0.00000   -0.00000   -0.00000
  -0.00000   -0.00000   -0.00000   -0.00000    0.00001    0.00000    0.00000
 prteigrs : prtvol=0 or 1, do not print more k-points.

 Eight components of 2nd-order total energy (hartree) are
 1,2,3: 0th-order hamiltonian combined with 1st-order wavefunctions
     kin0=   6.73798758E+01 eigvalue=   2.74344701E+00  local=  -3.15196585E+01
 4,5,6: 1st-order hamiltonian combined with 1st and 0th-order wfs
     kin1=  -9.74000746E+01  Hartree=   0.00000000E+00     xc=   0.00000000E+00
 7,8,9: eventually, occupation + non-local contributions
    edocc=   2.11870293E+01     enl0=   5.81978282E+00   enl1=  -3.38208782E+01
 1-9 gives the relaxation energy (to be shifted if some occ is /=2.0)
   erelax=  -6.56104764E+01
  No Ewald or frozen-wf contrib.: the relaxation energy is the total one
 2DEtotal=   -0.6561047640E+02 Ha. Also 2DEtotal=   -0.178535185857E+04 eV
    (  non-var. 2DEtotal :   -6.5610476400E+01 Ha)

 Perturbation wavevector (in red.coord.)   0.000000  0.000000  0.000000
 Perturbation : derivative vs k along direction   2
 The set of symmetries contains only one element for this perturbation.
 symkpt : not enough symmetry to change the number of k points.

[...]

 Perturbation wavevector (in red.coord.)   0.000000  0.000000  0.000000
 Perturbation : derivative vs k along direction   3
 The set of symmetries contains only one element for this perturbation.
 symkpt : not enough symmetry to change the number of k points.

-inwffil : will read wavefunctions from disk file /scratch/users/j/a/jabreu/flow_simple/flow/w130/t1/indata/in_WFK

 Initialisation of the first-order wave-functions :
  ireadwf=   0

--- !BeginCycle
iteration_state: {dtset: 1, }
solver: {iscf: 7, nstep: 100, nline: 4, wfoptalg: 0, }
tolerances: {tolwfr: 1.00E-20, }
...

     iter   2DEtotal(Ha)        deltaE(Ha) residm    vres2
-ETOT  1  -65.510750033039     -6.551E+01 3.244E-01 0.000E+00
 ETOT  2  -65.609273487844     -9.852E-02 1.830E-02 0.000E+00
 ETOT  3  -65.610985434130     -1.712E-03 2.942E-03 0.000E+00
 ETOT  4  -65.611066537387     -8.110E-05 3.756E-04 0.000E+00
 ETOT  5  -65.611071008031     -4.471E-06 7.206E-05 0.000E+00
 ETOT  6  -65.611071275466     -2.674E-07 1.015E-05 0.000E+00
 ETOT  7  -65.611071291837     -1.637E-08 1.977E-06 0.000E+00
 ETOT  8  -65.611071292848     -1.011E-09 3.048E-07 0.000E+00
 ETOT  9  -65.611071292911     -6.318E-11 5.690E-08 0.000E+00
 ETOT 10  -65.611071292915     -4.007E-12 9.273E-09 0.000E+00
 ETOT 11  -65.611071292916     -2.274E-13 1.662E-09 0.000E+00
 ETOT 12  -65.611071292916      0.000E+00 2.833E-10 0.000E+00
 ETOT 13  -65.611071292916      0.000E+00 4.918E-11 0.000E+00
 ETOT 14  -65.611071292916      0.000E+00 8.699E-12 0.000E+00
 ETOT 15  -65.611071292916      0.000E+00 1.470E-12 0.000E+00
 ETOT 16  -65.611071292916      4.263E-14 2.682E-13 0.000E+00
 ETOT 17  -65.611071292916     -4.263E-14 4.427E-14 0.000E+00
 ETOT 18  -65.611071292916      1.421E-14 8.289E-15 0.000E+00
 ETOT 19  -65.611071292916      1.421E-14 1.341E-15 0.000E+00
 ETOT 20  -65.611071292916     -1.421E-14 2.567E-16 0.000E+00
 ETOT 21  -65.611071292916      1.421E-14 4.081E-17 0.000E+00
 ETOT 22  -65.611071292916      0.000E+00 7.960E-18 0.000E+00
 ETOT 23  -65.611071292916      1.421E-14 1.246E-18 0.000E+00
 ETOT 24  -65.611071292916     -1.421E-14 2.472E-19 0.000E+00
 ETOT 25  -65.611071292916     -2.842E-14 3.819E-20 0.000E+00
 ETOT 26  -65.611071292916      4.263E-14 9.933E-21 0.000E+00

 At SCF step   26   max residual=  9.93E-21 < tolwfr=  1.00E-20 =>converged.

 ----iterations are completed or convergence reached----

 dfpt_looppert: DFPT cycle converged with prtwf=-1. Will skip output of the 1st-order WFK file.
 dfpt_looppert : ek2=    8.6135682622E+01
          f-sum rule ratio=    1.1307816800E+00
 prteigrs : about to open file /scratch/users/j/a/jabreu/flow_simple/flow/w130/t1/tmpdata/tmp_1WF1_EIG
 Expectation of eigenvalue derivatives (hartree) for nkpt=   2  k points:
  (in case of degenerate eigenvalues, averaged derivative)
 kpt#   1, nband= 31, wtk=  0.50000, kpt=  0.0000  0.0000  0.0000 (reduced coord)
  -0.00000   -0.00000   -0.00000   -0.00000    0.00000   -0.00000   -0.00000   -0.00000
  -0.00000   -0.00000   -0.00000   -0.00000   -0.00000   -0.00000   -0.00000   -0.00000
  -0.00000   -0.00000   -0.00000   -0.00000   -0.00000   -0.00000   -0.00000   -0.00000
   0.00000    0.00000    0.00000    0.00000    0.00000   -0.00000   -0.00000
 prteigrs : prtvol=0 or 1, do not print more k-points.

 Eight components of 2nd-order total energy (hartree) are
 1,2,3: 0th-order hamiltonian combined with 1st-order wavefunctions
     kin0=   6.69908638E+01 eigvalue=   2.73430167E+00  local=  -3.12942449E+01
 4,5,6: 1st-order hamiltonian combined with 1st and 0th-order wfs
     kin1=  -9.74006519E+01  Hartree=   0.00000000E+00     xc=   0.00000000E+00
 7,8,9: eventually, occupation + non-local contributions
    edocc=   2.13149193E+01     enl0=   5.86523147E+00   enl1=  -3.38214907E+01
 1-9 gives the relaxation energy (to be shifted if some occ is /=2.0)
   erelax=  -6.56110713E+01
  No Ewald or frozen-wf contrib.: the relaxation energy is the total one
 2DEtotal=   -0.6561107129E+02 Ha. Also 2DEtotal=   -0.178536804642E+04 eV
    (  non-var. 2DEtotal :   -6.5611071293E+01 Ha)

 CALCULATION OF EFFECTIVE MASSES
 NOTE : Additional infos (eff. mass eigenvalues, eigenvectors and, if degenerate, average mass) are available in stdout.

 COMMENTS:
 - At k-point ( 0.000, 0.000, 0.000), bands    20 through    22
   are DEGENERATE (effective mass tensor is therefore not defined).
   See Section IIIB Eqs. (67)-(70) and Appendix E of PRB 93 205147 (2016).
 - Angular average effective mass for Frohlich model is to be averaged over degenerate bands. See later.
 - Associated theta integrals calculated with ntheta=   1000 points.

 K-point ( 0.000, 0.000, 0.000) | band =    20
 Transport equivalent effective mass tensor:
             -0.4467876162             -0.0000000315              0.0000000081
             -0.0000000315             -0.4467877132              0.0000000039
              0.0000000081              0.0000000039             -0.4467876822
 Transport equivalent effective mass tensor eigenvalues:
             -0.4467877234             -0.4467876819             -0.4467876063
 Angular average effective mass 1/(<1/m>)=  -0.3710544412
 Angular average effective mass for Frohlich model (<m**0.5>)**2=  -0.3753971556
 Effective masses along directions: (cart. coord. / red. coord. -> eff. mass)
    1:   1.000000  0.000000  0.000000 /   0.948683  0.316228  0.000000 ->  -0.3437389953
    2:   0.000000  1.000000  0.000000 /   0.000000  1.000000  0.000000 ->  -0.3168340423
    3:   0.000000  0.000000  1.000000 /   0.408248  0.408248  0.816497 ->  -0.3549259062
    4:   0.577350  0.577350  0.577350 /   0.585539  0.688047  0.428644 ->  -0.3443248098
    5:   0.000000  0.707107  0.707107 /   0.289489  0.762222  0.578977 ->  -0.3956569584
    6:   0.707107  0.000000  0.707107 /   0.731423  0.422287  0.535439 ->  -0.3490149073
    7:   0.707107  0.707107  0.000000 /   0.616798  0.787122  0.000000 ->  -0.4954964067

[...]

 K-point ( 0.000, 0.000, 0.000) | band =    22
 Transport equivalent effective mass tensor:
            -79.1890870116              0.0000642481              0.0000008712
              0.0000642481            -79.1890687078              0.0000004607
              0.0000008712              0.0000004607            -79.1889627262
 Transport equivalent effective mass tensor eigenvalues:
            -79.1891427570            -79.1890129798            -79.1889627087
 Angular average effective mass 1/(<1/m>)=  -2.8083929778
 Angular average effective mass for Frohlich model (<m**0.5>)**2=  -3.7869868541
 Effective masses along directions: (cart. coord. / red. coord. -> eff. mass)
    1:   1.000000  0.000000  0.000000 /   0.948683  0.316228  0.000000 ->  -3.1770542884
    2:   0.000000  1.000000  0.000000 /   0.000000  1.000000  0.000000 ->  -2.4603205236
    3:   0.000000  0.000000  1.000000 /   0.408248  0.408248  0.816497 -> -14.7680234473
    4:   0.577350  0.577350  0.577350 /   0.585539  0.688047  0.428644 ->  -3.9652292543
    5:   0.000000  0.707107  0.707107 /   0.289489  0.762222  0.578977 ->  -2.5818468829
    6:   0.707107  0.000000  0.707107 /   0.731423  0.422287  0.535439 ->  -6.0491498356
    7:   0.707107  0.707107  0.000000 /   0.616798  0.787122  0.000000 ->  -1.1159665516

 Angular average effective mass for Frohlich model, averaged over degenerate bands.
 Value of     (<<m**0.5>>)**2 =     1.454557E+00
 Absolute Value of <<m**0.5>> =     1.206050E+00

 K-point ( 0.500, 0.000, 0.500) | band =    23
 Effective mass tensor:
              2.0333000905             -0.4301908897              0.5270264864
             -0.4301908897              2.3381739574             -0.7459222177
              0.5270264864             -0.7459222177              2.6433047930
 Effective mass tensor eigenvalues:
              1.7293334009              1.7294023138              3.5560431261
 Angular average effective mass 1/(<1/m>)=   2.0866612902
 Angular average effective mass for Frohlich model (<m**0.5>)**2=   2.1496887605
 Effective masses along directions: (cart. coord. / red. coord. -> eff. mass)
    1:   1.000000  0.000000  0.000000 /   0.948683  0.316228  0.000000 ->   1.8909857261
    2:   0.000000  1.000000  0.000000 /   0.000000  1.000000  0.000000 ->   2.0865932856
    3:   0.000000  0.000000  1.000000 /   0.408248  0.408248  0.816497 ->   2.3275918777
    4:   0.577350  0.577350  0.577350 /   0.585539  0.688047  0.428644 ->   1.8194929354
    5:   0.000000  0.707107  0.707107 /   0.289489  0.762222  0.578977 ->   1.7369188501
    6:   0.707107  0.000000  0.707107 /   0.731423  0.422287  0.535439 ->   2.5411009720
    7:   0.707107  0.707107  0.000000 /   0.616798  0.787122  0.000000 ->   1.7421758941

 END OF EFFECTIVE MASSES SECTION

 ---- first-order wavefunction calculations are completed ----

 Total localisation tensor (bohr^2) in cartesian coordinates
  WARNING : still subject to testing - especially symmetries.
      direction              matrix element
   alpha     beta       real part   imaginary part
     1        1       1.8085851617    0.0000000000
     1        2       0.5115485490    0.0000000000
     1        3       1.2530259506    0.0000000000
     2        1       0.5115485490    0.0000000000
     2        2       1.4468777916    0.0000000000
     2        3       0.8860280774    0.0000000000
     3        1       1.2530259506    0.0000000000
     3        2       0.8860280774    0.0000000000
     3        3       3.2554673199    0.0000000000

 respfn : d/dk was computed, but no 2DTE, so no DDB output.

== END DATASET(S) ==============================================================

 -outvars: echo values of variables after computation  --------
            acell      1.0000000000E+00  1.0000000000E+00  1.0000000000E+00 Bohr
              amu      4.78800000E+01  5.89332000E+01  1.21753000E+02
             ecut      4.80000000E+01 Hartree
           etotal     -6.5611071293E+01
            fcart      0.0000000000E+00  0.0000000000E+00  0.0000000000E+00
                       0.0000000000E+00  0.0000000000E+00  0.0000000000E+00
                       0.0000000000E+00  0.0000000000E+00  0.0000000000E+00
-          fftalg         512
           irdden           1
           irdwfk           1
           istwfk        1    1
              ixc     -116133
              kpt      0.00000000E+00  0.00000000E+00  0.00000000E+00
                       5.00000000E-01  0.00000000E+00  5.00000000E-01
           kptopt           0
P           mkmem           2
P          mkqmem           2
P          mk1mem           2
            natom           3
            nband          31
           nbdbuf           4
            ngfft          50      50      50
             nkpt           2
            nstep         100
             nsym          24
           ntypat           3
              occ      2.000000  2.000000  2.000000  2.000000  2.000000  2.000000
                       2.000000  2.000000  2.000000  2.000000  2.000000  2.000000
                       2.000000  2.000000  2.000000  2.000000  2.000000  2.000000
                       2.000000  2.000000  2.000000  2.000000  0.000000  0.000000
                       0.000000  0.000000  0.000000  0.000000  0.000000  0.000000
                       0.000000
        optdriver           1
            prtwf          -1
            rfdir           1       1       1
           rfelfd           2
            rprim      6.7360595168E+00  0.0000000000E+00  3.8890657753E+00
                       2.2453531723E+00  6.3508178171E+00  3.8890657753E+00
                       0.0000000000E+00  0.0000000000E+00  7.7781315506E+00
          spgroup         216
           strten      0.0000000000E+00  0.0000000000E+00  0.0000000000E+00
                       0.0000000000E+00  0.0000000000E+00  0.0000000000E+00
           symrel      1  0  0   0  1  0   0  0  1       0 -1  1   0 -1  0   1 -1  0
                      -1  0  0  -1  0  1  -1  1  0       0  1 -1   1  0 -1   0  0 -1
                      -1  0  0  -1  1  0  -1  0  1       0 -1  1   1 -1  0   0 -1  0
                       1  0  0   0  0  1   0  1  0       0  1 -1   0  0 -1   1  0 -1
                      -1  0  1  -1  1  0  -1  0  0       0 -1  0   1 -1  0   0 -1  1
                       1  0 -1   0  0 -1   0  1 -1       0  1  0   0  0  1   1  0  0
                       1  0 -1   0  1 -1   0  0 -1       0 -1  0   0 -1  1   1 -1  0
                      -1  0  1  -1  0  0  -1  1  0       0  1  0   1  0  0   0  0  1
                       0  0 -1   0  1 -1   1  0 -1       1 -1  0   0 -1  1   0 -1  0
                       0  0  1   1  0  0   0  1  0      -1  1  0  -1  0  0  -1  0  1
                       0  0  1   0  1  0   1  0  0       1 -1  0   0 -1  0   0 -1  1
                       0  0 -1   1  0 -1   0  1 -1      -1  1  0  -1  0  1  -1  0  0
           tolwfr      1.00000000E-20
            typat      1  2  3
           useylm           1
              wtk        0.50000    0.50000
           xangst      0.0000000000E+00  0.0000000000E+00  0.0000000000E+00
                       1.1881897240E+00  8.4017701118E-01  2.0580049710E+00
                       2.3763794480E+00  1.6803540224E+00  4.1160099420E+00
            xcart      0.0000000000E+00  0.0000000000E+00  0.0000000000E+00
                       2.2453531723E+00  1.5877044543E+00  3.8890657753E+00
                       4.4907063446E+00  3.1754089086E+00  7.7781315506E+00
             xred      0.0000000000E+00  0.0000000000E+00  0.0000000000E+00
                       2.5000000000E-01  2.5000000000E-01  2.5000000000E-01
                       5.0000000000E-01  5.0000000000E-01  5.0000000000E-01
            znucl       22.00000   27.00000   51.00000

- Timing analysis has been suppressed with timopt=0

 Suggested references for the acknowledgment of ABINIT usage.

 Calculation completed.
.Delivered  14 WARNINGs and   9 COMMENTs to log file.