.Version 9.5.2 of ABINIT

 ABINIT is a project of the Universite Catholique de Louvain,
 Corning Inc. and other collaborators, see ~abinit/doc/developers/contributors.txt .
 acknowledgments of the ABINIT effort.

.Starting date : Mon 24 May 2021.
- ( at 18h12 )

- input  file    -> /scratch/users/j/a/jabreu/flow_simple_10atoms/flow/w395/t1/run.abi
- output file    -> /scratch/users/j/a/jabreu/flow_simple_10atoms/flow/w395/t1/run.abo
- root for input  files -> /scratch/users/j/a/jabreu/flow_simple_10atoms/flow/w395/t1/indata/in
- root for output files -> /scratch/users/j/a/jabreu/flow_simple_10atoms/flow/w395/t1/outdata/out

 Symmetries : space group Cm c m (# 63); Bravais oC (1-face-center ortho.)
     intxc =       0      iscf =       7    lmnmax =      18     lnmax =       6
     mgfft =      90  mpssoang =       3    mqgrid =    3305     natom =      10
  nloc_mem =       1    nspden =       1   nspinor =       1    nsppol =       1
      nsym =       8    n1xccc =    2501    ntypat =       4    occopt =       1
   xclevel =       2
-    mband =          53        mffmem =           1         mkmem =           2
-   mkqmem =           2        mk1mem =           2           mpw =       23229
      nfft =      583200          nkpt =           2
  Rough estimation (10% accuracy) of disk space for files :

------------- Echo of variables that govern the present computation ------------
-
- outvars: echo of selected default values
-   iomode0 =  0 , fftalg0 =512 , wfoptalg0 =  0
-
- outvars: echo of global parameters not present in the input file
-  max_nthreads =    0
-
 -outvars: echo values of preprocessed input variables --------
            acell      1.0000000000E+00  1.0000000000E+00  1.0000000000E+00 Bohr
              amu      1.37327000E+02  2.08980370E+02  1.26904470E+02
                       1.59994000E+01
             ecut      4.40000000E+01 Hartree
-          fftalg         512
           irdden           1
           irdwfk           1
              ixc     -116133
              kpt      2.66062878E-01  2.66062878E-01  0.00000000E+00
                      -5.00000000E-01  5.00000000E-01  0.00000000E+00
           kptopt           0
P           mkmem           2
P          mkqmem           2
P          mk1mem           2
            natom          10
            nband          53
           nbdbuf           4
            ngfft          90      90      72
             nkpt           2
            nstep        2000
             nsym           8
           ntypat           4
              occ      2.000000  2.000000  2.000000  2.000000  2.000000  2.000000
                       2.000000  2.000000  2.000000  2.000000  2.000000  2.000000
                       2.000000  2.000000  2.000000  2.000000  2.000000  2.000000
                       2.000000  2.000000  2.000000  2.000000  2.000000  2.000000
                       2.000000  2.000000  2.000000  2.000000  2.000000  2.000000
                       2.000000  2.000000  2.000000  2.000000  2.000000  2.000000
                       2.000000  2.000000  2.000000  2.000000  2.000000  2.000000
                       2.000000  2.000000  0.000000  0.000000  0.000000  0.000000
                       0.000000  0.000000  0.000000  0.000000  0.000000
        optdriver           1
            prtwf          -1
            rfdir           1       1       1
           rfelfd           2
            rprim      1.4336846889E+01  0.0000000000E+00  0.0000000000E+00
                      -9.7696823433E+00  1.0492782550E+01  0.0000000000E+00
                       0.0000000000E+00  0.0000000000E+00  1.1067446688E+01
          spgroup          63
           symrel      1  0  0   0  1  0   0  0  1      -1  0  0   0 -1  0   0  0 -1
                       0  1  0   1  0  0   0  0 -1       0 -1  0  -1  0  0   0  0  1
                      -1  0  0   0 -1  0   0  0  1       1  0  0   0  1  0   0  0 -1
                       0 -1  0  -1  0  0   0  0 -1       0  1  0   1  0  0   0  0  1
            tnons      0.0000000  0.0000000  0.0000000     0.0000000  0.0000000  0.0000000
                       0.0000000 -0.0000000  0.0000000     0.0000000  0.0000000  0.0000000
                       0.0000000  0.0000000  0.5000000     0.0000000  0.0000000  0.5000000
                       0.0000000  0.0000000  0.5000000     0.0000000 -0.0000000  0.5000000
           tolwfr      1.00000000E-20
            typat      1  1  2  2  3  3  4  4  4  4
           useylm           1
              wtk        0.50000    0.50000
           xangst      2.5112666473E+00  2.2091840863E+00  4.3924804083E+00
                      -9.4427261681E-02  3.3433572937E+00  1.4641601361E+00
                      -4.2708572680E+00  5.1612204737E+00  1.4641601361E+00
                       6.6876966536E+00  3.9132090630E-01  4.3924804083E+00
                      -1.9467276047E+00  4.1496029597E+00  4.3924804083E+00
                       4.3635669903E+00  1.4029384203E+00  1.4641601361E+00
                       5.4390970373E-01  1.2495994376E+00  0.0000000000E+00
                       1.8729296819E+00  4.3029419425E+00  0.0000000000E+00
                       1.8729296819E+00  4.3029419425E+00  2.9283202722E+00
                       5.4390970373E-01  1.2495994376E+00  2.9283202722E+00
            xcart      4.7456062101E+00  4.1747529003E+00  8.3005850158E+00
                      -1.7844166405E-01  6.3180296495E+00  2.7668616719E+00
                      -8.0707505891E+00  9.7532932068E+00  2.7668616719E+00
                       1.2637915135E+01  7.3948934298E-01  8.3005850158E+00
                      -3.6787820282E+00  7.8416131541E+00  8.3005850158E+00
                       8.2459465742E+00  2.6511693957E+00  2.7668616719E+00
                       1.0278403811E+00  2.3614007128E+00  0.0000000000E+00
                       3.5393241649E+00  8.1313818370E+00  0.0000000000E+00
                       3.5393241649E+00  8.1313818370E+00  5.5337233439E+00
                       1.0278403811E+00  2.3614007128E+00  5.5337233439E+00
             xred      6.0213100000E-01  3.9786900000E-01  7.5000000000E-01
                       3.9786900000E-01  6.0213100000E-01  2.5000000000E-01
                       7.0476000000E-02  9.2952400000E-01  2.5000000000E-01
                       9.2952400000E-01  7.0476000000E-02  7.5000000000E-01
                       2.5266600000E-01  7.4733400000E-01  7.5000000000E-01
                       7.4733400000E-01  2.5266600000E-01  2.5000000000E-01
                       2.2505000000E-01  2.2505000000E-01  0.0000000000E+00
                       7.7495000000E-01  7.7495000000E-01  0.0000000000E+00
                       7.7495000000E-01  7.7495000000E-01  5.0000000000E-01
                       2.2505000000E-01  2.2505000000E-01  5.0000000000E-01
            znucl       56.00000   83.00000   53.00000    8.00000

 chkinp: Checking input parameters for consistency.

== DATASET  1 ==================================================================
-   mpi_nproc: 1, omp_nthreads: -1 (-1 if OMP is not activated)

--- !DatasetInfo
iteration_state: {dtset: 1, }
dimensions: {natom: 10, nkpt: 2, mband: 53, nsppol: 1, nspinor: 1, nspden: 1, mpw: 23229, }
cutoff_energies: {ecut:  44.0, pawecutdg:  -1.0, }
electrons: {nelect:   8.80000000E+01, charge:   0.00000000E+00, occopt:   1.00000000E+00, tsmear:   1.00000000E-02, }
meta: {optdriver: 1, rfelfd: 2, }
...

 Real(R)+Recip(G) space primitive vectors, cartesian coordinates (Bohr,Bohr^-1):
 R(1)= 14.3368469  0.0000000  0.0000000  G(1)=  0.0697503  0.0649436  0.0000000
 R(2)= -9.7696823 10.4927825  0.0000000  G(2)=  0.0000000  0.0953036  0.0000000
 R(3)=  0.0000000  0.0000000 11.0674467  G(3)=  0.0000000  0.0000000  0.0903551
 Unit cell volume ucvol=  1.6649138E+03 bohr^3
 Angles (23,13,12)=  9.00000000E+01  9.00000000E+01  1.32956171E+02 degrees

 getcut: wavevector=  0.0000  0.0000  0.0000  ngfft=  90  90  72
         ecut(hartree)=     44.000   => boxcut(ratio)=   2.10242

--- Pseudopotential description ------------------------------------------------
- pspini: atom type   1  psp file is /scratch/users/j/a/jabreu/pseudos/PBEsol/Ba.psp8
- pspatm: opening atomic psp file    /scratch/users/j/a/jabreu/pseudos/PBEsol/Ba.psp8
- Ba    ONCVPSP-3.3.0  r_core=   2.15444   1.91218   2.15444
- 56.00000  10.00000    180112                znucl, zion, pspdat
    8 -116133    2    4       600   0.00000   pspcod,pspxc,lmax,lloc,mmax,r2well
    5.99000000000000    5.00000000000000    0.00000000000000   rchrg,fchrg,qchrg
     nproj     2     2     2
     extension_switch     1
  pspatm : epsatm=   26.37418029
         --- l  ekb(1:nproj) -->
             0    6.652372    0.677024
             1    5.027722    0.408462
             2    2.543237    0.416854
 pspatm: atomic psp has been read  and splines computed

- pspini: atom type   2  psp file is /scratch/users/j/a/jabreu/pseudos/PBEsol/Bi.psp8
- pspatm: opening atomic psp file    /scratch/users/j/a/jabreu/pseudos/PBEsol/Bi.psp8
- Bi    ONCVPSP-3.3.0  r_core=   2.42776   2.51622   2.10397
- 83.00000  15.00000    180112                znucl, zion, pspdat
    8 -116133    2    4       600   0.00000   pspcod,pspxc,lmax,lloc,mmax,r2well
    5.99000000000000    6.00000000000000    0.00000000000000   rchrg,fchrg,qchrg
     nproj     2     2     2
     extension_switch     1
  pspatm : epsatm=   42.90078186
         --- l  ekb(1:nproj) -->
             0    6.017688    0.961606
             1    4.379371    0.528498
             2   -3.458170   -0.753782
 pspatm: atomic psp has been read  and splines computed

[...]

- pspini: atom type   4  psp file is /scratch/users/j/a/jabreu/pseudos/PBEsol/O.psp8
- pspatm: opening atomic psp file    /scratch/users/j/a/jabreu/pseudos/PBEsol/O.psp8
- O     ONCVPSP-3.3.0  r_core=   1.35509   1.45563   1.26150
-  8.00000   6.00000    180112                znucl, zion, pspdat
    8 -116133    2    4       600   0.00000   pspcod,pspxc,lmax,lloc,mmax,r2well
    5.99000000000000    4.00000000000000    0.00000000000000   rchrg,fchrg,qchrg
     nproj     2     2     1
     extension_switch     1
  pspatm : epsatm=    6.22910522
         --- l  ekb(1:nproj) -->
             0    6.050032    0.820363
             1   -4.739617   -1.153841
             2   -1.335834
 pspatm: atomic psp has been read  and splines computed

   1.75780824E+04                                ecore*ucvol(ha*bohr**3)

 ==>  initialize data related to q vector <==

 The list of irreducible perturbations for this q vector is:
    1)    idir= 1    ipert=  11
    2)    idir= 2    ipert=  11
    3)    idir= 3    ipert=  11

 Perturbation wavevector (in red.coord.)   0.000000  0.000000  0.000000
 Perturbation : derivative vs k along direction   1

 dfpt_looppert : COMMENT -
  In a d/dk calculation, iscf is set to -3 automatically.
 The set of symmetries contains only one element for this perturbation.
 symkpt : not enough symmetry to change the number of k points.

 Initialisation of the first-order wave-functions :
  ireadwf=   0

--- !BeginCycle
iteration_state: {dtset: 1, }
solver: {iscf: 7, nstep: 2000, nline: 4, wfoptalg: 0, }
tolerances: {tolwfr: 1.00E-20, }
...

[...]
 ETOT 11  -47.025127453623     -2.132E-14 7.013E-12 0.000E+00
 ETOT 12  -47.025127453623      1.421E-14 1.456E-12 0.000E+00
 ETOT 13  -47.025127453623      7.105E-15 9.820E-14 0.000E+00
 ETOT 14  -47.025127453623      1.421E-14 2.075E-14 0.000E+00
 ETOT 15  -47.025127453623      0.000E+00 1.401E-15 0.000E+00
 ETOT 16  -47.025127453623      0.000E+00 3.000E-16 0.000E+00
 ETOT 17  -47.025127453623      0.000E+00 2.020E-17 0.000E+00
 ETOT 18  -47.025127453623     -1.421E-14 4.378E-18 0.000E+00
 ETOT 19  -47.025127453623      7.105E-15 2.933E-19 0.000E+00
 ETOT 20  -47.025127453623      0.000E+00 6.430E-20 0.000E+00
 ETOT 21  -47.025127453623     -7.105E-15 9.962E-21 0.000E+00

 At SCF step   21   max residual=  9.96E-21 < tolwfr=  1.00E-20 =>converged.

 ----iterations are completed or convergence reached----

 dfpt_looppert: DFPT cycle converged with prtwf=-1. Will skip output of the 1st-order WFK file.
 dfpt_looppert : ek2=    6.3108965197E+01
          f-sum rule ratio=    9.9922072527E-01
 prteigrs : about to open file /scratch/users/j/a/jabreu/flow_simple_10atoms/flow/w395/t1/tmpdata/tmp_1WF1_EIG
 Expectation of eigenvalue derivatives (hartree) for nkpt=   2  k points:
  (in case of degenerate eigenvalues, averaged derivative)
 kpt#   1, nband= 53, wtk=  0.50000, kpt=  0.2661  0.2661  0.0000 (reduced coord)
   0.00006   -0.00010    0.00005   -0.00002   -0.00009   -0.00000   -0.00001    0.00003
   0.00000   -0.00000   -0.00000    0.00001    0.00184   -0.00213   -0.00531    0.00651
  -0.03147    0.03283   -0.01160   -0.00134    0.01420   -0.00149    0.02031   -0.02647
   0.01017   -0.00823   -0.00312    0.00488   -0.00162   -0.01259   -0.00349    0.06641
  -0.02855    0.05986   -0.04808    0.06711   -0.01821   -0.03347    0.01857   -0.05177
  -0.02138    0.01214   -0.00991    0.00346    0.04743   -0.01631   -0.06537   -0.01111
   0.03610    0.05308   -0.03651   -0.10808   -0.03680
 prteigrs : prtvol=0 or 1, do not print more k-points.

 Eight components of 2nd-order total energy (hartree) are
 1,2,3: 0th-order hamiltonian combined with 1st-order wavefunctions
     kin0=   6.10478878E+01 eigvalue=   4.25598055E+00  local=  -3.36667711E+01
 4,5,6: 1st-order hamiltonian combined with 1st and 0th-order wfs
     kin1=  -6.30597860E+01  Hartree=   0.00000000E+00     xc=   0.00000000E+00
 7,8,9: eventually, occupation + non-local contributions
    edocc=   8.36873000E+00     enl0=   7.01930019E+00   enl1=  -3.09904689E+01
 1-9 gives the relaxation energy (to be shifted if some occ is /=2.0)
   erelax=  -4.70251275E+01
  No Ewald or frozen-wf contrib.: the relaxation energy is the total one
 2DEtotal=   -0.4702512745E+02 Ha. Also 2DEtotal=   -0.127961879421E+04 eV
    (  non-var. 2DEtotal :   -4.7025127453E+01 Ha)

 Perturbation wavevector (in red.coord.)   0.000000  0.000000  0.000000
 Perturbation : derivative vs k along direction   2
 The set of symmetries contains only one element for this perturbation.
 symkpt : not enough symmetry to change the number of k points.

[...]

 Perturbation wavevector (in red.coord.)   0.000000  0.000000  0.000000
 Perturbation : derivative vs k along direction   3
 The set of symmetries contains only one element for this perturbation.
 symkpt : not enough symmetry to change the number of k points.

 Initialisation of the first-order wave-functions :
  ireadwf=   0

--- !BeginCycle
iteration_state: {dtset: 1, }
solver: {iscf: 7, nstep: 2000, nline: 4, wfoptalg: 0, }
tolerances: {tolwfr: 1.00E-20, }
...

     iter   2DEtotal(Ha)        deltaE(Ha) residm    vres2
-ETOT  1  -43.481458981267     -4.348E+01 5.685E-02 0.000E+00
 ETOT  2  -43.527966553634     -4.651E-02 4.955E-03 0.000E+00
 ETOT  3  -43.528243930818     -2.774E-04 1.227E-04 0.000E+00
 ETOT  4  -43.528248003927     -4.073E-06 2.289E-05 0.000E+00
 ETOT  5  -43.528248076299     -7.237E-08 6.259E-07 0.000E+00
 ETOT  6  -43.528248077728     -1.430E-09 1.319E-07 0.000E+00
 ETOT  7  -43.528248077759     -3.006E-11 3.659E-09 0.000E+00
 ETOT  8  -43.528248077759     -5.969E-13 8.078E-10 0.000E+00
 ETOT  9  -43.528248077759     -4.263E-14 2.261E-11 0.000E+00
 ETOT 10  -43.528248077759      0.000E+00 5.125E-12 0.000E+00
 ETOT 11  -43.528248077759      1.421E-14 1.448E-13 0.000E+00
 ETOT 12  -43.528248077759      0.000E+00 3.324E-14 0.000E+00
 ETOT 13  -43.528248077759      1.421E-14 9.500E-16 0.000E+00
 ETOT 14  -43.528248077759     -1.421E-14 2.186E-16 0.000E+00
 ETOT 15  -43.528248077759      0.000E+00 6.317E-18 0.000E+00
 ETOT 16  -43.528248077759      0.000E+00 1.451E-18 0.000E+00
 ETOT 17  -43.528248077759     -1.421E-14 4.234E-20 0.000E+00
 ETOT 18  -43.528248077759      7.105E-15 9.763E-21 0.000E+00

 At SCF step   18   max residual=  9.76E-21 < tolwfr=  1.00E-20 =>converged.

 ----iterations are completed or convergence reached----

 dfpt_looppert: DFPT cycle converged with prtwf=-1. Will skip output of the 1st-order WFK file.
 dfpt_looppert : ek2=    5.6725394807E+01
          f-sum rule ratio=    1.0505743388E+00
 prteigrs : about to open file /scratch/users/j/a/jabreu/flow_simple_10atoms/flow/w395/t1/tmpdata/tmp_1WF1_EIG
 Expectation of eigenvalue derivatives (hartree) for nkpt=   2  k points:
  (in case of degenerate eigenvalues, averaged derivative)
 kpt#   1, nband= 53, wtk=  0.50000, kpt=  0.2661  0.2661  0.0000 (reduced coord)
  -0.00000    0.00000    0.00000   -0.00000    0.00000   -0.00000   -0.00000   -0.00000
   0.00000   -0.00000    0.00000    0.00000    0.00000    0.00000   -0.00000   -0.00000
  -0.00000    0.00000   -0.00000   -0.00000   -0.00000   -0.00000   -0.00000   -0.00000
   0.00000   -0.00000    0.00000    0.00000    0.00000    0.00000    0.00000   -0.00000
   0.00000   -0.00000   -0.00000    0.00000   -0.00000   -0.00000   -0.00000    0.00000
  -0.00000    0.00000    0.00000   -0.00000    0.00000    0.00000   -0.00000   -0.00000
  -0.00000    0.00000    0.00000   -0.00000    0.00000
 prteigrs : prtvol=0 or 1, do not print more k-points.

 Eight components of 2nd-order total energy (hartree) are
 1,2,3: 0th-order hamiltonian combined with 1st-order wavefunctions
     kin0=   5.44613259E+01 eigvalue=   4.00643243E+00  local=  -3.04921678E+01
 4,5,6: 1st-order hamiltonian combined with 1st and 0th-order wfs
     kin1=  -5.95942441E+01  Hartree=   0.00000000E+00     xc=   0.00000000E+00
 7,8,9: eventually, occupation + non-local contributions
    edocc=   8.60559977E+00     enl0=   6.94705770E+00   enl1=  -2.74622520E+01
 1-9 gives the relaxation energy (to be shifted if some occ is /=2.0)
   erelax=  -4.35282481E+01
  No Ewald or frozen-wf contrib.: the relaxation energy is the total one
 2DEtotal=   -0.4352824808E+02 Ha. Also 2DEtotal=   -0.118446386720E+04 eV
    (  non-var. 2DEtotal :   -4.3528248078E+01 Ha)

 CALCULATION OF EFFECTIVE MASSES
 NOTE : Additional infos (eff. mass eigenvalues, eigenvectors and, if degenerate, average mass) are available in stdout.

 K-point ( 0.266, 0.266, 0.000) | band =    44
 Effective mass tensor:
             -7.2018183916              2.6483511243              0.0000000000
              2.6483511243             -2.2701334534              0.0000000017
              0.0000000000              0.0000000017             -5.8988012756
 Effective mass tensor eigenvalues:
             -8.3545588993             -5.8988012756             -1.1173929456
 Angular average effective mass 1/(<1/m>)=  -2.5334383959
 Angular average effective mass for Frohlich model (<m**0.5>)**2=  -3.2627554678
 Effective masses along directions: (cart. coord. / red. coord. -> eff. mass)
    1:   1.000000  0.000000  0.000000 /   0.826373 -0.563123  0.000000 ->  -4.1122362935
    2:   0.000000  1.000000  0.000000 /   0.000000  1.000000  0.000000 ->  -1.2962455689
    3:   0.000000  0.000000  1.000000 /   0.000000  0.000000  1.000000 ->  -5.8988012756
    4:   0.577350  0.577350  0.577350 /   0.790949  0.039893  0.610580 ->  -1.7127744175
    5:   0.000000  0.707107  0.707107 /   0.000000  0.688015  0.725696 ->  -2.1254330032
    6:   0.707107  0.000000  0.707107 /   0.696686 -0.474749  0.537812 ->  -4.8461040160
    7:   0.707107  0.707107  0.000000 /   0.998731  0.050372  0.000000 ->  -1.2642079798

 K-point (-0.500, 0.500, 0.000) | band =    45
 Effective mass tensor:
              3.1890541229             -1.1926591611             -0.0000005843
             -1.1926591611              0.9681177612              0.0000001916
             -0.0000005843              0.0000001916              0.3299780711
 Effective mass tensor eigenvalues:
              0.3299780711              0.4489922948              3.7081795894
 Angular average effective mass 1/(<1/m>)=   0.5427518165
 Angular average effective mass for Frohlich model (<m**0.5>)**2=   0.6611848861
 Effective masses along directions: (cart. coord. / red. coord. -> eff. mass)
    1:   1.000000  0.000000  0.000000 /   0.826373 -0.563123  0.000000 ->   1.7197743189
    2:   0.000000  1.000000  0.000000 /   0.000000  1.000000  0.000000 ->   0.5220808425
    3:   0.000000  0.000000  1.000000 /   0.000000  0.000000  1.000000 ->   0.3299780711
    4:   0.577350  0.577350  0.577350 /   0.790949  0.039893  0.610580 ->   0.4310306732
    5:   0.000000  0.707107  0.707107 /   0.000000  0.688015  0.725696 ->   0.4043739599
    6:   0.707107  0.000000  0.707107 /   0.696686 -0.474749  0.537812 ->   0.5537133386
    7:   0.707107  0.707107  0.000000 /   0.998731  0.050372  0.000000 ->   0.5089634102

 END OF EFFECTIVE MASSES SECTION

 ---- first-order wavefunction calculations are completed ----

 Total localisation tensor (bohr^2) in cartesian coordinates
  WARNING : still subject to testing - especially symmetries.
      direction              matrix element
   alpha     beta       real part   imaginary part
     1        1       2.9869691851    0.0000000000
     1        2      -1.0172953645    0.0000000000
     1        3       0.0000000000    0.0000000000
     2        1      -1.0172953645    0.0000000000
     2        2       1.0925901860    0.0000000000
     2        3       0.0000000000    0.0000000000
     3        1       0.0000000000    0.0000000000
     3        2       0.0000000000    0.0000000000
     3        3       1.2637466146    0.0000000000

 respfn : d/dk was computed, but no 2DTE, so no DDB output.

== END DATASET(S) ==============================================================

 -outvars: echo values of variables after computation  --------
            acell      1.0000000000E+00  1.0000000000E+00  1.0000000000E+00 Bohr
              amu      1.37327000E+02  2.08980370E+02  1.26904470E+02
                       1.59994000E+01
             ecut      4.40000000E+01 Hartree
           etotal     -4.3528248078E+01
            fcart      0.0000000000E+00  0.0000000000E+00  0.0000000000E+00
                       0.0000000000E+00  0.0000000000E+00  0.0000000000E+00
                       0.0000000000E+00  0.0000000000E+00  0.0000000000E+00
                       0.0000000000E+00  0.0000000000E+00  0.0000000000E+00
                       0.0000000000E+00  0.0000000000E+00  0.0000000000E+00
                       0.0000000000E+00  0.0000000000E+00  0.0000000000E+00
                       0.0000000000E+00  0.0000000000E+00  0.0000000000E+00
                       0.0000000000E+00  0.0000000000E+00  0.0000000000E+00
                       0.0000000000E+00  0.0000000000E+00  0.0000000000E+00
                       0.0000000000E+00  0.0000000000E+00  0.0000000000E+00
-          fftalg         512
           irdden           1
           irdwfk           1
              ixc     -116133
              kpt      2.66062878E-01  2.66062878E-01  0.00000000E+00
                      -5.00000000E-01  5.00000000E-01  0.00000000E+00
           kptopt           0
P           mkmem           2
P          mkqmem           2
P          mk1mem           2
            natom          10
            nband          53
           nbdbuf           4
            ngfft          90      90      72
             nkpt           2
            nstep        2000
             nsym           8
           ntypat           4
              occ      2.000000  2.000000  2.000000  2.000000  2.000000  2.000000
                       2.000000  2.000000  2.000000  2.000000  2.000000  2.000000
                       2.000000  2.000000  2.000000  2.000000  2.000000  2.000000
                       2.000000  2.000000  2.000000  2.000000  2.000000  2.000000
                       2.000000  2.000000  2.000000  2.000000  2.000000  2.000000
                       2.000000  2.000000  2.000000  2.000000  2.000000  2.000000
                       2.000000  2.000000  2.000000  2.000000  2.000000  2.000000
                       2.000000  2.000000  0.000000  0.000000  0.000000  0.000000
                       0.000000  0.000000  0.000000  0.000000  0.000000
        optdriver           1
            prtwf          -1
            rfdir           1       1       1
           rfelfd           2
            rprim      1.4336846889E+01  0.0000000000E+00  0.0000000000E+00
                      -9.7696823433E+00  1.0492782550E+01  0.0000000000E+00
                       0.0000000000E+00  0.0000000000E+00  1.1067446688E+01
          spgroup          63
           strten      0.0000000000E+00  0.0000000000E+00  0.0000000000E+00
                       0.0000000000E+00  0.0000000000E+00  0.0000000000E+00
           symrel      1  0  0   0  1  0   0  0  1      -1  0  0   0 -1  0   0  0 -1
                       0  1  0   1  0  0   0  0 -1       0 -1  0  -1  0  0   0  0  1
                      -1  0  0   0 -1  0   0  0  1       1  0  0   0  1  0   0  0 -1
                       0 -1  0  -1  0  0   0  0 -1       0  1  0   1  0  0   0  0  1
            tnons      0.0000000  0.0000000  0.0000000     0.0000000  0.0000000  0.0000000
                       0.0000000 -0.0000000  0.0000000     0.0000000  0.0000000  0.0000000
                       0.0000000  0.0000000  0.5000000     0.0000000  0.0000000  0.5000000
                       0.0000000  0.0000000  0.5000000     0.0000000 -0.0000000  0.5000000
           tolwfr      1.00000000E-20
            typat      1  1  2  2  3  3  4  4  4  4
           useylm           1
              wtk        0.50000    0.50000
           xangst      2.5112666473E+00  2.2091840863E+00  4.3924804083E+00
                      -9.4427261681E-02  3.3433572937E+00  1.4641601361E+00
                      -4.2708572680E+00  5.1612204737E+00  1.4641601361E+00
                       6.6876966536E+00  3.9132090630E-01  4.3924804083E+00
                      -1.9467276047E+00  4.1496029597E+00  4.3924804083E+00
                       4.3635669903E+00  1.4029384203E+00  1.4641601361E+00
                       5.4390970373E-01  1.2495994376E+00  0.0000000000E+00
                       1.8729296819E+00  4.3029419425E+00  0.0000000000E+00
                       1.8729296819E+00  4.3029419425E+00  2.9283202722E+00
                       5.4390970373E-01  1.2495994376E+00  2.9283202722E+00
            xcart      4.7456062101E+00  4.1747529003E+00  8.3005850158E+00
                      -1.7844166405E-01  6.3180296495E+00  2.7668616719E+00
                      -8.0707505891E+00  9.7532932068E+00  2.7668616719E+00
                       1.2637915135E+01  7.3948934298E-01  8.3005850158E+00
                      -3.6787820282E+00  7.8416131541E+00  8.3005850158E+00
                       8.2459465742E+00  2.6511693957E+00  2.7668616719E+00
                       1.0278403811E+00  2.3614007128E+00  0.0000000000E+00
                       3.5393241649E+00  8.1313818370E+00  0.0000000000E+00
                       3.5393241649E+00  8.1313818370E+00  5.5337233439E+00
                       1.0278403811E+00  2.3614007128E+00  5.5337233439E+00
             xred      6.0213100000E-01  3.9786900000E-01  7.5000000000E-01
                       3.9786900000E-01  6.0213100000E-01  2.5000000000E-01
                       7.0476000000E-02  9.2952400000E-01  2.5000000000E-01
                       9.2952400000E-01  7.0476000000E-02  7.5000000000E-01
                       2.5266600000E-01  7.4733400000E-01  7.5000000000E-01
                       7.4733400000E-01  2.5266600000E-01  2.5000000000E-01
                       2.2505000000E-01  2.2505000000E-01  0.0000000000E+00
                       7.7495000000E-01  7.7495000000E-01  0.0000000000E+00
                       7.7495000000E-01  7.7495000000E-01  5.0000000000E-01
                       2.2505000000E-01  2.2505000000E-01  5.0000000000E-01
            znucl       56.00000   83.00000   53.00000    8.00000

- Timing analysis has been suppressed with timopt=0

 Suggested references for the acknowledgment of ABINIT usage.

 Calculation completed.
.Delivered   2 WARNINGs and   5 COMMENTs to log file.