.Version 9.7.2 of ABINIT

 ABINIT is a project of the Universite Catholique de Louvain,
 Corning Inc. and other collaborators, see ~abinit/doc/developers/contributors.txt .
 acknowledgments of the ABINIT effort.

.Starting date : Wed  1 Dec 2021.
- ( at 21h01 )

- input  file    -> /scratch/users/j/a/jabreu/flow_simple_remain_atoms/flow/w151/t1/run.abi
- output file    -> /scratch/users/j/a/jabreu/flow_simple_remain_atoms/flow/w151/t1/run.abo
- root for input  files -> /scratch/users/j/a/jabreu/flow_simple_remain_atoms/flow/w151/t1/indata/in
- root for output files -> /scratch/users/j/a/jabreu/flow_simple_remain_atoms/flow/w151/t1/outdata/out

 Symmetries : space group P-3 m 1 (#164); Bravais hP (primitive hexag.)
     intxc =       0      iscf =       7    lmnmax =      18     lnmax =       6
     mgfft =      72  mpssoang =       3    mqgrid =    3331     natom =       5
  nloc_mem =       1    nspden =       1   nspinor =       1    nsppol =       1
      nsym =      12    n1xccc =    2501    ntypat =       3    occopt =       1
   xclevel =       2
-    mband =          29        mffmem =           1         mkmem =           1
-   mkqmem =           1        mk1mem =           1           mpw =        5733
      nfft =      115200          nkpt =           1
  Rough estimation (10% accuracy) of disk space for files :

------------- Echo of variables that govern the present computation ------------
-
- outvars: echo of selected default values
-   iomode0 =  0 , fftalg0 =512 , wfoptalg0 =  0
-
- outvars: echo of global parameters not present in the input file
-  max_nthreads =    0
-
 -outvars: echo values of preprocessed input variables --------
            acell      1.0000000000E+00  1.0000000000E+00  1.0000000000E+00 Bohr
              amu      4.00780000E+01  2.43050000E+01  1.40067400E+01
             ecut      4.20000000E+01 Hartree
-          fftalg         512
           irdden           1
           irdwfk           1
           istwfk        1
              ixc     -116133
           kptopt           0
P           mkmem           1
P          mkqmem           1
P          mk1mem           1
            natom           5
            nband          29
           nbdbuf           4
            ngfft          40      40      72
             nkpt           1
            nstep        2000
             nsym          12
           ntypat           3
              occ      2.000000  2.000000  2.000000  2.000000  2.000000  2.000000
                       2.000000  2.000000  2.000000  2.000000  2.000000  2.000000
                       2.000000  2.000000  2.000000  2.000000  2.000000  2.000000
                       2.000000  2.000000  0.000000  0.000000  0.000000  0.000000
                       0.000000  0.000000  0.000000  0.000000  0.000000
        optdriver           1
            prtwf          -1
            rfdir           1       1       1
           rfelfd           2
            rprim      6.6637664233E+00  0.0000000000E+00  0.0000000000E+00
                      -3.3318832117E+00  5.7709910075E+00  0.0000000000E+00
                       0.0000000000E+00  0.0000000000E+00  1.1414482248E+01
          spgroup         164
           symrel      1  0  0   0  1  0   0  0  1      -1  0  0   0 -1  0   0  0 -1
                      -1  0  0   1  1  0   0  0  1       1  0  0  -1 -1  0   0  0 -1
                       0  1  0  -1 -1  0   0  0  1       0 -1  0   1  1  0   0  0 -1
                       0 -1  0  -1  0  0   0  0  1       0  1  0   1  0  0   0  0 -1
                      -1 -1  0   1  0  0   0  0  1       1  1  0  -1  0  0   0  0 -1
                       1  1  0   0 -1  0   0  0  1      -1 -1  0   0  1  0   0  0 -1
           tolwfr      1.00000000E-20
            typat      1  2  2  3  3
           useylm           1
           xangst      0.0000000000E+00  0.0000000000E+00  3.0201419268E+00
                       1.7631566573E+00  1.0179589707E+00  8.5652433101E-01
                      -1.7639711750E-11  2.0359179414E+00  5.1837595226E+00
                       1.7631566573E+00  1.0179589707E+00  4.6150547172E+00
                      -1.7639711750E-11  2.0359179414E+00  1.4252291364E+00
            xcart      0.0000000000E+00  0.0000000000E+00  5.7072411241E+00
                       3.3318832116E+00  1.9236636692E+00  1.6185964118E+00
                      -3.3334224270E-11  3.8473273383E+00  9.7958858364E+00
                       3.3318832116E+00  1.9236636692E+00  8.7211895038E+00
                      -3.3334224270E-11  3.8473273383E+00  2.6932927444E+00
             xred      0.0000000000E+00  0.0000000000E+00  5.0000000000E-01
                       6.6666666667E-01  3.3333333333E-01  1.4180200000E-01
                       3.3333333333E-01  6.6666666667E-01  8.5819800000E-01
                       6.6666666667E-01  3.3333333333E-01  7.6404600000E-01
                       3.3333333333E-01  6.6666666667E-01  2.3595400000E-01
            znucl       20.00000   12.00000    7.00000

 chkinp: Checking input parameters for consistency.

== DATASET  1 ==================================================================
-   mpi_nproc: 1, omp_nthreads: -1 (-1 if OMP is not activated)

--- !DatasetInfo
iteration_state: {dtset: 1, }
dimensions: {natom: 5, nkpt: 1, mband: 29, nsppol: 1, nspinor: 1, nspden: 1, mpw: 5733, }
cutoff_energies: {ecut:  42.0, pawecutdg:  -1.0, }
electrons: {nelect:   4.00000000E+01, charge:   0.00000000E+00, occopt:   1.00000000E+00, tsmear:   1.00000000E-02, }
meta: {optdriver: 1, rfelfd: 2, }
...

 Real(R)+Recip(G) space primitive vectors, cartesian coordinates (Bohr,Bohr^-1):
 R(1)=  6.6637664  0.0000000  0.0000000  G(1)=  0.1500653  0.0866402  0.0000000
 R(2)= -3.3318832  5.7709910  0.0000000  G(2)=  0.0000000  0.1732805  0.0000000
 R(3)=  0.0000000  0.0000000 11.4144822  G(3)=  0.0000000  0.0000000  0.0876080
 Unit cell volume ucvol=  4.3896145E+02 bohr^3
 Angles (23,13,12)=  9.00000000E+01  9.00000000E+01  1.20000000E+02 degrees

 getcut: wavevector=  0.0000  0.0000  0.0000  ngfft=  40  40  72
         ecut(hartree)=     42.000   => boxcut(ratio)=   2.05755

--- Pseudopotential description ------------------------------------------------
- pspini: atom type   1  psp file is /scratch/users/j/a/jabreu/pseudos/PBEsol/Ca.psp8
- pspatm: opening atomic psp file    /scratch/users/j/a/jabreu/pseudos/PBEsol/Ca.psp8
- Ca    ONCVPSP-3.3.0  r_core=   1.45885   1.45885   1.85192
- 20.00000  10.00000    180112                znucl, zion, pspdat
    8 -116133    2    4       400   0.00000   pspcod,pspxc,lmax,lloc,mmax,r2well
    3.99000000000000    6.00000000000000    0.00000000000000   rchrg,fchrg,qchrg
     nproj     2     2     2
     extension_switch     1
  pspatm : epsatm=   12.46045226
         --- l  ekb(1:nproj) -->
             0   10.054847    0.973777
             1    2.998958    0.458102
             2   -3.447298   -1.091650
 pspatm: atomic psp has been read  and splines computed

- pspini: atom type   2  psp file is /scratch/users/j/a/jabreu/pseudos/PBEsol/Mg.psp8
- pspatm: opening atomic psp file    /scratch/users/j/a/jabreu/pseudos/PBEsol/Mg.psp8
- Mg    ONCVPSP-3.3.0  r_core=   1.16056   1.56380
- 12.00000  10.00000    180112                znucl, zion, pspdat
    8 -116133    1    4       400   0.00000   pspcod,pspxc,lmax,lloc,mmax,r2well
    3.99000000000000    0.00000000000000    0.00000000000000   rchrg,fchrg,qchrg
     nproj     2     2
     extension_switch     1
  pspatm : epsatm=    9.18164846
         --- l  ekb(1:nproj) -->
             0    2.230603   -0.826587
             1   -6.503151   -2.501445
 pspatm: atomic psp has been read  and splines computed

- pspini: atom type   3  psp file is /scratch/users/j/a/jabreu/pseudos/PBEsol/N.psp8
- pspatm: opening atomic psp file    /scratch/users/j/a/jabreu/pseudos/PBEsol/N.psp8
- N     ONCVPSP-3.3.0  r_core=   1.20551   1.35824
-  7.00000   5.00000    180112                znucl, zion, pspdat
    8 -116133    1    4       600   0.00000   pspcod,pspxc,lmax,lloc,mmax,r2well
    5.99000000000000    4.00000000000000    0.00000000000000   rchrg,fchrg,qchrg
     nproj     2     2
     extension_switch     1
  pspatm : epsatm=    5.26508895
         --- l  ekb(1:nproj) -->
             0    7.464189    0.625868
             1   -4.309714   -1.012941
 pspatm: atomic psp has been read  and splines computed

   1.65415708E+03                                ecore*ucvol(ha*bohr**3)

 ==>  initialize data related to q vector <==

 The list of irreducible perturbations for this q vector is:
    1)    idir= 1    ipert=   6
    2)    idir= 2    ipert=   6
    3)    idir= 3    ipert=   6

 Perturbation wavevector (in red.coord.)   0.000000  0.000000  0.000000
 Perturbation : derivative vs k along direction   1

 dfpt_looppert : COMMENT -
  In a d/dk calculation, iscf is set to -3 automatically.
 The set of symmetries contains only one element for this perturbation.
 symkpt : not enough symmetry to change the number of k points.

 Initialisation of the first-order wave-functions :
  ireadwf=   0

--- !BeginCycle
iteration_state: {dtset: 1, }
solver: {iscf: 7, nstep: 2000, nline: 4, wfoptalg: 0, }
tolerances: {tolwfr: 1.00E-20, }
...

     iter   2DEtotal(Ha)        deltaE(Ha) residm    vres2
-ETOT  1  -66.406287036014     -6.641E+01 8.871E-02 0.000E+00
 ETOT  2  -66.418572060671     -1.229E-02 3.833E-04 0.000E+00
 ETOT  3  -66.418583932223     -1.187E-05 3.091E-06 0.000E+00
 ETOT  4  -66.418583957580     -2.536E-08 5.196E-08 0.000E+00
 ETOT  5  -66.418583957652     -7.248E-11 5.327E-10 0.000E+00
 ETOT  6  -66.418583957652     -1.563E-13 1.060E-11 0.000E+00
 ETOT  7  -66.418583957652      2.842E-14 1.217E-13 0.000E+00
 ETOT  8  -66.418583957652     -2.842E-14 2.406E-15 0.000E+00
 ETOT  9  -66.418583957652      0.000E+00 4.233E-17 0.000E+00
 ETOT 10  -66.418583957652     -4.263E-14 1.023E-18 0.000E+00
 ETOT 11  -66.418583957652      1.421E-14 1.516E-20 0.000E+00
 ETOT 12  -66.418583957652      1.421E-14 9.751E-21 0.000E+00

 At SCF step   12   max residual=  9.75E-21 < tolwfr=  1.00E-20 =>converged.

 ----iterations are completed or convergence reached----

 dfpt_looppert: DFPT cycle converged with prtwf=-1. Will skip output of the 1st-order WFK file.
 dfpt_looppert : ek2=    9.4830693931E+01
          f-sum rule ratio=    1.3735415766E+00
 prteigrs : about to open file /scratch/users/j/a/jabreu/flow_simple_remain_atoms/flow/w151/t1/tmpdata/tmp_1WF1_EIG
 Expectation of eigenvalue derivatives (hartree) for nkpt=   1  k points:
  (in case of degenerate eigenvalues, averaged derivative)
 kpt#   1, nband= 29, wtk=  1.00000, kpt=  0.0000  0.0000  0.0000 (reduced coord)
   0.00000    0.00000   -0.00000    0.00000    0.00000    0.00000   -0.00000   -0.00000
  -0.00000    0.00000   -0.00000   -0.00000    0.00000    0.00000    0.00000    0.00000
   0.00000    0.00000    0.00000   -0.00000   -0.00000    0.00000    0.00000    0.00000
  -0.00000    0.00000    0.00000    0.00000   -0.00000

 Eight components of 2nd-order total energy (hartree) are
 1,2,3: 0th-order hamiltonian combined with 1st-order wavefunctions
     kin0=   6.49424118E+01 eigvalue=   4.11406897E+00  local=  -2.58204097E+01
 4,5,6: 1st-order hamiltonian combined with 1st and 0th-order wfs
     kin1=  -1.30253901E+02  Hartree=   0.00000000E+00     xc=   0.00000000E+00
 7,8,9: eventually, occupation + non-local contributions
    edocc=   2.67897262E+01     enl0=  -3.60721335E+00   enl1=  -2.58326706E+00
 1-9 gives the relaxation energy (to be shifted if some occ is /=2.0)
   erelax=  -6.64185840E+01
  No Ewald or frozen-wf contrib.: the relaxation energy is the total one
 2DEtotal=   -0.6641858396E+02 Ha. Also 2DEtotal=   -0.180734158351E+04 eV
    (  non-var. 2DEtotal :   -6.6418583957E+01 Ha)

 Perturbation wavevector (in red.coord.)   0.000000  0.000000  0.000000
 Perturbation : derivative vs k along direction   2
 The set of symmetries contains only one element for this perturbation.
 symkpt : not enough symmetry to change the number of k points.

[...]

 Perturbation wavevector (in red.coord.)   0.000000  0.000000  0.000000
 Perturbation : derivative vs k along direction   3
 The set of symmetries contains only one element for this perturbation.
 symkpt : not enough symmetry to change the number of k points.

 Initialisation of the first-order wave-functions :
  ireadwf=   0

--- !BeginCycle
iteration_state: {dtset: 1, }
solver: {iscf: 7, nstep: 2000, nline: 4, wfoptalg: 0, }
tolerances: {tolwfr: 1.00E-20, }
...

     iter   2DEtotal(Ha)        deltaE(Ha) residm    vres2
-ETOT  1  -15.953678136088     -1.595E+01 1.528E-02 0.000E+00
 ETOT  2  -15.957308893120     -3.631E-03 1.506E-05 0.000E+00
 ETOT  3  -15.957312557148     -3.664E-06 2.379E-07 0.000E+00
 ETOT  4  -15.957312565465     -8.317E-09 7.124E-10 0.000E+00
 ETOT  5  -15.957312565487     -2.257E-11 1.612E-11 0.000E+00
 ETOT  6  -15.957312565487     -2.132E-14 9.739E-14 0.000E+00
 ETOT  7  -15.957312565487      3.908E-14 1.655E-15 0.000E+00
 ETOT  8  -15.957312565487     -4.974E-14 1.412E-17 0.000E+00
 ETOT  9  -15.957312565487      2.487E-14 3.017E-19 0.000E+00
 ETOT 10  -15.957312565487      5.329E-15 9.720E-21 0.000E+00

 At SCF step   10   max residual=  9.72E-21 < tolwfr=  1.00E-20 =>converged.

 ----iterations are completed or convergence reached----

 dfpt_looppert: DFPT cycle converged with prtwf=-1. Will skip output of the 1st-order WFK file.
 dfpt_looppert : ek2=    2.4240260889E+01
          f-sum rule ratio=    1.2775081068E+00
 prteigrs : about to open file /scratch/users/j/a/jabreu/flow_simple_remain_atoms/flow/w151/t1/tmpdata/tmp_1WF1_EIG
 Expectation of eigenvalue derivatives (hartree) for nkpt=   1  k points:
  (in case of degenerate eigenvalues, averaged derivative)
 kpt#   1, nband= 29, wtk=  1.00000, kpt=  0.0000  0.0000  0.0000 (reduced coord)
  -0.00000   -0.00000   -0.00000   -0.00000    0.00000    0.00000    0.00000    0.00000
  -0.00000   -0.00000   -0.00000   -0.00000    0.00000   -0.00000    0.00000   -0.00000
  -0.00000    0.00000    0.00000    0.00000    0.00000   -0.00000   -0.00000   -0.00000
   0.00000   -0.00000   -0.00000    0.00000   -0.00000

 Eight components of 2nd-order total energy (hartree) are
 1,2,3: 0th-order hamiltonian combined with 1st-order wavefunctions
     kin0=   1.56784964E+01 eigvalue=   1.25079816E+00  local=  -6.35992136E+00
 4,5,6: 1st-order hamiltonian combined with 1st and 0th-order wfs
     kin1=  -3.09671298E+01  Hartree=   0.00000000E+00     xc=   0.00000000E+00
 7,8,9: eventually, occupation + non-local contributions
    edocc=   5.97282379E+00     enl0=  -5.84884474E-01   enl1=  -9.47495335E-01
 1-9 gives the relaxation energy (to be shifted if some occ is /=2.0)
   erelax=  -1.59573126E+01
  No Ewald or frozen-wf contrib.: the relaxation energy is the total one
 2DEtotal=   -0.1595731257E+02 Ha. Also 2DEtotal=   -0.434220557593E+03 eV
    (  non-var. 2DEtotal :   -1.5957312565E+01 Ha)

 CALCULATION OF EFFECTIVE MASSES
 NOTE : Additional infos (eff. mass eigenvalues, eigenvectors and, if degenerate, average mass) are available in stdout.

 K-point ( 0.000, 0.000, 0.000) | band =    20
 Effective mass tensor:
             -1.8887454271             -0.0000000046             -0.0000000098
             -0.0000000046             -1.8887453966             -0.0000000062
             -0.0000000098             -0.0000000062             -0.1792898567
 Effective mass tensor eigenvalues:
             -1.8887454277             -1.8887453960             -0.1792898567
 Angular average effective mass 1/(<1/m>)=  -0.4520479353
 Angular average effective mass for Frohlich model (<m**0.5>)**2=  -0.6749425597
 Effective masses along directions: (cart. coord. / red. coord. -> eff. mass)
    1:   1.000000  0.000000  0.000000 /   0.894427 -0.447214  0.000000 ->  -1.8887454271
    2:   0.000000  1.000000  0.000000 /   0.000000  1.000000  0.000000 ->  -1.8887453966
    3:   0.000000  0.000000  1.000000 /   0.000000  0.000000  1.000000 ->  -0.1792898567
    4:   0.577350  0.577350  0.577350 /   0.495800  0.181475  0.849264 ->  -0.4520479419
    5:   0.000000  0.707107  0.707107 /   0.000000  0.451197  0.892425 ->  -0.3274923801
    6:   0.707107  0.000000  0.707107 /   0.488877 -0.244439  0.837406 ->  -0.3274923817
    7:   0.707107  0.707107  0.000000 /   0.939071  0.343724  0.000000 ->  -1.8887454164

 K-point ( 0.000, 0.000, 0.000) | band =    21
 Effective mass tensor:
              0.2380418860             -0.0000000000              0.0000000000
             -0.0000000000              0.2380418860             -0.0000000000
              0.0000000000             -0.0000000000              0.1803509923
 Effective mass tensor eigenvalues:
              0.1803509923              0.2380418860              0.2380418860
 Angular average effective mass 1/(<1/m>)=   0.2151057863
 Angular average effective mass for Frohlich model (<m**0.5>)**2=   0.2162632545
 Effective masses along directions: (cart. coord. / red. coord. -> eff. mass)
    1:   1.000000  0.000000  0.000000 /   0.894427 -0.447214  0.000000 ->   0.2380418860
    2:   0.000000  1.000000  0.000000 /   0.000000  1.000000  0.000000 ->   0.2380418860
    3:   0.000000  0.000000  1.000000 /   0.000000  0.000000  1.000000 ->   0.1803509923
    4:   0.577350  0.577350  0.577350 /   0.495800  0.181475  0.849264 ->   0.2151057863
    5:   0.000000  0.707107  0.707107 /   0.000000  0.451197  0.892425 ->   0.2052190302
    6:   0.707107  0.000000  0.707107 /   0.488877 -0.244439  0.837406 ->   0.2052190301
    7:   0.707107  0.707107  0.000000 /   0.939071  0.343724  0.000000 ->   0.2380418860

 END OF EFFECTIVE MASSES SECTION

 ---- first-order wavefunction calculations are completed ----

 Total localisation tensor (bohr^2) in cartesian coordinates
  WARNING : still subject to testing - especially symmetries.
      direction              matrix element
   alpha     beta       real part   imaginary part
     1        1       3.2282849829    0.0000000000
     1        2      -1.1183107071    0.0000000000
     1        3       0.0000000000    0.0000000000
     2        1      -1.1183107071    0.0000000000
     2        2       1.9369709634    0.0000000000
     2        3       0.0000000000    0.0000000000
     3        1       0.0000000000    0.0000000000
     3        2       0.0000000000    0.0000000000
     3        3       2.1421406926    0.0000000000

 respfn : d/dk was computed, but no 2DTE, so no DDB output.

== END DATASET(S) ==============================================================

 -outvars: echo values of variables after computation  --------
            acell      1.0000000000E+00  1.0000000000E+00  1.0000000000E+00 Bohr
              amu      4.00780000E+01  2.43050000E+01  1.40067400E+01
             ecut      4.20000000E+01 Hartree
           etotal     -1.5957312565E+01
            fcart      0.0000000000E+00  0.0000000000E+00  0.0000000000E+00
                       0.0000000000E+00  0.0000000000E+00  0.0000000000E+00
                       0.0000000000E+00  0.0000000000E+00  0.0000000000E+00
                       0.0000000000E+00  0.0000000000E+00  0.0000000000E+00
                       0.0000000000E+00  0.0000000000E+00  0.0000000000E+00
-          fftalg         512
           irdden           1
           irdwfk           1
           istwfk        1
              ixc     -116133
           kptopt           0
P           mkmem           1
P          mkqmem           1
P          mk1mem           1
            natom           5
            nband          29
           nbdbuf           4
            ngfft          40      40      72
             nkpt           1
            nstep        2000
             nsym          12
           ntypat           3
              occ      2.000000  2.000000  2.000000  2.000000  2.000000  2.000000
                       2.000000  2.000000  2.000000  2.000000  2.000000  2.000000
                       2.000000  2.000000  2.000000  2.000000  2.000000  2.000000
                       2.000000  2.000000  0.000000  0.000000  0.000000  0.000000
                       0.000000  0.000000  0.000000  0.000000  0.000000
        optdriver           1
            prtwf          -1
            rfdir           1       1       1
           rfelfd           2
            rprim      6.6637664233E+00  0.0000000000E+00  0.0000000000E+00
                      -3.3318832117E+00  5.7709910075E+00  0.0000000000E+00
                       0.0000000000E+00  0.0000000000E+00  1.1414482248E+01
          spgroup         164
           strten      0.0000000000E+00  0.0000000000E+00  0.0000000000E+00
                       0.0000000000E+00  0.0000000000E+00  0.0000000000E+00
           symrel      1  0  0   0  1  0   0  0  1      -1  0  0   0 -1  0   0  0 -1
                      -1  0  0   1  1  0   0  0  1       1  0  0  -1 -1  0   0  0 -1
                       0  1  0  -1 -1  0   0  0  1       0 -1  0   1  1  0   0  0 -1
                       0 -1  0  -1  0  0   0  0  1       0  1  0   1  0  0   0  0 -1
                      -1 -1  0   1  0  0   0  0  1       1  1  0  -1  0  0   0  0 -1
                       1  1  0   0 -1  0   0  0  1      -1 -1  0   0  1  0   0  0 -1
           tolwfr      1.00000000E-20
            typat      1  2  2  3  3
           useylm           1
           xangst      0.0000000000E+00  0.0000000000E+00  3.0201419268E+00
                       1.7631566573E+00  1.0179589707E+00  8.5652433101E-01
                      -1.7639711750E-11  2.0359179414E+00  5.1837595226E+00
                       1.7631566573E+00  1.0179589707E+00  4.6150547172E+00
                      -1.7639711750E-11  2.0359179414E+00  1.4252291364E+00
            xcart      0.0000000000E+00  0.0000000000E+00  5.7072411241E+00
                       3.3318832116E+00  1.9236636692E+00  1.6185964118E+00
                      -3.3334224270E-11  3.8473273383E+00  9.7958858364E+00
                       3.3318832116E+00  1.9236636692E+00  8.7211895038E+00
                      -3.3334224270E-11  3.8473273383E+00  2.6932927444E+00
             xred      0.0000000000E+00  0.0000000000E+00  5.0000000000E-01
                       6.6666666667E-01  3.3333333333E-01  1.4180200000E-01
                       3.3333333333E-01  6.6666666667E-01  8.5819800000E-01
                       6.6666666667E-01  3.3333333333E-01  7.6404600000E-01
                       3.3333333333E-01  6.6666666667E-01  2.3595400000E-01
            znucl       20.00000   12.00000    7.00000

- Timing analysis has been suppressed with timopt=0

 Suggested references for the acknowledgment of ABINIT usage.

 Calculation completed.
.Delivered   2 WARNINGs and   5 COMMENTs to log file.