.Version 9.5.1 of ABINIT

 ABINIT is a project of the Universite Catholique de Louvain,
 Corning Inc. and other collaborators, see ~abinit/doc/developers/contributors.txt .
 acknowledgments of the ABINIT effort.

.Starting date : Tue 11 May 2021.
- ( at 21h18 )

- input  file    -> /scratch/users/j/a/jabreu/flow_simple_8atoms/flow/w281/t1/run.abi
- output file    -> /scratch/users/j/a/jabreu/flow_simple_8atoms/flow/w281/t1/run.abo
- root for input  files -> /scratch/users/j/a/jabreu/flow_simple_8atoms/flow/w281/t1/indata/in
- root for output files -> /scratch/users/j/a/jabreu/flow_simple_8atoms/flow/w281/t1/outdata/out

 Symmetries : space group I-4 2 d (#122); Bravais tI (body-center tetrag.)
     intxc =       0      iscf =       7    lmnmax =      18     lnmax =       6
     mgfft =      90  mpssoang =       3    mqgrid =    3189     natom =       8
  nloc_mem =       1    nspden =       1   nspinor =       1    nsppol =       1
      nsym =       8    n1xccc =    2501    ntypat =       3    occopt =       1
   xclevel =       2
-    mband =          53        mffmem =           1         mkmem =           1
-   mkqmem =           1        mk1mem =           1           mpw =       23611
      nfft =      729000          nkpt =           1
  Rough estimation (10% accuracy) of disk space for files :

------------- Echo of variables that govern the present computation ------------
-
- outvars: echo of selected default values
-   iomode0 =  0 , fftalg0 =512 , wfoptalg0 =  0
-
- outvars: echo of global parameters not present in the input file
-  max_nthreads =    0
-
 -outvars: echo values of preprocessed input variables --------
            acell      1.0000000000E+00  1.0000000000E+00  1.0000000000E+00 Bohr
              amu      1.12411000E+02  1.18710000E+02  3.09737620E+01
             ecut      5.10000000E+01 Hartree
-          fftalg         512
           irdden           1
           irdwfk           1
           istwfk        1
              ixc     -116133
           kptopt           0
P           mkmem           1
P          mkqmem           1
P          mk1mem           1
            natom           8
            nband          53
           nbdbuf           4
            ngfft          90      90      90
             nkpt           1
            nstep        2000
             nsym           8
           ntypat           3
              occ      2.000000  2.000000  2.000000  2.000000  2.000000  2.000000
                       2.000000  2.000000  2.000000  2.000000  2.000000  2.000000
                       2.000000  2.000000  2.000000  2.000000  2.000000  2.000000
                       2.000000  2.000000  2.000000  2.000000  2.000000  2.000000
                       2.000000  2.000000  2.000000  2.000000  2.000000  2.000000
                       2.000000  2.000000  2.000000  2.000000  2.000000  2.000000
                       2.000000  2.000000  2.000000  2.000000  2.000000  2.000000
                       2.000000  2.000000  0.000000  0.000000  0.000000  0.000000
                       0.000000  0.000000  0.000000  0.000000  0.000000
        optdriver           1
            prtwf          -1
            rfdir           1       1       1
           rfelfd           2
            rprim      1.0135089592E+01  0.0000000000E+00 -8.8756702995E+00
                      -2.0845593012E+00  9.9183997480E+00 -8.8756702995E+00
                       0.0000000000E+00  0.0000000000E+00  1.3472103188E+01
          spgroup         122
           symrel      1  0  0   0  1  0   0  0  1       0  0  1  -1 -1 -1   1  0  0
                       0  1  0   1  0  0  -1 -1 -1      -1 -1 -1   0  0  1   0  1  0
                       0  1  0   1  0  0   0  0  1       0  0  1  -1 -1 -1   0  1  0
                       1  0  0   0  1  0  -1 -1 -1      -1 -1 -1   0  0  1   1  0  0
            tnons      0.0000000  0.0000000  0.0000000    -0.2500000  0.2500000  0.5000000
                       0.0000000  0.0000000  0.0000000    -0.2500000  0.2500000  0.5000000
                      -0.2500000  0.2500000  0.5000000     0.0000000  0.0000000  0.0000000
                      -0.2500000  0.2500000  0.5000000     0.0000000  0.0000000  0.0000000
           tolwfr      1.00000000E-20
            typat      1  1  2  2  3  3  3  3
           useylm           1
           xangst      0.0000000000E+00  0.0000000000E+00  0.0000000000E+00
                       3.7466684964E+00  1.3121477731E+00 -1.1322374540E+00
                       5.1348865069E-01  3.9364433192E+00 -1.1322374540E+00
                       2.1300785735E+00  2.6242955462E+00 -4.6968024335E+00
                       5.5176301459E-01  6.5607388654E-01  2.3990915622E+00
                       4.2752302124E+00  1.9870536045E+00 -5.8622758507E+00
                       2.6433548457E+00  3.2803694327E+00 -2.3151652535E+00
                       1.0499662214E+00  4.5736852609E+00  1.2493997259E+00
            xcart      0.0000000000E+00  0.0000000000E+00  0.0000000000E+00
                       7.0801773689E+00  2.4795999370E+00 -2.1396187055E+00
                       9.7035292215E-01  7.4387998110E+00 -2.1396187055E+00
                       4.0252651455E+00  4.9591998740E+00 -8.8756702995E+00
                       1.0426809878E+00  1.2397999685E+00  4.5336260203E+00
                       8.0790142565E+00  3.7549871238E+00 -1.1078095873E+01
                       4.9952167304E+00  6.1989998425E+00 -4.3750282816E+00
                       1.9841486073E+00  8.6430125612E+00  2.3610233124E+00
             xred      0.0000000000E+00  0.0000000000E+00  0.0000000000E+00
                       7.5000000000E-01  2.5000000000E-01  5.0000000000E-01
                       2.5000000000E-01  7.5000000000E-01  5.0000000000E-01
                       5.0000000000E-01  5.0000000000E-01 -1.1102230246E-16
                       1.2858800000E-01  1.2500000000E-01  5.0358800000E-01
                       8.7500000000E-01  3.7858800000E-01  3.5880000000E-03
                       6.2141200000E-01  6.2500000000E-01  4.9641200000E-01
                       3.7500000000E-01  8.7141200000E-01  9.9641200000E-01
            znucl       48.00000   50.00000   15.00000

 chkinp: Checking input parameters for consistency.

== DATASET  1 ==================================================================
-   mpi_nproc: 1, omp_nthreads: -1 (-1 if OMP is not activated)

--- !DatasetInfo
iteration_state: {dtset: 1, }
dimensions: {natom: 8, nkpt: 1, mband: 53, nsppol: 1, nspinor: 1, nspden: 1, mpw: 23611, }
cutoff_energies: {ecut:  51.0, pawecutdg:  -1.0, }
electrons: {nelect:   8.80000000E+01, charge:   0.00000000E+00, occopt:   1.00000000E+00, tsmear:   1.00000000E-02, }
meta: {optdriver: 1, rfelfd: 2, }
...

 Real(R)+Recip(G) space primitive vectors, cartesian coordinates (Bohr,Bohr^-1):
 R(1)= 10.1350896  0.0000000 -8.8756703  G(1)=  0.0986671  0.0207370  0.0000000
 R(2)= -2.0845593  9.9183997 -8.8756703  G(2)=  0.0000000  0.1008227  0.0000000
 R(3)=  0.0000000  0.0000000 13.4721032  G(3)=  0.0650037  0.0800858  0.0742275
 Unit cell volume ucvol=  1.3542680E+03 bohr^3
 Angles (23,13,12)=  1.31209824E+02  1.31209824E+02  7.14799239E+01 degrees

 getcut: wavevector=  0.0000  0.0000  0.0000  ngfft=  90  90  90
         ecut(hartree)=     51.000   => boxcut(ratio)=   2.07834

--- Pseudopotential description ------------------------------------------------
- pspini: atom type   1  psp file is /scratch/users/j/a/jabreu/pseudos/PBEsol/Cd.psp8
- pspatm: opening atomic psp file    /scratch/users/j/a/jabreu/pseudos/PBEsol/Cd.psp8
- Cd    ONCVPSP-3.3.0  r_core=   1.25838   1.30423   1.35174
- 48.00000  20.00000    180112                znucl, zion, pspdat
    8 -116133    2    4       600   0.00000   pspcod,pspxc,lmax,lloc,mmax,r2well
    5.99000000000000    6.00000000000000    0.00000000000000   rchrg,fchrg,qchrg
     nproj     2     2     2
     extension_switch     1
  pspatm : epsatm=   23.26728021
         --- l  ekb(1:nproj) -->
             0   63.701523    3.700425
             1    8.703569    1.290373
             2    0.983656   -0.721725
 pspatm: atomic psp has been read  and splines computed

- pspini: atom type   2  psp file is /scratch/users/j/a/jabreu/pseudos/PBEsol/Sn.psp8
- pspatm: opening atomic psp file    /scratch/users/j/a/jabreu/pseudos/PBEsol/Sn.psp8
- Sn    ONCVPSP-3.3.0  r_core=   2.27326   2.62311   1.85601
- 50.00000  14.00000    180112                znucl, zion, pspdat
    8 -116133    2    4       600   0.00000   pspcod,pspxc,lmax,lloc,mmax,r2well
    5.99000000000000    6.50000000000000    0.00000000000000   rchrg,fchrg,qchrg
     nproj     2     2     2
     extension_switch     1
  pspatm : epsatm=   32.44586081
         --- l  ekb(1:nproj) -->
             0    5.587869    0.749373
             1    4.197111    0.728791
             2   -5.271877   -1.523486
 pspatm: atomic psp has been read  and splines computed

- pspini: atom type   3  psp file is /scratch/users/j/a/jabreu/pseudos/PBEsol/P.psp8
- pspatm: opening atomic psp file    /scratch/users/j/a/jabreu/pseudos/PBEsol/P.psp8
- P     ONCVPSP-3.3.0  r_core=   1.46089   1.55067   1.70594
- 15.00000   5.00000    180112                znucl, zion, pspdat
    8 -116133    2    4       600   0.00000   pspcod,pspxc,lmax,lloc,mmax,r2well
    5.99000000000000    5.00000000000000    0.00000000000000   rchrg,fchrg,qchrg
     nproj     2     2     2
     extension_switch     1
  pspatm : epsatm=    7.31221086
         --- l  ekb(1:nproj) -->
             0    6.742364    1.063650
             1    3.449117    0.910422
             2   -3.077645   -0.799176
 pspatm: atomic psp has been read  and splines computed

   1.23794110E+04                                ecore*ucvol(ha*bohr**3)

-inwffil : will read wavefunctions from disk file /scratch/users/j/a/jabreu/flow_simple_8atoms/flow/w281/t1/indata/in_WFK

 ==>  initialize data related to q vector <==

 The list of irreducible perturbations for this q vector is:
    1)    idir= 1    ipert=   9
    2)    idir= 2    ipert=   9
    3)    idir= 3    ipert=   9

 Perturbation wavevector (in red.coord.)   0.000000  0.000000  0.000000
 Perturbation : derivative vs k along direction   1

 dfpt_looppert : COMMENT -
  In a d/dk calculation, iscf is set to -3 automatically.
 The set of symmetries contains only one element for this perturbation.
 symkpt : not enough symmetry to change the number of k points.

[...]

 Initialisation of the first-order wave-functions :
  ireadwf=   0

--- !BeginCycle
iteration_state: {dtset: 1, }
solver: {iscf: 7, nstep: 2000, nline: 4, wfoptalg: 0, }
tolerances: {tolwfr: 1.00E-20, }
...

     iter   2DEtotal(Ha)        deltaE(Ha) residm    vres2
-ETOT  1  -72.806789543764     -7.281E+01 1.512E-01 0.000E+00
 ETOT  2  -72.960967231984     -1.542E-01 4.326E-02 0.000E+00
 ETOT  3  -72.963307737847     -2.341E-03 5.605E-03 0.000E+00
 ETOT  4  -72.963379486569     -7.175E-05 1.944E-03 0.000E+00
 ETOT  5  -72.963382084994     -2.598E-06 4.354E-04 0.000E+00
 ETOT  6  -72.963382190644     -1.056E-07 1.768E-04 0.000E+00
 ETOT  7  -72.963382195334     -4.690E-09 3.946E-05 0.000E+00
 ETOT  8  -72.963382195564     -2.301E-10 1.706E-05 0.000E+00
[...]
 ETOT 39  -72.963382195577     -1.421E-14 9.868E-21 0.000E+00

 At SCF step   39   max residual=  9.87E-21 < tolwfr=  1.00E-20 =>converged.

 ----iterations are completed or convergence reached----

 dfpt_looppert: DFPT cycle converged with prtwf=-1. Will skip output of the 1st-order WFK file.
 dfpt_looppert : ek2=    7.0629997126E+01
          f-sum rule ratio=    1.6622255556E+00
 prteigrs : about to open file /scratch/users/j/a/jabreu/flow_simple_8atoms/flow/w281/t1/tmpdata/tmp_1WF1_EIG
 Expectation of eigenvalue derivatives (hartree) for nkpt=   1  k points:
  (in case of degenerate eigenvalues, averaged derivative)
 kpt#   1, nband= 53, wtk=  1.00000, kpt=  0.0000  0.0000  0.0000 (reduced coord)
  -0.00000   -0.00000   -0.00000   -0.00000   -0.00000   -0.00000    0.00000    0.00000
   0.00000    0.00000    0.00000   -0.00000    0.00000    0.00000   -0.00000   -0.00000
  -0.00000   -0.00000    0.00000    0.00000    0.00000   -0.00000   -0.00000    0.00000
  -0.00000   -0.00000    0.00000    0.00000    0.00000    0.00000    0.00000   -0.00000
  -0.00000    0.00000    0.00000   -0.00000   -0.00000   -0.00000   -0.00000    0.00000
   0.00000    0.00000    0.00000   -0.00000    0.00000   -0.00000    0.00000   -0.00000
  -0.00000   -0.00000   -0.00090   -0.00000    0.00419

 Eight components of 2nd-order total energy (hartree) are
 1,2,3: 0th-order hamiltonian combined with 1st-order wavefunctions
     kin0=   6.49138585E+01 eigvalue=   4.06013469E+00  local=  -3.50930206E+01
 4,5,6: 1st-order hamiltonian combined with 1st and 0th-order wfs
     kin1=  -1.17402986E+02  Hartree=   0.00000000E+00     xc=   0.00000000E+00
 7,8,9: eventually, occupation + non-local contributions
    edocc=   3.21937508E+01     enl0=   6.88865886E+00   enl1=  -2.85237782E+01
 1-9 gives the relaxation energy (to be shifted if some occ is /=2.0)
   erelax=  -7.29633822E+01
  No Ewald or frozen-wf contrib.: the relaxation energy is the total one
 2DEtotal=   -0.7296338220E+02 Ha. Also 2DEtotal=   -0.198543460065E+04 eV
    (  non-var. 2DEtotal :   -7.2963382195E+01 Ha)

 Perturbation wavevector (in red.coord.)   0.000000  0.000000  0.000000
 Perturbation : derivative vs k along direction   2
 The set of symmetries contains only one element for this perturbation.
 symkpt : not enough symmetry to change the number of k points.

[...]

 Perturbation wavevector (in red.coord.)   0.000000  0.000000  0.000000
 Perturbation : derivative vs k along direction   3
 The set of symmetries contains only one element for this perturbation.
 symkpt : not enough symmetry to change the number of k points.

-inwffil : will read wavefunctions from disk file /scratch/users/j/a/jabreu/flow_simple_8atoms/flow/w281/t1/indata/in_WFK

 Initialisation of the first-order wave-functions :
  ireadwf=   0

--- !BeginCycle
iteration_state: {dtset: 1, }
solver: {iscf: 7, nstep: 2000, nline: 4, wfoptalg: 0, }
tolerances: {tolwfr: 1.00E-20, }
...

     iter   2DEtotal(Ha)        deltaE(Ha) residm    vres2
-ETOT  1  -115.19578246661     -1.152E+02 4.881E-01 0.000E+00
 ETOT  2  -115.37073973135     -1.750E-01 5.294E-02 0.000E+00
 ETOT  3  -115.37304573243     -2.306E-03 2.335E-02 0.000E+00
 ETOT  4  -115.37311059574     -6.486E-05 3.554E-03 0.000E+00
 ETOT  5  -115.37311278530     -2.190E-06 1.981E-03 0.000E+00
 ETOT  6  -115.37311286960     -8.430E-08 3.496E-04 0.000E+00
 ETOT  7  -115.37311287314     -3.533E-09 1.962E-04 0.000E+00
 ETOT  8  -115.37311287330     -1.626E-10 3.813E-05 0.000E+00
 ETOT  9  -115.37311287331     -8.740E-12 2.123E-05 0.000E+00
 ETOT 10  -115.37311287331     -3.979E-13 4.158E-06 0.000E+00
 ETOT 11  -115.37311287331     -4.263E-14 2.331E-06 0.000E+00
 ETOT 12  -115.37311287331     -4.263E-13 4.544E-07 0.000E+00
 ETOT 13  -115.37311287331      4.405E-13 2.568E-07 0.000E+00
 ETOT 14  -115.37311287331     -4.263E-14 4.981E-08 0.000E+00
 ETOT 15  -115.37311287331      2.842E-14 2.833E-08 0.000E+00
 ETOT 16  -115.37311287331     -8.527E-14 5.472E-09 0.000E+00
 ETOT 17  -115.37311287331      0.000E+00 3.128E-09 0.000E+00
 ETOT 18  -115.37311287331     -2.842E-14 6.022E-10 0.000E+00
 ETOT 19  -115.37311287331      0.000E+00 3.455E-10 0.000E+00
 ETOT 20  -115.37311287331      1.421E-14 6.639E-11 0.000E+00
 ETOT 21  -115.37311287331     -2.842E-14 3.815E-11 0.000E+00
 ETOT 22  -115.37311287331     -1.421E-14 7.331E-12 0.000E+00
 ETOT 23  -115.37311287331      2.842E-14 4.212E-12 0.000E+00
 ETOT 24  -115.37311287331      2.842E-14 8.110E-13 0.000E+00
 ETOT 25  -115.37311287331     -1.421E-14 4.647E-13 0.000E+00
 ETOT 26  -115.37311287331     -1.421E-14 8.987E-14 0.000E+00
 ETOT 27  -115.37311287331      2.842E-14 5.126E-14 0.000E+00
 ETOT 28  -115.37311287331     -4.263E-14 9.976E-15 0.000E+00
 ETOT 29  -115.37311287331      2.842E-14 5.655E-15 0.000E+00
 ETOT 30  -115.37311287331      1.421E-14 1.108E-15 0.000E+00
 ETOT 31  -115.37311287331     -2.842E-14 6.243E-16 0.000E+00
 ETOT 32  -115.37311287331      0.000E+00 1.232E-16 0.000E+00
 ETOT 33  -115.37311287331      0.000E+00 6.899E-17 0.000E+00
 ETOT 34  -115.37311287331      0.000E+00 1.368E-17 0.000E+00
 ETOT 35  -115.37311287331      2.842E-14 7.631E-18 0.000E+00
 ETOT 36  -115.37311287331     -4.263E-14 1.517E-18 0.000E+00
 ETOT 37  -115.37311287331      1.421E-14 8.446E-19 0.000E+00
 ETOT 38  -115.37311287331      1.421E-14 1.682E-19 0.000E+00
 ETOT 39  -115.37311287331     -2.842E-14 9.347E-20 0.000E+00
 ETOT 40  -115.37311287331      5.684E-14 1.863E-20 0.000E+00
 ETOT 41  -115.37311287331     -1.421E-14 9.917E-21 0.000E+00

 At SCF step   41   max residual=  9.92E-21 < tolwfr=  1.00E-20 =>converged.

 ----iterations are completed or convergence reached----

 dfpt_looppert: DFPT cycle converged with prtwf=-1. Will skip output of the 1st-order WFK file.
 dfpt_looppert : ek2=    1.1220599995E+02
          f-sum rule ratio=    1.6523259905E+00
 prteigrs : about to open file /scratch/users/j/a/jabreu/flow_simple_8atoms/flow/w281/t1/tmpdata/tmp_1WF1_EIG
 Expectation of eigenvalue derivatives (hartree) for nkpt=   1  k points:
  (in case of degenerate eigenvalues, averaged derivative)
 kpt#   1, nband= 53, wtk=  1.00000, kpt=  0.0000  0.0000  0.0000 (reduced coord)
  -0.00000    0.00000   -0.00000   -0.00000   -0.00000   -0.00000   -0.00000   -0.00000
   0.00000    0.00000    0.00000   -0.00000   -0.00000   -0.00000   -0.00000    0.00000
  -0.00000   -0.00000   -0.00000   -0.00000   -0.00000    0.00000   -0.00000    0.00000
   0.00000    0.00000    0.00000    0.00000    0.00000    0.00000    0.00000    0.00000
   0.00000    0.00000   -0.00000   -0.00000   -0.00000   -0.00000   -0.00000    0.00000
   0.00000    0.00000    0.00000   -0.00000    0.00000   -0.00000    0.00000   -0.00000
  -0.00000   -0.00000   -0.00213   -0.00000    0.00313

 Eight components of 2nd-order total energy (hartree) are
 1,2,3: 0th-order hamiltonian combined with 1st-order wavefunctions
     kin0=   1.02640890E+02 eigvalue=   6.50353517E+00  local=  -5.53978149E+01
 4,5,6: 1st-order hamiltonian combined with 1st and 0th-order wfs
     kin1=  -1.85400890E+02  Hartree=   0.00000000E+00     xc=   0.00000000E+00
 7,8,9: eventually, occupation + non-local contributions
    edocc=   5.07945258E+01     enl0=   1.08319765E+01   enl1=  -4.53453357E+01
 1-9 gives the relaxation energy (to be shifted if some occ is /=2.0)
   erelax=  -1.15373113E+02
  No Ewald or frozen-wf contrib.: the relaxation energy is the total one
 2DEtotal=   -0.1153731129E+03 Ha. Also 2DEtotal=   -0.313946206152E+04 eV
    (  non-var. 2DEtotal :   -1.1537311287E+02 Ha)

 CALCULATION OF EFFECTIVE MASSES
 NOTE : Additional infos (eff. mass eigenvalues, eigenvectors and, if degenerate, average mass) are available in stdout.

 K-point ( 0.000, 0.000, 0.000) | band =    44
 Effective mass tensor:
             -0.3527401378              0.0620293344             -0.1110317469
              0.0620293344             -0.3266786158             -0.1368009774
             -0.1110317469             -0.1368009774             -0.1582850048
 Effective mass tensor eigenvalues:
             -0.4031194270             -0.4030904591             -0.0314938721
 Angular average effective mass 1/(<1/m>)=  -0.0817133751
 Angular average effective mass for Frohlich model (<m**0.5>)**2=  -0.1296008911
 Effective masses along directions: (cart. coord. / red. coord. -> eff. mass)
    1:   1.000000  0.000000  0.000000 /   0.979497 -0.201460  0.000000 ->  -0.1551064012
    2:   0.000000  1.000000  0.000000 /   0.000000  1.000000  0.000000 ->  -0.1176302136
    3:   0.000000  0.000000  1.000000 /  -0.482023 -0.482023  0.731647 ->  -0.0459447099
    4:   0.577350  0.577350  0.577350 /   0.092803 -0.076769  0.992721 ->  -0.4029588772
    5:   0.000000  0.707107  0.707107 /  -0.549009  0.064499  0.833324 ->  -0.2294578217
    6:   0.707107  0.000000  0.707107 /   0.072327 -0.629430  0.773684 ->  -0.1865537808
    7:   0.707107  0.707107  0.000000 /   0.791203  0.611554  0.000000 ->  -0.0809007281

 K-point ( 0.000, 0.000, 0.000) | band =    45
 Effective mass tensor:
              0.0383742355             -0.0013240384              0.0023697399
             -0.0013240384              0.0378176781              0.0029195714
              0.0023697399              0.0029195714              0.0342237705
 Effective mass tensor eigenvalues:
              0.0315177556              0.0394489226              0.0394490058
 Angular average effective mass 1/(<1/m>)=   0.0363960339
 Angular average effective mass for Frohlich model (<m**0.5>)**2=   0.0365230199
 Effective masses along directions: (cart. coord. / red. coord. -> eff. mass)
    1:   1.000000  0.000000  0.000000 /   0.979497 -0.201460  0.000000 ->   0.0381481481
    2:   0.000000  1.000000  0.000000 /   0.000000  1.000000  0.000000 ->   0.0375076548
    3:   0.000000  0.000000  1.000000 /  -0.482023 -0.482023  0.731647 ->   0.0338389471
    4:   0.577350  0.577350  0.577350 /   0.092803 -0.076769  0.992721 ->   0.0394486774
    5:   0.000000  0.707107  0.707107 /  -0.549009  0.064499  0.833324 ->   0.0388223998
    6:   0.707107  0.000000  0.707107 /   0.072327 -0.629430  0.773684 ->   0.0384959937
    7:   0.707107  0.707107  0.000000 /   0.791203  0.611554  0.000000 ->   0.0363605743

 END OF EFFECTIVE MASSES SECTION

 ---- first-order wavefunction calculations are completed ----

 Total localisation tensor (bohr^2) in cartesian coordinates
  WARNING : still subject to testing - especially symmetries.
      direction              matrix element
   alpha     beta       real part   imaginary part
     1        1      22.4282445967    0.0000000000
     1        2      -4.3311207568    0.0000000000
     1        3     -14.9682894084    0.0000000000
     2        1      -4.3311207568    0.0000000000
     2        2      20.6076109220    0.0000000000
     2        3     -18.4411159916    0.0000000000
     3        1     -14.9682894084    0.0000000000
     3        2     -18.4411159916    0.0000000000
     3        3      87.2540264914    0.0000000000

 respfn : d/dk was computed, but no 2DTE, so no DDB output.

== END DATASET(S) ==============================================================

 -outvars: echo values of variables after computation  --------
            acell      1.0000000000E+00  1.0000000000E+00  1.0000000000E+00 Bohr
              amu      1.12411000E+02  1.18710000E+02  3.09737620E+01
             ecut      5.10000000E+01 Hartree
           etotal     -1.1537311287E+02
            fcart      0.0000000000E+00  0.0000000000E+00  0.0000000000E+00
                       0.0000000000E+00  0.0000000000E+00  0.0000000000E+00
                       0.0000000000E+00  0.0000000000E+00  0.0000000000E+00
                       0.0000000000E+00  0.0000000000E+00  0.0000000000E+00
                       0.0000000000E+00  0.0000000000E+00  0.0000000000E+00
                       0.0000000000E+00  0.0000000000E+00  0.0000000000E+00
                       0.0000000000E+00  0.0000000000E+00  0.0000000000E+00
                       0.0000000000E+00  0.0000000000E+00  0.0000000000E+00
-          fftalg         512
           irdden           1
           irdwfk           1
           istwfk        1
              ixc     -116133
           kptopt           0
P           mkmem           1
P          mkqmem           1
P          mk1mem           1
            natom           8
            nband          53
           nbdbuf           4
            ngfft          90      90      90
             nkpt           1
            nstep        2000
             nsym           8
           ntypat           3
              occ      2.000000  2.000000  2.000000  2.000000  2.000000  2.000000
                       2.000000  2.000000  2.000000  2.000000  2.000000  2.000000
                       2.000000  2.000000  2.000000  2.000000  2.000000  2.000000
                       2.000000  2.000000  2.000000  2.000000  2.000000  2.000000
                       2.000000  2.000000  2.000000  2.000000  2.000000  2.000000
                       2.000000  2.000000  2.000000  2.000000  2.000000  2.000000
                       2.000000  2.000000  2.000000  2.000000  2.000000  2.000000
                       2.000000  2.000000  0.000000  0.000000  0.000000  0.000000
                       0.000000  0.000000  0.000000  0.000000  0.000000
        optdriver           1
            prtwf          -1
            rfdir           1       1       1
           rfelfd           2
            rprim      1.0135089592E+01  0.0000000000E+00 -8.8756702995E+00
                      -2.0845593012E+00  9.9183997480E+00 -8.8756702995E+00
                       0.0000000000E+00  0.0000000000E+00  1.3472103188E+01
          spgroup         122
           strten      0.0000000000E+00  0.0000000000E+00  0.0000000000E+00
                       0.0000000000E+00  0.0000000000E+00  0.0000000000E+00
           symrel      1  0  0   0  1  0   0  0  1       0  0  1  -1 -1 -1   1  0  0
                       0  1  0   1  0  0  -1 -1 -1      -1 -1 -1   0  0  1   0  1  0
                       0  1  0   1  0  0   0  0  1       0  0  1  -1 -1 -1   0  1  0
                       1  0  0   0  1  0  -1 -1 -1      -1 -1 -1   0  0  1   1  0  0
            tnons      0.0000000  0.0000000  0.0000000    -0.2500000  0.2500000  0.5000000
                       0.0000000  0.0000000  0.0000000    -0.2500000  0.2500000  0.5000000
                      -0.2500000  0.2500000  0.5000000     0.0000000  0.0000000  0.0000000
                      -0.2500000  0.2500000  0.5000000     0.0000000  0.0000000  0.0000000
           tolwfr      1.00000000E-20
            typat      1  1  2  2  3  3  3  3
           useylm           1
           xangst      0.0000000000E+00  0.0000000000E+00  0.0000000000E+00
                       3.7466684964E+00  1.3121477731E+00 -1.1322374540E+00
                       5.1348865069E-01  3.9364433192E+00 -1.1322374540E+00
                       2.1300785735E+00  2.6242955462E+00 -4.6968024335E+00
                       5.5176301459E-01  6.5607388654E-01  2.3990915622E+00
                       4.2752302124E+00  1.9870536045E+00 -5.8622758507E+00
                       2.6433548457E+00  3.2803694327E+00 -2.3151652535E+00
                       1.0499662214E+00  4.5736852609E+00  1.2493997259E+00
            xcart      0.0000000000E+00  0.0000000000E+00  0.0000000000E+00
                       7.0801773689E+00  2.4795999370E+00 -2.1396187055E+00
                       9.7035292215E-01  7.4387998110E+00 -2.1396187055E+00
                       4.0252651455E+00  4.9591998740E+00 -8.8756702995E+00
                       1.0426809878E+00  1.2397999685E+00  4.5336260203E+00
                       8.0790142565E+00  3.7549871238E+00 -1.1078095873E+01
                       4.9952167304E+00  6.1989998425E+00 -4.3750282816E+00
                       1.9841486073E+00  8.6430125612E+00  2.3610233124E+00
             xred      0.0000000000E+00  0.0000000000E+00  0.0000000000E+00
                       7.5000000000E-01  2.5000000000E-01  5.0000000000E-01
                       2.5000000000E-01  7.5000000000E-01  5.0000000000E-01
                       5.0000000000E-01  5.0000000000E-01 -1.1102230246E-16
                       1.2858800000E-01  1.2500000000E-01  5.0358800000E-01
                       8.7500000000E-01  3.7858800000E-01  3.5880000000E-03
                       6.2141200000E-01  6.2500000000E-01  4.9641200000E-01
                       3.7500000000E-01  8.7141200000E-01  9.9641200000E-01
            znucl       48.00000   50.00000   15.00000

- Timing analysis has been suppressed with timopt=0

 Suggested references for the acknowledgment of ABINIT usage.

 Calculation completed.
.Delivered   6 WARNINGs and   5 COMMENTs to log file.