.Version 9.5.1 of ABINIT

 ABINIT is a project of the Universite Catholique de Louvain,
 Corning Inc. and other collaborators, see ~abinit/doc/developers/contributors.txt .
 acknowledgments of the ABINIT effort.

.Starting date : Wed 28 Apr 2021.
- ( at 23h57 )

- input  file    -> /scratch/users/j/a/jabreu/flow_simple_5atoms/flow/w128/t1/run.abi
- output file    -> /scratch/users/j/a/jabreu/flow_simple_5atoms/flow/w128/t1/run.abo
- root for input  files -> /scratch/users/j/a/jabreu/flow_simple_5atoms/flow/w128/t1/indata/in
- root for output files -> /scratch/users/j/a/jabreu/flow_simple_5atoms/flow/w128/t1/outdata/out

 Symmetries : space group Pm -3 m (#221); Bravais cP (primitive cubic)
     intxc =       0      iscf =       7    lmnmax =      32     lnmax =       8
     mgfft =      50  mpssoang =       4    mqgrid =    3001     natom =       5
  nloc_mem =       1    nspden =       1   nspinor =       1    nsppol =       1
      nsym =      48    n1xccc =    2501    ntypat =       3    occopt =       1
   xclevel =       2
-    mband =          20        mffmem =           1         mkmem =           1
-   mkqmem =           1        mk1mem =           1           mpw =        7316
      nfft =      125000          nkpt =           1
  Rough estimation (10% accuracy) of disk space for files :

------------- Echo of variables that govern the present computation ------------
-
- outvars: echo of selected default values
-   iomode0 =  0 , fftalg0 =512 , wfoptalg0 =  0
-
- outvars: echo of global parameters not present in the input file
-  max_nthreads =    0
-
 -outvars: echo values of preprocessed input variables --------
            acell      1.0000000000E+00  1.0000000000E+00  1.0000000000E+00 Bohr
              amu      1.32905430E+02  4.00780000E+01  1.00794000E+00
             ecut      3.90000000E+01 Hartree
-          fftalg         512
           irdden           1
           irdwfk           1
           istwfk        1
              ixc     -116133
              kpt      5.00000000E-01  5.00000000E-01  0.00000000E+00
           kptopt           0
P           mkmem           1
P          mkqmem           1
P          mk1mem           1
            natom           5
            nband          20
           nbdbuf           4
            ngfft          50      50      50
             nkpt           1
            nstep         100
             nsym          48
           ntypat           3
              occ      2.000000  2.000000  2.000000  2.000000  2.000000  2.000000
                       2.000000  2.000000  2.000000  2.000000  2.000000  0.000000
                       0.000000  0.000000  0.000000  0.000000  0.000000  0.000000
                       0.000000  0.000000
        optdriver           1
            prtwf          -1
            rfdir           1       1       1
           rfelfd           2
            rprim      8.5770099628E+00  0.0000000000E+00  0.0000000000E+00
                       0.0000000000E+00  8.5770099628E+00  0.0000000000E+00
                       0.0000000000E+00  0.0000000000E+00  8.5770099628E+00
          spgroup         221
           symrel      1  0  0   0  1  0   0  0  1      -1  0  0   0 -1  0   0  0 -1
                      -1  0  0   0  1  0   0  0 -1       1  0  0   0 -1  0   0  0  1
                      -1  0  0   0 -1  0   0  0  1       1  0  0   0  1  0   0  0 -1
                       1  0  0   0 -1  0   0  0 -1      -1  0  0   0  1  0   0  0  1
                       0  1  0   1  0  0   0  0  1       0 -1  0  -1  0  0   0  0 -1
                       0 -1  0   1  0  0   0  0 -1       0  1  0  -1  0  0   0  0  1
                       0 -1  0  -1  0  0   0  0  1       0  1  0   1  0  0   0  0 -1
                       0  1  0  -1  0  0   0  0 -1       0 -1  0   1  0  0   0  0  1
                       0  0  1   1  0  0   0  1  0       0  0 -1  -1  0  0   0 -1  0
                       0  0 -1   1  0  0   0 -1  0       0  0  1  -1  0  0   0  1  0
                       0  0 -1  -1  0  0   0  1  0       0  0  1   1  0  0   0 -1  0
                       0  0  1  -1  0  0   0 -1  0       0  0 -1   1  0  0   0  1  0
                       1  0  0   0  0  1   0  1  0      -1  0  0   0  0 -1   0 -1  0
                      -1  0  0   0  0  1   0 -1  0       1  0  0   0  0 -1   0  1  0
                      -1  0  0   0  0 -1   0  1  0       1  0  0   0  0  1   0 -1  0
                       1  0  0   0  0 -1   0 -1  0      -1  0  0   0  0  1   0  1  0
                       0  1  0   0  0  1   1  0  0       0 -1  0   0  0 -1  -1  0  0
                       0 -1  0   0  0  1  -1  0  0       0  1  0   0  0 -1   1  0  0
                       0 -1  0   0  0 -1   1  0  0       0  1  0   0  0  1  -1  0  0
                       0  1  0   0  0 -1  -1  0  0       0 -1  0   0  0  1   1  0  0
                       0  0  1   0  1  0   1  0  0       0  0 -1   0 -1  0  -1  0  0
                       0  0 -1   0  1  0  -1  0  0       0  0  1   0 -1  0   1  0  0
                       0  0 -1   0 -1  0   1  0  0       0  0  1   0  1  0  -1  0  0
                       0  0  1   0 -1  0  -1  0  0       0  0 -1   0  1  0   1  0  0
           tolwfr      1.00000000E-20
            typat      1  2  3  3  3
           useylm           1
           xangst      0.0000000000E+00  0.0000000000E+00  0.0000000000E+00
                       2.2693790951E+00  2.2693790951E+00  2.2693790951E+00
                       2.2693790951E+00  0.0000000000E+00  2.2693790951E+00
                       0.0000000000E+00  2.2693790951E+00  2.2693790951E+00
                       2.2693790951E+00  2.2693790951E+00  0.0000000000E+00
            xcart      0.0000000000E+00  0.0000000000E+00  0.0000000000E+00
                       4.2885049814E+00  4.2885049814E+00  4.2885049814E+00
                       4.2885049814E+00  0.0000000000E+00  4.2885049814E+00
                       0.0000000000E+00  4.2885049814E+00  4.2885049814E+00
                       4.2885049814E+00  4.2885049814E+00  0.0000000000E+00
             xred      0.0000000000E+00  0.0000000000E+00  0.0000000000E+00
                       5.0000000000E-01  5.0000000000E-01  5.0000000000E-01
                       5.0000000000E-01  0.0000000000E+00  5.0000000000E-01
                       0.0000000000E+00  5.0000000000E-01  5.0000000000E-01
                       5.0000000000E-01  5.0000000000E-01  0.0000000000E+00
            znucl       55.00000   20.00000    1.00000

 chkinp: Checking input parameters for consistency.

== DATASET  1 ==================================================================
-   mpi_nproc: 1, omp_nthreads: -1 (-1 if OMP is not activated)

--- !DatasetInfo
iteration_state: {dtset: 1, }
dimensions: {natom: 5, nkpt: 1, mband: 20, nsppol: 1, nspinor: 1, nspden: 1, mpw: 7316, }
cutoff_energies: {ecut:  39.0, pawecutdg:  -1.0, }
electrons: {nelect:   2.20000000E+01, charge:   0.00000000E+00, occopt:   1.00000000E+00, tsmear:   1.00000000E-02, }
meta: {optdriver: 1, rfelfd: 2, }
...

 Real(R)+Recip(G) space primitive vectors, cartesian coordinates (Bohr,Bohr^-1):
 R(1)=  8.5770100  0.0000000  0.0000000  G(1)=  0.1165907  0.0000000  0.0000000
 R(2)=  0.0000000  8.5770100  0.0000000  G(2)=  0.0000000  0.1165907  0.0000000
 R(3)=  0.0000000  0.0000000  8.5770100  G(3)=  0.0000000  0.0000000  0.1165907
 Unit cell volume ucvol=  6.3096859E+02 bohr^3
 Angles (23,13,12)=  9.00000000E+01  9.00000000E+01  9.00000000E+01 degrees

 getcut: wavevector=  0.0000  0.0000  0.0000  ngfft=  50  50  50
         ecut(hartree)=     39.000   => boxcut(ratio)=   2.07366

--- Pseudopotential description ------------------------------------------------
- pspini: atom type   1  psp file is /scratch/users/j/a/jabreu/pseudos/PBEsol/Cs.psp8
- pspatm: opening atomic psp file    /scratch/users/j/a/jabreu/pseudos/PBEsol/Cs.psp8
- Cs    ONCVPSP-3.3.0  r_core=   2.27353   1.85623   2.01788   1.90105
- 55.00000   9.00000    180112                znucl, zion, pspdat
    8 -116133    3    4       600   0.00000   pspcod,pspxc,lmax,lloc,mmax,r2well
    5.99000000000000    5.00000000000000    0.00000000000000   rchrg,fchrg,qchrg
     nproj     2     2     2     2
     extension_switch     1
  pspatm : epsatm=   22.12462445
         --- l  ekb(1:nproj) -->
             0    6.214110    0.767882
             1    6.311966    0.793598
             2    3.769790    0.913105
             3   -9.247129   -2.432478
 pspatm: atomic psp has been read  and splines computed

- pspini: atom type   2  psp file is /scratch/users/j/a/jabreu/pseudos/PBEsol/Ca.psp8
- pspatm: opening atomic psp file    /scratch/users/j/a/jabreu/pseudos/PBEsol/Ca.psp8
- Ca    ONCVPSP-3.3.0  r_core=   1.45885   1.45885   1.85192
- 20.00000  10.00000    180112                znucl, zion, pspdat
    8 -116133    2    4       400   0.00000   pspcod,pspxc,lmax,lloc,mmax,r2well
    3.99000000000000    6.00000000000000    0.00000000000000   rchrg,fchrg,qchrg
     nproj     2     2     2
     extension_switch     1
  pspatm : epsatm=   12.46045226
         --- l  ekb(1:nproj) -->
             0   10.054847    0.973777
             1    2.998958    0.458102
             2   -3.447298   -1.091650
 pspatm: atomic psp has been read  and splines computed

- pspini: atom type   3  psp file is /scratch/users/j/a/jabreu/pseudos/PBEsol/H.psp8
- pspatm: opening atomic psp file    /scratch/users/j/a/jabreu/pseudos/PBEsol/H.psp8
- H     ONCVPSP-3.3.0  r_core=   1.00957   0.70586
-  1.00000   1.00000    180112                znucl, zion, pspdat
    8 -116133    1    4       300   0.00000   pspcod,pspxc,lmax,lloc,mmax,r2well
    2.99000000000000    0.00000000000000    0.00000000000000   rchrg,fchrg,qchrg
     nproj     2     1
     extension_switch     1
  pspatm : epsatm=    0.35627032
         --- l  ekb(1:nproj) -->
             0   -1.674911   -0.523609
             1   -0.494138
 pspatm: atomic psp has been read  and splines computed

   7.84385529E+02                                ecore*ucvol(ha*bohr**3)

-inwffil : will read wavefunctions from disk file /scratch/users/j/a/jabreu/flow_simple_5atoms/flow/w128/t1/indata/in_WFK

 ==>  initialize data related to q vector <==

 The list of irreducible perturbations for this q vector is:
    1)    idir= 1    ipert=   6
    2)    idir= 2    ipert=   6
    3)    idir= 3    ipert=   6

 Perturbation wavevector (in red.coord.)   0.000000  0.000000  0.000000
 Perturbation : derivative vs k along direction   1

 dfpt_looppert : COMMENT -
  In a d/dk calculation, iscf is set to -3 automatically.
 The set of symmetries contains only one element for this perturbation.
 symkpt : not enough symmetry to change the number of k points.

[...]

 Initialisation of the first-order wave-functions :
  ireadwf=   0

--- !BeginCycle
iteration_state: {dtset: 1, }
solver: {iscf: 7, nstep: 100, nline: 4, wfoptalg: 0, }
tolerances: {tolwfr: 1.00E-20, }
...

     iter   2DEtotal(Ha)        deltaE(Ha) residm    vres2
-ETOT  1  -13.776489624488     -1.378E+01 1.543E-02 0.000E+00
 ETOT  2  -13.780821721926     -4.332E-03 1.184E-03 0.000E+00
 ETOT  3  -13.780848572708     -2.685E-05 7.328E-06 0.000E+00
 ETOT  4  -13.780849253197     -6.805E-07 1.446E-06 0.000E+00
[...]
 ETOT 15  -13.780849274487      3.553E-15 1.314E-18 0.000E+00
 ETOT 16  -13.780849274487     -3.553E-15 1.772E-19 0.000E+00
 ETOT 17  -13.780849274487      3.553E-15 1.810E-20 0.000E+00
 ETOT 18  -13.780849274487      3.553E-15 9.772E-21 0.000E+00

 At SCF step   18   max residual=  9.77E-21 < tolwfr=  1.00E-20 =>converged.

 ----iterations are completed or convergence reached----

 dfpt_looppert: DFPT cycle converged with prtwf=-1. Will skip output of the 1st-order WFK file.
 dfpt_looppert : ek2=    2.3612424600E+01
          f-sum rule ratio=    1.1738247728E+00
 prteigrs : about to open file /scratch/users/j/a/jabreu/flow_simple_5atoms/flow/w128/t1/tmpdata/tmp_1WF1_EIG
 Expectation of eigenvalue derivatives (hartree) for nkpt=   1  k points:
  (in case of degenerate eigenvalues, averaged derivative)
 kpt#   1, nband= 20, wtk=  1.00000, kpt=  0.5000  0.5000  0.0000 (reduced coord)
  -0.00000    0.00000   -0.00000   -0.00000    0.00000    0.00000    0.00000    0.00000
  -0.00000    0.00000    0.00000   -0.00000   -0.00000   -0.00000    0.00000    0.00000
  -0.00000   -0.00000    0.00000    0.00244

 Eight components of 2nd-order total energy (hartree) are
 1,2,3: 0th-order hamiltonian combined with 1st-order wavefunctions
     kin0=   1.15255147E+01 eigvalue=   8.52430172E-01  local=  -8.09440460E+00
 4,5,6: 1st-order hamiltonian combined with 1st and 0th-order wfs
     kin1=  -2.77168489E+01  Hartree=   0.00000000E+00     xc=   0.00000000E+00
 7,8,9: eventually, occupation + non-local contributions
    edocc=   7.48611110E+00     enl0=   2.01119786E+00   enl1=   1.55150392E-01
 1-9 gives the relaxation energy (to be shifted if some occ is /=2.0)
   erelax=  -1.37808493E+01
  No Ewald or frozen-wf contrib.: the relaxation energy is the total one
 2DEtotal=   -0.1378084927E+02 Ha. Also 2DEtotal=   -0.374995979525E+03 eV
    (  non-var. 2DEtotal :   -1.3780849274E+01 Ha)

 Perturbation wavevector (in red.coord.)   0.000000  0.000000  0.000000
 Perturbation : derivative vs k along direction   2
 The set of symmetries contains only one element for this perturbation.
 symkpt : not enough symmetry to change the number of k points.

[...]

 Perturbation wavevector (in red.coord.)   0.000000  0.000000  0.000000
 Perturbation : derivative vs k along direction   3
 The set of symmetries contains only one element for this perturbation.
 symkpt : not enough symmetry to change the number of k points.

-inwffil : will read wavefunctions from disk file /scratch/users/j/a/jabreu/flow_simple_5atoms/flow/w128/t1/indata/in_WFK

 Initialisation of the first-order wave-functions :
  ireadwf=   0

--- !BeginCycle
iteration_state: {dtset: 1, }
solver: {iscf: 7, nstep: 100, nline: 4, wfoptalg: 0, }
tolerances: {tolwfr: 1.00E-20, }
...

     iter   2DEtotal(Ha)        deltaE(Ha) residm    vres2
-ETOT  1  -13.449627690125     -1.345E+01 1.389E-02 0.000E+00
 ETOT  2  -13.453437057613     -3.809E-03 4.744E-04 0.000E+00
 ETOT  3  -13.453460653329     -2.360E-05 1.510E-05 0.000E+00
 ETOT  4  -13.453461332472     -6.791E-07 7.587E-07 0.000E+00
 ETOT  5  -13.453461356844     -2.437E-08 4.501E-08 0.000E+00
 ETOT  6  -13.453461357860     -1.016E-09 2.725E-09 0.000E+00
 ETOT  7  -13.453461357904     -4.448E-11 1.881E-10 0.000E+00
 ETOT  8  -13.453461357906     -2.046E-12 1.989E-11 0.000E+00
 ETOT  9  -13.453461357907     -1.208E-13 1.414E-12 0.000E+00
 ETOT 10  -13.453461357907      5.329E-15 1.818E-13 0.000E+00
 ETOT 11  -13.453461357907      1.954E-14 1.306E-14 0.000E+00
 ETOT 12  -13.453461357907     -3.553E-15 2.034E-15 0.000E+00
 ETOT 13  -13.453461357907     -8.882E-15 1.300E-16 0.000E+00
 ETOT 14  -13.453461357907      1.421E-14 2.207E-17 0.000E+00
 ETOT 15  -13.453461357907      0.000E+00 1.330E-18 0.000E+00
 ETOT 16  -13.453461357907     -1.776E-15 2.460E-19 0.000E+00
 ETOT 17  -13.453461357907     -5.329E-15 1.395E-20 0.000E+00
 ETOT 18  -13.453461357907      1.776E-15 9.655E-21 0.000E+00

 At SCF step   18   max residual=  9.65E-21 < tolwfr=  1.00E-20 =>converged.

 ----iterations are completed or convergence reached----

 dfpt_looppert: DFPT cycle converged with prtwf=-1. Will skip output of the 1st-order WFK file.
 dfpt_looppert : ek2=    2.3612424600E+01
          f-sum rule ratio=    1.1148292652E+00
 prteigrs : about to open file /scratch/users/j/a/jabreu/flow_simple_5atoms/flow/w128/t1/tmpdata/tmp_1WF1_EIG
 Expectation of eigenvalue derivatives (hartree) for nkpt=   1  k points:
  (in case of degenerate eigenvalues, averaged derivative)
 kpt#   1, nband= 20, wtk=  1.00000, kpt=  0.5000  0.5000  0.0000 (reduced coord)
  -0.00000   -0.00000    0.00000    0.00000   -0.00000    0.00000    0.00000   -0.00000
  -0.00000    0.00000    0.00000   -0.00000   -0.00000   -0.00000    0.00000   -0.00000
  -0.00000    0.00000    0.00002   -0.00003

 Eight components of 2nd-order total energy (hartree) are
 1,2,3: 0th-order hamiltonian combined with 1st-order wavefunctions
     kin0=   1.17028759E+01 eigvalue=   9.09858073E-01  local=  -7.76304698E+00
 4,5,6: 1st-order hamiltonian combined with 1st and 0th-order wfs
     kin1=  -2.63238220E+01  Hartree=   0.00000000E+00     xc=   0.00000000E+00
 7,8,9: eventually, occupation + non-local contributions
    edocc=   8.21597044E+00     enl0=   3.87803908E-01   enl1=  -5.83100749E-01
 1-9 gives the relaxation energy (to be shifted if some occ is /=2.0)
   erelax=  -1.34534614E+01
  No Ewald or frozen-wf contrib.: the relaxation energy is the total one
 2DEtotal=   -0.1345346136E+02 Ha. Also 2DEtotal=   -0.366087301256E+03 eV
    (  non-var. 2DEtotal :   -1.3453461358E+01 Ha)

 CALCULATION OF EFFECTIVE MASSES
 NOTE : Additional infos (eff. mass eigenvalues, eigenvectors and, if degenerate, average mass) are available in stdout.

 COMMENTS:
 - At k-point ( 0.500, 0.500, 0.000), bands    10 through    11
   are DEGENERATE (effective mass tensor is therefore not defined).
   See Section IIIB Eqs. (67)-(70) and Appendix E of PRB 93 205147 (2016).
 - Angular average effective mass for Frohlich model is to be averaged over degenerate bands. See later.
 - Associated theta integrals calculated with ntheta=   1000 points.

 K-point ( 0.500, 0.500, 0.000) | band =    10
 Transport equivalent effective mass tensor:
             -0.5575807287              0.0000072607              0.0000079064
              0.0000072607             -0.5575663644             -0.0000051191
              0.0000079064             -0.0000051191             -1.1052618132
 Transport equivalent effective mass tensor eigenvalues:
             -1.1052618134             -0.5575837592             -0.5575633337
 Angular average effective mass 1/(<1/m>)=  -0.5984714001
 Angular average effective mass for Frohlich model (<m**0.5>)**2=  -0.6167989211
 Effective masses along directions: (cart. coord. / red. coord. -> eff. mass)
    1:   1.000000  0.000000  0.000000 /   1.000000  0.000000  0.000000 ->  -0.6536736324
    2:   0.000000  1.000000  0.000000 /   0.000000  1.000000  0.000000 ->  -0.6536736328
    3:   0.000000  0.000000  1.000000 /   0.000000  0.000000  1.000000 ->  -0.9422391751
    4:   0.577350  0.577350  0.577350 /   0.577350  0.577350  0.577350 ->  -0.5339411383
    5:   0.000000  0.707107  0.707107 /   0.000000  0.707107  0.707107 ->  -0.7718931643
    6:   0.707107  0.000000  0.707107 /   0.707107  0.000000  0.707107 ->  -0.7719093850
    7:   0.707107  0.707107  0.000000 /   0.707107  0.707107  0.000000 ->  -0.4388562839

 K-point ( 0.500, 0.500, 0.000) | band =    11
 Transport equivalent effective mass tensor:
             -1.8601348412             -0.0001282360              0.0001665012
             -0.0001282360             -1.8601114043              0.0001741329
              0.0001665012              0.0001741329             -1.7986105582
 Transport equivalent effective mass tensor eigenvalues:
             -1.8602528304             -1.8599943568             -1.7986096165
 Angular average effective mass 1/(<1/m>)=  -1.1153010790
 Angular average effective mass for Frohlich model (<m**0.5>)**2=  -1.1608960100
 Effective masses along directions: (cart. coord. / red. coord. -> eff. mass)
    1:   1.000000  0.000000  0.000000 /   1.000000  0.000000  0.000000 ->  -0.7934460869
    2:   0.000000  1.000000  0.000000 /   0.000000  1.000000  0.000000 ->  -0.7934460900
    3:   0.000000  0.000000  1.000000 /   0.000000  0.000000  1.000000 ->  -0.9424672215
    4:   0.577350  0.577350  0.577350 /   0.577350  0.577350  0.577350 ->  -1.4391744738
    5:   0.000000  0.707107  0.707107 /   0.000000  0.707107  0.707107 ->  -0.8614408177
    6:   0.707107  0.000000  0.707107 /   0.707107  0.000000  0.707107 ->  -0.8614117061
    7:   0.707107  0.707107  0.000000 /   0.707107  0.707107  0.000000 ->  -1.9550716479

 Angular average effective mass for Frohlich model, averaged over degenerate bands.
 Value of     (<<m**0.5>>)**2 =     8.675193E-01
 Absolute Value of <<m**0.5>> =     9.314072E-01

 K-point ( 0.500, 0.500, 0.000) | band =    12
 Effective mass tensor:
              0.4263192402              0.0000000033              0.0000000044
              0.0000000033              0.4263192100              0.0000000065
              0.0000000044              0.0000000065              0.4521475436
 Effective mass tensor eigenvalues:
              0.4263192096              0.4263192405              0.4521475436
 Angular average effective mass 1/(<1/m>)=   0.4345944320
 Angular average effective mass for Frohlich model (<m**0.5>)**2=   0.4346936410
 Effective masses along directions: (cart. coord. / red. coord. -> eff. mass)
    1:   1.000000  0.000000  0.000000 /   1.000000  0.000000  0.000000 ->   0.4263192402
    2:   0.000000  1.000000  0.000000 /   0.000000  1.000000  0.000000 ->   0.4263192100
    3:   0.000000  0.000000  1.000000 /   0.000000  0.000000  1.000000 ->   0.4521475436
    4:   0.577350  0.577350  0.577350 /   0.577350  0.577350  0.577350 ->   0.4345944414
    5:   0.000000  0.707107  0.707107 /   0.000000  0.707107  0.707107 ->   0.4388536860
    6:   0.707107  0.000000  0.707107 /   0.707107  0.000000  0.707107 ->   0.4388536999
    7:   0.707107  0.707107  0.000000 /   0.707107  0.707107  0.000000 ->   0.4263192284

 END OF EFFECTIVE MASSES SECTION

 ---- first-order wavefunction calculations are completed ----

 Total localisation tensor (bohr^2) in cartesian coordinates
  WARNING : still subject to testing - especially symmetries.
      direction              matrix element
   alpha     beta       real part   imaginary part
     1        1       1.6154545091    0.0000000000
     1        2       0.0000000000    0.0000000000
     1        3       0.0000000000    0.0000000000
     2        1       0.0000000000    0.0000000000
     2        2       1.6154616889    0.0000000000
     2        3       0.0000000000    0.0000000000
     3        1       0.0000000000    0.0000000000
     3        2       0.0000000000    0.0000000000
     3        3       1.4320036299    0.0000000000

 respfn : d/dk was computed, but no 2DTE, so no DDB output.

== END DATASET(S) ==============================================================

 -outvars: echo values of variables after computation  --------
            acell      1.0000000000E+00  1.0000000000E+00  1.0000000000E+00 Bohr
              amu      1.32905430E+02  4.00780000E+01  1.00794000E+00
             ecut      3.90000000E+01 Hartree
           etotal     -1.3453461358E+01
            fcart      0.0000000000E+00  0.0000000000E+00  0.0000000000E+00
                       0.0000000000E+00  0.0000000000E+00  0.0000000000E+00
                       0.0000000000E+00  0.0000000000E+00  0.0000000000E+00
                       0.0000000000E+00  0.0000000000E+00  0.0000000000E+00
                       0.0000000000E+00  0.0000000000E+00  0.0000000000E+00
-          fftalg         512
           irdden           1
           irdwfk           1
           istwfk        1
              ixc     -116133
              kpt      5.00000000E-01  5.00000000E-01  0.00000000E+00
           kptopt           0
P           mkmem           1
P          mkqmem           1
P          mk1mem           1
            natom           5
            nband          20
           nbdbuf           4
            ngfft          50      50      50
             nkpt           1
            nstep         100
             nsym          48
           ntypat           3
              occ      2.000000  2.000000  2.000000  2.000000  2.000000  2.000000
                       2.000000  2.000000  2.000000  2.000000  2.000000  0.000000
                       0.000000  0.000000  0.000000  0.000000  0.000000  0.000000
                       0.000000  0.000000
        optdriver           1
            prtwf          -1
            rfdir           1       1       1
           rfelfd           2
            rprim      8.5770099628E+00  0.0000000000E+00  0.0000000000E+00
                       0.0000000000E+00  8.5770099628E+00  0.0000000000E+00
                       0.0000000000E+00  0.0000000000E+00  8.5770099628E+00
          spgroup         221
           strten      0.0000000000E+00  0.0000000000E+00  0.0000000000E+00
                       0.0000000000E+00  0.0000000000E+00  0.0000000000E+00
           symrel      1  0  0   0  1  0   0  0  1      -1  0  0   0 -1  0   0  0 -1
                      -1  0  0   0  1  0   0  0 -1       1  0  0   0 -1  0   0  0  1
                      -1  0  0   0 -1  0   0  0  1       1  0  0   0  1  0   0  0 -1
                       1  0  0   0 -1  0   0  0 -1      -1  0  0   0  1  0   0  0  1
                       0  1  0   1  0  0   0  0  1       0 -1  0  -1  0  0   0  0 -1
                       0 -1  0   1  0  0   0  0 -1       0  1  0  -1  0  0   0  0  1
                       0 -1  0  -1  0  0   0  0  1       0  1  0   1  0  0   0  0 -1
                       0  1  0  -1  0  0   0  0 -1       0 -1  0   1  0  0   0  0  1
                       0  0  1   1  0  0   0  1  0       0  0 -1  -1  0  0   0 -1  0
                       0  0 -1   1  0  0   0 -1  0       0  0  1  -1  0  0   0  1  0
                       0  0 -1  -1  0  0   0  1  0       0  0  1   1  0  0   0 -1  0
                       0  0  1  -1  0  0   0 -1  0       0  0 -1   1  0  0   0  1  0
                       1  0  0   0  0  1   0  1  0      -1  0  0   0  0 -1   0 -1  0
                      -1  0  0   0  0  1   0 -1  0       1  0  0   0  0 -1   0  1  0
                      -1  0  0   0  0 -1   0  1  0       1  0  0   0  0  1   0 -1  0
                       1  0  0   0  0 -1   0 -1  0      -1  0  0   0  0  1   0  1  0
                       0  1  0   0  0  1   1  0  0       0 -1  0   0  0 -1  -1  0  0
                       0 -1  0   0  0  1  -1  0  0       0  1  0   0  0 -1   1  0  0
                       0 -1  0   0  0 -1   1  0  0       0  1  0   0  0  1  -1  0  0
                       0  1  0   0  0 -1  -1  0  0       0 -1  0   0  0  1   1  0  0
                       0  0  1   0  1  0   1  0  0       0  0 -1   0 -1  0  -1  0  0
                       0  0 -1   0  1  0  -1  0  0       0  0  1   0 -1  0   1  0  0
                       0  0 -1   0 -1  0   1  0  0       0  0  1   0  1  0  -1  0  0
                       0  0  1   0 -1  0  -1  0  0       0  0 -1   0  1  0   1  0  0
           tolwfr      1.00000000E-20
            typat      1  2  3  3  3
           useylm           1
           xangst      0.0000000000E+00  0.0000000000E+00  0.0000000000E+00
                       2.2693790951E+00  2.2693790951E+00  2.2693790951E+00
                       2.2693790951E+00  0.0000000000E+00  2.2693790951E+00
                       0.0000000000E+00  2.2693790951E+00  2.2693790951E+00
                       2.2693790951E+00  2.2693790951E+00  0.0000000000E+00
            xcart      0.0000000000E+00  0.0000000000E+00  0.0000000000E+00
                       4.2885049814E+00  4.2885049814E+00  4.2885049814E+00
                       4.2885049814E+00  0.0000000000E+00  4.2885049814E+00
                       0.0000000000E+00  4.2885049814E+00  4.2885049814E+00
                       4.2885049814E+00  4.2885049814E+00  0.0000000000E+00
             xred      0.0000000000E+00  0.0000000000E+00  0.0000000000E+00
                       5.0000000000E-01  5.0000000000E-01  5.0000000000E-01
                       5.0000000000E-01  0.0000000000E+00  5.0000000000E-01
                       0.0000000000E+00  5.0000000000E-01  5.0000000000E-01
                       5.0000000000E-01  5.0000000000E-01  0.0000000000E+00
            znucl       55.00000   20.00000    1.00000

- Timing analysis has been suppressed with timopt=0

 Suggested references for the acknowledgment of ABINIT usage.

 Calculation completed.
.Delivered   6 WARNINGs and   5 COMMENTs to log file.