.Version 9.5.1 of ABINIT

 ABINIT is a project of the Universite Catholique de Louvain,
 Corning Inc. and other collaborators, see ~abinit/doc/developers/contributors.txt .
 acknowledgments of the ABINIT effort.

.Starting date : Tue  4 May 2021.
- ( at 19h33 )

- input  file    -> /scratch/users/j/a/jabreu/flow_simple_6atoms/flow/w220/t1/run.abi
- output file    -> /scratch/users/j/a/jabreu/flow_simple_6atoms/flow/w220/t1/run.abo
- root for input  files -> /scratch/users/j/a/jabreu/flow_simple_6atoms/flow/w220/t1/indata/in
- root for output files -> /scratch/users/j/a/jabreu/flow_simple_6atoms/flow/w220/t1/outdata/out

 Symmetries : space group P2_1/m (# 11); Bravais mP (primitive monocl.)
     intxc =       0      iscf =       7    lmnmax =      18     lnmax =       6
     mgfft =      72  mpssoang =       3    mqgrid =    3395     natom =       6
  nloc_mem =       1    nspden =       1   nspinor =       1    nsppol =       1
      nsym =       4    n1xccc =    2501    ntypat =       3    occopt =       1
   xclevel =       2
-    mband =          25        mffmem =           1         mkmem =           1
-   mkqmem =           1        mk1mem =           1           mpw =       10525
      nfft =      186624          nkpt =           1
  Rough estimation (10% accuracy) of disk space for files :

------------- Echo of variables that govern the present computation ------------
-
- outvars: echo of selected default values
-   iomode0 =  0 , fftalg0 =512 , wfoptalg0 =  0
-
- outvars: echo of global parameters not present in the input file
-  max_nthreads =    0
-
 -outvars: echo values of preprocessed input variables --------
            acell      1.0000000000E+00  1.0000000000E+00  1.0000000000E+00 Bohr
              amu      3.90983000E+01  1.00794000E+00  3.20660000E+01
             ecut      3.90000000E+01 Hartree
-          fftalg         512
           irdden           1
           irdwfk           1
           istwfk        1
              ixc     -116133
           kptopt           0
P           mkmem           1
P          mkqmem           1
P          mk1mem           1
            natom           6
            nband          25
           nbdbuf           4
            ngfft          54      48      72
             nkpt           1
            nstep        1000
             nsym           4
           ntypat           3
              occ      2.000000  2.000000  2.000000  2.000000  2.000000  2.000000
                       2.000000  2.000000  2.000000  2.000000  2.000000  2.000000
                       2.000000  2.000000  2.000000  2.000000  0.000000  0.000000
                       0.000000  0.000000  0.000000  0.000000  0.000000  0.000000
                       0.000000
        optdriver           1
            prtwf          -1
            rfdir           1       1       1
           rfelfd           2
            rprim      9.2109164748E+00  0.0000000000E+00  0.0000000000E+00
                       0.0000000000E+00  7.9689682430E+00  1.6102399568E+00
                       0.0000000000E+00  0.0000000000E+00  1.2319516970E+01
          spgroup          11
           symrel      1  0  0   0  1  0   0  0  1      -1  0  0   0 -1  0   0  0 -1
                       1  0  0   0 -1  0   0  0 -1      -1  0  0   0  1  0   0  0  1
            tnons      0.0000000  0.0000000  0.0000000     0.0000000  0.0000000  0.0000000
                       0.5000000  0.0000000  0.0000000     0.5000000  0.0000000  0.0000000
           tolwfr      1.00000000E-20
            typat      1  1  2  2  3  3
           useylm           1
           xangst      1.2185517672E+00  1.1193004785E+00  1.9459240281E+00
                       3.6556553015E+00  3.0976958916E+00  5.4253858589E+00
                       1.2185517672E+00  4.0649778680E+00  6.7023163931E+00
                       3.6556553015E+00  1.5201850215E-01  6.6899349393E-01
                       1.2185517672E+00  1.0187799361E+00  5.1614993894E+00
                       3.6556553015E+00  3.1982164341E+00  2.2098104976E+00
            xcart      2.3027291187E+00  2.1151713649E+00  3.6772634885E+00
                       6.9081873561E+00  5.8537968781E+00  1.0252493439E+01
                       2.3027291187E+00  7.6816949068E+00  1.2665542439E+01
                       6.9081873561E+00  2.8727333619E-01  1.2642144882E+00
                       2.3027291187E+00  1.9252150689E+00  9.7538202811E+00
                       6.9081873561E+00  6.0437531741E+00  4.1759366460E+00
             xred      2.5000000000E-01  2.6542600000E-01  2.6379800000E-01
                       7.5000000000E-01  7.3457400000E-01  7.3620200000E-01
                       2.5000000000E-01  9.6395100000E-01  9.0209300000E-01
                       7.5000000000E-01  3.6049000000E-02  9.7907000000E-02
                       2.5000000000E-01  2.4158900000E-01  7.6016000000E-01
                       7.5000000000E-01  7.5841100000E-01  2.3984000000E-01
            znucl       19.00000    1.00000   16.00000

 chkinp: Checking input parameters for consistency.

== DATASET  1 ==================================================================
-   mpi_nproc: 1, omp_nthreads: -1 (-1 if OMP is not activated)

--- !DatasetInfo
iteration_state: {dtset: 1, }
dimensions: {natom: 6, nkpt: 1, mband: 25, nsppol: 1, nspinor: 1, nspden: 1, mpw: 10525, }
cutoff_energies: {ecut:  39.0, pawecutdg:  -1.0, }
electrons: {nelect:   3.20000000E+01, charge:   0.00000000E+00, occopt:   1.00000000E+00, tsmear:   1.00000000E-02, }
meta: {optdriver: 1, rfelfd: 2, }
...

 Real(R)+Recip(G) space primitive vectors, cartesian coordinates (Bohr,Bohr^-1):
 R(1)=  9.2109165  0.0000000  0.0000000  G(1)=  0.1085668  0.0000000  0.0000000
 R(2)=  0.0000000  7.9689682  1.6102400  G(2)=  0.0000000  0.1254868  0.0000000
 R(3)=  0.0000000  0.0000000 12.3195170  G(3)=  0.0000000 -0.0164019  0.0811720
 Unit cell volume ucvol=  9.0427104E+02 bohr^3
 Angles (23,13,12)=  7.85764141E+01  9.00000000E+01  9.00000000E+01 degrees

 getcut: wavevector=  0.0000  0.0000  0.0000  ngfft=  54  48  72
         ecut(hartree)=     39.000   => boxcut(ratio)=   2.07910

--- Pseudopotential description ------------------------------------------------
- pspini: atom type   1  psp file is /scratch/users/j/a/jabreu/pseudos/PBEsol/K.psp8
- pspatm: opening atomic psp file    /scratch/users/j/a/jabreu/pseudos/PBEsol/K.psp8
- K     ONCVPSP-3.3.0  r_core=   1.36296   1.46408   1.61068
- 19.00000   9.00000    180112                znucl, zion, pspdat
    8 -116133    2    4       400   0.00000   pspcod,pspxc,lmax,lloc,mmax,r2well
    3.99000000000000    5.00000000000000    0.00000000000000   rchrg,fchrg,qchrg
     nproj     2     2     2
     extension_switch     1
  pspatm : epsatm=    8.32487830
         --- l  ekb(1:nproj) -->
             0   10.921326    0.816676
             1    4.431000    0.560368
             2   -3.384038   -1.043186
 pspatm: atomic psp has been read  and splines computed

- pspini: atom type   2  psp file is /scratch/users/j/a/jabreu/pseudos/PBEsol/H.psp8
- pspatm: opening atomic psp file    /scratch/users/j/a/jabreu/pseudos/PBEsol/H.psp8
- H     ONCVPSP-3.3.0  r_core=   1.00957   0.70586
-  1.00000   1.00000    180112                znucl, zion, pspdat
    8 -116133    1    4       300   0.00000   pspcod,pspxc,lmax,lloc,mmax,r2well
    2.99000000000000    0.00000000000000    0.00000000000000   rchrg,fchrg,qchrg
     nproj     2     1
     extension_switch     1
  pspatm : epsatm=    0.35627032
         --- l  ekb(1:nproj) -->
             0   -1.674911   -0.523609
             1   -0.494138
 pspatm: atomic psp has been read  and splines computed

- pspini: atom type   3  psp file is /scratch/users/j/a/jabreu/pseudos/PBEsol/S.psp8
- pspatm: opening atomic psp file    /scratch/users/j/a/jabreu/pseudos/PBEsol/S.psp8
- S     ONCVPSP-3.3.0  r_core=   1.45376   1.45376   1.61851
- 16.00000   6.00000    180112                znucl, zion, pspdat
    8 -116133    2    4       600   0.00000   pspcod,pspxc,lmax,lloc,mmax,r2well
    5.99000000000000    6.00000000000000    0.00000000000000   rchrg,fchrg,qchrg
     nproj     2     2     2
     extension_switch     1
  pspatm : epsatm=    8.71840985
         --- l  ekb(1:nproj) -->
             0    6.834532    0.579453
             1    3.282851    0.896984
             2   -3.496974   -0.974265
 pspatm: atomic psp has been read  and splines computed

   1.11357174E+03                                ecore*ucvol(ha*bohr**3)

-inwffil : will read wavefunctions from disk file /scratch/users/j/a/jabreu/flow_simple_6atoms/flow/w220/t1/indata/in_WFK

 ==>  initialize data related to q vector <==

 The list of irreducible perturbations for this q vector is:
    1)    idir= 1    ipert=   7
    2)    idir= 2    ipert=   7
    3)    idir= 3    ipert=   7

 Perturbation wavevector (in red.coord.)   0.000000  0.000000  0.000000
 Perturbation : derivative vs k along direction   1

 dfpt_looppert : COMMENT -
  In a d/dk calculation, iscf is set to -3 automatically.
 The set of symmetries contains only one element for this perturbation.
 symkpt : not enough symmetry to change the number of k points.

[...]

 Initialisation of the first-order wave-functions :
  ireadwf=   0

--- !BeginCycle
iteration_state: {dtset: 1, }
solver: {iscf: 7, nstep: 1000, nline: 4, wfoptalg: 0, }
tolerances: {tolwfr: 1.00E-20, }
...

     iter   2DEtotal(Ha)        deltaE(Ha) residm    vres2
-ETOT  1  -16.863130457115     -1.686E+01 3.853E-02 0.000E+00
 ETOT  2  -16.889896724739     -2.677E-02 2.736E-03 0.000E+00
 ETOT  3  -16.890196474519     -2.997E-04 6.694E-05 0.000E+00
 ETOT  4  -16.890201615311     -5.141E-06 6.817E-06 0.000E+00
 ETOT  5  -16.890201722800     -1.075E-07 2.449E-07 0.000E+00
 ETOT  6  -16.890201725298     -2.498E-09 4.667E-08 0.000E+00
 ETOT  7  -16.890201725360     -6.198E-11 1.744E-09 0.000E+00
 ETOT  8  -16.890201725361     -1.549E-12 4.250E-10 0.000E+00
 ETOT  9  -16.890201725361     -1.172E-13 1.756E-11 0.000E+00
 ETOT 10  -16.890201725361      1.776E-14 3.635E-12 0.000E+00
 ETOT 11  -16.890201725361     -1.421E-14 2.755E-13 0.000E+00
 ETOT 12  -16.890201725361      3.908E-14 5.318E-14 0.000E+00
 ETOT 13  -16.890201725361     -1.066E-14 4.543E-15 0.000E+00
 ETOT 14  -16.890201725361      7.105E-15 9.250E-16 0.000E+00
 ETOT 15  -16.890201725361      0.000E+00 7.688E-17 0.000E+00
 ETOT 16  -16.890201725361      3.553E-15 1.624E-17 0.000E+00
 ETOT 17  -16.890201725361     -1.066E-14 1.318E-18 0.000E+00
 ETOT 18  -16.890201725361      7.105E-15 2.859E-19 0.000E+00
 ETOT 19  -16.890201725361      3.553E-15 2.275E-20 0.000E+00
 ETOT 20  -16.890201725361      0.000E+00 9.106E-21 0.000E+00

 At SCF step   20   max residual=  9.11E-21 < tolwfr=  1.00E-20 =>converged.

 ----iterations are completed or convergence reached----

 dfpt_looppert: DFPT cycle converged with prtwf=-1. Will skip output of the 1st-order WFK file.
 dfpt_looppert : ek2=    2.9780639710E+01
          f-sum rule ratio=    1.2336942818E+00
 prteigrs : about to open file /scratch/users/j/a/jabreu/flow_simple_6atoms/flow/w220/t1/tmpdata/tmp_1WF1_EIG
 Expectation of eigenvalue derivatives (hartree) for nkpt=   1  k points:
  (in case of degenerate eigenvalues, averaged derivative)
 kpt#   1, nband= 25, wtk=  1.00000, kpt=  0.0000  0.0000  0.0000 (reduced coord)
   0.00000    0.00000   -0.00000    0.00000   -0.00000   -0.00000   -0.00000   -0.00000
   0.00000   -0.00000   -0.00000   -0.00000    0.00000   -0.00000   -0.00000    0.00000
  -0.00000    0.00000    0.00000   -0.00000   -0.00000   -0.00000    0.00001    0.00000
  -0.03201

 Eight components of 2nd-order total energy (hartree) are
 1,2,3: 0th-order hamiltonian combined with 1st-order wavefunctions
     kin0=   1.41336012E+01 eigvalue=   1.54882958E+00  local=  -8.65049949E+00
 4,5,6: 1st-order hamiltonian combined with 1st and 0th-order wfs
     kin1=  -3.67402049E+01  Hartree=   0.00000000E+00     xc=   0.00000000E+00
 7,8,9: eventually, occupation + non-local contributions
    edocc=   9.30393791E+00     enl0=   5.54332515E-01   enl1=   2.95980147E+00
 1-9 gives the relaxation energy (to be shifted if some occ is /=2.0)
   erelax=  -1.68902017E+01
  No Ewald or frozen-wf contrib.: the relaxation energy is the total one
 2DEtotal=   -0.1689020173E+02 Ha. Also 2DEtotal=   -0.459605762622E+03 eV
    (  non-var. 2DEtotal :   -1.6890201725E+01 Ha)

 Perturbation wavevector (in red.coord.)   0.000000  0.000000  0.000000
 Perturbation : derivative vs k along direction   2
 The set of symmetries contains only one element for this perturbation.
 symkpt : not enough symmetry to change the number of k points.

[...]

 Perturbation wavevector (in red.coord.)   0.000000  0.000000  0.000000
 Perturbation : derivative vs k along direction   3
 The set of symmetries contains only one element for this perturbation.
 symkpt : not enough symmetry to change the number of k points.

-inwffil : will read wavefunctions from disk file /scratch/users/j/a/jabreu/flow_simple_6atoms/flow/w220/t1/indata/in_WFK

 Initialisation of the first-order wave-functions :
  ireadwf=   0

--- !BeginCycle
iteration_state: {dtset: 1, }
solver: {iscf: 7, nstep: 1000, nline: 4, wfoptalg: 0, }
tolerances: {tolwfr: 1.00E-20, }
...

     iter   2DEtotal(Ha)        deltaE(Ha) residm    vres2
-ETOT  1  -9.0290395273061     -9.029E+00 1.645E-02 0.000E+00
 ETOT  2  -9.0521689817469     -2.313E-02 9.291E-04 0.000E+00
 ETOT  3  -9.0524968545072     -3.279E-04 2.842E-05 0.000E+00
 ETOT  4  -9.0525033209517     -6.466E-06 2.997E-06 0.000E+00
 ETOT  5  -9.0525034697180     -1.488E-07 1.231E-07 0.000E+00
 ETOT  6  -9.0525034734770     -3.759E-09 1.425E-08 0.000E+00
 ETOT  7  -9.0525034735775     -1.005E-10 6.353E-10 0.000E+00
 ETOT  8  -9.0525034735803     -2.812E-12 8.526E-11 0.000E+00
 ETOT  9  -9.0525034735803     -6.928E-14 3.891E-12 0.000E+00
 ETOT 10  -9.0525034735803      1.421E-14 6.357E-13 0.000E+00
 ETOT 11  -9.0525034735803      0.000E+00 2.992E-14 0.000E+00
 ETOT 12  -9.0525034735803      5.329E-15 5.516E-15 0.000E+00
 ETOT 13  -9.0525034735803     -1.243E-14 3.678E-16 0.000E+00
 ETOT 14  -9.0525034735803      0.000E+00 5.502E-17 0.000E+00
 ETOT 15  -9.0525034735803     -1.776E-15 4.987E-18 0.000E+00
 ETOT 16  -9.0525034735803      3.553E-15 7.678E-19 0.000E+00
 ETOT 17  -9.0525034735803     -1.776E-15 7.135E-20 0.000E+00
 ETOT 18  -9.0525034735803     -3.553E-15 1.113E-20 0.000E+00
 ETOT 19  -9.0525034735803      1.776E-15 9.654E-21 0.000E+00

 At SCF step   19   max residual=  9.65E-21 < tolwfr=  1.00E-20 =>converged.

 ----iterations are completed or convergence reached----

 dfpt_looppert: DFPT cycle converged with prtwf=-1. Will skip output of the 1st-order WFK file.
 dfpt_looppert : ek2=    1.7327346444E+01
          f-sum rule ratio=    1.1414269761E+00
 prteigrs : about to open file /scratch/users/j/a/jabreu/flow_simple_6atoms/flow/w220/t1/tmpdata/tmp_1WF1_EIG
 Expectation of eigenvalue derivatives (hartree) for nkpt=   1  k points:
  (in case of degenerate eigenvalues, averaged derivative)
 kpt#   1, nband= 25, wtk=  1.00000, kpt=  0.0000  0.0000  0.0000 (reduced coord)
   0.00000   -0.00000   -0.00000    0.00000   -0.00000   -0.00000    0.00000   -0.00000
   0.00000    0.00000   -0.00000    0.00000   -0.00000    0.00000   -0.00000    0.00000
   0.00000   -0.00000    0.00000   -0.00000    0.00000    0.00000   -0.00000   -0.00000
  -0.01035

 Eight components of 2nd-order total energy (hartree) are
 1,2,3: 0th-order hamiltonian combined with 1st-order wavefunctions
     kin0=   9.87163302E+00 eigvalue=   1.12734690E+00  local=  -6.36713090E+00
 4,5,6: 1st-order hamiltonian combined with 1st and 0th-order wfs
     kin1=  -1.97779007E+01  Hartree=   0.00000000E+00     xc=   0.00000000E+00
 7,8,9: eventually, occupation + non-local contributions
    edocc=   4.00629402E+00     enl0=   4.14360432E-01   enl1=   1.67289371E+00
 1-9 gives the relaxation energy (to be shifted if some occ is /=2.0)
   erelax=  -9.05250347E+00
  No Ewald or frozen-wf contrib.: the relaxation energy is the total one
 2DEtotal=   -0.9052503474E+01 Ha. Also 2DEtotal=   -0.246331146914E+03 eV
    (  non-var. 2DEtotal :   -9.0525034734E+00 Ha)

 CALCULATION OF EFFECTIVE MASSES
 NOTE : Additional infos (eff. mass eigenvalues, eigenvectors and, if degenerate, average mass) are available in stdout.

 K-point ( 0.000, 0.000, 0.000) | band =    16
 Effective mass tensor:
             -0.4572607492              0.0000007168              0.0000002763
              0.0000007168             -2.2096528874             -0.5838259838
              0.0000002763             -0.5838259838             -2.4421035396
 Effective mass tensor eigenvalues:
             -2.9211605883             -1.7305958387             -0.4572607492
 Angular average effective mass 1/(<1/m>)=  -0.9655301332
 Angular average effective mass for Frohlich model (<m**0.5>)**2=  -1.1713112208
 Effective masses along directions: (cart. coord. / red. coord. -> eff. mass)
    1:   1.000000  0.000000  0.000000 /   1.000000  0.000000  0.000000 ->  -0.4572607492
    2:   0.000000  1.000000  0.000000 /   0.000000  1.000000  0.000000 ->  -2.0700794525
    3:   0.000000  0.000000  1.000000 /   0.000000  0.129604  0.991566 ->  -2.2878472846
    4:   0.577350  0.577350  0.577350 /   0.508299  0.528623  0.679845 ->  -1.0430685364
    5:   0.000000  0.707107  0.707107 /   0.000000  0.613835  0.789434 ->  -2.9019499370
    6:   0.707107  0.000000  0.707107 /   0.595550  0.104113  0.796543 ->  -0.7621869044
    7:   0.707107  0.707107  0.000000 /   0.756251  0.654282  0.000000 ->  -0.7490606871

 K-point ( 0.000, 0.000, 0.000) | band =    17
 Effective mass tensor:
              0.3493731838             -0.0000001727              0.0000011186
             -0.0000001727              0.4495050180             -0.0744221510
              0.0000011186             -0.0744221510              0.4046719055
 Effective mass tensor eigenvalues:
              0.3493635063              0.3493732491              0.5048133519
 Angular average effective mass 1/(<1/m>)=   0.3893299339
 Angular average effective mass for Frohlich model (<m**0.5>)**2=   0.3926173767
 Effective masses along directions: (cart. coord. / red. coord. -> eff. mass)
    1:   1.000000  0.000000  0.000000 /   1.000000  0.000000  0.000000 ->   0.3493731838
    2:   0.000000  1.000000  0.000000 /   0.000000  1.000000  0.000000 ->   0.4358182350
    3:   0.000000  0.000000  1.000000 /   0.000000  0.129604  0.991566 ->   0.3923502264
    4:   0.577350  0.577350  0.577350 /   0.508299  0.528623  0.679845 ->   0.3508979561
    5:   0.000000  0.707107  0.707107 /   0.000000  0.613835  0.789434 ->   0.3516643339
    6:   0.707107  0.000000  0.707107 /   0.595550  0.104113  0.796543 ->   0.3696177005
    7:   0.707107  0.707107  0.000000 /   0.756251  0.654282  0.000000 ->   0.3878371909

 END OF EFFECTIVE MASSES SECTION

 ---- first-order wavefunction calculations are completed ----

 Total localisation tensor (bohr^2) in cartesian coordinates
  WARNING : still subject to testing - especially symmetries.
      direction              matrix element
   alpha     beta       real part   imaginary part
     1        1       1.6384944828    0.0000000000
     1        2       0.0000000000    0.0000000000
     1        3       0.0000000000    0.0000000000
     2        1       0.0000000000    0.0000000000
     2        2       1.4685031075    0.0000000000
     2        3       0.2967313093    0.0000000000
     3        1       0.0000000000    0.0000000000
     3        2       0.2967313093    0.0000000000
     3        3       1.4022104779    0.0000000000

 respfn : d/dk was computed, but no 2DTE, so no DDB output.

== END DATASET(S) ==============================================================

 -outvars: echo values of variables after computation  --------
            acell      1.0000000000E+00  1.0000000000E+00  1.0000000000E+00 Bohr
              amu      3.90983000E+01  1.00794000E+00  3.20660000E+01
             ecut      3.90000000E+01 Hartree
           etotal     -9.0525034736E+00
            fcart      0.0000000000E+00  0.0000000000E+00  0.0000000000E+00
                       0.0000000000E+00  0.0000000000E+00  0.0000000000E+00
                       0.0000000000E+00  0.0000000000E+00  0.0000000000E+00
                       0.0000000000E+00  0.0000000000E+00  0.0000000000E+00
                       0.0000000000E+00  0.0000000000E+00  0.0000000000E+00
                       0.0000000000E+00  0.0000000000E+00  0.0000000000E+00
-          fftalg         512
           irdden           1
           irdwfk           1
           istwfk        1
              ixc     -116133
           kptopt           0
P           mkmem           1
P          mkqmem           1
P          mk1mem           1
            natom           6
            nband          25
           nbdbuf           4
            ngfft          54      48      72
             nkpt           1
            nstep        1000
             nsym           4
           ntypat           3
              occ      2.000000  2.000000  2.000000  2.000000  2.000000  2.000000
                       2.000000  2.000000  2.000000  2.000000  2.000000  2.000000
                       2.000000  2.000000  2.000000  2.000000  0.000000  0.000000
                       0.000000  0.000000  0.000000  0.000000  0.000000  0.000000
                       0.000000
        optdriver           1
            prtwf          -1
            rfdir           1       1       1
           rfelfd           2
            rprim      9.2109164748E+00  0.0000000000E+00  0.0000000000E+00
                       0.0000000000E+00  7.9689682430E+00  1.6102399568E+00
                       0.0000000000E+00  0.0000000000E+00  1.2319516970E+01
          spgroup          11
           strten      0.0000000000E+00  0.0000000000E+00  0.0000000000E+00
                       0.0000000000E+00  0.0000000000E+00  0.0000000000E+00
           symrel      1  0  0   0  1  0   0  0  1      -1  0  0   0 -1  0   0  0 -1
                       1  0  0   0 -1  0   0  0 -1      -1  0  0   0  1  0   0  0  1
            tnons      0.0000000  0.0000000  0.0000000     0.0000000  0.0000000  0.0000000
                       0.5000000  0.0000000  0.0000000     0.5000000  0.0000000  0.0000000
           tolwfr      1.00000000E-20
            typat      1  1  2  2  3  3
           useylm           1
           xangst      1.2185517672E+00  1.1193004785E+00  1.9459240281E+00
                       3.6556553015E+00  3.0976958916E+00  5.4253858589E+00
                       1.2185517672E+00  4.0649778680E+00  6.7023163931E+00
                       3.6556553015E+00  1.5201850215E-01  6.6899349393E-01
                       1.2185517672E+00  1.0187799361E+00  5.1614993894E+00
                       3.6556553015E+00  3.1982164341E+00  2.2098104976E+00
            xcart      2.3027291187E+00  2.1151713649E+00  3.6772634885E+00
                       6.9081873561E+00  5.8537968781E+00  1.0252493439E+01
                       2.3027291187E+00  7.6816949068E+00  1.2665542439E+01
                       6.9081873561E+00  2.8727333619E-01  1.2642144882E+00
                       2.3027291187E+00  1.9252150689E+00  9.7538202811E+00
                       6.9081873561E+00  6.0437531741E+00  4.1759366460E+00
             xred      2.5000000000E-01  2.6542600000E-01  2.6379800000E-01
                       7.5000000000E-01  7.3457400000E-01  7.3620200000E-01
                       2.5000000000E-01  9.6395100000E-01  9.0209300000E-01
                       7.5000000000E-01  3.6049000000E-02  9.7907000000E-02
                       2.5000000000E-01  2.4158900000E-01  7.6016000000E-01
                       7.5000000000E-01  7.5841100000E-01  2.3984000000E-01
            znucl       19.00000    1.00000   16.00000

- Timing analysis has been suppressed with timopt=0

 Suggested references for the acknowledgment of ABINIT usage.

 Calculation completed.
.Delivered   6 WARNINGs and   5 COMMENTs to log file.