.Version 9.5.2 of ABINIT

 ABINIT is a project of the Universite Catholique de Louvain,
 Corning Inc. and other collaborators, see ~abinit/doc/developers/contributors.txt .
 acknowledgments of the ABINIT effort.

.Starting date : Mon 24 May 2021.
- ( at 22h42 )

- input  file    -> /scratch/users/j/a/jabreu/flow_simple_10atoms/flow/w425/t1/run.abi
- output file    -> /scratch/users/j/a/jabreu/flow_simple_10atoms/flow/w425/t1/run.abo
- root for input  files -> /scratch/users/j/a/jabreu/flow_simple_10atoms/flow/w425/t1/indata/in
- root for output files -> /scratch/users/j/a/jabreu/flow_simple_10atoms/flow/w425/t1/outdata/out

 Symmetries : space group C2/m (# 12); Bravais mC (1-face-center monocl.)
     intxc =       0      iscf =       7    lmnmax =      18     lnmax =       6
     mgfft =      72  mpssoang =       3    mqgrid =    3149     natom =      10
  nloc_mem =       1    nspden =       1   nspinor =       1    nsppol =       1
      nsym =       4    n1xccc =    2501    ntypat =       2    occopt =       1
   xclevel =       2
-    mband =          49        mffmem =           1         mkmem =           2
-   mkqmem =           2        mk1mem =           2           mpw =       16049
      nfft =      373248          nkpt =           2
  Rough estimation (10% accuracy) of disk space for files :

------------- Echo of variables that govern the present computation ------------
-
- outvars: echo of selected default values
-   iomode0 =  0 , fftalg0 =512 , wfoptalg0 =  0
-
- outvars: echo of global parameters not present in the input file
-  max_nthreads =    0
-
 -outvars: echo values of preprocessed input variables --------
            acell      1.0000000000E+00  1.0000000000E+00  1.0000000000E+00 Bohr
              amu      4.49559100E+01  3.20660000E+01
             ecut      3.90000000E+01 Hartree
-          fftalg         512
           irdden           1
           irdwfk           1
           istwfk        1    0
              ixc     -116133
              kpt      0.00000000E+00  0.00000000E+00  0.00000000E+00
                       5.00000000E-01 -5.00000000E-01  0.00000000E+00
           kptopt           0
P           mkmem           2
P          mkqmem           2
P          mk1mem           2
            natom          10
            nband          49
           nbdbuf           4
            ngfft          72      72      72
             nkpt           2
            nstep        2000
             nsym           4
           ntypat           2
              occ      2.000000  2.000000  2.000000  2.000000  2.000000  2.000000
                       2.000000  2.000000  2.000000  2.000000  2.000000  2.000000
                       2.000000  2.000000  2.000000  2.000000  2.000000  2.000000
                       2.000000  2.000000  2.000000  2.000000  2.000000  2.000000
                       2.000000  2.000000  2.000000  2.000000  2.000000  2.000000
                       2.000000  2.000000  2.000000  2.000000  2.000000  2.000000
                       2.000000  2.000000  2.000000  2.000000  0.000000  0.000000
                       0.000000  0.000000  0.000000  0.000000  0.000000  0.000000
                       0.000000
        optdriver           1
            prtwf          -1
            rfdir           1       1       1
           rfelfd           2
            rprim      1.1755595953E+01  0.0000000000E+00  1.9911666627E+00
                      -6.3760813775E+00  9.8762149869E+00  1.9911666627E+00
                       0.0000000000E+00  0.0000000000E+00  1.1882164803E+01
          spgroup          12
           symrel      1  0  0   0  1  0   0  0  1      -1  0  0   0 -1  0   0  0 -1
                       0 -1  0  -1  0  0   0  0 -1       0  1  0   1  0  0   0  0  1
           tolwfr      1.00000000E-20
            typat      1  1  1  1  2  2  2  2  2  2
           useylm           1
              wtk        0.50000    0.50000
           xangst     -1.8158531290E-01  3.4873369934E+00  1.0536800164E+00
                       3.0283018193E+00  1.7389308848E+00  1.0536800164E+00
                       0.0000000000E+00  0.0000000000E+00  0.0000000000E+00
                       1.4233582532E+00  2.6131339391E+00  4.1975654177E+00
                      -8.5306963364E-01  2.1654361539E+00  5.2831514653E+00
                       2.2819391300E+00  4.5781583986E-01  5.2831514653E+00
                       2.1111904356E+00  3.8759204626E+00  6.2985955661E+00
                       3.6997861401E+00  3.0608317244E+00  3.1119793700E+00
                       7.3552607078E-01  1.3503474156E+00  2.0965352692E+00
                       5.6477737642E-01  4.7684520383E+00  3.1119793700E+00
            xcart     -3.4314651113E-01  6.5901118505E+00  1.9911666627E+00
                       5.7226610862E+00  3.2861031364E+00  1.9911666627E+00
                       0.0000000000E+00  0.0000000000E+00  0.0000000000E+00
                       2.6897572876E+00  4.9381074934E+00  7.9322490642E+00
                      -1.6120679799E+00  4.0920812890E+00  9.9837093879E+00
                       4.3122400076E+00  8.6514655664E-01  9.9837093879E+00
                       3.9895717377E+00  7.3244281872E+00  1.1902620642E+01
                       6.9915825550E+00  5.7841336979E+00  5.8807887406E+00
                       1.3899428374E+00  2.5517867997E+00  3.9618774868E+00
                       1.0672745675E+00  9.0110684303E+00  5.8807887406E+00
             xred      3.3272900000E-01  6.6727100000E-01 -2.6020852140E-17
                       6.6727100000E-01  3.3272900000E-01  0.0000000000E+00
                       0.0000000000E+00  0.0000000000E+00  0.0000000000E+00
                       5.0000000000E-01  5.0000000000E-01  5.0000000000E-01
                       8.7599000000E-02  4.1433700000E-01  7.5611400000E-01
                       4.1433700000E-01  8.7599000000E-02  7.5611400000E-01
                       7.4162300000E-01  7.4162300000E-01  7.5316500000E-01
                       9.1240100000E-01  5.8566300000E-01  2.4388600000E-01
                       2.5837700000E-01  2.5837700000E-01  2.4683500000E-01
                       5.8566300000E-01  9.1240100000E-01  2.4388600000E-01
            znucl       21.00000   16.00000

 chkinp: Checking input parameters for consistency.

== DATASET  1 ==================================================================
-   mpi_nproc: 1, omp_nthreads: -1 (-1 if OMP is not activated)

--- !DatasetInfo
iteration_state: {dtset: 1, }
dimensions: {natom: 10, nkpt: 2, mband: 49, nsppol: 1, nspinor: 1, nspden: 1, mpw: 16049, }
cutoff_energies: {ecut:  39.0, pawecutdg:  -1.0, }
electrons: {nelect:   8.00000000E+01, charge:   0.00000000E+00, occopt:   1.00000000E+00, tsmear:   1.00000000E-02, }
meta: {optdriver: 1, rfelfd: 2, }
...

 Real(R)+Recip(G) space primitive vectors, cartesian coordinates (Bohr,Bohr^-1):
 R(1)= 11.7555960  0.0000000  1.9911667  G(1)=  0.0850659  0.0549185  0.0000000
 R(2)= -6.3760814  9.8762150  1.9911667  G(2)=  0.0000000  0.1012534  0.0000000
 R(3)=  0.0000000  0.0000000 11.8821648  G(3)= -0.0142550 -0.0261707  0.0841597
 Unit cell volume ucvol=  1.3795288E+03 bohr^3
 Angles (23,13,12)=  8.03864657E+01  8.03864657E+01  1.19958357E+02 degrees

 getcut: wavevector=  0.0000  0.0000  0.0000  ngfft=  72  72  72
         ecut(hartree)=     39.000   => boxcut(ratio)=   2.14807

--- Pseudopotential description ------------------------------------------------
- pspini: atom type   1  psp file is /scratch/users/j/a/jabreu/pseudos/PBEsol/Sc.psp8
- pspatm: opening atomic psp file    /scratch/users/j/a/jabreu/pseudos/PBEsol/Sc.psp8
- Sc    ONCVPSP-3.3.0  r_core=   1.35663   1.35663   1.66161
- 21.00000  11.00000    180112                znucl, zion, pspdat
    8 -116133    2    4       600   0.00000   pspcod,pspxc,lmax,lloc,mmax,r2well
    5.99000000000000    5.00000000000000    0.00000000000000   rchrg,fchrg,qchrg
     nproj     2     2     2
     extension_switch     1
  pspatm : epsatm=   13.58981094
         --- l  ekb(1:nproj) -->
             0   10.810997    0.948773
             1    2.871172    0.364831
             2   -4.789751   -1.321945
 pspatm: atomic psp has been read  and splines computed

- pspini: atom type   2  psp file is /scratch/users/j/a/jabreu/pseudos/PBEsol/S.psp8
- pspatm: opening atomic psp file    /scratch/users/j/a/jabreu/pseudos/PBEsol/S.psp8
- S     ONCVPSP-3.3.0  r_core=   1.45376   1.45376   1.61851
- 16.00000   6.00000    180112                znucl, zion, pspdat
    8 -116133    2    4       600   0.00000   pspcod,pspxc,lmax,lloc,mmax,r2well
    5.99000000000000    6.00000000000000    0.00000000000000   rchrg,fchrg,qchrg
     nproj     2     2     2
     extension_switch     1
  pspatm : epsatm=    8.71840985
         --- l  ekb(1:nproj) -->
             0    6.834532    0.579453
             1    3.282851    0.896984
             2   -3.496974   -0.974265
 pspatm: atomic psp has been read  and splines computed

   8.53357623E+03                                ecore*ucvol(ha*bohr**3)

 ==>  initialize data related to q vector <==

 The list of irreducible perturbations for this q vector is:
    1)    idir= 1    ipert=  11
    2)    idir= 2    ipert=  11
    3)    idir= 3    ipert=  11

 Perturbation wavevector (in red.coord.)   0.000000  0.000000  0.000000
 Perturbation : derivative vs k along direction   1

 dfpt_looppert : COMMENT -
  In a d/dk calculation, iscf is set to -3 automatically.
 The set of symmetries contains only one element for this perturbation.
 symkpt : not enough symmetry to change the number of k points.

 Initialisation of the first-order wave-functions :
  ireadwf=   0

--- !BeginCycle
iteration_state: {dtset: 1, }
solver: {iscf: 7, nstep: 2000, nline: 4, wfoptalg: 0, }
tolerances: {tolwfr: 1.00E-20, }
...

     iter   2DEtotal(Ha)        deltaE(Ha) residm    vres2
-ETOT  1  -31.233317806362     -3.123E+01 6.894E-02 0.000E+00
 ETOT  2  -31.744581690427     -5.113E-01 1.224E-02 0.000E+00
 ETOT  3  -31.784773890130     -4.019E-02 3.699E-03 0.000E+00
 ETOT  4  -31.789912492122     -5.139E-03 1.859E-03 0.000E+00
 ETOT  5  -31.790667712320     -7.552E-04 1.212E-03 0.000E+00
 ETOT  6  -31.790789948554     -1.222E-04 8.953E-04 0.000E+00
 ETOT  7  -31.790810892409     -2.094E-05 5.256E-04 0.000E+00
 ETOT  8  -31.790814644678     -3.752E-06 4.590E-04 0.000E+00
 ETOT  9  -31.790815339611     -6.949E-07 2.441E-04 0.000E+00
 ETOT 10  -31.790815472201     -1.326E-07 2.149E-04 0.000E+00
 ETOT 11  -31.790815498091     -2.589E-08 1.124E-04 0.000E+00
 ETOT 12  -31.790815503263     -5.172E-09 1.012E-04 0.000E+00
 ETOT 13  -31.790815504315     -1.051E-09 5.240E-05 0.000E+00
 ETOT 14  -31.790815504532     -2.178E-10 4.815E-05 0.000E+00
 ETOT 15  -31.790815504578     -4.583E-11 2.473E-05 0.000E+00
 ETOT 16  -31.790815504588     -9.702E-12 2.306E-05 0.000E+00
 ETOT 17  -31.790815504590     -2.071E-12 1.177E-05 0.000E+00
 ETOT 18  -31.790815504590     -5.009E-13 1.108E-05 0.000E+00
 ETOT 19  -31.790815504591     -1.030E-13 5.633E-06 0.000E+00
 ETOT 20  -31.790815504591     -6.395E-14 5.329E-06 0.000E+00
 ETOT 21  -31.790815504591      9.948E-14 2.705E-06 0.000E+00
[...]
 symkpt : not enough symmetry to change the number of k points.

[...]

 Perturbation wavevector (in red.coord.)   0.000000  0.000000  0.000000
 Perturbation : derivative vs k along direction   3
 The set of symmetries contains only one element for this perturbation.
 symkpt : not enough symmetry to change the number of k points.

 Initialisation of the first-order wave-functions :
  ireadwf=   0

--- !BeginCycle
iteration_state: {dtset: 1, }
solver: {iscf: 7, nstep: 2000, nline: 4, wfoptalg: 0, }
tolerances: {tolwfr: 1.00E-20, }
...

     iter   2DEtotal(Ha)        deltaE(Ha) residm    vres2
-ETOT  1  -24.447355190132     -2.445E+01 5.484E-02 0.000E+00
 ETOT  2  -24.775667190161     -3.283E-01 1.634E-02 0.000E+00
 ETOT  3  -24.802881173240     -2.721E-02 3.776E-03 0.000E+00
 ETOT  4  -24.806484892800     -3.604E-03 3.513E-03 0.000E+00
 ETOT  5  -24.807053008342     -5.681E-04 1.392E-03 0.000E+00
 ETOT  6  -24.807152092996     -9.908E-05 1.268E-03 0.000E+00
 ETOT  7  -24.807170535976     -1.844E-05 5.933E-04 0.000E+00
 ETOT  8  -24.807174135593     -3.600E-06 5.199E-04 0.000E+00
 ETOT  9  -24.807174868535     -7.329E-07 2.493E-04 0.000E+00
 ETOT 10  -24.807175022424     -1.539E-07 2.188E-04 0.000E+00
 ETOT 11  -24.807175055524     -3.310E-08 1.042E-04 0.000E+00
 ETOT 12  -24.807175062780     -7.257E-09 1.172E-04 0.000E+00
 ETOT 13  -24.807175064398     -1.618E-09 4.347E-05 0.000E+00
 ETOT 14  -24.807175064764     -3.661E-10 5.476E-05 0.000E+00
 ETOT 15  -24.807175064848     -8.399E-11 1.814E-05 0.000E+00
 ETOT 16  -24.807175064868     -1.953E-11 2.519E-05 0.000E+00
 ETOT 17  -24.807175064873     -4.555E-12 8.330E-06 0.000E+00
 ETOT 18  -24.807175064874     -1.059E-12 1.160E-05 0.000E+00
 ETOT 19  -24.807175064874     -2.629E-13 3.863E-06 0.000E+00
 ETOT 20  -24.807175064874     -5.684E-14 5.350E-06 0.000E+00
 ETOT 21  -24.807175064874     -4.974E-14 1.794E-06 0.000E+00
 ETOT 22  -24.807175064874      2.487E-14 2.471E-06 0.000E+00
 ETOT 23  -24.807175064874     -4.263E-14 8.342E-07 0.000E+00
 ETOT 24  -24.807175064874      2.487E-14 1.143E-06 0.000E+00
 ETOT 25  -24.807175064874      1.776E-14 3.881E-07 0.000E+00
 ETOT 26  -24.807175064874      3.553E-15 5.287E-07 0.000E+00
 ETOT 27  -24.807175064874     -2.132E-14 1.806E-07 0.000E+00
 ETOT 28  -24.807175064874      2.132E-14 2.449E-07 0.000E+00
 ETOT 29  -24.807175064874     -1.066E-14 8.410E-08 0.000E+00
 ETOT 30  -24.807175064874      0.000E+00 1.135E-07 0.000E+00
 ETOT 31  -24.807175064874      3.553E-15 3.917E-08 0.000E+00
 ETOT 32  -24.807175064874     -7.105E-15 5.265E-08 0.000E+00
 ETOT 33  -24.807175064874     -7.105E-15 1.825E-08 0.000E+00
 ETOT 34  -24.807175064874      1.421E-14 2.444E-08 0.000E+00
 ETOT 35  -24.807175064874     -2.132E-14 8.508E-09 0.000E+00
 ETOT 36  -24.807175064874      2.132E-14 1.135E-08 0.000E+00
 ETOT 37  -24.807175064874     -1.421E-14 3.967E-09 0.000E+00
 ETOT 38  -24.807175064874      1.066E-14 5.275E-09 0.000E+00
 ETOT 39  -24.807175064874     -1.421E-14 1.850E-09 0.000E+00
 ETOT 40  -24.807175064874      1.776E-14 2.453E-09 0.000E+00
 ETOT 41  -24.807175064874     -2.132E-14 8.633E-10 0.000E+00
 ETOT 42  -24.807175064874     -3.553E-15 1.141E-09 0.000E+00
 ETOT 43  -24.807175064874      1.066E-14 4.029E-10 0.000E+00
 ETOT 44  -24.807175064874      3.553E-15 5.309E-10 0.000E+00
 ETOT 45  -24.807175064874      0.000E+00 1.880E-10 0.000E+00
 ETOT 46  -24.807175064874     -3.553E-15 2.471E-10 0.000E+00
 ETOT 47  -24.807175064874      3.553E-15 8.779E-11 0.000E+00
 ETOT 48  -24.807175064874      1.421E-14 1.151E-10 0.000E+00
 ETOT 49  -24.807175064874     -2.132E-14 4.100E-11 0.000E+00
 ETOT 50  -24.807175064874     -7.105E-15 5.360E-11 0.000E+00
 ETOT 51  -24.807175064874     -3.553E-15 1.915E-11 0.000E+00
 ETOT 52  -24.807175064874      3.553E-15 2.497E-11 0.000E+00
 ETOT 53  -24.807175064874     -7.105E-15 8.944E-12 0.000E+00
 ETOT 54  -24.807175064874      0.000E+00 1.164E-11 0.000E+00
 ETOT 55  -24.807175064874      2.132E-14 4.179E-12 0.000E+00
 ETOT 56  -24.807175064874      7.105E-15 5.423E-12 0.000E+00
 ETOT 57  -24.807175064874     -3.553E-15 1.953E-12 0.000E+00
 ETOT 58  -24.807175064874     -3.553E-15 2.528E-12 0.000E+00
 ETOT 59  -24.807175064874      0.000E+00 9.126E-13 0.000E+00
 ETOT 60  -24.807175064874      7.105E-15 1.179E-12 0.000E+00
 ETOT 61  -24.807175064874     -1.776E-14 4.265E-13 0.000E+00
[...]
 ETOT 94  -24.807175064874      3.553E-15 2.778E-18 0.000E+00
 ETOT 95  -24.807175064874     -7.105E-15 1.054E-18 0.000E+00
 ETOT 96  -24.807175064874      3.553E-15 1.297E-18 0.000E+00
 ETOT 97  -24.807175064874      7.105E-15 4.936E-19 0.000E+00
 ETOT 98  -24.807175064874     -3.553E-15 6.056E-19 0.000E+00
 ETOT 99  -24.807175064874      7.105E-15 2.313E-19 0.000E+00
 ETOT  100  -24.807175064874      7.105E-15 2.828E-19 0.000E+00
 ETOT  101  -24.807175064874     -7.105E-15 1.084E-19 0.000E+00
 ETOT  102  -24.807175064874      3.553E-15 1.320E-19 0.000E+00
 ETOT  103  -24.807175064874     -3.553E-15 5.080E-20 0.000E+00
 ETOT  104  -24.807175064874     -7.105E-15 6.166E-20 0.000E+00
 ETOT  105  -24.807175064874      1.776E-14 2.382E-20 0.000E+00
 ETOT  106  -24.807175064874      7.105E-15 2.879E-20 0.000E+00
 ETOT  107  -24.807175064874     -1.421E-14 1.117E-20 0.000E+00
 ETOT  108  -24.807175064874      0.000E+00 9.938E-21 0.000E+00

 At SCF step  108   max residual=  9.94E-21 < tolwfr=  1.00E-20 =>converged.

 ----iterations are completed or convergence reached----

 dfpt_looppert: DFPT cycle converged with prtwf=-1. Will skip output of the 1st-order WFK file.
 dfpt_looppert : ek2=    5.0349020236E+01
          f-sum rule ratio=    1.0822940913E+00
 prteigrs : about to open file /scratch/users/j/a/jabreu/flow_simple_10atoms/flow/w425/t1/tmpdata/tmp_1WF1_EIG
 Expectation of eigenvalue derivatives (hartree) for nkpt=   2  k points:
  (in case of degenerate eigenvalues, averaged derivative)
 kpt#   1, nband= 49, wtk=  0.50000, kpt=  0.0000  0.0000  0.0000 (reduced coord)
  -0.00000    0.00000   -0.00000   -0.00000   -0.00000    0.00000    0.00000    0.00000
   0.00000   -0.00000    0.00000    0.00000    0.00000   -0.00000   -0.00000    0.00000
   0.00000    0.00000    0.00000    0.00000   -0.00000    0.00000    0.00000    0.00000
   0.00000   -0.00000   -0.00000    0.00000   -0.00000   -0.00000   -0.00000    0.00000
   0.00000   -0.00000    0.00000    0.00000    0.00000   -0.00000   -0.00000    0.00000
   0.00000   -0.00000   -0.00000   -0.00000   -0.00000   -0.00000    0.00000    0.00000
  -0.00561
 prteigrs : prtvol=0 or 1, do not print more k-points.

 Eight components of 2nd-order total energy (hartree) are
 1,2,3: 0th-order hamiltonian combined with 1st-order wavefunctions
     kin0=   5.94680656E+01 eigvalue=  -1.85626917E+00  local=  -3.88836739E+01
 4,5,6: 1st-order hamiltonian combined with 1st and 0th-order wfs
     kin1=  -5.44924471E+01  Hartree=   0.00000000E+00     xc=   0.00000000E+00
 7,8,9: eventually, occupation + non-local contributions
    edocc=   6.38600816E+00     enl0=  -3.06955619E-01   enl1=   4.87809697E+00
 1-9 gives the relaxation energy (to be shifted if some occ is /=2.0)
   erelax=  -2.48071751E+01
  No Ewald or frozen-wf contrib.: the relaxation energy is the total one
 2DEtotal=   -0.2480717506E+02 Ha. Also 2DEtotal=   -0.675037563173E+03 eV
    (  non-var. 2DEtotal :   -2.4807175064E+01 Ha)

 CALCULATION OF EFFECTIVE MASSES
 NOTE : Additional infos (eff. mass eigenvalues, eigenvectors and, if degenerate, average mass) are available in stdout.

 K-point ( 0.000, 0.000, 0.000) | band =    40
 Effective mass tensor:
             -1.0351772672              0.2118680296             -0.1170308186
              0.2118680296             -0.7617666578             -0.2148995596
             -0.1170308186             -0.2148995596             -0.3660916515
 Effective mass tensor eigenvalues:
             -1.1506155810             -0.7881872701             -0.2242327254
 Angular average effective mass 1/(<1/m>)=  -0.4547186361
 Angular average effective mass for Frohlich model (<m**0.5>)**2=  -0.5333306840
 Effective masses along directions: (cart. coord. / red. coord. -> eff. mass)
    1:   1.000000  0.000000  0.000000 /   0.879027 -0.476773  0.000000 ->  -0.8739213925
    2:   0.000000  1.000000  0.000000 /   0.000000  1.000000  0.000000 ->  -0.5567246432
    3:   0.000000  0.000000  1.000000 /   0.163060  0.163060  0.973048 ->  -0.2734482881
    4:   0.577350  0.577350  0.577350 /   0.724203  0.289291  0.625972 ->  -0.7789457194
    5:   0.000000  0.707107  0.707107 /   0.117743  0.701751  0.702625 ->  -0.6619250049
    6:   0.707107  0.000000  0.707107 /   0.735440 -0.234589  0.635686 ->  -0.5752593775
    7:   0.707107  0.707107  0.000000 /   0.958420  0.285362  0.000000 ->  -0.5062441451

 K-point ( 0.500,-0.500, 0.000) | band =    41
 Effective mass tensor:
              0.4306504303              0.2539609375              0.4288022429
              0.2539609375              0.7585646236              0.7872351655
              0.4288022429              0.7872351655              1.5410658281
 Effective mass tensor eigenvalues:
              0.2664318320              0.2923194403              2.1715296096
 Angular average effective mass 1/(<1/m>)=   0.3929414459
 Angular average effective mass for Frohlich model (<m**0.5>)**2=   0.4641859087
 Effective masses along directions: (cart. coord. / red. coord. -> eff. mass)
    1:   1.000000  0.000000  0.000000 /   0.879027 -0.476773  0.000000 ->   0.3079161941
    2:   0.000000  1.000000  0.000000 /   0.000000  1.000000  0.000000 ->   0.3524999081
    3:   0.000000  0.000000  1.000000 /   0.163060  0.163060  0.973048 ->   0.6450746368
    4:   0.577350  0.577350  0.577350 /   0.724203  0.289291  0.625972 ->   1.0734032409
    5:   0.000000  0.707107  0.707107 /   0.117743  0.701751  0.702625 ->   1.2006606680
    6:   0.707107  0.000000  0.707107 /   0.735440 -0.234589  0.635686 ->   0.6032184756
    7:   0.707107  0.707107  0.000000 /   0.958420  0.285362  0.000000 ->   0.3670885689

 END OF EFFECTIVE MASSES SECTION

 ---- first-order wavefunction calculations are completed ----

 Total localisation tensor (bohr^2) in cartesian coordinates
  WARNING : still subject to testing - especially symmetries.
      direction              matrix element
   alpha     beta       real part   imaginary part
     1        1       2.9099347878    0.0000000000
     1        2      -1.0245616140    0.0000000000
     1        3       0.1742837064    0.0000000000
     2        1      -1.0245616140    0.0000000000
     2        2       1.5869920987    0.0000000000
     2        3       0.3199571663    0.0000000000
     3        1       0.1742837064    0.0000000000
     3        2       0.3199571663    0.0000000000
     3        3       1.8791357496    0.0000000000

 respfn : d/dk was computed, but no 2DTE, so no DDB output.

== END DATASET(S) ==============================================================

 -outvars: echo values of variables after computation  --------
            acell      1.0000000000E+00  1.0000000000E+00  1.0000000000E+00 Bohr
              amu      4.49559100E+01  3.20660000E+01
             ecut      3.90000000E+01 Hartree
           etotal     -2.4807175065E+01
            fcart      0.0000000000E+00  0.0000000000E+00  0.0000000000E+00
                       0.0000000000E+00  0.0000000000E+00  0.0000000000E+00
                       0.0000000000E+00  0.0000000000E+00  0.0000000000E+00
                       0.0000000000E+00  0.0000000000E+00  0.0000000000E+00
                       0.0000000000E+00  0.0000000000E+00  0.0000000000E+00
                       0.0000000000E+00  0.0000000000E+00  0.0000000000E+00
                       0.0000000000E+00  0.0000000000E+00  0.0000000000E+00
                       0.0000000000E+00  0.0000000000E+00  0.0000000000E+00
                       0.0000000000E+00  0.0000000000E+00  0.0000000000E+00
                       0.0000000000E+00  0.0000000000E+00  0.0000000000E+00
-          fftalg         512
           irdden           1
           irdwfk           1
           istwfk        1    0
              ixc     -116133
              kpt      0.00000000E+00  0.00000000E+00  0.00000000E+00
                       5.00000000E-01 -5.00000000E-01  0.00000000E+00
           kptopt           0
P           mkmem           2
P          mkqmem           2
P          mk1mem           2
            natom          10
            nband          49
           nbdbuf           4
            ngfft          72      72      72
             nkpt           2
            nstep        2000
             nsym           4
           ntypat           2
              occ      2.000000  2.000000  2.000000  2.000000  2.000000  2.000000
                       2.000000  2.000000  2.000000  2.000000  2.000000  2.000000
                       2.000000  2.000000  2.000000  2.000000  2.000000  2.000000
                       2.000000  2.000000  2.000000  2.000000  2.000000  2.000000
                       2.000000  2.000000  2.000000  2.000000  2.000000  2.000000
                       2.000000  2.000000  2.000000  2.000000  2.000000  2.000000
                       2.000000  2.000000  2.000000  2.000000  0.000000  0.000000
                       0.000000  0.000000  0.000000  0.000000  0.000000  0.000000
                       0.000000
        optdriver           1
            prtwf          -1
            rfdir           1       1       1
           rfelfd           2
            rprim      1.1755595953E+01  0.0000000000E+00  1.9911666627E+00
                      -6.3760813775E+00  9.8762149869E+00  1.9911666627E+00
                       0.0000000000E+00  0.0000000000E+00  1.1882164803E+01
          spgroup          12
           strten      0.0000000000E+00  0.0000000000E+00  0.0000000000E+00
                       0.0000000000E+00  0.0000000000E+00  0.0000000000E+00
           symrel      1  0  0   0  1  0   0  0  1      -1  0  0   0 -1  0   0  0 -1
                       0 -1  0  -1  0  0   0  0 -1       0  1  0   1  0  0   0  0  1
           tolwfr      1.00000000E-20
            typat      1  1  1  1  2  2  2  2  2  2
           useylm           1
              wtk        0.50000    0.50000
           xangst     -1.8158531290E-01  3.4873369934E+00  1.0536800164E+00
                       3.0283018193E+00  1.7389308848E+00  1.0536800164E+00
                       0.0000000000E+00  0.0000000000E+00  0.0000000000E+00
                       1.4233582532E+00  2.6131339391E+00  4.1975654177E+00
                      -8.5306963364E-01  2.1654361539E+00  5.2831514653E+00
                       2.2819391300E+00  4.5781583986E-01  5.2831514653E+00
                       2.1111904356E+00  3.8759204626E+00  6.2985955661E+00
                       3.6997861401E+00  3.0608317244E+00  3.1119793700E+00
                       7.3552607078E-01  1.3503474156E+00  2.0965352692E+00
                       5.6477737642E-01  4.7684520383E+00  3.1119793700E+00
            xcart     -3.4314651113E-01  6.5901118505E+00  1.9911666627E+00
                       5.7226610862E+00  3.2861031364E+00  1.9911666627E+00
                       0.0000000000E+00  0.0000000000E+00  0.0000000000E+00
                       2.6897572876E+00  4.9381074934E+00  7.9322490642E+00
                      -1.6120679799E+00  4.0920812890E+00  9.9837093879E+00
                       4.3122400076E+00  8.6514655664E-01  9.9837093879E+00
                       3.9895717377E+00  7.3244281872E+00  1.1902620642E+01
                       6.9915825550E+00  5.7841336979E+00  5.8807887406E+00
                       1.3899428374E+00  2.5517867997E+00  3.9618774868E+00
                       1.0672745675E+00  9.0110684303E+00  5.8807887406E+00
             xred      3.3272900000E-01  6.6727100000E-01 -2.6020852140E-17
                       6.6727100000E-01  3.3272900000E-01  0.0000000000E+00
                       0.0000000000E+00  0.0000000000E+00  0.0000000000E+00
                       5.0000000000E-01  5.0000000000E-01  5.0000000000E-01
                       8.7599000000E-02  4.1433700000E-01  7.5611400000E-01
                       4.1433700000E-01  8.7599000000E-02  7.5611400000E-01
                       7.4162300000E-01  7.4162300000E-01  7.5316500000E-01
                       9.1240100000E-01  5.8566300000E-01  2.4388600000E-01
                       2.5837700000E-01  2.5837700000E-01  2.4683500000E-01
                       5.8566300000E-01  9.1240100000E-01  2.4388600000E-01
            znucl       21.00000   16.00000

- Timing analysis has been suppressed with timopt=0

 Suggested references for the acknowledgment of ABINIT usage.

 Calculation completed.
.Delivered   2 WARNINGs and   5 COMMENTs to log file.