.Version 9.5.2 of ABINIT

 ABINIT is a project of the Universite Catholique de Louvain,
 Corning Inc. and other collaborators, see ~abinit/doc/developers/contributors.txt .
 acknowledgments of the ABINIT effort.

.Starting date : Mon 24 May 2021.
- ( at 23h23 )

- input  file    -> /scratch/users/j/a/jabreu/flow_simple_10atoms/flow/w499/t1/run.abi
- output file    -> /scratch/users/j/a/jabreu/flow_simple_10atoms/flow/w499/t1/run.abo
- root for input  files -> /scratch/users/j/a/jabreu/flow_simple_10atoms/flow/w499/t1/indata/in
- root for output files -> /scratch/users/j/a/jabreu/flow_simple_10atoms/flow/w499/t1/outdata/out

 Symmetries : space group P2_1/m (# 11); Bravais mP (primitive monocl.)
     intxc =       0      iscf =       7    lmnmax =      18     lnmax =       6
     mgfft =      90  mpssoang =       3    mqgrid =    3860     natom =      10
  nloc_mem =       1    nspden =       1   nspinor =       1    nsppol =       1
      nsym =       4    n1xccc =    2501    ntypat =       4    occopt =       1
   xclevel =       2
-    mband =          43        mffmem =           1         mkmem =           2
-   mkqmem =           2        mk1mem =           2           mpw =       18120
      nfft =      349920          nkpt =           2
  Rough estimation (10% accuracy) of disk space for files :

------------- Echo of variables that govern the present computation ------------
-
- outvars: echo of selected default values
-   iomode0 =  0 , fftalg0 =512 , wfoptalg0 =  0
-
- outvars: echo of global parameters not present in the input file
-  max_nthreads =    0
-
 -outvars: echo values of preprocessed input variables --------
            acell      1.0000000000E+00  1.0000000000E+00  1.0000000000E+00 Bohr
              amu      8.54678000E+01  3.20660000E+01  1.59994000E+01
                       1.89984032E+01
             ecut      4.40000000E+01 Hartree
-          fftalg         512
           irdden           1
           irdwfk           1
           istwfk        0    1
              ixc     -116133
              kpt      2.50000000E-01  5.00000000E-01  5.00000000E-01
                       0.00000000E+00  5.00000000E-01  5.00000000E-01
           kptopt           0
P           mkmem           2
P          mkqmem           2
P          mk1mem           2
            natom          10
            nband          43
           nbdbuf           4
            ngfft          72      54      90
             nkpt           2
            nstep        2000
             nsym           4
           ntypat           4
              occ      2.000000  2.000000  2.000000  2.000000  2.000000  2.000000
                       2.000000  2.000000  2.000000  2.000000  2.000000  2.000000
                       2.000000  2.000000  2.000000  2.000000  2.000000  2.000000
                       2.000000  2.000000  2.000000  2.000000  2.000000  2.000000
                       2.000000  2.000000  2.000000  2.000000  2.000000  2.000000
                       2.000000  2.000000  2.000000  2.000000  0.000000  0.000000
                       0.000000  0.000000  0.000000  0.000000  0.000000  0.000000
                       0.000000
        optdriver           1
            prtwf          -1
            rfdir           1       1       1
           rfelfd           2
            rprim      1.1232965928E+01  0.0000000000E+00  0.0000000000E+00
                       0.0000000000E+00  8.5719556853E+00  2.5833837313E+00
                       0.0000000000E+00  0.0000000000E+00  1.3498958747E+01
          spgroup          11
           symrel      1  0  0   0  1  0   0  0  1      -1  0  0   0 -1  0   0  0 -1
                       1  0  0   0 -1  0   0  0 -1      -1  0  0   0  1  0   0  0  1
            tnons      0.0000000  0.0000000  0.0000000     0.0000000  0.0000000  0.0000000
                       0.5000000  0.0000000  0.0000000     0.5000000  0.0000000  0.0000000
           tolwfr      1.00000000E-20
            typat      1  1  2  2  3  3  3  3  4  4
           useylm           1
              wtk        0.50000    0.50000
           xangst      1.4860573885E+00  1.5389207881E+00  2.5216764907E+00
                       4.4581721655E+00  2.9971627936E+00  5.9887326097E+00
                       1.4860573885E+00  4.5643433824E-01  6.0136067329E+00
                       4.4581721655E+00  4.0796492435E+00  2.4968023675E+00
                       2.7046125586E+00  7.5309420449E-01  5.2344469534E+00
                       5.6767273356E+00  3.7829893772E+00  3.2759621470E+00
                       3.2396169954E+00  3.7829893772E+00  3.2759621470E+00
                       2.6750221839E-01  7.5309420449E-01  5.2344469534E+00
                       4.4581721655E+00  1.3246634162E+00  1.2737670628E+00
                       1.4860573885E+00  3.2114201655E+00  7.2366420376E+00
            xcart      2.8082414820E+00  2.9081388297E+00  4.7652779632E+00
                       8.4247244461E+00  5.6638168556E+00  1.1317064515E+01
                       2.8082414820E+00  8.6253589692E-01  1.1364069796E+01
                       8.4247244461E+00  7.7094197884E+00  4.7182726825E+00
                       5.1109770314E+00  1.4231417987E+00  9.8916711991E+00
                       1.0727459995E+01  7.1488138866E+00  6.1906712795E+00
                       6.1219888967E+00  7.1488138866E+00  6.1906712795E+00
                       5.0550593270E-01  1.4231417987E+00  9.8916711991E+00
                       8.4247244461E+00  2.5032510749E+00  2.4070709058E+00
                       2.8082414820E+00  6.0687046104E+00  1.3675271573E+01
             xred      2.5000000000E-01  3.3926200000E-01  2.8808400000E-01
                       7.5000000000E-01  6.6073800000E-01  7.1191600000E-01
                       2.5000000000E-01  1.0062300000E-01  8.2259100000E-01
                       7.5000000000E-01  8.9937700000E-01  1.7740900000E-01
                       4.5499800000E-01  1.6602300000E-01  7.0100000000E-01
                       9.5499800000E-01  8.3397700000E-01  2.9900000000E-01
                       5.4500200000E-01  8.3397700000E-01  2.9900000000E-01
                       4.5002000000E-02  1.6602300000E-01  7.0100000000E-01
                       7.5000000000E-01  2.9202800000E-01  1.2242800000E-01
                       2.5000000000E-01  7.0797200000E-01  8.7757200000E-01
            znucl       37.00000   16.00000    8.00000    9.00000

 chkinp: Checking input parameters for consistency.

== DATASET  1 ==================================================================
-   mpi_nproc: 1, omp_nthreads: -1 (-1 if OMP is not activated)

--- !DatasetInfo
iteration_state: {dtset: 1, }
dimensions: {natom: 10, nkpt: 2, mband: 43, nsppol: 1, nspinor: 1, nspden: 1, mpw: 18120, }
cutoff_energies: {ecut:  44.0, pawecutdg:  -1.0, }
electrons: {nelect:   6.80000000E+01, charge:   0.00000000E+00, occopt:   1.00000000E+00, tsmear:   1.00000000E-02, }
meta: {optdriver: 1, rfelfd: 2, }
...

 Real(R)+Recip(G) space primitive vectors, cartesian coordinates (Bohr,Bohr^-1):
 R(1)= 11.2329659  0.0000000  0.0000000  G(1)=  0.0890237  0.0000000  0.0000000
 R(2)=  0.0000000  8.5719557  2.5833837  G(2)=  0.0000000  0.1166595  0.0000000
 R(3)=  0.0000000  0.0000000 13.4989587  G(3)=  0.0000000 -0.0223259  0.0740798
 Unit cell volume ucvol=  1.2997943E+03 bohr^3
 Angles (23,13,12)=  7.32284415E+01  9.00000000E+01  9.00000000E+01 degrees

 getcut: wavevector=  0.0000  0.0000  0.0000  ngfft=  72  54  90
         ecut(hartree)=     44.000   => boxcut(ratio)=   2.02001

--- Pseudopotential description ------------------------------------------------
- pspini: atom type   1  psp file is /scratch/users/j/a/jabreu/pseudos/PBEsol/Rb.psp8
- pspatm: opening atomic psp file    /scratch/users/j/a/jabreu/pseudos/PBEsol/Rb.psp8
- Rb    ONCVPSP-3.3.0  r_core=   1.71227   1.75361   1.90633
- 37.00000   9.00000    180112                znucl, zion, pspdat
    8 -116133    2    4       600   0.00000   pspcod,pspxc,lmax,lloc,mmax,r2well
    5.99000000000000    7.00000000000000    0.00000000000000   rchrg,fchrg,qchrg
     nproj     2     2     2
     extension_switch     1
  pspatm : epsatm=   34.48400912
         --- l  ekb(1:nproj) -->
             0    8.196957   -0.477221
             1    3.231347   -0.378736
             2   -1.047201    0.996637
 pspatm: atomic psp has been read  and splines computed

- pspini: atom type   2  psp file is /scratch/users/j/a/jabreu/pseudos/PBEsol/S.psp8
- pspatm: opening atomic psp file    /scratch/users/j/a/jabreu/pseudos/PBEsol/S.psp8
- S     ONCVPSP-3.3.0  r_core=   1.45376   1.45376   1.61851
- 16.00000   6.00000    180112                znucl, zion, pspdat
    8 -116133    2    4       600   0.00000   pspcod,pspxc,lmax,lloc,mmax,r2well
    5.99000000000000    6.00000000000000    0.00000000000000   rchrg,fchrg,qchrg
     nproj     2     2     2
     extension_switch     1
  pspatm : epsatm=    8.71840985
         --- l  ekb(1:nproj) -->
             0    6.834532    0.579453
             1    3.282851    0.896984
             2   -3.496974   -0.974265
 pspatm: atomic psp has been read  and splines computed

[...]

- pspini: atom type   4  psp file is /scratch/users/j/a/jabreu/pseudos/PBEsol/F.psp8
- pspatm: opening atomic psp file    /scratch/users/j/a/jabreu/pseudos/PBEsol/F.psp8
- F     ONCVPSP-3.3.0  r_core=   1.30942   1.45782   1.60379
-  9.00000   7.00000    180112                znucl, zion, pspdat
    8 -116133    2    4       600   0.00000   pspcod,pspxc,lmax,lloc,mmax,r2well
    5.99000000000000    2.50000000000000    0.00000000000000   rchrg,fchrg,qchrg
     nproj     2     2     1
     extension_switch     1
  pspatm : epsatm=    4.89824824
         --- l  ekb(1:nproj) -->
             0    6.506434    1.065875
             1   -3.978753   -1.295852
             2   -2.394754
 pspatm: atomic psp has been read  and splines computed

   8.23600736E+03                                ecore*ucvol(ha*bohr**3)

 ==>  initialize data related to q vector <==

 The list of irreducible perturbations for this q vector is:
    1)    idir= 1    ipert=  11
    2)    idir= 2    ipert=  11
    3)    idir= 3    ipert=  11

 Perturbation wavevector (in red.coord.)   0.000000  0.000000  0.000000
 Perturbation : derivative vs k along direction   1

 dfpt_looppert : COMMENT -
  In a d/dk calculation, iscf is set to -3 automatically.
 The set of symmetries contains only one element for this perturbation.
 symkpt : not enough symmetry to change the number of k points.

 Initialisation of the first-order wave-functions :
  ireadwf=   0

--- !BeginCycle
iteration_state: {dtset: 1, }
solver: {iscf: 7, nstep: 2000, nline: 4, wfoptalg: 0, }
tolerances: {tolwfr: 1.00E-20, }
...

     iter   2DEtotal(Ha)        deltaE(Ha) residm    vres2
-ETOT  1  -21.701234124029     -2.170E+01 4.467E-02 0.000E+00
 ETOT  2  -21.736132059217     -3.490E-02 4.194E-03 0.000E+00
 ETOT  3  -21.736518004554     -3.859E-04 6.698E-04 0.000E+00
 ETOT  4  -21.736525459817     -7.455E-06 6.305E-05 0.000E+00
 ETOT  5  -21.736525637772     -1.780E-07 1.308E-05 0.000E+00
 ETOT  6  -21.736525642498     -4.726E-09 1.637E-06 0.000E+00
[...]
 ETOT 19  -21.736525642638      3.553E-15 2.962E-16 0.000E+00
 ETOT 20  -21.736525642638     -7.105E-15 4.196E-17 0.000E+00
 ETOT 21  -21.736525642638      0.000E+00 9.174E-18 0.000E+00
 ETOT 22  -21.736525642638      1.421E-14 1.307E-18 0.000E+00
 ETOT 23  -21.736525642638     -1.066E-14 2.849E-19 0.000E+00
 ETOT 24  -21.736525642638      7.105E-15 4.078E-20 0.000E+00
 ETOT 25  -21.736525642638      0.000E+00 9.969E-21 0.000E+00

 At SCF step   25   max residual=  9.97E-21 < tolwfr=  1.00E-20 =>converged.

 ----iterations are completed or convergence reached----

 dfpt_looppert: DFPT cycle converged with prtwf=-1. Will skip output of the 1st-order WFK file.
 dfpt_looppert : ek2=    4.2550999112E+01
          f-sum rule ratio=    1.0089923680E+00
 prteigrs : about to open file /scratch/users/j/a/jabreu/flow_simple_10atoms/flow/w499/t1/tmpdata/tmp_1WF1_EIG
 Expectation of eigenvalue derivatives (hartree) for nkpt=   2  k points:
  (in case of degenerate eigenvalues, averaged derivative)
 kpt#   1, nband= 43, wtk=  0.50000, kpt=  0.2500  0.5000  0.5000 (reduced coord)
   0.00080   -0.00027    0.00072   -0.00117    0.00095    0.00046   -0.00166   -0.00302
   0.02333    0.02115   -0.00777   -0.00579   -0.00075    0.00159   -0.00520   -0.01462
  -0.00175   -0.00363    0.00390   -0.00520    0.00719   -0.00461   -0.00981   -0.01959
   0.00660    0.01203    0.00368    0.00635   -0.01142   -0.01584   -0.00787   -0.01805
   0.02211   -0.00011    0.00528   -0.00271    0.03731    0.05937   -0.08118    0.06024
  -0.00395    0.05700   -0.03795
 prteigrs : prtvol=0 or 1, do not print more k-points.

 Eight components of 2nd-order total energy (hartree) are
 1,2,3: 0th-order hamiltonian combined with 1st-order wavefunctions
     kin0=   3.03926163E+01 eigvalue=   3.24145712E+00  local=  -1.49940830E+01
 4,5,6: 1st-order hamiltonian combined with 1st and 0th-order wfs
     kin1=  -4.29336334E+01  Hartree=   0.00000000E+00     xc=   0.00000000E+00
 7,8,9: eventually, occupation + non-local contributions
    edocc=   4.23907559E+00     enl0=  -1.14254031E+00   enl1=  -5.39417929E-01
 1-9 gives the relaxation energy (to be shifted if some occ is /=2.0)
   erelax=  -2.17365256E+01
  No Ewald or frozen-wf contrib.: the relaxation energy is the total one
 2DEtotal=   -0.2173652564E+02 Ha. Also 2DEtotal=   -0.591480943045E+03 eV
    (  non-var. 2DEtotal :   -2.1736525642E+01 Ha)

 Perturbation wavevector (in red.coord.)   0.000000  0.000000  0.000000
 Perturbation : derivative vs k along direction   2
 The set of symmetries contains only one element for this perturbation.
 symkpt : not enough symmetry to change the number of k points.

[...]

 Perturbation wavevector (in red.coord.)   0.000000  0.000000  0.000000
 Perturbation : derivative vs k along direction   3
 The set of symmetries contains only one element for this perturbation.
 symkpt : not enough symmetry to change the number of k points.

 Initialisation of the first-order wave-functions :
  ireadwf=   0

--- !BeginCycle
iteration_state: {dtset: 1, }
solver: {iscf: 7, nstep: 2000, nline: 4, wfoptalg: 0, }
tolerances: {tolwfr: 1.00E-20, }
...

     iter   2DEtotal(Ha)        deltaE(Ha) residm    vres2
-ETOT  1  -16.370422050579     -1.637E+01 2.149E-02 0.000E+00
 ETOT  2  -16.399015478462     -2.859E-02 1.452E-03 0.000E+00
 ETOT  3  -16.399259074205     -2.436E-04 1.770E-04 0.000E+00
 ETOT  4  -16.399262534237     -3.460E-06 3.864E-05 0.000E+00
 ETOT  5  -16.399262597143     -6.291E-08 9.406E-06 0.000E+00
 ETOT  6  -16.399262598474     -1.331E-09 2.863E-06 0.000E+00
 ETOT  7  -16.399262598505     -3.130E-11 6.669E-07 0.000E+00
 ETOT  8  -16.399262598506     -8.242E-13 2.189E-07 0.000E+00
 ETOT  9  -16.399262598506      1.421E-14 4.955E-08 0.000E+00
 ETOT 10  -16.399262598506     -3.553E-15 1.684E-08 0.000E+00
 ETOT 11  -16.399262598506     -7.105E-15 3.733E-09 0.000E+00
 ETOT 12  -16.399262598506      3.553E-15 1.298E-09 0.000E+00
 ETOT 13  -16.399262598506      0.000E+00 2.836E-10 0.000E+00
 ETOT 14  -16.399262598506     -7.105E-15 1.003E-10 0.000E+00
 ETOT 15  -16.399262598506      7.105E-15 2.168E-11 0.000E+00
 ETOT 16  -16.399262598506      0.000E+00 7.763E-12 0.000E+00
 ETOT 17  -16.399262598506      0.000E+00 1.667E-12 0.000E+00
 ETOT 18  -16.399262598506      7.105E-15 6.021E-13 0.000E+00
 ETOT 19  -16.399262598506     -3.553E-15 1.287E-13 0.000E+00
 ETOT 20  -16.399262598506     -3.553E-15 4.679E-14 0.000E+00
 ETOT 21  -16.399262598506     -3.553E-15 9.976E-15 0.000E+00
 ETOT 22  -16.399262598506      3.553E-15 3.643E-15 0.000E+00
 ETOT 23  -16.399262598506      0.000E+00 7.759E-16 0.000E+00
 ETOT 24  -16.399262598506     -7.105E-15 2.842E-16 0.000E+00
 ETOT 25  -16.399262598506      7.105E-15 6.052E-17 0.000E+00
 ETOT 26  -16.399262598506      0.000E+00 2.221E-17 0.000E+00
 ETOT 27  -16.399262598506      0.000E+00 4.732E-18 0.000E+00
 ETOT 28  -16.399262598506      0.000E+00 1.739E-18 0.000E+00
 ETOT 29  -16.399262598506      0.000E+00 3.709E-19 0.000E+00
 ETOT 30  -16.399262598506      0.000E+00 1.363E-19 0.000E+00
 ETOT 31  -16.399262598506      0.000E+00 2.912E-20 0.000E+00
 ETOT 32  -16.399262598506      0.000E+00 1.071E-20 0.000E+00
 ETOT 33  -16.399262598506      0.000E+00 9.968E-21 0.000E+00

 At SCF step   33   max residual=  9.97E-21 < tolwfr=  1.00E-20 =>converged.

 ----iterations are completed or convergence reached----

 dfpt_looppert: DFPT cycle converged with prtwf=-1. Will skip output of the 1st-order WFK file.
 dfpt_looppert : ek2=    3.2140619000E+01
          f-sum rule ratio=    1.0063012205E+00
 prteigrs : about to open file /scratch/users/j/a/jabreu/flow_simple_10atoms/flow/w499/t1/tmpdata/tmp_1WF1_EIG
 Expectation of eigenvalue derivatives (hartree) for nkpt=   2  k points:
  (in case of degenerate eigenvalues, averaged derivative)
 kpt#   1, nband= 43, wtk=  0.50000, kpt=  0.2500  0.5000  0.5000 (reduced coord)
   0.00000    0.00000    0.00000    0.00000    0.00000   -0.00000   -0.00000    0.00000
   0.00000    0.00000   -0.00000    0.00000   -0.00000   -0.00000   -0.00000   -0.00000
   0.00000    0.00000   -0.00000   -0.00000   -0.00000   -0.00000    0.00000   -0.00000
  -0.00000    0.00000   -0.00000    0.00000   -0.00000    0.00000    0.00000    0.00000
   0.00000    0.00000   -0.00000   -0.00000    0.00000    0.00000    0.00000   -0.00000
   0.00000    0.00027   -0.00000
 prteigrs : prtvol=0 or 1, do not print more k-points.

 Eight components of 2nd-order total energy (hartree) are
 1,2,3: 0th-order hamiltonian combined with 1st-order wavefunctions
     kin0=   2.26409429E+01 eigvalue=   2.34797298E+00  local=  -1.07169662E+01
 4,5,6: 1st-order hamiltonian combined with 1st and 0th-order wfs
     kin1=  -3.23431441E+01  Hartree=   0.00000000E+00     xc=   0.00000000E+00
 7,8,9: eventually, occupation + non-local contributions
    edocc=   2.82875544E+00     enl0=  -7.01442571E-01   enl1=  -4.55381070E-01
 1-9 gives the relaxation energy (to be shifted if some occ is /=2.0)
   erelax=  -1.63992626E+01
  No Ewald or frozen-wf contrib.: the relaxation energy is the total one
 2DEtotal=   -0.1639926260E+02 Ha. Also 2DEtotal=   -0.446246629589E+03 eV
    (  non-var. 2DEtotal :   -1.6399262598E+01 Ha)

 CALCULATION OF EFFECTIVE MASSES
 NOTE : Additional infos (eff. mass eigenvalues, eigenvectors and, if degenerate, average mass) are available in stdout.

 K-point ( 0.250, 0.500, 0.500) | band =    34
 Effective mass tensor:
            -10.9618107908              0.0000087634             -0.0000296803
              0.0000087634             -3.4656086745              1.9545250229
             -0.0000296803              1.9545250229             -4.2516659314
 Effective mass tensor eigenvalues:
            -10.9618107910             -5.8522871135             -1.8649874921
 Angular average effective mass 1/(<1/m>)=  -3.7580055115
 Angular average effective mass for Frohlich model (<m**0.5>)**2=  -4.4293185819
 Effective masses along directions: (cart. coord. / red. coord. -> eff. mass)
    1:   1.000000  0.000000  0.000000 /   1.000000  0.000000  0.000000 -> -10.9618107906
    2:   0.000000  1.000000  0.000000 /   0.000000  1.000000  0.000000 ->  -2.5670978020
    3:   0.000000  0.000000  1.000000 /   0.000000  0.187965  0.982176 ->  -3.1493579606
    4:   0.577350  0.577350  0.577350 /   0.539920  0.536189  0.648836 ->  -2.5941505569
    5:   0.000000  0.707107  0.707107 /   0.000000  0.637018  0.770849 ->  -1.8775395655
    6:   0.707107  0.000000  0.707107 /   0.632830  0.145540  0.760489 ->  -4.8929734633
    7:   0.707107  0.707107  0.000000 /   0.794971  0.606648  0.000000 ->  -4.1599897728

--- !WARNING
src_file: m_efmas.F90
src_line: 0
message: |

    Band(s)    35,
    are not band extrema, but saddle points;
    the transport equivalent formalism breaks down in these conditions.
    The associated tensor(s) will therefore not be printed.
...

 K-point ( 0.000, 0.500, 0.500) | band =    35
 Effective mass tensor:
     *** SADDLE POINT: TRANSPORT EQV. EFF. MASS NOT DEFINED (see WARNING above) ***
 Angular average effective mass 1/(<1/m>)=   1.8204062542
 Angular average effective mass for Frohlich model (<m**0.5>)**2=   6.4610038241
 Effective masses along directions: (cart. coord. / red. coord. -> eff. mass)
    1:   1.000000  0.000000  0.000000 /   1.000000  0.000000  0.000000 ->  11.8967303369
    2:   0.000000  1.000000  0.000000 /   0.000000  1.000000  0.000000 ->   0.7342901060
    3:   0.000000  0.000000  1.000000 /   0.000000  0.187965  0.982176 ->   4.9488407894
    4:   0.577350  0.577350  0.577350 /   0.539920  0.536189  0.648836 ->   1.0931856760
    5:   0.000000  0.707107  0.707107 /   0.000000  0.637018  0.770849 ->   0.7518183530
    6:   0.707107  0.000000  0.707107 /   0.632830  0.145540  0.760489 ->   6.9900250657
    7:   0.707107  0.707107  0.000000 /   0.794971  0.606648  0.000000 ->   1.3832044991

 END OF EFFECTIVE MASSES SECTION

 ---- first-order wavefunction calculations are completed ----

 Total localisation tensor (bohr^2) in cartesian coordinates
  WARNING : still subject to testing - especially symmetries.
      direction              matrix element
   alpha     beta       real part   imaginary part
     1        1       0.6897736099    0.0000000000
     1        2       0.0000000000    0.0000000000
     1        3       0.0000000000    0.0000000000
     2        1       0.0000000000    0.0000000000
     2        2       0.7326978490    0.0000000000
     2        3       0.2208177191    0.0000000000
     3        1       0.0000000000    0.0000000000
     3        2       0.2208177191    0.0000000000
     3        3       0.7459793652    0.0000000000

 respfn : d/dk was computed, but no 2DTE, so no DDB output.

== END DATASET(S) ==============================================================

 -outvars: echo values of variables after computation  --------
            acell      1.0000000000E+00  1.0000000000E+00  1.0000000000E+00 Bohr
              amu      8.54678000E+01  3.20660000E+01  1.59994000E+01
                       1.89984032E+01
             ecut      4.40000000E+01 Hartree
           etotal     -1.6399262599E+01
            fcart      0.0000000000E+00  0.0000000000E+00  0.0000000000E+00
                       0.0000000000E+00  0.0000000000E+00  0.0000000000E+00
                       0.0000000000E+00  0.0000000000E+00  0.0000000000E+00
                       0.0000000000E+00  0.0000000000E+00  0.0000000000E+00
                       0.0000000000E+00  0.0000000000E+00  0.0000000000E+00
                       0.0000000000E+00  0.0000000000E+00  0.0000000000E+00
                       0.0000000000E+00  0.0000000000E+00  0.0000000000E+00
                       0.0000000000E+00  0.0000000000E+00  0.0000000000E+00
                       0.0000000000E+00  0.0000000000E+00  0.0000000000E+00
                       0.0000000000E+00  0.0000000000E+00  0.0000000000E+00
-          fftalg         512
           irdden           1
           irdwfk           1
           istwfk        0    1
              ixc     -116133
              kpt      2.50000000E-01  5.00000000E-01  5.00000000E-01
                       0.00000000E+00  5.00000000E-01  5.00000000E-01
           kptopt           0
P           mkmem           2
P          mkqmem           2
P          mk1mem           2
            natom          10
            nband          43
           nbdbuf           4
            ngfft          72      54      90
             nkpt           2
            nstep        2000
             nsym           4
           ntypat           4
              occ      2.000000  2.000000  2.000000  2.000000  2.000000  2.000000
                       2.000000  2.000000  2.000000  2.000000  2.000000  2.000000
                       2.000000  2.000000  2.000000  2.000000  2.000000  2.000000
                       2.000000  2.000000  2.000000  2.000000  2.000000  2.000000
                       2.000000  2.000000  2.000000  2.000000  2.000000  2.000000
                       2.000000  2.000000  2.000000  2.000000  0.000000  0.000000
                       0.000000  0.000000  0.000000  0.000000  0.000000  0.000000
                       0.000000
        optdriver           1
            prtwf          -1
            rfdir           1       1       1
           rfelfd           2
            rprim      1.1232965928E+01  0.0000000000E+00  0.0000000000E+00
                       0.0000000000E+00  8.5719556853E+00  2.5833837313E+00
                       0.0000000000E+00  0.0000000000E+00  1.3498958747E+01
          spgroup          11
           strten      0.0000000000E+00  0.0000000000E+00  0.0000000000E+00
                       0.0000000000E+00  0.0000000000E+00  0.0000000000E+00
           symrel      1  0  0   0  1  0   0  0  1      -1  0  0   0 -1  0   0  0 -1
                       1  0  0   0 -1  0   0  0 -1      -1  0  0   0  1  0   0  0  1
            tnons      0.0000000  0.0000000  0.0000000     0.0000000  0.0000000  0.0000000
                       0.5000000  0.0000000  0.0000000     0.5000000  0.0000000  0.0000000
           tolwfr      1.00000000E-20
            typat      1  1  2  2  3  3  3  3  4  4
           useylm           1
              wtk        0.50000    0.50000
           xangst      1.4860573885E+00  1.5389207881E+00  2.5216764907E+00
                       4.4581721655E+00  2.9971627936E+00  5.9887326097E+00
                       1.4860573885E+00  4.5643433824E-01  6.0136067329E+00
                       4.4581721655E+00  4.0796492435E+00  2.4968023675E+00
                       2.7046125586E+00  7.5309420449E-01  5.2344469534E+00
                       5.6767273356E+00  3.7829893772E+00  3.2759621470E+00
                       3.2396169954E+00  3.7829893772E+00  3.2759621470E+00
                       2.6750221839E-01  7.5309420449E-01  5.2344469534E+00
                       4.4581721655E+00  1.3246634162E+00  1.2737670628E+00
                       1.4860573885E+00  3.2114201655E+00  7.2366420376E+00
            xcart      2.8082414820E+00  2.9081388297E+00  4.7652779632E+00
                       8.4247244461E+00  5.6638168556E+00  1.1317064515E+01
                       2.8082414820E+00  8.6253589692E-01  1.1364069796E+01
                       8.4247244461E+00  7.7094197884E+00  4.7182726825E+00
                       5.1109770314E+00  1.4231417987E+00  9.8916711991E+00
                       1.0727459995E+01  7.1488138866E+00  6.1906712795E+00
                       6.1219888967E+00  7.1488138866E+00  6.1906712795E+00
                       5.0550593270E-01  1.4231417987E+00  9.8916711991E+00
                       8.4247244461E+00  2.5032510749E+00  2.4070709058E+00
                       2.8082414820E+00  6.0687046104E+00  1.3675271573E+01
             xred      2.5000000000E-01  3.3926200000E-01  2.8808400000E-01
                       7.5000000000E-01  6.6073800000E-01  7.1191600000E-01
                       2.5000000000E-01  1.0062300000E-01  8.2259100000E-01
                       7.5000000000E-01  8.9937700000E-01  1.7740900000E-01
                       4.5499800000E-01  1.6602300000E-01  7.0100000000E-01
                       9.5499800000E-01  8.3397700000E-01  2.9900000000E-01
                       5.4500200000E-01  8.3397700000E-01  2.9900000000E-01
                       4.5002000000E-02  1.6602300000E-01  7.0100000000E-01
                       7.5000000000E-01  2.9202800000E-01  1.2242800000E-01
                       2.5000000000E-01  7.0797200000E-01  8.7757200000E-01
            znucl       37.00000   16.00000    8.00000    9.00000

- Timing analysis has been suppressed with timopt=0

 Suggested references for the acknowledgment of ABINIT usage.

 Calculation completed.
.Delivered   3 WARNINGs and   5 COMMENTs to log file.