.Version 9.7.2 of ABINIT

 ABINIT is a project of the Universite Catholique de Louvain,
 Corning Inc. and other collaborators, see ~abinit/doc/developers/contributors.txt .
 acknowledgments of the ABINIT effort.

.Starting date : Wed  1 Dec 2021.
- ( at 21h47 )

- input  file    -> /scratch/users/j/a/jabreu/flow_simple_remain_atoms/flow/w245/t1/run.abi
- output file    -> /scratch/users/j/a/jabreu/flow_simple_remain_atoms/flow/w245/t1/run.abo
- root for input  files -> /scratch/users/j/a/jabreu/flow_simple_remain_atoms/flow/w245/t1/indata/in
- root for output files -> /scratch/users/j/a/jabreu/flow_simple_remain_atoms/flow/w245/t1/outdata/out

 Symmetries : space group R3 m (#160); Bravais hR (rhombohedral)
     intxc =       0      iscf =       7    lmnmax =      18     lnmax =       6
     mgfft =      50  mpssoang =       3    mqgrid =    3001     natom =       5
  nloc_mem =       1    nspden =       1   nspinor =       1    nsppol =       1
      nsym =       6    n1xccc =    2501    ntypat =       3    occopt =       1
   xclevel =       2
-    mband =          25        mffmem =           1         mkmem =           1
-   mkqmem =           1        mk1mem =           1           mpw =        7272
      nfft =      125000          nkpt =           1
  Rough estimation (10% accuracy) of disk space for files :

------------- Echo of variables that govern the present computation ------------
-
- outvars: echo of selected default values
-   iomode0 =  0 , fftalg0 =512 , wfoptalg0 =  0
-
- outvars: echo of global parameters not present in the input file
-  max_nthreads =    0
-
 -outvars: echo values of preprocessed input variables --------
            acell      1.0000000000E+00  1.0000000000E+00  1.0000000000E+00 Bohr
              amu      3.90983000E+01  1.40067400E+01  1.59994000E+01
             ecut      4.40000000E+01 Hartree
-          fftalg         512
           irdden           1
           irdwfk           1
           istwfk        1
              ixc     -116133
              kpt      5.00000000E-01  5.00000000E-01  5.00000000E-01
           kptopt           0
P           mkmem           1
P          mkqmem           1
P          mk1mem           1
            natom           5
            nband          25
           nbdbuf           4
            ngfft          50      50      50
             nkpt           1
            nstep        2000
             nsym           6
           ntypat           3
              occ      2.000000  2.000000  2.000000  2.000000  2.000000  2.000000
                       2.000000  2.000000  2.000000  2.000000  2.000000  2.000000
                       2.000000  2.000000  2.000000  2.000000  0.000000  0.000000
                       0.000000  0.000000  0.000000  0.000000  0.000000  0.000000
                       0.000000
        optdriver           1
            prtwf          -1
            rfdir           1       1       1
           rfelfd           2
            rprim      8.0210582357E+00  0.0000000000E+00  1.8596545485E+00
                       1.4778267356E+00  7.8837429791E+00  1.8596545485E+00
                       0.0000000000E+00  0.0000000000E+00  8.2338138344E+00
          spgroup         160
           symrel      1  0  0   0  1  0   0  0  1       0  1  0   1  0  0   0  0  1
                       0  0  1   1  0  0   0  1  0       1  0  0   0  0  1   0  1  0
                       0  1  0   0  0  1   1  0  0       0  0  1   0  1  0   1  0  0
           tolwfr      1.00000000E-20
            typat      1  2  3  3  3
           useylm           1
           xangst      5.0010231530E+00  4.1506746624E+00  6.2931433228E+00
                       2.1906748706E+00  1.8181836797E+00  2.7566820853E+00
                       2.5428256609E+00  6.9439558519E-01  3.1998184849E+00
                       2.8571760269E+00  2.3713563761E+00  1.8439631221E+00
                       1.1510067367E+00  2.3713563761E+00  3.1998184849E+00
            xcart      9.4505641435E+00  7.8436383786E+00  1.1892317395E+01
                       4.1397755515E+00  3.4358692139E+00  5.2093741766E+00
                       4.8052441027E+00  1.3122174839E+00  6.0467806114E+00
                       5.3992802043E+00  4.4812141142E+00  3.4845852999E+00
                       2.1750875095E+00  4.4812141142E+00  6.0467806114E+00
             xred      9.9491300000E-01  9.9491300000E-01  9.9491300000E-01
                       4.3581700000E-01  4.3581700000E-01  4.3581700000E-01
                       5.6841200000E-01  1.6644600000E-01  5.6841200000E-01
                       5.6841200000E-01  5.6841200000E-01  1.6644600000E-01
                       1.6644600000E-01  5.6841200000E-01  5.6841200000E-01
            znucl       19.00000    7.00000    8.00000

 chkinp: Checking input parameters for consistency.

== DATASET  1 ==================================================================
-   mpi_nproc: 1, omp_nthreads: -1 (-1 if OMP is not activated)

--- !DatasetInfo
iteration_state: {dtset: 1, }
dimensions: {natom: 5, nkpt: 1, mband: 25, nsppol: 1, nspinor: 1, nspden: 1, mpw: 7272, }
cutoff_energies: {ecut:  44.0, pawecutdg:  -1.0, }
electrons: {nelect:   3.20000000E+01, charge:   0.00000000E+00, occopt:   1.00000000E+00, tsmear:   1.00000000E-02, }
meta: {optdriver: 1, rfelfd: 2, }
...

 Real(R)+Recip(G) space primitive vectors, cartesian coordinates (Bohr,Bohr^-1):
 R(1)=  8.0210582  0.0000000  1.8596545  G(1)=  0.1246718 -0.0233700  0.0000000
 R(2)=  1.4778267  7.8837430  1.8596545  G(2)=  0.0000000  0.1268433  0.0000000
 R(3)=  0.0000000  0.0000000  8.2338138  G(3)= -0.0281579 -0.0233700  0.1214504
 Unit cell volume ucvol=  5.2067314E+02 bohr^3
 Angles (23,13,12)=  7.69467931E+01  7.69467931E+01  7.69467931E+01 degrees

 getcut: wavevector=  0.0000  0.0000  0.0000  ngfft=  50  50  50
         ecut(hartree)=     44.000   => boxcut(ratio)=   2.03402

--- Pseudopotential description ------------------------------------------------
- pspini: atom type   1  psp file is /scratch/users/j/a/jabreu/pseudos/PBEsol/K.psp8
- pspatm: opening atomic psp file    /scratch/users/j/a/jabreu/pseudos/PBEsol/K.psp8
- K     ONCVPSP-3.3.0  r_core=   1.36296   1.46408   1.61068
- 19.00000   9.00000    180112                znucl, zion, pspdat
    8 -116133    2    4       400   0.00000   pspcod,pspxc,lmax,lloc,mmax,r2well
    3.99000000000000    5.00000000000000    0.00000000000000   rchrg,fchrg,qchrg
     nproj     2     2     2
     extension_switch     1
  pspatm : epsatm=    8.32487830
         --- l  ekb(1:nproj) -->
             0   10.921326    0.816676
             1    4.431000    0.560368
             2   -3.384038   -1.043186
 pspatm: atomic psp has been read  and splines computed

- pspini: atom type   2  psp file is /scratch/users/j/a/jabreu/pseudos/PBEsol/N.psp8
- pspatm: opening atomic psp file    /scratch/users/j/a/jabreu/pseudos/PBEsol/N.psp8
- N     ONCVPSP-3.3.0  r_core=   1.20551   1.35824
-  7.00000   5.00000    180112                znucl, zion, pspdat
    8 -116133    1    4       600   0.00000   pspcod,pspxc,lmax,lloc,mmax,r2well
    5.99000000000000    4.00000000000000    0.00000000000000   rchrg,fchrg,qchrg
     nproj     2     2
     extension_switch     1
  pspatm : epsatm=    5.26508895
         --- l  ekb(1:nproj) -->
             0    7.464189    0.625868
             1   -4.309714   -1.012941
 pspatm: atomic psp has been read  and splines computed

- pspini: atom type   3  psp file is /scratch/users/j/a/jabreu/pseudos/PBEsol/O.psp8
- pspatm: opening atomic psp file    /scratch/users/j/a/jabreu/pseudos/PBEsol/O.psp8
- O     ONCVPSP-3.3.0  r_core=   1.35509   1.45563   1.26150
-  8.00000   6.00000    180112                znucl, zion, pspdat
    8 -116133    2    4       600   0.00000   pspcod,pspxc,lmax,lloc,mmax,r2well
    5.99000000000000    4.00000000000000    0.00000000000000   rchrg,fchrg,qchrg
     nproj     2     2     1
     extension_switch     1
  pspatm : epsatm=    6.22910522
         --- l  ekb(1:nproj) -->
             0    6.050032    0.820363
             1   -4.739617   -1.153841
             2   -1.335834
 pspatm: atomic psp has been read  and splines computed

   1.03287305E+03                                ecore*ucvol(ha*bohr**3)

 ==>  initialize data related to q vector <==

 The list of irreducible perturbations for this q vector is:
    1)    idir= 1    ipert=   6
    2)    idir= 2    ipert=   6
    3)    idir= 3    ipert=   6

 Perturbation wavevector (in red.coord.)   0.000000  0.000000  0.000000
 Perturbation : derivative vs k along direction   1

 dfpt_looppert : COMMENT -
  In a d/dk calculation, iscf is set to -3 automatically.
 The set of symmetries contains only one element for this perturbation.
 symkpt : not enough symmetry to change the number of k points.

 Initialisation of the first-order wave-functions :
  ireadwf=   0

--- !BeginCycle
iteration_state: {dtset: 1, }
solver: {iscf: 7, nstep: 2000, nline: 4, wfoptalg: 0, }
tolerances: {tolwfr: 1.00E-20, }
...

     iter   2DEtotal(Ha)        deltaE(Ha) residm    vres2
-ETOT  1  -21.012297577076     -2.101E+01 1.663E-01 0.000E+00
 ETOT  2  -21.030955950138     -1.866E-02 5.927E-03 0.000E+00
 ETOT  3  -21.031055085409     -9.914E-05 5.141E-04 0.000E+00
 ETOT  4  -21.031055944980     -8.596E-07 5.647E-05 0.000E+00
 ETOT  5  -21.031055954991     -1.001E-08 1.022E-05 0.000E+00
 ETOT  6  -21.031055955131     -1.396E-10 1.500E-06 0.000E+00
 ETOT  7  -21.031055955133     -2.110E-12 3.452E-07 0.000E+00
 ETOT  8  -21.031055955133     -3.197E-14 5.895E-08 0.000E+00
 ETOT  9  -21.031055955133      3.553E-15 2.145E-08 0.000E+00
 ETOT 10  -21.031055955133      3.553E-15 4.851E-09 0.000E+00
 ETOT 11  -21.031055955133     -1.776E-14 1.581E-09 0.000E+00
 ETOT 12  -21.031055955133     -3.553E-15 3.843E-10 0.000E+00
 ETOT 13  -21.031055955133      3.553E-15 9.894E-11 0.000E+00
 ETOT 14  -21.031055955133      0.000E+00 2.955E-11 0.000E+00
 ETOT 15  -21.031055955133      0.000E+00 7.524E-12 0.000E+00
 ETOT 16  -21.031055955133     -3.553E-15 2.234E-12 0.000E+00
 ETOT 17  -21.031055955133      3.553E-15 5.221E-13 0.000E+00
 ETOT 18  -21.031055955133     -3.553E-15 1.676E-13 0.000E+00
 ETOT 19  -21.031055955133      3.553E-15 3.770E-14 0.000E+00
 ETOT 20  -21.031055955133      7.105E-15 1.254E-14 0.000E+00
 ETOT 21  -21.031055955133      0.000E+00 2.713E-15 0.000E+00
 ETOT 22  -21.031055955133      3.553E-15 9.374E-16 0.000E+00
 ETOT 23  -21.031055955133     -1.066E-14 1.997E-16 0.000E+00
 ETOT 24  -21.031055955133      7.105E-15 7.018E-17 0.000E+00
 ETOT 25  -21.031055955133      7.105E-15 1.495E-17 0.000E+00
 ETOT 26  -21.031055955133     -1.421E-14 5.268E-18 0.000E+00
 ETOT 27  -21.031055955133      1.421E-14 1.122E-18 0.000E+00
 ETOT 28  -21.031055955133      0.000E+00 3.969E-19 0.000E+00
 ETOT 29  -21.031055955133     -1.066E-14 8.441E-20 0.000E+00
 ETOT 30  -21.031055955133      7.105E-15 3.003E-20 0.000E+00
 ETOT 31  -21.031055955133     -1.421E-14 8.108E-21 0.000E+00

 At SCF step   31   max residual=  8.11E-21 < tolwfr=  1.00E-20 =>converged.

 ----iterations are completed or convergence reached----

 dfpt_looppert: DFPT cycle converged with prtwf=-1. Will skip output of the 1st-order WFK file.
 dfpt_looppert : ek2=    4.0651333476E+01
          f-sum rule ratio=    1.0579211792E+00
 prteigrs : about to open file /scratch/users/j/a/jabreu/flow_simple_remain_atoms/flow/w245/t1/tmpdata/tmp_1WF1_EIG
 Expectation of eigenvalue derivatives (hartree) for nkpt=   1  k points:
  (in case of degenerate eigenvalues, averaged derivative)
 kpt#   1, nband= 25, wtk=  1.00000, kpt=  0.5000  0.5000  0.5000 (reduced coord)
  -0.00000    0.00000    0.00000    0.00000    0.00000   -0.00000   -0.00000    0.00000
   0.00000    0.00000    0.00000   -0.00000   -0.00000   -0.00000   -0.00000   -0.00000
   0.00000    0.00000   -0.00000   -0.00000   -0.00000    0.00000   -0.00000    0.00008
   0.00000

 Eight components of 2nd-order total energy (hartree) are
 1,2,3: 0th-order hamiltonian combined with 1st-order wavefunctions
     kin0=   2.31357228E+01 eigvalue=   1.72670858E+00  local=  -9.85731890E+00
 4,5,6: 1st-order hamiltonian combined with 1st and 0th-order wfs
     kin1=  -4.30059066E+01  Hartree=   0.00000000E+00     xc=   0.00000000E+00
 7,8,9: eventually, occupation + non-local contributions
    edocc=   7.34757705E+00     enl0=  -1.32163362E+00   enl1=   9.43794737E-01
 1-9 gives the relaxation energy (to be shifted if some occ is /=2.0)
   erelax=  -2.10310560E+01
  No Ewald or frozen-wf contrib.: the relaxation energy is the total one
 2DEtotal=   -0.2103105596E+02 Ha. Also 2DEtotal=   -0.572284136576E+03 eV
    (  non-var. 2DEtotal :   -2.1031055955E+01 Ha)

 Perturbation wavevector (in red.coord.)   0.000000  0.000000  0.000000
 Perturbation : derivative vs k along direction   2
 The set of symmetries contains only one element for this perturbation.
 symkpt : not enough symmetry to change the number of k points.

[...]

 Perturbation wavevector (in red.coord.)   0.000000  0.000000  0.000000
 Perturbation : derivative vs k along direction   3
 The set of symmetries contains only one element for this perturbation.
 symkpt : not enough symmetry to change the number of k points.

 Initialisation of the first-order wave-functions :
  ireadwf=   0

--- !BeginCycle
iteration_state: {dtset: 1, }
solver: {iscf: 7, nstep: 2000, nline: 4, wfoptalg: 0, }
tolerances: {tolwfr: 1.00E-20, }
...

     iter   2DEtotal(Ha)        deltaE(Ha) residm    vres2
-ETOT  1  -21.010955371720     -2.101E+01 1.784E-01 0.000E+00
 ETOT  2  -21.030957752888     -2.000E-02 9.545E-03 0.000E+00
 ETOT  3  -21.031059544624     -1.018E-04 1.049E-03 0.000E+00
 ETOT  4  -21.031060357546     -8.129E-07 1.018E-04 0.000E+00
 ETOT  5  -21.031060366393     -8.847E-09 1.954E-05 0.000E+00
 ETOT  6  -21.031060366512     -1.195E-10 2.623E-06 0.000E+00
 ETOT  7  -21.031060366514     -1.819E-12 8.106E-07 0.000E+00
 ETOT  8  -21.031060366514     -1.421E-14 1.203E-07 0.000E+00
 ETOT  9  -21.031060366514     -1.066E-14 5.053E-08 0.000E+00
 ETOT 10  -21.031060366514      1.776E-14 8.501E-09 0.000E+00
 ETOT 11  -21.031060366514     -1.066E-14 3.787E-09 0.000E+00
 ETOT 12  -21.031060366514      0.000E+00 6.700E-10 0.000E+00
 ETOT 13  -21.031060366514      0.000E+00 2.504E-10 0.000E+00
 ETOT 14  -21.031060366514      1.066E-14 4.837E-11 0.000E+00
 ETOT 15  -21.031060366514     -3.553E-15 1.836E-11 0.000E+00
 ETOT 16  -21.031060366514     -1.421E-14 3.588E-12 0.000E+00
 ETOT 17  -21.031060366514      0.000E+00 1.310E-12 0.000E+00
 ETOT 18  -21.031060366514      1.421E-14 2.633E-13 0.000E+00
 ETOT 19  -21.031060366514     -1.421E-14 9.502E-14 0.000E+00
 ETOT 20  -21.031060366514      1.421E-14 1.936E-14 0.000E+00
 ETOT 21  -21.031060366514      3.553E-15 6.898E-15 0.000E+00
 ETOT 22  -21.031060366514     -7.105E-15 1.421E-15 0.000E+00
 ETOT 23  -21.031060366514      7.105E-15 5.029E-16 0.000E+00
 ETOT 24  -21.031060366514     -1.421E-14 1.044E-16 0.000E+00
 ETOT 25  -21.031060366514      1.066E-14 3.675E-17 0.000E+00
 ETOT 26  -21.031060366514     -1.421E-14 7.663E-18 0.000E+00
 ETOT 27  -21.031060366514      1.066E-14 2.690E-18 0.000E+00
 ETOT 28  -21.031060366514      0.000E+00 5.629E-19 0.000E+00
 ETOT 29  -21.031060366514      3.553E-15 1.972E-19 0.000E+00
 ETOT 30  -21.031060366514      0.000E+00 4.137E-20 0.000E+00
 ETOT 31  -21.031060366514      3.553E-15 1.448E-20 0.000E+00
 ETOT 32  -21.031060366514     -3.553E-15 9.820E-21 0.000E+00

 At SCF step   32   max residual=  9.82E-21 < tolwfr=  1.00E-20 =>converged.

 ----iterations are completed or convergence reached----

 dfpt_looppert: DFPT cycle converged with prtwf=-1. Will skip output of the 1st-order WFK file.
 dfpt_looppert : ek2=    4.0651333477E+01
          f-sum rule ratio=    1.0579213043E+00
 prteigrs : about to open file /scratch/users/j/a/jabreu/flow_simple_remain_atoms/flow/w245/t1/tmpdata/tmp_1WF1_EIG
 Expectation of eigenvalue derivatives (hartree) for nkpt=   1  k points:
  (in case of degenerate eigenvalues, averaged derivative)
 kpt#   1, nband= 25, wtk=  1.00000, kpt=  0.5000  0.5000  0.5000 (reduced coord)
  -0.00000   -0.00000    0.00000    0.00000   -0.00000    0.00000    0.00000    0.00000
  -0.00000    0.00000    0.00000   -0.00000   -0.00000    0.00000    0.00000    0.00000
  -0.00000    0.00000    0.00000   -0.00000   -0.00000   -0.00000    0.00000   -0.00093
   0.00000

 Eight components of 2nd-order total energy (hartree) are
 1,2,3: 0th-order hamiltonian combined with 1st-order wavefunctions
     kin0=   2.40923420E+01 eigvalue=   1.96892739E+00  local=  -1.05012370E+01
 4,5,6: 1st-order hamiltonian combined with 1st and 0th-order wfs
     kin1=  -4.30059117E+01  Hartree=   0.00000000E+00     xc=   0.00000000E+00
 7,8,9: eventually, occupation + non-local contributions
    edocc=   6.84405176E+00     enl0=  -1.37302372E+00   enl1=   9.43791002E-01
 1-9 gives the relaxation energy (to be shifted if some occ is /=2.0)
   erelax=  -2.10310604E+01
  No Ewald or frozen-wf contrib.: the relaxation energy is the total one
 2DEtotal=   -0.2103106037E+02 Ha. Also 2DEtotal=   -0.572284256616E+03 eV
    (  non-var. 2DEtotal :   -2.1031060366E+01 Ha)

 CALCULATION OF EFFECTIVE MASSES
 NOTE : Additional infos (eff. mass eigenvalues, eigenvectors and, if degenerate, average mass) are available in stdout.

 K-point ( 0.500, 0.500, 0.500) | band =    16
 Effective mass tensor:
             -5.8013254118             -2.7464312318             -4.1648569354
             -2.7464312318             -4.7719214388             -3.4564782499
             -4.1648569354             -3.4564782499             -7.7322156378
 Effective mass tensor eigenvalues:
            -13.3216747503             -2.4924181173             -2.4913696208
 Angular average effective mass 1/(<1/m>)=  -3.4181487216
 Angular average effective mass for Frohlich model (<m**0.5>)**2=  -3.8693741151
 Effective masses along directions: (cart. coord. / red. coord. -> eff. mass)
    1:   1.000000  0.000000  0.000000 /   0.983447  0.181194  0.000000 ->  -3.3154493853
    2:   0.000000  1.000000  0.000000 /   0.000000  1.000000  0.000000 ->  -3.0068410784
    3:   0.000000  0.000000  1.000000 /   0.215147  0.215147  0.952588 ->  -4.1071996841
    4:   0.577350  0.577350  0.577350 /   0.578880  0.657416  0.482393 -> -11.8561255389
    5:   0.000000  0.707107  0.707107 /   0.144256  0.755807  0.638707 ->  -5.4378461082
    6:   0.707107  0.000000  0.707107 /   0.743598  0.251171  0.619657 ->  -6.8004854038
    7:   0.707107  0.707107  0.000000 /   0.650644  0.759383  0.000000 ->  -4.2660978927

 K-point ( 0.500, 0.500, 0.500) | band =    17
 Effective mass tensor:
              3.9161973787              1.6867558516              2.5574181886
              1.6867558516              3.2838269316              2.1225696889
              2.5574181886              2.1225696889              5.1020551955
 Effective mass tensor eigenvalues:
              1.8838719150              1.8838774342              8.5343301566
 Angular average effective mass 1/(<1/m>)=   2.5449273868
 Angular average effective mass for Frohlich model (<m**0.5>)**2=   2.8286661245
 Effective masses along directions: (cart. coord. / red. coord. -> eff. mass)
    1:   1.000000  0.000000  0.000000 /   0.983447  0.181194  0.000000 ->   2.4727151579
    2:   0.000000  1.000000  0.000000 /   0.000000  1.000000  0.000000 ->   2.2535414289
    3:   0.000000  0.000000  1.000000 /   0.215147  0.215147  0.952588 ->   3.0242928382
    4:   0.577350  0.577350  0.577350 /   0.578880  0.657416  0.482393 ->   7.7556604833
    5:   0.000000  0.707107  0.707107 /   0.144256  0.755807  0.638707 ->   3.9187954273
    6:   0.707107  0.000000  0.707107 /   0.743598  0.251171  0.619657 ->   4.7969111225
    7:   0.707107  0.707107  0.000000 /   0.650644  0.759383  0.000000 ->   3.1331563457

 END OF EFFECTIVE MASSES SECTION

 ---- first-order wavefunction calculations are completed ----

 Total localisation tensor (bohr^2) in cartesian coordinates
  WARNING : still subject to testing - especially symmetries.
      direction              matrix element
   alpha     beta       real part   imaginary part
     1        1       0.7098661531    0.0000000000
     1        2       0.1243276381    0.0000000000
     1        3       0.1885036944    0.0000000000
     2        1       0.1243276381    0.0000000000
     2        2       0.6632490267    0.0000000000
     2        3       0.1564503146    0.0000000000
     3        1       0.1885036944    0.0000000000
     3        2       0.1564503146    0.0000000000
     3        3       0.7972733141    0.0000000000

 respfn : d/dk was computed, but no 2DTE, so no DDB output.

== END DATASET(S) ==============================================================

 -outvars: echo values of variables after computation  --------
            acell      1.0000000000E+00  1.0000000000E+00  1.0000000000E+00 Bohr
              amu      3.90983000E+01  1.40067400E+01  1.59994000E+01
             ecut      4.40000000E+01 Hartree
           etotal     -2.1031060367E+01
            fcart      0.0000000000E+00  0.0000000000E+00  0.0000000000E+00
                       0.0000000000E+00  0.0000000000E+00  0.0000000000E+00
                       0.0000000000E+00  0.0000000000E+00  0.0000000000E+00
                       0.0000000000E+00  0.0000000000E+00  0.0000000000E+00
                       0.0000000000E+00  0.0000000000E+00  0.0000000000E+00
-          fftalg         512
           irdden           1
           irdwfk           1
           istwfk        1
              ixc     -116133
              kpt      5.00000000E-01  5.00000000E-01  5.00000000E-01
           kptopt           0
P           mkmem           1
P          mkqmem           1
P          mk1mem           1
            natom           5
            nband          25
           nbdbuf           4
            ngfft          50      50      50
             nkpt           1
            nstep        2000
             nsym           6
           ntypat           3
              occ      2.000000  2.000000  2.000000  2.000000  2.000000  2.000000
                       2.000000  2.000000  2.000000  2.000000  2.000000  2.000000
                       2.000000  2.000000  2.000000  2.000000  0.000000  0.000000
                       0.000000  0.000000  0.000000  0.000000  0.000000  0.000000
                       0.000000
        optdriver           1
            prtwf          -1
            rfdir           1       1       1
           rfelfd           2
            rprim      8.0210582357E+00  0.0000000000E+00  1.8596545485E+00
                       1.4778267356E+00  7.8837429791E+00  1.8596545485E+00
                       0.0000000000E+00  0.0000000000E+00  8.2338138344E+00
          spgroup         160
           strten      0.0000000000E+00  0.0000000000E+00  0.0000000000E+00
                       0.0000000000E+00  0.0000000000E+00  0.0000000000E+00
           symrel      1  0  0   0  1  0   0  0  1       0  1  0   1  0  0   0  0  1
                       0  0  1   1  0  0   0  1  0       1  0  0   0  0  1   0  1  0
                       0  1  0   0  0  1   1  0  0       0  0  1   0  1  0   1  0  0
           tolwfr      1.00000000E-20
            typat      1  2  3  3  3
           useylm           1
           xangst      5.0010231530E+00  4.1506746624E+00  6.2931433228E+00
                       2.1906748706E+00  1.8181836797E+00  2.7566820853E+00
                       2.5428256609E+00  6.9439558519E-01  3.1998184849E+00
                       2.8571760269E+00  2.3713563761E+00  1.8439631221E+00
                       1.1510067367E+00  2.3713563761E+00  3.1998184849E+00
            xcart      9.4505641435E+00  7.8436383786E+00  1.1892317395E+01
                       4.1397755515E+00  3.4358692139E+00  5.2093741766E+00
                       4.8052441027E+00  1.3122174839E+00  6.0467806114E+00
                       5.3992802043E+00  4.4812141142E+00  3.4845852999E+00
                       2.1750875095E+00  4.4812141142E+00  6.0467806114E+00
             xred      9.9491300000E-01  9.9491300000E-01  9.9491300000E-01
                       4.3581700000E-01  4.3581700000E-01  4.3581700000E-01
                       5.6841200000E-01  1.6644600000E-01  5.6841200000E-01
                       5.6841200000E-01  5.6841200000E-01  1.6644600000E-01
                       1.6644600000E-01  5.6841200000E-01  5.6841200000E-01
            znucl       19.00000    7.00000    8.00000

- Timing analysis has been suppressed with timopt=0

 Suggested references for the acknowledgment of ABINIT usage.

 Calculation completed.
.Delivered   2 WARNINGs and   5 COMMENTs to log file.