.Version 9.5.1 of ABINIT

 ABINIT is a project of the Universite Catholique de Louvain,
 Corning Inc. and other collaborators, see ~abinit/doc/developers/contributors.txt .
 acknowledgments of the ABINIT effort.

.Starting date : Wed 19 May 2021.
- ( at 07h48 )

- input  file    -> /scratch/users/j/a/jabreu/flow_simple_9atoms/flow/w118/t1/run.abi
- output file    -> /scratch/users/j/a/jabreu/flow_simple_9atoms/flow/w118/t1/run.abo
- root for input  files -> /scratch/users/j/a/jabreu/flow_simple_9atoms/flow/w118/t1/indata/in
- root for output files -> /scratch/users/j/a/jabreu/flow_simple_9atoms/flow/w118/t1/outdata/out

 Symmetries : space group Fm -3 m (#225); Bravais cF (face-center cubic)
     intxc =       0      iscf =       7    lmnmax =      32     lnmax =       8
     mgfft =      72  mpssoang =       4    mqgrid =    3001     natom =       9
  nloc_mem =       1    nspden =       1   nspinor =       1    nsppol =       1
      nsym =      48    n1xccc =    2501    ntypat =       3    occopt =       1
   xclevel =       2
-    mband =          30        mffmem =           1         mkmem =           2
-   mkqmem =           2        mk1mem =           2           mpw =       13150
      nfft =      373248          nkpt =           2
  Rough estimation (10% accuracy) of disk space for files :

------------- Echo of variables that govern the present computation ------------
-
- outvars: echo of selected default values
-   iomode0 =  0 , fftalg0 =512 , wfoptalg0 =  0
-
- outvars: echo of global parameters not present in the input file
-  max_nthreads =    0
-
 -outvars: echo values of preprocessed input variables --------
            acell      1.0000000000E+00  1.0000000000E+00  1.0000000000E+00 Bohr
              amu      8.54678000E+01  1.00794000E+00  1.95080000E+02
             ecut      4.20000000E+01 Hartree
-          fftalg         512
           irdden           1
           irdwfk           1
           istwfk        0    1
              ixc     -116133
              kpt      6.09375000E-01  2.18750000E-01  6.09375000E-01
                       5.00000000E-01  0.00000000E+00  5.00000000E-01
           kptopt           0
P           mkmem           2
P          mkqmem           2
P          mk1mem           2
            natom           9
            nband          30
           nbdbuf           4
            ngfft          72      72      72
             nkpt           2
            nstep        2000
             nsym          48
           ntypat           3
              occ      2.000000  2.000000  2.000000  2.000000  2.000000  2.000000
                       2.000000  2.000000  2.000000  2.000000  2.000000  2.000000
                       2.000000  2.000000  2.000000  2.000000  2.000000  2.000000
                       2.000000  2.000000  2.000000  0.000000  0.000000  0.000000
                       0.000000  0.000000  0.000000  0.000000  0.000000  0.000000
        optdriver           1
            prtwf          -1
            rfdir           1       1       1
           rfelfd           2
            rprim      9.7599947748E+00  0.0000000000E+00  5.6349356105E+00
                       3.2533315916E+00  9.2018113195E+00  5.6349356105E+00
                       0.0000000000E+00  0.0000000000E+00  1.1269871221E+01
          spgroup         225
           symrel      1  0  0   0  1  0   0  0  1      -1  0  0   0 -1  0   0  0 -1
                       0 -1  1   0 -1  0   1 -1  0       0  1 -1   0  1  0  -1  1  0
                      -1  0  0  -1  0  1  -1  1  0       1  0  0   1  0 -1   1 -1  0
                       0  1 -1   1  0 -1   0  0 -1       0 -1  1  -1  0  1   0  0  1
                      -1  0  0  -1  1  0  -1  0  1       1  0  0   1 -1  0   1  0 -1
                       0 -1  1   1 -1  0   0 -1  0       0  1 -1  -1  1  0   0  1  0
                       1  0  0   0  0  1   0  1  0      -1  0  0   0  0 -1   0 -1  0
                       0  1 -1   0  0 -1   1  0 -1       0 -1  1   0  0  1  -1  0  1
                      -1  0  1  -1  1  0  -1  0  0       1  0 -1   1 -1  0   1  0  0
                       0 -1  0   1 -1  0   0 -1  1       0  1  0  -1  1  0   0  1 -1
                       1  0 -1   0  0 -1   0  1 -1      -1  0  1   0  0  1   0 -1  1
                       0  1  0   0  0  1   1  0  0       0 -1  0   0  0 -1  -1  0  0
                       1  0 -1   0  1 -1   0  0 -1      -1  0  1   0 -1  1   0  0  1
                       0 -1  0   0 -1  1   1 -1  0       0  1  0   0  1 -1  -1  1  0
                      -1  0  1  -1  0  0  -1  1  0       1  0 -1   1  0  0   1 -1  0
                       0  1  0   1  0  0   0  0  1       0 -1  0  -1  0  0   0  0 -1
                       0  0 -1   0  1 -1   1  0 -1       0  0  1   0 -1  1  -1  0  1
                       1 -1  0   0 -1  1   0 -1  0      -1  1  0   0  1 -1   0  1  0
                       0  0  1   1  0  0   0  1  0       0  0 -1  -1  0  0   0 -1  0
                      -1  1  0  -1  0  0  -1  0  1       1 -1  0   1  0  0   1  0 -1
                       0  0  1   0  1  0   1  0  0       0  0 -1   0 -1  0  -1  0  0
                       1 -1  0   0 -1  0   0 -1  1      -1  1  0   0  1  0   0  1 -1
                       0  0 -1   1  0 -1   0  1 -1       0  0  1  -1  0  1   0 -1  1
                      -1  1  0  -1  0  1  -1  0  0       1 -1  0   1  0 -1   1  0  0
           tolwfr      1.00000000E-20
            typat      1  1  2  2  2  2  2  2  3
           useylm           1
              wtk        0.50000    0.50000
           xangst      5.1647667908E+00  3.6520416210E+00  8.9456384909E+00
                       1.7215889303E+00  1.2173472070E+00  2.9818794970E+00
                       2.3931773288E+00  3.9196194065E+00  7.7824132629E+00
                       5.5431789240E+00  3.9196194065E+00  5.9637589939E+00
                       4.4931783923E+00  9.4976942152E-01  7.7824132629E+00
                       4.4931783923E+00  9.4976942152E-01  4.1451047250E+00
                       1.3431767970E+00  9.4976942152E-01  5.9637589939E+00
                       2.3931773288E+00  3.9196194065E+00  4.1451047250E+00
                       0.0000000000E+00  0.0000000000E+00  0.0000000000E+00
            xcart      9.7599947748E+00  6.9013584896E+00  1.6904806832E+01
                       3.2533315916E+00  2.3004528299E+00  5.6349356105E+00
                       4.5224497388E+00  7.4070072234E+00  1.4706629720E+01
                       1.0475090072E+01  7.4070072234E+00  1.1269871221E+01
                       8.4908766276E+00  1.7948040961E+00  1.4706629720E+01
                       8.4908766276E+00  1.7948040961E+00  7.8331127223E+00
                       2.5382362944E+00  1.7948040961E+00  1.1269871221E+01
                       4.5224497388E+00  7.4070072234E+00  7.8331127223E+00
                       0.0000000000E+00  0.0000000000E+00  0.0000000000E+00
             xred      7.5000000000E-01  7.5000000000E-01  7.5000000000E-01
                       2.5000000000E-01  2.5000000000E-01  2.5000000000E-01
                       1.9504900000E-01  8.0495100000E-01  8.0495100000E-01
                       8.0495100000E-01  8.0495100000E-01  1.9504900000E-01
                       8.0495100000E-01  1.9504900000E-01  8.0495100000E-01
                       8.0495100000E-01  1.9504900000E-01  1.9504900000E-01
                       1.9504900000E-01  1.9504900000E-01  8.0495100000E-01
                       1.9504900000E-01  8.0495100000E-01  1.9504900000E-01
                       0.0000000000E+00  0.0000000000E+00  0.0000000000E+00
            znucl       37.00000    1.00000   78.00000

 chkinp: Checking input parameters for consistency.

== DATASET  1 ==================================================================
-   mpi_nproc: 1, omp_nthreads: -1 (-1 if OMP is not activated)

--- !DatasetInfo
iteration_state: {dtset: 1, }
dimensions: {natom: 9, nkpt: 2, mband: 30, nsppol: 1, nspinor: 1, nspden: 1, mpw: 13150, }
cutoff_energies: {ecut:  42.0, pawecutdg:  -1.0, }
electrons: {nelect:   4.20000000E+01, charge:   0.00000000E+00, occopt:   1.00000000E+00, tsmear:   1.00000000E-02, }
meta: {optdriver: 1, rfelfd: 2, }
...

 Real(R)+Recip(G) space primitive vectors, cartesian coordinates (Bohr,Bohr^-1):
 R(1)=  9.7599948  0.0000000  5.6349356  G(1)=  0.1024591 -0.0362248  0.0000000
 R(2)=  3.2533316  9.2018113  5.6349356  G(2)=  0.0000000  0.1086743  0.0000000
 R(3)=  0.0000000  0.0000000 11.2698712  G(3)= -0.0512295 -0.0362248  0.0887322
 Unit cell volume ucvol=  1.0121430E+03 bohr^3
 Angles (23,13,12)=  6.00000000E+01  6.00000000E+01  6.00000000E+01 degrees

 getcut: wavevector=  0.0000  0.0000  0.0000  ngfft=  72  72  72
         ecut(hartree)=     42.000   => boxcut(ratio)=   2.18990

--- Pseudopotential description ------------------------------------------------
- pspini: atom type   1  psp file is /scratch/users/j/a/jabreu/pseudos/PBEsol/Rb.psp8
- pspatm: opening atomic psp file    /scratch/users/j/a/jabreu/pseudos/PBEsol/Rb.psp8
- Rb    ONCVPSP-3.3.0  r_core=   1.71227   1.75361   1.90633
- 37.00000   9.00000    180112                znucl, zion, pspdat
    8 -116133    2    4       600   0.00000   pspcod,pspxc,lmax,lloc,mmax,r2well
    5.99000000000000    7.00000000000000    0.00000000000000   rchrg,fchrg,qchrg
     nproj     2     2     2
     extension_switch     1
  pspatm : epsatm=   34.48400912
         --- l  ekb(1:nproj) -->
             0    8.196957   -0.477221
             1    3.231347   -0.378736
             2   -1.047201    0.996637
 pspatm: atomic psp has been read  and splines computed

- pspini: atom type   2  psp file is /scratch/users/j/a/jabreu/pseudos/PBEsol/H.psp8
- pspatm: opening atomic psp file    /scratch/users/j/a/jabreu/pseudos/PBEsol/H.psp8
- H     ONCVPSP-3.3.0  r_core=   1.00957   0.70586
-  1.00000   1.00000    180112                znucl, zion, pspdat
    8 -116133    1    4       300   0.00000   pspcod,pspxc,lmax,lloc,mmax,r2well
    2.99000000000000    0.00000000000000    0.00000000000000   rchrg,fchrg,qchrg
     nproj     2     1
     extension_switch     1
  pspatm : epsatm=    0.35627032
         --- l  ekb(1:nproj) -->
             0   -1.674911   -0.523609
             1   -0.494138
 pspatm: atomic psp has been read  and splines computed

- pspini: atom type   3  psp file is /scratch/users/j/a/jabreu/pseudos/PBEsol/Pt.psp8
- pspatm: opening atomic psp file    /scratch/users/j/a/jabreu/pseudos/PBEsol/Pt.psp8
- Pt    ONCVPSP-3.3.0  r_core=   1.45722   1.45722   1.45722   1.91724
- 78.00000  18.00000    180112                znucl, zion, pspdat
    8 -116133    3    4       500   0.00000   pspcod,pspxc,lmax,lloc,mmax,r2well
    4.99000000000000    5.00000000000000    0.00000000000000   rchrg,fchrg,qchrg
     nproj     2     2     2     2
     extension_switch     1
  pspatm : epsatm=   26.54019552
         --- l  ekb(1:nproj) -->
             0   18.149684    1.747248
             1    8.048135    1.208190
             2    2.365973    0.348456
             3    3.491561    0.381218
 pspatm: atomic psp has been read  and splines computed

   4.10112510E+03                                ecore*ucvol(ha*bohr**3)

[...]
 ETOT 19  -20.629531989972      7.105E-15 1.814E-19 0.000E+00
 ETOT 20  -20.629531989972     -7.105E-15 3.831E-20 0.000E+00
 ETOT 21  -20.629531989972     -3.553E-15 9.975E-21 0.000E+00

 At SCF step   21   max residual=  9.98E-21 < tolwfr=  1.00E-20 =>converged.

 ----iterations are completed or convergence reached----

 dfpt_looppert: DFPT cycle converged with prtwf=-1. Will skip output of the 1st-order WFK file.
 dfpt_looppert : ek2=    3.9164480926E+01
          f-sum rule ratio=    1.0139916459E+00
 prteigrs : about to open file /scratch/users/j/a/jabreu/flow_simple_9atoms/flow/w118/t1/tmpdata/tmp_1WF1_EIG
 Expectation of eigenvalue derivatives (hartree) for nkpt=   2  k points:
  (in case of degenerate eigenvalues, averaged derivative)
 kpt#   1, nband= 30, wtk=  0.50000, kpt=  0.6094  0.2188  0.6094 (reduced coord)
   0.00000    0.00000   -0.00000    0.00000   -0.00000   -0.00000   -0.00000   -0.00000
   0.00000    0.00000   -0.00000   -0.00000   -0.00000   -0.00000    0.00000   -0.00000
   0.00000   -0.00000    0.00000   -0.00000   -0.00000   -0.00000    0.00000    0.00000
   0.00000    0.00000   -0.00000    0.00000    0.00000   -0.00025
 prteigrs : prtvol=0 or 1, do not print more k-points.

 Eight components of 2nd-order total energy (hartree) are
 1,2,3: 0th-order hamiltonian combined with 1st-order wavefunctions
     kin0=   2.41381597E+01 eigvalue=   2.91772416E+00  local=  -1.45908835E+01
 4,5,6: 1st-order hamiltonian combined with 1st and 0th-order wfs
     kin1=  -3.97124565E+01  Hartree=   0.00000000E+00     xc=   0.00000000E+00
 7,8,9: eventually, occupation + non-local contributions
    edocc=   6.98617555E+00     enl0=   1.17835604E+00   enl1=  -1.54660751E+00
 1-9 gives the relaxation energy (to be shifted if some occ is /=2.0)
   erelax=  -2.06295320E+01
  No Ewald or frozen-wf contrib.: the relaxation energy is the total one
 2DEtotal=   -0.2062953199E+02 Ha. Also 2DEtotal=   -0.561358113831E+03 eV
    (  non-var. 2DEtotal :   -2.0629531990E+01 Ha)

 Perturbation wavevector (in red.coord.)   0.000000  0.000000  0.000000
 Perturbation : derivative vs k along direction   2
 The set of symmetries contains only one element for this perturbation.
 symkpt : not enough symmetry to change the number of k points.

[...]

 Perturbation wavevector (in red.coord.)   0.000000  0.000000  0.000000
 Perturbation : derivative vs k along direction   3
 The set of symmetries contains only one element for this perturbation.
 symkpt : not enough symmetry to change the number of k points.

-inwffil : will read wavefunctions from disk file /scratch/users/j/a/jabreu/flow_simple_9atoms/flow/w118/t1/indata/in_WFK

 Initialisation of the first-order wave-functions :
  ireadwf=   0

--- !BeginCycle
iteration_state: {dtset: 1, }
solver: {iscf: 7, nstep: 2000, nline: 4, wfoptalg: 0, }
tolerances: {tolwfr: 1.00E-20, }
...

     iter   2DEtotal(Ha)        deltaE(Ha) residm    vres2
-ETOT  1  -20.617347312426     -2.062E+01 1.620E-01 0.000E+00
 ETOT  2  -20.629409081482     -1.206E-02 4.418E-03 0.000E+00
 ETOT  3  -20.629440007906     -3.093E-05 3.854E-04 0.000E+00
 ETOT  4  -20.629440143144     -1.352E-07 5.655E-05 0.000E+00
 ETOT  5  -20.629440143931     -7.868E-10 4.529E-06 0.000E+00
 ETOT  6  -20.629440143937     -6.075E-12 8.300E-07 0.000E+00
 ETOT  7  -20.629440143937     -6.395E-14 6.341E-08 0.000E+00
 ETOT  8  -20.629440143937      3.553E-15 1.168E-08 0.000E+00
 ETOT  9  -20.629440143937     -2.842E-14 9.033E-10 0.000E+00
 ETOT 10  -20.629440143937      1.776E-14 1.656E-10 0.000E+00
 ETOT 11  -20.629440143937      3.553E-15 1.297E-11 0.000E+00
 ETOT 12  -20.629440143937     -3.553E-15 2.361E-12 0.000E+00
 ETOT 13  -20.629440143937     -3.553E-15 1.868E-13 0.000E+00
 ETOT 14  -20.629440143937      7.105E-15 3.375E-14 0.000E+00
 ETOT 15  -20.629440143937      0.000E+00 2.696E-15 0.000E+00
 ETOT 16  -20.629440143937     -1.066E-14 4.834E-16 0.000E+00
 ETOT 17  -20.629440143937      0.000E+00 3.894E-17 0.000E+00
 ETOT 18  -20.629440143937      0.000E+00 6.931E-18 0.000E+00
 ETOT 19  -20.629440143937      3.553E-15 5.630E-19 0.000E+00
 ETOT 20  -20.629440143937     -3.553E-15 9.951E-20 0.000E+00
 ETOT 21  -20.629440143937      0.000E+00 9.965E-21 0.000E+00

 At SCF step   21   max residual=  9.97E-21 < tolwfr=  1.00E-20 =>converged.

 ----iterations are completed or convergence reached----

 dfpt_looppert: DFPT cycle converged with prtwf=-1. Will skip output of the 1st-order WFK file.
 dfpt_looppert : ek2=    3.9164480925E+01
          f-sum rule ratio=    1.0139871684E+00
 prteigrs : about to open file /scratch/users/j/a/jabreu/flow_simple_9atoms/flow/w118/t1/tmpdata/tmp_1WF1_EIG
 Expectation of eigenvalue derivatives (hartree) for nkpt=   2  k points:
  (in case of degenerate eigenvalues, averaged derivative)
 kpt#   1, nband= 30, wtk=  0.50000, kpt=  0.6094  0.2188  0.6094 (reduced coord)
  -0.00000    0.00000    0.00000   -0.00000   -0.00000    0.00000    0.00000    0.00000
  -0.00000   -0.00000    0.00000   -0.00000   -0.00000    0.00000   -0.00000    0.00000
  -0.00000    0.00000   -0.00000   -0.00000    0.00000    0.00000   -0.00000    0.00000
  -0.00000   -0.00000    0.00000   -0.00000   -0.00002   -0.00043
 prteigrs : prtvol=0 or 1, do not print more k-points.

 Eight components of 2nd-order total energy (hartree) are
 1,2,3: 0th-order hamiltonian combined with 1st-order wavefunctions
     kin0=   2.41562336E+01 eigvalue=   2.91933429E+00  local=  -1.46057470E+01
 4,5,6: 1st-order hamiltonian combined with 1st and 0th-order wfs
     kin1=  -3.97122811E+01  Hartree=   0.00000000E+00     xc=   0.00000000E+00
 7,8,9: eventually, occupation + non-local contributions
    edocc=   6.97875190E+00     enl0=   1.18086742E+00   enl1=  -1.54659917E+00
 1-9 gives the relaxation energy (to be shifted if some occ is /=2.0)
   erelax=  -2.06294401E+01
  No Ewald or frozen-wf contrib.: the relaxation energy is the total one
 2DEtotal=   -0.2062944014E+02 Ha. Also 2DEtotal=   -0.561355614574E+03 eV
    (  non-var. 2DEtotal :   -2.0629440144E+01 Ha)

 CALCULATION OF EFFECTIVE MASSES
 NOTE : Additional infos (eff. mass eigenvalues, eigenvectors and, if degenerate, average mass) are available in stdout.

 K-point ( 0.609, 0.219, 0.609) | band =    21
 Effective mass tensor:
             -3.0736119103             -1.3612199881             -1.2578058337
             -1.3612199881             -7.1766363436             -2.3579811473
             -1.2578058337             -2.3579811473             -4.5253625810
 Effective mass tensor eigenvalues:
             -9.1019652733             -3.3263878848             -2.3472576768
 Angular average effective mass 1/(<1/m>)=  -3.5862781278
 Angular average effective mass for Frohlich model (<m**0.5>)**2=  -3.8842516700
 Effective masses along directions: (cart. coord. / red. coord. -> eff. mass)
    1:   1.000000  0.000000  0.000000 /   0.948683  0.316228  0.000000 ->  -2.6402515149
    2:   0.000000  1.000000  0.000000 /   0.000000  1.000000  0.000000 ->  -5.7650988400
    3:   0.000000  0.000000  1.000000 /   0.408248  0.408248  0.816497 ->  -3.5172566953
    4:   0.577350  0.577350  0.577350 /   0.585539  0.688047  0.428644 ->  -7.0233592083
    5:   0.000000  0.707107  0.707107 /   0.289489  0.762222  0.578977 ->  -6.6227032732
    6:   0.707107  0.000000  0.707107 /   0.731423  0.422287  0.535439 ->  -4.0051460852
    7:   0.707107  0.707107  0.000000 /   0.616798  0.787122  0.000000 ->  -4.3260189621

 K-point ( 0.500, 0.000, 0.500) | band =    22
 Effective mass tensor:
              0.7591165047              0.0649870935             -0.0795926095
              0.0649870935              0.7131636901              0.1125609478
             -0.0795926095              0.1125609478              0.6672108756
 Effective mass tensor eigenvalues:
              0.5293524320              0.8050693192              0.8050693192
 Angular average effective mass 1/(<1/m>)=   0.6859716256
 Angular average effective mass for Frohlich model (<m**0.5>)**2=   0.6945870808
 Effective masses along directions: (cart. coord. / red. coord. -> eff. mass)
    1:   1.000000  0.000000  0.000000 /   0.948683  0.316228  0.000000 ->   0.7407639764
    2:   0.000000  1.000000  0.000000 /   0.000000  1.000000  0.000000 ->   0.6859716256
    3:   0.000000  0.000000  1.000000 /   0.408248  0.408248  0.816497 ->   0.6387267019
    4:   0.577350  0.577350  0.577350 /   0.585539  0.688047  0.428644 ->   0.7665473491
    5:   0.000000  0.707107  0.707107 /   0.289489  0.762222  0.578977 ->   0.8015546865
    6:   0.707107  0.000000  0.707107 /   0.731423  0.422287  0.535439 ->   0.6080687655
    7:   0.707107  0.707107  0.000000 /   0.616798  0.787122  0.000000 ->   0.7991182244

 END OF EFFECTIVE MASSES SECTION

 ---- first-order wavefunction calculations are completed ----

 Total localisation tensor (bohr^2) in cartesian coordinates
  WARNING : still subject to testing - especially symmetries.
      direction              matrix element
   alpha     beta       real part   imaginary part
     1        1       1.1406780431    0.0000000000
     1        2       0.3216250363    0.0000000000
     1        3       0.7898736465    0.0000000000
     2        1       0.3216250363    0.0000000000
     2        2       0.9096929768    0.0000000000
     2        3       0.5570709039    0.0000000000
     3        1       0.7898736465    0.0000000000
     3        2       0.5570709039    0.0000000000
     3        3       2.0527454748    0.0000000000

 respfn : d/dk was computed, but no 2DTE, so no DDB output.

== END DATASET(S) ==============================================================

 -outvars: echo values of variables after computation  --------
            acell      1.0000000000E+00  1.0000000000E+00  1.0000000000E+00 Bohr
              amu      8.54678000E+01  1.00794000E+00  1.95080000E+02
             ecut      4.20000000E+01 Hartree
           etotal     -2.0629440144E+01
            fcart      0.0000000000E+00  0.0000000000E+00  0.0000000000E+00
                       0.0000000000E+00  0.0000000000E+00  0.0000000000E+00
                       0.0000000000E+00  0.0000000000E+00  0.0000000000E+00
                       0.0000000000E+00  0.0000000000E+00  0.0000000000E+00
                       0.0000000000E+00  0.0000000000E+00  0.0000000000E+00
                       0.0000000000E+00  0.0000000000E+00  0.0000000000E+00
                       0.0000000000E+00  0.0000000000E+00  0.0000000000E+00
                       0.0000000000E+00  0.0000000000E+00  0.0000000000E+00
                       0.0000000000E+00  0.0000000000E+00  0.0000000000E+00
-          fftalg         512
           irdden           1
           irdwfk           1
           istwfk        0    1
              ixc     -116133
              kpt      6.09375000E-01  2.18750000E-01  6.09375000E-01
                       5.00000000E-01  0.00000000E+00  5.00000000E-01
           kptopt           0
P           mkmem           2
P          mkqmem           2
P          mk1mem           2
            natom           9
            nband          30
           nbdbuf           4
            ngfft          72      72      72
             nkpt           2
            nstep        2000
             nsym          48
           ntypat           3
              occ      2.000000  2.000000  2.000000  2.000000  2.000000  2.000000
                       2.000000  2.000000  2.000000  2.000000  2.000000  2.000000
                       2.000000  2.000000  2.000000  2.000000  2.000000  2.000000
                       2.000000  2.000000  2.000000  0.000000  0.000000  0.000000
                       0.000000  0.000000  0.000000  0.000000  0.000000  0.000000
        optdriver           1
            prtwf          -1
            rfdir           1       1       1
           rfelfd           2
            rprim      9.7599947748E+00  0.0000000000E+00  5.6349356105E+00
                       3.2533315916E+00  9.2018113195E+00  5.6349356105E+00
                       0.0000000000E+00  0.0000000000E+00  1.1269871221E+01
          spgroup         225
           strten      0.0000000000E+00  0.0000000000E+00  0.0000000000E+00
                       0.0000000000E+00  0.0000000000E+00  0.0000000000E+00
           symrel      1  0  0   0  1  0   0  0  1      -1  0  0   0 -1  0   0  0 -1
                       0 -1  1   0 -1  0   1 -1  0       0  1 -1   0  1  0  -1  1  0
                      -1  0  0  -1  0  1  -1  1  0       1  0  0   1  0 -1   1 -1  0
                       0  1 -1   1  0 -1   0  0 -1       0 -1  1  -1  0  1   0  0  1
                      -1  0  0  -1  1  0  -1  0  1       1  0  0   1 -1  0   1  0 -1
                       0 -1  1   1 -1  0   0 -1  0       0  1 -1  -1  1  0   0  1  0
                       1  0  0   0  0  1   0  1  0      -1  0  0   0  0 -1   0 -1  0
                       0  1 -1   0  0 -1   1  0 -1       0 -1  1   0  0  1  -1  0  1
                      -1  0  1  -1  1  0  -1  0  0       1  0 -1   1 -1  0   1  0  0
                       0 -1  0   1 -1  0   0 -1  1       0  1  0  -1  1  0   0  1 -1
                       1  0 -1   0  0 -1   0  1 -1      -1  0  1   0  0  1   0 -1  1
                       0  1  0   0  0  1   1  0  0       0 -1  0   0  0 -1  -1  0  0
                       1  0 -1   0  1 -1   0  0 -1      -1  0  1   0 -1  1   0  0  1
                       0 -1  0   0 -1  1   1 -1  0       0  1  0   0  1 -1  -1  1  0
                      -1  0  1  -1  0  0  -1  1  0       1  0 -1   1  0  0   1 -1  0
                       0  1  0   1  0  0   0  0  1       0 -1  0  -1  0  0   0  0 -1
                       0  0 -1   0  1 -1   1  0 -1       0  0  1   0 -1  1  -1  0  1
                       1 -1  0   0 -1  1   0 -1  0      -1  1  0   0  1 -1   0  1  0
                       0  0  1   1  0  0   0  1  0       0  0 -1  -1  0  0   0 -1  0
                      -1  1  0  -1  0  0  -1  0  1       1 -1  0   1  0  0   1  0 -1
                       0  0  1   0  1  0   1  0  0       0  0 -1   0 -1  0  -1  0  0
                       1 -1  0   0 -1  0   0 -1  1      -1  1  0   0  1  0   0  1 -1
                       0  0 -1   1  0 -1   0  1 -1       0  0  1  -1  0  1   0 -1  1
                      -1  1  0  -1  0  1  -1  0  0       1 -1  0   1  0 -1   1  0  0
           tolwfr      1.00000000E-20
            typat      1  1  2  2  2  2  2  2  3
           useylm           1
              wtk        0.50000    0.50000
           xangst      5.1647667908E+00  3.6520416210E+00  8.9456384909E+00
                       1.7215889303E+00  1.2173472070E+00  2.9818794970E+00
                       2.3931773288E+00  3.9196194065E+00  7.7824132629E+00
                       5.5431789240E+00  3.9196194065E+00  5.9637589939E+00
                       4.4931783923E+00  9.4976942152E-01  7.7824132629E+00
                       4.4931783923E+00  9.4976942152E-01  4.1451047250E+00
                       1.3431767970E+00  9.4976942152E-01  5.9637589939E+00
                       2.3931773288E+00  3.9196194065E+00  4.1451047250E+00
                       0.0000000000E+00  0.0000000000E+00  0.0000000000E+00
            xcart      9.7599947748E+00  6.9013584896E+00  1.6904806832E+01
                       3.2533315916E+00  2.3004528299E+00  5.6349356105E+00
                       4.5224497388E+00  7.4070072234E+00  1.4706629720E+01
                       1.0475090072E+01  7.4070072234E+00  1.1269871221E+01
                       8.4908766276E+00  1.7948040961E+00  1.4706629720E+01
                       8.4908766276E+00  1.7948040961E+00  7.8331127223E+00
                       2.5382362944E+00  1.7948040961E+00  1.1269871221E+01
                       4.5224497388E+00  7.4070072234E+00  7.8331127223E+00
                       0.0000000000E+00  0.0000000000E+00  0.0000000000E+00
             xred      7.5000000000E-01  7.5000000000E-01  7.5000000000E-01
                       2.5000000000E-01  2.5000000000E-01  2.5000000000E-01
                       1.9504900000E-01  8.0495100000E-01  8.0495100000E-01
                       8.0495100000E-01  8.0495100000E-01  1.9504900000E-01
                       8.0495100000E-01  1.9504900000E-01  8.0495100000E-01
                       8.0495100000E-01  1.9504900000E-01  1.9504900000E-01
                       1.9504900000E-01  1.9504900000E-01  8.0495100000E-01
                       1.9504900000E-01  8.0495100000E-01  1.9504900000E-01
                       0.0000000000E+00  0.0000000000E+00  0.0000000000E+00
            znucl       37.00000    1.00000   78.00000

- Timing analysis has been suppressed with timopt=0

 Suggested references for the acknowledgment of ABINIT usage.

 Calculation completed.
.Delivered  14 WARNINGs and   9 COMMENTs to log file.