.Version 9.7.2 of ABINIT

 ABINIT is a project of the Universite Catholique de Louvain,
 Corning Inc. and other collaborators, see ~abinit/doc/developers/contributors.txt .
 acknowledgments of the ABINIT effort.

.Starting date : Wed  1 Dec 2021.
- ( at 21h21 )

- input  file    -> /scratch/users/j/a/jabreu/flow_simple_remain_atoms/flow/w164/t1/run.abi
- output file    -> /scratch/users/j/a/jabreu/flow_simple_remain_atoms/flow/w164/t1/run.abo
- root for input  files -> /scratch/users/j/a/jabreu/flow_simple_remain_atoms/flow/w164/t1/indata/in
- root for output files -> /scratch/users/j/a/jabreu/flow_simple_remain_atoms/flow/w164/t1/outdata/out

 Symmetries : space group P2_1/m (# 11); Bravais mP (primitive monocl.)
     intxc =       0      iscf =       7    lmnmax =      32     lnmax =       8
     mgfft =      80  mpssoang =       4    mqgrid =    3729     natom =       8
  nloc_mem =       1    nspden =       1   nspinor =       1    nsppol =       1
      nsym =       4    n1xccc =    2501    ntypat =       3    occopt =       1
   xclevel =       2
-    mband =          33        mffmem =           1         mkmem =           2
-   mkqmem =           2        mk1mem =           2           mpw =       12593
      nfft =      230400          nkpt =           2
  Rough estimation (10% accuracy) of disk space for files :

------------- Echo of variables that govern the present computation ------------
-
- outvars: echo of selected default values
-   iomode0 =  0 , fftalg0 =512 , wfoptalg0 =  0
-
- outvars: echo of global parameters not present in the input file
-  max_nthreads =    0
-
 -outvars: echo values of preprocessed input variables --------
            acell      1.0000000000E+00  1.0000000000E+00  1.0000000000E+00 Bohr
              amu      1.38905500E+02  1.00794000E+00  1.59994000E+01
             ecut      5.20000000E+01 Hartree
-          fftalg         512
           irdden           1
           irdwfk           1
           istwfk        1    1
              ixc     -116133
              kpt      0.00000000E+00  0.00000000E+00  5.00000000E-01
                       0.00000000E+00  0.00000000E+00  0.00000000E+00
           kptopt           0
P           mkmem           2
P          mkqmem           2
P          mk1mem           2
            natom           8
            nband          33
           nbdbuf           4
            ngfft          48      60      80
             nkpt           2
            nstep        2000
             nsym           4
           ntypat           3
              occ      2.000000  2.000000  2.000000  2.000000  2.000000  2.000000
                       2.000000  2.000000  2.000000  2.000000  2.000000  2.000000
                       2.000000  2.000000  2.000000  2.000000  2.000000  2.000000
                       2.000000  2.000000  2.000000  2.000000  2.000000  2.000000
                       0.000000  0.000000  0.000000  0.000000  0.000000  0.000000
                       0.000000  0.000000  0.000000
        optdriver           1
            prtwf          -1
            rfdir           1       1       1
           rfelfd           2
            rprim      7.3619701297E+00  0.0000000000E+00  0.0000000000E+00
                       0.0000000000E+00  7.9491626405E+00  2.4527294479E+00
                       0.0000000000E+00  0.0000000000E+00  1.2020005112E+01
          spgroup          11
           symrel      1  0  0   0  1  0   0  0  1      -1  0  0   0 -1  0   0  0 -1
                       1  0  0   0 -1  0   0  0 -1      -1  0  0   0  1  0   0  0  1
            tnons      0.0000000  0.0000000  0.0000000    -0.0000000 -0.0000000  0.0000000
                       0.5000000 -0.0000000  0.0000000     0.5000000  0.0000000  0.0000000
           tolwfr      1.00000000E-20
            typat      1  1  2  2  3  3  3  3
           useylm           1
              wtk        0.50000    0.50000
           xangst      2.9218401022E+00  7.1560403730E-01  4.6322542516E+00
                       9.7394670074E-01  3.4909116594E+00  3.0263870233E+00
                       9.7394670074E-01  2.0326809280E+00  6.5564023371E+00
                       2.9218401022E+00  2.1738347687E+00  1.1022389378E+00
                       9.7394670074E-01  1.0915697907E+00  3.2803402809E+00
                       2.9218401022E+00  3.1149459060E+00  4.3783009940E+00
                       9.7394670074E-01  1.0891342181E+00  6.3222866110E+00
                       2.9218401022E+00  3.1173814786E+00  1.3363546639E+00
            xcart      5.5214775973E+00  1.3522956501E+00  8.7536919134E+00
                       1.8404925324E+00  6.5968669904E+00  5.7190426461E+00
                       1.8404925324E+00  3.8412102695E+00  1.2389804834E+01
                       5.5214775973E+00  4.1079523710E+00  2.0829297254E+00
                       1.8404925324E+00  2.0627679594E+00  6.1989447536E+00
                       5.5214775973E+00  5.8863946811E+00  8.2737898059E+00
                       1.8404925324E+00  2.0581653942E+00  1.1947390228E+01
                       5.5214775973E+00  5.8909972463E+00  2.5253443311E+00
             xred      7.5000000000E-01  1.7011800000E-01  6.9354700000E-01
                       2.5000000000E-01  8.2988200000E-01  3.0645300000E-01
                       2.5000000000E-01  4.8322200000E-01  9.3216200000E-01
                       7.5000000000E-01  5.1677800000E-01  6.7838000000E-02
                       2.5000000000E-01  2.5949500000E-01  4.6276800000E-01
                       7.5000000000E-01  7.4050500000E-01  5.3723200000E-01
                       2.5000000000E-01  2.5891600000E-01  9.4112600000E-01
                       7.5000000000E-01  7.4108400000E-01  5.8874000000E-02
            znucl       57.00000    1.00000    8.00000

 chkinp: Checking input parameters for consistency.

== DATASET  1 ==================================================================
-   mpi_nproc: 1, omp_nthreads: -1 (-1 if OMP is not activated)

--- !DatasetInfo
iteration_state: {dtset: 1, }
dimensions: {natom: 8, nkpt: 2, mband: 33, nsppol: 1, nspinor: 1, nspden: 1, mpw: 12593, }
cutoff_energies: {ecut:  52.0, pawecutdg:  -1.0, }
electrons: {nelect:   4.80000000E+01, charge:   0.00000000E+00, occopt:   1.00000000E+00, tsmear:   1.00000000E-02, }
meta: {optdriver: 1, rfelfd: 2, }
...

 Real(R)+Recip(G) space primitive vectors, cartesian coordinates (Bohr,Bohr^-1):
 R(1)=  7.3619701  0.0000000  0.0000000  G(1)=  0.1358332  0.0000000  0.0000000
 R(2)=  0.0000000  7.9491626  2.4527294  G(2)=  0.0000000  0.1257994  0.0000000
 R(3)=  0.0000000  0.0000000 12.0200051  G(3)=  0.0000000 -0.0256699  0.0831946
 Unit cell volume ucvol=  7.0342870E+02 bohr^3
 Angles (23,13,12)=  7.28522891E+01  9.00000000E+01  9.00000000E+01 degrees

 getcut: wavevector=  0.0000  0.0000  0.0000  ngfft=  48  60  80
         ecut(hartree)=     52.000   => boxcut(ratio)=   2.00854

--- Pseudopotential description ------------------------------------------------
- pspini: atom type   1  psp file is /scratch/users/j/a/jabreu/pseudos/PBEsol/La.psp8
- pspatm: opening atomic psp file    /scratch/users/j/a/jabreu/pseudos/PBEsol/La.psp8
- La    ONCVPSP-3.3.0  r_core=   2.11664   1.60878   1.85636   1.66739
- 57.00000  11.00000    180112                znucl, zion, pspdat
    8 -116133    3    4       600   0.00000   pspcod,pspxc,lmax,lloc,mmax,r2well
    5.99000000000000    5.00000000000000    0.00000000000000   rchrg,fchrg,qchrg
     nproj     2     2     2     2
     extension_switch     1
  pspatm : epsatm=   29.08531775
         --- l  ekb(1:nproj) -->
             0    6.695600    0.639047
             1    6.383649    1.151322
             2    3.612966    0.847811
             3  -13.718437   -4.858923
 pspatm: atomic psp has been read  and splines computed

- pspini: atom type   2  psp file is /scratch/users/j/a/jabreu/pseudos/PBEsol/H.psp8
- pspatm: opening atomic psp file    /scratch/users/j/a/jabreu/pseudos/PBEsol/H.psp8
- H     ONCVPSP-3.3.0  r_core=   1.00957   0.70586
-  1.00000   1.00000    180112                znucl, zion, pspdat
    8 -116133    1    4       300   0.00000   pspcod,pspxc,lmax,lloc,mmax,r2well
    2.99000000000000    0.00000000000000    0.00000000000000   rchrg,fchrg,qchrg
     nproj     2     1
     extension_switch     1
  pspatm : epsatm=    0.35627032
         --- l  ekb(1:nproj) -->
             0   -1.674911   -0.523609
             1   -0.494138
 pspatm: atomic psp has been read  and splines computed

- pspini: atom type   3  psp file is /scratch/users/j/a/jabreu/pseudos/PBEsol/O.psp8
- pspatm: opening atomic psp file    /scratch/users/j/a/jabreu/pseudos/PBEsol/O.psp8
- O     ONCVPSP-3.3.0  r_core=   1.35509   1.45563   1.26150
-  8.00000   6.00000    180112                znucl, zion, pspdat
    8 -116133    2    4       600   0.00000   pspcod,pspxc,lmax,lloc,mmax,r2well
    5.99000000000000    4.00000000000000    0.00000000000000   rchrg,fchrg,qchrg
     nproj     2     2     1
     extension_switch     1
  pspatm : epsatm=    6.22910522
         --- l  ekb(1:nproj) -->
             0    6.050032    0.820363
             1   -4.739617   -1.153841
             2   -1.335834
 pspatm: atomic psp has been read  and splines computed

   4.02238066E+03                                ecore*ucvol(ha*bohr**3)

 ==>  initialize data related to q vector <==

 The list of irreducible perturbations for this q vector is:
    1)    idir= 1    ipert=   9
    2)    idir= 2    ipert=   9
    3)    idir= 3    ipert=   9

 Perturbation wavevector (in red.coord.)   0.000000  0.000000  0.000000
 Perturbation : derivative vs k along direction   1

 dfpt_looppert : COMMENT -
  In a d/dk calculation, iscf is set to -3 automatically.
 The set of symmetries contains only one element for this perturbation.
 symkpt : not enough symmetry to change the number of k points.

 Initialisation of the first-order wave-functions :
  ireadwf=   0

--- !BeginCycle
iteration_state: {dtset: 1, }
solver: {iscf: 7, nstep: 2000, nline: 4, wfoptalg: 0, }
tolerances: {tolwfr: 1.00E-20, }
...

     iter   2DEtotal(Ha)        deltaE(Ha) residm    vres2
-ETOT  1  -36.845255299227     -3.685E+01 1.039E-01 0.000E+00
 ETOT  2  -37.097927524727     -2.527E-01 2.905E-02 0.000E+00
 ETOT  3  -37.121443547859     -2.352E-02 1.437E-02 0.000E+00
 ETOT  4  -37.125261648315     -3.818E-03 1.037E-02 0.000E+00
 ETOT  5  -37.126057407282     -7.958E-04 7.651E-03 0.000E+00
 ETOT  6  -37.126244828612     -1.874E-04 6.154E-03 0.000E+00
 ETOT  7  -37.126292522306     -4.769E-05 4.738E-03 0.000E+00
 ETOT  8  -37.126305367921     -1.285E-05 4.333E-03 0.000E+00
 ETOT  9  -37.126308950492     -3.583E-06 3.042E-03 0.000E+00
 ETOT 10  -37.126309976349     -1.026E-06 3.156E-03 0.000E+00
 ETOT 11  -37.126310276853     -3.005E-07 1.988E-03 0.000E+00
 ETOT 12  -37.126310366550     -8.970E-08 2.336E-03 0.000E+00
 ETOT 13  -37.126310393774     -2.722E-08 1.312E-03 0.000E+00
 ETOT 14  -37.126310402164     -8.390E-09 1.776E-03 0.000E+00
 ETOT 15  -37.126310404784     -2.620E-09 9.808E-04 0.000E+00
 ETOT 16  -37.126310405613     -8.284E-10 1.373E-03 0.000E+00
 ETOT 17  -37.126310405877     -2.648E-10 7.732E-04 0.000E+00
[...]
 4,5,6: 1st-order hamiltonian combined with 1st and 0th-order wfs
     kin1=  -7.02253698E+01  Hartree=   0.00000000E+00     xc=   0.00000000E+00
 7,8,9: eventually, occupation + non-local contributions
    edocc=   4.56949288E+00     enl0=  -1.36064092E+01   enl1=  -4.02725097E+00
 1-9 gives the relaxation energy (to be shifted if some occ is /=2.0)
   erelax=  -3.71263104E+01
  No Ewald or frozen-wf contrib.: the relaxation energy is the total one
 2DEtotal=   -0.3712631041E+02 Ha. Also 2DEtotal=   -0.101025828376E+04 eV
    (  non-var. 2DEtotal :   -3.7126310406E+01 Ha)

 Perturbation wavevector (in red.coord.)   0.000000  0.000000  0.000000
 Perturbation : derivative vs k along direction   2
 The set of symmetries contains only one element for this perturbation.
 symkpt : not enough symmetry to change the number of k points.

[...]

 Perturbation wavevector (in red.coord.)   0.000000  0.000000  0.000000
 Perturbation : derivative vs k along direction   3
 The set of symmetries contains only one element for this perturbation.
 symkpt : not enough symmetry to change the number of k points.

 Initialisation of the first-order wave-functions :
  ireadwf=   0

--- !BeginCycle
iteration_state: {dtset: 1, }
solver: {iscf: 7, nstep: 2000, nline: 4, wfoptalg: 0, }
tolerances: {tolwfr: 1.00E-20, }
...

     iter   2DEtotal(Ha)        deltaE(Ha) residm    vres2
-ETOT  1  -15.177706280086     -1.518E+01 1.351E-01 0.000E+00
 ETOT  2  -15.262379085853     -8.467E-02 2.378E-02 0.000E+00
 ETOT  3  -15.271555951685     -9.177E-03 3.685E-03 0.000E+00
 ETOT  4  -15.273379703534     -1.824E-03 3.691E-03 0.000E+00
 ETOT  5  -15.273819645811     -4.399E-04 1.485E-03 0.000E+00
 ETOT  6  -15.273934340284     -1.147E-04 1.790E-03 0.000E+00
 ETOT  7  -15.273965849961     -3.151E-05 8.334E-04 0.000E+00
 ETOT  8  -15.273974700270     -8.850E-06 1.058E-03 0.000E+00
 ETOT  9  -15.273977237161     -2.537E-06 5.380E-04 0.000E+00
 ETOT 10  -15.273977973431     -7.363E-07 6.528E-04 0.000E+00
 ETOT 11  -15.273978189814     -2.164E-07 3.773E-04 0.000E+00
 ETOT 12  -15.273978254049     -6.423E-08 4.367E-04 0.000E+00
 ETOT 13  -15.273978273320     -1.927E-08 2.655E-04 0.000E+00
 ETOT 14  -15.273978279155     -5.835E-09 3.107E-04 0.000E+00
 ETOT 15  -15.273978280940     -1.785E-09 1.870E-04 0.000E+00
 ETOT 16  -15.273978281491     -5.511E-10 2.209E-04 0.000E+00
 ETOT 17  -15.273978281663     -1.718E-10 1.317E-04 0.000E+00
 ETOT 18  -15.273978281717     -5.408E-11 1.570E-04 0.000E+00
 ETOT 19  -15.273978281734     -1.716E-11 9.286E-05 0.000E+00
 ETOT 20  -15.273978281739     -5.519E-12 1.119E-04 0.000E+00
 ETOT 21  -15.273978281741     -1.791E-12 6.563E-05 0.000E+00
 ETOT 22  -15.273978281742     -6.057E-13 7.992E-05 0.000E+00
 ETOT 23  -15.273978281742     -1.954E-13 4.654E-05 0.000E+00
 ETOT 24  -15.273978281742     -4.086E-14 5.733E-05 0.000E+00
 ETOT 25  -15.273978281742     -3.908E-14 3.313E-05 0.000E+00
 ETOT 26  -15.273978281742      3.553E-15 4.130E-05 0.000E+00
 ETOT 27  -15.273978281742     -1.066E-14 2.366E-05 0.000E+00
 ETOT 28  -15.273978281742      1.954E-14 2.986E-05 0.000E+00
 ETOT 29  -15.273978281742     -8.882E-15 1.695E-05 0.000E+00
 ETOT 30  -15.273978281742      0.000E+00 2.166E-05 0.000E+00
 ETOT 31  -15.273978281742     -2.132E-14 1.218E-05 0.000E+00
 ETOT 32  -15.273978281742      1.421E-14 1.576E-05 0.000E+00
 ETOT 33  -15.273978281742      5.329E-15 8.772E-06 0.000E+00
 ETOT 34  -15.273978281742     -3.553E-15 1.149E-05 0.000E+00
 ETOT 35  -15.273978281742      1.954E-14 6.331E-06 0.000E+00
 ETOT 36  -15.273978281742     -1.066E-14 8.394E-06 0.000E+00
 ETOT 37  -15.273978281742      1.776E-14 4.578E-06 0.000E+00
 ETOT 38  -15.273978281742     -7.105E-15 6.143E-06 0.000E+00
 ETOT 39  -15.273978281742     -3.553E-15 3.317E-06 0.000E+00
 ETOT 40  -15.273978281742      0.000E+00 4.693E-06 0.000E+00
 ETOT 41  -15.273978281742     -3.553E-15 2.407E-06 0.000E+00
 ETOT 42  -15.273978281742      8.882E-15 4.093E-06 0.000E+00
 ETOT 43  -15.273978281742     -8.882E-15 1.856E-06 0.000E+00
 ETOT 44  -15.273978281742      0.000E+00 3.570E-06 0.000E+00
 ETOT 45  -15.273978281742      1.776E-15 1.435E-06 0.000E+00
 ETOT 46  -15.273978281742      5.329E-15 3.114E-06 0.000E+00
 ETOT 47  -15.273978281742      1.776E-15 1.110E-06 0.000E+00
 ETOT 48  -15.273978281742     -1.776E-15 2.716E-06 0.000E+00
 ETOT 49  -15.273978281742      1.776E-15 9.488E-07 0.000E+00
 ETOT 50  -15.273978281742      0.000E+00 2.369E-06 0.000E+00
 ETOT 51  -15.273978281742     -1.776E-15 8.292E-07 0.000E+00
 ETOT 52  -15.273978281742      1.776E-15 2.067E-06 0.000E+00
 ETOT 53  -15.273978281742     -7.105E-15 7.248E-07 0.000E+00
 ETOT 54  -15.273978281742      8.882E-15 1.804E-06 0.000E+00
 ETOT 55  -15.273978281742      0.000E+00 6.335E-07 0.000E+00
 ETOT 56  -15.273978281742     -1.776E-15 1.574E-06 0.000E+00
 ETOT 57  -15.273978281742      3.553E-15 5.537E-07 0.000E+00
 ETOT 58  -15.273978281742     -1.066E-14 1.374E-06 0.000E+00
 ETOT 59  -15.273978281742      1.066E-14 4.839E-07 0.000E+00
 ETOT 60  -15.273978281742     -1.066E-14 1.199E-06 0.000E+00
 ETOT 61  -15.273978281742      8.882E-15 4.230E-07 0.000E+00
[...]
 ETOT  511  -15.273978281742      1.776E-15 2.518E-20 0.000E+00
 ETOT  512  -15.273978281742     -3.553E-15 6.318E-20 0.000E+00
 ETOT  513  -15.273978281742      5.329E-15 2.199E-20 0.000E+00
 ETOT  514  -15.273978281742     -3.553E-15 5.519E-20 0.000E+00
 ETOT  515  -15.273978281742      1.776E-15 1.920E-20 0.000E+00
 ETOT  516  -15.273978281742      3.553E-15 4.820E-20 0.000E+00
 ETOT  517  -15.273978281742     -1.243E-14 1.677E-20 0.000E+00
 ETOT  518  -15.273978281742      1.066E-14 4.210E-20 0.000E+00
 ETOT  519  -15.273978281742     -7.105E-15 1.465E-20 0.000E+00
 ETOT  520  -15.273978281742     -3.553E-15 3.677E-20 0.000E+00
 ETOT  521  -15.273978281742      3.553E-15 1.279E-20 0.000E+00
 ETOT  522  -15.273978281742      0.000E+00 3.212E-20 0.000E+00
 ETOT  523  -15.273978281742     -1.776E-15 1.117E-20 0.000E+00
 ETOT  524  -15.273978281742      0.000E+00 2.805E-20 0.000E+00
 ETOT  525  -15.273978281742     -8.882E-15 9.937E-21 0.000E+00

 At SCF step  525   max residual=  9.94E-21 < tolwfr=  1.00E-20 =>converged.

 ----iterations are completed or convergence reached----

 dfpt_looppert: DFPT cycle converged with prtwf=-1. Will skip output of the 1st-order WFK file.
 dfpt_looppert : ek2=    2.8728754752E+01
          f-sum rule ratio=    1.0033985651E+00
 prteigrs : about to open file /scratch/users/j/a/jabreu/flow_simple_remain_atoms/flow/w164/t1/tmpdata/tmp_1WF1_EIG
 Expectation of eigenvalue derivatives (hartree) for nkpt=   2  k points:
  (in case of degenerate eigenvalues, averaged derivative)
 kpt#   1, nband= 33, wtk=  0.50000, kpt=  0.0000  0.0000  0.5000 (reduced coord)
   0.00000    0.00000   -0.00000    0.00000   -0.00000    0.00000   -0.00000   -0.00000
  -0.00000    0.00000    0.00000    0.00000    0.00000   -0.00000   -0.00000   -0.00000
  -0.00000    0.00000   -0.00000    0.00000   -0.00000   -0.00000   -0.00000    0.00000
   0.00000   -0.00000    0.00000   -0.00000    0.00000    0.00000   -0.00000   -0.00000
   0.00000
 prteigrs : prtvol=0 or 1, do not print more k-points.

 Eight components of 2nd-order total energy (hartree) are
 1,2,3: 0th-order hamiltonian combined with 1st-order wavefunctions
     kin0=   3.74047196E+01 eigvalue=   6.65760462E-02  local=  -1.85987624E+01
 4,5,6: 1st-order hamiltonian combined with 1st and 0th-order wfs
     kin1=  -2.88263913E+01  Hartree=   0.00000000E+00     xc=   0.00000000E+00
 7,8,9: eventually, occupation + non-local contributions
    edocc=   1.31873063E+00     enl0=  -4.91728568E+00   enl1=  -1.72156527E+00
 1-9 gives the relaxation energy (to be shifted if some occ is /=2.0)
   erelax=  -1.52739783E+01
  No Ewald or frozen-wf contrib.: the relaxation energy is the total one
 2DEtotal=   -0.1527397828E+02 Ha. Also 2DEtotal=   -0.415626086094E+03 eV
    (  non-var. 2DEtotal :   -1.5273978282E+01 Ha)

 CALCULATION OF EFFECTIVE MASSES
 NOTE : Additional infos (eff. mass eigenvalues, eigenvectors and, if degenerate, average mass) are available in stdout.

 K-point ( 0.000, 0.000, 0.500) | band =    24
 Effective mass tensor:
             -2.3541233101              0.0000000077             -0.0000000218
              0.0000000077             -4.1725927734             -0.7679114718
             -0.0000000218             -0.7679114718             -3.1421370208
 Effective mass tensor eigenvalues:
             -4.5821069114             -2.7326228828             -2.3541233101
 Angular average effective mass 1/(<1/m>)=  -2.9733128045
 Angular average effective mass for Frohlich model (<m**0.5>)**2=  -3.0396779840
 Effective masses along directions: (cart. coord. / red. coord. -> eff. mass)
    1:   1.000000  0.000000  0.000000 /   1.000000  0.000000  0.000000 ->  -2.3541233101
    2:   0.000000  1.000000  0.000000 /   0.000000  1.000000  0.000000 ->  -3.9849217633
    3:   0.000000  0.000000  1.000000 /   0.000000  0.199934  0.979809 ->  -3.0008128944
    4:   0.577350  0.577350  0.577350 /   0.420253  0.593785  0.686154 ->  -3.3847916721
    5:   0.000000  0.707107  0.707107 /   0.000000  0.654375  0.756170 ->  -4.3334044037
    6:   0.707107  0.000000  0.707107 /   0.514565  0.171434  0.840139 ->  -2.6384193482
    7:   0.707107  0.707107  0.000000 /   0.679489  0.733685  0.000000 ->  -2.9597508978

 K-point ( 0.000, 0.000, 0.000) | band =    25
 Effective mass tensor:
              0.4309364960             -0.0000000046             -0.0000000109
             -0.0000000046              0.5964321331             -0.0588537656
             -0.0000000109             -0.0588537656              0.6279671696
 Effective mass tensor eigenvalues:
              0.4309364960              0.5512703451              0.6731289576
 Angular average effective mass 1/(<1/m>)=   0.5337965294
 Angular average effective mass for Frohlich model (<m**0.5>)**2=   0.5391830404
 Effective masses along directions: (cart. coord. / red. coord. -> eff. mass)
    1:   1.000000  0.000000  0.000000 /   1.000000  0.000000  0.000000 ->   0.4309364960
    2:   0.000000  1.000000  0.000000 /   0.000000  1.000000  0.000000 ->   0.5909162942
    3:   0.000000  0.000000  1.000000 /   0.000000  0.199934  0.979809 ->   0.6221596928
    4:   0.577350  0.577350  0.577350 /   0.420253  0.593785  0.686154 ->   0.5052780450
    5:   0.000000  0.707107  0.707107 /   0.000000  0.654375  0.756170 ->   0.5529754016
    6:   0.707107  0.000000  0.707107 /   0.514565  0.171434  0.840139 ->   0.5091867486
    7:   0.707107  0.707107  0.000000 /   0.679489  0.733685  0.000000 ->   0.4984032864

 END OF EFFECTIVE MASSES SECTION

 ---- first-order wavefunction calculations are completed ----

 Total localisation tensor (bohr^2) in cartesian coordinates
  WARNING : still subject to testing - especially symmetries.
      direction              matrix element
   alpha     beta       real part   imaginary part
     1        1       0.8413000345    0.0000000000
     1        2       0.0000000000    0.0000000000
     1        3       0.0000000000    0.0000000000
     2        1       0.0000000000    0.0000000000
     2        2       0.8144042415    0.0000000000
     2        3       0.2512859978    0.0000000000
     3        1       0.0000000000    0.0000000000
     3        2       0.2512859978    0.0000000000
     3        3       0.9520345434    0.0000000000

 respfn : d/dk was computed, but no 2DTE, so no DDB output.

== END DATASET(S) ==============================================================

 -outvars: echo values of variables after computation  --------
            acell      1.0000000000E+00  1.0000000000E+00  1.0000000000E+00 Bohr
              amu      1.38905500E+02  1.00794000E+00  1.59994000E+01
             ecut      5.20000000E+01 Hartree
           etotal     -1.5273978282E+01
            fcart      0.0000000000E+00  0.0000000000E+00  0.0000000000E+00
                       0.0000000000E+00  0.0000000000E+00  0.0000000000E+00
                       0.0000000000E+00  0.0000000000E+00  0.0000000000E+00
                       0.0000000000E+00  0.0000000000E+00  0.0000000000E+00
                       0.0000000000E+00  0.0000000000E+00  0.0000000000E+00
                       0.0000000000E+00  0.0000000000E+00  0.0000000000E+00
                       0.0000000000E+00  0.0000000000E+00  0.0000000000E+00
                       0.0000000000E+00  0.0000000000E+00  0.0000000000E+00
-          fftalg         512
           irdden           1
           irdwfk           1
           istwfk        1    1
              ixc     -116133
              kpt      0.00000000E+00  0.00000000E+00  5.00000000E-01
                       0.00000000E+00  0.00000000E+00  0.00000000E+00
           kptopt           0
P           mkmem           2
P          mkqmem           2
P          mk1mem           2
            natom           8
            nband          33
           nbdbuf           4
            ngfft          48      60      80
             nkpt           2
            nstep        2000
             nsym           4
           ntypat           3
              occ      2.000000  2.000000  2.000000  2.000000  2.000000  2.000000
                       2.000000  2.000000  2.000000  2.000000  2.000000  2.000000
                       2.000000  2.000000  2.000000  2.000000  2.000000  2.000000
                       2.000000  2.000000  2.000000  2.000000  2.000000  2.000000
                       0.000000  0.000000  0.000000  0.000000  0.000000  0.000000
                       0.000000  0.000000  0.000000
        optdriver           1
            prtwf          -1
            rfdir           1       1       1
           rfelfd           2
            rprim      7.3619701297E+00  0.0000000000E+00  0.0000000000E+00
                       0.0000000000E+00  7.9491626405E+00  2.4527294479E+00
                       0.0000000000E+00  0.0000000000E+00  1.2020005112E+01
          spgroup          11
           strten      0.0000000000E+00  0.0000000000E+00  0.0000000000E+00
                       0.0000000000E+00  0.0000000000E+00  0.0000000000E+00
           symrel      1  0  0   0  1  0   0  0  1      -1  0  0   0 -1  0   0  0 -1
                       1  0  0   0 -1  0   0  0 -1      -1  0  0   0  1  0   0  0  1
            tnons      0.0000000  0.0000000  0.0000000    -0.0000000 -0.0000000  0.0000000
                       0.5000000 -0.0000000  0.0000000     0.5000000  0.0000000  0.0000000
           tolwfr      1.00000000E-20
            typat      1  1  2  2  3  3  3  3
           useylm           1
              wtk        0.50000    0.50000
           xangst      2.9218401022E+00  7.1560403730E-01  4.6322542516E+00
                       9.7394670074E-01  3.4909116594E+00  3.0263870233E+00
                       9.7394670074E-01  2.0326809280E+00  6.5564023371E+00
                       2.9218401022E+00  2.1738347687E+00  1.1022389378E+00
                       9.7394670074E-01  1.0915697907E+00  3.2803402809E+00
                       2.9218401022E+00  3.1149459060E+00  4.3783009940E+00
                       9.7394670074E-01  1.0891342181E+00  6.3222866110E+00
                       2.9218401022E+00  3.1173814786E+00  1.3363546639E+00
            xcart      5.5214775973E+00  1.3522956501E+00  8.7536919134E+00
                       1.8404925324E+00  6.5968669904E+00  5.7190426461E+00
                       1.8404925324E+00  3.8412102695E+00  1.2389804834E+01
                       5.5214775973E+00  4.1079523710E+00  2.0829297254E+00
                       1.8404925324E+00  2.0627679594E+00  6.1989447536E+00
                       5.5214775973E+00  5.8863946811E+00  8.2737898059E+00
                       1.8404925324E+00  2.0581653942E+00  1.1947390228E+01
                       5.5214775973E+00  5.8909972463E+00  2.5253443311E+00
             xred      7.5000000000E-01  1.7011800000E-01  6.9354700000E-01
                       2.5000000000E-01  8.2988200000E-01  3.0645300000E-01
                       2.5000000000E-01  4.8322200000E-01  9.3216200000E-01
                       7.5000000000E-01  5.1677800000E-01  6.7838000000E-02
                       2.5000000000E-01  2.5949500000E-01  4.6276800000E-01
                       7.5000000000E-01  7.4050500000E-01  5.3723200000E-01
                       2.5000000000E-01  2.5891600000E-01  9.4112600000E-01
                       7.5000000000E-01  7.4108400000E-01  5.8874000000E-02
            znucl       57.00000    1.00000    8.00000

- Timing analysis has been suppressed with timopt=0

 Suggested references for the acknowledgment of ABINIT usage.

 Calculation completed.
.Delivered   2 WARNINGs and   5 COMMENTs to log file.