.Version 9.5.1 of ABINIT

 ABINIT is a project of the Universite Catholique de Louvain,
 Corning Inc. and other collaborators, see ~abinit/doc/developers/contributors.txt .
 acknowledgments of the ABINIT effort.

.Starting date : Tue 11 May 2021.
- ( at 22h04 )

- input  file    -> /scratch/users/j/a/jabreu/flow_simple_8atoms/flow/w386/t1/run.abi
- output file    -> /scratch/users/j/a/jabreu/flow_simple_8atoms/flow/w386/t1/run.abo
- root for input  files -> /scratch/users/j/a/jabreu/flow_simple_8atoms/flow/w386/t1/indata/in
- root for output files -> /scratch/users/j/a/jabreu/flow_simple_8atoms/flow/w386/t1/outdata/out

 Symmetries : space group P2_1/m (# 11); Bravais mP (primitive monocl.)
     intxc =       0      iscf =       7    lmnmax =      18     lnmax =       6
     mgfft =      72  mpssoang =       3    mqgrid =    3160     natom =       8
  nloc_mem =       1    nspden =       1   nspinor =       1    nsppol =       1
      nsym =       4    n1xccc =    2501    ntypat =       3    occopt =       1
   xclevel =       2
-    mband =          33        mffmem =           1         mkmem =           2
-   mkqmem =           2        mk1mem =           2           mpw =        8109
      nfft =      162000          nkpt =           2
  Rough estimation (10% accuracy) of disk space for files :

------------- Echo of variables that govern the present computation ------------
-
- outvars: echo of selected default values
-   iomode0 =  0 , fftalg0 =512 , wfoptalg0 =  0
-
- outvars: echo of global parameters not present in the input file
-  max_nthreads =    0
-
 -outvars: echo values of preprocessed input variables --------
            acell      1.0000000000E+00  1.0000000000E+00  1.0000000000E+00 Bohr
              amu      8.89058500E+01  1.00794000E+00  1.59994000E+01
             ecut      4.40000000E+01 Hartree
-          fftalg         512
           irdden           1
           irdwfk           1
           istwfk        1    1
              ixc     -116133
              kpt      0.00000000E+00  0.00000000E+00  5.00000000E-01
                       0.00000000E+00  0.00000000E+00  0.00000000E+00
           kptopt           0
P           mkmem           2
P          mkqmem           2
P          mk1mem           2
            natom           8
            nband          33
           nbdbuf           4
            ngfft          45      50      72
             nkpt           2
            nstep        2000
             nsym           4
           ntypat           3
              occ      2.000000  2.000000  2.000000  2.000000  2.000000  2.000000
                       2.000000  2.000000  2.000000  2.000000  2.000000  2.000000
                       2.000000  2.000000  2.000000  2.000000  2.000000  2.000000
                       2.000000  2.000000  2.000000  2.000000  2.000000  2.000000
                       0.000000  0.000000  0.000000  0.000000  0.000000  0.000000
                       0.000000  0.000000  0.000000
        optdriver           1
            prtwf          -1
            rfdir           1       1       1
           rfelfd           2
            rprim      6.8155120925E+00  0.0000000000E+00  0.0000000000E+00
                       0.0000000000E+00  7.6387939988E+00  2.6206185149E+00
                       0.0000000000E+00  0.0000000000E+00  1.1185699342E+01
          spgroup          11
           symrel      1  0  0   0  1  0   0  0  1      -1  0  0   0 -1  0   0  0 -1
                       1  0  0   0 -1  0   0  0 -1      -1  0  0   0  1  0   0  0  1
            tnons      0.0000000  0.0000000  0.0000000     0.0000000 -0.0000000  0.0000000
                       0.5000000 -0.0000000  0.0000000     0.5000000  0.0000000  0.0000000
           tolwfr      1.00000000E-20
            typat      1  1  2  2  3  3  3  3
           useylm           1
              wtk        0.50000    0.50000
           xangst      2.7049602482E+00  6.7823726813E-01  4.3126847773E+00
                       9.0165341606E-01  3.3640384171E+00  2.9933039673E+00
                       9.0165341606E-01  1.9606896520E+00  6.1363162956E+00
                       2.7049602482E+00  2.0815860332E+00  1.1696724490E+00
                       9.0165341606E-01  1.0757142363E+00  3.0268120453E+00
                       2.7049602482E+00  2.9665614490E+00  4.2791766993E+00
                       9.0165341606E-01  1.0168101950E+00  5.9062568362E+00
                       2.7049602482E+00  3.0254654903E+00  1.3997319084E+00
            xcart      5.1116340694E+00  1.2816826899E+00  8.1497931266E+00
                       1.7038780231E+00  6.3571113089E+00  5.6565247307E+00
                       1.7038780231E+00  3.7051664739E+00  1.1595957263E+01
                       5.1116340694E+00  3.9336275249E+00  2.2103605938E+00
                       1.7038780231E+00  2.0328053038E+00  5.7198458213E+00
                       5.1116340694E+00  5.6059886950E+00  8.0864720360E+00
                       1.7038780231E+00  1.9214927976E+00  1.1161207891E+01
                       5.1116340694E+00  5.7173012012E+00  2.6451099664E+00
             xred      7.5000000000E-01  1.6778600000E-01  6.8928100000E-01
                       2.5000000000E-01  8.3221400000E-01  3.1071900000E-01
                       2.5000000000E-01  4.8504600000E-01  9.2303900000E-01
                       7.5000000000E-01  5.1495400000E-01  7.6961000000E-02
                       2.5000000000E-01  2.6611600000E-01  4.4900700000E-01
                       7.5000000000E-01  7.3388400000E-01  5.5099300000E-01
                       2.5000000000E-01  2.5154400000E-01  9.3887800000E-01
                       7.5000000000E-01  7.4845600000E-01  6.1122000000E-02
            znucl       39.00000    1.00000    8.00000

 chkinp: Checking input parameters for consistency.

== DATASET  1 ==================================================================
-   mpi_nproc: 1, omp_nthreads: -1 (-1 if OMP is not activated)

--- !DatasetInfo
iteration_state: {dtset: 1, }
dimensions: {natom: 8, nkpt: 2, mband: 33, nsppol: 1, nspinor: 1, nspden: 1, mpw: 8109, }
cutoff_energies: {ecut:  44.0, pawecutdg:  -1.0, }
electrons: {nelect:   4.80000000E+01, charge:   0.00000000E+00, occopt:   1.00000000E+00, tsmear:   1.00000000E-02, }
meta: {optdriver: 1, rfelfd: 2, }
...

 Real(R)+Recip(G) space primitive vectors, cartesian coordinates (Bohr,Bohr^-1):
 R(1)=  6.8155121  0.0000000  0.0000000  G(1)=  0.1467241  0.0000000  0.0000000
 R(2)=  0.0000000  7.6387940  2.6206185  G(2)=  0.0000000  0.1309107  0.0000000
 R(3)=  0.0000000  0.0000000 11.1856993  G(3)=  0.0000000 -0.0306701  0.0893999
 Unit cell volume ucvol=  5.8235316E+02 bohr^3
 Angles (23,13,12)=  7.10645946E+01  9.00000000E+01  9.00000000E+01 degrees

 getcut: wavevector=  0.0000  0.0000  0.0000  ngfft=  45  50  72
         ecut(hartree)=     44.000   => boxcut(ratio)=   2.07350

--- Pseudopotential description ------------------------------------------------
- pspini: atom type   1  psp file is /scratch/users/j/a/jabreu/pseudos/PBEsol/Y.psp8
- pspatm: opening atomic psp file    /scratch/users/j/a/jabreu/pseudos/PBEsol/Y.psp8
- Y     ONCVPSP-3.3.0  r_core=   1.60520   1.51226   1.56736
- 39.00000  11.00000    180112                znucl, zion, pspdat
    8 -116133    2    4       600   0.00000   pspcod,pspxc,lmax,lloc,mmax,r2well
    5.99000000000000    4.00000000000000    0.00000000000000   rchrg,fchrg,qchrg
     nproj     2     2     2
     extension_switch     1
  pspatm : epsatm=   18.54790046
         --- l  ekb(1:nproj) -->
             0   10.130768    0.866504
             1    5.598307    0.427135
             2    1.217602    0.315447
 pspatm: atomic psp has been read  and splines computed

- pspini: atom type   2  psp file is /scratch/users/j/a/jabreu/pseudos/PBEsol/H.psp8
- pspatm: opening atomic psp file    /scratch/users/j/a/jabreu/pseudos/PBEsol/H.psp8
- H     ONCVPSP-3.3.0  r_core=   1.00957   0.70586
-  1.00000   1.00000    180112                znucl, zion, pspdat
    8 -116133    1    4       300   0.00000   pspcod,pspxc,lmax,lloc,mmax,r2well
    2.99000000000000    0.00000000000000    0.00000000000000   rchrg,fchrg,qchrg
     nproj     2     1
     extension_switch     1
  pspatm : epsatm=    0.35627032
         --- l  ekb(1:nproj) -->
             0   -1.674911   -0.523609
             1   -0.494138
 pspatm: atomic psp has been read  and splines computed

- pspini: atom type   3  psp file is /scratch/users/j/a/jabreu/pseudos/PBEsol/O.psp8
- pspatm: opening atomic psp file    /scratch/users/j/a/jabreu/pseudos/PBEsol/O.psp8
- O     ONCVPSP-3.3.0  r_core=   1.35509   1.45563   1.26150
-  8.00000   6.00000    180112                znucl, zion, pspdat
    8 -116133    2    4       600   0.00000   pspcod,pspxc,lmax,lloc,mmax,r2well
    5.99000000000000    4.00000000000000    0.00000000000000   rchrg,fchrg,qchrg
     nproj     2     2     1
     extension_switch     1
  pspatm : epsatm=    6.22910522
         --- l  ekb(1:nproj) -->
             0    6.050032    0.820363
             1   -4.739617   -1.153841
             2   -1.335834
 pspatm: atomic psp has been read  and splines computed

   3.01078860E+03                                ecore*ucvol(ha*bohr**3)

-inwffil : will read wavefunctions from disk file /scratch/users/j/a/jabreu/flow_simple_8atoms/flow/w386/t1/indata/in_WFK

 ==>  initialize data related to q vector <==

 The list of irreducible perturbations for this q vector is:
    1)    idir= 1    ipert=   9
    2)    idir= 2    ipert=   9
    3)    idir= 3    ipert=   9

 Perturbation wavevector (in red.coord.)   0.000000  0.000000  0.000000
 Perturbation : derivative vs k along direction   1

 dfpt_looppert : COMMENT -
  In a d/dk calculation, iscf is set to -3 automatically.
 The set of symmetries contains only one element for this perturbation.
 symkpt : not enough symmetry to change the number of k points.

[...]

 Initialisation of the first-order wave-functions :
  ireadwf=   0

--- !BeginCycle
iteration_state: {dtset: 1, }
solver: {iscf: 7, nstep: 2000, nline: 4, wfoptalg: 0, }
tolerances: {tolwfr: 1.00E-20, }
...

     iter   2DEtotal(Ha)        deltaE(Ha) residm    vres2
-ETOT  1  -43.233999575437     -4.323E+01 2.438E-01 0.000E+00
 ETOT  2  -43.282891886306     -4.889E-02 2.376E-02 0.000E+00
 ETOT  3  -43.283225411030     -3.335E-04 1.274E-03 0.000E+00
 ETOT  4  -43.283229963092     -4.552E-06 2.489E-04 0.000E+00
 ETOT  5  -43.283230036224     -7.313E-08 4.594E-05 0.000E+00
 ETOT  6  -43.283230037486     -1.262E-09 1.149E-05 0.000E+00
 ETOT  7  -43.283230037509     -2.265E-11 2.341E-06 0.000E+00
 ETOT  8  -43.283230037509     -3.624E-13 6.408E-07 0.000E+00
 ETOT  9  -43.283230037509      0.000E+00 1.293E-07 0.000E+00
 ETOT 10  -43.283230037509     -6.395E-14 3.589E-08 0.000E+00
 ETOT 11  -43.283230037509      7.105E-14 7.242E-09 0.000E+00
 ETOT 12  -43.283230037509      0.000E+00 2.015E-09 0.000E+00
 ETOT 13  -43.283230037509      0.000E+00 4.094E-10 0.000E+00
 ETOT 14  -43.283230037509     -7.105E-15 1.143E-10 0.000E+00
 ETOT 15  -43.283230037509      0.000E+00 2.343E-11 0.000E+00
 ETOT 16  -43.283230037509     -7.105E-15 6.571E-12 0.000E+00
 ETOT 17  -43.283230037509     -7.105E-15 1.358E-12 0.000E+00
 ETOT 18  -43.283230037509      2.842E-14 3.828E-13 0.000E+00
 ETOT 19  -43.283230037509     -2.132E-14 7.958E-14 0.000E+00
 ETOT 20  -43.283230037509     -7.105E-15 2.255E-14 0.000E+00
 ETOT 21  -43.283230037509      7.105E-15 4.707E-15 0.000E+00
 ETOT 22  -43.283230037509      7.105E-15 1.341E-15 0.000E+00
 ETOT 23  -43.283230037509      0.000E+00 2.805E-16 0.000E+00
 ETOT 24  -43.283230037509      1.421E-14 8.044E-17 0.000E+00
 ETOT 25  -43.283230037509     -7.105E-15 1.682E-17 0.000E+00
 ETOT 26  -43.283230037509      7.105E-15 4.860E-18 0.000E+00
 ETOT 27  -43.283230037509      0.000E+00 1.014E-18 0.000E+00
 ETOT 28  -43.283230037509      0.000E+00 2.956E-19 0.000E+00
 ETOT 29  -43.283230037509      0.000E+00 6.138E-20 0.000E+00
 ETOT 30  -43.283230037509      0.000E+00 1.808E-20 0.000E+00
 ETOT 31  -43.283230037509      1.421E-14 9.947E-21 0.000E+00

 At SCF step   31   max residual=  9.95E-21 < tolwfr=  1.00E-20 =>converged.

 ----iterations are completed or convergence reached----

 dfpt_looppert: DFPT cycle converged with prtwf=-1. Will skip output of the 1st-order WFK file.
 dfpt_looppert : ek2=    8.1589446027E+01
          f-sum rule ratio=    1.0588618663E+00
 prteigrs : about to open file /scratch/users/j/a/jabreu/flow_simple_8atoms/flow/w386/t1/tmpdata/tmp_1WF1_EIG
 Expectation of eigenvalue derivatives (hartree) for nkpt=   2  k points:
  (in case of degenerate eigenvalues, averaged derivative)
 kpt#   1, nband= 33, wtk=  0.50000, kpt=  0.0000  0.0000  0.5000 (reduced coord)
   0.00000   -0.00000   -0.00000   -0.00000   -0.00000   -0.00000   -0.00000    0.00000
  -0.00000   -0.00000    0.00000    0.00000   -0.00000    0.00000   -0.00000   -0.00000
  -0.00000   -0.00000   -0.00000   -0.00000   -0.00000   -0.00000   -0.00000    0.00000
   0.00000    0.00000    0.00000    0.00000    0.00000   -0.00000    0.00000    0.00000
   0.00247
 prteigrs : prtvol=0 or 1, do not print more k-points.

 Eight components of 2nd-order total energy (hartree) are
 1,2,3: 0th-order hamiltonian combined with 1st-order wavefunctions
     kin0=   5.57277134E+01 eigvalue=  -1.05176196E-01  local=  -2.56553182E+01
 4,5,6: 1st-order hamiltonian combined with 1st and 0th-order wfs
     kin1=  -8.63919531E+01  Hartree=   0.00000000E+00     xc=   0.00000000E+00
 7,8,9: eventually, occupation + non-local contributions
    edocc=   1.41820955E+01     enl0=  -8.66084335E-01   enl1=  -1.74506986E-01
 1-9 gives the relaxation energy (to be shifted if some occ is /=2.0)
   erelax=  -4.32832300E+01
  No Ewald or frozen-wf contrib.: the relaxation energy is the total one
 2DEtotal=   -0.4328323004E+02 Ha. Also 2DEtotal=   -0.117779658725E+04 eV
    (  non-var. 2DEtotal :   -4.3283230037E+01 Ha)

 Perturbation wavevector (in red.coord.)   0.000000  0.000000  0.000000
 Perturbation : derivative vs k along direction   2
 The set of symmetries contains only one element for this perturbation.
 symkpt : not enough symmetry to change the number of k points.

[...]

 Perturbation wavevector (in red.coord.)   0.000000  0.000000  0.000000
 Perturbation : derivative vs k along direction   3
 The set of symmetries contains only one element for this perturbation.
 symkpt : not enough symmetry to change the number of k points.

-inwffil : will read wavefunctions from disk file /scratch/users/j/a/jabreu/flow_simple_8atoms/flow/w386/t1/indata/in_WFK

 Initialisation of the first-order wave-functions :
  ireadwf=   0

--- !BeginCycle
iteration_state: {dtset: 1, }
solver: {iscf: 7, nstep: 2000, nline: 4, wfoptalg: 0, }
tolerances: {tolwfr: 1.00E-20, }
...

     iter   2DEtotal(Ha)        deltaE(Ha) residm    vres2
-ETOT  1  -17.207491006365     -1.721E+01 7.184E-02 0.000E+00
 ETOT  2  -17.225299006580     -1.781E-02 3.941E-03 0.000E+00
 ETOT  3  -17.225383127600     -8.412E-05 1.163E-04 0.000E+00
 ETOT  4  -17.225383875157     -7.476E-07 1.618E-05 0.000E+00
 ETOT  5  -17.225383883785     -8.628E-09 1.172E-06 0.000E+00
 ETOT  6  -17.225383883902     -1.171E-10 2.291E-07 0.000E+00
 ETOT  7  -17.225383883904     -1.783E-12 1.828E-08 0.000E+00
 ETOT  8  -17.225383883904     -2.842E-14 3.665E-09 0.000E+00
 ETOT  9  -17.225383883904     -7.105E-15 2.943E-10 0.000E+00
 ETOT 10  -17.225383883904     -7.105E-15 5.965E-11 0.000E+00
 ETOT 11  -17.225383883904      7.105E-15 4.810E-12 0.000E+00
 ETOT 12  -17.225383883904     -3.553E-15 1.426E-12 0.000E+00
 ETOT 13  -17.225383883904     -3.553E-15 1.196E-13 0.000E+00
 ETOT 14  -17.225383883904      0.000E+00 5.387E-14 0.000E+00
 ETOT 15  -17.225383883904     -3.553E-15 4.519E-15 0.000E+00
 ETOT 16  -17.225383883904     -3.553E-15 2.054E-15 0.000E+00
 ETOT 17  -17.225383883904      7.105E-15 1.719E-16 0.000E+00
 ETOT 18  -17.225383883904      0.000E+00 7.881E-17 0.000E+00
 ETOT 19  -17.225383883904      3.553E-15 6.571E-18 0.000E+00
 ETOT 20  -17.225383883904     -3.553E-15 3.035E-18 0.000E+00
 ETOT 21  -17.225383883904      0.000E+00 2.522E-19 0.000E+00
 ETOT 22  -17.225383883904     -3.553E-15 1.172E-19 0.000E+00
 ETOT 23  -17.225383883904      0.000E+00 9.947E-21 0.000E+00

 At SCF step   23   max residual=  9.95E-21 < tolwfr=  1.00E-20 =>converged.

 ----iterations are completed or convergence reached----

 dfpt_looppert: DFPT cycle converged with prtwf=-1. Will skip output of the 1st-order WFK file.
 dfpt_looppert : ek2=    3.3855403498E+01
          f-sum rule ratio=    1.0072376776E+00
 prteigrs : about to open file /scratch/users/j/a/jabreu/flow_simple_8atoms/flow/w386/t1/tmpdata/tmp_1WF1_EIG
 Expectation of eigenvalue derivatives (hartree) for nkpt=   2  k points:
  (in case of degenerate eigenvalues, averaged derivative)
 kpt#   1, nband= 33, wtk=  0.50000, kpt=  0.0000  0.0000  0.5000 (reduced coord)
   0.00000   -0.00000   -0.00000    0.00000    0.00000   -0.00000   -0.00000   -0.00000
   0.00000    0.00000   -0.00000   -0.00000    0.00000    0.00000   -0.00000   -0.00000
   0.00000    0.00000   -0.00000   -0.00000    0.00000   -0.00000    0.00000   -0.00000
  -0.00000    0.00000    0.00000   -0.00000   -0.00000   -0.00000   -0.00000   -0.00000
  -0.00675
 prteigrs : prtvol=0 or 1, do not print more k-points.

 Eight components of 2nd-order total energy (hartree) are
 1,2,3: 0th-order hamiltonian combined with 1st-order wavefunctions
     kin0=   2.29653357E+01 eigvalue=   2.41873670E-02  local=  -1.05351020E+01
 4,5,6: 1st-order hamiltonian combined with 1st and 0th-order wfs
     kin1=  -3.41004380E+01  Hartree=   0.00000000E+00     xc=   0.00000000E+00
 7,8,9: eventually, occupation + non-local contributions
    edocc=   5.14418937E+00     enl0=  -3.73226586E-01   enl1=  -3.50329774E-01
 1-9 gives the relaxation energy (to be shifted if some occ is /=2.0)
   erelax=  -1.72253839E+01
  No Ewald or frozen-wf contrib.: the relaxation energy is the total one
 2DEtotal=   -0.1722538388E+02 Ha. Also 2DEtotal=   -0.468726533001E+03 eV
    (  non-var. 2DEtotal :   -1.7225383884E+01 Ha)

 CALCULATION OF EFFECTIVE MASSES
 NOTE : Additional infos (eff. mass eigenvalues, eigenvectors and, if degenerate, average mass) are available in stdout.

 K-point ( 0.000, 0.000, 0.500) | band =    24
 Effective mass tensor:
             -1.3063592237              0.0000725627             -0.0000920470
              0.0000725627             -1.6728526504              2.3013817314
             -0.0000920470              2.3013817314             -7.7244972451
 Effective mass tensor eigenvalues:
             -8.5002481039             -1.3063592258             -0.8971017894
 Angular average effective mass 1/(<1/m>)=  -1.5016288438
 Angular average effective mass for Frohlich model (<m**0.5>)**2=  -1.7952208746
 Effective masses along directions: (cart. coord. / red. coord. -> eff. mass)
    1:   1.000000  0.000000  0.000000 /   1.000000  0.000000  0.000000 ->  -1.3063592205
    2:   0.000000  1.000000  0.000000 /   0.000000  1.000000  0.000000 ->  -0.9871953554
    3:   0.000000  0.000000  1.000000 /   0.000000  0.228106  0.973636 ->  -4.5584336514
    4:   0.577350  0.577350  0.577350 /   0.409633  0.616621  0.672294 ->  -1.1531818510
    5:   0.000000  0.707107  0.707107 /   0.000000  0.675934  0.736962 ->  -1.0893608663
    6:   0.707107  0.000000  0.707107 /   0.510216  0.196182  0.837372 ->  -2.0307404420
    7:   0.707107  0.707107  0.000000 /   0.665753  0.746172  0.000000 ->  -1.1245261035

 K-point ( 0.000, 0.000, 0.000) | band =    25
 Effective mass tensor:
              0.3852659968              0.0000033137              0.0000007110
              0.0000033137              0.5075885997              0.0083304747
              0.0000007110              0.0083304747              0.5781740581
 Effective mass tensor eigenvalues:
              0.3852659967              0.5066187651              0.5791438928
 Angular average effective mass 1/(<1/m>)=   0.4764803944
 Angular average effective mass for Frohlich model (<m**0.5>)**2=   0.4807336029
 Effective masses along directions: (cart. coord. / red. coord. -> eff. mass)
    1:   1.000000  0.000000  0.000000 /   1.000000  0.000000  0.000000 ->   0.3852659968
    2:   0.000000  1.000000  0.000000 /   0.000000  1.000000  0.000000 ->   0.5074685722
    3:   0.000000  0.000000  1.000000 /   0.000000  0.228106  0.973636 ->   0.5780373395
    4:   0.577350  0.577350  0.577350 /   0.409633  0.616621  0.672294 ->   0.4808199141
    5:   0.000000  0.707107  0.707107 /   0.000000  0.675934  0.736962 ->   0.5488816665
    6:   0.707107  0.000000  0.707107 /   0.510216  0.196182  0.837372 ->   0.4623640903
    7:   0.707107  0.707107  0.000000 /   0.665753  0.746172  0.000000 ->   0.4380066350

 END OF EFFECTIVE MASSES SECTION

 ---- first-order wavefunction calculations are completed ----

 Total localisation tensor (bohr^2) in cartesian coordinates
  WARNING : still subject to testing - especially symmetries.
      direction              matrix element
   alpha     beta       real part   imaginary part
     1        1       0.8175198055    0.0000000000
     1        2       0.0000000000    0.0000000000
     1        3       0.0000000000    0.0000000000
     2        1       0.0000000000    0.0000000000
     2        2       0.7530351362    0.0000000000
     2        3       0.2583415419    0.0000000000
     3        1       0.0000000000    0.0000000000
     3        2       0.2583415419    0.0000000000
     3        3       0.8595677490    0.0000000000

 respfn : d/dk was computed, but no 2DTE, so no DDB output.

== END DATASET(S) ==============================================================

 -outvars: echo values of variables after computation  --------
            acell      1.0000000000E+00  1.0000000000E+00  1.0000000000E+00 Bohr
              amu      8.89058500E+01  1.00794000E+00  1.59994000E+01
             ecut      4.40000000E+01 Hartree
           etotal     -1.7225383884E+01
            fcart      0.0000000000E+00  0.0000000000E+00  0.0000000000E+00
                       0.0000000000E+00  0.0000000000E+00  0.0000000000E+00
                       0.0000000000E+00  0.0000000000E+00  0.0000000000E+00
                       0.0000000000E+00  0.0000000000E+00  0.0000000000E+00
                       0.0000000000E+00  0.0000000000E+00  0.0000000000E+00
                       0.0000000000E+00  0.0000000000E+00  0.0000000000E+00
                       0.0000000000E+00  0.0000000000E+00  0.0000000000E+00
                       0.0000000000E+00  0.0000000000E+00  0.0000000000E+00
-          fftalg         512
           irdden           1
           irdwfk           1
           istwfk        1    1
              ixc     -116133
              kpt      0.00000000E+00  0.00000000E+00  5.00000000E-01
                       0.00000000E+00  0.00000000E+00  0.00000000E+00
           kptopt           0
P           mkmem           2
P          mkqmem           2
P          mk1mem           2
            natom           8
            nband          33
           nbdbuf           4
            ngfft          45      50      72
             nkpt           2
            nstep        2000
             nsym           4
           ntypat           3
              occ      2.000000  2.000000  2.000000  2.000000  2.000000  2.000000
                       2.000000  2.000000  2.000000  2.000000  2.000000  2.000000
                       2.000000  2.000000  2.000000  2.000000  2.000000  2.000000
                       2.000000  2.000000  2.000000  2.000000  2.000000  2.000000
                       0.000000  0.000000  0.000000  0.000000  0.000000  0.000000
                       0.000000  0.000000  0.000000
        optdriver           1
            prtwf          -1
            rfdir           1       1       1
           rfelfd           2
            rprim      6.8155120925E+00  0.0000000000E+00  0.0000000000E+00
                       0.0000000000E+00  7.6387939988E+00  2.6206185149E+00
                       0.0000000000E+00  0.0000000000E+00  1.1185699342E+01
          spgroup          11
           strten      0.0000000000E+00  0.0000000000E+00  0.0000000000E+00
                       0.0000000000E+00  0.0000000000E+00  0.0000000000E+00
           symrel      1  0  0   0  1  0   0  0  1      -1  0  0   0 -1  0   0  0 -1
                       1  0  0   0 -1  0   0  0 -1      -1  0  0   0  1  0   0  0  1
            tnons      0.0000000  0.0000000  0.0000000     0.0000000 -0.0000000  0.0000000
                       0.5000000 -0.0000000  0.0000000     0.5000000  0.0000000  0.0000000
           tolwfr      1.00000000E-20
            typat      1  1  2  2  3  3  3  3
           useylm           1
              wtk        0.50000    0.50000
           xangst      2.7049602482E+00  6.7823726813E-01  4.3126847773E+00
                       9.0165341606E-01  3.3640384171E+00  2.9933039673E+00
                       9.0165341606E-01  1.9606896520E+00  6.1363162956E+00
                       2.7049602482E+00  2.0815860332E+00  1.1696724490E+00
                       9.0165341606E-01  1.0757142363E+00  3.0268120453E+00
                       2.7049602482E+00  2.9665614490E+00  4.2791766993E+00
                       9.0165341606E-01  1.0168101950E+00  5.9062568362E+00
                       2.7049602482E+00  3.0254654903E+00  1.3997319084E+00
            xcart      5.1116340694E+00  1.2816826899E+00  8.1497931266E+00
                       1.7038780231E+00  6.3571113089E+00  5.6565247307E+00
                       1.7038780231E+00  3.7051664739E+00  1.1595957263E+01
                       5.1116340694E+00  3.9336275249E+00  2.2103605938E+00
                       1.7038780231E+00  2.0328053038E+00  5.7198458213E+00
                       5.1116340694E+00  5.6059886950E+00  8.0864720360E+00
                       1.7038780231E+00  1.9214927976E+00  1.1161207891E+01
                       5.1116340694E+00  5.7173012012E+00  2.6451099664E+00
             xred      7.5000000000E-01  1.6778600000E-01  6.8928100000E-01
                       2.5000000000E-01  8.3221400000E-01  3.1071900000E-01
                       2.5000000000E-01  4.8504600000E-01  9.2303900000E-01
                       7.5000000000E-01  5.1495400000E-01  7.6961000000E-02
                       2.5000000000E-01  2.6611600000E-01  4.4900700000E-01
                       7.5000000000E-01  7.3388400000E-01  5.5099300000E-01
                       2.5000000000E-01  2.5154400000E-01  9.3887800000E-01
                       7.5000000000E-01  7.4845600000E-01  6.1122000000E-02
            znucl       39.00000    1.00000    8.00000

- Timing analysis has been suppressed with timopt=0

 Suggested references for the acknowledgment of ABINIT usage.

 Calculation completed.
.Delivered  14 WARNINGs and   9 COMMENTs to log file.