.Version 9.5.1 of ABINIT

 ABINIT is a project of the Universite Catholique de Louvain,
 Corning Inc. and other collaborators, see ~abinit/doc/developers/contributors.txt .
 acknowledgments of the ABINIT effort.

.Starting date : Wed 19 May 2021.
- ( at 07h48 )

- input  file    -> /scratch/users/j/a/jabreu/flow_simple_9atoms/flow/w121/t1/run.abi
- output file    -> /scratch/users/j/a/jabreu/flow_simple_9atoms/flow/w121/t1/run.abo
- root for input  files -> /scratch/users/j/a/jabreu/flow_simple_9atoms/flow/w121/t1/indata/in
- root for output files -> /scratch/users/j/a/jabreu/flow_simple_9atoms/flow/w121/t1/outdata/out

 Symmetries : space group R3 2 (#155); Bravais hR (rhombohedral)
     intxc =       0      iscf =       7    lmnmax =      18     lnmax =       6
     mgfft =      80  mpssoang =       3    mqgrid =    3001     natom =       9
  nloc_mem =       1    nspden =       1   nspinor =       1    nsppol =       1
      nsym =       6    n1xccc =    2501    ntypat =       5    occopt =       1
   xclevel =       2
-    mband =          35        mffmem =           1         mkmem =           2
-   mkqmem =           2        mk1mem =           2           mpw =       10043
      nfft =      512000          nkpt =           2
  Rough estimation (10% accuracy) of disk space for files :

------------- Echo of variables that govern the present computation ------------
-
- outvars: echo of selected default values
-   iomode0 =  0 , fftalg0 =512 , wfoptalg0 =  0
-
- outvars: echo of global parameters not present in the input file
-  max_nthreads =    0
-
 -outvars: echo values of preprocessed input variables --------
            acell      1.0000000000E+00  1.0000000000E+00  1.0000000000E+00 Bohr
              amu      3.90983000E+01  9.01218200E+00  1.08110000E+01
                       1.59994000E+01  1.89984032E+01
             ecut      4.40000000E+01 Hartree
-          fftalg         512
           irdden           1
           irdwfk           1
           istwfk        0    1
              ixc     -116133
              kpt      2.33333333E-01  2.33333333E-01  2.33333333E-01
                       0.00000000E+00  0.00000000E+00  0.00000000E+00
           kptopt           0
P           mkmem           2
P          mkqmem           2
P          mk1mem           2
            natom           9
            nband          35
           nbdbuf           4
            ngfft          80      80      80
             nkpt           2
            nstep        2000
             nsym           6
           ntypat           5
              occ      2.000000  2.000000  2.000000  2.000000  2.000000  2.000000
                       2.000000  2.000000  2.000000  2.000000  2.000000  2.000000
                       2.000000  2.000000  2.000000  2.000000  2.000000  2.000000
                       2.000000  2.000000  2.000000  2.000000  2.000000  2.000000
                       2.000000  2.000000  0.000000  0.000000  0.000000  0.000000
                       0.000000  0.000000  0.000000  0.000000  0.000000
        optdriver           1
            prtwf          -1
            rfdir           1       1       1
           rfelfd           2
            rprim      7.9058391410E+00  0.0000000000E+00  1.0093554624E+01
                       3.4823920516E+00  7.0975515583E+00  1.0093554624E+01
                       0.0000000000E+00  0.0000000000E+00  1.2821159756E+01
          spgroup         155
           symrel      1  0  0   0  1  0   0  0  1       0 -1  0  -1  0  0   0  0 -1
                       0  0  1   1  0  0   0  1  0      -1  0  0   0  0 -1   0 -1  0
                       0  1  0   0  0  1   1  0  0       0  0 -1   0 -1  0  -1  0  0
           tolwfr      1.00000000E-20
            typat      1  2  2  3  4  4  4  5  5
           useylm           1
              wtk        0.50000    0.50000
           xangst      0.0000000000E+00  0.0000000000E+00  0.0000000000E+00
                       4.8380299981E+00  3.0152327233E+00  1.4022809418E+01
                       1.1883623952E+00  7.4062979819E-01  3.4444142336E+00
                       3.0131961966E+00  1.8779312607E+00  8.7336118260E+00
                       2.4418795072E+00  7.1351622665E-01  9.1810991596E+00
                       2.2874912474E+00  3.0423462948E+00  8.7336118260E+00
                       4.3102178353E+00  1.8779312607E+00  8.2861244924E+00
                       4.3498801614E+00  2.7110003473E+00  1.2607929368E+01
                       1.6765122318E+00  1.0448621742E+00  4.8592942839E+00
            xcart      0.0000000000E+00  0.0000000000E+00  0.0000000000E+00
                       9.1425517190E+00  5.6979640739E+00  2.6499269414E+01
                       2.2456794736E+00  1.3995874844E+00  6.5089995897E+00
                       5.6941155963E+00  3.5487757792E+00  1.6504134502E+01
                       4.6144835181E+00  1.3483502597E+00  1.7349763011E+01
                       4.3227319890E+00  5.7492012986E+00  1.6504134502E+01
                       8.1451312818E+00  3.5487757792E+00  1.5658505994E+01
                       8.2200822160E+00  5.1230482025E+00  2.3825533609E+01
                       3.1681489766E+00  1.9745033558E+00  9.1827353956E+00
             xred      0.0000000000E+00  0.0000000000E+00  0.0000000000E+00
                       8.0280700000E-01  8.0280700000E-01  8.0280700000E-01
                       1.9719300000E-01  1.9719300000E-01  1.9719300000E-01
                       5.0000000000E-01  5.0000000000E-01  5.0000000000E-01
                       5.0000000000E-01  1.8997400000E-01  8.1002600000E-01
                       1.8997400000E-01  8.1002600000E-01  5.0000000000E-01
                       8.1002600000E-01  5.0000000000E-01  1.8997400000E-01
                       7.2180500000E-01  7.2180500000E-01  7.2180500000E-01
                       2.7819500000E-01  2.7819500000E-01  2.7819500000E-01
            znucl       19.00000    4.00000    5.00000    8.00000    9.00000

 chkinp: Checking input parameters for consistency.

== DATASET  1 ==================================================================
-   mpi_nproc: 1, omp_nthreads: -1 (-1 if OMP is not activated)

--- !DatasetInfo
iteration_state: {dtset: 1, }
dimensions: {natom: 9, nkpt: 2, mband: 35, nsppol: 1, nspinor: 1, nspden: 1, mpw: 10043, }
cutoff_energies: {ecut:  44.0, pawecutdg:  -1.0, }
electrons: {nelect:   5.20000000E+01, charge:   0.00000000E+00, occopt:   1.00000000E+00, tsmear:   1.00000000E-02, }
meta: {optdriver: 1, rfelfd: 2, }
...

 Real(R)+Recip(G) space primitive vectors, cartesian coordinates (Bohr,Bohr^-1):
 R(1)=  7.9058391  0.0000000 10.0935546  G(1)=  0.1264888 -0.0620613  0.0000000
 R(2)=  3.4823921  7.0975516 10.0935546  G(2)=  0.0000000  0.1408937  0.0000000
 R(3)=  0.0000000  0.0000000 12.8211598  G(3)= -0.0995793 -0.0620613  0.0779961
 Unit cell volume ucvol=  7.1942221E+02 bohr^3
 Angles (23,13,12)=  3.80700426E+01  3.80700426E+01  3.80700426E+01 degrees

 getcut: wavevector=  0.0000  0.0000  0.0000  ngfft=  80  80  80
         ecut(hartree)=     44.000   => boxcut(ratio)=   2.09021

--- Pseudopotential description ------------------------------------------------
- pspini: atom type   1  psp file is /scratch/users/j/a/jabreu/pseudos/PBEsol/K.psp8
- pspatm: opening atomic psp file    /scratch/users/j/a/jabreu/pseudos/PBEsol/K.psp8
- K     ONCVPSP-3.3.0  r_core=   1.36296   1.46408   1.61068
- 19.00000   9.00000    180112                znucl, zion, pspdat
    8 -116133    2    4       400   0.00000   pspcod,pspxc,lmax,lloc,mmax,r2well
    3.99000000000000    5.00000000000000    0.00000000000000   rchrg,fchrg,qchrg
     nproj     2     2     2
     extension_switch     1
  pspatm : epsatm=    8.32487830
         --- l  ekb(1:nproj) -->
             0   10.921326    0.816676
             1    4.431000    0.560368
             2   -3.384038   -1.043186
 pspatm: atomic psp has been read  and splines computed

- pspini: atom type   2  psp file is /scratch/users/j/a/jabreu/pseudos/PBEsol/Be.psp8
- pspatm: opening atomic psp file    /scratch/users/j/a/jabreu/pseudos/PBEsol/Be.psp8
- Be    ONCVPSP-3.3.0  r_core=   1.35684   1.10780
-  4.00000   4.00000    180112                znucl, zion, pspdat
    8 -116133    1    4       400   0.00000   pspcod,pspxc,lmax,lloc,mmax,r2well
    3.99000000000000    0.00000000000000    0.00000000000000   rchrg,fchrg,qchrg
     nproj     2     2
     extension_switch     1
  pspatm : epsatm=    3.86293307
         --- l  ekb(1:nproj) -->
             0   -7.966826   -2.672546
             1   -3.431835   -0.651830
 pspatm: atomic psp has been read  and splines computed

[...]

- pspini: atom type   5  psp file is /scratch/users/j/a/jabreu/pseudos/PBEsol/F.psp8
- pspatm: opening atomic psp file    /scratch/users/j/a/jabreu/pseudos/PBEsol/F.psp8
- F     ONCVPSP-3.3.0  r_core=   1.30942   1.45782   1.60379
-  9.00000   7.00000    180112                znucl, zion, pspdat
    8 -116133    2    4       600   0.00000   pspcod,pspxc,lmax,lloc,mmax,r2well
    5.99000000000000    2.50000000000000    0.00000000000000   rchrg,fchrg,qchrg
     nproj     2     2     1
     extension_switch     1
  pspatm : epsatm=    4.89824824
         --- l  ekb(1:nproj) -->
             0    6.506434    1.065875
             1   -3.978753   -1.295852
             2   -2.394754
 pspatm: atomic psp has been read  and splines computed

   2.48227732E+03                                ecore*ucvol(ha*bohr**3)

-inwffil : will read wavefunctions from disk file /scratch/users/j/a/jabreu/flow_simple_9atoms/flow/w121/t1/indata/in_WFK

 ==>  initialize data related to q vector <==

 The list of irreducible perturbations for this q vector is:
    1)    idir= 1    ipert=  10
    2)    idir= 2    ipert=  10
    3)    idir= 3    ipert=  10

 Perturbation wavevector (in red.coord.)   0.000000  0.000000  0.000000
 Perturbation : derivative vs k along direction   1

 dfpt_looppert : COMMENT -
  In a d/dk calculation, iscf is set to -3 automatically.
 The set of symmetries contains only one element for this perturbation.
 symkpt : not enough symmetry to change the number of k points.

[...]

 Initialisation of the first-order wave-functions :
  ireadwf=   0

--- !BeginCycle
iteration_state: {dtset: 1, }
solver: {iscf: 7, nstep: 2000, nline: 4, wfoptalg: 0, }
tolerances: {tolwfr: 1.00E-20, }
...

     iter   2DEtotal(Ha)        deltaE(Ha) residm    vres2
-ETOT  1  -42.924285062171     -4.292E+01 1.315E-01 0.000E+00
 ETOT  2  -42.974738439062     -5.045E-02 1.051E-02 0.000E+00
 ETOT  3  -42.975028730798     -2.903E-04 1.266E-03 0.000E+00
 ETOT  4  -42.975031622392     -2.892E-06 1.084E-04 0.000E+00
 ETOT  5  -42.975031656489     -3.410E-08 2.009E-05 0.000E+00
 ETOT  6  -42.975031656921     -4.320E-10 1.775E-06 0.000E+00
 ETOT  7  -42.975031656926     -5.691E-12 3.574E-07 0.000E+00
 ETOT  8  -42.975031656927     -1.279E-13 3.219E-08 0.000E+00
 ETOT  9  -42.975031656927      9.948E-14 6.603E-09 0.000E+00
 ETOT 10  -42.975031656927     -1.421E-14 6.048E-10 0.000E+00
 ETOT 11  -42.975031656927      7.105E-15 1.242E-10 0.000E+00
 ETOT 12  -42.975031656927     -1.421E-14 1.153E-11 0.000E+00
 ETOT 13  -42.975031656927      0.000E+00 2.357E-12 0.000E+00
 ETOT 14  -42.975031656927      0.000E+00 2.213E-13 0.000E+00
 ETOT 15  -42.975031656927      7.105E-15 4.499E-14 0.000E+00
 ETOT 16  -42.975031656927      0.000E+00 4.263E-15 0.000E+00
 ETOT 17  -42.975031656927     -7.105E-15 8.616E-16 0.000E+00
 ETOT 18  -42.975031656927      1.421E-14 8.232E-17 0.000E+00
 ETOT 19  -42.975031656927      0.000E+00 1.654E-17 0.000E+00
 ETOT 20  -42.975031656927     -7.105E-15 1.592E-18 0.000E+00
 ETOT 21  -42.975031656927     -2.132E-14 3.180E-19 0.000E+00
 ETOT 22  -42.975031656927      1.421E-14 3.081E-20 0.000E+00
 ETOT 23  -42.975031656927     -7.105E-15 9.741E-21 0.000E+00

 At SCF step   23   max residual=  9.74E-21 < tolwfr=  1.00E-20 =>converged.

 ----iterations are completed or convergence reached----

 dfpt_looppert: DFPT cycle converged with prtwf=-1. Will skip output of the 1st-order WFK file.
 dfpt_looppert : ek2=    8.1503444626E+01
          f-sum rule ratio=    1.0368817635E+00
 prteigrs : about to open file /scratch/users/j/a/jabreu/flow_simple_9atoms/flow/w121/t1/tmpdata/tmp_1WF1_EIG
 Expectation of eigenvalue derivatives (hartree) for nkpt=   2  k points:
  (in case of degenerate eigenvalues, averaged derivative)
 kpt#   1, nband= 35, wtk=  0.50000, kpt=  0.2333  0.2333  0.2333 (reduced coord)
   0.00000   -0.00000    0.00001    0.00115   -0.00128    0.00008   -0.00000   -0.00000
   0.00046   -0.00000    0.00000    0.00041    0.00026    0.00029   -0.00056    0.00172
   0.00652   -0.00448   -0.00618   -0.01333    0.00813    0.01002   -0.00564   -0.00229
  -0.00011    0.00002    0.03941   -0.00049   -0.06722   -0.00302    0.01765    0.00001
  -0.00171   -0.00316   -0.00713
 prteigrs : prtvol=0 or 1, do not print more k-points.

 Eight components of 2nd-order total energy (hartree) are
 1,2,3: 0th-order hamiltonian combined with 1st-order wavefunctions
     kin0=   5.83725200E+01 eigvalue=   4.65316356E+00  local=  -2.55651958E+01
 4,5,6: 1st-order hamiltonian combined with 1st and 0th-order wfs
     kin1=  -8.45094354E+01  Hartree=   0.00000000E+00     xc=   0.00000000E+00
 7,8,9: eventually, occupation + non-local contributions
    edocc=   8.73945867E+00     enl0=  -3.22491479E+00   enl1=  -1.44062792E+00
 1-9 gives the relaxation energy (to be shifted if some occ is /=2.0)
   erelax=  -4.29750317E+01
  No Ewald or frozen-wf contrib.: the relaxation energy is the total one
 2DEtotal=   -0.4297503166E+02 Ha. Also 2DEtotal=   -0.116941008281E+04 eV
    (  non-var. 2DEtotal :   -4.2975031657E+01 Ha)

 Perturbation wavevector (in red.coord.)   0.000000  0.000000  0.000000
 Perturbation : derivative vs k along direction   2
 The set of symmetries contains only one element for this perturbation.
 symkpt : not enough symmetry to change the number of k points.

[...]

 Perturbation wavevector (in red.coord.)   0.000000  0.000000  0.000000
 Perturbation : derivative vs k along direction   3
 The set of symmetries contains only one element for this perturbation.
 symkpt : not enough symmetry to change the number of k points.

-inwffil : will read wavefunctions from disk file /scratch/users/j/a/jabreu/flow_simple_9atoms/flow/w121/t1/indata/in_WFK

 Initialisation of the first-order wave-functions :
  ireadwf=   0

--- !BeginCycle
iteration_state: {dtset: 1, }
solver: {iscf: 7, nstep: 2000, nline: 4, wfoptalg: 0, }
tolerances: {tolwfr: 1.00E-20, }
...

     iter   2DEtotal(Ha)        deltaE(Ha) residm    vres2
-ETOT  1  -42.925318231406     -4.293E+01 1.393E-01 0.000E+00
 ETOT  2  -42.975368180296     -5.005E-02 1.043E-02 0.000E+00
 ETOT  3  -42.975653957128     -2.858E-04 1.307E-03 0.000E+00
 ETOT  4  -42.975656793141     -2.836E-06 1.059E-04 0.000E+00
 ETOT  5  -42.975656826486     -3.334E-08 2.055E-05 0.000E+00
 ETOT  6  -42.975656826907     -4.212E-10 1.707E-06 0.000E+00
 ETOT  7  -42.975656826912     -5.514E-12 3.606E-07 0.000E+00
 ETOT  8  -42.975656826912     -9.948E-14 3.048E-08 0.000E+00
 ETOT  9  -42.975656826912      4.263E-14 6.568E-09 0.000E+00
 ETOT 10  -42.975656826912     -4.974E-14 5.641E-10 0.000E+00
 ETOT 11  -42.975656826912     -2.842E-14 1.218E-10 0.000E+00
 ETOT 12  -42.975656826912      1.421E-14 1.060E-11 0.000E+00
 ETOT 13  -42.975656826912      7.105E-15 2.279E-12 0.000E+00
 ETOT 14  -42.975656826912      7.105E-15 2.006E-13 0.000E+00
 ETOT 15  -42.975656826912     -1.421E-14 4.288E-14 0.000E+00
 ETOT 16  -42.975656826912      0.000E+00 3.810E-15 0.000E+00
 ETOT 17  -42.975656826912      7.105E-15 8.097E-16 0.000E+00
 ETOT 18  -42.975656826912      7.105E-15 7.254E-17 0.000E+00
 ETOT 19  -42.975656826912     -7.105E-15 1.532E-17 0.000E+00
 ETOT 20  -42.975656826912      7.105E-15 1.383E-18 0.000E+00
 ETOT 21  -42.975656826912      0.000E+00 2.905E-19 0.000E+00
 ETOT 22  -42.975656826912      0.000E+00 2.640E-20 0.000E+00
 ETOT 23  -42.975656826912     -7.105E-15 9.907E-21 0.000E+00

 At SCF step   23   max residual=  9.91E-21 < tolwfr=  1.00E-20 =>converged.

 ----iterations are completed or convergence reached----

 dfpt_looppert: DFPT cycle converged with prtwf=-1. Will skip output of the 1st-order WFK file.
 dfpt_looppert : ek2=    8.1503444625E+01
          f-sum rule ratio=    1.0369000792E+00
 prteigrs : about to open file /scratch/users/j/a/jabreu/flow_simple_9atoms/flow/w121/t1/tmpdata/tmp_1WF1_EIG
 Expectation of eigenvalue derivatives (hartree) for nkpt=   2  k points:
  (in case of degenerate eigenvalues, averaged derivative)
 kpt#   1, nband= 35, wtk=  0.50000, kpt=  0.2333  0.2333  0.2333 (reduced coord)
   0.00000   -0.00000    0.00001    0.00115   -0.00128    0.00008   -0.00000   -0.00000
   0.00046   -0.00000    0.00000    0.00041    0.00026    0.00029   -0.00056    0.00172
   0.00652   -0.00448   -0.00618   -0.01333    0.00813    0.01002   -0.00564   -0.00229
  -0.00011    0.00002    0.03941   -0.00049   -0.06722   -0.00302    0.01765    0.00001
  -0.00171   -0.00317   -0.00713
 prteigrs : prtvol=0 or 1, do not print more k-points.

 Eight components of 2nd-order total energy (hartree) are
 1,2,3: 0th-order hamiltonian combined with 1st-order wavefunctions
     kin0=   5.82922998E+01 eigvalue=   4.65152434E+00  local=  -2.55167343E+01
 4,5,6: 1st-order hamiltonian combined with 1st and 0th-order wfs
     kin1=  -8.45109282E+01  Hartree=   0.00000000E+00     xc=   0.00000000E+00
 7,8,9: eventually, occupation + non-local contributions
    edocc=   8.76274381E+00     enl0=  -3.21417681E+00   enl1=  -1.44038546E+00
 1-9 gives the relaxation energy (to be shifted if some occ is /=2.0)
   erelax=  -4.29756568E+01
  No Ewald or frozen-wf contrib.: the relaxation energy is the total one
 2DEtotal=   -0.4297565683E+02 Ha. Also 2DEtotal=   -0.116942709455E+04 eV
    (  non-var. 2DEtotal :   -4.2975656827E+01 Ha)

 CALCULATION OF EFFECTIVE MASSES
 NOTE : Additional infos (eff. mass eigenvalues, eigenvectors and, if degenerate, average mass) are available in stdout.

 K-point ( 0.233, 0.233, 0.233) | band =    26
 Effective mass tensor:
             -3.3473805113             -1.0070508454             -4.6834527991
             -1.0070508454             -2.3591659474             -2.9188921739
             -4.6834527991             -2.9188921739            -15.3063165012
 Effective mass tensor eigenvalues:
            -17.5497901575             -1.7315365105             -1.7315362919
 Angular average effective mass 1/(<1/m>)=  -2.4751978653
 Angular average effective mass for Frohlich model (<m**0.5>)**2=  -3.0078289551
 Effective masses along directions: (cart. coord. / red. coord. -> eff. mass)
    1:   1.000000  0.000000  0.000000 /   0.915152  0.403109  0.000000 ->  -1.9071295141
    2:   0.000000  1.000000  0.000000 /   0.000000  1.000000  0.000000 ->  -1.7957578174
    3:   0.000000  0.000000  1.000000 /   0.526062  0.526062  0.668220 ->  -7.6447857007
    4:   0.577350  0.577350  0.577350 /   0.594797  0.683163  0.423680 ->  -4.6483169230
    5:   0.000000  0.707107  0.707107 /   0.425848  0.725295  0.540926 ->  -4.0357688927
    6:   0.707107  0.000000  0.707107 /   0.693998  0.523444  0.494342 ->  -5.7651212099
    7:   0.707107  0.707107  0.000000 /   0.598588  0.801057  0.000000 ->  -1.9705658332

 K-point ( 0.000, 0.000, 0.000) | band =    27
 Effective mass tensor:
              0.6207183390             -0.0077485629             -0.0360332876
             -0.0077485629              0.6283205155             -0.0224569012
             -0.0360332876             -0.0224569012              0.5287090851
 Effective mass tensor eigenvalues:
              0.5114484153              0.6331489816              0.6331505427
 Angular average effective mass 1/(<1/m>)=   0.5866201662
 Angular average effective mass for Frohlich model (<m**0.5>)**2=   0.5884679061
 Effective masses along directions: (cart. coord. / red. coord. -> eff. mass)
    1:   1.000000  0.000000  0.000000 /   0.915152  0.403109  0.000000 ->   0.6181253080
    2:   0.000000  1.000000  0.000000 /   0.000000  1.000000  0.000000 ->   0.6272273961
    3:   0.000000  0.000000  1.000000 /   0.526062  0.526062  0.668220 ->   0.5257820789
    4:   0.577350  0.577350  0.577350 /   0.594797  0.683163  0.423680 ->   0.5431687483
    5:   0.000000  0.707107  0.707107 /   0.425848  0.725295  0.540926 ->   0.5502145714
    6:   0.707107  0.000000  0.707107 /   0.693998  0.523444  0.494342 ->   0.5344346213
    7:   0.707107  0.707107  0.000000 /   0.598588  0.801057  0.000000 ->   0.6135027474

 END OF EFFECTIVE MASSES SECTION

 ---- first-order wavefunction calculations are completed ----

 Total localisation tensor (bohr^2) in cartesian coordinates
  WARNING : still subject to testing - especially symmetries.
      direction              matrix element
   alpha     beta       real part   imaginary part
     1        1       0.8107656200    0.0000000000
     1        2       0.2685039942    0.0000000000
     1        3       1.2487700588    0.0000000000
     2        1       0.2685039942    0.0000000000
     2        2       0.5472448002    0.0000000000
     2        3       0.7782465880    0.0000000000
     3        1       1.2487700588    0.0000000000
     3        2       0.7782465880    0.0000000000
     3        3       3.9995219051    0.0000000000

 respfn : d/dk was computed, but no 2DTE, so no DDB output.

== END DATASET(S) ==============================================================

 -outvars: echo values of variables after computation  --------
            acell      1.0000000000E+00  1.0000000000E+00  1.0000000000E+00 Bohr
              amu      3.90983000E+01  9.01218200E+00  1.08110000E+01
                       1.59994000E+01  1.89984032E+01
             ecut      4.40000000E+01 Hartree
           etotal     -4.2975656827E+01
            fcart      0.0000000000E+00  0.0000000000E+00  0.0000000000E+00
                       0.0000000000E+00  0.0000000000E+00  0.0000000000E+00
                       0.0000000000E+00  0.0000000000E+00  0.0000000000E+00
                       0.0000000000E+00  0.0000000000E+00  0.0000000000E+00
                       0.0000000000E+00  0.0000000000E+00  0.0000000000E+00
                       0.0000000000E+00  0.0000000000E+00  0.0000000000E+00
                       0.0000000000E+00  0.0000000000E+00  0.0000000000E+00
                       0.0000000000E+00  0.0000000000E+00  0.0000000000E+00
                       0.0000000000E+00  0.0000000000E+00  0.0000000000E+00
-          fftalg         512
           irdden           1
           irdwfk           1
           istwfk        0    1
              ixc     -116133
              kpt      2.33333333E-01  2.33333333E-01  2.33333333E-01
                       0.00000000E+00  0.00000000E+00  0.00000000E+00
           kptopt           0
P           mkmem           2
P          mkqmem           2
P          mk1mem           2
            natom           9
            nband          35
           nbdbuf           4
            ngfft          80      80      80
             nkpt           2
            nstep        2000
             nsym           6
           ntypat           5
              occ      2.000000  2.000000  2.000000  2.000000  2.000000  2.000000
                       2.000000  2.000000  2.000000  2.000000  2.000000  2.000000
                       2.000000  2.000000  2.000000  2.000000  2.000000  2.000000
                       2.000000  2.000000  2.000000  2.000000  2.000000  2.000000
                       2.000000  2.000000  0.000000  0.000000  0.000000  0.000000
                       0.000000  0.000000  0.000000  0.000000  0.000000
        optdriver           1
            prtwf          -1
            rfdir           1       1       1
           rfelfd           2
            rprim      7.9058391410E+00  0.0000000000E+00  1.0093554624E+01
                       3.4823920516E+00  7.0975515583E+00  1.0093554624E+01
                       0.0000000000E+00  0.0000000000E+00  1.2821159756E+01
          spgroup         155
           strten      0.0000000000E+00  0.0000000000E+00  0.0000000000E+00
                       0.0000000000E+00  0.0000000000E+00  0.0000000000E+00
           symrel      1  0  0   0  1  0   0  0  1       0 -1  0  -1  0  0   0  0 -1
                       0  0  1   1  0  0   0  1  0      -1  0  0   0  0 -1   0 -1  0
                       0  1  0   0  0  1   1  0  0       0  0 -1   0 -1  0  -1  0  0
           tolwfr      1.00000000E-20
            typat      1  2  2  3  4  4  4  5  5
           useylm           1
              wtk        0.50000    0.50000
           xangst      0.0000000000E+00  0.0000000000E+00  0.0000000000E+00
                       4.8380299981E+00  3.0152327233E+00  1.4022809418E+01
                       1.1883623952E+00  7.4062979819E-01  3.4444142336E+00
                       3.0131961966E+00  1.8779312607E+00  8.7336118260E+00
                       2.4418795072E+00  7.1351622665E-01  9.1810991596E+00
                       2.2874912474E+00  3.0423462948E+00  8.7336118260E+00
                       4.3102178353E+00  1.8779312607E+00  8.2861244924E+00
                       4.3498801614E+00  2.7110003473E+00  1.2607929368E+01
                       1.6765122318E+00  1.0448621742E+00  4.8592942839E+00
            xcart      0.0000000000E+00  0.0000000000E+00  0.0000000000E+00
                       9.1425517190E+00  5.6979640739E+00  2.6499269414E+01
                       2.2456794736E+00  1.3995874844E+00  6.5089995897E+00
                       5.6941155963E+00  3.5487757792E+00  1.6504134502E+01
                       4.6144835181E+00  1.3483502597E+00  1.7349763011E+01
                       4.3227319890E+00  5.7492012986E+00  1.6504134502E+01
                       8.1451312818E+00  3.5487757792E+00  1.5658505994E+01
                       8.2200822160E+00  5.1230482025E+00  2.3825533609E+01
                       3.1681489766E+00  1.9745033558E+00  9.1827353956E+00
             xred      0.0000000000E+00  0.0000000000E+00  0.0000000000E+00
                       8.0280700000E-01  8.0280700000E-01  8.0280700000E-01
                       1.9719300000E-01  1.9719300000E-01  1.9719300000E-01
                       5.0000000000E-01  5.0000000000E-01  5.0000000000E-01
                       5.0000000000E-01  1.8997400000E-01  8.1002600000E-01
                       1.8997400000E-01  8.1002600000E-01  5.0000000000E-01
                       8.1002600000E-01  5.0000000000E-01  1.8997400000E-01
                       7.2180500000E-01  7.2180500000E-01  7.2180500000E-01
                       2.7819500000E-01  2.7819500000E-01  2.7819500000E-01
            znucl       19.00000    4.00000    5.00000    8.00000    9.00000

- Timing analysis has been suppressed with timopt=0

 Suggested references for the acknowledgment of ABINIT usage.

 Calculation completed.
.Delivered  14 WARNINGs and   9 COMMENTs to log file.