.Version 9.5.2 of ABINIT

 ABINIT is a project of the Universite Catholique de Louvain,
 Corning Inc. and other collaborators, see ~abinit/doc/developers/contributors.txt .
 acknowledgments of the ABINIT effort.

.Starting date : Wed 26 May 2021.
- ( at 03h27 )

- input  file    -> /scratch/users/j/a/jabreu/flow_simple_11atoms/flow/w299/t1/run.abi
- output file    -> /scratch/users/j/a/jabreu/flow_simple_11atoms/flow/w299/t1/run.abo
- root for input  files -> /scratch/users/j/a/jabreu/flow_simple_11atoms/flow/w299/t1/indata/in
- root for output files -> /scratch/users/j/a/jabreu/flow_simple_11atoms/flow/w299/t1/outdata/out

 Symmetries : space group C2/m (# 12); Bravais mC (1-face-center monocl.)
     intxc =       0      iscf =       7    lmnmax =      18     lnmax =       6
     mgfft =      72  mpssoang =       3    mqgrid =    3421     natom =      12
  nloc_mem =       1    nspden =       1   nspinor =       1    nsppol =       1
      nsym =       4    n1xccc =    2501    ntypat =       4    occopt =       1
   xclevel =       2
-    mband =          49        mffmem =           1         mkmem =           1
-   mkqmem =           1        mk1mem =           1           mpw =       15081
      nfft =      294912          nkpt =           1
  Rough estimation (10% accuracy) of disk space for files :

------------- Echo of variables that govern the present computation ------------
-
- outvars: echo of selected default values
-   iomode0 =  0 , fftalg0 =512 , wfoptalg0 =  0
-
- outvars: echo of global parameters not present in the input file
-  max_nthreads =    0
-
 -outvars: echo values of preprocessed input variables --------
            acell      1.0000000000E+00  1.0000000000E+00  1.0000000000E+00 Bohr
              amu      1.37327000E+02  2.29897680E+01  1.08110000E+01
                       1.59994000E+01
             ecut      4.40000000E+01 Hartree
-          fftalg         512
           irdden           1
           irdwfk           1
           istwfk        1
              ixc     -116133
           kptopt           0
P           mkmem           1
P          mkqmem           1
P          mk1mem           1
            natom          12
            nband          49
           nbdbuf           4
            ngfft          64      64      72
             nkpt           1
            nstep        2000
             nsym           4
           ntypat           4
              occ      2.000000  2.000000  2.000000  2.000000  2.000000  2.000000
                       2.000000  2.000000  2.000000  2.000000  2.000000  2.000000
                       2.000000  2.000000  2.000000  2.000000  2.000000  2.000000
                       2.000000  2.000000  2.000000  2.000000  2.000000  2.000000
                       2.000000  2.000000  2.000000  2.000000  2.000000  2.000000
                       2.000000  2.000000  2.000000  2.000000  2.000000  2.000000
                       2.000000  2.000000  2.000000  2.000000  0.000000  0.000000
                       0.000000  0.000000  0.000000  0.000000  0.000000  0.000000
                       0.000000
        optdriver           1
            prtwf          -1
            rfdir           1       1       1
           rfelfd           2
            rprim      1.0311488787E+01  0.0000000000E+00  1.4939493469E+00
                       4.9942106131E+00  9.0213447646E+00  1.4939493469E+00
                       0.0000000000E+00  0.0000000000E+00  1.1617278358E+01
          spgroup          12
           symrel      1  0  0   0  1  0   0  0  1      -1  0  0   0 -1  0   0  0 -1
                       0 -1  0  -1  0  0   0  0 -1       0  1  0   1  0  0   0  0  1
           tolwfr      1.00000000E-20
            typat      1  1  2  2  3  3  4  4  4  4  4  4
           useylm           1
           xangst      1.3509439739E+00  7.9626098927E-01  4.9278276182E+00
                       6.7484833103E+00  3.9776290510E+00  2.8008992052E+00
                       4.0497136421E+00  2.3869450201E+00  3.8643634117E+00
                       4.0497136421E+00  2.3869450201E+00  7.9056394517E-01
                       1.3573344220E+00  8.0002758851E-01  1.7918078502E+00
                       6.7420928622E+00  3.9738624518E+00  5.9369189732E+00
                       4.0201887494E+00  5.3895308999E-01  5.5006950496E+00
                       5.6807900272E+00  1.5177294433E+00  2.2280317738E+00
                       4.0792385348E+00  4.2349369503E+00  2.2280317738E+00
                       2.4186372570E+00  3.2561605970E+00  5.5006950496E+00
                       2.4062021559E+00  1.4182415748E+00  2.4630298427E+00
                       5.6932251283E+00  3.3556484654E+00  5.2656969807E+00
            xcart      2.5529141315E+00  1.5047152000E+00  9.3122446285E+00
                       1.2752785269E+01  7.5166295646E+00  5.2929324237E+00
                       7.6528497002E+00  4.5106723823E+00  7.3025885261E+00
                       7.6528497002E+00  4.5106723823E+00  1.4939493469E+00
                       2.5649903283E+00  1.5118330410E+00  3.3860261196E+00
                       1.2740709072E+01  7.5095117236E+00  1.1219150933E+01
                       7.5970557389E+00  1.0184737385E+00  1.0394807184E+01
                       1.0735137370E+01  2.8680929916E+00  4.2103698679E+00
                       7.7086436614E+00  8.0028710261E+00  4.2103698679E+00
                       4.5705620305E+00  6.1532517730E+00  1.0394807184E+01
                       4.5470630949E+00  2.6800881667E+00  4.6544518599E+00
                       1.0758636305E+01  6.3412565979E+00  9.9507251923E+00
             xred      1.6679500000E-01  1.6679500000E-01  7.5868700000E-01
                       8.3320500000E-01  8.3320500000E-01  2.4131300000E-01
                       5.0000000000E-01  5.0000000000E-01  5.0000000000E-01
                       5.0000000000E-01  5.0000000000E-01  0.0000000000E+00
                       1.6758400000E-01  1.6758400000E-01  2.4836300000E-01
                       8.3241600000E-01  8.3241600000E-01  7.5163700000E-01
                       6.8207700000E-01  1.1289600000E-01  7.9254000000E-01
                       8.8710400000E-01  3.1792300000E-01  2.0746000000E-01
                       3.1792300000E-01  8.8710400000E-01  2.0746000000E-01
                       1.1289600000E-01  6.8207700000E-01  7.9254000000E-01
                       2.9708300000E-01  2.9708300000E-01  3.2424100000E-01
                       7.0291700000E-01  7.0291700000E-01  6.7575900000E-01
            znucl       56.00000   11.00000    5.00000    8.00000

 chkinp: Checking input parameters for consistency.

== DATASET  1 ==================================================================
-   mpi_nproc: 1, omp_nthreads: -1 (-1 if OMP is not activated)

--- !DatasetInfo
iteration_state: {dtset: 1, }
dimensions: {natom: 12, nkpt: 1, mband: 49, nsppol: 1, nspinor: 1, nspden: 1, mpw: 15081, }
cutoff_energies: {ecut:  44.0, pawecutdg:  -1.0, }
electrons: {nelect:   8.00000000E+01, charge:   0.00000000E+00, occopt:   1.00000000E+00, tsmear:   1.00000000E-02, }
meta: {optdriver: 1, rfelfd: 2, }
...

 Real(R)+Recip(G) space primitive vectors, cartesian coordinates (Bohr,Bohr^-1):
 R(1)= 10.3114888  0.0000000  1.4939493  G(1)=  0.0969792 -0.0536876  0.0000000
 R(2)=  4.9942106  9.0213448  1.4939493  G(2)=  0.0000000  0.1108482  0.0000000
 R(3)=  0.0000000  0.0000000 11.6172784  G(3)= -0.0124713 -0.0073507  0.0860787
 Unit cell volume ucvol=  1.0806798E+03 bohr^3
 Angles (23,13,12)=  8.17562333E+01  8.17562333E+01  6.03344517E+01 degrees

 getcut: wavevector=  0.0000  0.0000  0.0000  ngfft=  64  64  72
         ecut(hartree)=     44.000   => boxcut(ratio)=   2.05715

--- Pseudopotential description ------------------------------------------------
- pspini: atom type   1  psp file is /scratch/users/j/a/jabreu/pseudos/PBEsol/Ba.psp8
- pspatm: opening atomic psp file    /scratch/users/j/a/jabreu/pseudos/PBEsol/Ba.psp8
- Ba    ONCVPSP-3.3.0  r_core=   2.15444   1.91218   2.15444
- 56.00000  10.00000    180112                znucl, zion, pspdat
    8 -116133    2    4       600   0.00000   pspcod,pspxc,lmax,lloc,mmax,r2well
    5.99000000000000    5.00000000000000    0.00000000000000   rchrg,fchrg,qchrg
     nproj     2     2     2
     extension_switch     1
  pspatm : epsatm=   26.37418029
         --- l  ekb(1:nproj) -->
             0    6.652372    0.677024
             1    5.027722    0.408462
             2    2.543237    0.416854
 pspatm: atomic psp has been read  and splines computed

- pspini: atom type   2  psp file is /scratch/users/j/a/jabreu/pseudos/PBEsol/Na.psp8
- pspatm: opening atomic psp file    /scratch/users/j/a/jabreu/pseudos/PBEsol/Na.psp8
- Na    ONCVPSP-3.3.0  r_core=   1.20708   1.55069
- 11.00000   9.00000    180112                znucl, zion, pspdat
    8 -116133    1    4       400   0.00000   pspcod,pspxc,lmax,lloc,mmax,r2well
    3.99000000000000    0.00000000000000    0.00000000000000   rchrg,fchrg,qchrg
     nproj     2     2
     extension_switch     1
  pspatm : epsatm=    9.32878306
         --- l  ekb(1:nproj) -->
             0    2.657905   -0.678300
             1   -6.761319   -2.404728
 pspatm: atomic psp has been read  and splines computed

[...]

- pspini: atom type   4  psp file is /scratch/users/j/a/jabreu/pseudos/PBEsol/O.psp8
- pspatm: opening atomic psp file    /scratch/users/j/a/jabreu/pseudos/PBEsol/O.psp8
- O     ONCVPSP-3.3.0  r_core=   1.35509   1.45563   1.26150
-  8.00000   6.00000    180112                znucl, zion, pspdat
    8 -116133    2    4       600   0.00000   pspcod,pspxc,lmax,lloc,mmax,r2well
    5.99000000000000    4.00000000000000    0.00000000000000   rchrg,fchrg,qchrg
     nproj     2     2     1
     extension_switch     1
  pspatm : epsatm=    6.22910522
         --- l  ekb(1:nproj) -->
             0    6.050032    0.820363
             1   -4.739617   -1.153841
             2   -1.335834
 pspatm: atomic psp has been read  and splines computed

   9.21469195E+03                                ecore*ucvol(ha*bohr**3)

 ==>  initialize data related to q vector <==

 The list of irreducible perturbations for this q vector is:
    1)    idir= 1    ipert=  13
    2)    idir= 2    ipert=  13
    3)    idir= 3    ipert=  13

 Perturbation wavevector (in red.coord.)   0.000000  0.000000  0.000000
 Perturbation : derivative vs k along direction   1

 dfpt_looppert : COMMENT -
  In a d/dk calculation, iscf is set to -3 automatically.
 The set of symmetries contains only one element for this perturbation.
 symkpt : not enough symmetry to change the number of k points.

 Initialisation of the first-order wave-functions :
  ireadwf=   0

--- !BeginCycle
iteration_state: {dtset: 1, }
solver: {iscf: 7, nstep: 2000, nline: 4, wfoptalg: 0, }
tolerances: {tolwfr: 1.00E-20, }
...

     iter   2DEtotal(Ha)        deltaE(Ha) residm    vres2
-ETOT  1  -46.454657228285     -4.645E+01 5.355E-02 0.000E+00
 ETOT  2  -46.545418207064     -9.076E-02 5.014E-03 0.000E+00
 ETOT  3  -46.546562121005     -1.144E-03 2.512E-04 0.000E+00
 ETOT  4  -46.546584577790     -2.246E-05 6.192E-05 0.000E+00
[...]
 ETOT 16  -46.546585099928      0.000E+00 6.632E-14 0.000E+00
 ETOT 17  -46.546585099928      0.000E+00 8.503E-15 0.000E+00
 ETOT 18  -46.546585099928     -7.105E-15 2.304E-15 0.000E+00
 ETOT 19  -46.546585099928      0.000E+00 2.966E-16 0.000E+00
 ETOT 20  -46.546585099928      7.105E-15 8.076E-17 0.000E+00
 ETOT 21  -46.546585099928     -7.105E-15 1.041E-17 0.000E+00
 ETOT 22  -46.546585099928     -1.421E-14 2.848E-18 0.000E+00
 ETOT 23  -46.546585099928      7.105E-15 3.673E-19 0.000E+00
 ETOT 24  -46.546585099928     -7.105E-15 1.009E-19 0.000E+00
 ETOT 25  -46.546585099928      0.000E+00 1.301E-20 0.000E+00
 ETOT 26  -46.546585099928      1.421E-14 9.643E-21 0.000E+00

 At SCF step   26   max residual=  9.64E-21 < tolwfr=  1.00E-20 =>converged.

 ----iterations are completed or convergence reached----

 dfpt_looppert: DFPT cycle converged with prtwf=-1. Will skip output of the 1st-order WFK file.
 dfpt_looppert : ek2=    7.7613480367E+01
          f-sum rule ratio=    1.1314896113E+00
 prteigrs : about to open file /scratch/users/j/a/jabreu/flow_simple_11atoms/flow/w299/t1/tmpdata/tmp_1WF1_EIG
 Expectation of eigenvalue derivatives (hartree) for nkpt=   1  k points:
  (in case of degenerate eigenvalues, averaged derivative)
 kpt#   1, nband= 49, wtk=  1.00000, kpt=  0.0000  0.0000  0.0000 (reduced coord)
  -0.00000   -0.00000    0.00000    0.00000   -0.00000   -0.00000    0.00000    0.00000
  -0.00000   -0.00000    0.00000    0.00000    0.00000    0.00000   -0.00000    0.00000
  -0.00000   -0.00000    0.00000    0.00000   -0.00000   -0.00000   -0.00000   -0.00000
   0.00000    0.00000   -0.00000    0.00000    0.00000    0.00000   -0.00000   -0.00000
   0.00000    0.00000    0.00000   -0.00000    0.00000    0.00000    0.00000    0.00000
   0.00000    0.00000    0.00000   -0.00000    0.00000   -0.00000   -0.00000    0.00000
   0.00000

 Eight components of 2nd-order total energy (hartree) are
 1,2,3: 0th-order hamiltonian combined with 1st-order wavefunctions
     kin0=   6.50437873E+01 eigvalue=   9.06259202E-01  local=  -2.99228368E+01
 4,5,6: 1st-order hamiltonian combined with 1st and 0th-order wfs
     kin1=  -8.78188467E+01  Hartree=   0.00000000E+00     xc=   0.00000000E+00
 7,8,9: eventually, occupation + non-local contributions
    edocc=   1.01008044E+01     enl0=   4.18570952E-01   enl1=  -5.27432347E+00
 1-9 gives the relaxation energy (to be shifted if some occ is /=2.0)
   erelax=  -4.65465851E+01
  No Ewald or frozen-wf contrib.: the relaxation energy is the total one
 2DEtotal=   -0.4654658510E+02 Ha. Also 2DEtotal=   -0.126659699453E+04 eV
    (  non-var. 2DEtotal :   -4.6546585100E+01 Ha)

 Perturbation wavevector (in red.coord.)   0.000000  0.000000  0.000000
 Perturbation : derivative vs k along direction   2
 The set of symmetries contains only one element for this perturbation.
 symkpt : not enough symmetry to change the number of k points.

[...]

 Perturbation wavevector (in red.coord.)   0.000000  0.000000  0.000000
 Perturbation : derivative vs k along direction   3
 The set of symmetries contains only one element for this perturbation.
 symkpt : not enough symmetry to change the number of k points.

 Initialisation of the first-order wave-functions :
  ireadwf=   0

--- !BeginCycle
iteration_state: {dtset: 1, }
solver: {iscf: 7, nstep: 2000, nline: 4, wfoptalg: 0, }
tolerances: {tolwfr: 1.00E-20, }
...

     iter   2DEtotal(Ha)        deltaE(Ha) residm    vres2
-ETOT  1  -26.515974654982     -2.652E+01 1.685E-02 0.000E+00
 ETOT  2  -26.539151741073     -2.318E-02 2.533E-03 0.000E+00
 ETOT  3  -26.539281054967     -1.293E-04 1.214E-04 0.000E+00
 ETOT  4  -26.539282551759     -1.497E-06 2.435E-05 0.000E+00
 ETOT  5  -26.539282575252     -2.349E-08 1.810E-06 0.000E+00
 ETOT  6  -26.539282575686     -4.339E-10 3.976E-07 0.000E+00
 ETOT  7  -26.539282575694     -8.779E-12 3.066E-08 0.000E+00
 ETOT  8  -26.539282575695     -1.528E-13 6.885E-09 0.000E+00
 ETOT  9  -26.539282575695      2.132E-14 5.297E-10 0.000E+00
 ETOT 10  -26.539282575695      0.000E+00 1.201E-10 0.000E+00
 ETOT 11  -26.539282575695     -2.842E-14 9.206E-12 0.000E+00
 ETOT 12  -26.539282575695      3.553E-15 2.097E-12 0.000E+00
 ETOT 13  -26.539282575695      7.105E-15 1.604E-13 0.000E+00
 ETOT 14  -26.539282575695     -3.553E-15 3.664E-14 0.000E+00
 ETOT 15  -26.539282575695      7.105E-15 2.800E-15 0.000E+00
 ETOT 16  -26.539282575695      0.000E+00 8.747E-16 0.000E+00
 ETOT 17  -26.539282575695     -3.553E-15 5.654E-17 0.000E+00
 ETOT 18  -26.539282575695      7.105E-15 2.730E-17 0.000E+00
 ETOT 19  -26.539282575695     -1.066E-14 1.798E-18 0.000E+00
 ETOT 20  -26.539282575695      1.066E-14 8.789E-19 0.000E+00
 ETOT 21  -26.539282575695     -3.553E-15 6.070E-20 0.000E+00
 ETOT 22  -26.539282575695      0.000E+00 3.087E-20 0.000E+00
 ETOT 23  -26.539282575695      3.553E-15 9.675E-21 0.000E+00

 At SCF step   23   max residual=  9.68E-21 < tolwfr=  1.00E-20 =>converged.

 ----iterations are completed or convergence reached----

 dfpt_looppert: DFPT cycle converged with prtwf=-1. Will skip output of the 1st-order WFK file.
 dfpt_looppert : ek2=    4.8126428270E+01
          f-sum rule ratio=    1.0199382015E+00
 prteigrs : about to open file /scratch/users/j/a/jabreu/flow_simple_11atoms/flow/w299/t1/tmpdata/tmp_1WF1_EIG
 Expectation of eigenvalue derivatives (hartree) for nkpt=   1  k points:
  (in case of degenerate eigenvalues, averaged derivative)
 kpt#   1, nband= 49, wtk=  1.00000, kpt=  0.0000  0.0000  0.0000 (reduced coord)
  -0.00000    0.00000    0.00000    0.00000   -0.00000    0.00000    0.00000   -0.00000
   0.00000   -0.00000   -0.00000    0.00000    0.00000   -0.00000    0.00000    0.00000
  -0.00000   -0.00000    0.00000    0.00000   -0.00000   -0.00000   -0.00000    0.00000
   0.00000    0.00000   -0.00000   -0.00000    0.00000   -0.00000   -0.00000    0.00000
   0.00000   -0.00000    0.00000   -0.00000    0.00000    0.00000   -0.00000    0.00000
  -0.00000   -0.00000    0.00000    0.00000    0.00000   -0.00000    0.00000   -0.00000
  -0.00031

 Eight components of 2nd-order total energy (hartree) are
 1,2,3: 0th-order hamiltonian combined with 1st-order wavefunctions
     kin0=   3.47054382E+01 eigvalue=   1.32051954E+00  local=  -1.43859331E+01
 4,5,6: 1st-order hamiltonian combined with 1st and 0th-order wfs
     kin1=  -4.90859827E+01  Hartree=   0.00000000E+00     xc=   0.00000000E+00
 7,8,9: eventually, occupation + non-local contributions
    edocc=   4.97128132E+00     enl0=  -7.20234352E-02   enl1=  -3.99258246E+00
 1-9 gives the relaxation energy (to be shifted if some occ is /=2.0)
   erelax=  -2.65392826E+01
  No Ewald or frozen-wf contrib.: the relaxation energy is the total one
 2DEtotal=   -0.2653928258E+02 Ha. Also 2DEtotal=   -0.722170605536E+03 eV
    (  non-var. 2DEtotal :   -2.6539282576E+01 Ha)

 CALCULATION OF EFFECTIVE MASSES
 NOTE : Additional infos (eff. mass eigenvalues, eigenvectors and, if degenerate, average mass) are available in stdout.

 K-point ( 0.000, 0.000, 0.000) | band =    40
 Effective mass tensor:
             -4.7015817358             -0.5681344104              3.7028857924
             -0.5681344104             -4.0725441417              2.1825210318
              3.7028857924              2.1825210318            -10.1886965420
 Effective mass tensor eigenvalues:
            -12.6236772815             -3.7376795528             -2.6014655853
 Angular average effective mass 1/(<1/m>)=  -4.1030657300
 Angular average effective mass for Frohlich model (<m**0.5>)**2=  -4.5506876128
 Effective masses along directions: (cart. coord. / red. coord. -> eff. mass)
    1:   1.000000  0.000000  0.000000 /   0.899996  0.435899  0.000000 ->  -3.3417886205
    2:   0.000000  1.000000  0.000000 /   0.000000  1.000000  0.000000 ->  -3.5899324269
    3:   0.000000  0.000000  1.000000 /   0.126522  0.126522  0.983862 ->  -6.5204828743
    4:   0.577350  0.577350  0.577350 /   0.520273  0.683514  0.511981 ->  -2.6620473448
    5:   0.000000  0.707107  0.707107 /   0.094911  0.668039  0.738048 ->  -3.5408391767
    6:   0.707107  0.000000  0.707107 /   0.663661  0.364742  0.653083 ->  -2.9493561402
    7:   0.707107  0.707107  0.000000 /   0.592612  0.805488  0.000000 ->  -3.2511824599

 K-point ( 0.000, 0.000, 0.000) | band =    41
 Effective mass tensor:
              0.7041906446             -0.0445006215              0.0758029232
             -0.0445006215              0.7534616736              0.0446790624
              0.0758029232              0.0446790624              0.3605486494
 Effective mass tensor eigenvalues:
              0.3377887381              0.7007214079              0.7796908215
 Angular average effective mass 1/(<1/m>)=   0.5290920744
 Angular average effective mass for Frohlich model (<m**0.5>)**2=   0.5537248481
 Effective masses along directions: (cart. coord. / red. coord. -> eff. mass)
    1:   1.000000  0.000000  0.000000 /   0.899996  0.435899  0.000000 ->   0.6843700825
    2:   0.000000  1.000000  0.000000 /   0.000000  1.000000  0.000000 ->   0.7437048519
    3:   0.000000  0.000000  1.000000 /   0.126522  0.126522  0.983862 ->   0.3491286767
    4:   0.577350  0.577350  0.577350 /   0.520273  0.683514  0.511981 ->   0.6169487299
    5:   0.000000  0.707107  0.707107 /   0.094911  0.668039  0.738048 ->   0.5220065130
    6:   0.707107  0.000000  0.707107 /   0.663661  0.364742  0.653083 ->   0.5427464485
    7:   0.707107  0.707107  0.000000 /   0.592612  0.805488  0.000000 ->   0.6630421361

 END OF EFFECTIVE MASSES SECTION

 ---- first-order wavefunction calculations are completed ----

 Total localisation tensor (bohr^2) in cartesian coordinates
  WARNING : still subject to testing - especially symmetries.
      direction              matrix element
   alpha     beta       real part   imaginary part
     1        1       1.3598852727    0.0000000000
     1        2       0.4667436742    0.0000000000
     1        3       0.2368805186    0.0000000000
     2        1       0.4667436742    0.0000000000
     2        2       0.8431073353    0.0000000000
     2        3       0.1396199442    0.0000000000
     3        1       0.2368805186    0.0000000000
     3        2       0.1396199442    0.0000000000
     3        3       0.7179318814    0.0000000000

 respfn : d/dk was computed, but no 2DTE, so no DDB output.

== END DATASET(S) ==============================================================

 -outvars: echo values of variables after computation  --------
            acell      1.0000000000E+00  1.0000000000E+00  1.0000000000E+00 Bohr
              amu      1.37327000E+02  2.29897680E+01  1.08110000E+01
                       1.59994000E+01
             ecut      4.40000000E+01 Hartree
           etotal     -2.6539282576E+01
            fcart      0.0000000000E+00  0.0000000000E+00  0.0000000000E+00
                       0.0000000000E+00  0.0000000000E+00  0.0000000000E+00
                       0.0000000000E+00  0.0000000000E+00  0.0000000000E+00
                       0.0000000000E+00  0.0000000000E+00  0.0000000000E+00
                       0.0000000000E+00  0.0000000000E+00  0.0000000000E+00
                       0.0000000000E+00  0.0000000000E+00  0.0000000000E+00
                       0.0000000000E+00  0.0000000000E+00  0.0000000000E+00
                       0.0000000000E+00  0.0000000000E+00  0.0000000000E+00
                       0.0000000000E+00  0.0000000000E+00  0.0000000000E+00
                       0.0000000000E+00  0.0000000000E+00  0.0000000000E+00
                       0.0000000000E+00  0.0000000000E+00  0.0000000000E+00
                       0.0000000000E+00  0.0000000000E+00  0.0000000000E+00
-          fftalg         512
           irdden           1
           irdwfk           1
           istwfk        1
              ixc     -116133
           kptopt           0
P           mkmem           1
P          mkqmem           1
P          mk1mem           1
            natom          12
            nband          49
           nbdbuf           4
            ngfft          64      64      72
             nkpt           1
            nstep        2000
             nsym           4
           ntypat           4
              occ      2.000000  2.000000  2.000000  2.000000  2.000000  2.000000
                       2.000000  2.000000  2.000000  2.000000  2.000000  2.000000
                       2.000000  2.000000  2.000000  2.000000  2.000000  2.000000
                       2.000000  2.000000  2.000000  2.000000  2.000000  2.000000
                       2.000000  2.000000  2.000000  2.000000  2.000000  2.000000
                       2.000000  2.000000  2.000000  2.000000  2.000000  2.000000
                       2.000000  2.000000  2.000000  2.000000  0.000000  0.000000
                       0.000000  0.000000  0.000000  0.000000  0.000000  0.000000
                       0.000000
        optdriver           1
            prtwf          -1
            rfdir           1       1       1
           rfelfd           2
            rprim      1.0311488787E+01  0.0000000000E+00  1.4939493469E+00
                       4.9942106131E+00  9.0213447646E+00  1.4939493469E+00
                       0.0000000000E+00  0.0000000000E+00  1.1617278358E+01
          spgroup          12
           strten      0.0000000000E+00  0.0000000000E+00  0.0000000000E+00
                       0.0000000000E+00  0.0000000000E+00  0.0000000000E+00
           symrel      1  0  0   0  1  0   0  0  1      -1  0  0   0 -1  0   0  0 -1
                       0 -1  0  -1  0  0   0  0 -1       0  1  0   1  0  0   0  0  1
           tolwfr      1.00000000E-20
            typat      1  1  2  2  3  3  4  4  4  4  4  4
           useylm           1
           xangst      1.3509439739E+00  7.9626098927E-01  4.9278276182E+00
                       6.7484833103E+00  3.9776290510E+00  2.8008992052E+00
                       4.0497136421E+00  2.3869450201E+00  3.8643634117E+00
                       4.0497136421E+00  2.3869450201E+00  7.9056394517E-01
                       1.3573344220E+00  8.0002758851E-01  1.7918078502E+00
                       6.7420928622E+00  3.9738624518E+00  5.9369189732E+00
                       4.0201887494E+00  5.3895308999E-01  5.5006950496E+00
                       5.6807900272E+00  1.5177294433E+00  2.2280317738E+00
                       4.0792385348E+00  4.2349369503E+00  2.2280317738E+00
                       2.4186372570E+00  3.2561605970E+00  5.5006950496E+00
                       2.4062021559E+00  1.4182415748E+00  2.4630298427E+00
                       5.6932251283E+00  3.3556484654E+00  5.2656969807E+00
            xcart      2.5529141315E+00  1.5047152000E+00  9.3122446285E+00
                       1.2752785269E+01  7.5166295646E+00  5.2929324237E+00
                       7.6528497002E+00  4.5106723823E+00  7.3025885261E+00
                       7.6528497002E+00  4.5106723823E+00  1.4939493469E+00
                       2.5649903283E+00  1.5118330410E+00  3.3860261196E+00
                       1.2740709072E+01  7.5095117236E+00  1.1219150933E+01
                       7.5970557389E+00  1.0184737385E+00  1.0394807184E+01
                       1.0735137370E+01  2.8680929916E+00  4.2103698679E+00
                       7.7086436614E+00  8.0028710261E+00  4.2103698679E+00
                       4.5705620305E+00  6.1532517730E+00  1.0394807184E+01
                       4.5470630949E+00  2.6800881667E+00  4.6544518599E+00
                       1.0758636305E+01  6.3412565979E+00  9.9507251923E+00
             xred      1.6679500000E-01  1.6679500000E-01  7.5868700000E-01
                       8.3320500000E-01  8.3320500000E-01  2.4131300000E-01
                       5.0000000000E-01  5.0000000000E-01  5.0000000000E-01
                       5.0000000000E-01  5.0000000000E-01  0.0000000000E+00
                       1.6758400000E-01  1.6758400000E-01  2.4836300000E-01
                       8.3241600000E-01  8.3241600000E-01  7.5163700000E-01
                       6.8207700000E-01  1.1289600000E-01  7.9254000000E-01
                       8.8710400000E-01  3.1792300000E-01  2.0746000000E-01
                       3.1792300000E-01  8.8710400000E-01  2.0746000000E-01
                       1.1289600000E-01  6.8207700000E-01  7.9254000000E-01
                       2.9708300000E-01  2.9708300000E-01  3.2424100000E-01
                       7.0291700000E-01  7.0291700000E-01  6.7575900000E-01
            znucl       56.00000   11.00000    5.00000    8.00000

- Timing analysis has been suppressed with timopt=0

 Suggested references for the acknowledgment of ABINIT usage.

 Calculation completed.
.Delivered   2 WARNINGs and   5 COMMENTs to log file.