.Version 9.5.1 of ABINIT

 ABINIT is a project of the Universite Catholique de Louvain,
 Corning Inc. and other collaborators, see ~abinit/doc/developers/contributors.txt .
 acknowledgments of the ABINIT effort.

.Starting date : Wed 19 May 2021.
- ( at 03h14 )

- input  file    -> /scratch/users/j/a/jabreu/flow_simple_8atoms/flow/w482/t1/run.abi
- output file    -> /scratch/users/j/a/jabreu/flow_simple_8atoms/flow/w482/t1/run.abo
- root for input  files -> /scratch/users/j/a/jabreu/flow_simple_8atoms/flow/w482/t1/indata/in
- root for output files -> /scratch/users/j/a/jabreu/flow_simple_8atoms/flow/w482/t1/outdata/out

 Symmetries : space group Cm (#  8); Bravais mC (1-face-center monocl.)
     intxc =       0      iscf =       7    lmnmax =      18     lnmax =       6
     mgfft =      80  mpssoang =       3    mqgrid =    3001     natom =       8
  nloc_mem =       1    nspden =       1   nspinor =       1    nsppol =       1
      nsym =       2    n1xccc =    2501    ntypat =       3    occopt =       1
   xclevel =       2
-    mband =          71        mffmem =           1         mkmem =           2
-   mkqmem =           2        mk1mem =           2           mpw =       16899
      nfft =      409600          nkpt =           2
  Rough estimation (10% accuracy) of disk space for files :

------------- Echo of variables that govern the present computation ------------
-
- outvars: echo of selected default values
-   iomode0 =  0 , fftalg0 =512 , wfoptalg0 =  0
-
- outvars: echo of global parameters not present in the input file
-  max_nthreads =    0
-
 -outvars: echo values of preprocessed input variables --------
            acell      1.0000000000E+00  1.0000000000E+00  1.0000000000E+00 Bohr
              amu      8.89058500E+01  1.07868200E+02  7.89600000E+01
             ecut      4.30000000E+01 Hartree
-          fftalg         512
           irdden           1
           irdwfk           1
           istwfk        1    1
              ixc     -116133
              kpt      5.00000000E-01  0.00000000E+00  5.00000000E-01
                       0.00000000E+00  0.00000000E+00  0.00000000E+00
           kptopt           0
P           mkmem           2
P          mkqmem           2
P          mk1mem           2
            natom           8
            nband          71
           nbdbuf           4
            ngfft          80      80      64
             nkpt           2
            nstep        2000
             nsym           2
           ntypat           3
              occ      2.000000  2.000000  2.000000  2.000000  2.000000  2.000000
                       2.000000  2.000000  2.000000  2.000000  2.000000  2.000000
                       2.000000  2.000000  2.000000  2.000000  2.000000  2.000000
                       2.000000  2.000000  2.000000  2.000000  2.000000  2.000000
                       2.000000  2.000000  2.000000  2.000000  2.000000  2.000000
                       2.000000  2.000000  2.000000  2.000000  2.000000  2.000000
                       2.000000  2.000000  2.000000  2.000000  2.000000  2.000000
                       2.000000  2.000000  2.000000  2.000000  2.000000  2.000000
                       2.000000  2.000000  2.000000  2.000000  2.000000  2.000000
                       2.000000  2.000000  2.000000  2.000000  2.000000  2.000000
                       2.000000  2.000000  0.000000  0.000000  0.000000  0.000000
                       0.000000  0.000000  0.000000  0.000000  0.000000
        optdriver           1
            prtwf          -1
            rfdir           1       1       1
           rfelfd           2
            rprim      1.2391136552E+01  0.0000000000E+00  5.3326449749E+00
                       8.0613656651E+00  9.4103479564E+00  5.3326449749E+00
                       0.0000000000E+00  0.0000000000E+00  1.0781745987E+01
          spgroup           8
           symrel      1  0  0   0  1  0   0  0  1       0  1  0   1  0  0   0  0  1
           tolwfr      1.00000000E-20
            typat      1  1  2  2  3  3  3  3
           useylm           1
              wtk        0.50000    0.50000
           xangst      1.0766815849E+01  4.9538918245E+00  5.9416991142E+00
                       2.6039375655E+00  1.1980909860E+00  3.1417557438E+00
                       5.6916523200E+00  2.6187714447E+00  5.2580827261E+00
                       8.3510793964E+00  3.8423935662E+00  8.1341789534E+00
                       2.5129702670E+00  1.1562362573E+00  5.9048033057E+00
                       8.1924467142E+00  3.7694054926E+00  5.5037951716E+00
                       1.7652309790E-02  8.1219586531E-03  3.0729199046E+00
                       5.1656762616E+00  2.3767659593E+00  8.3957283538E+00
            xcart      2.0346333278E+01  9.3614988402E+00  1.1228184090E+01
                       4.9207288659E+00  2.2640638459E+00  5.9370579321E+00
                       1.0755664128E+01  4.9487608351E+00  9.9363363365E+00
                       1.5781252973E+01  7.2610715349E+00  1.5371370538E+01
                       4.7488255848E+00  2.1849698713E+00  1.1158461116E+01
                       1.5481480648E+01  7.1231440649E+00  1.0400665566E+01
                       3.3358031116E-02  1.5348277517E-02  5.8069770480E+00
                       9.7617134256E+00  4.4914367451E+00  1.5865627275E+01
             xred      9.9480900000E-01  9.9480900000E-01  5.7343000000E-02
                       2.4059300000E-01  2.4059300000E-01  3.1266400000E-01
                       5.2588500000E-01  5.2588500000E-01  4.0138400000E-01
                       7.7160500000E-01  7.7160500000E-01  6.6241400000E-01
                       2.3218800000E-01  2.3218800000E-01  8.0526000000E-01
                       7.5694800000E-01  7.5694800000E-01  2.1588300000E-01
                       1.6310000000E-03  1.6310000000E-03  5.3698000000E-01
                       4.7728700000E-01  4.7728700000E-01  9.9939500000E-01
            znucl       39.00000   47.00000   34.00000

 chkinp: Checking input parameters for consistency.

== DATASET  1 ==================================================================
-   mpi_nproc: 1, omp_nthreads: -1 (-1 if OMP is not activated)

--- !DatasetInfo
iteration_state: {dtset: 1, }
dimensions: {natom: 8, nkpt: 2, mband: 71, nsppol: 1, nspinor: 1, nspden: 1, mpw: 16899, }
cutoff_energies: {ecut:  43.0, pawecutdg:  -1.0, }
electrons: {nelect:   1.24000000E+02, charge:   0.00000000E+00, occopt:   1.00000000E+00, tsmear:   1.00000000E-02, }
meta: {optdriver: 1, rfelfd: 2, }
...

 Real(R)+Recip(G) space primitive vectors, cartesian coordinates (Bohr,Bohr^-1):
 R(1)= 12.3911366  0.0000000  5.3326450  G(1)=  0.0807028 -0.0691340  0.0000000
 R(2)=  8.0613657  9.4103480  5.3326450  G(2)=  0.0000000  0.1062660  0.0000000
 R(3)=  0.0000000  0.0000000 10.7817460  G(3)= -0.0399156 -0.0183655  0.0927494
 Unit cell volume ucvol=  1.2572045E+03 bohr^3
 Angles (23,13,12)=  6.67149074E+01  6.67149074E+01  4.51560076E+01 degrees

 getcut: wavevector=  0.0000  0.0000  0.0000  ngfft=  80  80  64
         ecut(hartree)=     43.000   => boxcut(ratio)=   2.00926

--- Pseudopotential description ------------------------------------------------
- pspini: atom type   1  psp file is /scratch/users/j/a/jabreu/pseudos/PBEsol/Y.psp8
- pspatm: opening atomic psp file    /scratch/users/j/a/jabreu/pseudos/PBEsol/Y.psp8
- Y     ONCVPSP-3.3.0  r_core=   1.60520   1.51226   1.56736
- 39.00000  11.00000    180112                znucl, zion, pspdat
    8 -116133    2    4       600   0.00000   pspcod,pspxc,lmax,lloc,mmax,r2well
    5.99000000000000    4.00000000000000    0.00000000000000   rchrg,fchrg,qchrg
     nproj     2     2     2
     extension_switch     1
  pspatm : epsatm=   18.54790046
         --- l  ekb(1:nproj) -->
             0   10.130768    0.866504
             1    5.598307    0.427135
             2    1.217602    0.315447
 pspatm: atomic psp has been read  and splines computed

- pspini: atom type   2  psp file is /scratch/users/j/a/jabreu/pseudos/PBEsol/Ag.psp8
- pspatm: opening atomic psp file    /scratch/users/j/a/jabreu/pseudos/PBEsol/Ag.psp8
- Ag    ONCVPSP-3.3.0  r_core=   1.41384   1.46535   1.61207
- 47.00000  19.00000    180112                znucl, zion, pspdat
    8 -116133    2    4       600   0.00000   pspcod,pspxc,lmax,lloc,mmax,r2well
    5.99000000000000    7.00000000000000    0.00000000000000   rchrg,fchrg,qchrg
     nproj     2     2     2
     extension_switch     1
  pspatm : epsatm=   27.64581383
         --- l  ekb(1:nproj) -->
             0    9.559407   -0.398585
             1    3.418858   -0.136622
             2   -1.644397   -0.401551
 pspatm: atomic psp has been read  and splines computed

- pspini: atom type   3  psp file is /scratch/users/j/a/jabreu/pseudos/PBEsol/Se.psp8
- pspatm: opening atomic psp file    /scratch/users/j/a/jabreu/pseudos/PBEsol/Se.psp8
- Se    ONCVPSP-3.3.0  r_core=   1.81943   1.50330   1.90835
- 34.00000  16.00000    180112                znucl, zion, pspdat
    8 -116133    2    4       600   0.00000   pspcod,pspxc,lmax,lloc,mmax,r2well
    5.99000000000000    5.00000000000000    0.00000000000000   rchrg,fchrg,qchrg
     nproj     2     2     2
     extension_switch     1
  pspatm : epsatm=   29.17862020
         --- l  ekb(1:nproj) -->
             0    8.973804    1.019550
             1    6.849857    1.297308
             2   -9.203962   -3.731027
 pspatm: atomic psp has been read  and splines computed

   2.59286368E+04                                ecore*ucvol(ha*bohr**3)

-inwffil : will read wavefunctions from disk file /scratch/users/j/a/jabreu/flow_simple_8atoms/flow/w482/t1/indata/in_WFK

 ==>  initialize data related to q vector <==

 The list of irreducible perturbations for this q vector is:
    1)    idir= 1    ipert=   9
    2)    idir= 2    ipert=   9
    3)    idir= 3    ipert=   9

 Perturbation wavevector (in red.coord.)   0.000000  0.000000  0.000000
 Perturbation : derivative vs k along direction   1

 dfpt_looppert : COMMENT -
  In a d/dk calculation, iscf is set to -3 automatically.
 The set of symmetries contains only one element for this perturbation.
 symkpt : not enough symmetry to change the number of k points.

[...]

 Initialisation of the first-order wave-functions :
  ireadwf=   0

--- !BeginCycle
iteration_state: {dtset: 1, }
solver: {iscf: 7, nstep: 2000, nline: 4, wfoptalg: 0, }
tolerances: {tolwfr: 1.00E-20, }
...

     iter   2DEtotal(Ha)        deltaE(Ha) residm    vres2
-ETOT  1  -103.96179248976     -1.040E+02 3.879E-01 0.000E+00
 ETOT  2  -104.29818069377     -3.364E-01 8.063E-02 0.000E+00
 ETOT  3  -104.30862860881     -1.045E-02 1.641E-02 0.000E+00
 ETOT  4  -104.30914562531     -5.170E-04 4.654E-03 0.000E+00
 ETOT  5  -104.30917470135     -2.908E-05 1.300E-03 0.000E+00
 ETOT  6  -104.30917647083     -1.769E-06 4.499E-04 0.000E+00
 ETOT  7  -104.30917658588     -1.151E-07 1.367E-04 0.000E+00
 ETOT  8  -104.30917659371     -7.825E-09 5.113E-05 0.000E+00
 ETOT  9  -104.30917659426     -5.523E-10 1.566E-05 0.000E+00
 ETOT 10  -104.30917659430     -4.010E-11 6.087E-06 0.000E+00
 ETOT 11  -104.30917659431     -2.913E-12 1.855E-06 0.000E+00
[...]

 At SCF step   43   max residual=  1.00E-20 < tolwfr=  1.00E-20 =>converged.

 ----iterations are completed or convergence reached----

 dfpt_looppert: DFPT cycle converged with prtwf=-1. Will skip output of the 1st-order WFK file.
 dfpt_looppert : ek2=    1.1056051505E+02
          f-sum rule ratio=    1.0602618723E+00
 prteigrs : about to open file /scratch/users/j/a/jabreu/flow_simple_8atoms/flow/w482/t1/tmpdata/tmp_1WF1_EIG
 Expectation of eigenvalue derivatives (hartree) for nkpt=   2  k points:
  (in case of degenerate eigenvalues, averaged derivative)
 kpt#   1, nband= 71, wtk=  0.50000, kpt=  0.5000  0.0000  0.5000 (reduced coord)
  -0.00000   -0.00000   -0.00000   -0.00000   -0.00000   -0.00000    0.00000    0.00000
  -0.00000   -0.00000   -0.00000    0.00000    0.00000    0.00000    0.00000   -0.00000
  -0.00000   -0.00000   -0.00000    0.00000    0.00000   -0.00000    0.00000    0.00000
   0.00000   -0.00000   -0.00000    0.00000    0.00000   -0.00000   -0.00000   -0.00000
  -0.00000   -0.00000    0.00000    0.00000   -0.00000    0.00000    0.00000    0.00000
  -0.00000   -0.00000   -0.00000    0.00000    0.00000    0.00000   -0.00000    0.00000
  -0.00000   -0.00000   -0.00000   -0.00000   -0.00000   -0.00000   -0.00000   -0.00000
   0.00000    0.00000   -0.00000    0.00000    0.00000   -0.00000   -0.00000   -0.00000
   0.00000    0.00000   -0.00000    0.00000    0.00000   -0.00000   -0.00959
 prteigrs : prtvol=0 or 1, do not print more k-points.

 Eight components of 2nd-order total energy (hartree) are
 1,2,3: 0th-order hamiltonian combined with 1st-order wavefunctions
     kin0=   1.43414292E+02 eigvalue=   8.25104674E+00  local=  -6.99962444E+01
 4,5,6: 1st-order hamiltonian combined with 1st and 0th-order wfs
     kin1=  -1.17223099E+02  Hartree=   0.00000000E+00     xc=   0.00000000E+00
 7,8,9: eventually, occupation + non-local contributions
    edocc=   1.15624804E+01     enl0=   1.10776022E+01   enl1=  -9.13952545E+01
 1-9 gives the relaxation energy (to be shifted if some occ is /=2.0)
   erelax=  -1.04309177E+02
  No Ewald or frozen-wf contrib.: the relaxation energy is the total one
 2DEtotal=   -0.1043091766E+03 Ha. Also 2DEtotal=   -0.283839704443E+04 eV
    (  non-var. 2DEtotal :   -1.0430917659E+02 Ha)

 Perturbation wavevector (in red.coord.)   0.000000  0.000000  0.000000
 Perturbation : derivative vs k along direction   2
 The set of symmetries contains only one element for this perturbation.
 symkpt : not enough symmetry to change the number of k points.

[...]

 Perturbation wavevector (in red.coord.)   0.000000  0.000000  0.000000
 Perturbation : derivative vs k along direction   3
 The set of symmetries contains only one element for this perturbation.
 symkpt : not enough symmetry to change the number of k points.

-inwffil : will read wavefunctions from disk file /scratch/users/j/a/jabreu/flow_simple_8atoms/flow/w482/t1/indata/in_WFK

 Initialisation of the first-order wave-functions :
  ireadwf=   0

--- !BeginCycle
iteration_state: {dtset: 1, }
solver: {iscf: 7, nstep: 2000, nline: 4, wfoptalg: 0, }
tolerances: {tolwfr: 1.00E-20, }
...

     iter   2DEtotal(Ha)        deltaE(Ha) residm    vres2
-ETOT  1  -98.554422586951     -9.855E+01 1.209E-01 0.000E+00
 ETOT  2  -98.826970926583     -2.725E-01 3.343E-02 0.000E+00
 ETOT  3  -98.835050238323     -8.079E-03 4.266E-03 0.000E+00
 ETOT  4  -98.835451079781     -4.008E-04 1.677E-03 0.000E+00
 ETOT  5  -98.835473580009     -2.250E-05 2.328E-04 0.000E+00
 ETOT  6  -98.835474945307     -1.365E-06 1.099E-04 0.000E+00
 ETOT  7  -98.835475033581     -8.827E-08 2.070E-05 0.000E+00
 ETOT  8  -98.835475039569     -5.989E-09 7.687E-06 0.000E+00
 ETOT  9  -98.835475039993     -4.234E-10 1.922E-06 0.000E+00
 ETOT 10  -98.835475040024     -3.085E-11 5.533E-07 0.000E+00
 ETOT 11  -98.835475040026     -2.359E-12 1.807E-07 0.000E+00
 ETOT 12  -98.835475040026     -4.263E-14 5.010E-08 0.000E+00
 ETOT 13  -98.835475040026     -5.684E-14 1.709E-08 0.000E+00
 ETOT 14  -98.835475040026     -4.263E-14 4.703E-09 0.000E+00
 ETOT 15  -98.835475040026     -1.421E-14 1.624E-09 0.000E+00
 ETOT 16  -98.835475040026      0.000E+00 4.437E-10 0.000E+00
 ETOT 17  -98.835475040026     -2.842E-14 1.547E-10 0.000E+00
 ETOT 18  -98.835475040026      5.684E-14 4.203E-11 0.000E+00
 ETOT 19  -98.835475040026     -2.842E-14 1.477E-11 0.000E+00
 ETOT 20  -98.835475040026      0.000E+00 3.995E-12 0.000E+00
 ETOT 21  -98.835475040026      4.263E-14 1.411E-12 0.000E+00
 ETOT 22  -98.835475040026     -4.263E-14 3.805E-13 0.000E+00
 ETOT 23  -98.835475040026      2.842E-14 1.350E-13 0.000E+00
 ETOT 24  -98.835475040026     -1.421E-14 3.632E-14 0.000E+00
 ETOT 25  -98.835475040026      1.421E-14 1.292E-14 0.000E+00
 ETOT 26  -98.835475040026      0.000E+00 3.471E-15 0.000E+00
 ETOT 27  -98.835475040026      0.000E+00 1.239E-15 0.000E+00
 ETOT 28  -98.835475040026      0.000E+00 3.321E-16 0.000E+00
 ETOT 29  -98.835475040026      0.000E+00 1.188E-16 0.000E+00
 ETOT 30  -98.835475040026      0.000E+00 3.180E-17 0.000E+00
 ETOT 31  -98.835475040026     -1.421E-14 1.140E-17 0.000E+00
 ETOT 32  -98.835475040026      1.421E-14 3.048E-18 0.000E+00
 ETOT 33  -98.835475040026     -1.421E-14 1.095E-18 0.000E+00
 ETOT 34  -98.835475040026      1.421E-14 2.923E-19 0.000E+00
 ETOT 35  -98.835475040026     -1.421E-14 1.053E-19 0.000E+00
 ETOT 36  -98.835475040026      1.421E-14 2.805E-20 0.000E+00
 ETOT 37  -98.835475040026     -1.421E-14 9.954E-21 0.000E+00

 At SCF step   37   max residual=  9.95E-21 < tolwfr=  1.00E-20 =>converged.

 ----iterations are completed or convergence reached----

 dfpt_looppert: DFPT cycle converged with prtwf=-1. Will skip output of the 1st-order WFK file.
 dfpt_looppert : ek2=    1.0312475794E+02
          f-sum rule ratio=    1.0896797006E+00
 prteigrs : about to open file /scratch/users/j/a/jabreu/flow_simple_8atoms/flow/w482/t1/tmpdata/tmp_1WF1_EIG
 Expectation of eigenvalue derivatives (hartree) for nkpt=   2  k points:
  (in case of degenerate eigenvalues, averaged derivative)
 kpt#   1, nband= 71, wtk=  0.50000, kpt=  0.5000  0.0000  0.5000 (reduced coord)
  -0.00000    0.00000    0.00000    0.00000   -0.00000    0.00000    0.00000   -0.00000
  -0.00000   -0.00000    0.00000   -0.00000    0.00000   -0.00000   -0.00000   -0.00000
   0.00000    0.00000    0.00000    0.00000    0.00000    0.00000   -0.00000    0.00000
   0.00000   -0.00000    0.00000    0.00000    0.00000    0.00000    0.00000    0.00000
  -0.00000   -0.00000   -0.00000    0.00000    0.00000    0.00000   -0.00000    0.00000
  -0.00000   -0.00000    0.00000   -0.00000   -0.00000    0.00000    0.00000   -0.00000
   0.00000    0.00000   -0.00000    0.00000   -0.00000    0.00000   -0.00000   -0.00000
  -0.00000   -0.00000    0.00000    0.00000   -0.00000    0.00000    0.00000    0.00000
   0.00000   -0.00000   -0.00000    0.00000   -0.00000    0.00000   -0.00493
 prteigrs : prtvol=0 or 1, do not print more k-points.

 Eight components of 2nd-order total energy (hartree) are
 1,2,3: 0th-order hamiltonian combined with 1st-order wavefunctions
     kin0=   1.28081167E+02 eigvalue=   8.21239226E+00  local=  -6.06316445E+01
 4,5,6: 1st-order hamiltonian combined with 1st and 0th-order wfs
     kin1=  -1.12372955E+02  Hartree=   0.00000000E+00     xc=   0.00000000E+00
 7,8,9: eventually, occupation + non-local contributions
    edocc=   1.32173868E+01     enl0=   9.95617361E+00   enl1=  -8.52979947E+01
 1-9 gives the relaxation energy (to be shifted if some occ is /=2.0)
   erelax=  -9.88354750E+01
  No Ewald or frozen-wf contrib.: the relaxation energy is the total one
 2DEtotal=   -0.9883547504E+02 Ha. Also 2DEtotal=   -0.268945005030E+04 eV
    (  non-var. 2DEtotal :   -9.8835475039E+01 Ha)

 CALCULATION OF EFFECTIVE MASSES
 NOTE : Additional infos (eff. mass eigenvalues, eigenvectors and, if degenerate, average mass) are available in stdout.

 K-point ( 0.500, 0.000, 0.500) | band =    62
 Effective mass tensor:
             -1.7328985119             -0.6961012249              0.0236714177
             -0.6961012249             -0.7919049120             -0.0438719811
              0.0236714177             -0.0438719811             -0.3018241539
 Effective mass tensor eigenvalues:
             -2.1025946984             -0.4401707590             -0.2838621204
 Angular average effective mass 1/(<1/m>)=  -0.4784471139
 Angular average effective mass for Frohlich model (<m**0.5>)**2=  -0.5566129317
 Effective masses along directions: (cart. coord. / red. coord. -> eff. mass)
    1:   1.000000  0.000000  0.000000 /   0.838223  0.545327  0.000000 ->  -1.1080736209
    2:   0.000000  1.000000  0.000000 /   0.000000  1.000000  0.000000 ->  -0.5028316381
    3:   0.000000  0.000000  1.000000 /   0.405293  0.405293  0.819436 ->  -0.2959384383
    4:   0.577350  0.577350  0.577350 /   0.574909  0.739709  0.349729 ->  -0.6922157777
    5:   0.000000  0.707107  0.707107 /   0.280263  0.774833  0.566645 ->  -0.4288526656
    6:   0.707107  0.000000  0.707107 /   0.717746  0.542406  0.436620 ->  -0.4294845270
    7:   0.707107  0.707107  0.000000 /   0.578494  0.815687  0.000000 ->  -1.5578232053

 K-point ( 0.000, 0.000, 0.000) | band =    63
 Effective mass tensor:
              0.1423336206             -0.0446579867              0.0126694292
             -0.0446579867              0.2188460630              0.0058292995
              0.0126694292              0.0058292995              0.2418794606
 Effective mass tensor eigenvalues:
              0.1201878862              0.2393935341              0.2434777239
 Angular average effective mass 1/(<1/m>)=   0.1806719524
 Angular average effective mass for Frohlich model (<m**0.5>)**2=   0.1872199514
 Effective masses along directions: (cart. coord. / red. coord. -> eff. mass)
    1:   1.000000  0.000000  0.000000 /   0.838223  0.545327  0.000000 ->   0.1324260722
    2:   0.000000  1.000000  0.000000 /   0.000000  1.000000  0.000000 ->   0.2044350886
    3:   0.000000  0.000000  1.000000 /   0.405293  0.405293  0.819436 ->   0.2402824385
    4:   0.577350  0.577350  0.577350 /   0.574909  0.739709  0.349729 ->   0.1626428123
    5:   0.000000  0.707107  0.707107 /   0.280263  0.774833  0.566645 ->   0.2310832189
    6:   0.707107  0.000000  0.707107 /   0.717746  0.542406  0.436620 ->   0.1843784732
    7:   0.707107  0.707107  0.000000 /   0.578494  0.815687  0.000000 ->   0.1286350319

 END OF EFFECTIVE MASSES SECTION

 ---- first-order wavefunction calculations are completed ----

 Total localisation tensor (bohr^2) in cartesian coordinates
  WARNING : still subject to testing - especially symmetries.
      direction              matrix element
   alpha     beta       real part   imaginary part
     1        1       2.9536936871    0.0000000000
     1        2       1.0207352022    0.0000000000
     1        3       1.4732680008    0.0000000000
     2        1       1.0207352022    0.0000000000
     2        2       1.1915441903    0.0000000000
     2        3       0.6752228683    0.0000000000
     3        1       1.4732680008    0.0000000000
     3        2       0.6752228683    0.0000000000
     3        3       2.3899959278    0.0000000000

 respfn : d/dk was computed, but no 2DTE, so no DDB output.

== END DATASET(S) ==============================================================

 -outvars: echo values of variables after computation  --------
            acell      1.0000000000E+00  1.0000000000E+00  1.0000000000E+00 Bohr
              amu      8.89058500E+01  1.07868200E+02  7.89600000E+01
             ecut      4.30000000E+01 Hartree
           etotal     -9.8835475040E+01
            fcart      0.0000000000E+00  0.0000000000E+00  0.0000000000E+00
                       0.0000000000E+00  0.0000000000E+00  0.0000000000E+00
                       0.0000000000E+00  0.0000000000E+00  0.0000000000E+00
                       0.0000000000E+00  0.0000000000E+00  0.0000000000E+00
                       0.0000000000E+00  0.0000000000E+00  0.0000000000E+00
                       0.0000000000E+00  0.0000000000E+00  0.0000000000E+00
                       0.0000000000E+00  0.0000000000E+00  0.0000000000E+00
                       0.0000000000E+00  0.0000000000E+00  0.0000000000E+00
-          fftalg         512
           irdden           1
           irdwfk           1
           istwfk        1    1
              ixc     -116133
              kpt      5.00000000E-01  0.00000000E+00  5.00000000E-01
                       0.00000000E+00  0.00000000E+00  0.00000000E+00
           kptopt           0
P           mkmem           2
P          mkqmem           2
P          mk1mem           2
            natom           8
            nband          71
           nbdbuf           4
            ngfft          80      80      64
             nkpt           2
            nstep        2000
             nsym           2
           ntypat           3
              occ      2.000000  2.000000  2.000000  2.000000  2.000000  2.000000
                       2.000000  2.000000  2.000000  2.000000  2.000000  2.000000
                       2.000000  2.000000  2.000000  2.000000  2.000000  2.000000
                       2.000000  2.000000  2.000000  2.000000  2.000000  2.000000
                       2.000000  2.000000  2.000000  2.000000  2.000000  2.000000
                       2.000000  2.000000  2.000000  2.000000  2.000000  2.000000
                       2.000000  2.000000  2.000000  2.000000  2.000000  2.000000
                       2.000000  2.000000  2.000000  2.000000  2.000000  2.000000
                       2.000000  2.000000  2.000000  2.000000  2.000000  2.000000
                       2.000000  2.000000  2.000000  2.000000  2.000000  2.000000
                       2.000000  2.000000  0.000000  0.000000  0.000000  0.000000
                       0.000000  0.000000  0.000000  0.000000  0.000000
        optdriver           1
            prtwf          -1
            rfdir           1       1       1
           rfelfd           2
            rprim      1.2391136552E+01  0.0000000000E+00  5.3326449749E+00
                       8.0613656651E+00  9.4103479564E+00  5.3326449749E+00
                       0.0000000000E+00  0.0000000000E+00  1.0781745987E+01
          spgroup           8
           strten      0.0000000000E+00  0.0000000000E+00  0.0000000000E+00
                       0.0000000000E+00  0.0000000000E+00  0.0000000000E+00
           symrel      1  0  0   0  1  0   0  0  1       0  1  0   1  0  0   0  0  1
           tolwfr      1.00000000E-20
            typat      1  1  2  2  3  3  3  3
           useylm           1
              wtk        0.50000    0.50000
           xangst      1.0766815849E+01  4.9538918245E+00  5.9416991142E+00
                       2.6039375655E+00  1.1980909860E+00  3.1417557438E+00
                       5.6916523200E+00  2.6187714447E+00  5.2580827261E+00
                       8.3510793964E+00  3.8423935662E+00  8.1341789534E+00
                       2.5129702670E+00  1.1562362573E+00  5.9048033057E+00
                       8.1924467142E+00  3.7694054926E+00  5.5037951716E+00
                       1.7652309790E-02  8.1219586531E-03  3.0729199046E+00
                       5.1656762616E+00  2.3767659593E+00  8.3957283538E+00
            xcart      2.0346333278E+01  9.3614988402E+00  1.1228184090E+01
                       4.9207288659E+00  2.2640638459E+00  5.9370579321E+00
                       1.0755664128E+01  4.9487608351E+00  9.9363363365E+00
                       1.5781252973E+01  7.2610715349E+00  1.5371370538E+01
                       4.7488255848E+00  2.1849698713E+00  1.1158461116E+01
                       1.5481480648E+01  7.1231440649E+00  1.0400665566E+01
                       3.3358031116E-02  1.5348277517E-02  5.8069770480E+00
                       9.7617134256E+00  4.4914367451E+00  1.5865627275E+01
             xred      9.9480900000E-01  9.9480900000E-01  5.7343000000E-02
                       2.4059300000E-01  2.4059300000E-01  3.1266400000E-01
                       5.2588500000E-01  5.2588500000E-01  4.0138400000E-01
                       7.7160500000E-01  7.7160500000E-01  6.6241400000E-01
                       2.3218800000E-01  2.3218800000E-01  8.0526000000E-01
                       7.5694800000E-01  7.5694800000E-01  2.1588300000E-01
                       1.6310000000E-03  1.6310000000E-03  5.3698000000E-01
                       4.7728700000E-01  4.7728700000E-01  9.9939500000E-01
            znucl       39.00000   47.00000   34.00000

- Timing analysis has been suppressed with timopt=0

 Suggested references for the acknowledgment of ABINIT usage.

 Calculation completed.
.Delivered  14 WARNINGs and  11 COMMENTs to log file.