.Version 9.5.1 of ABINIT

 ABINIT is a project of the Universite Catholique de Louvain,
 Corning Inc. and other collaborators, see ~abinit/doc/developers/contributors.txt .
 acknowledgments of the ABINIT effort.

.Starting date : Wed  5 May 2021.
- ( at 19h47 )

- input  file    -> /scratch/users/j/a/jabreu/flow_simple_7atoms/flow/w140/t1/run.abi
- output file    -> /scratch/users/j/a/jabreu/flow_simple_7atoms/flow/w140/t1/run.abo
- root for input  files -> /scratch/users/j/a/jabreu/flow_simple_7atoms/flow/w140/t1/indata/in
- root for output files -> /scratch/users/j/a/jabreu/flow_simple_7atoms/flow/w140/t1/outdata/out

 Symmetries : space group P-6 m 2 (#187); Bravais hP (primitive hexag.)
     intxc =       0      iscf =       7    lmnmax =      18     lnmax =       6
     mgfft =      60  mpssoang =       3    mqgrid =    3001     natom =       7
  nloc_mem =       1    nspden =       1   nspinor =       1    nsppol =       1
      nsym =      12    n1xccc =    2501    ntypat =       5    occopt =       1
   xclevel =       2
-    mband =          33        mffmem =           1         mkmem =           2
-   mkqmem =           2        mk1mem =           2           mpw =        9326
      nfft =      194400          nkpt =           2
  Rough estimation (10% accuracy) of disk space for files :

------------- Echo of variables that govern the present computation ------------
-
- outvars: echo of selected default values
-   iomode0 =  0 , fftalg0 =512 , wfoptalg0 =  0
-
- outvars: echo of global parameters not present in the input file
-  max_nthreads =    0
-
 -outvars: echo values of preprocessed input variables --------
            acell      1.0000000000E+00  1.0000000000E+00  1.0000000000E+00 Bohr
              amu      3.90983000E+01  4.00780000E+01  1.20110000E+01
                       1.59994000E+01  1.89984032E+01
             ecut      4.40000000E+01 Hartree
-          fftalg         512
           irdden           1
           irdwfk           1
           istwfk        1    1
              ixc     -116133
              kpt      0.00000000E+00  0.00000000E+00  5.00000000E-01
                       0.00000000E+00  0.00000000E+00  0.00000000E+00
           kptopt           0
P           mkmem           2
P          mkqmem           2
P          mk1mem           2
            natom           7
            nband          33
           nbdbuf           4
            ngfft          60      60      54
             nkpt           2
            nstep        2000
             nsym          12
           ntypat           5
              occ      2.000000  2.000000  2.000000  2.000000  2.000000  2.000000
                       2.000000  2.000000  2.000000  2.000000  2.000000  2.000000
                       2.000000  2.000000  2.000000  2.000000  2.000000  2.000000
                       2.000000  2.000000  2.000000  2.000000  2.000000  2.000000
                       0.000000  0.000000  0.000000  0.000000  0.000000  0.000000
                       0.000000  0.000000  0.000000
        optdriver           1
            prtwf          -1
            rfdir           1       1       1
           rfelfd           2
            rprim      9.5785479903E+00  0.0000000000E+00  0.0000000000E+00
                      -4.7892739951E+00  8.2952658910E+00  0.0000000000E+00
                       0.0000000000E+00  0.0000000000E+00  8.3729661420E+00
          spgroup         187
           symrel      1  0  0   0  1  0   0  0  1       0 -1  0  -1  0  0   0  0 -1
                      -1 -1  0   1  0  0   0  0 -1      -1  0  0   1  1  0   0  0  1
                       0  1  0  -1 -1  0   0  0  1       1  1  0   0 -1  0   0  0 -1
                       1  0  0   0  1  0   0  0 -1       0 -1  0  -1  0  0   0  0  1
                      -1 -1  0   1  0  0   0  0  1      -1  0  0   1  1  0   0  0 -1
                       0  1  0  -1 -1  0   0  0 -1       1  1  0   0 -1  0   0  0  1
           tolwfr      1.00000000E-20
            typat      1  2  3  4  4  4  5
           useylm           1
              wtk        0.50000    0.50000
           xangst      0.0000000000E+00  0.0000000000E+00  0.0000000000E+00
                       2.5343746439E+00  1.4632218829E+00  2.2153914253E+00
                       1.7638771742E-11  2.9264437658E+00  2.2153914253E+00
                       9.8713718246E-12  1.6377140189E+00  2.2153914253E+00
                      -1.1160726994E+00  3.5708086393E+00  2.2153914253E+00
                       1.1160726995E+00  3.5708086393E+00  2.2153914253E+00
                       2.5343746439E+00  1.4632218829E+00  0.0000000000E+00
            xcart      0.0000000000E+00  0.0000000000E+00  0.0000000000E+00
                       4.7892739952E+00  2.7650886303E+00  4.1864830710E+00
                       3.3332447913E-11  5.5301772607E+00  4.1864830710E+00
                       1.8654189304E-11  3.0948309797E+00  4.1864830710E+00
                      -2.1090717463E+00  6.7478504012E+00  4.1864830710E+00
                       2.1090717464E+00  6.7478504012E+00  4.1864830710E+00
                       4.7892739952E+00  2.7650886303E+00  0.0000000000E+00
             xred      0.0000000000E+00  0.0000000000E+00  0.0000000000E+00
                       6.6666666667E-01  3.3333333333E-01  5.0000000000E-01
                       3.3333333333E-01  6.6666666667E-01  5.0000000000E-01
                       1.8654200000E-01  3.7308400000E-01  5.0000000000E-01
                       1.8654200000E-01  8.1345800000E-01  5.0000000000E-01
                       6.2691600000E-01  8.1345800000E-01  5.0000000000E-01
                       6.6666666667E-01  3.3333333333E-01  0.0000000000E+00
            znucl       19.00000   20.00000    6.00000    8.00000    9.00000

 chkinp: Checking input parameters for consistency.

== DATASET  1 ==================================================================
-   mpi_nproc: 1, omp_nthreads: -1 (-1 if OMP is not activated)

--- !DatasetInfo
iteration_state: {dtset: 1, }
dimensions: {natom: 7, nkpt: 2, mband: 33, nsppol: 1, nspinor: 1, nspden: 1, mpw: 9326, }
cutoff_energies: {ecut:  44.0, pawecutdg:  -1.0, }
electrons: {nelect:   4.80000000E+01, charge:   0.00000000E+00, occopt:   1.00000000E+00, tsmear:   1.00000000E-02, }
meta: {optdriver: 1, rfelfd: 2, }
...

 Real(R)+Recip(G) space primitive vectors, cartesian coordinates (Bohr,Bohr^-1):
 R(1)=  9.5785480  0.0000000  0.0000000  G(1)=  0.1044000  0.0602753  0.0000000
 R(2)= -4.7892740  8.2952659  0.0000000  G(2)=  0.0000000  0.1205507  0.0000000
 R(3)=  0.0000000  0.0000000  8.3729661  G(3)=  0.0000000  0.0000000  0.1194320
 Unit cell volume ucvol=  6.6528744E+02 bohr^3
 Angles (23,13,12)=  9.00000000E+01  9.00000000E+01  1.20000000E+02 degrees

 getcut: wavevector=  0.0000  0.0000  0.0000  ngfft=  60  60  54
         ecut(hartree)=     44.000   => boxcut(ratio)=   2.09778

--- Pseudopotential description ------------------------------------------------
- pspini: atom type   1  psp file is /scratch/users/j/a/jabreu/pseudos/PBEsol/K.psp8
- pspatm: opening atomic psp file    /scratch/users/j/a/jabreu/pseudos/PBEsol/K.psp8
- K     ONCVPSP-3.3.0  r_core=   1.36296   1.46408   1.61068
- 19.00000   9.00000    180112                znucl, zion, pspdat
    8 -116133    2    4       400   0.00000   pspcod,pspxc,lmax,lloc,mmax,r2well
    3.99000000000000    5.00000000000000    0.00000000000000   rchrg,fchrg,qchrg
     nproj     2     2     2
     extension_switch     1
  pspatm : epsatm=    8.32487830
         --- l  ekb(1:nproj) -->
             0   10.921326    0.816676
             1    4.431000    0.560368
             2   -3.384038   -1.043186
 pspatm: atomic psp has been read  and splines computed

- pspini: atom type   2  psp file is /scratch/users/j/a/jabreu/pseudos/PBEsol/Ca.psp8
- pspatm: opening atomic psp file    /scratch/users/j/a/jabreu/pseudos/PBEsol/Ca.psp8
- Ca    ONCVPSP-3.3.0  r_core=   1.45885   1.45885   1.85192
- 20.00000  10.00000    180112                znucl, zion, pspdat
    8 -116133    2    4       400   0.00000   pspcod,pspxc,lmax,lloc,mmax,r2well
    3.99000000000000    6.00000000000000    0.00000000000000   rchrg,fchrg,qchrg
     nproj     2     2     2
     extension_switch     1
  pspatm : epsatm=   12.46045226
         --- l  ekb(1:nproj) -->
             0   10.054847    0.973777
             1    2.998958    0.458102
             2   -3.447298   -1.091650
 pspatm: atomic psp has been read  and splines computed

[...]

- pspini: atom type   5  psp file is /scratch/users/j/a/jabreu/pseudos/PBEsol/F.psp8
- pspatm: opening atomic psp file    /scratch/users/j/a/jabreu/pseudos/PBEsol/F.psp8
- F     ONCVPSP-3.3.0  r_core=   1.30942   1.45782   1.60379
-  9.00000   7.00000    180112                znucl, zion, pspdat
    8 -116133    2    4       600   0.00000   pspcod,pspxc,lmax,lloc,mmax,r2well
    5.99000000000000    2.50000000000000    0.00000000000000   rchrg,fchrg,qchrg
     nproj     2     2     1
     extension_switch     1
  pspatm : epsatm=    4.89824824
         --- l  ekb(1:nproj) -->
             0    6.506434    1.065875
             1   -3.978753   -1.295852
             2   -2.394754
 pspatm: atomic psp has been read  and splines computed

   2.33855951E+03                                ecore*ucvol(ha*bohr**3)

-inwffil : will read wavefunctions from disk file /scratch/users/j/a/jabreu/flow_simple_7atoms/flow/w140/t1/indata/in_WFK

 ==>  initialize data related to q vector <==

 The list of irreducible perturbations for this q vector is:
    1)    idir= 1    ipert=   8
    2)    idir= 2    ipert=   8
    3)    idir= 3    ipert=   8

 Perturbation wavevector (in red.coord.)   0.000000  0.000000  0.000000
 Perturbation : derivative vs k along direction   1

 dfpt_looppert : COMMENT -
  In a d/dk calculation, iscf is set to -3 automatically.
 The set of symmetries contains only one element for this perturbation.
 symkpt : not enough symmetry to change the number of k points.

[...]

 Initialisation of the first-order wave-functions :
  ireadwf=   0

--- !BeginCycle
iteration_state: {dtset: 1, }
solver: {iscf: 7, nstep: 2000, nline: 4, wfoptalg: 0, }
tolerances: {tolwfr: 1.00E-20, }
...

     iter   2DEtotal(Ha)        deltaE(Ha) residm    vres2
-ETOT  1  -29.436586998805     -2.944E+01 5.032E-02 0.000E+00
 ETOT  2  -29.475835883956     -3.925E-02 2.517E-03 0.000E+00
 ETOT  3  -29.476070250557     -2.344E-04 9.080E-05 0.000E+00
 ETOT  4  -29.476072660939     -2.410E-06 1.597E-05 0.000E+00
 ETOT  5  -29.476072693331     -3.239E-08 2.242E-06 0.000E+00
 ETOT  6  -29.476072693832     -5.010E-10 2.114E-07 0.000E+00
 ETOT  7  -29.476072693840     -8.416E-12 8.253E-08 0.000E+00
 ETOT  8  -29.476072693840     -1.421E-13 7.193E-09 0.000E+00
 ETOT  9  -29.476072693840     -1.776E-14 3.074E-09 0.000E+00
 ETOT 10  -29.476072693840      7.105E-15 2.811E-10 0.000E+00
 ETOT 11  -29.476072693840     -1.066E-14 1.254E-10 0.000E+00
 ETOT 12  -29.476072693840      1.421E-14 1.246E-11 0.000E+00
 ETOT 13  -29.476072693840      7.105E-15 5.645E-12 0.000E+00
 ETOT 14  -29.476072693840      0.000E+00 6.013E-13 0.000E+00
 ETOT 15  -29.476072693840      0.000E+00 2.747E-13 0.000E+00
 ETOT 16  -29.476072693840      0.000E+00 3.053E-14 0.000E+00
 ETOT 17  -29.476072693840      0.000E+00 1.396E-14 0.000E+00
 ETOT 18  -29.476072693840      7.105E-15 1.585E-15 0.000E+00
 ETOT 19  -29.476072693840     -7.105E-15 7.229E-16 0.000E+00
 ETOT 20  -29.476072693840     -3.553E-15 8.296E-17 0.000E+00
 ETOT 21  -29.476072693840      3.553E-15 3.775E-17 0.000E+00
 ETOT 22  -29.476072693840      3.553E-15 4.361E-18 0.000E+00
 ETOT 23  -29.476072693840      3.553E-15 1.979E-18 0.000E+00
 ETOT 24  -29.476072693840      0.000E+00 2.297E-19 0.000E+00
 ETOT 25  -29.476072693840      0.000E+00 1.040E-19 0.000E+00
 ETOT 26  -29.476072693840      0.000E+00 1.212E-20 0.000E+00
 ETOT 27  -29.476072693840      0.000E+00 9.950E-21 0.000E+00

 At SCF step   27   max residual=  9.95E-21 < tolwfr=  1.00E-20 =>converged.

 ----iterations are completed or convergence reached----

 dfpt_looppert: DFPT cycle converged with prtwf=-1. Will skip output of the 1st-order WFK file.
 dfpt_looppert : ek2=    5.5077008985E+01
          f-sum rule ratio=    1.1188793400E+00
 prteigrs : about to open file /scratch/users/j/a/jabreu/flow_simple_7atoms/flow/w140/t1/tmpdata/tmp_1WF1_EIG
 Expectation of eigenvalue derivatives (hartree) for nkpt=   2  k points:
  (in case of degenerate eigenvalues, averaged derivative)
 kpt#   1, nband= 33, wtk=  0.50000, kpt=  0.0000  0.0000  0.5000 (reduced coord)
  -0.00000   -0.00000   -0.00000    0.00000   -0.00000   -0.00000    0.00000    0.00000
   0.00000    0.00000   -0.00000   -0.00000    0.00000    0.00000    0.00000    0.00000
   0.00000   -0.00000   -0.00000    0.00000    0.00000   -0.00000   -0.00000    0.00000
   0.00000    0.00000    0.00000    0.00000   -0.00000   -0.00000    0.00000   -0.00028
  -0.00013
 prteigrs : prtvol=0 or 1, do not print more k-points.

 Eight components of 2nd-order total energy (hartree) are
 1,2,3: 0th-order hamiltonian combined with 1st-order wavefunctions
     kin0=   3.95976819E+01 eigvalue=   1.64987520E+00  local=  -1.91286148E+01
 4,5,6: 1st-order hamiltonian combined with 1st and 0th-order wfs
     kin1=  -6.16245275E+01  Hartree=   0.00000000E+00     xc=   0.00000000E+00
 7,8,9: eventually, occupation + non-local contributions
    edocc=   8.97917288E+00     enl0=  -1.62204248E+00   enl1=   2.67238207E+00
 1-9 gives the relaxation energy (to be shifted if some occ is /=2.0)
   erelax=  -2.94760727E+01
  No Ewald or frozen-wf contrib.: the relaxation energy is the total one
 2DEtotal=   -0.2947607269E+02 Ha. Also 2DEtotal=   -0.802084728757E+03 eV
    (  non-var. 2DEtotal :   -2.9476072694E+01 Ha)

 Perturbation wavevector (in red.coord.)   0.000000  0.000000  0.000000
 Perturbation : derivative vs k along direction   2
 The set of symmetries contains only one element for this perturbation.
 symkpt : not enough symmetry to change the number of k points.

[...]

 Perturbation wavevector (in red.coord.)   0.000000  0.000000  0.000000
 Perturbation : derivative vs k along direction   3
 The set of symmetries contains only one element for this perturbation.
 symkpt : not enough symmetry to change the number of k points.

-inwffil : will read wavefunctions from disk file /scratch/users/j/a/jabreu/flow_simple_7atoms/flow/w140/t1/indata/in_WFK

 Initialisation of the first-order wave-functions :
  ireadwf=   0

--- !BeginCycle
iteration_state: {dtset: 1, }
solver: {iscf: 7, nstep: 2000, nline: 4, wfoptalg: 0, }
tolerances: {tolwfr: 1.00E-20, }
...

     iter   2DEtotal(Ha)        deltaE(Ha) residm    vres2
-ETOT  1  -26.396378956919     -2.640E+01 1.141E-01 0.000E+00
 ETOT  2  -26.426611525480     -3.023E-02 7.521E-03 0.000E+00
 ETOT  3  -26.426746869198     -1.353E-04 3.024E-04 0.000E+00
 ETOT  4  -26.426747924305     -1.055E-06 4.619E-05 0.000E+00
 ETOT  5  -26.426747935765     -1.146E-08 2.290E-06 0.000E+00
 ETOT  6  -26.426747935910     -1.450E-10 5.751E-07 0.000E+00
 ETOT  7  -26.426747935912     -1.982E-12 2.802E-08 0.000E+00
 ETOT  8  -26.426747935912     -2.132E-14 8.169E-09 0.000E+00
 ETOT  9  -26.426747935912     -1.066E-14 3.946E-10 0.000E+00
 ETOT 10  -26.426747935912     -1.776E-14 1.212E-10 0.000E+00
 ETOT 11  -26.426747935912      0.000E+00 5.908E-12 0.000E+00
 ETOT 12  -26.426747935912      1.066E-14 1.834E-12 0.000E+00
 ETOT 13  -26.426747935912      0.000E+00 9.093E-14 0.000E+00
 ETOT 14  -26.426747935912      0.000E+00 2.812E-14 0.000E+00
 ETOT 15  -26.426747935912      3.553E-15 1.418E-15 0.000E+00
 ETOT 16  -26.426747935912     -3.553E-15 4.354E-16 0.000E+00
 ETOT 17  -26.426747935912      1.066E-14 2.228E-17 0.000E+00
 ETOT 18  -26.426747935912     -1.421E-14 6.798E-18 0.000E+00
 ETOT 19  -26.426747935912      1.066E-14 3.518E-19 0.000E+00
 ETOT 20  -26.426747935912     -7.105E-15 1.068E-19 0.000E+00
 ETOT 21  -26.426747935912      0.000E+00 9.924E-21 0.000E+00

 At SCF step   21   max residual=  9.92E-21 < tolwfr=  1.00E-20 =>converged.

 ----iterations are completed or convergence reached----

 dfpt_looppert: DFPT cycle converged with prtwf=-1. Will skip output of the 1st-order WFK file.
 dfpt_looppert : ek2=    5.4059534245E+01
          f-sum rule ratio=    1.0075460678E+00
 prteigrs : about to open file /scratch/users/j/a/jabreu/flow_simple_7atoms/flow/w140/t1/tmpdata/tmp_1WF1_EIG
 Expectation of eigenvalue derivatives (hartree) for nkpt=   2  k points:
  (in case of degenerate eigenvalues, averaged derivative)
 kpt#   1, nband= 33, wtk=  0.50000, kpt=  0.0000  0.0000  0.5000 (reduced coord)
   0.00000    0.00000   -0.00000   -0.00000   -0.00000   -0.00000   -0.00000   -0.00000
   0.00000    0.00000   -0.00000   -0.00000    0.00000    0.00000    0.00000    0.00000
   0.00000   -0.00000   -0.00000   -0.00000   -0.00000    0.00000    0.00000   -0.00000
  -0.00000    0.00000    0.00000    0.00000    0.00000    0.00000   -0.00000    0.00000
   0.00218
 prteigrs : prtvol=0 or 1, do not print more k-points.

 Eight components of 2nd-order total energy (hartree) are
 1,2,3: 0th-order hamiltonian combined with 1st-order wavefunctions
     kin0=   3.61494702E+01 eigvalue=   2.14661439E+00  local=  -1.66578721E+01
 4,5,6: 1st-order hamiltonian combined with 1st and 0th-order wfs
     kin1=  -5.44674712E+01  Hartree=   0.00000000E+00     xc=   0.00000000E+00
 7,8,9: eventually, occupation + non-local contributions
    edocc=   5.35037745E+00     enl0=  -5.61841972E-01   enl1=   1.61397529E+00
 1-9 gives the relaxation energy (to be shifted if some occ is /=2.0)
   erelax=  -2.64267479E+01
  No Ewald or frozen-wf contrib.: the relaxation energy is the total one
 2DEtotal=   -0.2642674794E+02 Ha. Also 2DEtotal=   -0.719108382256E+03 eV
    (  non-var. 2DEtotal :   -2.6426747936E+01 Ha)

 CALCULATION OF EFFECTIVE MASSES
 NOTE : Additional infos (eff. mass eigenvalues, eigenvectors and, if degenerate, average mass) are available in stdout.

 K-point ( 0.000, 0.000, 0.500) | band =    24
 Effective mass tensor:
             -0.9382464213              0.0000007106              0.0000383986
              0.0000007106             -0.9382463554              0.0000093842
              0.0000383986              0.0000093842           -162.9887371542
 Effective mass tensor eigenvalues:
           -162.9887371542             -0.9382470996             -0.9382456770
 Angular average effective mass 1/(<1/m>)=  -1.4033304392
 Angular average effective mass for Frohlich model (<m**0.5>)**2=  -2.1087269540
 Effective masses along directions: (cart. coord. / red. coord. -> eff. mass)
    1:   1.000000  0.000000  0.000000 /   0.894427 -0.447214  0.000000 ->  -0.9382464213
    2:   0.000000  1.000000  0.000000 /   0.000000  1.000000  0.000000 ->  -0.9382463554
    3:   0.000000  0.000000  1.000000 /   0.000000  0.000000  1.000000 -> **************
    4:   0.577350  0.577350  0.577350 /   0.725841  0.265676  0.634485 ->  -1.4033289692
    5:   0.000000  0.707107  0.707107 /   0.000000  0.703803  0.710395 ->  -1.8657522736
    6:   0.707107  0.000000  0.707107 /   0.704625 -0.352312  0.615939 ->  -1.8657517434
    7:   0.707107  0.707107  0.000000 /   0.939071  0.343724  0.000000 ->  -0.9382456777

 K-point ( 0.000, 0.000, 0.000) | band =    25
 Effective mass tensor:
              0.6297804026             -0.0000052626              0.0000002858
             -0.0000052626              0.6297660708              0.0000000191
              0.0000002858              0.0000000191              0.5667524333
 Effective mass tensor eigenvalues:
              0.5667524333              0.6297643459              0.6297821275
 Angular average effective mass 1/(<1/m>)=   0.6072646968
 Angular average effective mass for Frohlich model (<m**0.5>)**2=   0.6077230092
 Effective masses along directions: (cart. coord. / red. coord. -> eff. mass)
    1:   1.000000  0.000000  0.000000 /   0.894427 -0.447214  0.000000 ->   0.6297804026
    2:   0.000000  1.000000  0.000000 /   0.000000  1.000000  0.000000 ->   0.6297660707
    3:   0.000000  0.000000  1.000000 /   0.000000  0.000000  1.000000 ->   0.5667524333
    4:   0.577350  0.577350  0.577350 /   0.725841  0.265676  0.634485 ->   0.6072616447
    5:   0.000000  0.707107  0.707107 /   0.000000  0.703803  0.710395 ->   0.5965999910
    6:   0.707107  0.000000  0.707107 /   0.704625 -0.352312  0.615939 ->   0.5966066879
    7:   0.707107  0.707107  0.000000 /   0.939071  0.343724  0.000000 ->   0.6297679740

 END OF EFFECTIVE MASSES SECTION

 ---- first-order wavefunction calculations are completed ----

 Total localisation tensor (bohr^2) in cartesian coordinates
  WARNING : still subject to testing - especially symmetries.
      direction              matrix element
   alpha     beta       real part   imaginary part
     1        1       1.1851991105    0.0000000000
     1        2      -0.4105566267    0.0000000000
     1        3       0.0000000000    0.0000000000
     2        1      -0.4105566267    0.0000000000
     2        2       0.7111049368    0.0000000000
     2        3       0.0000000000    0.0000000000
     3        1       0.0000000000    0.0000000000
     3        2       0.0000000000    0.0000000000
     3        3       0.5031324865    0.0000000000

 respfn : d/dk was computed, but no 2DTE, so no DDB output.

== END DATASET(S) ==============================================================

 -outvars: echo values of variables after computation  --------
            acell      1.0000000000E+00  1.0000000000E+00  1.0000000000E+00 Bohr
              amu      3.90983000E+01  4.00780000E+01  1.20110000E+01
                       1.59994000E+01  1.89984032E+01
             ecut      4.40000000E+01 Hartree
           etotal     -2.6426747936E+01
            fcart      0.0000000000E+00  0.0000000000E+00  0.0000000000E+00
                       0.0000000000E+00  0.0000000000E+00  0.0000000000E+00
                       0.0000000000E+00  0.0000000000E+00  0.0000000000E+00
                       0.0000000000E+00  0.0000000000E+00  0.0000000000E+00
                       0.0000000000E+00  0.0000000000E+00  0.0000000000E+00
                       0.0000000000E+00  0.0000000000E+00  0.0000000000E+00
                       0.0000000000E+00  0.0000000000E+00  0.0000000000E+00
-          fftalg         512
           irdden           1
           irdwfk           1
           istwfk        1    1
              ixc     -116133
              kpt      0.00000000E+00  0.00000000E+00  5.00000000E-01
                       0.00000000E+00  0.00000000E+00  0.00000000E+00
           kptopt           0
P           mkmem           2
P          mkqmem           2
P          mk1mem           2
            natom           7
            nband          33
           nbdbuf           4
            ngfft          60      60      54
             nkpt           2
            nstep        2000
             nsym          12
           ntypat           5
              occ      2.000000  2.000000  2.000000  2.000000  2.000000  2.000000
                       2.000000  2.000000  2.000000  2.000000  2.000000  2.000000
                       2.000000  2.000000  2.000000  2.000000  2.000000  2.000000
                       2.000000  2.000000  2.000000  2.000000  2.000000  2.000000
                       0.000000  0.000000  0.000000  0.000000  0.000000  0.000000
                       0.000000  0.000000  0.000000
        optdriver           1
            prtwf          -1
            rfdir           1       1       1
           rfelfd           2
            rprim      9.5785479903E+00  0.0000000000E+00  0.0000000000E+00
                      -4.7892739951E+00  8.2952658910E+00  0.0000000000E+00
                       0.0000000000E+00  0.0000000000E+00  8.3729661420E+00
          spgroup         187
           strten      0.0000000000E+00  0.0000000000E+00  0.0000000000E+00
                       0.0000000000E+00  0.0000000000E+00  0.0000000000E+00
           symrel      1  0  0   0  1  0   0  0  1       0 -1  0  -1  0  0   0  0 -1
                      -1 -1  0   1  0  0   0  0 -1      -1  0  0   1  1  0   0  0  1
                       0  1  0  -1 -1  0   0  0  1       1  1  0   0 -1  0   0  0 -1
                       1  0  0   0  1  0   0  0 -1       0 -1  0  -1  0  0   0  0  1
                      -1 -1  0   1  0  0   0  0  1      -1  0  0   1  1  0   0  0 -1
                       0  1  0  -1 -1  0   0  0 -1       1  1  0   0 -1  0   0  0  1
           tolwfr      1.00000000E-20
            typat      1  2  3  4  4  4  5
           useylm           1
              wtk        0.50000    0.50000
           xangst      0.0000000000E+00  0.0000000000E+00  0.0000000000E+00
                       2.5343746439E+00  1.4632218829E+00  2.2153914253E+00
                       1.7638771742E-11  2.9264437658E+00  2.2153914253E+00
                       9.8713718246E-12  1.6377140189E+00  2.2153914253E+00
                      -1.1160726994E+00  3.5708086393E+00  2.2153914253E+00
                       1.1160726995E+00  3.5708086393E+00  2.2153914253E+00
                       2.5343746439E+00  1.4632218829E+00  0.0000000000E+00
            xcart      0.0000000000E+00  0.0000000000E+00  0.0000000000E+00
                       4.7892739952E+00  2.7650886303E+00  4.1864830710E+00
                       3.3332447913E-11  5.5301772607E+00  4.1864830710E+00
                       1.8654189304E-11  3.0948309797E+00  4.1864830710E+00
                      -2.1090717463E+00  6.7478504012E+00  4.1864830710E+00
                       2.1090717464E+00  6.7478504012E+00  4.1864830710E+00
                       4.7892739952E+00  2.7650886303E+00  0.0000000000E+00
             xred      0.0000000000E+00  0.0000000000E+00  0.0000000000E+00
                       6.6666666667E-01  3.3333333333E-01  5.0000000000E-01
                       3.3333333333E-01  6.6666666667E-01  5.0000000000E-01
                       1.8654200000E-01  3.7308400000E-01  5.0000000000E-01
                       1.8654200000E-01  8.1345800000E-01  5.0000000000E-01
                       6.2691600000E-01  8.1345800000E-01  5.0000000000E-01
                       6.6666666667E-01  3.3333333333E-01  0.0000000000E+00
            znucl       19.00000   20.00000    6.00000    8.00000    9.00000

- Timing analysis has been suppressed with timopt=0

 Suggested references for the acknowledgment of ABINIT usage.

 Calculation completed.
.Delivered  14 WARNINGs and   9 COMMENTs to log file.