.Version 9.5.1 of ABINIT

 ABINIT is a project of the Universite Catholique de Louvain,
 Corning Inc. and other collaborators, see ~abinit/doc/developers/contributors.txt .
 acknowledgments of the ABINIT effort.

.Starting date : Sun 25 Apr 2021.
- ( at 17h16 )

- input  file    -> /scratch/users/j/a/jabreu/flow_simple2/flow/w159/t1/run.abi
- output file    -> /scratch/users/j/a/jabreu/flow_simple2/flow/w159/t1/run.abo
- root for input  files -> /scratch/users/j/a/jabreu/flow_simple2/flow/w159/t1/indata/in
- root for output files -> /scratch/users/j/a/jabreu/flow_simple2/flow/w159/t1/outdata/out

 Symmetries : space group Pm -3 m (#221); Bravais cP (primitive cubic)
     intxc =       0      iscf =       7    lmnmax =      32     lnmax =       8
     mgfft =      40  mpssoang =       4    mqgrid =    3001     natom =       2
  nloc_mem =       1    nspden =       1   nspinor =       1    nsppol =       1
      nsym =      48    n1xccc =    2501    ntypat =       2    occopt =       1
   xclevel =       2
-    mband =          14        mffmem =           1         mkmem =           1
-   mkqmem =           1        mk1mem =           1           mpw =        4032
      nfft =       64000          nkpt =           1
  Rough estimation (10% accuracy) of disk space for files :

------------- Echo of variables that govern the present computation ------------
-
- outvars: echo of selected default values
-   iomode0 =  0 , fftalg0 =512 , wfoptalg0 =  0
-
- outvars: echo of global parameters not present in the input file
-  max_nthreads =    0
-
 -outvars: echo values of preprocessed input variables --------
            acell      1.0000000000E+00  1.0000000000E+00  1.0000000000E+00 Bohr
              amu      1.32905430E+02  1.00794000E+00
             ecut      3.90000000E+01 Hartree
-          fftalg         512
           irdden           1
           irdwfk           1
           istwfk        1
              ixc     -116133
              kpt      5.00000000E-01  5.00000000E-01  5.00000000E-01
           kptopt           0
P           mkmem           1
P          mkqmem           1
P          mk1mem           1
            natom           2
            nband          14
           nbdbuf           4
            ngfft          40      40      40
             nkpt           1
            nstep         100
             nsym          48
           ntypat           2
              occ      2.000000  2.000000  2.000000  2.000000  2.000000  0.000000
                       0.000000  0.000000  0.000000  0.000000  0.000000  0.000000
                       0.000000  0.000000
        optdriver           1
            prtwf          -1
            rfdir           1       1       1
           rfelfd           2
            rprim      7.0332862476E+00  0.0000000000E+00  0.0000000000E+00
                       0.0000000000E+00  7.0332862476E+00  0.0000000000E+00
                       0.0000000000E+00  0.0000000000E+00  7.0332862476E+00
          spgroup         221
           symrel      1  0  0   0  1  0   0  0  1      -1  0  0   0 -1  0   0  0 -1
                      -1  0  0   0  1  0   0  0 -1       1  0  0   0 -1  0   0  0  1
                      -1  0  0   0 -1  0   0  0  1       1  0  0   0  1  0   0  0 -1
                       1  0  0   0 -1  0   0  0 -1      -1  0  0   0  1  0   0  0  1
                       0  1  0   1  0  0   0  0  1       0 -1  0  -1  0  0   0  0 -1
                       0 -1  0   1  0  0   0  0 -1       0  1  0  -1  0  0   0  0  1
                       0 -1  0  -1  0  0   0  0  1       0  1  0   1  0  0   0  0 -1
                       0  1  0  -1  0  0   0  0 -1       0 -1  0   1  0  0   0  0  1
                       0  0  1   1  0  0   0  1  0       0  0 -1  -1  0  0   0 -1  0
                       0  0 -1   1  0  0   0 -1  0       0  0  1  -1  0  0   0  1  0
                       0  0 -1  -1  0  0   0  1  0       0  0  1   1  0  0   0 -1  0
                       0  0  1  -1  0  0   0 -1  0       0  0 -1   1  0  0   0  1  0
                       1  0  0   0  0  1   0  1  0      -1  0  0   0  0 -1   0 -1  0
                      -1  0  0   0  0  1   0 -1  0       1  0  0   0  0 -1   0  1  0
                      -1  0  0   0  0 -1   0  1  0       1  0  0   0  0  1   0 -1  0
                       1  0  0   0  0 -1   0 -1  0      -1  0  0   0  0  1   0  1  0
                       0  1  0   0  0  1   1  0  0       0 -1  0   0  0 -1  -1  0  0
                       0 -1  0   0  0  1  -1  0  0       0  1  0   0  0 -1   1  0  0
                       0 -1  0   0  0 -1   1  0  0       0  1  0   0  0  1  -1  0  0
                       0  1  0   0  0 -1  -1  0  0       0 -1  0   0  0  1   1  0  0
                       0  0  1   0  1  0   1  0  0       0  0 -1   0 -1  0  -1  0  0
                       0  0 -1   0  1  0  -1  0  0       0  0  1   0 -1  0   1  0  0
                       0  0 -1   0 -1  0   1  0  0       0  0  1   0  1  0  -1  0  0
                       0  0  1   0 -1  0  -1  0  0       0  0 -1   0  1  0   1  0  0
           tolwfr      1.00000000E-20
            typat      1  2
           useylm           1
           xangst      0.0000000000E+00  0.0000000000E+00  0.0000000000E+00
                       1.8609273919E+00  1.8609273919E+00  1.8609273919E+00
            xcart      0.0000000000E+00  0.0000000000E+00  0.0000000000E+00
                       3.5166431238E+00  3.5166431238E+00  3.5166431238E+00
             xred      0.0000000000E+00  0.0000000000E+00  0.0000000000E+00
                       5.0000000000E-01  5.0000000000E-01  5.0000000000E-01
            znucl       55.00000    1.00000

 chkinp: Checking input parameters for consistency.

== DATASET  1 ==================================================================
-   mpi_nproc: 1, omp_nthreads: -1 (-1 if OMP is not activated)

--- !DatasetInfo
iteration_state: {dtset: 1, }
dimensions: {natom: 2, nkpt: 1, mband: 14, nsppol: 1, nspinor: 1, nspden: 1, mpw: 4032, }
cutoff_energies: {ecut:  39.0, pawecutdg:  -1.0, }
electrons: {nelect:   1.00000000E+01, charge:   0.00000000E+00, occopt:   1.00000000E+00, tsmear:   1.00000000E-02, }
meta: {optdriver: 1, rfelfd: 2, }
...

 Real(R)+Recip(G) space primitive vectors, cartesian coordinates (Bohr,Bohr^-1):
 R(1)=  7.0332862  0.0000000  0.0000000  G(1)=  0.1421810  0.0000000  0.0000000
 R(2)=  0.0000000  7.0332862  0.0000000  G(2)=  0.0000000  0.1421810  0.0000000
 R(3)=  0.0000000  0.0000000  7.0332862  G(3)=  0.0000000  0.0000000  0.1421810
 Unit cell volume ucvol=  3.4791638E+02 bohr^3
 Angles (23,13,12)=  9.00000000E+01  9.00000000E+01  9.00000000E+01 degrees

 getcut: wavevector=  0.0000  0.0000  0.0000  ngfft=  40  40  40
         ecut(hartree)=     39.000   => boxcut(ratio)=   2.02304

--- Pseudopotential description ------------------------------------------------
- pspini: atom type   1  psp file is /scratch/users/j/a/jabreu/pseudos/PBEsol/Cs.psp8
- pspatm: opening atomic psp file    /scratch/users/j/a/jabreu/pseudos/PBEsol/Cs.psp8
- Cs    ONCVPSP-3.3.0  r_core=   2.27353   1.85623   2.01788   1.90105
- 55.00000   9.00000    180112                znucl, zion, pspdat
    8 -116133    3    4       600   0.00000   pspcod,pspxc,lmax,lloc,mmax,r2well
    5.99000000000000    5.00000000000000    0.00000000000000   rchrg,fchrg,qchrg
     nproj     2     2     2     2
     extension_switch     1
  pspatm : epsatm=   22.12462445
         --- l  ekb(1:nproj) -->
             0    6.214110    0.767882
             1    6.311966    0.793598
             2    3.769790    0.913105
             3   -9.247129   -2.432478
 pspatm: atomic psp has been read  and splines computed

- pspini: atom type   2  psp file is /scratch/users/j/a/jabreu/pseudos/PBEsol/H.psp8
- pspatm: opening atomic psp file    /scratch/users/j/a/jabreu/pseudos/PBEsol/H.psp8
- H     ONCVPSP-3.3.0  r_core=   1.00957   0.70586
-  1.00000   1.00000    180112                znucl, zion, pspdat
    8 -116133    1    4       300   0.00000   pspcod,pspxc,lmax,lloc,mmax,r2well
    2.99000000000000    0.00000000000000    0.00000000000000   rchrg,fchrg,qchrg
     nproj     2     1
     extension_switch     1
  pspatm : epsatm=    0.35627032
         --- l  ekb(1:nproj) -->
             0   -1.674911   -0.523609
             1   -0.494138
 pspatm: atomic psp has been read  and splines computed

   2.24808948E+02                                ecore*ucvol(ha*bohr**3)

-inwffil : will read wavefunctions from disk file /scratch/users/j/a/jabreu/flow_simple2/flow/w159/t1/indata/in_WFK

 ==>  initialize data related to q vector <==

 The list of irreducible perturbations for this q vector is:
    1)    idir= 1    ipert=   3
    2)    idir= 2    ipert=   3
    3)    idir= 3    ipert=   3

 Perturbation wavevector (in red.coord.)   0.000000  0.000000  0.000000
 Perturbation : derivative vs k along direction   1

 dfpt_looppert : COMMENT -
  In a d/dk calculation, iscf is set to -3 automatically.
 The set of symmetries contains only one element for this perturbation.
 symkpt : not enough symmetry to change the number of k points.

[...]

 Initialisation of the first-order wave-functions :
  ireadwf=   0

--- !BeginCycle
iteration_state: {dtset: 1, }
solver: {iscf: 7, nstep: 100, nline: 4, wfoptalg: 0, }
tolerances: {tolwfr: 1.00E-20, }
...

     iter   2DEtotal(Ha)        deltaE(Ha) residm    vres2
-ETOT  1  -12.349179701338     -1.235E+01 1.438E-02 0.000E+00
 ETOT  2  -12.350233818543     -1.054E-03 1.937E-04 0.000E+00
 ETOT  3  -12.350233986774     -1.682E-07 2.125E-06 0.000E+00
 ETOT  4  -12.350233986997     -2.224E-10 1.754E-07 0.000E+00
 ETOT  5  -12.350233986997     -4.601E-13 2.279E-09 0.000E+00
 ETOT  6  -12.350233986997      1.599E-14 5.028E-10 0.000E+00
 ETOT  7  -12.350233986997      3.553E-15 6.179E-12 0.000E+00
 ETOT  8  -12.350233986997     -7.105E-15 1.304E-12 0.000E+00
 ETOT  9  -12.350233986997      3.553E-15 1.454E-14 0.000E+00
 ETOT 10  -12.350233986997      0.000E+00 3.595E-15 0.000E+00
 ETOT 11  -12.350233986997      0.000E+00 5.633E-17 0.000E+00
 ETOT 12  -12.350233986997      0.000E+00 1.498E-17 0.000E+00
 ETOT 13  -12.350233986997     -3.553E-15 2.777E-19 0.000E+00
 ETOT 14  -12.350233986997      3.553E-15 7.361E-20 0.000E+00
 ETOT 15  -12.350233986997     -1.776E-15 9.770E-21 0.000E+00

 At SCF step   15   max residual=  9.77E-21 < tolwfr=  1.00E-20 =>converged.

 ----iterations are completed or convergence reached----

 dfpt_looppert: DFPT cycle converged with prtwf=-1. Will skip output of the 1st-order WFK file.
 dfpt_looppert : ek2=    1.5961479562E+01
          f-sum rule ratio=    1.4403476972E+00
 prteigrs : about to open file /scratch/users/j/a/jabreu/flow_simple2/flow/w159/t1/tmpdata/tmp_1WF1_EIG
 Expectation of eigenvalue derivatives (hartree) for nkpt=   1  k points:
  (in case of degenerate eigenvalues, averaged derivative)
 kpt#   1, nband= 14, wtk=  1.00000, kpt=  0.5000  0.5000  0.5000 (reduced coord)
  -0.00000   -0.00000   -0.00000   -0.00000    0.00000   -0.00000   -0.00000   -0.00000
  -0.00000   -0.00000   -0.00000    0.00000    0.00000   -0.00000

 Eight components of 2nd-order total energy (hartree) are
 1,2,3: 0th-order hamiltonian combined with 1st-order wavefunctions
     kin0=   2.53501309E+00 eigvalue=   2.09070992E-01  local=  -1.63915744E+00
 4,5,6: 1st-order hamiltonian combined with 1st and 0th-order wfs
     kin1=  -2.29900803E+01  Hartree=   0.00000000E+00     xc=   0.00000000E+00
 7,8,9: eventually, occupation + non-local contributions
    edocc=   1.02932465E+01     enl0=   9.52060891E-01   enl1=  -1.71038764E+00
 1-9 gives the relaxation energy (to be shifted if some occ is /=2.0)
   erelax=  -1.23502340E+01
  No Ewald or frozen-wf contrib.: the relaxation energy is the total one
 2DEtotal=   -0.1235023399E+02 Ha. Also 2DEtotal=   -0.336066957781E+03 eV
    (  non-var. 2DEtotal :   -1.2350233987E+01 Ha)

 Perturbation wavevector (in red.coord.)   0.000000  0.000000  0.000000
 Perturbation : derivative vs k along direction   2
 The set of symmetries contains only one element for this perturbation.
 symkpt : not enough symmetry to change the number of k points.

[...]

 Perturbation wavevector (in red.coord.)   0.000000  0.000000  0.000000
 Perturbation : derivative vs k along direction   3
 The set of symmetries contains only one element for this perturbation.
 symkpt : not enough symmetry to change the number of k points.

-inwffil : will read wavefunctions from disk file /scratch/users/j/a/jabreu/flow_simple2/flow/w159/t1/indata/in_WFK

 Initialisation of the first-order wave-functions :
  ireadwf=   0

--- !BeginCycle
iteration_state: {dtset: 1, }
solver: {iscf: 7, nstep: 100, nline: 4, wfoptalg: 0, }
tolerances: {tolwfr: 1.00E-20, }
...

     iter   2DEtotal(Ha)        deltaE(Ha) residm    vres2
-ETOT  1  -12.349179700883     -1.235E+01 6.721E-02 0.000E+00
 ETOT  2  -12.350233818077     -1.054E-03 1.937E-04 0.000E+00
 ETOT  3  -12.350233986308     -1.682E-07 2.125E-06 0.000E+00
 ETOT  4  -12.350233986531     -2.225E-10 1.754E-07 0.000E+00
 ETOT  5  -12.350233986531     -4.583E-13 2.286E-09 0.000E+00
 ETOT  6  -12.350233986531      5.329E-15 7.045E-10 0.000E+00
 ETOT  7  -12.350233986531     -1.243E-14 6.017E-12 0.000E+00
 ETOT  8  -12.350233986531      3.553E-15 1.682E-12 0.000E+00
 ETOT  9  -12.350233986531      0.000E+00 1.468E-14 0.000E+00
 ETOT 10  -12.350233986531     -1.776E-15 4.686E-15 0.000E+00
 ETOT 11  -12.350233986531      5.329E-15 6.483E-17 0.000E+00
 ETOT 12  -12.350233986531     -3.553E-15 2.113E-17 0.000E+00
 ETOT 13  -12.350233986531      0.000E+00 3.083E-19 0.000E+00
 ETOT 14  -12.350233986531      1.776E-15 1.040E-19 0.000E+00
 ETOT 15  -12.350233986531      5.329E-15 8.529E-21 0.000E+00

 At SCF step   15   max residual=  8.53E-21 < tolwfr=  1.00E-20 =>converged.

 ----iterations are completed or convergence reached----

 dfpt_looppert: DFPT cycle converged with prtwf=-1. Will skip output of the 1st-order WFK file.
 dfpt_looppert : ek2=    1.5961479562E+01
          f-sum rule ratio=    1.4403476971E+00
 prteigrs : about to open file /scratch/users/j/a/jabreu/flow_simple2/flow/w159/t1/tmpdata/tmp_1WF1_EIG
 Expectation of eigenvalue derivatives (hartree) for nkpt=   1  k points:
  (in case of degenerate eigenvalues, averaged derivative)
 kpt#   1, nband= 14, wtk=  1.00000, kpt=  0.5000  0.5000  0.5000 (reduced coord)
   0.00000   -0.00000   -0.00000   -0.00000   -0.00000   -0.00000   -0.00000   -0.00000
  -0.00000   -0.00000   -0.00000   -0.00000   -0.00000    0.00000

 Eight components of 2nd-order total energy (hartree) are
 1,2,3: 0th-order hamiltonian combined with 1st-order wavefunctions
     kin0=   2.53501309E+00 eigvalue=   2.09070992E-01  local=  -1.63915744E+00
 4,5,6: 1st-order hamiltonian combined with 1st and 0th-order wfs
     kin1=  -2.29900803E+01  Hartree=   0.00000000E+00     xc=   0.00000000E+00
 7,8,9: eventually, occupation + non-local contributions
    edocc=   1.02932465E+01     enl0=   9.52060891E-01   enl1=  -1.71038764E+00
 1-9 gives the relaxation energy (to be shifted if some occ is /=2.0)
   erelax=  -1.23502340E+01
  No Ewald or frozen-wf contrib.: the relaxation energy is the total one
 2DEtotal=   -0.1235023399E+02 Ha. Also 2DEtotal=   -0.336066957768E+03 eV
    (  non-var. 2DEtotal :   -1.2350233987E+01 Ha)

 CALCULATION OF EFFECTIVE MASSES
 NOTE : Additional infos (eff. mass eigenvalues, eigenvectors and, if degenerate, average mass) are available in stdout.

 K-point ( 0.500, 0.500, 0.500) | band =     5
 Effective mass tensor:
             -0.3931836046             -0.0000000000              0.0000000000
             -0.0000000000             -0.3931836047              0.0000000000
              0.0000000000              0.0000000000             -0.3931836047
 Effective mass tensor eigenvalues:
             -0.3931836047             -0.3931836047             -0.3931836046
 Angular average effective mass 1/(<1/m>)=  -0.3931836047
 Angular average effective mass for Frohlich model (<m**0.5>)**2=  -0.3931836047
 Effective masses along directions: (cart. coord. / red. coord. -> eff. mass)
    1:   1.000000  0.000000  0.000000 /   1.000000  0.000000  0.000000 ->  -0.3931836046
    2:   0.000000  1.000000  0.000000 /   0.000000  1.000000  0.000000 ->  -0.3931836047
    3:   0.000000  0.000000  1.000000 /   0.000000  0.000000  1.000000 ->  -0.3931836047
    4:   0.577350  0.577350  0.577350 /   0.577350  0.577350  0.577350 ->  -0.3931836047
    5:   0.000000  0.707107  0.707107 /   0.000000  0.707107  0.707107 ->  -0.3931836047
    6:   0.707107  0.000000  0.707107 /   0.707107  0.000000  0.707107 ->  -0.3931836047
    7:   0.707107  0.707107  0.000000 /   0.707107  0.707107  0.000000 ->  -0.3931836047

 COMMENTS:
 - At k-point ( 0.500, 0.500, 0.500), bands     6 through     8
   are DEGENERATE (effective mass tensor is therefore not defined).
   See Section IIIB Eqs. (67)-(70) and Appendix E of PRB 93 205147 (2016).
 - Angular average effective mass for Frohlich model is to be averaged over degenerate bands. See later.
 - Associated theta integrals calculated with ntheta=   1000 points.

 K-point ( 0.500, 0.500, 0.500) | band =     6
 Transport equivalent effective mass tensor:
              1.3116788011              0.0000000001             -0.0000000001
              0.0000000001              1.3116772392              0.0000000000
             -0.0000000001              0.0000000000              1.3116828903
 Transport equivalent effective mass tensor eigenvalues:
              1.3116828903              1.3116788011              1.3116772392
 Angular average effective mass 1/(<1/m>)=   0.8232583403
 Angular average effective mass for Frohlich model (<m**0.5>)**2=   0.8478075222
 Effective masses along directions: (cart. coord. / red. coord. -> eff. mass)
    1:   1.000000  0.000000  0.000000 /   1.000000  0.000000  0.000000 ->   0.5179053244
    2:   0.000000  1.000000  0.000000 /   0.000000  1.000000  0.000000 ->   0.5179053244
    3:   0.000000  0.000000  1.000000 /   0.000000  0.000000  1.000000 ->   0.5179053244
    4:   0.577350  0.577350  0.577350 /   0.577350  0.577350  0.577350 ->   0.8097435450
    5:   0.000000  0.707107  0.707107 /   0.000000  0.707107  0.707107 ->   1.1273818153
    6:   0.707107  0.000000  0.707107 /   0.707107  0.000000  0.707107 ->   1.1273818153
    7:   0.707107  0.707107  0.000000 /   0.707107  0.707107  0.000000 ->   1.1273818153

[...]

 K-point ( 0.500, 0.500, 0.500) | band =     8
 Transport equivalent effective mass tensor:
              0.2136696985              0.0000000004             -0.0000000003
              0.0000000004              0.2136696985              0.0000000002
             -0.0000000003              0.0000000002              0.2136696985
 Transport equivalent effective mass tensor eigenvalues:
              0.2136696989              0.2136696987              0.2136696978
 Angular average effective mass 1/(<1/m>)=   0.2017629875
 Angular average effective mass for Frohlich model (<m**0.5>)**2=   0.2025393006
 Effective masses along directions: (cart. coord. / red. coord. -> eff. mass)
    1:   1.000000  0.000000  0.000000 /   1.000000  0.000000  0.000000 ->   0.2455482624
    2:   0.000000  1.000000  0.000000 /   0.000000  1.000000  0.000000 ->   0.2455482625
    3:   0.000000  0.000000  1.000000 /   0.000000  0.000000  1.000000 ->   0.2455482624
    4:   0.577350  0.577350  0.577350 /   0.577350  0.577350  0.577350 ->   0.1830056889
    5:   0.000000  0.707107  0.707107 /   0.000000  0.707107  0.707107 ->   0.1954513376
    6:   0.707107  0.000000  0.707107 /   0.707107  0.000000  0.707107 ->   0.1954513371
    7:   0.707107  0.707107  0.000000 /   0.707107  0.707107  0.000000 ->   0.1954513379

 Angular average effective mass for Frohlich model, averaged over degenerate bands.
 Value of     (<<m**0.5>>)**2 =     5.025581E-01
 Absolute Value of <<m**0.5>> =     7.089133E-01

 END OF EFFECTIVE MASSES SECTION

 ---- first-order wavefunction calculations are completed ----

 Total localisation tensor (bohr^2) in cartesian coordinates
  WARNING : still subject to testing - especially symmetries.
      direction              matrix element
   alpha     beta       real part   imaginary part
     1        1       4.2872480879    0.0000000000
     1        2       0.0000000000    0.0000000000
     1        3       0.0000000000    0.0000000000
     2        1       0.0000000000    0.0000000000
     2        2       4.2872480877    0.0000000000
     2        3       0.0000000000    0.0000000000
     3        1       0.0000000000    0.0000000000
     3        2       0.0000000000    0.0000000000
     3        3       4.2872480877    0.0000000000

 respfn : d/dk was computed, but no 2DTE, so no DDB output.

== END DATASET(S) ==============================================================

 -outvars: echo values of variables after computation  --------
            acell      1.0000000000E+00  1.0000000000E+00  1.0000000000E+00 Bohr
              amu      1.32905430E+02  1.00794000E+00
             ecut      3.90000000E+01 Hartree
           etotal     -1.2350233987E+01
            fcart      0.0000000000E+00  0.0000000000E+00  0.0000000000E+00
                       0.0000000000E+00  0.0000000000E+00  0.0000000000E+00
-          fftalg         512
           irdden           1
           irdwfk           1
           istwfk        1
              ixc     -116133
              kpt      5.00000000E-01  5.00000000E-01  5.00000000E-01
           kptopt           0
P           mkmem           1
P          mkqmem           1
P          mk1mem           1
            natom           2
            nband          14
           nbdbuf           4
            ngfft          40      40      40
             nkpt           1
            nstep         100
             nsym          48
           ntypat           2
              occ      2.000000  2.000000  2.000000  2.000000  2.000000  0.000000
                       0.000000  0.000000  0.000000  0.000000  0.000000  0.000000
                       0.000000  0.000000
        optdriver           1
            prtwf          -1
            rfdir           1       1       1
           rfelfd           2
            rprim      7.0332862476E+00  0.0000000000E+00  0.0000000000E+00
                       0.0000000000E+00  7.0332862476E+00  0.0000000000E+00
                       0.0000000000E+00  0.0000000000E+00  7.0332862476E+00
          spgroup         221
           strten      0.0000000000E+00  0.0000000000E+00  0.0000000000E+00
                       0.0000000000E+00  0.0000000000E+00  0.0000000000E+00
           symrel      1  0  0   0  1  0   0  0  1      -1  0  0   0 -1  0   0  0 -1
                      -1  0  0   0  1  0   0  0 -1       1  0  0   0 -1  0   0  0  1
                      -1  0  0   0 -1  0   0  0  1       1  0  0   0  1  0   0  0 -1
                       1  0  0   0 -1  0   0  0 -1      -1  0  0   0  1  0   0  0  1
                       0  1  0   1  0  0   0  0  1       0 -1  0  -1  0  0   0  0 -1
                       0 -1  0   1  0  0   0  0 -1       0  1  0  -1  0  0   0  0  1
                       0 -1  0  -1  0  0   0  0  1       0  1  0   1  0  0   0  0 -1
                       0  1  0  -1  0  0   0  0 -1       0 -1  0   1  0  0   0  0  1
                       0  0  1   1  0  0   0  1  0       0  0 -1  -1  0  0   0 -1  0
                       0  0 -1   1  0  0   0 -1  0       0  0  1  -1  0  0   0  1  0
                       0  0 -1  -1  0  0   0  1  0       0  0  1   1  0  0   0 -1  0
                       0  0  1  -1  0  0   0 -1  0       0  0 -1   1  0  0   0  1  0
                       1  0  0   0  0  1   0  1  0      -1  0  0   0  0 -1   0 -1  0
                      -1  0  0   0  0  1   0 -1  0       1  0  0   0  0 -1   0  1  0
                      -1  0  0   0  0 -1   0  1  0       1  0  0   0  0  1   0 -1  0
                       1  0  0   0  0 -1   0 -1  0      -1  0  0   0  0  1   0  1  0
                       0  1  0   0  0  1   1  0  0       0 -1  0   0  0 -1  -1  0  0
                       0 -1  0   0  0  1  -1  0  0       0  1  0   0  0 -1   1  0  0
                       0 -1  0   0  0 -1   1  0  0       0  1  0   0  0  1  -1  0  0
                       0  1  0   0  0 -1  -1  0  0       0 -1  0   0  0  1   1  0  0
                       0  0  1   0  1  0   1  0  0       0  0 -1   0 -1  0  -1  0  0
                       0  0 -1   0  1  0  -1  0  0       0  0  1   0 -1  0   1  0  0
                       0  0 -1   0 -1  0   1  0  0       0  0  1   0  1  0  -1  0  0
                       0  0  1   0 -1  0  -1  0  0       0  0 -1   0  1  0   1  0  0
           tolwfr      1.00000000E-20
            typat      1  2
           useylm           1
           xangst      0.0000000000E+00  0.0000000000E+00  0.0000000000E+00
                       1.8609273919E+00  1.8609273919E+00  1.8609273919E+00
            xcart      0.0000000000E+00  0.0000000000E+00  0.0000000000E+00
                       3.5166431238E+00  3.5166431238E+00  3.5166431238E+00
             xred      0.0000000000E+00  0.0000000000E+00  0.0000000000E+00
                       5.0000000000E-01  5.0000000000E-01  5.0000000000E-01
            znucl       55.00000    1.00000

- Timing analysis has been suppressed with timopt=0

 Suggested references for the acknowledgment of ABINIT usage.

 Calculation completed.
.Delivered   6 WARNINGs and   5 COMMENTs to log file.