.Version 9.5.2 of ABINIT

 ABINIT is a project of the Universite Catholique de Louvain,
 Corning Inc. and other collaborators, see ~abinit/doc/developers/contributors.txt .
 acknowledgments of the ABINIT effort.

.Starting date : Mon 24 May 2021.
- ( at 23h09 )

- input  file    -> /scratch/users/j/a/jabreu/flow_simple_10atoms/flow/w477/t1/run.abi
- output file    -> /scratch/users/j/a/jabreu/flow_simple_10atoms/flow/w477/t1/run.abo
- root for input  files -> /scratch/users/j/a/jabreu/flow_simple_10atoms/flow/w477/t1/indata/in
- root for output files -> /scratch/users/j/a/jabreu/flow_simple_10atoms/flow/w477/t1/outdata/out

 Symmetries : space group Fm -3 m (#225); Bravais cF (face-center cubic)
     intxc =       0      iscf =       7    lmnmax =      18     lnmax =       6
     mgfft =      72  mpssoang =       3    mqgrid =    3001     natom =      10
  nloc_mem =       1    nspden =       1   nspinor =       1    nsppol =       1
      nsym =      48    n1xccc =    2501    ntypat =       4    occopt =       1
   xclevel =       2
-    mband =          50        mffmem =           1         mkmem =           1
-   mkqmem =           1        mk1mem =           1           mpw =       13851
      nfft =      373248          nkpt =           1
  Rough estimation (10% accuracy) of disk space for files :

------------- Echo of variables that govern the present computation ------------
-
- outvars: echo of selected default values
-   iomode0 =  0 , fftalg0 =512 , wfoptalg0 =  0
-
- outvars: echo of global parameters not present in the input file
-  max_nthreads =    0
-
 -outvars: echo values of preprocessed input variables --------
            acell      1.0000000000E+00  1.0000000000E+00  1.0000000000E+00 Bohr
              amu      1.37327000E+02  8.89058500E+01  1.21753000E+02
                       1.59994000E+01
             ecut      4.40000000E+01 Hartree
-          fftalg         512
           irdden           1
           irdwfk           1
           istwfk        1
              ixc     -116133
           kptopt           0
P           mkmem           1
P          mkqmem           1
P          mk1mem           1
            natom          10
            nband          50
           nbdbuf           4
            ngfft          72      72      72
             nkpt           1
            nstep        2000
             nsym          48
           ntypat           4
              occ      2.000000  2.000000  2.000000  2.000000  2.000000  2.000000
                       2.000000  2.000000  2.000000  2.000000  2.000000  2.000000
                       2.000000  2.000000  2.000000  2.000000  2.000000  2.000000
                       2.000000  2.000000  2.000000  2.000000  2.000000  2.000000
                       2.000000  2.000000  2.000000  2.000000  2.000000  2.000000
                       2.000000  2.000000  2.000000  2.000000  2.000000  2.000000
                       2.000000  2.000000  2.000000  2.000000  2.000000  0.000000
                       0.000000  0.000000  0.000000  0.000000  0.000000  0.000000
                       0.000000  0.000000
        optdriver           1
            prtwf          -1
            rfdir           1       1       1
           rfelfd           2
            rprim      9.7307073557E+00  0.0000000000E+00  5.6180265112E+00
                       3.2435691186E+00  9.1741988760E+00  5.6180265112E+00
                       0.0000000000E+00  0.0000000000E+00  1.1236053023E+01
          spgroup         225
           symrel      1  0  0   0  1  0   0  0  1      -1  0  0   0 -1  0   0  0 -1
                       0 -1  1   0 -1  0   1 -1  0       0  1 -1   0  1  0  -1  1  0
                      -1  0  0  -1  0  1  -1  1  0       1  0  0   1  0 -1   1 -1  0
                       0  1 -1   1  0 -1   0  0 -1       0 -1  1  -1  0  1   0  0  1
                      -1  0  0  -1  1  0  -1  0  1       1  0  0   1 -1  0   1  0 -1
                       0 -1  1   1 -1  0   0 -1  0       0  1 -1  -1  1  0   0  1  0
                       1  0  0   0  0  1   0  1  0      -1  0  0   0  0 -1   0 -1  0
                       0  1 -1   0  0 -1   1  0 -1       0 -1  1   0  0  1  -1  0  1
                      -1  0  1  -1  1  0  -1  0  0       1  0 -1   1 -1  0   1  0  0
                       0 -1  0   1 -1  0   0 -1  1       0  1  0  -1  1  0   0  1 -1
                       1  0 -1   0  0 -1   0  1 -1      -1  0  1   0  0  1   0 -1  1
                       0  1  0   0  0  1   1  0  0       0 -1  0   0  0 -1  -1  0  0
                       1  0 -1   0  1 -1   0  0 -1      -1  0  1   0 -1  1   0  0  1
                       0 -1  0   0 -1  1   1 -1  0       0  1  0   0  1 -1  -1  1  0
                      -1  0  1  -1  0  0  -1  1  0       1  0 -1   1  0  0   1 -1  0
                       0  1  0   1  0  0   0  0  1       0 -1  0  -1  0  0   0  0 -1
                       0  0 -1   0  1 -1   1  0 -1       0  0  1   0 -1  1  -1  0  1
                       1 -1  0   0 -1  1   0 -1  0      -1  1  0   0  1 -1   0  1  0
                       0  0  1   1  0  0   0  1  0       0  0 -1  -1  0  0   0 -1  0
                      -1  1  0  -1  0  0  -1  0  1       1 -1  0   1  0  0   1  0 -1
                       0  0  1   0  1  0   1  0  0       0  0 -1   0 -1  0  -1  0  0
                       1 -1  0   0 -1  0   0 -1  1      -1  1  0   0  1  0   0  1 -1
                       0  0 -1   1  0 -1   0  1 -1       0  0  1  -1  0  1   0 -1  1
                      -1  1  0  -1  0  1  -1  0  0       1 -1  0   1  0 -1   1  0  0
           tolwfr      1.00000000E-20
            typat      1  1  2  3  4  4  4  4  4  4
           useylm           1
           xangst      5.1492685561E+00  3.6410827142E+00  8.9187947610E+00
                       1.7164228520E+00  1.2136942381E+00  2.9729315870E+00
                       0.0000000000E+00  0.0000000000E+00  0.0000000000E+00
                       3.4328457041E+00  2.4273884761E+00  5.9458631740E+00
                       4.2489258148E+00  1.2732769156E+00  4.5323709592E+00
                       4.2489258148E+00  1.2732769156E+00  7.3593553888E+00
                       2.6167655934E+00  3.5815000367E+00  4.5323709592E+00
                       1.8006854827E+00  1.2732769156E+00  5.9458631740E+00
                       2.6167655934E+00  3.5815000367E+00  7.3593553888E+00
                       5.0650059255E+00  3.5815000367E+00  5.9458631740E+00
            xcart      9.7307073557E+00  6.8806491570E+00  1.6854079534E+01
                       3.2435691186E+00  2.2935497190E+00  5.6180265112E+00
                       0.0000000000E+00  0.0000000000E+00  0.0000000000E+00
                       6.4871382371E+00  4.5870994380E+00  1.1236053022E+01
                       8.0293061488E+00  2.4061446618E+00  8.5649398456E+00
                       8.0293061488E+00  2.4061446618E+00  1.3907166199E+01
                       4.9449703255E+00  6.7680542142E+00  8.5649398456E+00
                       3.4028024137E+00  2.4061446618E+00  1.1236053022E+01
                       4.9449703255E+00  6.7680542142E+00  1.3907166199E+01
                       9.5714740606E+00  6.7680542142E+00  1.1236053022E+01
             xred      7.5000000000E-01  7.5000000000E-01  7.5000000000E-01
                       2.5000000000E-01  2.5000000000E-01  2.5000000000E-01
                       0.0000000000E+00  0.0000000000E+00  0.0000000000E+00
                       5.0000000000E-01  5.0000000000E-01  5.0000000000E-01
                       7.3772700000E-01  2.6227300000E-01  2.6227300000E-01
                       7.3772700000E-01  2.6227300000E-01  7.3772700000E-01
                       2.6227300000E-01  7.3772700000E-01  2.6227300000E-01
                       2.6227300000E-01  2.6227300000E-01  7.3772700000E-01
                       2.6227300000E-01  7.3772700000E-01  7.3772700000E-01
                       7.3772700000E-01  7.3772700000E-01  2.6227300000E-01
            znucl       56.00000   39.00000   51.00000    8.00000

 chkinp: Checking input parameters for consistency.

== DATASET  1 ==================================================================
-   mpi_nproc: 1, omp_nthreads: -1 (-1 if OMP is not activated)

--- !DatasetInfo
iteration_state: {dtset: 1, }
dimensions: {natom: 10, nkpt: 1, mband: 50, nsppol: 1, nspinor: 1, nspden: 1, mpw: 13851, }
cutoff_energies: {ecut:  44.0, pawecutdg:  -1.0, }
electrons: {nelect:   8.20000000E+01, charge:   0.00000000E+00, occopt:   1.00000000E+00, tsmear:   1.00000000E-02, }
meta: {optdriver: 1, rfelfd: 2, }
...

 Real(R)+Recip(G) space primitive vectors, cartesian coordinates (Bohr,Bohr^-1):
 R(1)=  9.7307074  0.0000000  5.6180265  G(1)=  0.1027675 -0.0363338  0.0000000
 R(2)=  3.2435691  9.1741989  5.6180265  G(2)=  0.0000000  0.1090013  0.0000000
 R(3)=  0.0000000  0.0000000 11.2360530  G(3)= -0.0513837 -0.0363338  0.0889992
 Unit cell volume ucvol=  1.0030587E+03 bohr^3
 Angles (23,13,12)=  6.00000000E+01  6.00000000E+01  6.00000000E+01 degrees

 getcut: wavevector=  0.0000  0.0000  0.0000  ngfft=  72  72  72
         ecut(hartree)=     44.000   => boxcut(ratio)=   2.14599

--- Pseudopotential description ------------------------------------------------
- pspini: atom type   1  psp file is /scratch/users/j/a/jabreu/pseudos/PBEsol/Ba.psp8
- pspatm: opening atomic psp file    /scratch/users/j/a/jabreu/pseudos/PBEsol/Ba.psp8
- Ba    ONCVPSP-3.3.0  r_core=   2.15444   1.91218   2.15444
- 56.00000  10.00000    180112                znucl, zion, pspdat
    8 -116133    2    4       600   0.00000   pspcod,pspxc,lmax,lloc,mmax,r2well
    5.99000000000000    5.00000000000000    0.00000000000000   rchrg,fchrg,qchrg
     nproj     2     2     2
     extension_switch     1
  pspatm : epsatm=   26.37418029
         --- l  ekb(1:nproj) -->
             0    6.652372    0.677024
             1    5.027722    0.408462
             2    2.543237    0.416854
 pspatm: atomic psp has been read  and splines computed

- pspini: atom type   2  psp file is /scratch/users/j/a/jabreu/pseudos/PBEsol/Y.psp8
- pspatm: opening atomic psp file    /scratch/users/j/a/jabreu/pseudos/PBEsol/Y.psp8
- Y     ONCVPSP-3.3.0  r_core=   1.60520   1.51226   1.56736
- 39.00000  11.00000    180112                znucl, zion, pspdat
    8 -116133    2    4       600   0.00000   pspcod,pspxc,lmax,lloc,mmax,r2well
    5.99000000000000    4.00000000000000    0.00000000000000   rchrg,fchrg,qchrg
     nproj     2     2     2
     extension_switch     1
  pspatm : epsatm=   18.54790046
         --- l  ekb(1:nproj) -->
             0   10.130768    0.866504
             1    5.598307    0.427135
             2    1.217602    0.315447
 pspatm: atomic psp has been read  and splines computed

[...]

- pspini: atom type   4  psp file is /scratch/users/j/a/jabreu/pseudos/PBEsol/O.psp8
- pspatm: opening atomic psp file    /scratch/users/j/a/jabreu/pseudos/PBEsol/O.psp8
- O     ONCVPSP-3.3.0  r_core=   1.35509   1.45563   1.26150
-  8.00000   6.00000    180112                znucl, zion, pspdat
    8 -116133    2    4       600   0.00000   pspcod,pspxc,lmax,lloc,mmax,r2well
    5.99000000000000    4.00000000000000    0.00000000000000   rchrg,fchrg,qchrg
[...]
 The set of symmetries contains only one element for this perturbation.
 symkpt : not enough symmetry to change the number of k points.

[...]

 Perturbation wavevector (in red.coord.)   0.000000  0.000000  0.000000
 Perturbation : derivative vs k along direction   3
 The set of symmetries contains only one element for this perturbation.
 symkpt : not enough symmetry to change the number of k points.

 Initialisation of the first-order wave-functions :
  ireadwf=   0

--- !BeginCycle
iteration_state: {dtset: 1, }
solver: {iscf: 7, nstep: 2000, nline: 4, wfoptalg: 0, }
tolerances: {tolwfr: 1.00E-20, }
...

     iter   2DEtotal(Ha)        deltaE(Ha) residm    vres2
-ETOT  1  -55.182534114096     -5.518E+01 4.811E-02 0.000E+00
 ETOT  2  -55.295639322424     -1.131E-01 8.520E-04 0.000E+00
 ETOT  3  -55.297642648068     -2.003E-03 2.723E-05 0.000E+00
 ETOT  4  -55.297713266729     -7.062E-05 1.161E-06 0.000E+00
 ETOT  5  -55.297716454687     -3.188E-06 4.791E-08 0.000E+00
 ETOT  6  -55.297716611163     -1.565E-07 2.548E-09 0.000E+00
 ETOT  7  -55.297716619237     -8.074E-09 1.419E-10 0.000E+00
 ETOT  8  -55.297716619664     -4.274E-10 7.797E-12 0.000E+00
 ETOT  9  -55.297716619687     -2.313E-11 4.826E-13 0.000E+00
 ETOT 10  -55.297716619688     -1.293E-12 2.784E-14 0.000E+00
 ETOT 11  -55.297716619689     -7.816E-14 1.740E-15 0.000E+00
 ETOT 12  -55.297716619688      2.842E-14 1.008E-16 0.000E+00
 ETOT 13  -55.297716619688      0.000E+00 6.337E-18 0.000E+00
 ETOT 14  -55.297716619688      0.000E+00 3.675E-19 0.000E+00
 ETOT 15  -55.297716619689     -4.263E-14 2.319E-20 0.000E+00
 ETOT 16  -55.297716619689     -7.105E-15 9.807E-21 0.000E+00

 At SCF step   16   max residual=  9.81E-21 < tolwfr=  1.00E-20 =>converged.

 ----iterations are completed or convergence reached----

 dfpt_looppert: DFPT cycle converged with prtwf=-1. Will skip output of the 1st-order WFK file.
 dfpt_looppert : ek2=    7.6924960854E+01
          f-sum rule ratio=    1.1983299181E+00
 prteigrs : about to open file /scratch/users/j/a/jabreu/flow_simple_10atoms/flow/w477/t1/tmpdata/tmp_1WF1_EIG
 Expectation of eigenvalue derivatives (hartree) for nkpt=   1  k points:
  (in case of degenerate eigenvalues, averaged derivative)
 kpt#   1, nband= 50, wtk=  1.00000, kpt=  0.0000  0.0000  0.0000 (reduced coord)
   0.00000    0.00000    0.00000   -0.00000   -0.00000   -0.00000   -0.00000   -0.00000
  -0.00000   -0.00000   -0.00000    0.00000   -0.00000   -0.00000   -0.00000   -0.00000
  -0.00000   -0.00000   -0.00000   -0.00000   -0.00000   -0.00000   -0.00000    0.00000
  -0.00000   -0.00000   -0.00000   -0.00000   -0.00000    0.00000    0.00000    0.00000
   0.00000    0.00000    0.00000    0.00000    0.00000    0.00000   -0.00000   -0.00000
  -0.00000   -0.00000    0.00000    0.00000    0.00000    0.00000    0.00000   -0.00000
  -0.00000   -0.00000

 Eight components of 2nd-order total energy (hartree) are
 1,2,3: 0th-order hamiltonian combined with 1st-order wavefunctions
     kin0=   7.31000086E+01 eigvalue=  -7.74187163E-02  local=  -3.80941896E+01
 4,5,6: 1st-order hamiltonian combined with 1st and 0th-order wfs
     kin1=  -9.21814820E+01  Hartree=   0.00000000E+00     xc=   0.00000000E+00
 7,8,9: eventually, occupation + non-local contributions
    edocc=   1.37136189E+01     enl0=   6.65569746E+00   enl1=  -1.84139512E+01
 1-9 gives the relaxation energy (to be shifted if some occ is /=2.0)
   erelax=  -5.52977166E+01
  No Ewald or frozen-wf contrib.: the relaxation energy is the total one
 2DEtotal=   -0.5529771662E+02 Ha. Also 2DEtotal=   -0.150472739352E+04 eV
    (  non-var. 2DEtotal :   -5.5297716619E+01 Ha)

 CALCULATION OF EFFECTIVE MASSES
 NOTE : Additional infos (eff. mass eigenvalues, eigenvectors and, if degenerate, average mass) are available in stdout.

 COMMENTS:
 - At k-point ( 0.000, 0.000, 0.000), bands    39 through    41
   are DEGENERATE (effective mass tensor is therefore not defined).
   See Section IIIB Eqs. (67)-(70) and Appendix E of PRB 93 205147 (2016).
 - Angular average effective mass for Frohlich model is to be averaged over degenerate bands. See later.
 - Associated theta integrals calculated with ntheta=   1000 points.

 K-point ( 0.000, 0.000, 0.000) | band =    39
 Transport equivalent effective mass tensor:
             -0.9270103598             -0.0000001963              0.0000000000
             -0.0000001963             -0.9270101921             -0.0000000000
              0.0000000000             -0.0000000000             -0.9270094307
 Transport equivalent effective mass tensor eigenvalues:
             -0.9270104894             -0.9270100625             -0.9270094307
 Angular average effective mass 1/(<1/m>)=  -0.9046358663
 Angular average effective mass for Frohlich model (<m**0.5>)**2=  -0.9055410890
 Effective masses along directions: (cart. coord. / red. coord. -> eff. mass)
    1:   1.000000  0.000000  0.000000 /   0.948683  0.316228  0.000000 ->  -0.9435510439
    2:   0.000000  1.000000  0.000000 /   0.000000  1.000000  0.000000 ->  -1.0241955512
    3:   0.000000  0.000000  1.000000 /   0.408248  0.408248  0.816497 ->  -0.8746793478
    4:   0.577350  0.577350  0.577350 /   0.585539  0.688047  0.428644 ->  -0.9234465215
    5:   0.000000  0.707107  0.707107 /   0.289489  0.762222  0.578977 ->  -0.8790114051
    6:   0.707107  0.000000  0.707107 /   0.731423  0.422287  0.535439 ->  -0.8977225032
    7:   0.707107  0.707107  0.000000 /   0.616798  0.787122  0.000000 ->  -0.8801908611

[...]

 K-point ( 0.000, 0.000, 0.000) | band =    41
 Transport equivalent effective mass tensor:
            -17.4805951329             -0.0000000016             -0.0000000007
             -0.0000000016            -17.4805951336              0.0000000001
             -0.0000000007              0.0000000001            -17.4805951353
 Transport equivalent effective mass tensor eigenvalues:
            -17.4805951356            -17.4805951348            -17.4805951315
 Angular average effective mass 1/(<1/m>)=  -3.7939480958
 Angular average effective mass for Frohlich model (<m**0.5>)**2=  -4.2822656787
 Effective masses along directions: (cart. coord. / red. coord. -> eff. mass)
    1:   1.000000  0.000000  0.000000 /   0.948683  0.316228  0.000000 ->  -3.2741088306
    2:   0.000000  1.000000  0.000000 /   0.000000  1.000000  0.000000 ->  -2.4411975133
    3:   0.000000  0.000000  1.000000 /   0.408248  0.408248  0.816497 ->  -3.0657449833
    4:   0.577350  0.577350  0.577350 /   0.585539  0.688047  0.428644 ->  -3.2050705309
    5:   0.000000  0.707107  0.707107 /   0.289489  0.762222  0.578977 ->  -4.9537613288
    6:   0.707107  0.000000  0.707107 /   0.731423  0.422287  0.535439 ->  -3.1696088436
    7:   0.707107  0.707107  0.000000 /   0.616798  0.787122  0.000000 -> -10.2426228101

 Angular average effective mass for Frohlich model, averaged over degenerate bands.
 Value of     (<<m**0.5>>)**2 =     1.801002E+00
 Absolute Value of <<m**0.5>> =     1.342014E+00

 K-point ( 0.000, 0.000, 0.000) | band =    42
 Effective mass tensor:
              0.4101187811             -0.0000000000              0.0000000000
             -0.0000000000              0.4101187811              0.0000000000
              0.0000000000              0.0000000000              0.4101187812
 Effective mass tensor eigenvalues:
              0.4101187811              0.4101187811              0.4101187812
 Angular average effective mass 1/(<1/m>)=   0.4101187811
 Angular average effective mass for Frohlich model (<m**0.5>)**2=   0.4101187811
 Effective masses along directions: (cart. coord. / red. coord. -> eff. mass)
    1:   1.000000  0.000000  0.000000 /   0.948683  0.316228  0.000000 ->   0.4101187811
    2:   0.000000  1.000000  0.000000 /   0.000000  1.000000  0.000000 ->   0.4101187811
    3:   0.000000  0.000000  1.000000 /   0.408248  0.408248  0.816497 ->   0.4101187812
    4:   0.577350  0.577350  0.577350 /   0.585539  0.688047  0.428644 ->   0.4101187812
    5:   0.000000  0.707107  0.707107 /   0.289489  0.762222  0.578977 ->   0.4101187812
    6:   0.707107  0.000000  0.707107 /   0.731423  0.422287  0.535439 ->   0.4101187812
    7:   0.707107  0.707107  0.000000 /   0.616798  0.787122  0.000000 ->   0.4101187811

 END OF EFFECTIVE MASSES SECTION

 ---- first-order wavefunction calculations are completed ----

 Total localisation tensor (bohr^2) in cartesian coordinates
  WARNING : still subject to testing - especially symmetries.
      direction              matrix element
   alpha     beta       real part   imaginary part
     1        1       1.4139081407    0.0000000000
     1        2       0.3999136137    0.0000000000
     1        3       0.9795842947    0.0000000000
     2        1       0.3999136137    0.0000000000
     2        2       1.1311265125    0.0000000000
     2        3       0.6926706975    0.0000000000
     3        1       0.9795842947    0.0000000000
     3        2       0.6926706975    0.0000000000
     3        3       2.5450346530    0.0000000000

 respfn : d/dk was computed, but no 2DTE, so no DDB output.

== END DATASET(S) ==============================================================

 -outvars: echo values of variables after computation  --------
            acell      1.0000000000E+00  1.0000000000E+00  1.0000000000E+00 Bohr
              amu      1.37327000E+02  8.89058500E+01  1.21753000E+02
                       1.59994000E+01
             ecut      4.40000000E+01 Hartree
           etotal     -5.5297716620E+01
            fcart      0.0000000000E+00  0.0000000000E+00  0.0000000000E+00
                       0.0000000000E+00  0.0000000000E+00  0.0000000000E+00
                       0.0000000000E+00  0.0000000000E+00  0.0000000000E+00
                       0.0000000000E+00  0.0000000000E+00  0.0000000000E+00
                       0.0000000000E+00  0.0000000000E+00  0.0000000000E+00
                       0.0000000000E+00  0.0000000000E+00  0.0000000000E+00
                       0.0000000000E+00  0.0000000000E+00  0.0000000000E+00
                       0.0000000000E+00  0.0000000000E+00  0.0000000000E+00
                       0.0000000000E+00  0.0000000000E+00  0.0000000000E+00
                       0.0000000000E+00  0.0000000000E+00  0.0000000000E+00
-          fftalg         512
           irdden           1
           irdwfk           1
           istwfk        1
              ixc     -116133
           kptopt           0
P           mkmem           1
P          mkqmem           1
P          mk1mem           1
            natom          10
            nband          50
           nbdbuf           4
            ngfft          72      72      72
             nkpt           1
            nstep        2000
             nsym          48
           ntypat           4
              occ      2.000000  2.000000  2.000000  2.000000  2.000000  2.000000
                       2.000000  2.000000  2.000000  2.000000  2.000000  2.000000
                       2.000000  2.000000  2.000000  2.000000  2.000000  2.000000
                       2.000000  2.000000  2.000000  2.000000  2.000000  2.000000
                       2.000000  2.000000  2.000000  2.000000  2.000000  2.000000
                       2.000000  2.000000  2.000000  2.000000  2.000000  2.000000
                       2.000000  2.000000  2.000000  2.000000  2.000000  0.000000
                       0.000000  0.000000  0.000000  0.000000  0.000000  0.000000
                       0.000000  0.000000
        optdriver           1
            prtwf          -1
            rfdir           1       1       1
           rfelfd           2
            rprim      9.7307073557E+00  0.0000000000E+00  5.6180265112E+00
                       3.2435691186E+00  9.1741988760E+00  5.6180265112E+00
                       0.0000000000E+00  0.0000000000E+00  1.1236053023E+01
          spgroup         225
           strten      0.0000000000E+00  0.0000000000E+00  0.0000000000E+00
                       0.0000000000E+00  0.0000000000E+00  0.0000000000E+00
           symrel      1  0  0   0  1  0   0  0  1      -1  0  0   0 -1  0   0  0 -1
                       0 -1  1   0 -1  0   1 -1  0       0  1 -1   0  1  0  -1  1  0
                      -1  0  0  -1  0  1  -1  1  0       1  0  0   1  0 -1   1 -1  0
                       0  1 -1   1  0 -1   0  0 -1       0 -1  1  -1  0  1   0  0  1
                      -1  0  0  -1  1  0  -1  0  1       1  0  0   1 -1  0   1  0 -1
                       0 -1  1   1 -1  0   0 -1  0       0  1 -1  -1  1  0   0  1  0
                       1  0  0   0  0  1   0  1  0      -1  0  0   0  0 -1   0 -1  0
                       0  1 -1   0  0 -1   1  0 -1       0 -1  1   0  0  1  -1  0  1
                      -1  0  1  -1  1  0  -1  0  0       1  0 -1   1 -1  0   1  0  0
                       0 -1  0   1 -1  0   0 -1  1       0  1  0  -1  1  0   0  1 -1
                       1  0 -1   0  0 -1   0  1 -1      -1  0  1   0  0  1   0 -1  1
                       0  1  0   0  0  1   1  0  0       0 -1  0   0  0 -1  -1  0  0
                       1  0 -1   0  1 -1   0  0 -1      -1  0  1   0 -1  1   0  0  1
                       0 -1  0   0 -1  1   1 -1  0       0  1  0   0  1 -1  -1  1  0
                      -1  0  1  -1  0  0  -1  1  0       1  0 -1   1  0  0   1 -1  0
                       0  1  0   1  0  0   0  0  1       0 -1  0  -1  0  0   0  0 -1
                       0  0 -1   0  1 -1   1  0 -1       0  0  1   0 -1  1  -1  0  1
                       1 -1  0   0 -1  1   0 -1  0      -1  1  0   0  1 -1   0  1  0
                       0  0  1   1  0  0   0  1  0       0  0 -1  -1  0  0   0 -1  0
                      -1  1  0  -1  0  0  -1  0  1       1 -1  0   1  0  0   1  0 -1
                       0  0  1   0  1  0   1  0  0       0  0 -1   0 -1  0  -1  0  0
                       1 -1  0   0 -1  0   0 -1  1      -1  1  0   0  1  0   0  1 -1
                       0  0 -1   1  0 -1   0  1 -1       0  0  1  -1  0  1   0 -1  1
                      -1  1  0  -1  0  1  -1  0  0       1 -1  0   1  0 -1   1  0  0
           tolwfr      1.00000000E-20
            typat      1  1  2  3  4  4  4  4  4  4
           useylm           1
           xangst      5.1492685561E+00  3.6410827142E+00  8.9187947610E+00
                       1.7164228520E+00  1.2136942381E+00  2.9729315870E+00
                       0.0000000000E+00  0.0000000000E+00  0.0000000000E+00
                       3.4328457041E+00  2.4273884761E+00  5.9458631740E+00
                       4.2489258148E+00  1.2732769156E+00  4.5323709592E+00
                       4.2489258148E+00  1.2732769156E+00  7.3593553888E+00
                       2.6167655934E+00  3.5815000367E+00  4.5323709592E+00
                       1.8006854827E+00  1.2732769156E+00  5.9458631740E+00
                       2.6167655934E+00  3.5815000367E+00  7.3593553888E+00
                       5.0650059255E+00  3.5815000367E+00  5.9458631740E+00
            xcart      9.7307073557E+00  6.8806491570E+00  1.6854079534E+01
                       3.2435691186E+00  2.2935497190E+00  5.6180265112E+00
                       0.0000000000E+00  0.0000000000E+00  0.0000000000E+00
                       6.4871382371E+00  4.5870994380E+00  1.1236053022E+01
                       8.0293061488E+00  2.4061446618E+00  8.5649398456E+00
                       8.0293061488E+00  2.4061446618E+00  1.3907166199E+01
                       4.9449703255E+00  6.7680542142E+00  8.5649398456E+00
                       3.4028024137E+00  2.4061446618E+00  1.1236053022E+01
                       4.9449703255E+00  6.7680542142E+00  1.3907166199E+01
                       9.5714740606E+00  6.7680542142E+00  1.1236053022E+01
             xred      7.5000000000E-01  7.5000000000E-01  7.5000000000E-01
                       2.5000000000E-01  2.5000000000E-01  2.5000000000E-01
                       0.0000000000E+00  0.0000000000E+00  0.0000000000E+00
                       5.0000000000E-01  5.0000000000E-01  5.0000000000E-01
                       7.3772700000E-01  2.6227300000E-01  2.6227300000E-01
                       7.3772700000E-01  2.6227300000E-01  7.3772700000E-01
                       2.6227300000E-01  7.3772700000E-01  2.6227300000E-01
                       2.6227300000E-01  2.6227300000E-01  7.3772700000E-01
                       2.6227300000E-01  7.3772700000E-01  7.3772700000E-01
                       7.3772700000E-01  7.3772700000E-01  2.6227300000E-01
            znucl       56.00000   39.00000   51.00000    8.00000

- Timing analysis has been suppressed with timopt=0

 Suggested references for the acknowledgment of ABINIT usage.

 Calculation completed.
.Delivered   2 WARNINGs and   5 COMMENTs to log file.