.Version 9.5.2 of ABINIT

 ABINIT is a project of the Universite Catholique de Louvain,
 Corning Inc. and other collaborators, see ~abinit/doc/developers/contributors.txt .
 acknowledgments of the ABINIT effort.

.Starting date : Tue 25 May 2021.
- ( at 11h17 )

- input  file    -> /scratch/users/j/a/jabreu/flow_simple_10atoms/flow/w509/t1/run.abi
- output file    -> /scratch/users/j/a/jabreu/flow_simple_10atoms/flow/w509/t1/run.abo
- root for input  files -> /scratch/users/j/a/jabreu/flow_simple_10atoms/flow/w509/t1/indata/in
- root for output files -> /scratch/users/j/a/jabreu/flow_simple_10atoms/flow/w509/t1/outdata/out

 Symmetries : space group C2/c (# 15); Bravais mC (1-face-center monocl.)
     intxc =       0      iscf =       7    lmnmax =      18     lnmax =       6
     mgfft =      75  mpssoang =       3    mqgrid =    3436     natom =      10
  nloc_mem =       1    nspden =       1   nspinor =       1    nsppol =       1
      nsym =       4    n1xccc =    2501    ntypat =       2    occopt =       1
   xclevel =       2
-    mband =          79        mffmem =           1         mkmem =           2
-   mkqmem =           2        mk1mem =           2           mpw =       21106
      nfft =      421875          nkpt =           2
  Rough estimation (10% accuracy) of disk space for files :

------------- Echo of variables that govern the present computation ------------
-
- outvars: echo of selected default values
-   iomode0 =  0 , fftalg0 =512 , wfoptalg0 =  0
-
- outvars: echo of global parameters not present in the input file
-  max_nthreads =    0
-
 -outvars: echo values of preprocessed input variables --------
            acell      1.0000000000E+00  1.0000000000E+00  1.0000000000E+00 Bohr
              amu      4.49559100E+01  7.89600000E+01
             ecut      4.30000000E+01 Hartree
-          fftalg         512
           irdden           1
           irdwfk           1
           istwfk        1    0
              ixc     -116133
              kpt      0.00000000E+00  0.00000000E+00  0.00000000E+00
                       5.00000000E-01 -5.00000000E-01  0.00000000E+00
           kptopt           0
P           mkmem           2
P          mkqmem           2
P          mk1mem           2
            natom          10
            nband          79
           nbdbuf           4
            ngfft          75      75      75
             nkpt           2
            nstep        2000
             nsym           4
           ntypat           2
              occ      2.000000  2.000000  2.000000  2.000000  2.000000  2.000000
                       2.000000  2.000000  2.000000  2.000000  2.000000  2.000000
                       2.000000  2.000000  2.000000  2.000000  2.000000  2.000000
                       2.000000  2.000000  2.000000  2.000000  2.000000  2.000000
                       2.000000  2.000000  2.000000  2.000000  2.000000  2.000000
                       2.000000  2.000000  2.000000  2.000000  2.000000  2.000000
                       2.000000  2.000000  2.000000  2.000000  2.000000  2.000000
                       2.000000  2.000000  2.000000  2.000000  2.000000  2.000000
                       2.000000  2.000000  2.000000  2.000000  2.000000  2.000000
                       2.000000  2.000000  2.000000  2.000000  2.000000  2.000000
                       2.000000  2.000000  2.000000  2.000000  2.000000  2.000000
                       2.000000  2.000000  2.000000  2.000000  0.000000  0.000000
                       0.000000  0.000000  0.000000  0.000000  0.000000  0.000000
                       0.000000
        optdriver           1
            prtwf          -1
            rfdir           1       1       1
           rfelfd           2
            rprim      1.2244183430E+01  0.0000000000E+00  2.1096855380E+00
                      -6.5480546406E+00  1.0346159108E+01  2.1096855380E+00
                       0.0000000000E+00  0.0000000000E+00  1.2360176374E+01
          spgroup          15
           symrel      1  0  0   0  1  0   0  0  1      -1  0  0   0 -1  0   0  0 -1
                       0 -1  0  -1  0  0   0  0 -1       0  1  0   1  0  0   0  0  1
            tnons      0.0000000  0.0000000  0.0000000     0.0000000  0.0000000  0.0000000
                       0.0000000  0.0000000  0.5000000    -0.0000000  0.0000000  0.5000000
           tolwfr      1.00000000E-20
            typat      1  1  1  1  2  2  2  2  2  2
           useylm           1
              wtk        0.50000    0.50000
           xangst     -2.6059128687E+00  5.0019322033E+00  2.7515784119E+00
                       5.6201744012E+00  4.7301939307E-01  6.0219402276E+00
                      -9.5425341682E-01  4.0926029676E+00  6.0219402276E+00
                       3.9685149493E+00  1.3823486288E+00  2.7515784119E+00
                       1.5748545367E+00  8.6245817507E-01  3.8088646322E+00
                       1.4394069957E+00  4.6124934213E+00  4.9646540072E+00
                      -1.7325406382E+00  2.7374757982E+00  3.8285605677E+00
                       3.1277116504E+00  3.6829889890E+00  1.6942921915E+00
                      -1.1345011794E-01  1.7919626074E+00  7.0792264479E+00
                       3.2396714044E+00  0.0000000000E+00  5.5819875200E-01
            xcart     -4.9244616480E+00  9.4522819995E+00  5.1997296316E+00
                       1.0620590437E+01  8.9387710845E-01  1.1379817819E+01
                      -1.8032776192E+00  7.7338987794E+00  1.1379817819E+01
                       7.4994064084E+00  2.6122603285E+00  5.1997296316E+00
                       2.9760437735E+00  1.6298097519E+00  7.1977110321E+00
                       2.7200850157E+00  8.7163493560E+00  9.3818364182E+00
                      -3.2740273203E+00  5.1730795540E+00  7.2349309562E+00
                       5.9105184418E+00  6.9598405396E+00  3.2017482310E+00
                      -2.1438965265E-01  3.3863185683E+00  1.3377799219E+01
                       6.1220917149E+00  0.0000000000E+00  1.0548427690E+00
             xred      8.6397000000E-02  9.1360300000E-01  2.5000000000E-01
                       9.1360300000E-01  8.6397000000E-02  7.5000000000E-01
                       2.5248600000E-01  7.4751400000E-01  7.5000000000E-01
                       7.4751400000E-01  2.5248600000E-01  2.5000000000E-01
                       3.2730200000E-01  1.5752800000E-01  4.9957800000E-01
                       6.7269800000E-01  8.4247200000E-01  5.0042200000E-01
                       0.0000000000E+00  5.0000000000E-01  5.0000000000E-01
                       8.4247200000E-01  6.7269800000E-01  4.2200000000E-04
                       1.5752800000E-01  3.2730200000E-01  9.9957800000E-01
                       5.0000000000E-01  0.0000000000E+00  0.0000000000E+00
            znucl       21.00000   34.00000

 chkinp: Checking input parameters for consistency.

== DATASET  1 ==================================================================
-   mpi_nproc: 1, omp_nthreads: -1 (-1 if OMP is not activated)

--- !DatasetInfo
iteration_state: {dtset: 1, }
dimensions: {natom: 10, nkpt: 2, mband: 79, nsppol: 1, nspinor: 1, nspden: 1, mpw: 21106, }
cutoff_energies: {ecut:  43.0, pawecutdg:  -1.0, }
electrons: {nelect:   1.40000000E+02, charge:   0.00000000E+00, occopt:   1.00000000E+00, tsmear:   1.00000000E-02, }
meta: {optdriver: 1, rfelfd: 2, }
...

 Real(R)+Recip(G) space primitive vectors, cartesian coordinates (Bohr,Bohr^-1):
 R(1)= 12.2441834  0.0000000  2.1096855  G(1)=  0.0816714  0.0516896  0.0000000
 R(2)= -6.5480546 10.3461591  2.1096855  G(2)=  0.0000000  0.0966542  0.0000000
 R(3)=  0.0000000  0.0000000 12.3601764  G(3)= -0.0139400 -0.0253199  0.0809050
 Unit cell volume ucvol=  1.5657905E+03 bohr^3
 Angles (23,13,12)=  8.02238669E+01  8.02238669E+01  1.19375977E+02 degrees

 getcut: wavevector=  0.0000  0.0000  0.0000  ngfft=  75  75  75
         ecut(hartree)=     43.000   => boxcut(ratio)=   2.01777

--- Pseudopotential description ------------------------------------------------
- pspini: atom type   1  psp file is /scratch/users/j/a/jabreu/pseudos/PBEsol/Sc.psp8
- pspatm: opening atomic psp file    /scratch/users/j/a/jabreu/pseudos/PBEsol/Sc.psp8
- Sc    ONCVPSP-3.3.0  r_core=   1.35663   1.35663   1.66161
- 21.00000  11.00000    180112                znucl, zion, pspdat
    8 -116133    2    4       600   0.00000   pspcod,pspxc,lmax,lloc,mmax,r2well
    5.99000000000000    5.00000000000000    0.00000000000000   rchrg,fchrg,qchrg
     nproj     2     2     2
     extension_switch     1
  pspatm : epsatm=   13.58981094
         --- l  ekb(1:nproj) -->
             0   10.810997    0.948773
             1    2.871172    0.364831
             2   -4.789751   -1.321945
 pspatm: atomic psp has been read  and splines computed

- pspini: atom type   2  psp file is /scratch/users/j/a/jabreu/pseudos/PBEsol/Se.psp8
- pspatm: opening atomic psp file    /scratch/users/j/a/jabreu/pseudos/PBEsol/Se.psp8
- Se    ONCVPSP-3.3.0  r_core=   1.81943   1.50330   1.90835
- 34.00000  16.00000    180112                znucl, zion, pspdat
    8 -116133    2    4       600   0.00000   pspcod,pspxc,lmax,lloc,mmax,r2well
    5.99000000000000    5.00000000000000    0.00000000000000   rchrg,fchrg,qchrg
     nproj     2     2     2
     extension_switch     1
  pspatm : epsatm=   29.17862020
         --- l  ekb(1:nproj) -->
             0    8.973804    1.019550
             1    6.849857    1.297308
             2   -9.203962   -3.731027
 pspatm: atomic psp has been read  and splines computed

   3.21203351E+04                                ecore*ucvol(ha*bohr**3)

 ==>  initialize data related to q vector <==

 The list of irreducible perturbations for this q vector is:
    1)    idir= 1    ipert=  11
    2)    idir= 2    ipert=  11
    3)    idir= 3    ipert=  11

 Perturbation wavevector (in red.coord.)   0.000000  0.000000  0.000000
 Perturbation : derivative vs k along direction   1

 dfpt_looppert : COMMENT -
  In a d/dk calculation, iscf is set to -3 automatically.
 The set of symmetries contains only one element for this perturbation.
 symkpt : not enough symmetry to change the number of k points.

 Initialisation of the first-order wave-functions :
  ireadwf=   0

--- !BeginCycle
iteration_state: {dtset: 1, }
solver: {iscf: 7, nstep: 2000, nline: 4, wfoptalg: 0, }
tolerances: {tolwfr: 1.00E-20, }
...

     iter   2DEtotal(Ha)        deltaE(Ha) residm    vres2
-ETOT  1  -108.45155464815     -1.085E+02 1.033E-01 0.000E+00
 ETOT  2  -109.01468029600     -5.631E-01 6.882E-02 0.000E+00
 ETOT  3  -109.06095721185     -4.628E-02 2.266E-02 0.000E+00
 ETOT  4  -109.06807522135     -7.118E-03 2.827E-02 0.000E+00
 ETOT  5  -109.06940424246     -1.329E-03 1.131E-02 0.000E+00
 ETOT  6  -109.06968583760     -2.816E-04 1.641E-02 0.000E+00
 ETOT  7  -109.06975054097     -6.470E-05 6.900E-03 0.000E+00
 ETOT  8  -109.06976633673     -1.580E-05 1.001E-02 0.000E+00
 ETOT  9  -109.06977040202     -4.065E-06 4.272E-03 0.000E+00
 ETOT 10  -109.06977149004     -1.088E-06 6.176E-03 0.000E+00
 ETOT 11  -109.06977179166     -3.016E-07 2.674E-03 0.000E+00
 ETOT 12  -109.06977187743     -8.576E-08 3.836E-03 0.000E+00
[...]
 ETOT  6  -86.368352039004     -1.861E-04 4.707E-03 0.000E+00
 ETOT  7  -86.368390841007     -3.880E-05 2.744E-03 0.000E+00
 ETOT  8  -86.368399355660     -8.515E-06 2.478E-03 0.000E+00
 ETOT  9  -86.368401325022     -1.969E-06 1.665E-03 0.000E+00
 ETOT 10  -86.368401797298     -4.723E-07 1.606E-03 0.000E+00
 ETOT 11  -86.368401915461     -1.182E-07 1.051E-03 0.000E+00
 ETOT 12  -86.368401945825     -3.036E-08 1.083E-03 0.000E+00
 ETOT 13  -86.368401953840     -8.015E-09 6.920E-04 0.000E+00
 ETOT 14  -86.368401955995     -2.155E-09 7.328E-04 0.000E+00
 ETOT 15  -86.368401956585     -5.901E-10 4.591E-04 0.000E+00
 ETOT 16  -86.368401956749     -1.638E-10 4.955E-04 0.000E+00
 ETOT 17  -86.368401956795     -4.596E-11 3.059E-04 0.000E+00
 ETOT 18  -86.368401956808     -1.299E-11 3.345E-04 0.000E+00
 ETOT 19  -86.368401956811     -3.766E-12 2.043E-04 0.000E+00
 ETOT 20  -86.368401956812     -9.948E-13 2.255E-04 0.000E+00
 ETOT 21  -86.368401956813     -3.695E-13 1.366E-04 0.000E+00
 ETOT 22  -86.368401956813     -1.137E-13 1.517E-04 0.000E+00
 ETOT 23  -86.368401956813     -2.842E-14 9.138E-05 0.000E+00
 ETOT 24  -86.368401956813     -1.421E-14 1.019E-04 0.000E+00
 ETOT 25  -86.368401956813      1.421E-14 6.114E-05 0.000E+00
 ETOT 26  -86.368401956813      0.000E+00 6.841E-05 0.000E+00
 ETOT 27  -86.368401956813      0.000E+00 4.091E-05 0.000E+00
 ETOT 28  -86.368401956813      0.000E+00 4.587E-05 0.000E+00
 ETOT 29  -86.368401956813     -4.263E-14 2.737E-05 0.000E+00
 ETOT 30  -86.368401956813      2.842E-14 3.073E-05 0.000E+00
 ETOT 31  -86.368401956813      0.000E+00 1.830E-05 0.000E+00
 ETOT 32  -86.368401956813      0.000E+00 2.058E-05 0.000E+00
 ETOT 33  -86.368401956813     -1.421E-14 1.224E-05 0.000E+00
 ETOT 34  -86.368401956813     -1.421E-14 1.377E-05 0.000E+00
 ETOT 35  -86.368401956813      1.421E-14 8.185E-06 0.000E+00
 ETOT 36  -86.368401956813      1.421E-14 9.215E-06 0.000E+00
 ETOT 37  -86.368401956813      2.842E-14 5.471E-06 0.000E+00
 ETOT 38  -86.368401956813      0.000E+00 6.163E-06 0.000E+00
 ETOT 39  -86.368401956813     -1.421E-14 3.657E-06 0.000E+00
 ETOT 40  -86.368401956813      0.000E+00 4.120E-06 0.000E+00
 ETOT 41  -86.368401956813      0.000E+00 2.443E-06 0.000E+00
 ETOT 42  -86.368401956813      0.000E+00 2.754E-06 0.000E+00
 ETOT 43  -86.368401956813      0.000E+00 1.632E-06 0.000E+00
 ETOT 44  -86.368401956813     -1.421E-14 1.841E-06 0.000E+00
 ETOT 45  -86.368401956813      2.842E-14 1.090E-06 0.000E+00
 ETOT 46  -86.368401956813     -1.421E-14 1.230E-06 0.000E+00
 ETOT 47  -86.368401956813      1.421E-14 7.283E-07 0.000E+00
 ETOT 48  -86.368401956813      0.000E+00 8.217E-07 0.000E+00
 ETOT 49  -86.368401956813     -1.421E-14 4.864E-07 0.000E+00
 ETOT 50  -86.368401956813      0.000E+00 5.490E-07 0.000E+00
 ETOT 51  -86.368401956813      1.421E-14 3.248E-07 0.000E+00
 ETOT 52  -86.368401956813      0.000E+00 3.667E-07 0.000E+00
 ETOT 53  -86.368401956813     -2.842E-14 2.168E-07 0.000E+00
 ETOT 54  -86.368401956813      2.842E-14 2.449E-07 0.000E+00
 ETOT 55  -86.368401956813     -2.842E-14 1.448E-07 0.000E+00
 ETOT 56  -86.368401956813     -2.842E-14 1.636E-07 0.000E+00
 ETOT 57  -86.368401956813      1.421E-14 9.663E-08 0.000E+00
 ETOT 58  -86.368401956813      1.421E-14 1.092E-07 0.000E+00
 ETOT 59  -86.368401956813      0.000E+00 6.450E-08 0.000E+00
 ETOT 60  -86.368401956813     -1.421E-14 7.295E-08 0.000E+00
 ETOT 61  -86.368401956813      1.421E-14 4.305E-08 0.000E+00
[...]
 ETOT  192  -86.368401956813      0.000E+00 2.023E-19 0.000E+00
 ETOT  193  -86.368401956813      0.000E+00 1.160E-19 0.000E+00
 ETOT  194  -86.368401956813      0.000E+00 1.356E-19 0.000E+00
 ETOT  195  -86.368401956813      0.000E+00 7.774E-20 0.000E+00
 ETOT  196  -86.368401956813      0.000E+00 9.087E-20 0.000E+00
 ETOT  197  -86.368401956813      0.000E+00 5.211E-20 0.000E+00
 ETOT  198  -86.368401956813      0.000E+00 6.093E-20 0.000E+00
 ETOT  199  -86.368401956813     -5.684E-14 3.494E-20 0.000E+00
 ETOT  200  -86.368401956813      4.263E-14 4.086E-20 0.000E+00
 ETOT  201  -86.368401956813      1.421E-14 2.344E-20 0.000E+00
 ETOT  202  -86.368401956813      0.000E+00 2.741E-20 0.000E+00
 ETOT  203  -86.368401956813     -2.842E-14 1.572E-20 0.000E+00
 ETOT  204  -86.368401956813      0.000E+00 1.839E-20 0.000E+00
 ETOT  205  -86.368401956813     -2.842E-14 1.055E-20 0.000E+00
 ETOT  206  -86.368401956813      2.842E-14 9.991E-21 0.000E+00

 At SCF step  206   max residual=  9.99E-21 < tolwfr=  1.00E-20 =>converged.

 ----iterations are completed or convergence reached----

 dfpt_looppert: DFPT cycle converged with prtwf=-1. Will skip output of the 1st-order WFK file.
 dfpt_looppert : ek2=    8.1589711769E+01
          f-sum rule ratio=    1.0714939372E+00
 prteigrs : about to open file /scratch/users/j/a/jabreu/flow_simple_10atoms/flow/w509/t1/tmpdata/tmp_1WF1_EIG
 Expectation of eigenvalue derivatives (hartree) for nkpt=   2  k points:
  (in case of degenerate eigenvalues, averaged derivative)
 kpt#   1, nband= 79, wtk=  0.50000, kpt=  0.0000  0.0000  0.0000 (reduced coord)
  -0.00000   -0.00000   -0.00000    0.00000    0.00000   -0.00000   -0.00000    0.00000
  -0.00000    0.00000   -0.00000    0.00000    0.00000   -0.00000    0.00000    0.00000
  -0.00000    0.00000    0.00000    0.00000   -0.00000    0.00000    0.00000   -0.00000
   0.00000    0.00000   -0.00000   -0.00000    0.00000   -0.00000    0.00000    0.00000
   0.00000   -0.00000    0.00000    0.00000   -0.00000    0.00000   -0.00000    0.00000
  -0.00000   -0.00000    0.00000    0.00000   -0.00000   -0.00000    0.00000   -0.00000
  -0.00000   -0.00000    0.00000    0.00000    0.00000   -0.00000    0.00000   -0.00000
  -0.00000   -0.00000   -0.00000    0.00000   -0.00000    0.00000    0.00000    0.00000
   0.00000    0.00000   -0.00000   -0.00000    0.00000    0.00000   -0.00000   -0.00000
  -0.00000    0.00000   -0.00000   -0.00000   -0.00000    0.00000    0.00000
 prteigrs : prtvol=0 or 1, do not print more k-points.

 Eight components of 2nd-order total energy (hartree) are
 1,2,3: 0th-order hamiltonian combined with 1st-order wavefunctions
     kin0=   1.28352209E+02 eigvalue=   1.10415446E+01  local=  -6.64385793E+01
 4,5,6: 1st-order hamiltonian combined with 1st and 0th-order wfs
     kin1=  -8.74228815E+01  Hartree=   0.00000000E+00     xc=   0.00000000E+00
 7,8,9: eventually, occupation + non-local contributions
    edocc=   7.17316921E+00     enl0=   6.24005841E+00   enl1=  -8.53139224E+01
 1-9 gives the relaxation energy (to be shifted if some occ is /=2.0)
   erelax=  -8.63684020E+01
  No Ewald or frozen-wf contrib.: the relaxation energy is the total one
 2DEtotal=   -0.8636840196E+02 Ha. Also 2DEtotal=   -0.235020373902E+04 eV
    (  non-var. 2DEtotal :   -8.6368401956E+01 Ha)

 CALCULATION OF EFFECTIVE MASSES
 NOTE : Additional infos (eff. mass eigenvalues, eigenvectors and, if degenerate, average mass) are available in stdout.

 K-point ( 0.000, 0.000, 0.000) | band =    70
 Effective mass tensor:
             -0.4199758524             -0.0640961914             -0.0108612784
             -0.0640961914             -0.5011085058             -0.0197277439
             -0.0108612784             -0.0197277439             -0.1421547712
 Effective mass tensor eigenvalues:
             -0.5376791903             -0.3846873928             -0.1408725463
 Angular average effective mass 1/(<1/m>)=  -0.2595610702
 Angular average effective mass for Frohlich model (<m**0.5>)**2=  -0.2883831698
 Effective masses along directions: (cart. coord. / red. coord. -> eff. mass)
    1:   1.000000  0.000000  0.000000 /   0.881819 -0.471587  0.000000 ->  -0.4112856469
    2:   0.000000  1.000000  0.000000 /   0.000000  1.000000  0.000000 ->  -0.4890246819
    3:   0.000000  0.000000  1.000000 /   0.165919  0.165919  0.972081 ->  -0.1412092937
    4:   0.577350  0.577350  0.577350 /   0.723404  0.297740  0.622926 ->  -0.2958703511
    5:   0.000000  0.707107  0.707107 /   0.119366  0.704752  0.699340 ->  -0.2324049252
    6:   0.707107  0.000000  0.707107 /   0.737789 -0.228132  0.635313 ->  -0.2167716626
    7:   0.707107  0.707107  0.000000 /   0.955104  0.296270  0.000000 ->  -0.5173864995

 K-point ( 0.500,-0.500, 0.000) | band =    71
 Effective mass tensor:
              0.3919670864              0.2647064579              0.4257435112
              0.2647064579              0.7270309188              0.7732987492
              0.4257435112              0.7732987492              1.4029330612
 Effective mass tensor eigenvalues:
              0.2161568941              0.2462316219              2.0595425504
 Angular average effective mass 1/(<1/m>)=   0.3270456695
 Angular average effective mass for Frohlich model (<m**0.5>)**2=   0.3925277231
 Effective masses along directions: (cart. coord. / red. coord. -> eff. mass)
    1:   1.000000  0.000000  0.000000 /   0.881819 -0.471587  0.000000 ->   0.2597687608
    2:   0.000000  1.000000  0.000000 /   0.000000  1.000000  0.000000 ->   0.2973542189
    3:   0.000000  0.000000  1.000000 /   0.165919  0.165919  0.972081 ->   0.5100841754
    4:   0.577350  0.577350  0.577350 /   0.723404  0.297740  0.622926 ->   0.9942049773
    5:   0.000000  0.707107  0.707107 /   0.119366  0.704752  0.699340 ->   1.0814363370
    6:   0.707107  0.000000  0.707107 /   0.737789 -0.228132  0.635313 ->   0.5131657243
    7:   0.707107  0.707107  0.000000 /   0.955104  0.296270  0.000000 ->   0.3103783456

 END OF EFFECTIVE MASSES SECTION

 ---- first-order wavefunction calculations are completed ----

 Total localisation tensor (bohr^2) in cartesian coordinates
  WARNING : still subject to testing - especially symmetries.
      direction              matrix element
   alpha     beta       real part   imaginary part
     1        1       2.4436312965    0.0000000000
     1        2      -0.8586712127    0.0000000000
     1        3       0.1523114496    0.0000000000
     2        1      -0.8586712127    0.0000000000
     2        2       1.3567310408    0.0000000000
     2        3       0.2766510573    0.0000000000
     3        1       0.1523114496    0.0000000000
     3        2       0.2766510573    0.0000000000
     3        3       1.7385226303    0.0000000000

 respfn : d/dk was computed, but no 2DTE, so no DDB output.

== END DATASET(S) ==============================================================

 -outvars: echo values of variables after computation  --------
            acell      1.0000000000E+00  1.0000000000E+00  1.0000000000E+00 Bohr
              amu      4.49559100E+01  7.89600000E+01
             ecut      4.30000000E+01 Hartree
           etotal     -8.6368401957E+01
            fcart      0.0000000000E+00  0.0000000000E+00  0.0000000000E+00
                       0.0000000000E+00  0.0000000000E+00  0.0000000000E+00
                       0.0000000000E+00  0.0000000000E+00  0.0000000000E+00
                       0.0000000000E+00  0.0000000000E+00  0.0000000000E+00
                       0.0000000000E+00  0.0000000000E+00  0.0000000000E+00
                       0.0000000000E+00  0.0000000000E+00  0.0000000000E+00
                       0.0000000000E+00  0.0000000000E+00  0.0000000000E+00
                       0.0000000000E+00  0.0000000000E+00  0.0000000000E+00
                       0.0000000000E+00  0.0000000000E+00  0.0000000000E+00
                       0.0000000000E+00  0.0000000000E+00  0.0000000000E+00
-          fftalg         512
           irdden           1
           irdwfk           1
           istwfk        1    0
              ixc     -116133
              kpt      0.00000000E+00  0.00000000E+00  0.00000000E+00
                       5.00000000E-01 -5.00000000E-01  0.00000000E+00
           kptopt           0
P           mkmem           2
P          mkqmem           2
P          mk1mem           2
            natom          10
            nband          79
           nbdbuf           4
            ngfft          75      75      75
             nkpt           2
            nstep        2000
             nsym           4
           ntypat           2
              occ      2.000000  2.000000  2.000000  2.000000  2.000000  2.000000
                       2.000000  2.000000  2.000000  2.000000  2.000000  2.000000
                       2.000000  2.000000  2.000000  2.000000  2.000000  2.000000
                       2.000000  2.000000  2.000000  2.000000  2.000000  2.000000
                       2.000000  2.000000  2.000000  2.000000  2.000000  2.000000
                       2.000000  2.000000  2.000000  2.000000  2.000000  2.000000
                       2.000000  2.000000  2.000000  2.000000  2.000000  2.000000
                       2.000000  2.000000  2.000000  2.000000  2.000000  2.000000
                       2.000000  2.000000  2.000000  2.000000  2.000000  2.000000
                       2.000000  2.000000  2.000000  2.000000  2.000000  2.000000
                       2.000000  2.000000  2.000000  2.000000  2.000000  2.000000
                       2.000000  2.000000  2.000000  2.000000  0.000000  0.000000
                       0.000000  0.000000  0.000000  0.000000  0.000000  0.000000
                       0.000000
        optdriver           1
            prtwf          -1
            rfdir           1       1       1
           rfelfd           2
            rprim      1.2244183430E+01  0.0000000000E+00  2.1096855380E+00
                      -6.5480546406E+00  1.0346159108E+01  2.1096855380E+00
                       0.0000000000E+00  0.0000000000E+00  1.2360176374E+01
          spgroup          15
           strten      0.0000000000E+00  0.0000000000E+00  0.0000000000E+00
                       0.0000000000E+00  0.0000000000E+00  0.0000000000E+00
           symrel      1  0  0   0  1  0   0  0  1      -1  0  0   0 -1  0   0  0 -1
                       0 -1  0  -1  0  0   0  0 -1       0  1  0   1  0  0   0  0  1
            tnons      0.0000000  0.0000000  0.0000000     0.0000000  0.0000000  0.0000000
                       0.0000000  0.0000000  0.5000000    -0.0000000  0.0000000  0.5000000
           tolwfr      1.00000000E-20
            typat      1  1  1  1  2  2  2  2  2  2
           useylm           1
              wtk        0.50000    0.50000
           xangst     -2.6059128687E+00  5.0019322033E+00  2.7515784119E+00
                       5.6201744012E+00  4.7301939307E-01  6.0219402276E+00
                      -9.5425341682E-01  4.0926029676E+00  6.0219402276E+00
                       3.9685149493E+00  1.3823486288E+00  2.7515784119E+00
                       1.5748545367E+00  8.6245817507E-01  3.8088646322E+00
                       1.4394069957E+00  4.6124934213E+00  4.9646540072E+00
                      -1.7325406382E+00  2.7374757982E+00  3.8285605677E+00
                       3.1277116504E+00  3.6829889890E+00  1.6942921915E+00
                      -1.1345011794E-01  1.7919626074E+00  7.0792264479E+00
                       3.2396714044E+00  0.0000000000E+00  5.5819875200E-01
            xcart     -4.9244616480E+00  9.4522819995E+00  5.1997296316E+00
                       1.0620590437E+01  8.9387710845E-01  1.1379817819E+01
                      -1.8032776192E+00  7.7338987794E+00  1.1379817819E+01
                       7.4994064084E+00  2.6122603285E+00  5.1997296316E+00
                       2.9760437735E+00  1.6298097519E+00  7.1977110321E+00
                       2.7200850157E+00  8.7163493560E+00  9.3818364182E+00
                      -3.2740273203E+00  5.1730795540E+00  7.2349309562E+00
                       5.9105184418E+00  6.9598405396E+00  3.2017482310E+00
                      -2.1438965265E-01  3.3863185683E+00  1.3377799219E+01
                       6.1220917149E+00  0.0000000000E+00  1.0548427690E+00
             xred      8.6397000000E-02  9.1360300000E-01  2.5000000000E-01
                       9.1360300000E-01  8.6397000000E-02  7.5000000000E-01
                       2.5248600000E-01  7.4751400000E-01  7.5000000000E-01
                       7.4751400000E-01  2.5248600000E-01  2.5000000000E-01
                       3.2730200000E-01  1.5752800000E-01  4.9957800000E-01
                       6.7269800000E-01  8.4247200000E-01  5.0042200000E-01
                       0.0000000000E+00  5.0000000000E-01  5.0000000000E-01
                       8.4247200000E-01  6.7269800000E-01  4.2200000000E-04
                       1.5752800000E-01  3.2730200000E-01  9.9957800000E-01
                       5.0000000000E-01  0.0000000000E+00  0.0000000000E+00
            znucl       21.00000   34.00000

- Timing analysis has been suppressed with timopt=0

 Suggested references for the acknowledgment of ABINIT usage.

 Calculation completed.
.Delivered   2 WARNINGs and   7 COMMENTs to log file.