.Version 9.5.1 of ABINIT

 ABINIT is a project of the Universite Catholique de Louvain,
 Corning Inc. and other collaborators, see ~abinit/doc/developers/contributors.txt .
 acknowledgments of the ABINIT effort.

.Starting date : Wed  5 May 2021.
- ( at 19h19 )

- input  file    -> /scratch/users/j/a/jabreu/flow_simple_7atoms/flow/w102/t1/run.abi
- output file    -> /scratch/users/j/a/jabreu/flow_simple_7atoms/flow/w102/t1/run.abo
- root for input  files -> /scratch/users/j/a/jabreu/flow_simple_7atoms/flow/w102/t1/indata/in
- root for output files -> /scratch/users/j/a/jabreu/flow_simple_7atoms/flow/w102/t1/outdata/out

 Symmetries : space group I4/m m m (#139); Bravais tI (body-center tetrag.)
     intxc =       0      iscf =       7    lmnmax =      32     lnmax =       8
     mgfft =      60  mpssoang =       4    mqgrid =    3001     natom =       7
  nloc_mem =       1    nspden =       1   nspinor =       1    nsppol =       1
      nsym =      16    n1xccc =    2501    ntypat =       3    occopt =       1
   xclevel =       2
-    mband =          29        mffmem =           1         mkmem =           2
-   mkqmem =           2        mk1mem =           2           mpw =        8470
      nfft =      216000          nkpt =           2
  Rough estimation (10% accuracy) of disk space for files :

------------- Echo of variables that govern the present computation ------------
-
- outvars: echo of selected default values
-   iomode0 =  0 , fftalg0 =512 , wfoptalg0 =  0
-
- outvars: echo of global parameters not present in the input file
-  max_nthreads =    0
-
 -outvars: echo values of preprocessed input variables --------
            acell      1.0000000000E+00  1.0000000000E+00  1.0000000000E+00 Bohr
              amu      2.29897680E+01  1.00794000E+00  1.95080000E+02
             ecut      4.40000000E+01 Hartree
-          fftalg         512
           irdden           1
           irdwfk           1
              ixc     -116133
              kpt      5.00000000E-01  5.00000000E-01 -3.24923134E-01
                       5.00000000E-01  5.00000000E-01 -5.00000000E-01
           kptopt           0
P           mkmem           2
P          mkqmem           2
P          mk1mem           2
            natom           7
            nband          29
           nbdbuf           4
            ngfft          60      60      60
             nkpt           2
            nstep        2000
             nsym          16
           ntypat           3
              occ      2.000000  2.000000  2.000000  2.000000  2.000000  2.000000
                       2.000000  2.000000  2.000000  2.000000  2.000000  2.000000
                       2.000000  2.000000  2.000000  2.000000  2.000000  2.000000
                       2.000000  2.000000  0.000000  0.000000  0.000000  0.000000
                       0.000000  0.000000  0.000000  0.000000  0.000000
        optdriver           1
            prtwf          -1
            rfdir           1       1       1
           rfelfd           2
            rprim      8.3614407380E+00  0.0000000000E+00 -4.2141696158E+00
                      -3.1710306710E+00  7.7368117270E+00 -4.2141696158E+00
                       0.0000000000E+00  0.0000000000E+00  9.3633816950E+00
          spgroup         139
           symrel      1  0  0   0  1  0   0  0  1      -1  0  0   0 -1  0   0  0 -1
                      -1 -1 -1   0  0  1   0  1  0       1  1  1   0  0 -1   0 -1  0
                       0  1  0   1  0  0  -1 -1 -1       0 -1  0  -1  0  0   1  1  1
                       0  0  1  -1 -1 -1   1  0  0       0  0 -1   1  1  1  -1  0  0
                       0  1  0   1  0  0   0  0  1       0 -1  0  -1  0  0   0  0 -1
                      -1 -1 -1   0  0  1   1  0  0       1  1  1   0  0 -1  -1  0  0
                       1  0  0   0  1  0  -1 -1 -1      -1  0  0   0 -1  0   1  1  1
                       0  0  1  -1 -1 -1   0  1  0       0  0 -1   1  1  1   0 -1  0
           tolwfr      1.00000000E-20
            typat      1  1  2  2  2  2  3
           useylm           1
              wtk        0.50000    0.50000
           xangst      2.8990036124E+00  1.0235361083E+00  2.4740158035E-01
                      -1.5235690174E-01  3.0706083248E+00  2.4740158035E-01
                       6.1603234417E-01  9.1825620771E-01  1.2222853866E+00
                       2.1306143665E+00  3.1758882254E+00 -7.2748222594E-01
                      -3.0928684731E-01  3.1758882254E+00 -2.2300425138E+00
                       3.0559335580E+00  9.1825620771E-01 -2.2300425138E+00
                       0.0000000000E+00  0.0000000000E+00  0.0000000000E+00
            xcart      5.4783228858E+00  1.9342029318E+00  4.6752123170E-01
                      -2.8791281875E-01  5.8026087953E+00  4.6752123170E-01
                       1.1641324195E+00  1.7352527524E+00  2.3097846370E+00
                       4.0262776475E+00  6.0015589746E+00 -1.3747421736E+00
                      -5.8446743791E-01  6.0015589746E+00 -4.2141696158E+00
                       5.7748775049E+00  1.7352527524E+00 -4.2141696158E+00
                       0.0000000000E+00  0.0000000000E+00  0.0000000000E+00
             xred      7.5000000000E-01  2.5000000000E-01  5.0000000000E-01
                       2.5000000000E-01  7.5000000000E-01  5.0000000000E-01
                       2.2428525000E-01  2.2428525000E-01  4.4857050000E-01
                       7.7571475000E-01  7.7571475000E-01  5.5142950000E-01
                       2.2428525000E-01  7.7571475000E-01  0.0000000000E+00
                       7.7571475000E-01  2.2428525000E-01  0.0000000000E+00
                       0.0000000000E+00  0.0000000000E+00  0.0000000000E+00
            znucl       11.00000    1.00000   78.00000

 chkinp: Checking input parameters for consistency.

== DATASET  1 ==================================================================
-   mpi_nproc: 1, omp_nthreads: -1 (-1 if OMP is not activated)

--- !DatasetInfo
iteration_state: {dtset: 1, }
dimensions: {natom: 7, nkpt: 2, mband: 29, nsppol: 1, nspinor: 1, nspden: 1, mpw: 8470, }
cutoff_energies: {ecut:  44.0, pawecutdg:  -1.0, }
electrons: {nelect:   4.00000000E+01, charge:   0.00000000E+00, occopt:   1.00000000E+00, tsmear:   1.00000000E-02, }
meta: {optdriver: 1, rfelfd: 2, }
...

 Real(R)+Recip(G) space primitive vectors, cartesian coordinates (Bohr,Bohr^-1):
 R(1)=  8.3614407  0.0000000 -4.2141696  G(1)=  0.1195966  0.0490182  0.0000000
 R(2)= -3.1710307  7.7368117 -4.2141696  G(2)=  0.0000000  0.1292522  0.0000000
 R(3)=  0.0000000  0.0000000  9.3633817  G(3)=  0.0538268  0.0802340  0.1067990
 Unit cell volume ucvol=  6.0572552E+02 bohr^3
 Angles (23,13,12)=  1.16748123E+02  1.16748123E+02  9.57312020E+01 degrees

 getcut: wavevector=  0.0000  0.0000  0.0000  ngfft=  60  60  60
         ecut(hartree)=     44.000   => boxcut(ratio)=   2.14653

--- Pseudopotential description ------------------------------------------------
- pspini: atom type   1  psp file is /scratch/users/j/a/jabreu/pseudos/PBEsol/Na.psp8
- pspatm: opening atomic psp file    /scratch/users/j/a/jabreu/pseudos/PBEsol/Na.psp8
- Na    ONCVPSP-3.3.0  r_core=   1.20708   1.55069
- 11.00000   9.00000    180112                znucl, zion, pspdat
    8 -116133    1    4       400   0.00000   pspcod,pspxc,lmax,lloc,mmax,r2well
    3.99000000000000    0.00000000000000    0.00000000000000   rchrg,fchrg,qchrg
     nproj     2     2
     extension_switch     1
  pspatm : epsatm=    9.32878306
         --- l  ekb(1:nproj) -->
             0    2.657905   -0.678300
             1   -6.761319   -2.404728
 pspatm: atomic psp has been read  and splines computed

- pspini: atom type   2  psp file is /scratch/users/j/a/jabreu/pseudos/PBEsol/H.psp8
- pspatm: opening atomic psp file    /scratch/users/j/a/jabreu/pseudos/PBEsol/H.psp8
- H     ONCVPSP-3.3.0  r_core=   1.00957   0.70586
-  1.00000   1.00000    180112                znucl, zion, pspdat
    8 -116133    1    4       300   0.00000   pspcod,pspxc,lmax,lloc,mmax,r2well
    2.99000000000000    0.00000000000000    0.00000000000000   rchrg,fchrg,qchrg
     nproj     2     1
     extension_switch     1
  pspatm : epsatm=    0.35627032
         --- l  ekb(1:nproj) -->
             0   -1.674911   -0.523609
             1   -0.494138
 pspatm: atomic psp has been read  and splines computed

- pspini: atom type   3  psp file is /scratch/users/j/a/jabreu/pseudos/PBEsol/Pt.psp8
- pspatm: opening atomic psp file    /scratch/users/j/a/jabreu/pseudos/PBEsol/Pt.psp8
- Pt    ONCVPSP-3.3.0  r_core=   1.45722   1.45722   1.45722   1.91724
- 78.00000  18.00000    180112                znucl, zion, pspdat
    8 -116133    3    4       500   0.00000   pspcod,pspxc,lmax,lloc,mmax,r2well
    4.99000000000000    5.00000000000000    0.00000000000000   rchrg,fchrg,qchrg
     nproj     2     2     2     2
     extension_switch     1
  pspatm : epsatm=   26.54019552
         --- l  ekb(1:nproj) -->
             0   18.149684    1.747248
             1    8.048135    1.208190
             2    2.365973    0.348456
             3    3.491561    0.381218
 pspatm: atomic psp has been read  and splines computed

   1.86491372E+03                                ecore*ucvol(ha*bohr**3)

-inwffil : will read wavefunctions from disk file /scratch/users/j/a/jabreu/flow_simple_7atoms/flow/w102/t1/indata/in_WFK

 ==>  initialize data related to q vector <==

 The list of irreducible perturbations for this q vector is:
    1)    idir= 1    ipert=   8
    2)    idir= 2    ipert=   8
    3)    idir= 3    ipert=   8

 Perturbation wavevector (in red.coord.)   0.000000  0.000000  0.000000
 Perturbation : derivative vs k along direction   1

 dfpt_looppert : COMMENT -
  In a d/dk calculation, iscf is set to -3 automatically.
 The set of symmetries contains only one element for this perturbation.
 symkpt : not enough symmetry to change the number of k points.

[...]

 Initialisation of the first-order wave-functions :
  ireadwf=   0

--- !BeginCycle
iteration_state: {dtset: 1, }
solver: {iscf: 7, nstep: 2000, nline: 4, wfoptalg: 0, }
tolerances: {tolwfr: 1.00E-20, }
...

     iter   2DEtotal(Ha)        deltaE(Ha) residm    vres2
-ETOT  1  -30.709493690619     -3.071E+01 3.134E-02 0.000E+00
 ETOT  2  -30.719109447808     -9.616E-03 3.510E-04 0.000E+00
 ETOT  3  -30.719112313960     -2.866E-06 6.923E-07 0.000E+00
 ETOT  4  -30.719112315770     -1.810E-09 5.049E-09 0.000E+00
 ETOT  5  -30.719112315773     -2.736E-12 2.361E-11 0.000E+00
 ETOT  6  -30.719112315773      1.066E-14 2.405E-13 0.000E+00
 ETOT  7  -30.719112315773     -3.553E-15 1.629E-15 0.000E+00
 ETOT  8  -30.719112315773      7.105E-15 1.845E-17 0.000E+00
 ETOT  9  -30.719112315773      0.000E+00 1.437E-19 0.000E+00
 ETOT 10  -30.719112315773      0.000E+00 9.940E-21 0.000E+00

 At SCF step   10   max residual=  9.94E-21 < tolwfr=  1.00E-20 =>converged.

 ----iterations are completed or convergence reached----

 dfpt_looppert: DFPT cycle converged with prtwf=-1. Will skip output of the 1st-order WFK file.
 dfpt_looppert : ek2=    5.2762536621E+01
          f-sum rule ratio=    1.0454361872E+00
 prteigrs : about to open file /scratch/users/j/a/jabreu/flow_simple_7atoms/flow/w102/t1/tmpdata/tmp_1WF1_EIG
 Expectation of eigenvalue derivatives (hartree) for nkpt=   2  k points:
  (in case of degenerate eigenvalues, averaged derivative)
 kpt#   1, nband= 29, wtk=  0.50000, kpt=  0.5000  0.5000 -0.3249 (reduced coord)
  -0.00000   -0.00002    0.00000    0.00003   -0.00002    0.00001    0.00035   -0.00024
   0.00134   -0.00121    0.00012   -0.00012    0.01906   -0.02152   -0.03975   -0.00782
   0.01242   -0.02339    0.00030   -0.00045    0.09369    0.12446   -0.14731    0.09702
  -0.16224   -0.00857    0.06865    0.00770    0.04571
 prteigrs : prtvol=0 or 1, do not print more k-points.

 Eight components of 2nd-order total energy (hartree) are
 1,2,3: 0th-order hamiltonian combined with 1st-order wavefunctions
     kin0=   3.29314189E+01 eigvalue=   3.46513758E+00  local=  -1.52507143E+01
 4,5,6: 1st-order hamiltonian combined with 1st and 0th-order wfs
     kin1=  -5.51598651E+01  Hartree=   0.00000000E+00     xc=   0.00000000E+00
 7,8,9: eventually, occupation + non-local contributions
    edocc=   8.46595062E+00     enl0=   1.10731945E+00   enl1=  -6.27835952E+00
 1-9 gives the relaxation energy (to be shifted if some occ is /=2.0)
   erelax=  -3.07191123E+01
  No Ewald or frozen-wf contrib.: the relaxation energy is the total one
 2DEtotal=   -0.3071911232E+02 Ha. Also 2DEtotal=   -0.835909557063E+03 eV
    (  non-var. 2DEtotal :   -3.0719112316E+01 Ha)

 Perturbation wavevector (in red.coord.)   0.000000  0.000000  0.000000
 Perturbation : derivative vs k along direction   2
 The set of symmetries contains only one element for this perturbation.
 symkpt : not enough symmetry to change the number of k points.

[...]

 Perturbation wavevector (in red.coord.)   0.000000  0.000000  0.000000
 Perturbation : derivative vs k along direction   3
 The set of symmetries contains only one element for this perturbation.
 symkpt : not enough symmetry to change the number of k points.

-inwffil : will read wavefunctions from disk file /scratch/users/j/a/jabreu/flow_simple_7atoms/flow/w102/t1/indata/in_WFK

 Initialisation of the first-order wave-functions :
  ireadwf=   0

--- !BeginCycle
iteration_state: {dtset: 1, }
solver: {iscf: 7, nstep: 2000, nline: 4, wfoptalg: 0, }
tolerances: {tolwfr: 1.00E-20, }
...

     iter   2DEtotal(Ha)        deltaE(Ha) residm    vres2
-ETOT  1  -37.884274026450     -3.788E+01 7.605E-02 0.000E+00
 ETOT  2  -37.893127619710     -8.854E-03 7.270E-04 0.000E+00
 ETOT  3  -37.893130750673     -3.131E-06 1.956E-06 0.000E+00
 ETOT  4  -37.893130752556     -1.883E-09 7.946E-09 0.000E+00
 ETOT  5  -37.893130752559     -2.700E-12 4.094E-11 0.000E+00
 ETOT  6  -37.893130752558      4.263E-14 1.488E-13 0.000E+00
 ETOT  7  -37.893130752559     -4.263E-14 1.072E-15 0.000E+00
 ETOT  8  -37.893130752559      0.000E+00 3.698E-18 0.000E+00
 ETOT  9  -37.893130752559     -7.105E-15 4.379E-20 0.000E+00
 ETOT 10  -37.893130752559      0.000E+00 9.670E-21 0.000E+00

 At SCF step   10   max residual=  9.67E-21 < tolwfr=  1.00E-20 =>converged.

 ----iterations are completed or convergence reached----

 dfpt_looppert: DFPT cycle converged with prtwf=-1. Will skip output of the 1st-order WFK file.
 dfpt_looppert : ek2=    6.5505266330E+01
          f-sum rule ratio=    1.0380243405E+00
 prteigrs : about to open file /scratch/users/j/a/jabreu/flow_simple_7atoms/flow/w102/t1/tmpdata/tmp_1WF1_EIG
 Expectation of eigenvalue derivatives (hartree) for nkpt=   2  k points:
  (in case of degenerate eigenvalues, averaged derivative)
 kpt#   1, nband= 29, wtk=  0.50000, kpt=  0.5000  0.5000 -0.3249 (reduced coord)
  -0.00000   -0.00004    0.00000    0.00006   -0.00005    0.00003    0.00069   -0.00049
   0.00267   -0.00243    0.00025   -0.00024    0.03811   -0.04303   -0.07949   -0.01565
   0.02484   -0.04678    0.00061   -0.00089    0.18738    0.24892   -0.29461    0.19405
  -0.32447   -0.01714    0.13730    0.01539    0.09140
 prteigrs : prtvol=0 or 1, do not print more k-points.

 Eight components of 2nd-order total energy (hartree) are
 1,2,3: 0th-order hamiltonian combined with 1st-order wavefunctions
     kin0=   3.87550793E+01 eigvalue=   4.29646367E+00  local=  -1.78151863E+01
 4,5,6: 1st-order hamiltonian combined with 1st and 0th-order wfs
     kin1=  -6.79960609E+01  Hartree=   0.00000000E+00     xc=   0.00000000E+00
 7,8,9: eventually, occupation + non-local contributions
    edocc=   1.13033438E+01     enl0=   1.35343029E+00   enl1=  -7.79020062E+00
 1-9 gives the relaxation energy (to be shifted if some occ is /=2.0)
   erelax=  -3.78931308E+01
  No Ewald or frozen-wf contrib.: the relaxation energy is the total one
 2DEtotal=   -0.3789313075E+02 Ha. Also 2DEtotal=   -0.103112452657E+04 eV
    (  non-var. 2DEtotal :   -3.7893130752E+01 Ha)

 CALCULATION OF EFFECTIVE MASSES
 NOTE : Additional infos (eff. mass eigenvalues, eigenvectors and, if degenerate, average mass) are available in stdout.

 K-point ( 0.500, 0.500,-0.325) | band =    20
 Effective mass tensor:
            -16.7537511494             10.0142531429             -0.5765874234
             10.0142531429             -8.5448093411             -0.8594517273
             -0.5765874234             -0.8594517273             -2.0342928425
 Effective mass tensor eigenvalues:
            -23.4720316243             -2.9705559384             -0.8902657703
 Angular average effective mass 1/(<1/m>)=  -1.9966704864
 Angular average effective mass for Frohlich model (<m**0.5>)**2=  -2.8308472147
 Effective masses along directions: (cart. coord. / red. coord. -> eff. mass)
    1:   1.000000  0.000000  0.000000 /   0.935018 -0.354600  0.000000 ->  -3.7295009210
    2:   0.000000  1.000000  0.000000 /   0.000000  1.000000  0.000000 ->  -1.8392454108
    3:   0.000000  0.000000  1.000000 /  -0.379684 -0.379684  0.843612 ->  -1.4478743367
    4:   0.577350  0.577350  0.577350 /   0.404739  0.034314  0.913788 ->  -2.7552664879
    5:   0.000000  0.707107  0.707107 /  -0.388207  0.324504  0.862550 ->  -3.4223368711
    6:   0.707107  0.000000  0.707107 /   0.328473 -0.584924  0.741600 ->  -3.8259116501
    7:   0.707107  0.707107  0.000000 /   0.877675  0.479256  0.000000 ->  -1.3475472916

 K-point ( 0.500, 0.500,-0.500) | band =    21
 Effective mass tensor:
              0.6021574635             -0.0657876675              0.0716678650
             -0.0657876675              0.5482296393              0.1068279330
              0.0716678650              0.1068279330              0.5299161959
 Effective mass tensor eigenvalues:
              0.3877181685              0.6462925651              0.6462925651
 Angular average effective mass 1/(<1/m>)=   0.5287492629
 Angular average effective mass for Frohlich model (<m**0.5>)**2=   0.5387523838
 Effective masses along directions: (cart. coord. / red. coord. -> eff. mass)
    1:   1.000000  0.000000  0.000000 /   0.935018 -0.354600  0.000000 ->   0.5802419178
    2:   0.000000  1.000000  0.000000 /   0.000000  1.000000  0.000000 ->   0.5158277516
    3:   0.000000  0.000000  1.000000 /  -0.379684 -0.379684  0.843612 ->   0.4970880478
    4:   0.577350  0.577350  0.577350 /   0.404739  0.034314  0.913788 ->   0.6283793075
    5:   0.000000  0.707107  0.707107 /  -0.388207  0.324504  0.862550 ->   0.6456402700
    6:   0.707107  0.000000  0.707107 /   0.328473 -0.584924  0.741600 ->   0.6322875381
    7:   0.707107  0.707107  0.000000 /   0.877675  0.479256  0.000000 ->   0.4776535516

 END OF EFFECTIVE MASSES SECTION

 ---- first-order wavefunction calculations are completed ----

 Total localisation tensor (bohr^2) in cartesian coordinates
  WARNING : still subject to testing - especially symmetries.
      direction              matrix element
   alpha     beta       real part   imaginary part
     1        1       1.1930894637    0.0000000000
     1        2      -0.3660269875    0.0000000000
     1        3      -0.3263355269    0.0000000000
     2        1      -0.3660269875    0.0000000000
     2        2       0.8930477763    0.0000000000
     2        3      -0.4864348439    0.0000000000
     3        1      -0.3263355269    0.0000000000
     3        2      -0.4864348439    0.0000000000
     3        3       1.9318103851    0.0000000000

 respfn : d/dk was computed, but no 2DTE, so no DDB output.

== END DATASET(S) ==============================================================

 -outvars: echo values of variables after computation  --------
            acell      1.0000000000E+00  1.0000000000E+00  1.0000000000E+00 Bohr
              amu      2.29897680E+01  1.00794000E+00  1.95080000E+02
             ecut      4.40000000E+01 Hartree
           etotal     -3.7893130753E+01
            fcart      0.0000000000E+00  0.0000000000E+00  0.0000000000E+00
                       0.0000000000E+00  0.0000000000E+00  0.0000000000E+00
                       0.0000000000E+00  0.0000000000E+00  0.0000000000E+00
                       0.0000000000E+00  0.0000000000E+00  0.0000000000E+00
                       0.0000000000E+00  0.0000000000E+00  0.0000000000E+00
                       0.0000000000E+00  0.0000000000E+00  0.0000000000E+00
                       0.0000000000E+00  0.0000000000E+00  0.0000000000E+00
-          fftalg         512
           irdden           1
           irdwfk           1
              ixc     -116133
              kpt      5.00000000E-01  5.00000000E-01 -3.24923134E-01
                       5.00000000E-01  5.00000000E-01 -5.00000000E-01
           kptopt           0
P           mkmem           2
P          mkqmem           2
P          mk1mem           2
            natom           7
            nband          29
           nbdbuf           4
            ngfft          60      60      60
             nkpt           2
            nstep        2000
             nsym          16
           ntypat           3
              occ      2.000000  2.000000  2.000000  2.000000  2.000000  2.000000
                       2.000000  2.000000  2.000000  2.000000  2.000000  2.000000
                       2.000000  2.000000  2.000000  2.000000  2.000000  2.000000
                       2.000000  2.000000  0.000000  0.000000  0.000000  0.000000
                       0.000000  0.000000  0.000000  0.000000  0.000000
        optdriver           1
            prtwf          -1
            rfdir           1       1       1
           rfelfd           2
            rprim      8.3614407380E+00  0.0000000000E+00 -4.2141696158E+00
                      -3.1710306710E+00  7.7368117270E+00 -4.2141696158E+00
                       0.0000000000E+00  0.0000000000E+00  9.3633816950E+00
          spgroup         139
           strten      0.0000000000E+00  0.0000000000E+00  0.0000000000E+00
                       0.0000000000E+00  0.0000000000E+00  0.0000000000E+00
           symrel      1  0  0   0  1  0   0  0  1      -1  0  0   0 -1  0   0  0 -1
                      -1 -1 -1   0  0  1   0  1  0       1  1  1   0  0 -1   0 -1  0
                       0  1  0   1  0  0  -1 -1 -1       0 -1  0  -1  0  0   1  1  1
                       0  0  1  -1 -1 -1   1  0  0       0  0 -1   1  1  1  -1  0  0
                       0  1  0   1  0  0   0  0  1       0 -1  0  -1  0  0   0  0 -1
                      -1 -1 -1   0  0  1   1  0  0       1  1  1   0  0 -1  -1  0  0
                       1  0  0   0  1  0  -1 -1 -1      -1  0  0   0 -1  0   1  1  1
                       0  0  1  -1 -1 -1   0  1  0       0  0 -1   1  1  1   0 -1  0
           tolwfr      1.00000000E-20
            typat      1  1  2  2  2  2  3
           useylm           1
              wtk        0.50000    0.50000
           xangst      2.8990036124E+00  1.0235361083E+00  2.4740158035E-01
                      -1.5235690174E-01  3.0706083248E+00  2.4740158035E-01
                       6.1603234417E-01  9.1825620771E-01  1.2222853866E+00
                       2.1306143665E+00  3.1758882254E+00 -7.2748222594E-01
                      -3.0928684731E-01  3.1758882254E+00 -2.2300425138E+00
                       3.0559335580E+00  9.1825620771E-01 -2.2300425138E+00
                       0.0000000000E+00  0.0000000000E+00  0.0000000000E+00
            xcart      5.4783228858E+00  1.9342029318E+00  4.6752123170E-01
                      -2.8791281875E-01  5.8026087953E+00  4.6752123170E-01
                       1.1641324195E+00  1.7352527524E+00  2.3097846370E+00
                       4.0262776475E+00  6.0015589746E+00 -1.3747421736E+00
                      -5.8446743791E-01  6.0015589746E+00 -4.2141696158E+00
                       5.7748775049E+00  1.7352527524E+00 -4.2141696158E+00
                       0.0000000000E+00  0.0000000000E+00  0.0000000000E+00
             xred      7.5000000000E-01  2.5000000000E-01  5.0000000000E-01
                       2.5000000000E-01  7.5000000000E-01  5.0000000000E-01
                       2.2428525000E-01  2.2428525000E-01  4.4857050000E-01
                       7.7571475000E-01  7.7571475000E-01  5.5142950000E-01
                       2.2428525000E-01  7.7571475000E-01  0.0000000000E+00
                       7.7571475000E-01  2.2428525000E-01  0.0000000000E+00
                       0.0000000000E+00  0.0000000000E+00  0.0000000000E+00
            znucl       11.00000    1.00000   78.00000

- Timing analysis has been suppressed with timopt=0

 Suggested references for the acknowledgment of ABINIT usage.

 Calculation completed.
.Delivered  14 WARNINGs and   9 COMMENTs to log file.