.Version 9.5.1 of ABINIT

 ABINIT is a project of the Universite Catholique de Louvain,
 Corning Inc. and other collaborators, see ~abinit/doc/developers/contributors.txt .
 acknowledgments of the ABINIT effort.

.Starting date : Tue 27 Apr 2021.
- ( at 18h32 )

- input  file    -> /scratch/users/j/a/jabreu/flow_simple_4atoms/flow/w186/t1/run.abi
- output file    -> /scratch/users/j/a/jabreu/flow_simple_4atoms/flow/w186/t1/run.abo
- root for input  files -> /scratch/users/j/a/jabreu/flow_simple_4atoms/flow/w186/t1/indata/in
- root for output files -> /scratch/users/j/a/jabreu/flow_simple_4atoms/flow/w186/t1/outdata/out

 Symmetries : space group P3 m 1 (#156); Bravais hP (primitive hexag.)
     intxc =       0      iscf =       7    lmnmax =      18     lnmax =       6
     mgfft =      72  mpssoang =       3    mqgrid =    3406     natom =       4
  nloc_mem =       1    nspden =       1   nspinor =       1    nsppol =       1
      nsym =       6    n1xccc =    2501    ntypat =       3    occopt =       1
   xclevel =       2
-    mband =          30        mffmem =           1         mkmem =           2
-   mkqmem =           2        mk1mem =           2           mpw =        7024
      nfft =      145800          nkpt =           2
  Rough estimation (10% accuracy) of disk space for files :

------------- Echo of variables that govern the present computation ------------
-
- outvars: echo of selected default values
-   iomode0 =  0 , fftalg0 =512 , wfoptalg0 =  0
-
- outvars: echo of global parameters not present in the input file
-  max_nthreads =    0
-
 -outvars: echo values of preprocessed input variables --------
            acell      1.0000000000E+00  1.0000000000E+00  1.0000000000E+00 Bohr
              amu      4.49559100E+01  6.35460000E+01  3.20660000E+01
             ecut      4.60000000E+01 Hartree
-          fftalg         512
           irdden           1
           irdwfk           1
           istwfk        1    1
              ixc     -116133
              kpt      0.00000000E+00  0.00000000E+00  0.00000000E+00
                       5.00000000E-01  0.00000000E+00  5.00000000E-01
           kptopt           0
P           mkmem           2
P          mkqmem           2
P          mk1mem           2
            natom           4
            nband          30
           nbdbuf           4
            ngfft          45      45      72
             nkpt           2
            nstep         100
             nsym           6
           ntypat           3
              occ      2.000000  2.000000  2.000000  2.000000  2.000000  2.000000
                       2.000000  2.000000  2.000000  2.000000  2.000000  2.000000
                       2.000000  2.000000  2.000000  2.000000  2.000000  2.000000
                       2.000000  2.000000  2.000000  0.000000  0.000000  0.000000
                       0.000000  0.000000  0.000000  0.000000  0.000000  0.000000
        optdriver           1
            prtwf          -1
            rfdir           1       1       1
           rfelfd           2
            rprim      6.9902377196E+00  0.0000000000E+00  0.0000000000E+00
                      -3.4951188598E+00  6.0537234437E+00  0.0000000000E+00
                       0.0000000000E+00  0.0000000000E+00  1.1155464405E+01
          spgroup         156
           symrel      1  0  0   0  1  0   0  0  1      -1  0  0   1  1  0   0  0  1
                       0  1  0  -1 -1  0   0  0  1       0 -1  0  -1  0  0   0  0  1
                      -1 -1  0   1  0  0   0  0  1       1  1  0   0 -1  0   0  0  1
           tolwfr      1.00000000E-20
            typat      1  2  3  3
           useylm           1
              wtk        0.50000    0.50000
           xangst      0.0000000000E+00  0.0000000000E+00  5.8756612948E+00
                       0.0000000000E+00  2.1356616490E+00  3.5635598975E+00
                       1.8495372419E+00  1.0678308245E+00  4.3369581337E+00
                       0.0000000000E+00  2.1356616490E+00  1.3195344045E+00
            xcart      0.0000000000E+00  0.0000000000E+00  1.1103390697E+01
                       0.0000000000E+00  4.0358156291E+00  6.7341522644E+00
                       3.4951188598E+00  2.0179078146E+00  8.1956631225E+00
                       0.0000000000E+00  4.0358156291E+00  2.4935586475E+00
             xred      0.0000000000E+00  0.0000000000E+00  9.9533200000E-01
                       3.3333333333E-01  6.6666666667E-01  6.0366400000E-01
                       6.6666666667E-01  3.3333333333E-01  7.3467700000E-01
                       3.3333333333E-01  6.6666666667E-01  2.2352800000E-01
            znucl       21.00000   29.00000   16.00000

 chkinp: Checking input parameters for consistency.

== DATASET  1 ==================================================================
-   mpi_nproc: 1, omp_nthreads: -1 (-1 if OMP is not activated)

--- !DatasetInfo
iteration_state: {dtset: 1, }
dimensions: {natom: 4, nkpt: 2, mband: 30, nsppol: 1, nspinor: 1, nspden: 1, mpw: 7024, }
cutoff_energies: {ecut:  46.0, pawecutdg:  -1.0, }
electrons: {nelect:   4.20000000E+01, charge:   0.00000000E+00, occopt:   1.00000000E+00, tsmear:   1.00000000E-02, }
meta: {optdriver: 1, rfelfd: 2, }
...

 Real(R)+Recip(G) space primitive vectors, cartesian coordinates (Bohr,Bohr^-1):
 R(1)=  6.9902377  0.0000000  0.0000000  G(1)=  0.1430567  0.0825938  0.0000000
 R(2)= -3.4951189  6.0537234  0.0000000  G(2)=  0.0000000  0.1651876  0.0000000
 R(3)=  0.0000000  0.0000000 11.1554644  G(3)=  0.0000000  0.0000000  0.0896422
 Unit cell volume ucvol=  4.7206541E+02 bohr^3
 Angles (23,13,12)=  9.00000000E+01  9.00000000E+01  1.20000000E+02 degrees

 getcut: wavevector=  0.0000  0.0000  0.0000  ngfft=  45  45  72
         ecut(hartree)=     46.000   => boxcut(ratio)=   2.06166

--- Pseudopotential description ------------------------------------------------
- pspini: atom type   1  psp file is /scratch/users/j/a/jabreu/pseudos/PBEsol/Sc.psp8
- pspatm: opening atomic psp file    /scratch/users/j/a/jabreu/pseudos/PBEsol/Sc.psp8
- Sc    ONCVPSP-3.3.0  r_core=   1.35663   1.35663   1.66161
- 21.00000  11.00000    180112                znucl, zion, pspdat
    8 -116133    2    4       600   0.00000   pspcod,pspxc,lmax,lloc,mmax,r2well
    5.99000000000000    5.00000000000000    0.00000000000000   rchrg,fchrg,qchrg
     nproj     2     2     2
     extension_switch     1
  pspatm : epsatm=   13.58981094
         --- l  ekb(1:nproj) -->
             0   10.810997    0.948773
             1    2.871172    0.364831
             2   -4.789751   -1.321945
 pspatm: atomic psp has been read  and splines computed

- pspini: atom type   2  psp file is /scratch/users/j/a/jabreu/pseudos/PBEsol/Cu.psp8
- pspatm: opening atomic psp file    /scratch/users/j/a/jabreu/pseudos/PBEsol/Cu.psp8
- Cu    ONCVPSP-3.3.0  r_core=   1.26204   1.45626   1.76249
- 29.00000  19.00000    180112                znucl, zion, pspdat
    8 -116133    2    4       600   0.00000   pspcod,pspxc,lmax,lloc,mmax,r2well
    5.99000000000000    3.50000000000000    0.00000000000000   rchrg,fchrg,qchrg
     nproj     2     2     2
     extension_switch     1
  pspatm : epsatm=   21.63488701
         --- l  ekb(1:nproj) -->
             0    5.008230   -0.401634
             1   -3.496700   -0.765945
             2   -6.895851   -2.521180
 pspatm: atomic psp has been read  and splines computed

- pspini: atom type   3  psp file is /scratch/users/j/a/jabreu/pseudos/PBEsol/S.psp8
- pspatm: opening atomic psp file    /scratch/users/j/a/jabreu/pseudos/PBEsol/S.psp8
- S     ONCVPSP-3.3.0  r_core=   1.45376   1.45376   1.61851
- 16.00000   6.00000    180112                znucl, zion, pspdat
    8 -116133    2    4       600   0.00000   pspcod,pspxc,lmax,lloc,mmax,r2well
    5.99000000000000    6.00000000000000    0.00000000000000   rchrg,fchrg,qchrg
     nproj     2     2     2
     extension_switch     1
  pspatm : epsatm=    8.71840985
         --- l  ekb(1:nproj) -->
             0    6.834532    0.579453
             1    3.282851    0.896984
             2   -3.496974   -0.974265
 pspatm: atomic psp has been read  and splines computed

   2.21178374E+03                                ecore*ucvol(ha*bohr**3)

-inwffil : will read wavefunctions from disk file /scratch/users/j/a/jabreu/flow_simple_4atoms/flow/w186/t1/indata/in_WFK

 ==>  initialize data related to q vector <==

 The list of irreducible perturbations for this q vector is:
    1)    idir= 1    ipert=   5
    2)    idir= 2    ipert=   5
    3)    idir= 3    ipert=   5

 Perturbation wavevector (in red.coord.)   0.000000  0.000000  0.000000
 Perturbation : derivative vs k along direction   1

 dfpt_looppert : COMMENT -
  In a d/dk calculation, iscf is set to -3 automatically.
 The set of symmetries contains only one element for this perturbation.
 symkpt : not enough symmetry to change the number of k points.

[...]

 Initialisation of the first-order wave-functions :
  ireadwf=   0

--- !BeginCycle
iteration_state: {dtset: 1, }
solver: {iscf: 7, nstep: 100, nline: 4, wfoptalg: 0, }
tolerances: {tolwfr: 1.00E-20, }
...

     iter   2DEtotal(Ha)        deltaE(Ha) residm    vres2
-ETOT  1  -53.982805256602     -5.398E+01 2.102E-01 0.000E+00
 ETOT  2  -54.075073981279     -9.227E-02 2.460E-03 0.000E+00
 ETOT  3  -54.076546221854     -1.472E-03 8.861E-05 0.000E+00
 ETOT  4  -54.076583977866     -3.776E-05 4.612E-06 0.000E+00
 ETOT  5  -54.076585136450     -1.159E-06 1.320E-07 0.000E+00
 ETOT  6  -54.076585175261     -3.881E-08 9.127E-09 0.000E+00
 ETOT  7  -54.076585176627     -1.366E-09 2.925E-10 0.000E+00
 ETOT  8  -54.076585176677     -4.991E-11 2.224E-11 0.000E+00
 ETOT  9  -54.076585176679     -1.798E-12 7.166E-13 0.000E+00
 ETOT 10  -54.076585176679     -1.066E-13 5.687E-14 0.000E+00
 ETOT 11  -54.076585176679      4.263E-14 1.833E-15 0.000E+00
 ETOT 12  -54.076585176679     -7.105E-15 1.499E-16 0.000E+00
 ETOT 13  -54.076585176679     -2.132E-14 5.465E-18 0.000E+00
 ETOT 14  -54.076585176679      7.105E-15 4.069E-19 0.000E+00
 ETOT 15  -54.076585176679      2.132E-14 1.769E-20 0.000E+00
 ETOT 16  -54.076585176679     -2.132E-14 9.885E-21 0.000E+00

 At SCF step   16   max residual=  9.89E-21 < tolwfr=  1.00E-20 =>converged.

 ----iterations are completed or convergence reached----

 dfpt_looppert: DFPT cycle converged with prtwf=-1. Will skip output of the 1st-order WFK file.
 dfpt_looppert : ek2=    9.0488599982E+01
          f-sum rule ratio=    1.1858604223E+00
 prteigrs : about to open file /scratch/users/j/a/jabreu/flow_simple_4atoms/flow/w186/t1/tmpdata/tmp_1WF1_EIG
 Expectation of eigenvalue derivatives (hartree) for nkpt=   2  k points:
  (in case of degenerate eigenvalues, averaged derivative)
 kpt#   1, nband= 30, wtk=  0.50000, kpt=  0.0000  0.0000  0.0000 (reduced coord)
  -0.00000   -0.00000   -0.00000   -0.00000    0.00000   -0.00000    0.00000    0.00000
  -0.00000    0.00000    0.00000    0.00000    0.00000    0.00000    0.00000    0.00000
   0.00000    0.00000   -0.00000   -0.00000   -0.00000   -0.00000   -0.00000   -0.00000
   0.00000    0.00000    0.00000    0.00000    0.00000    0.00000
 prteigrs : prtvol=0 or 1, do not print more k-points.

 Eight components of 2nd-order total energy (hartree) are
 1,2,3: 0th-order hamiltonian combined with 1st-order wavefunctions
     kin0=   5.78780849E+01 eigvalue=  -1.82664557E+00  local=  -2.41948719E+01
 4,5,6: 1st-order hamiltonian combined with 1st and 0th-order wfs
     kin1=  -1.07306849E+02  Hartree=   0.00000000E+00     xc=   0.00000000E+00
 7,8,9: eventually, occupation + non-local contributions
    edocc=   2.37167703E+01     enl0=  -1.49675256E+00   enl1=  -8.46320967E-01
 1-9 gives the relaxation energy (to be shifted if some occ is /=2.0)
   erelax=  -5.40765852E+01
  No Ewald or frozen-wf contrib.: the relaxation energy is the total one
 2DEtotal=   -0.5407658518E+02 Ha. Also 2DEtotal=   -0.147149871708E+04 eV
    (  non-var. 2DEtotal :   -5.4076585176E+01 Ha)

 Perturbation wavevector (in red.coord.)   0.000000  0.000000  0.000000
 Perturbation : derivative vs k along direction   2
 The set of symmetries contains only one element for this perturbation.
 symkpt : not enough symmetry to change the number of k points.

[...]

 Perturbation wavevector (in red.coord.)   0.000000  0.000000  0.000000
 Perturbation : derivative vs k along direction   3
 The set of symmetries contains only one element for this perturbation.
 symkpt : not enough symmetry to change the number of k points.

-inwffil : will read wavefunctions from disk file /scratch/users/j/a/jabreu/flow_simple_4atoms/flow/w186/t1/indata/in_WFK

 Initialisation of the first-order wave-functions :
  ireadwf=   0

--- !BeginCycle
iteration_state: {dtset: 1, }
solver: {iscf: 7, nstep: 100, nline: 4, wfoptalg: 0, }
tolerances: {tolwfr: 1.00E-20, }
...

     iter   2DEtotal(Ha)        deltaE(Ha) residm    vres2
-ETOT  1  -16.326216303520     -1.633E+01 6.230E-02 0.000E+00
 ETOT  2  -16.347245540454     -2.103E-02 4.084E-04 0.000E+00
 ETOT  3  -16.347493817325     -2.483E-04 1.624E-05 0.000E+00
 ETOT  4  -16.347499118140     -5.301E-06 5.857E-07 0.000E+00
 ETOT  5  -16.347499250065     -1.319E-07 1.266E-08 0.000E+00
 ETOT  6  -16.347499253599     -3.534E-09 1.292E-09 0.000E+00
 ETOT  7  -16.347499253697     -9.860E-11 2.853E-11 0.000E+00
 ETOT  8  -16.347499253700     -2.807E-12 3.154E-12 0.000E+00
 ETOT  9  -16.347499253700     -8.527E-14 8.903E-14 0.000E+00
 ETOT 10  -16.347499253700      0.000E+00 1.192E-14 0.000E+00
 ETOT 11  -16.347499253700     -2.132E-14 3.365E-16 0.000E+00
 ETOT 12  -16.347499253700      3.553E-15 4.609E-17 0.000E+00
 ETOT 13  -16.347499253700      1.066E-14 1.299E-18 0.000E+00
 ETOT 14  -16.347499253700      0.000E+00 1.814E-19 0.000E+00
 ETOT 15  -16.347499253700      3.553E-15 9.763E-21 0.000E+00

 At SCF step   15   max residual=  9.76E-21 < tolwfr=  1.00E-20 =>converged.

 ----iterations are completed or convergence reached----

 dfpt_looppert: DFPT cycle converged with prtwf=-1. Will skip output of the 1st-order WFK file.
 dfpt_looppert : ek2=    2.6647944380E+01
          f-sum rule ratio=    1.2252132967E+00
 prteigrs : about to open file /scratch/users/j/a/jabreu/flow_simple_4atoms/flow/w186/t1/tmpdata/tmp_1WF1_EIG
 Expectation of eigenvalue derivatives (hartree) for nkpt=   2  k points:
  (in case of degenerate eigenvalues, averaged derivative)
 kpt#   1, nband= 30, wtk=  0.50000, kpt=  0.0000  0.0000  0.0000 (reduced coord)
   0.00000    0.00000   -0.00000   -0.00000    0.00000   -0.00000   -0.00000   -0.00000
   0.00000    0.00000    0.00000    0.00000    0.00000   -0.00000   -0.00000   -0.00000
   0.00000    0.00000    0.00000    0.00000    0.00000    0.00000    0.00000    0.00000
   0.00000   -0.00000   -0.00000    0.00000   -0.00000   -0.00000
 prteigrs : prtvol=0 or 1, do not print more k-points.

 Eight components of 2nd-order total energy (hartree) are
 1,2,3: 0th-order hamiltonian combined with 1st-order wavefunctions
     kin0=   1.73955048E+01 eigvalue=  -5.02296052E-01  local=  -7.36657206E+00
 4,5,6: 1st-order hamiltonian combined with 1st and 0th-order wfs
     kin1=  -3.26494158E+01  Hartree=   0.00000000E+00     xc=   0.00000000E+00
 7,8,9: eventually, occupation + non-local contributions
    edocc=   7.34277019E+00     enl0=  -5.21907578E-01   enl1=  -4.55827243E-02
 1-9 gives the relaxation energy (to be shifted if some occ is /=2.0)
   erelax=  -1.63474993E+01
  No Ewald or frozen-wf contrib.: the relaxation energy is the total one
 2DEtotal=   -0.1634749925E+02 Ha. Also 2DEtotal=   -0.444838077343E+03 eV
    (  non-var. 2DEtotal :   -1.6347499254E+01 Ha)

 CALCULATION OF EFFECTIVE MASSES
 NOTE : Additional infos (eff. mass eigenvalues, eigenvectors and, if degenerate, average mass) are available in stdout.

 COMMENTS:
 - At k-point ( 0.000, 0.000, 0.000), bands    20 through    21
   are DEGENERATE (effective mass tensor is therefore not defined).
   See Section IIIB Eqs. (67)-(70) and Appendix E of PRB 93 205147 (2016).
 - Angular average effective mass for Frohlich model is to be averaged over degenerate bands. See later.
 - Associated theta integrals calculated with ntheta=   1000 points.

 K-point ( 0.000, 0.000, 0.000) | band =    20
 Transport equivalent effective mass tensor:
             -0.2488321181              0.0000000061             -0.0000000008
              0.0000000061             -0.2488337442             -0.0000003160
             -0.0000000008             -0.0000003160             -0.7445327174
 Transport equivalent effective mass tensor eigenvalues:
             -0.7445327174             -0.2488337442             -0.2488321181
 Angular average effective mass 1/(<1/m>)=  -0.2839577818
 Angular average effective mass for Frohlich model (<m**0.5>)**2=  -0.3021484618
 Effective masses along directions: (cart. coord. / red. coord. -> eff. mass)
    1:   1.000000  0.000000  0.000000 /   0.894427 -0.447214  0.000000 ->  -0.2263406681
    2:   0.000000  1.000000  0.000000 /   0.000000  1.000000  0.000000 ->  -0.2263406626
    3:   0.000000  0.000000  1.000000 /   0.000000  0.000000  1.000000 ->  -0.8648287132
    4:   0.577350  0.577350  0.577350 /   0.521233  0.190784  0.831816 ->  -0.3171663272
    5:   0.000000  0.707107  0.707107 /   0.000000  0.476964  0.878923 ->  -0.2773388137
    6:   0.707107  0.000000  0.707107 /   0.513207 -0.256603  0.819008 ->  -0.3112844981
    7:   0.707107  0.707107  0.000000 /   0.939071  0.343724  0.000000 ->  -0.2263406587

 K-point ( 0.000, 0.000, 0.000) | band =    21
 Transport equivalent effective mass tensor:
             -0.8376026745              0.0000000060              0.0000000237
              0.0000000060             -0.8375996563              0.0000011706
              0.0000000237              0.0000011706             -2.2816738514
 Transport equivalent effective mass tensor eigenvalues:
             -2.2816738514             -0.8376026745             -0.8375996563
 Angular average effective mass 1/(<1/m>)=  -0.6223619848
 Angular average effective mass for Frohlich model (<m**0.5>)**2=  -0.6881732611
 Effective masses along directions: (cart. coord. / red. coord. -> eff. mass)
    1:   1.000000  0.000000  0.000000 /   0.894427 -0.447214  0.000000 ->  -0.4720920503
    2:   0.000000  1.000000  0.000000 /   0.000000  1.000000  0.000000 ->  -0.4720920500
    3:   0.000000  0.000000  1.000000 /   0.000000  0.000000  1.000000 ->  -0.8648287136
    4:   0.577350  0.577350  0.577350 /   0.521233  0.190784  0.831816 ->  -0.5061977619
    5:   0.000000  0.707107  0.707107 /   0.000000  0.476964  0.878923 ->  -1.2213361910
    6:   0.707107  0.000000  0.707107 /   0.513207 -0.256603  0.819008 ->  -0.8250975085
    7:   0.707107  0.707107  0.000000 /   0.939071  0.343724  0.000000 ->  -0.4720920491

 Angular average effective mass for Frohlich model, averaged over degenerate bands.
 Value of     (<<m**0.5>>)**2 =     4.755774E-01
 Absolute Value of <<m**0.5>> =     6.896212E-01

 K-point ( 0.500, 0.000, 0.500) | band =    22
 Effective mass tensor:
              2.1574836513              0.9785207264             -1.1720256588
              0.9785207264              1.0275565769             -0.6766499402
             -1.1720256588             -0.6766499402              1.2960174175
 Effective mass tensor eigenvalues:
              0.4626145344              0.4794635942              3.5389795171
 Angular average effective mass 1/(<1/m>)=   0.6622723757
 Angular average effective mass for Frohlich model (<m**0.5>)**2=   0.7788461534
 Effective masses along directions: (cart. coord. / red. coord. -> eff. mass)
    1:   1.000000  0.000000  0.000000 /   0.894427 -0.447214  0.000000 ->   0.8982621647
    2:   0.000000  1.000000  0.000000 /   0.000000  1.000000  0.000000 ->   0.5518271341
    3:   0.000000  0.000000  1.000000 /   0.000000  0.000000  1.000000 ->   0.6232720442
    4:   0.577350  0.577350  0.577350 /   0.521233  0.190784  0.831816 ->   0.5456260014
    5:   0.000000  0.707107  0.707107 /   0.000000  0.476964  0.878923 ->   0.4745965826
    6:   0.707107  0.000000  0.707107 /   0.513207 -0.256603  0.819008 ->   0.4879038889
    7:   0.707107  0.707107  0.000000 /   0.939071  0.343724  0.000000 ->   1.1662782557

 END OF EFFECTIVE MASSES SECTION

 ---- first-order wavefunction calculations are completed ----

 Total localisation tensor (bohr^2) in cartesian coordinates
  WARNING : still subject to testing - especially symmetries.
      direction              matrix element
   alpha     beta       real part   imaginary part
     1        1       3.6454424877    0.0000000000
     1        2      -1.3790574889    0.0000000000
     1        3       0.0000000000    0.0000000000
     2        1      -1.3790574889    0.0000000000
     2        2       2.3885976373    0.0000000000
     2        3       0.0000000000    0.0000000000
     3        1       0.0000000000    0.0000000000
     3        2       0.0000000000    0.0000000000
     3        3       2.0948209848    0.0000000000

 respfn : d/dk was computed, but no 2DTE, so no DDB output.

== END DATASET(S) ==============================================================

 -outvars: echo values of variables after computation  --------
            acell      1.0000000000E+00  1.0000000000E+00  1.0000000000E+00 Bohr
              amu      4.49559100E+01  6.35460000E+01  3.20660000E+01
             ecut      4.60000000E+01 Hartree
           etotal     -1.6347499254E+01
            fcart      0.0000000000E+00  0.0000000000E+00  0.0000000000E+00
                       0.0000000000E+00  0.0000000000E+00  0.0000000000E+00
                       0.0000000000E+00  0.0000000000E+00  0.0000000000E+00
                       0.0000000000E+00  0.0000000000E+00  0.0000000000E+00
-          fftalg         512
           irdden           1
           irdwfk           1
           istwfk        1    1
              ixc     -116133
              kpt      0.00000000E+00  0.00000000E+00  0.00000000E+00
                       5.00000000E-01  0.00000000E+00  5.00000000E-01
           kptopt           0
P           mkmem           2
P          mkqmem           2
P          mk1mem           2
            natom           4
            nband          30
           nbdbuf           4
            ngfft          45      45      72
             nkpt           2
            nstep         100
             nsym           6
           ntypat           3
              occ      2.000000  2.000000  2.000000  2.000000  2.000000  2.000000
                       2.000000  2.000000  2.000000  2.000000  2.000000  2.000000
                       2.000000  2.000000  2.000000  2.000000  2.000000  2.000000
                       2.000000  2.000000  2.000000  0.000000  0.000000  0.000000
                       0.000000  0.000000  0.000000  0.000000  0.000000  0.000000
        optdriver           1
            prtwf          -1
            rfdir           1       1       1
           rfelfd           2
            rprim      6.9902377196E+00  0.0000000000E+00  0.0000000000E+00
                      -3.4951188598E+00  6.0537234437E+00  0.0000000000E+00
                       0.0000000000E+00  0.0000000000E+00  1.1155464405E+01
          spgroup         156
           strten      0.0000000000E+00  0.0000000000E+00  0.0000000000E+00
                       0.0000000000E+00  0.0000000000E+00  0.0000000000E+00
           symrel      1  0  0   0  1  0   0  0  1      -1  0  0   1  1  0   0  0  1
                       0  1  0  -1 -1  0   0  0  1       0 -1  0  -1  0  0   0  0  1
                      -1 -1  0   1  0  0   0  0  1       1  1  0   0 -1  0   0  0  1
           tolwfr      1.00000000E-20
            typat      1  2  3  3
           useylm           1
              wtk        0.50000    0.50000
           xangst      0.0000000000E+00  0.0000000000E+00  5.8756612948E+00
                       0.0000000000E+00  2.1356616490E+00  3.5635598975E+00
                       1.8495372419E+00  1.0678308245E+00  4.3369581337E+00
                       0.0000000000E+00  2.1356616490E+00  1.3195344045E+00
            xcart      0.0000000000E+00  0.0000000000E+00  1.1103390697E+01
                       0.0000000000E+00  4.0358156291E+00  6.7341522644E+00
                       3.4951188598E+00  2.0179078146E+00  8.1956631225E+00
                       0.0000000000E+00  4.0358156291E+00  2.4935586475E+00
             xred      0.0000000000E+00  0.0000000000E+00  9.9533200000E-01
                       3.3333333333E-01  6.6666666667E-01  6.0366400000E-01
                       6.6666666667E-01  3.3333333333E-01  7.3467700000E-01
                       3.3333333333E-01  6.6666666667E-01  2.2352800000E-01
            znucl       21.00000   29.00000   16.00000

- Timing analysis has been suppressed with timopt=0

 Suggested references for the acknowledgment of ABINIT usage.

 Calculation completed.
.Delivered  14 WARNINGs and   9 COMMENTs to log file.