.Version 9.5.2 of ABINIT

 ABINIT is a project of the Universite Catholique de Louvain,
 Corning Inc. and other collaborators, see ~abinit/doc/developers/contributors.txt .
 acknowledgments of the ABINIT effort.

.Starting date : Mon 24 May 2021.
- ( at 11h17 )

- input  file    -> /scratch/users/j/a/jabreu/flow_simple_10atoms/flow/w310/t1/run.abi
- output file    -> /scratch/users/j/a/jabreu/flow_simple_10atoms/flow/w310/t1/run.abo
- root for input  files -> /scratch/users/j/a/jabreu/flow_simple_10atoms/flow/w310/t1/indata/in
- root for output files -> /scratch/users/j/a/jabreu/flow_simple_10atoms/flow/w310/t1/outdata/out

 Symmetries : space group Fm -3 m (#225); Bravais cF (face-center cubic)
     intxc =       0      iscf =       7    lmnmax =      32     lnmax =       8
     mgfft =      72  mpssoang =       4    mqgrid =    3001     natom =      10
  nloc_mem =       1    nspden =       1   nspinor =       1    nsppol =       1
      nsym =      48    n1xccc =    2501    ntypat =       4    occopt =       1
   xclevel =       2
-    mband =          46        mffmem =           1         mkmem =           2
-   mkqmem =           2        mk1mem =           2           mpw =       12339
      nfft =      373248          nkpt =           2
  Rough estimation (10% accuracy) of disk space for files :

------------- Echo of variables that govern the present computation ------------
-
- outvars: echo of selected default values
-   iomode0 =  0 , fftalg0 =512 , wfoptalg0 =  0
-
- outvars: echo of global parameters not present in the input file
-  max_nthreads =    0
-
 -outvars: echo values of preprocessed input variables --------
            acell      1.0000000000E+00  1.0000000000E+00  1.0000000000E+00 Bohr
              amu      1.37327000E+02  6.94100000E+00  1.86207000E+02
                       1.59994000E+01
             ecut      4.40000000E+01 Hartree
-          fftalg         512
           irdden           1
           irdwfk           1
           istwfk        1    1
              ixc     -116133
              kpt      0.00000000E+00  0.00000000E+00  0.00000000E+00
                       5.00000000E-01  0.00000000E+00  5.00000000E-01
           kptopt           0
P           mkmem           2
P          mkqmem           2
P          mk1mem           2
            natom          10
            nband          46
           nbdbuf           4
            ngfft          72      72      72
             nkpt           2
            nstep        2000
             nsym          48
           ntypat           4
              occ      2.000000  2.000000  2.000000  2.000000  2.000000  2.000000
                       2.000000  2.000000  2.000000  2.000000  2.000000  2.000000
                       2.000000  2.000000  2.000000  2.000000  2.000000  2.000000
                       2.000000  2.000000  2.000000  2.000000  2.000000  2.000000
                       2.000000  2.000000  2.000000  2.000000  2.000000  2.000000
                       2.000000  2.000000  2.000000  2.000000  2.000000  2.000000
                       2.000000  0.000000  0.000000  0.000000  0.000000  0.000000
                       0.000000  0.000000  0.000000  0.000000
        optdriver           1
            prtwf          -1
            rfdir           1       1       1
           rfelfd           2
            rprim      9.3350921404E+00  0.0000000000E+00  5.3896179602E+00
                       3.1116973801E+00  8.8012092740E+00  5.3896179602E+00
                       0.0000000000E+00  0.0000000000E+00  1.0779235920E+01
          spgroup         225
           symrel      1  0  0   0  1  0   0  0  1      -1  0  0   0 -1  0   0  0 -1
                       0 -1  1   0 -1  0   1 -1  0       0  1 -1   0  1  0  -1  1  0
                      -1  0  0  -1  0  1  -1  1  0       1  0  0   1  0 -1   1 -1  0
                       0  1 -1   1  0 -1   0  0 -1       0 -1  1  -1  0  1   0  0  1
                      -1  0  0  -1  1  0  -1  0  1       1  0  0   1 -1  0   1  0 -1
                       0 -1  1   1 -1  0   0 -1  0       0  1 -1  -1  1  0   0  1  0
                       1  0  0   0  0  1   0  1  0      -1  0  0   0  0 -1   0 -1  0
                       0  1 -1   0  0 -1   1  0 -1       0 -1  1   0  0  1  -1  0  1
                      -1  0  1  -1  1  0  -1  0  0       1  0 -1   1 -1  0   1  0  0
                       0 -1  0   1 -1  0   0 -1  1       0  1  0  -1  1  0   0  1 -1
                       1  0 -1   0  0 -1   0  1 -1      -1  0  1   0  0  1   0 -1  1
                       0  1  0   0  0  1   1  0  0       0 -1  0   0  0 -1  -1  0  0
                       1  0 -1   0  1 -1   0  0 -1      -1  0  1   0 -1  1   0  0  1
                       0 -1  0   0 -1  1   1 -1  0       0  1  0   0  1 -1  -1  1  0
                      -1  0  1  -1  0  0  -1  1  0       1  0 -1   1  0  0   1 -1  0
                       0  1  0   1  0  0   0  0  1       0 -1  0  -1  0  0   0  0 -1
                       0  0 -1   0  1 -1   1  0 -1       0  0  1   0 -1  1  -1  0  1
                       1 -1  0   0 -1  1   0 -1  0      -1  1  0   0  1 -1   0  1  0
                       0  0  1   1  0  0   0  1  0       0  0 -1  -1  0  0   0 -1  0
                      -1  1  0  -1  0  0  -1  0  1       1 -1  0   1  0  0   1  0 -1
                       0  0  1   0  1  0   1  0  0       0  0 -1   0 -1  0  -1  0  0
                       1 -1  0   0 -1  0   0 -1  1      -1  1  0   0  1  0   0  1 -1
                       0  0 -1   1  0 -1   0  1 -1       0  0  1  -1  0  1   0 -1  1
                      -1  1  0  -1  0  1  -1  0  0       1 -1  0   1  0 -1   1  0  0
           tolwfr      1.00000000E-20
            typat      1  1  2  3  4  4  4  4  4  4
           useylm           1
              wtk        0.50000    0.50000
           xangst      1.6466393336E+00  1.1643498390E+00  2.8520629875E+00
                       4.9399180008E+00  3.4930495169E+00  8.5561889626E+00
                       0.0000000000E+00  0.0000000000E+00  0.0000000000E+00
                       3.2932786672E+00  2.3286996779E+00  5.7041259751E+00
                       2.5258986318E+00  3.4139389314E+00  7.0332671851E+00
                       1.7585185965E+00  1.2434604244E+00  5.7041259751E+00
                       4.0606587025E+00  1.2434604244E+00  4.3749847651E+00
                       4.8280387379E+00  3.4139389314E+00  5.7041259751E+00
                       2.5258986318E+00  3.4139389314E+00  4.3749847651E+00
                       4.0606587025E+00  1.2434604244E+00  7.0332671851E+00
            xcart      3.1116973801E+00  2.2003023185E+00  5.3896179602E+00
                       9.3350921404E+00  6.6009069555E+00  1.6168853881E+01
                       0.0000000000E+00  0.0000000000E+00  0.0000000000E+00
                       6.2233947603E+00  4.4006046370E+00  1.0779235920E+01
                       4.7732566536E+00  6.4514096148E+00  1.3290948799E+01
                       3.3231185469E+00  2.3497996592E+00  1.0779235920E+01
                       7.6735328669E+00  2.3497996592E+00  8.2675230416E+00
                       9.1236709736E+00  6.4514096148E+00  1.0779235920E+01
                       4.7732566536E+00  6.4514096148E+00  8.2675230416E+00
                       7.6735328669E+00  2.3497996592E+00  1.3290948799E+01
             xred      2.5000000000E-01  2.5000000000E-01  2.5000000000E-01
                       7.5000000000E-01  7.5000000000E-01  7.5000000000E-01
                       0.0000000000E+00  0.0000000000E+00  0.0000000000E+00
                       5.0000000000E-01  5.0000000000E-01  5.0000000000E-01
                       2.6698600000E-01  7.3301400000E-01  7.3301400000E-01
                       2.6698600000E-01  2.6698600000E-01  7.3301400000E-01
                       7.3301400000E-01  2.6698600000E-01  2.6698600000E-01
                       7.3301400000E-01  7.3301400000E-01  2.6698600000E-01
                       2.6698600000E-01  7.3301400000E-01  2.6698600000E-01
                       7.3301400000E-01  2.6698600000E-01  7.3301400000E-01
            znucl       56.00000    3.00000   75.00000    8.00000

 chkinp: Checking input parameters for consistency.

== DATASET  1 ==================================================================
-   mpi_nproc: 1, omp_nthreads: -1 (-1 if OMP is not activated)

--- !DatasetInfo
iteration_state: {dtset: 1, }
dimensions: {natom: 10, nkpt: 2, mband: 46, nsppol: 1, nspinor: 1, nspden: 1, mpw: 12339, }
cutoff_energies: {ecut:  44.0, pawecutdg:  -1.0, }
electrons: {nelect:   7.40000000E+01, charge:   0.00000000E+00, occopt:   1.00000000E+00, tsmear:   1.00000000E-02, }
meta: {optdriver: 1, rfelfd: 2, }
...

 Real(R)+Recip(G) space primitive vectors, cartesian coordinates (Bohr,Bohr^-1):
 R(1)=  9.3350921  0.0000000  5.3896180  G(1)=  0.1071227 -0.0378736  0.0000000
 R(2)=  3.1116974  8.8012093  5.3896180  G(2)=  0.0000000  0.1136208  0.0000000
 R(3)=  0.0000000  0.0000000 10.7792359  G(3)= -0.0535613 -0.0378736  0.0927710
 Unit cell volume ucvol=  8.8562310E+02 bohr^3
 Angles (23,13,12)=  6.00000000E+01  6.00000000E+01  6.00000000E+01 degrees

 getcut: wavevector=  0.0000  0.0000  0.0000  ngfft=  72  72  72
         ecut(hartree)=     44.000   => boxcut(ratio)=   2.23693

 getcut : COMMENT -
  Note that boxcut > 2.2 ; recall that boxcut=Gcut(box)/Gcut(sphere) = 2
  is sufficient for exact treatment of convolution.
  Such a large boxcut is a waste : you could raise ecut
  e.g. ecut=   55.042582 Hartrees makes boxcut=2

--- Pseudopotential description ------------------------------------------------
- pspini: atom type   1  psp file is /scratch/users/j/a/jabreu/pseudos/PBEsol/Ba.psp8
- pspatm: opening atomic psp file    /scratch/users/j/a/jabreu/pseudos/PBEsol/Ba.psp8
- Ba    ONCVPSP-3.3.0  r_core=   2.15444   1.91218   2.15444
- 56.00000  10.00000    180112                znucl, zion, pspdat
    8 -116133    2    4       600   0.00000   pspcod,pspxc,lmax,lloc,mmax,r2well
    5.99000000000000    5.00000000000000    0.00000000000000   rchrg,fchrg,qchrg
     nproj     2     2     2
     extension_switch     1
  pspatm : epsatm=   26.37418029
         --- l  ekb(1:nproj) -->
             0    6.652372    0.677024
             1    5.027722    0.408462
             2    2.543237    0.416854
 pspatm: atomic psp has been read  and splines computed

- pspini: atom type   2  psp file is /scratch/users/j/a/jabreu/pseudos/PBEsol/Li.psp8
- pspatm: opening atomic psp file    /scratch/users/j/a/jabreu/pseudos/PBEsol/Li.psp8
- Li    ONCVPSP-3.3.0  r_core=   1.40824   1.10935
-  3.00000   3.00000    180112                znucl, zion, pspdat
    8 -116133    1    4       400   0.00000   pspcod,pspxc,lmax,lloc,mmax,r2well
    3.99000000000000    0.00000000000000    0.00000000000000   rchrg,fchrg,qchrg
     nproj     2     2
     extension_switch     1
  pspatm : epsatm=    2.60859637
         --- l  ekb(1:nproj) -->
             0   -4.855856   -1.482423
             1   -2.171544   -0.427615
 pspatm: atomic psp has been read  and splines computed

[...]

- pspini: atom type   4  psp file is /scratch/users/j/a/jabreu/pseudos/PBEsol/O.psp8
[...]
 ETOT 14  -42.186548583085     -1.421E-14 9.425E-11 0.000E+00
 ETOT 15  -42.186548583085      0.000E+00 4.165E-11 0.000E+00
 ETOT 16  -42.186548583085     -7.105E-15 1.325E-11 0.000E+00
 ETOT 17  -42.186548583085      0.000E+00 5.691E-12 0.000E+00
 ETOT 18  -42.186548583085      0.000E+00 1.895E-12 0.000E+00
 ETOT 19  -42.186548583085      0.000E+00 7.875E-13 0.000E+00
 ETOT 20  -42.186548583085      7.105E-15 2.729E-13 0.000E+00
 ETOT 21  -42.186548583085     -2.132E-14 1.102E-13 0.000E+00
 ETOT 22  -42.186548583085      1.421E-14 3.941E-14 0.000E+00
 ETOT 23  -42.186548583085     -1.421E-14 1.560E-14 0.000E+00
 ETOT 24  -42.186548583085      7.105E-15 5.699E-15 0.000E+00
 ETOT 25  -42.186548583085      7.105E-15 2.242E-15 0.000E+00
 ETOT 26  -42.186548583085      0.000E+00 8.255E-16 0.000E+00
 ETOT 27  -42.186548583085      0.000E+00 3.297E-16 0.000E+00
 ETOT 28  -42.186548583085     -1.421E-14 1.200E-16 0.000E+00
 ETOT 29  -42.186548583085     -7.105E-15 4.984E-17 0.000E+00
 ETOT 30  -42.186548583085      0.000E+00 1.758E-17 0.000E+00
 ETOT 31  -42.186548583085      0.000E+00 7.614E-18 0.000E+00
 ETOT 32  -42.186548583085      7.105E-15 2.612E-18 0.000E+00
 ETOT 33  -42.186548583085     -7.105E-15 1.125E-18 0.000E+00
 ETOT 34  -42.186548583085      7.105E-15 3.961E-19 0.000E+00
 ETOT 35  -42.186548583085      7.105E-15 1.549E-19 0.000E+00
 ETOT 36  -42.186548583085      0.000E+00 6.172E-20 0.000E+00
 ETOT 37  -42.186548583085     -2.132E-14 2.007E-20 0.000E+00
 ETOT 38  -42.186548583085      2.842E-14 9.987E-21 0.000E+00

 At SCF step   38   max residual=  9.99E-21 < tolwfr=  1.00E-20 =>converged.

 ----iterations are completed or convergence reached----

 dfpt_looppert: DFPT cycle converged with prtwf=-1. Will skip output of the 1st-order WFK file.
 dfpt_looppert : ek2=    7.5428723255E+01
          f-sum rule ratio=    1.0665477175E+00
 prteigrs : about to open file /scratch/users/j/a/jabreu/flow_simple_10atoms/flow/w310/t1/tmpdata/tmp_1WF1_EIG
 Expectation of eigenvalue derivatives (hartree) for nkpt=   2  k points:
  (in case of degenerate eigenvalues, averaged derivative)
 kpt#   1, nband= 46, wtk=  0.50000, kpt=  0.0000  0.0000  0.0000 (reduced coord)
   0.00000    0.00000    0.00000    0.00000   -0.00000    0.00000    0.00000    0.00000
  -0.00000   -0.00000   -0.00000   -0.00000   -0.00000   -0.00000   -0.00000   -0.00000
   0.00000    0.00000    0.00000   -0.00000   -0.00000   -0.00000    0.00000    0.00000
   0.00000   -0.00000   -0.00000   -0.00000    0.00000    0.00000    0.00000    0.00000
   0.00000    0.00000    0.00000    0.00000    0.00000   -0.00000   -0.00000   -0.00000
  -0.00000   -0.00000   -0.00000   -0.00000   -0.00000    0.00000
 prteigrs : prtvol=0 or 1, do not print more k-points.

 Eight components of 2nd-order total energy (hartree) are
 1,2,3: 0th-order hamiltonian combined with 1st-order wavefunctions
     kin0=   6.11783589E+01 eigvalue=  -1.13885827E+00  local=  -3.00140781E+01
 4,5,6: 1st-order hamiltonian combined with 1st and 0th-order wfs
     kin1=  -8.04483326E+01  Hartree=   0.00000000E+00     xc=   0.00000000E+00
 7,8,9: eventually, occupation + non-local contributions
    edocc=   1.18209657E+01     enl0=   3.40160361E-01   enl1=  -3.92476455E+00
 1-9 gives the relaxation energy (to be shifted if some occ is /=2.0)
   erelax=  -4.21865486E+01
  No Ewald or frozen-wf contrib.: the relaxation energy is the total one
 2DEtotal=   -0.4218654858E+02 Ha. Also 2DEtotal=   -0.114795436722E+04 eV
    (  non-var. 2DEtotal :   -4.2186548583E+01 Ha)

 CALCULATION OF EFFECTIVE MASSES
 NOTE : Additional infos (eff. mass eigenvalues, eigenvectors and, if degenerate, average mass) are available in stdout.

 COMMENTS:
 - At k-point ( 0.000, 0.000, 0.000), bands    35 through    37
   are DEGENERATE (effective mass tensor is therefore not defined).
   See Section IIIB Eqs. (67)-(70) and Appendix E of PRB 93 205147 (2016).
 - Angular average effective mass for Frohlich model is to be averaged over degenerate bands. See later.
 - Associated theta integrals calculated with ntheta=   1000 points.

 K-point ( 0.000, 0.000, 0.000) | band =    35
 Transport equivalent effective mass tensor:
             -1.8479741325             -0.0000006679             -0.0000000025
             -0.0000006679             -1.8479734826             -0.0000000001
             -0.0000000025             -0.0000000001             -1.8479701978
 Transport equivalent effective mass tensor eigenvalues:
             -1.8479745503             -1.8479730647             -1.8479701978
 Angular average effective mass 1/(<1/m>)=  -1.7230069994
 Angular average effective mass for Frohlich model (<m**0.5>)**2=  -1.7275404830
 Effective masses along directions: (cart. coord. / red. coord. -> eff. mass)
    1:   1.000000  0.000000  0.000000 /   0.948683  0.316228  0.000000 ->  -1.8550567760
    2:   0.000000  1.000000  0.000000 /   0.000000  1.000000  0.000000 ->  -2.1411008062
    3:   0.000000  0.000000  1.000000 /   0.408248  0.408248  0.816497 ->  -1.6364344767
    4:   0.577350  0.577350  0.577350 /   0.585539  0.688047  0.428644 ->  -1.7742816385
    5:   0.000000  0.707107  0.707107 /   0.289489  0.762222  0.578977 ->  -1.6477945091
    6:   0.707107  0.000000  0.707107 /   0.731423  0.422287  0.535439 ->  -1.6982856332
    7:   0.707107  0.707107  0.000000 /   0.616798  0.787122  0.000000 ->  -1.6531479932

[...]

 K-point ( 0.000, 0.000, 0.000) | band =    37
 Transport equivalent effective mass tensor:
            -17.4423316395             -0.0000000139             -0.0000000154
             -0.0000000139            -17.4423316044             -0.0000000104
             -0.0000000154             -0.0000000104            -17.4423316149
 Transport equivalent effective mass tensor eigenvalues:
            -17.4423316529            -17.4423316085            -17.4423315974
 Angular average effective mass 1/(<1/m>)=  -4.4717450819
 Angular average effective mass for Frohlich model (<m**0.5>)**2=  -5.0049587985
 Effective masses along directions: (cart. coord. / red. coord. -> eff. mass)
    1:   1.000000  0.000000  0.000000 /   0.948683  0.316228  0.000000 ->  -4.0592871653
    2:   0.000000  1.000000  0.000000 /   0.000000  1.000000  0.000000 ->  -2.7369751524
    3:   0.000000  0.000000  1.000000 /   0.408248  0.408248  0.816497 ->  -3.4089058180
    4:   0.577350  0.577350  0.577350 /   0.585539  0.688047  0.428644 ->  -3.9225886153
    5:   0.000000  0.707107  0.707107 /   0.289489  0.762222  0.578977 ->  -6.0032108099
    6:   0.707107  0.000000  0.707107 /   0.731423  0.422287  0.535439 ->  -3.7732560745
    7:   0.707107  0.707107  0.000000 /   0.616798  0.787122  0.000000 -> -10.8698883993

 Angular average effective mass for Frohlich model, averaged over degenerate bands.
 Value of     (<<m**0.5>>)**2 =     2.755636E+00
 Absolute Value of <<m**0.5>> =     1.660011E+00

 K-point ( 0.500, 0.000, 0.500) | band =    38
 Effective mass tensor:
              0.9269136391             -0.2415199630              0.2957997060
             -0.2415199630              1.0976968868             -0.4183262781
              0.2957997060             -0.4183262781              1.2684760558
 Effective mass tensor eigenvalues:
              0.7561341834              0.7561341835              1.7808182148
 Angular average effective mass 1/(<1/m>)=   0.9355783209
 Angular average effective mass for Frohlich model (<m**0.5>)**2=   0.9743683413
 Effective masses along directions: (cart. coord. / red. coord. -> eff. mass)
    1:   1.000000  0.000000  0.000000 /   0.948683  0.316228  0.000000 ->   0.8363385782
    2:   0.000000  1.000000  0.000000 /   0.000000  1.000000  0.000000 ->   0.9355792047
    3:   0.000000  0.000000  1.000000 /   0.408248  0.408248  0.816497 ->   1.0615393300
    4:   0.577350  0.577350  0.577350 /   0.585539  0.688047  0.428644 ->   0.8005790156
    5:   0.000000  0.707107  0.707107 /   0.289489  0.762222  0.578977 ->   0.7598146086
    6:   0.707107  0.000000  0.707107 /   0.731423  0.422287  0.535439 ->   1.1776013719
    7:   0.707107  0.707107  0.000000 /   0.616798  0.787122  0.000000 ->   0.7624066421

 END OF EFFECTIVE MASSES SECTION

 ---- first-order wavefunction calculations are completed ----

 Total localisation tensor (bohr^2) in cartesian coordinates
  WARNING : still subject to testing - especially symmetries.
      direction              matrix element
   alpha     beta       real part   imaginary part
     1        1       1.1880253244    0.0000000000
     1        2       0.3360243135    0.0000000000
     1        3       0.8230880924    0.0000000000
     2        1       0.3360243135    0.0000000000
     2        2       0.9504202829    0.0000000000
     2        3       0.5820111836    0.0000000000
     3        1       0.8230880924    0.0000000000
     3        2       0.5820111836    0.0000000000
     3        3       2.1384456253    0.0000000000

 respfn : d/dk was computed, but no 2DTE, so no DDB output.

== END DATASET(S) ==============================================================

 -outvars: echo values of variables after computation  --------
            acell      1.0000000000E+00  1.0000000000E+00  1.0000000000E+00 Bohr
              amu      1.37327000E+02  6.94100000E+00  1.86207000E+02
                       1.59994000E+01
             ecut      4.40000000E+01 Hartree
           etotal     -4.2186548583E+01
            fcart      0.0000000000E+00  0.0000000000E+00  0.0000000000E+00
                       0.0000000000E+00  0.0000000000E+00  0.0000000000E+00
                       0.0000000000E+00  0.0000000000E+00  0.0000000000E+00
                       0.0000000000E+00  0.0000000000E+00  0.0000000000E+00
                       0.0000000000E+00  0.0000000000E+00  0.0000000000E+00
                       0.0000000000E+00  0.0000000000E+00  0.0000000000E+00
                       0.0000000000E+00  0.0000000000E+00  0.0000000000E+00
                       0.0000000000E+00  0.0000000000E+00  0.0000000000E+00
                       0.0000000000E+00  0.0000000000E+00  0.0000000000E+00
                       0.0000000000E+00  0.0000000000E+00  0.0000000000E+00
-          fftalg         512
           irdden           1
           irdwfk           1
           istwfk        1    1
              ixc     -116133
              kpt      0.00000000E+00  0.00000000E+00  0.00000000E+00
                       5.00000000E-01  0.00000000E+00  5.00000000E-01
           kptopt           0
P           mkmem           2
P          mkqmem           2
P          mk1mem           2
            natom          10
            nband          46
           nbdbuf           4
            ngfft          72      72      72
             nkpt           2
            nstep        2000
             nsym          48
           ntypat           4
              occ      2.000000  2.000000  2.000000  2.000000  2.000000  2.000000
                       2.000000  2.000000  2.000000  2.000000  2.000000  2.000000
                       2.000000  2.000000  2.000000  2.000000  2.000000  2.000000
                       2.000000  2.000000  2.000000  2.000000  2.000000  2.000000
                       2.000000  2.000000  2.000000  2.000000  2.000000  2.000000
                       2.000000  2.000000  2.000000  2.000000  2.000000  2.000000
                       2.000000  0.000000  0.000000  0.000000  0.000000  0.000000
                       0.000000  0.000000  0.000000  0.000000
        optdriver           1
            prtwf          -1
            rfdir           1       1       1
           rfelfd           2
            rprim      9.3350921404E+00  0.0000000000E+00  5.3896179602E+00
                       3.1116973801E+00  8.8012092740E+00  5.3896179602E+00
                       0.0000000000E+00  0.0000000000E+00  1.0779235920E+01
          spgroup         225
           strten      0.0000000000E+00  0.0000000000E+00  0.0000000000E+00
                       0.0000000000E+00  0.0000000000E+00  0.0000000000E+00
           symrel      1  0  0   0  1  0   0  0  1      -1  0  0   0 -1  0   0  0 -1
                       0 -1  1   0 -1  0   1 -1  0       0  1 -1   0  1  0  -1  1  0
                      -1  0  0  -1  0  1  -1  1  0       1  0  0   1  0 -1   1 -1  0
                       0  1 -1   1  0 -1   0  0 -1       0 -1  1  -1  0  1   0  0  1
                      -1  0  0  -1  1  0  -1  0  1       1  0  0   1 -1  0   1  0 -1
                       0 -1  1   1 -1  0   0 -1  0       0  1 -1  -1  1  0   0  1  0
                       1  0  0   0  0  1   0  1  0      -1  0  0   0  0 -1   0 -1  0
                       0  1 -1   0  0 -1   1  0 -1       0 -1  1   0  0  1  -1  0  1
                      -1  0  1  -1  1  0  -1  0  0       1  0 -1   1 -1  0   1  0  0
                       0 -1  0   1 -1  0   0 -1  1       0  1  0  -1  1  0   0  1 -1
                       1  0 -1   0  0 -1   0  1 -1      -1  0  1   0  0  1   0 -1  1
                       0  1  0   0  0  1   1  0  0       0 -1  0   0  0 -1  -1  0  0
                       1  0 -1   0  1 -1   0  0 -1      -1  0  1   0 -1  1   0  0  1
                       0 -1  0   0 -1  1   1 -1  0       0  1  0   0  1 -1  -1  1  0
                      -1  0  1  -1  0  0  -1  1  0       1  0 -1   1  0  0   1 -1  0
                       0  1  0   1  0  0   0  0  1       0 -1  0  -1  0  0   0  0 -1
                       0  0 -1   0  1 -1   1  0 -1       0  0  1   0 -1  1  -1  0  1
                       1 -1  0   0 -1  1   0 -1  0      -1  1  0   0  1 -1   0  1  0
                       0  0  1   1  0  0   0  1  0       0  0 -1  -1  0  0   0 -1  0
                      -1  1  0  -1  0  0  -1  0  1       1 -1  0   1  0  0   1  0 -1
                       0  0  1   0  1  0   1  0  0       0  0 -1   0 -1  0  -1  0  0
                       1 -1  0   0 -1  0   0 -1  1      -1  1  0   0  1  0   0  1 -1
                       0  0 -1   1  0 -1   0  1 -1       0  0  1  -1  0  1   0 -1  1
                      -1  1  0  -1  0  1  -1  0  0       1 -1  0   1  0 -1   1  0  0
           tolwfr      1.00000000E-20
            typat      1  1  2  3  4  4  4  4  4  4
           useylm           1
              wtk        0.50000    0.50000
           xangst      1.6466393336E+00  1.1643498390E+00  2.8520629875E+00
                       4.9399180008E+00  3.4930495169E+00  8.5561889626E+00
                       0.0000000000E+00  0.0000000000E+00  0.0000000000E+00
                       3.2932786672E+00  2.3286996779E+00  5.7041259751E+00
                       2.5258986318E+00  3.4139389314E+00  7.0332671851E+00
                       1.7585185965E+00  1.2434604244E+00  5.7041259751E+00
                       4.0606587025E+00  1.2434604244E+00  4.3749847651E+00
                       4.8280387379E+00  3.4139389314E+00  5.7041259751E+00
                       2.5258986318E+00  3.4139389314E+00  4.3749847651E+00
                       4.0606587025E+00  1.2434604244E+00  7.0332671851E+00
            xcart      3.1116973801E+00  2.2003023185E+00  5.3896179602E+00
                       9.3350921404E+00  6.6009069555E+00  1.6168853881E+01
                       0.0000000000E+00  0.0000000000E+00  0.0000000000E+00
                       6.2233947603E+00  4.4006046370E+00  1.0779235920E+01
                       4.7732566536E+00  6.4514096148E+00  1.3290948799E+01
                       3.3231185469E+00  2.3497996592E+00  1.0779235920E+01
                       7.6735328669E+00  2.3497996592E+00  8.2675230416E+00
                       9.1236709736E+00  6.4514096148E+00  1.0779235920E+01
                       4.7732566536E+00  6.4514096148E+00  8.2675230416E+00
                       7.6735328669E+00  2.3497996592E+00  1.3290948799E+01
             xred      2.5000000000E-01  2.5000000000E-01  2.5000000000E-01
                       7.5000000000E-01  7.5000000000E-01  7.5000000000E-01
                       0.0000000000E+00  0.0000000000E+00  0.0000000000E+00
                       5.0000000000E-01  5.0000000000E-01  5.0000000000E-01
                       2.6698600000E-01  7.3301400000E-01  7.3301400000E-01
                       2.6698600000E-01  2.6698600000E-01  7.3301400000E-01
                       7.3301400000E-01  2.6698600000E-01  2.6698600000E-01
                       7.3301400000E-01  7.3301400000E-01  2.6698600000E-01
                       2.6698600000E-01  7.3301400000E-01  2.6698600000E-01
                       7.3301400000E-01  2.6698600000E-01  7.3301400000E-01
            znucl       56.00000    3.00000   75.00000    8.00000

- Timing analysis has been suppressed with timopt=0

 Suggested references for the acknowledgment of ABINIT usage.

 Calculation completed.
.Delivered   2 WARNINGs and  11 COMMENTs to log file.