.Version 9.5.2 of ABINIT

 ABINIT is a project of the Universite Catholique de Louvain,
 Corning Inc. and other collaborators, see ~abinit/doc/developers/contributors.txt .
 acknowledgments of the ABINIT effort.

.Starting date : Mon 24 May 2021.
- ( at 23h17 )

- input  file    -> /scratch/users/j/a/jabreu/flow_simple_10atoms/flow/w487/t1/run.abi
- output file    -> /scratch/users/j/a/jabreu/flow_simple_10atoms/flow/w487/t1/run.abo
- root for input  files -> /scratch/users/j/a/jabreu/flow_simple_10atoms/flow/w487/t1/indata/in
- root for output files -> /scratch/users/j/a/jabreu/flow_simple_10atoms/flow/w487/t1/outdata/out

 Symmetries : space group Fm -3 m (#225); Bravais cF (face-center cubic)
     intxc =       0      iscf =       7    lmnmax =      32     lnmax =       8
     mgfft =      72  mpssoang =       4    mqgrid =    3001     natom =      10
  nloc_mem =       1    nspden =       1   nspinor =       1    nsppol =       1
      nsym =      48    n1xccc =    2501    ntypat =       4    occopt =       1
   xclevel =       2
-    mband =          49        mffmem =           1         mkmem =           2
-   mkqmem =           2        mk1mem =           2           mpw =       16049
      nfft =      373248          nkpt =           2
  Rough estimation (10% accuracy) of disk space for files :

------------- Echo of variables that govern the present computation ------------
-
- outvars: echo of selected default values
-   iomode0 =  0 , fftalg0 =512 , wfoptalg0 =  0
-
- outvars: echo of global parameters not present in the input file
-  max_nthreads =    0
-
 -outvars: echo values of preprocessed input variables --------
            acell      1.0000000000E+00  1.0000000000E+00  1.0000000000E+00 Bohr
              amu      1.32905430E+02  2.29897680E+01  4.49559100E+01
                       1.89984032E+01
             ecut      4.40000000E+01 Hartree
-          fftalg         512
           irdden           1
           irdwfk           1
           istwfk        0    1
              ixc     -116133
              kpt      1.14130435E-01  1.14130435E-01  2.28260870E-01
                       0.00000000E+00  0.00000000E+00  0.00000000E+00
           kptopt           0
P           mkmem           2
P          mkqmem           2
P          mk1mem           2
            natom          10
            nband          49
           nbdbuf           4
            ngfft          72      72      72
             nkpt           2
            nstep        2000
             nsym          48
           ntypat           4
              occ      2.000000  2.000000  2.000000  2.000000  2.000000  2.000000
                       2.000000  2.000000  2.000000  2.000000  2.000000  2.000000
                       2.000000  2.000000  2.000000  2.000000  2.000000  2.000000
                       2.000000  2.000000  2.000000  2.000000  2.000000  2.000000
                       2.000000  2.000000  2.000000  2.000000  2.000000  2.000000
                       2.000000  2.000000  2.000000  2.000000  2.000000  2.000000
                       2.000000  2.000000  2.000000  2.000000  0.000000  0.000000
                       0.000000  0.000000  0.000000  0.000000  0.000000  0.000000
                       0.000000
        optdriver           1
            prtwf          -1
            rfdir           1       1       1
           rfelfd           2
            rprim      1.0169057856E+01  0.0000000000E+00  5.8711082904E+00
                       3.3896859519E+00  9.5874796907E+00  5.8711082904E+00
                       0.0000000000E+00  0.0000000000E+00  1.1742216581E+01
          spgroup         225
           symrel      1  0  0   0  1  0   0  0  1      -1  0  0   0 -1  0   0  0 -1
                       0 -1  1   0 -1  0   1 -1  0       0  1 -1   0  1  0  -1  1  0
                      -1  0  0  -1  0  1  -1  1  0       1  0  0   1  0 -1   1 -1  0
                       0  1 -1   1  0 -1   0  0 -1       0 -1  1  -1  0  1   0  0  1
                      -1  0  0  -1  1  0  -1  0  1       1  0  0   1 -1  0   1  0 -1
                       0 -1  1   1 -1  0   0 -1  0       0  1 -1  -1  1  0   0  1  0
                       1  0  0   0  0  1   0  1  0      -1  0  0   0  0 -1   0 -1  0
                       0  1 -1   0  0 -1   1  0 -1       0 -1  1   0  0  1  -1  0  1
                      -1  0  1  -1  1  0  -1  0  0       1  0 -1   1 -1  0   1  0  0
                       0 -1  0   1 -1  0   0 -1  1       0  1  0  -1  1  0   0  1 -1
                       1  0 -1   0  0 -1   0  1 -1      -1  0  1   0  0  1   0 -1  1
                       0  1  0   0  0  1   1  0  0       0 -1  0   0  0 -1  -1  0  0
                       1  0 -1   0  1 -1   0  0 -1      -1  0  1   0 -1  1   0  0  1
                       0 -1  0   0 -1  1   1 -1  0       0  1  0   0  1 -1  -1  1  0
                      -1  0  1  -1  0  0  -1  1  0       1  0 -1   1  0  0   1 -1  0
                       0  1  0   1  0  0   0  0  1       0 -1  0  -1  0  0   0  0 -1
                       0  0 -1   0  1 -1   1  0 -1       0  0  1   0 -1  1  -1  0  1
                       1 -1  0   0 -1  1   0 -1  0      -1  1  0   0  1 -1   0  1  0
                       0  0  1   1  0  0   0  1  0       0  0 -1  -1  0  0   0 -1  0
                      -1  1  0  -1  0  0  -1  0  1       1 -1  0   1  0  0   1  0 -1
                       0  0  1   0  1  0   1  0  0       0  0 -1   0 -1  0  -1  0  0
                       1 -1  0   0 -1  0   0 -1  1      -1  1  0   0  1  0   0  1 -1
                       0  0 -1   1  0 -1   0  1 -1       0  0  1  -1  0  1   0 -1  1
                      -1  1  0  -1  0  1  -1  0  0       1 -1  0   1  0 -1   1  0  0
           tolwfr      1.00000000E-20
            typat      1  1  2  3  4  4  4  4  4  4
           useylm           1
              wtk        0.50000    0.50000
           xangst      1.7937445500E+00  1.2683689350E+00  3.1068566964E+00
                       5.3812336500E+00  3.8051068051E+00  9.3205700893E+00
                       3.5874891000E+00  2.5367378701E+00  6.2137133929E+00
                       0.0000000000E+00  0.0000000000E+00  0.0000000000E+00
                       1.6517947813E+00  1.1679952910E+00  6.2137133928E+00
                       4.5553362594E+00  1.1679952910E+00  7.8900738468E+00
                       2.6196419407E+00  3.9054804491E+00  4.5373529389E+00
                       2.6196419407E+00  3.9054804491E+00  7.8900738468E+00
                       5.5231834187E+00  3.9054804491E+00  6.2137133929E+00
                       4.5553362594E+00  1.1679952910E+00  4.5373529389E+00
            xcart      3.3896859519E+00  2.3968699227E+00  5.8711082904E+00
                       1.0169057856E+01  7.1906097680E+00  1.7613324871E+01
                       6.7793719038E+00  4.7937398454E+00  1.1742216581E+01
                       0.0000000000E+00  0.0000000000E+00  0.0000000000E+00
                       3.1214397644E+00  2.2071912245E+00  1.1742216581E+01
                       8.6083379734E+00  2.2071912245E+00  1.4910078739E+01
                       4.9504058341E+00  7.3802884662E+00  8.5743544227E+00
                       4.9504058341E+00  7.3802884662E+00  1.4910078739E+01
                       1.0437304043E+01  7.3802884662E+00  1.1742216581E+01
                       8.6083379734E+00  2.2071912245E+00  8.5743544227E+00
             xred      2.5000000000E-01  2.5000000000E-01  2.5000000000E-01
                       7.5000000000E-01  7.5000000000E-01  7.5000000000E-01
                       5.0000000000E-01  5.0000000000E-01  5.0000000000E-01
                       0.0000000000E+00  0.0000000000E+00  0.0000000000E+00
                       2.3021600000E-01  2.3021600000E-01  7.6978400000E-01
                       7.6978400000E-01  2.3021600000E-01  7.6978400000E-01
                       2.3021600000E-01  7.6978400000E-01  2.3021600000E-01
                       2.3021600000E-01  7.6978400000E-01  7.6978400000E-01
                       7.6978400000E-01  7.6978400000E-01  2.3021600000E-01
                       7.6978400000E-01  2.3021600000E-01  2.3021600000E-01
            znucl       55.00000   11.00000   21.00000    9.00000

 chkinp: Checking input parameters for consistency.

== DATASET  1 ==================================================================
-   mpi_nproc: 1, omp_nthreads: -1 (-1 if OMP is not activated)

--- !DatasetInfo
iteration_state: {dtset: 1, }
dimensions: {natom: 10, nkpt: 2, mband: 49, nsppol: 1, nspinor: 1, nspden: 1, mpw: 16049, }
cutoff_energies: {ecut:  44.0, pawecutdg:  -1.0, }
electrons: {nelect:   8.00000000E+01, charge:   0.00000000E+00, occopt:   1.00000000E+00, tsmear:   1.00000000E-02, }
meta: {optdriver: 1, rfelfd: 2, }
...

 Real(R)+Recip(G) space primitive vectors, cartesian coordinates (Bohr,Bohr^-1):
 R(1)= 10.1690579  0.0000000  5.8711083  G(1)=  0.0983375 -0.0347676  0.0000000
 R(2)=  3.3896860  9.5874797  5.8711083  G(2)=  0.0000000  0.1043027  0.0000000
 R(3)=  0.0000000  0.0000000 11.7422166  G(3)= -0.0491688 -0.0347676  0.0851628
 Unit cell volume ucvol=  1.1448149E+03 bohr^3
 Angles (23,13,12)=  6.00000000E+01  6.00000000E+01  6.00000000E+01 degrees

 getcut: wavevector=  0.0000  0.0000  0.0000  ngfft=  72  72  72
         ecut(hartree)=     44.000   => boxcut(ratio)=   2.05348

--- Pseudopotential description ------------------------------------------------
- pspini: atom type   1  psp file is /scratch/users/j/a/jabreu/pseudos/PBEsol/Cs.psp8
- pspatm: opening atomic psp file    /scratch/users/j/a/jabreu/pseudos/PBEsol/Cs.psp8
- Cs    ONCVPSP-3.3.0  r_core=   2.27353   1.85623   2.01788   1.90105
- 55.00000   9.00000    180112                znucl, zion, pspdat
    8 -116133    3    4       600   0.00000   pspcod,pspxc,lmax,lloc,mmax,r2well
    5.99000000000000    5.00000000000000    0.00000000000000   rchrg,fchrg,qchrg
     nproj     2     2     2     2
     extension_switch     1
  pspatm : epsatm=   22.12462445
         --- l  ekb(1:nproj) -->
             0    6.214110    0.767882
             1    6.311966    0.793598
             2    3.769790    0.913105
             3   -9.247129   -2.432478
 pspatm: atomic psp has been read  and splines computed

- pspini: atom type   2  psp file is /scratch/users/j/a/jabreu/pseudos/PBEsol/Na.psp8
- pspatm: opening atomic psp file    /scratch/users/j/a/jabreu/pseudos/PBEsol/Na.psp8
- Na    ONCVPSP-3.3.0  r_core=   1.20708   1.55069
- 11.00000   9.00000    180112                znucl, zion, pspdat
    8 -116133    1    4       400   0.00000   pspcod,pspxc,lmax,lloc,mmax,r2well
    3.99000000000000    0.00000000000000    0.00000000000000   rchrg,fchrg,qchrg
     nproj     2     2
     extension_switch     1
  pspatm : epsatm=    9.32878306
         --- l  ekb(1:nproj) -->
             0    2.657905   -0.678300
             1   -6.761319   -2.404728
 pspatm: atomic psp has been read  and splines computed

[...]

- pspini: atom type   4  psp file is /scratch/users/j/a/jabreu/pseudos/PBEsol/F.psp8
- pspatm: opening atomic psp file    /scratch/users/j/a/jabreu/pseudos/PBEsol/F.psp8
- F     ONCVPSP-3.3.0  r_core=   1.30942   1.45782   1.60379
[...]
 ETOT 40  -38.534779191892     -7.105E-15 3.207E-16 0.000E+00
 ETOT 41  -38.534779191892      0.000E+00 1.329E-16 0.000E+00
 ETOT 42  -38.534779191892     -7.105E-15 7.119E-17 0.000E+00
 ETOT 43  -38.534779191892      2.132E-14 2.948E-17 0.000E+00
 ETOT 44  -38.534779191892     -2.842E-14 1.580E-17 0.000E+00
 ETOT 45  -38.534779191892      0.000E+00 6.540E-18 0.000E+00
 ETOT 46  -38.534779191892      7.105E-15 3.509E-18 0.000E+00
 ETOT 47  -38.534779191892     -7.105E-15 1.451E-18 0.000E+00
 ETOT 48  -38.534779191892      0.000E+00 7.793E-19 0.000E+00
 ETOT 49  -38.534779191892      7.105E-15 3.221E-19 0.000E+00
 ETOT 50  -38.534779191892     -7.105E-15 1.731E-19 0.000E+00
 ETOT 51  -38.534779191892      0.000E+00 7.149E-20 0.000E+00
 ETOT 52  -38.534779191892      7.105E-15 3.845E-20 0.000E+00
 ETOT 53  -38.534779191892      0.000E+00 1.587E-20 0.000E+00
 ETOT 54  -38.534779191892      0.000E+00 9.948E-21 0.000E+00

 At SCF step   54   max residual=  9.95E-21 < tolwfr=  1.00E-20 =>converged.

 ----iterations are completed or convergence reached----

 dfpt_looppert: DFPT cycle converged with prtwf=-1. Will skip output of the 1st-order WFK file.
 dfpt_looppert : ek2=    6.8718046568E+01
          f-sum rule ratio=    1.0553705228E+00
 prteigrs : about to open file /scratch/users/j/a/jabreu/flow_simple_10atoms/flow/w487/t1/tmpdata/tmp_1WF1_EIG
 Expectation of eigenvalue derivatives (hartree) for nkpt=   2  k points:
  (in case of degenerate eigenvalues, averaged derivative)
 kpt#   1, nband= 49, wtk=  0.50000, kpt=  0.1141  0.1141  0.2283 (reduced coord)
   0.00000    0.00000   -0.00012   -0.00004    0.00006   -0.00294   -0.01619   -0.00124
  -0.00027    0.02422    0.02861   -0.01705   -0.01255   -0.00050   -0.00261   -0.00386
   0.02317    0.02657    0.05422   -0.00923    0.01493    0.01550    0.02354   -0.01019
  -0.00811   -0.03232   -0.00848    0.01150   -0.06606   -0.04088   -0.03055   -0.00993
   0.00428    0.00684   -0.04416   -0.02068   -0.01551   -0.00779   -0.00808   -0.00031
   0.00688    0.00781    0.00772    0.12173    0.06467    0.08188    0.02796    0.03903
   0.10279
 prteigrs : prtvol=0 or 1, do not print more k-points.

 Eight components of 2nd-order total energy (hartree) are
 1,2,3: 0th-order hamiltonian combined with 1st-order wavefunctions
     kin0=   5.17383445E+01 eigvalue=   2.70846411E+00  local=  -2.42873052E+01
 4,5,6: 1st-order hamiltonian combined with 1st and 0th-order wfs
     kin1=  -7.25230007E+01  Hartree=   0.00000000E+00     xc=   0.00000000E+00
 7,8,9: eventually, occupation + non-local contributions
    edocc=   7.12413348E+00     enl0=   1.25114226E+00   enl1=  -4.54655765E+00
 1-9 gives the relaxation energy (to be shifted if some occ is /=2.0)
   erelax=  -3.85347792E+01
  No Ewald or frozen-wf contrib.: the relaxation energy is the total one
 2DEtotal=   -0.3853477919E+02 Ha. Also 2DEtotal=   -0.104858466855E+04 eV
    (  non-var. 2DEtotal :   -3.8534779192E+01 Ha)

 CALCULATION OF EFFECTIVE MASSES
 NOTE : Additional infos (eff. mass eigenvalues, eigenvectors and, if degenerate, average mass) are available in stdout.

--- !WARNING
src_file: m_efmas.F90
src_line: 0
message: |
    Effective masses calculations require given k-point(s) to be band extrema for given bands, but max abs gradient of band(s) was found to be greater than 1e-5. Abinit will continue anyway.
...

[...]

--- !WARNING
src_file: m_efmas.F90
src_line: 0
message: |
    Effective masses calculations require given k-point(s) to be band extrema for given bands, but max abs gradient of band(s) was found to be greater than 1e-5. Abinit will continue anyway.
...

 K-point ( 0.114, 0.114, 0.228) | band =    40
 Effective mass tensor:
             -8.2762118576             -4.2837611100             -0.0000016838
             -4.2837611100             -5.2471335848             -0.0000054480
             -0.0000016838             -0.0000054480            -13.2783753033
 Effective mass tensor eigenvalues:
            -13.2783753033            -11.3052878065             -2.2180576359
 Angular average effective mass 1/(<1/m>)=  -4.8811480009
 Angular average effective mass for Frohlich model (<m**0.5>)**2=  -6.0811145418
 Effective masses along directions: (cart. coord. / red. coord. -> eff. mass)
    1:   1.000000  0.000000  0.000000 /   0.948683  0.316228  0.000000 ->  -4.7789482657
    2:   0.000000  1.000000  0.000000 /   0.000000  1.000000  0.000000 ->  -3.0298620162
    3:   0.000000  0.000000  1.000000 /   0.408248  0.408248  0.816497 -> -13.2783753033
    4:   0.577350  0.577350  0.577350 /   0.585539  0.688047  0.428644 -> -10.9912599864
    5:   0.000000  0.707107  0.707107 /   0.289489  0.762222  0.578977 ->  -4.9339075414
    6:   0.707107  0.000000  0.707107 /   0.731423  0.422287  0.535439 ->  -7.0283559973
    7:   0.707107  0.707107  0.000000 /   0.616798  0.787122  0.000000 -> -10.1197233316

 COMMENTS:
 - At k-point ( 0.000, 0.000, 0.000), bands    41 through    43
   are DEGENERATE (effective mass tensor is therefore not defined).
   See Section IIIB Eqs. (67)-(70) and Appendix E of PRB 93 205147 (2016).
 - Angular average effective mass for Frohlich model is to be averaged over degenerate bands. See later.
 - Associated theta integrals calculated with ntheta=   1000 points.

 K-point ( 0.000, 0.000, 0.000) | band =    41
 Transport equivalent effective mass tensor:
             13.9632459953             -0.0000042506             -0.0000003607
             -0.0000042506             13.9632463707             -0.0000002402
             -0.0000003607             -0.0000002402             13.9632539155
 Transport equivalent effective mass tensor eigenvalues:
             13.9632539324             13.9632504360             13.9632419131
 Angular average effective mass 1/(<1/m>)=   9.7409808771
 Angular average effective mass for Frohlich model (<m**0.5>)**2=   9.9821561729
 Effective masses along directions: (cart. coord. / red. coord. -> eff. mass)
    1:   1.000000  0.000000  0.000000 /   0.948683  0.316228  0.000000 ->   9.3693398453
    2:   0.000000  1.000000  0.000000 /   0.000000  1.000000  0.000000 ->   7.0553082392
    3:   0.000000  0.000000  1.000000 /   0.408248  0.408248  0.816497 ->   8.2131017544
    4:   0.577350  0.577350  0.577350 /   0.585539  0.688047  0.428644 ->   9.1895609699
    5:   0.000000  0.707107  0.707107 /   0.289489  0.762222  0.578977 ->  11.2223257706
    6:   0.707107  0.000000  0.707107 /   0.731423  0.422287  0.535439 ->   8.9633165191
    7:   0.707107  0.707107  0.000000 /   0.616798  0.787122  0.000000 ->  13.7385212162

[...]

 K-point ( 0.000, 0.000, 0.000) | band =    43
 Transport equivalent effective mass tensor:
              5.9706075227              0.0000001848             -0.0000001494
              0.0000001848              5.9706086777             -0.0000000916
             -0.0000001494             -0.0000000916              5.9706076231
 Transport equivalent effective mass tensor eigenvalues:
              5.9706087184              5.9706076977              5.9706074073
 Angular average effective mass 1/(<1/m>)=   5.7241794628
 Angular average effective mass for Frohlich model (<m**0.5>)**2=   5.7329126706
 Effective masses along directions: (cart. coord. / red. coord. -> eff. mass)
    1:   1.000000  0.000000  0.000000 /   0.948683  0.316228  0.000000 ->   6.0773271696
    2:   0.000000  1.000000  0.000000 /   0.000000  1.000000  0.000000 ->   6.6880481590
    3:   0.000000  0.000000  1.000000 /   0.408248  0.408248  0.816497 ->   5.5036252323
    4:   0.577350  0.577350  0.577350 /   0.585539  0.688047  0.428644 ->   5.8465297513
    5:   0.000000  0.707107  0.707107 /   0.289489  0.762222  0.578977 ->   5.5320497137
    6:   0.707107  0.000000  0.707107 /   0.731423  0.422287  0.535439 ->   5.6576925073
    7:   0.707107  0.707107  0.000000 /   0.616798  0.787122  0.000000 ->   5.5486943090

 Angular average effective mass for Frohlich model, averaged over degenerate bands.
 Value of     (<<m**0.5>>)**2 =     7.283865E+00
 Absolute Value of <<m**0.5>> =     2.698864E+00

 END OF EFFECTIVE MASSES SECTION

 ---- first-order wavefunction calculations are completed ----

 Total localisation tensor (bohr^2) in cartesian coordinates
  WARNING : still subject to testing - especially symmetries.
      direction              matrix element
   alpha     beta       real part   imaginary part
     1        1       0.7953709485    0.0000000000
     1        2       0.2249648893    0.0000000000
     1        3       0.5510491627    0.0000000000
     2        1       0.2249648893    0.0000000000
     2        2       0.6362967951    0.0000000000
     2        3       0.3896506183    0.0000000000
     3        1       0.5510491627    0.0000000000
     3        2       0.3896506183    0.0000000000
     3        3       1.4059621762    0.0000000000

 respfn : d/dk was computed, but no 2DTE, so no DDB output.

== END DATASET(S) ==============================================================

 -outvars: echo values of variables after computation  --------
            acell      1.0000000000E+00  1.0000000000E+00  1.0000000000E+00 Bohr
              amu      1.32905430E+02  2.29897680E+01  4.49559100E+01
                       1.89984032E+01
             ecut      4.40000000E+01 Hartree
           etotal     -3.8534779192E+01
            fcart      0.0000000000E+00  0.0000000000E+00  0.0000000000E+00
                       0.0000000000E+00  0.0000000000E+00  0.0000000000E+00
                       0.0000000000E+00  0.0000000000E+00  0.0000000000E+00
                       0.0000000000E+00  0.0000000000E+00  0.0000000000E+00
                       0.0000000000E+00  0.0000000000E+00  0.0000000000E+00
                       0.0000000000E+00  0.0000000000E+00  0.0000000000E+00
                       0.0000000000E+00  0.0000000000E+00  0.0000000000E+00
                       0.0000000000E+00  0.0000000000E+00  0.0000000000E+00
                       0.0000000000E+00  0.0000000000E+00  0.0000000000E+00
                       0.0000000000E+00  0.0000000000E+00  0.0000000000E+00
-          fftalg         512
           irdden           1
           irdwfk           1
           istwfk        0    1
              ixc     -116133
              kpt      1.14130435E-01  1.14130435E-01  2.28260870E-01
                       0.00000000E+00  0.00000000E+00  0.00000000E+00
           kptopt           0
P           mkmem           2
P          mkqmem           2
P          mk1mem           2
            natom          10
            nband          49
           nbdbuf           4
            ngfft          72      72      72
             nkpt           2
            nstep        2000
             nsym          48
           ntypat           4
              occ      2.000000  2.000000  2.000000  2.000000  2.000000  2.000000
                       2.000000  2.000000  2.000000  2.000000  2.000000  2.000000
                       2.000000  2.000000  2.000000  2.000000  2.000000  2.000000
                       2.000000  2.000000  2.000000  2.000000  2.000000  2.000000
                       2.000000  2.000000  2.000000  2.000000  2.000000  2.000000
                       2.000000  2.000000  2.000000  2.000000  2.000000  2.000000
                       2.000000  2.000000  2.000000  2.000000  0.000000  0.000000
                       0.000000  0.000000  0.000000  0.000000  0.000000  0.000000
                       0.000000
        optdriver           1
            prtwf          -1
            rfdir           1       1       1
           rfelfd           2
            rprim      1.0169057856E+01  0.0000000000E+00  5.8711082904E+00
                       3.3896859519E+00  9.5874796907E+00  5.8711082904E+00
                       0.0000000000E+00  0.0000000000E+00  1.1742216581E+01
          spgroup         225
           strten      0.0000000000E+00  0.0000000000E+00  0.0000000000E+00
                       0.0000000000E+00  0.0000000000E+00  0.0000000000E+00
           symrel      1  0  0   0  1  0   0  0  1      -1  0  0   0 -1  0   0  0 -1
                       0 -1  1   0 -1  0   1 -1  0       0  1 -1   0  1  0  -1  1  0
                      -1  0  0  -1  0  1  -1  1  0       1  0  0   1  0 -1   1 -1  0
                       0  1 -1   1  0 -1   0  0 -1       0 -1  1  -1  0  1   0  0  1
                      -1  0  0  -1  1  0  -1  0  1       1  0  0   1 -1  0   1  0 -1
                       0 -1  1   1 -1  0   0 -1  0       0  1 -1  -1  1  0   0  1  0
                       1  0  0   0  0  1   0  1  0      -1  0  0   0  0 -1   0 -1  0
                       0  1 -1   0  0 -1   1  0 -1       0 -1  1   0  0  1  -1  0  1
                      -1  0  1  -1  1  0  -1  0  0       1  0 -1   1 -1  0   1  0  0
                       0 -1  0   1 -1  0   0 -1  1       0  1  0  -1  1  0   0  1 -1
                       1  0 -1   0  0 -1   0  1 -1      -1  0  1   0  0  1   0 -1  1
                       0  1  0   0  0  1   1  0  0       0 -1  0   0  0 -1  -1  0  0
                       1  0 -1   0  1 -1   0  0 -1      -1  0  1   0 -1  1   0  0  1
                       0 -1  0   0 -1  1   1 -1  0       0  1  0   0  1 -1  -1  1  0
                      -1  0  1  -1  0  0  -1  1  0       1  0 -1   1  0  0   1 -1  0
                       0  1  0   1  0  0   0  0  1       0 -1  0  -1  0  0   0  0 -1
                       0  0 -1   0  1 -1   1  0 -1       0  0  1   0 -1  1  -1  0  1
                       1 -1  0   0 -1  1   0 -1  0      -1  1  0   0  1 -1   0  1  0
                       0  0  1   1  0  0   0  1  0       0  0 -1  -1  0  0   0 -1  0
                      -1  1  0  -1  0  0  -1  0  1       1 -1  0   1  0  0   1  0 -1
                       0  0  1   0  1  0   1  0  0       0  0 -1   0 -1  0  -1  0  0
                       1 -1  0   0 -1  0   0 -1  1      -1  1  0   0  1  0   0  1 -1
                       0  0 -1   1  0 -1   0  1 -1       0  0  1  -1  0  1   0 -1  1
                      -1  1  0  -1  0  1  -1  0  0       1 -1  0   1  0 -1   1  0  0
           tolwfr      1.00000000E-20
            typat      1  1  2  3  4  4  4  4  4  4
           useylm           1
              wtk        0.50000    0.50000
           xangst      1.7937445500E+00  1.2683689350E+00  3.1068566964E+00
                       5.3812336500E+00  3.8051068051E+00  9.3205700893E+00
                       3.5874891000E+00  2.5367378701E+00  6.2137133929E+00
                       0.0000000000E+00  0.0000000000E+00  0.0000000000E+00
                       1.6517947813E+00  1.1679952910E+00  6.2137133928E+00
                       4.5553362594E+00  1.1679952910E+00  7.8900738468E+00
                       2.6196419407E+00  3.9054804491E+00  4.5373529389E+00
                       2.6196419407E+00  3.9054804491E+00  7.8900738468E+00
                       5.5231834187E+00  3.9054804491E+00  6.2137133929E+00
                       4.5553362594E+00  1.1679952910E+00  4.5373529389E+00
            xcart      3.3896859519E+00  2.3968699227E+00  5.8711082904E+00
                       1.0169057856E+01  7.1906097680E+00  1.7613324871E+01
                       6.7793719038E+00  4.7937398454E+00  1.1742216581E+01
                       0.0000000000E+00  0.0000000000E+00  0.0000000000E+00
                       3.1214397644E+00  2.2071912245E+00  1.1742216581E+01
                       8.6083379734E+00  2.2071912245E+00  1.4910078739E+01
                       4.9504058341E+00  7.3802884662E+00  8.5743544227E+00
                       4.9504058341E+00  7.3802884662E+00  1.4910078739E+01
                       1.0437304043E+01  7.3802884662E+00  1.1742216581E+01
                       8.6083379734E+00  2.2071912245E+00  8.5743544227E+00
             xred      2.5000000000E-01  2.5000000000E-01  2.5000000000E-01
                       7.5000000000E-01  7.5000000000E-01  7.5000000000E-01
                       5.0000000000E-01  5.0000000000E-01  5.0000000000E-01
                       0.0000000000E+00  0.0000000000E+00  0.0000000000E+00
                       2.3021600000E-01  2.3021600000E-01  7.6978400000E-01
                       7.6978400000E-01  2.3021600000E-01  7.6978400000E-01
                       2.3021600000E-01  7.6978400000E-01  2.3021600000E-01
                       2.3021600000E-01  7.6978400000E-01  7.6978400000E-01
                       7.6978400000E-01  7.6978400000E-01  2.3021600000E-01
                       7.6978400000E-01  2.3021600000E-01  2.3021600000E-01
            znucl       55.00000   11.00000   21.00000    9.00000

- Timing analysis has been suppressed with timopt=0

 Suggested references for the acknowledgment of ABINIT usage.

 Calculation completed.
.Delivered   8 WARNINGs and   5 COMMENTs to log file.