.Version 9.5.1 of ABINIT

 ABINIT is a project of the Universite Catholique de Louvain,
 Corning Inc. and other collaborators, see ~abinit/doc/developers/contributors.txt .
 acknowledgments of the ABINIT effort.

.Starting date : Wed  5 May 2021.
- ( at 19h37 )

- input  file    -> /scratch/users/j/a/jabreu/flow_simple_7atoms/flow/w109/t1/run.abi
- output file    -> /scratch/users/j/a/jabreu/flow_simple_7atoms/flow/w109/t1/run.abo
- root for input  files -> /scratch/users/j/a/jabreu/flow_simple_7atoms/flow/w109/t1/indata/in
- root for output files -> /scratch/users/j/a/jabreu/flow_simple_7atoms/flow/w109/t1/outdata/out

 Symmetries : space group I4/m m m (#139); Bravais tI (body-center tetrag.)
     intxc =       0      iscf =       7    lmnmax =      18     lnmax =       6
     mgfft =      64  mpssoang =       3    mqgrid =    3001     natom =       7
  nloc_mem =       1    nspden =       1   nspinor =       1    nsppol =       1
      nsym =      16    n1xccc =    2501    ntypat =       3    occopt =       1
   xclevel =       2
-    mband =          29        mffmem =           1         mkmem =           2
-   mkqmem =           2        mk1mem =           2           mpw =       10748
      nfft =      262144          nkpt =           2
  Rough estimation (10% accuracy) of disk space for files :

------------- Echo of variables that govern the present computation ------------
-
- outvars: echo of selected default values
-   iomode0 =  0 , fftalg0 =512 , wfoptalg0 =  0
-
- outvars: echo of global parameters not present in the input file
-  max_nthreads =    0
-
 -outvars: echo values of preprocessed input variables --------
            acell      1.0000000000E+00  1.0000000000E+00  1.0000000000E+00 Bohr
              amu      3.90983000E+01  1.00794000E+00  1.06420000E+02
             ecut      4.10000000E+01 Hartree
-          fftalg         512
           irdden           1
           irdwfk           1
              ixc     -116133
              kpt      5.00000000E-01  5.00000000E-01 -3.32557528E-01
                       5.00000000E-01  5.00000000E-01 -5.00000000E-01
           kptopt           0
P           mkmem           2
P          mkqmem           2
P          mk1mem           2
            natom           7
            nband          29
           nbdbuf           4
            ngfft          64      64      64
             nkpt           2
            nstep        2000
             nsym          16
           ntypat           3
              occ      2.000000  2.000000  2.000000  2.000000  2.000000  2.000000
                       2.000000  2.000000  2.000000  2.000000  2.000000  2.000000
                       2.000000  2.000000  2.000000  2.000000  2.000000  2.000000
                       2.000000  2.000000  0.000000  0.000000  0.000000  0.000000
                       0.000000  0.000000  0.000000  0.000000  0.000000
        optdriver           1
            prtwf          -1
            rfdir           1       1       1
           rfelfd           2
            rprim      9.3470542124E+00  0.0000000000E+00 -4.8740450753E+00
                      -3.4364112783E+00  8.6924392420E+00 -4.8740450753E+00
                       0.0000000000E+00  0.0000000000E+00  1.0541524455E+01
          spgroup         139
           symrel      1  0  0   0  1  0   0  0  1      -1  0  0   0 -1  0   0  0 -1
                      -1 -1 -1   0  0  1   0  1  0       1  1  1   0  0 -1   0 -1  0
                       0  1  0   1  0  0  -1 -1 -1       0 -1  0  -1  0  0   1  1  1
                       0  0  1  -1 -1 -1   1  0  0       0  0 -1   1  1  1  -1  0  0
                       0  1  0   1  0  0   0  0  1       0 -1  0  -1  0  0   0  0 -1
                      -1 -1 -1   0  0  1   1  0  0       1  1  1   0  0 -1  -1  0  0
                       1  0  0   0  1  0  -1 -1 -1      -1  0  0   0 -1  0   1  1  1
                       0  0  1  -1 -1 -1   0  1  0       0  0 -1   1  1  1   0 -1  0
           tolwfr      1.00000000E-20
            typat      1  1  2  2  2  2  3
           useylm           1
              wtk        0.50000    0.50000
           xangst     -1.2729088170E-01  3.4498805504E+00  2.0993367531E-01
                       3.2550684105E+00  1.1499601835E+00  2.0993367531E-01
                       6.2944411518E-01  9.2568689878E-01  1.2070976317E+00
                       2.4983334137E+00  3.6741538351E+00 -7.8723028106E-01
                      -4.5711657454E-01  3.6741538351E+00 -2.5792335675E+00
                       3.5848941034E+00  9.2568689878E-01 -2.5792335675E+00
                       0.0000000000E+00  0.0000000000E+00  0.0000000000E+00
            xcart     -2.4054490563E-01  6.5193294315E+00  3.9671715240E-01
                       6.1511878397E+00  2.1731098105E+00  3.9671715240E-01
                       1.1894769936E+00  1.7492947235E+00  2.2810839395E+00
                       4.7211659405E+00  6.9431445185E+00 -1.4876496347E+00
                      -8.6382513669E-01  6.9431445185E+00 -4.8740450753E+00
                       6.7744680708E+00  1.7492947235E+00 -4.8740450753E+00
                       0.0000000000E+00  0.0000000000E+00  0.0000000000E+00
             xred      2.5000000000E-01  7.5000000000E-01  5.0000000000E-01
                       7.5000000000E-01  2.5000000000E-01  5.0000000000E-01
                       2.0124325000E-01  2.0124325000E-01  4.0248650000E-01
                       7.9875675000E-01  7.9875675000E-01  5.9751350000E-01
                       2.0124325000E-01  7.9875675000E-01  0.0000000000E+00
                       7.9875675000E-01  2.0124325000E-01  0.0000000000E+00
                       0.0000000000E+00  0.0000000000E+00  0.0000000000E+00
            znucl       19.00000    1.00000   46.00000

 chkinp: Checking input parameters for consistency.

== DATASET  1 ==================================================================
-   mpi_nproc: 1, omp_nthreads: -1 (-1 if OMP is not activated)

--- !DatasetInfo
iteration_state: {dtset: 1, }
dimensions: {natom: 7, nkpt: 2, mband: 29, nsppol: 1, nspinor: 1, nspden: 1, mpw: 10748, }
cutoff_energies: {ecut:  41.0, pawecutdg:  -1.0, }
electrons: {nelect:   4.00000000E+01, charge:   0.00000000E+00, occopt:   1.00000000E+00, tsmear:   1.00000000E-02, }
meta: {optdriver: 1, rfelfd: 2, }
...

 Real(R)+Recip(G) space primitive vectors, cartesian coordinates (Bohr,Bohr^-1):
 R(1)=  9.3470542  0.0000000 -4.8740451  G(1)=  0.1069856  0.0422950  0.0000000
 R(2)= -3.4364113  8.6924392 -4.8740451  G(2)=  0.0000000  0.1150425  0.0000000
 R(3)=  0.0000000  0.0000000 10.5415245  G(3)=  0.0494665  0.0727475  0.0948629
 Unit cell volume ucvol=  8.5648517E+02 bohr^3
 Angles (23,13,12)=  1.17539903E+02  1.17539903E+02  9.43165930E+01 degrees

 getcut: wavevector=  0.0000  0.0000  0.0000  ngfft=  64  64  64
         ecut(hartree)=     41.000   => boxcut(ratio)=   2.10647

--- Pseudopotential description ------------------------------------------------
- pspini: atom type   1  psp file is /scratch/users/j/a/jabreu/pseudos/PBEsol/K.psp8
- pspatm: opening atomic psp file    /scratch/users/j/a/jabreu/pseudos/PBEsol/K.psp8
- K     ONCVPSP-3.3.0  r_core=   1.36296   1.46408   1.61068
- 19.00000   9.00000    180112                znucl, zion, pspdat
    8 -116133    2    4       400   0.00000   pspcod,pspxc,lmax,lloc,mmax,r2well
    3.99000000000000    5.00000000000000    0.00000000000000   rchrg,fchrg,qchrg
     nproj     2     2     2
     extension_switch     1
  pspatm : epsatm=    8.32487830
         --- l  ekb(1:nproj) -->
             0   10.921326    0.816676
             1    4.431000    0.560368
             2   -3.384038   -1.043186
 pspatm: atomic psp has been read  and splines computed

- pspini: atom type   2  psp file is /scratch/users/j/a/jabreu/pseudos/PBEsol/H.psp8
- pspatm: opening atomic psp file    /scratch/users/j/a/jabreu/pseudos/PBEsol/H.psp8
- H     ONCVPSP-3.3.0  r_core=   1.00957   0.70586
-  1.00000   1.00000    180112                znucl, zion, pspdat
    8 -116133    1    4       300   0.00000   pspcod,pspxc,lmax,lloc,mmax,r2well
    2.99000000000000    0.00000000000000    0.00000000000000   rchrg,fchrg,qchrg
     nproj     2     1
     extension_switch     1
  pspatm : epsatm=    0.35627032
         --- l  ekb(1:nproj) -->
             0   -1.674911   -0.523609
             1   -0.494138
 pspatm: atomic psp has been read  and splines computed

- pspini: atom type   3  psp file is /scratch/users/j/a/jabreu/pseudos/PBEsol/Pd.psp8
- pspatm: opening atomic psp file    /scratch/users/j/a/jabreu/pseudos/PBEsol/Pd.psp8
- Pd    ONCVPSP-3.3.0  r_core=   1.41052   1.46191   1.55175
- 46.00000  18.00000    180112                znucl, zion, pspdat
    8 -116133    2    4       600   0.00000   pspcod,pspxc,lmax,lloc,mmax,r2well
    5.99000000000000    7.00000000000000    0.00000000000000   rchrg,fchrg,qchrg
     nproj     2     2     2
     extension_switch     1
  pspatm : epsatm=   26.17262427
         --- l  ekb(1:nproj) -->
             0    7.952303   -2.096627
             1    3.304793   -0.572651
             2   -1.185452   -0.410427
 pspatm: atomic psp has been read  and splines computed

   1.76989849E+03                                ecore*ucvol(ha*bohr**3)

-inwffil : will read wavefunctions from disk file /scratch/users/j/a/jabreu/flow_simple_7atoms/flow/w109/t1/indata/in_WFK

 ==>  initialize data related to q vector <==

 The list of irreducible perturbations for this q vector is:
    1)    idir= 1    ipert=   8
    2)    idir= 2    ipert=   8
    3)    idir= 3    ipert=   8

 Perturbation wavevector (in red.coord.)   0.000000  0.000000  0.000000
 Perturbation : derivative vs k along direction   1

 dfpt_looppert : COMMENT -
  In a d/dk calculation, iscf is set to -3 automatically.
 The set of symmetries contains only one element for this perturbation.
 symkpt : not enough symmetry to change the number of k points.

[...]

 Initialisation of the first-order wave-functions :
  ireadwf=   0

--- !BeginCycle
iteration_state: {dtset: 1, }
solver: {iscf: 7, nstep: 2000, nline: 4, wfoptalg: 0, }
tolerances: {tolwfr: 1.00E-20, }
...

     iter   2DEtotal(Ha)        deltaE(Ha) residm    vres2
-ETOT  1  -21.139068157462     -2.114E+01 3.241E-02 0.000E+00
 ETOT  2  -21.170859304497     -3.179E-02 9.806E-04 0.000E+00
 ETOT  3  -21.171086724968     -2.274E-04 3.657E-05 0.000E+00
 ETOT  4  -21.171089316674     -2.592E-06 2.495E-06 0.000E+00
 ETOT  5  -21.171089356303     -3.963E-08 2.868E-07 0.000E+00
 ETOT  6  -21.171089356983     -6.804E-10 2.701E-08 0.000E+00
 ETOT  7  -21.171089356996     -1.232E-11 3.656E-09 0.000E+00
 ETOT  8  -21.171089356996     -2.096E-13 3.821E-10 0.000E+00
 ETOT  9  -21.171089356996     -3.197E-14 5.230E-11 0.000E+00
 ETOT 10  -21.171089356996     -3.553E-15 5.757E-12 0.000E+00
 ETOT 11  -21.171089356996      1.421E-14 7.766E-13 0.000E+00
 ETOT 12  -21.171089356996     -1.421E-14 8.916E-14 0.000E+00
 ETOT 13  -21.171089356996      0.000E+00 1.178E-14 0.000E+00
 ETOT 14  -21.171089356996      0.000E+00 1.404E-15 0.000E+00
 ETOT 15  -21.171089356996      0.000E+00 1.814E-16 0.000E+00
 ETOT 16  -21.171089356996      0.000E+00 2.236E-17 0.000E+00
 ETOT 17  -21.171089356996     -1.421E-14 2.824E-18 0.000E+00
 ETOT 18  -21.171089356996      1.066E-14 3.590E-19 0.000E+00
 ETOT 19  -21.171089356996     -7.105E-15 4.434E-20 0.000E+00
 ETOT 20  -21.171089356996      0.000E+00 9.708E-21 0.000E+00

 At SCF step   20   max residual=  9.71E-21 < tolwfr=  1.00E-20 =>converged.

 ----iterations are completed or convergence reached----

 dfpt_looppert: DFPT cycle converged with prtwf=-1. Will skip output of the 1st-order WFK file.
 dfpt_looppert : ek2=    4.1799048543E+01
          f-sum rule ratio=    1.0542004511E+00
 prteigrs : about to open file /scratch/users/j/a/jabreu/flow_simple_7atoms/flow/w109/t1/tmpdata/tmp_1WF1_EIG
 Expectation of eigenvalue derivatives (hartree) for nkpt=   2  k points:
  (in case of degenerate eigenvalues, averaged derivative)
 kpt#   1, nband= 29, wtk=  0.50000, kpt=  0.5000  0.5000 -0.3326 (reduced coord)
  -0.00000   -0.00000    0.00000    0.00000   -0.00045    0.00043    0.00255   -0.00159
   0.00825   -0.00734    0.00075   -0.00075   -0.00669    0.00086   -0.00671   -0.02834
  -0.00674   -0.00169   -0.00031   -0.00000    0.07618   -0.00427   -0.01695    0.06659
   0.01885    0.03631    0.14440   -0.05381   -0.09931
 prteigrs : prtvol=0 or 1, do not print more k-points.

 Eight components of 2nd-order total energy (hartree) are
 1,2,3: 0th-order hamiltonian combined with 1st-order wavefunctions
     kin0=   2.64166224E+01 eigvalue=   2.14851531E+00  local=  -1.53956657E+01
 4,5,6: 1st-order hamiltonian combined with 1st and 0th-order wfs
     kin1=  -4.40645758E+01  Hartree=   0.00000000E+00     xc=   0.00000000E+00
 7,8,9: eventually, occupation + non-local contributions
    edocc=   7.00876929E+00     enl0=   9.92848129E-01   enl1=   1.72239712E+00
 1-9 gives the relaxation energy (to be shifted if some occ is /=2.0)
   erelax=  -2.11710894E+01
  No Ewald or frozen-wf contrib.: the relaxation energy is the total one
 2DEtotal=   -0.2117108936E+02 Ha. Also 2DEtotal=   -0.576094639228E+03 eV
    (  non-var. 2DEtotal :   -2.1171089357E+01 Ha)

 Perturbation wavevector (in red.coord.)   0.000000  0.000000  0.000000
 Perturbation : derivative vs k along direction   2
 The set of symmetries contains only one element for this perturbation.
 symkpt : not enough symmetry to change the number of k points.

[...]

 Perturbation wavevector (in red.coord.)   0.000000  0.000000  0.000000
 Perturbation : derivative vs k along direction   3
 The set of symmetries contains only one element for this perturbation.
 symkpt : not enough symmetry to change the number of k points.

-inwffil : will read wavefunctions from disk file /scratch/users/j/a/jabreu/flow_simple_7atoms/flow/w109/t1/indata/in_WFK

 Initialisation of the first-order wave-functions :
  ireadwf=   0

--- !BeginCycle
iteration_state: {dtset: 1, }
solver: {iscf: 7, nstep: 2000, nline: 4, wfoptalg: 0, }
tolerances: {tolwfr: 1.00E-20, }
...

     iter   2DEtotal(Ha)        deltaE(Ha) residm    vres2
-ETOT  1  -26.376190162857     -2.638E+01 5.497E-02 0.000E+00
 ETOT  2  -26.410937697278     -3.475E-02 1.717E-03 0.000E+00
 ETOT  3  -26.411138298472     -2.006E-04 9.736E-05 0.000E+00
 ETOT  4  -26.411140263096     -1.965E-06 6.287E-06 0.000E+00
 ETOT  5  -26.411140288549     -2.545E-08 4.563E-07 0.000E+00
 ETOT  6  -26.411140288931     -3.822E-10 3.250E-08 0.000E+00
 ETOT  7  -26.411140288937     -6.331E-12 2.544E-09 0.000E+00
 ETOT  8  -26.411140288938     -1.243E-13 1.838E-10 0.000E+00
 ETOT  9  -26.411140288938     -6.395E-14 1.468E-11 0.000E+00
 ETOT 10  -26.411140288938      7.105E-14 1.063E-12 0.000E+00
 ETOT 11  -26.411140288938     -1.421E-14 8.579E-14 0.000E+00
 ETOT 12  -26.411140288938      0.000E+00 6.223E-15 0.000E+00
 ETOT 13  -26.411140288938      0.000E+00 5.056E-16 0.000E+00
 ETOT 14  -26.411140288938      0.000E+00 3.683E-17 0.000E+00
 ETOT 15  -26.411140288938     -3.553E-15 3.013E-18 0.000E+00
 ETOT 16  -26.411140288938      3.553E-15 2.219E-19 0.000E+00
 ETOT 17  -26.411140288938      0.000E+00 1.851E-20 0.000E+00
 ETOT 18  -26.411140288938      0.000E+00 9.526E-21 0.000E+00

 At SCF step   18   max residual=  9.53E-21 < tolwfr=  1.00E-20 =>converged.

 ----iterations are completed or convergence reached----

 dfpt_looppert: DFPT cycle converged with prtwf=-1. Will skip output of the 1st-order WFK file.
 dfpt_looppert : ek2=    5.2863553644E+01
          f-sum rule ratio=    1.0398142438E+00
 prteigrs : about to open file /scratch/users/j/a/jabreu/flow_simple_7atoms/flow/w109/t1/tmpdata/tmp_1WF1_EIG
 Expectation of eigenvalue derivatives (hartree) for nkpt=   2  k points:
  (in case of degenerate eigenvalues, averaged derivative)
 kpt#   1, nband= 29, wtk=  0.50000, kpt=  0.5000  0.5000 -0.3326 (reduced coord)
  -0.00000   -0.00000    0.00000    0.00000   -0.00090    0.00086    0.00511   -0.00318
   0.01650   -0.01469    0.00150   -0.00150   -0.01338    0.00173   -0.01343   -0.05668
  -0.01348   -0.00339   -0.00062   -0.00000    0.15236   -0.00854   -0.03390    0.13318
   0.03770    0.07261    0.28881   -0.10762   -0.23855
 prteigrs : prtvol=0 or 1, do not print more k-points.

 Eight components of 2nd-order total energy (hartree) are
 1,2,3: 0th-order hamiltonian combined with 1st-order wavefunctions
     kin0=   3.38490046E+01 eigvalue=   2.91230210E+00  local=  -2.01317674E+01
 4,5,6: 1st-order hamiltonian combined with 1st and 0th-order wfs
     kin1=  -5.49682761E+01  Hartree=   0.00000000E+00     xc=   0.00000000E+00
 7,8,9: eventually, occupation + non-local contributions
    edocc=   8.44548116E+00     enl0=   1.33611976E+00   enl1=   2.14599548E+00
 1-9 gives the relaxation energy (to be shifted if some occ is /=2.0)
   erelax=  -2.64111403E+01
  No Ewald or frozen-wf contrib.: the relaxation energy is the total one
 2DEtotal=   -0.2641114029E+02 Ha. Also 2DEtotal=   -0.718683676583E+03 eV
    (  non-var. 2DEtotal :   -2.6411140289E+01 Ha)

 CALCULATION OF EFFECTIVE MASSES
 NOTE : Additional infos (eff. mass eigenvalues, eigenvectors and, if degenerate, average mass) are available in stdout.

 K-point ( 0.500, 0.500,-0.333) | band =    20
 Effective mass tensor:
            -35.6276493951             17.7329480785             -4.7465916150
             17.7329480785            -21.6610154165             -6.9905831362
             -4.7465916150             -6.9905831362            -10.8614968666
 Effective mass tensor eigenvalues:
            -47.7027767649            -18.6974779950             -1.7499069183
 Angular average effective mass 1/(<1/m>)=  -4.6446440419
 Angular average effective mass for Frohlich model (<m**0.5>)**2=  -7.9924227982
 Effective masses along directions: (cart. coord. / red. coord. -> eff. mass)
    1:   1.000000  0.000000  0.000000 /   0.938579 -0.345065  0.000000 ->  -8.3731565412
    2:   0.000000  1.000000  0.000000 /   0.000000  1.000000  0.000000 ->  -4.2826859839
    3:   0.000000  0.000000  1.000000 /  -0.386980 -0.386980  0.836955 ->  -3.4132295401
    4:   0.577350  0.577350  0.577350 /   0.390395  0.033339  0.920043 -> -13.7848041179
    5:   0.000000  0.707107  0.707107 /  -0.398682  0.312333  0.862265 -> -20.1060335173
    6:   0.707107  0.000000  0.707107 /   0.316135 -0.587351  0.745035 -> -16.4191392188
    7:   0.707107  0.707107  0.000000 /   0.871643  0.490142  0.000000 ->  -3.1140302858

 K-point ( 0.500, 0.500,-0.500) | band =    21
 Effective mass tensor:
              0.8076031496              0.1965933762             -0.2204685362
              0.1965933762              0.9630433036             -0.3242304570
             -0.2204685362             -0.3242304570              1.0375310477
 Effective mass tensor eigenvalues:
              0.6739246139              0.6739246573              1.4603282297
 Angular average effective mass 1/(<1/m>)=   0.8213623318
 Angular average effective mass for Frohlich model (<m**0.5>)**2=   0.8496025396
 Effective masses along directions: (cart. coord. / red. coord. -> eff. mass)
    1:   1.000000  0.000000  0.000000 /   0.938579 -0.345065  0.000000 ->   0.7418319582
    2:   0.000000  1.000000  0.000000 /   0.000000  1.000000  0.000000 ->   0.8402861584
    3:   0.000000  0.000000  1.000000 /  -0.386980 -0.386980  0.836955 ->   0.8973571570
    4:   0.577350  0.577350  0.577350 /   0.390395  0.033339  0.920043 ->   0.6880905150
    5:   0.000000  0.707107  0.707107 /  -0.398682  0.312333  0.862265 ->   0.6749100158
    6:   0.707107  0.000000  0.707107 /   0.316135 -0.587351  0.745035 ->   0.6871823470
    7:   0.707107  0.707107  0.000000 /   0.871643  0.490142  0.000000 ->   0.9352059803

 END OF EFFECTIVE MASSES SECTION

 ---- first-order wavefunction calculations are completed ----

 Total localisation tensor (bohr^2) in cartesian coordinates
  WARNING : still subject to testing - especially symmetries.
      direction              matrix element
   alpha     beta       real part   imaginary part
     1        1       1.1525629778    0.0000000000
     1        2      -0.3471356559    0.0000000000
     1        3      -0.3347989792    0.0000000000
     2        1      -0.3471356559    0.0000000000
     2        2       0.8780833705    0.0000000000
     2        3      -0.4923609828    0.0000000000
     3        1      -0.3347989792    0.0000000000
     3        2      -0.4923609828    0.0000000000
     3        3       2.0758254430    0.0000000000

 respfn : d/dk was computed, but no 2DTE, so no DDB output.

== END DATASET(S) ==============================================================

 -outvars: echo values of variables after computation  --------
            acell      1.0000000000E+00  1.0000000000E+00  1.0000000000E+00 Bohr
              amu      3.90983000E+01  1.00794000E+00  1.06420000E+02
             ecut      4.10000000E+01 Hartree
           etotal     -2.6411140289E+01
            fcart      0.0000000000E+00  0.0000000000E+00  0.0000000000E+00
                       0.0000000000E+00  0.0000000000E+00  0.0000000000E+00
                       0.0000000000E+00  0.0000000000E+00  0.0000000000E+00
                       0.0000000000E+00  0.0000000000E+00  0.0000000000E+00
                       0.0000000000E+00  0.0000000000E+00  0.0000000000E+00
                       0.0000000000E+00  0.0000000000E+00  0.0000000000E+00
                       0.0000000000E+00  0.0000000000E+00  0.0000000000E+00
-          fftalg         512
           irdden           1
           irdwfk           1
              ixc     -116133
              kpt      5.00000000E-01  5.00000000E-01 -3.32557528E-01
                       5.00000000E-01  5.00000000E-01 -5.00000000E-01
           kptopt           0
P           mkmem           2
P          mkqmem           2
P          mk1mem           2
            natom           7
            nband          29
           nbdbuf           4
            ngfft          64      64      64
             nkpt           2
            nstep        2000
             nsym          16
           ntypat           3
              occ      2.000000  2.000000  2.000000  2.000000  2.000000  2.000000
                       2.000000  2.000000  2.000000  2.000000  2.000000  2.000000
                       2.000000  2.000000  2.000000  2.000000  2.000000  2.000000
                       2.000000  2.000000  0.000000  0.000000  0.000000  0.000000
                       0.000000  0.000000  0.000000  0.000000  0.000000
        optdriver           1
            prtwf          -1
            rfdir           1       1       1
           rfelfd           2
            rprim      9.3470542124E+00  0.0000000000E+00 -4.8740450753E+00
                      -3.4364112783E+00  8.6924392420E+00 -4.8740450753E+00
                       0.0000000000E+00  0.0000000000E+00  1.0541524455E+01
          spgroup         139
           strten      0.0000000000E+00  0.0000000000E+00  0.0000000000E+00
                       0.0000000000E+00  0.0000000000E+00  0.0000000000E+00
           symrel      1  0  0   0  1  0   0  0  1      -1  0  0   0 -1  0   0  0 -1
                      -1 -1 -1   0  0  1   0  1  0       1  1  1   0  0 -1   0 -1  0
                       0  1  0   1  0  0  -1 -1 -1       0 -1  0  -1  0  0   1  1  1
                       0  0  1  -1 -1 -1   1  0  0       0  0 -1   1  1  1  -1  0  0
                       0  1  0   1  0  0   0  0  1       0 -1  0  -1  0  0   0  0 -1
                      -1 -1 -1   0  0  1   1  0  0       1  1  1   0  0 -1  -1  0  0
                       1  0  0   0  1  0  -1 -1 -1      -1  0  0   0 -1  0   1  1  1
                       0  0  1  -1 -1 -1   0  1  0       0  0 -1   1  1  1   0 -1  0
           tolwfr      1.00000000E-20
            typat      1  1  2  2  2  2  3
           useylm           1
              wtk        0.50000    0.50000
           xangst     -1.2729088170E-01  3.4498805504E+00  2.0993367531E-01
                       3.2550684105E+00  1.1499601835E+00  2.0993367531E-01
                       6.2944411518E-01  9.2568689878E-01  1.2070976317E+00
                       2.4983334137E+00  3.6741538351E+00 -7.8723028106E-01
                      -4.5711657454E-01  3.6741538351E+00 -2.5792335675E+00
                       3.5848941034E+00  9.2568689878E-01 -2.5792335675E+00
                       0.0000000000E+00  0.0000000000E+00  0.0000000000E+00
            xcart     -2.4054490563E-01  6.5193294315E+00  3.9671715240E-01
                       6.1511878397E+00  2.1731098105E+00  3.9671715240E-01
                       1.1894769936E+00  1.7492947235E+00  2.2810839395E+00
                       4.7211659405E+00  6.9431445185E+00 -1.4876496347E+00
                      -8.6382513669E-01  6.9431445185E+00 -4.8740450753E+00
                       6.7744680708E+00  1.7492947235E+00 -4.8740450753E+00
                       0.0000000000E+00  0.0000000000E+00  0.0000000000E+00
             xred      2.5000000000E-01  7.5000000000E-01  5.0000000000E-01
                       7.5000000000E-01  2.5000000000E-01  5.0000000000E-01
                       2.0124325000E-01  2.0124325000E-01  4.0248650000E-01
                       7.9875675000E-01  7.9875675000E-01  5.9751350000E-01
                       2.0124325000E-01  7.9875675000E-01  0.0000000000E+00
                       7.9875675000E-01  2.0124325000E-01  0.0000000000E+00
                       0.0000000000E+00  0.0000000000E+00  0.0000000000E+00
            znucl       19.00000    1.00000   46.00000

- Timing analysis has been suppressed with timopt=0

 Suggested references for the acknowledgment of ABINIT usage.

 Calculation completed.
.Delivered  14 WARNINGs and   9 COMMENTs to log file.