.Version 9.5.1 of ABINIT

 ABINIT is a project of the Universite Catholique de Louvain,
 Corning Inc. and other collaborators, see ~abinit/doc/developers/contributors.txt .
 acknowledgments of the ABINIT effort.

.Starting date : Tue  4 May 2021.
- ( at 21h49 )

- input  file    -> /scratch/users/j/a/jabreu/flow_simple_6atoms/flow/w261/t1/run.abi
- output file    -> /scratch/users/j/a/jabreu/flow_simple_6atoms/flow/w261/t1/run.abo
- root for input  files -> /scratch/users/j/a/jabreu/flow_simple_6atoms/flow/w261/t1/indata/in
- root for output files -> /scratch/users/j/a/jabreu/flow_simple_6atoms/flow/w261/t1/outdata/out

 Symmetries : space group C2/c (# 15); Bravais mC (1-face-center monocl.)
     intxc =       0      iscf =       7    lmnmax =      18     lnmax =       6
     mgfft =      80  mpssoang =       3    mqgrid =    3517     natom =       6
  nloc_mem =       1    nspden =       1   nspinor =       1    nsppol =       1
      nsym =       4    n1xccc =    2501    ntypat =       2    occopt =       1
   xclevel =       2
-    mband =          31        mffmem =           1         mkmem =           2
-   mkqmem =           2        mk1mem =           2           mpw =        7720
      nfft =      184320          nkpt =           2
  Rough estimation (10% accuracy) of disk space for files :

------------- Echo of variables that govern the present computation ------------
-
- outvars: echo of selected default values
-   iomode0 =  0 , fftalg0 =512 , wfoptalg0 =  0
-
- outvars: echo of global parameters not present in the input file
-  max_nthreads =    0
-
 -outvars: echo values of preprocessed input variables --------
            acell      1.0000000000E+00  1.0000000000E+00  1.0000000000E+00 Bohr
              amu      1.37327000E+02  3.20660000E+01
             ecut      2.70000000E+01 Hartree
-          fftalg         512
           irdden           1
           irdwfk           1
           istwfk        1    1
              ixc     -116133
              kpt      5.00000000E-01  0.00000000E+00  5.00000000E-01
                       5.00000000E-01  5.00000000E-01  0.00000000E+00
           kptopt           0
P           mkmem           2
P          mkqmem           2
P          mk1mem           2
            natom           6
            nband          31
           nbdbuf           4
            ngfft          48      48      80
             nkpt           2
            nstep        1000
             nsym           4
           ntypat           2
              occ      2.000000  2.000000  2.000000  2.000000  2.000000  2.000000
                       2.000000  2.000000  2.000000  2.000000  2.000000  2.000000
                       2.000000  2.000000  2.000000  2.000000  2.000000  2.000000
                       2.000000  2.000000  2.000000  2.000000  0.000000  0.000000
                       0.000000  0.000000  0.000000  0.000000  0.000000  0.000000
                       0.000000
        optdriver           1
            prtwf          -1
            rfdir           1       1       1
           rfelfd           2
            rprim      8.8257003714E+00  0.0000000000E+00  3.9891140330E+00
                       4.3216839682E+00  7.6951955612E+00  3.9891140330E+00
                       0.0000000000E+00  0.0000000000E+00  1.6969240804E+01
          spgroup          15
           symrel      1  0  0   0  1  0   0  0  1      -1  0  0   0 -1  0   0  0 -1
                       0 -1  0  -1  0  0   0  0 -1       0  1  0   1  0  0   0  0  1
            tnons      0.0000000  0.0000000  0.0000000     0.0000000  0.0000000 -0.0000000
                       0.0000000  0.0000000  0.5000000     0.0000000  0.0000000  0.5000000
           tolwfr      1.00000000E-20
            typat      1  1  2  2  2  2
           useylm           1
              wtk        0.50000    0.50000
           xangst      4.3384869250E+00  5.6701042637E-01  4.3558820989E+00
                       2.6188092201E+00  3.5051116803E+00  8.8457498393E+00
                       2.0326476544E+00  1.9687407306E+00  6.1189123943E+00
                       4.2454087361E+00  3.2638750945E+00  1.1572587284E+01
                       2.7118874090E+00  8.0824701209E-01  1.6290446539E+00
                       4.9246484906E+00  2.1033813760E+00  7.0827195439E+00
            xcart      8.1985521194E+00  1.0714944203E+00  8.2314242341E+00
                       4.9488322202E+00  6.6237011409E+00  1.6716044636E+01
                       3.8411473916E+00  3.7203808076E+00  1.1563068656E+01
                       8.0226598334E+00  6.1678300606E+00  2.1869020616E+01
                       5.1247245062E+00  1.5273655006E+00  3.0784482541E+00
                       9.3062369480E+00  3.9748147536E+00  1.3384400214E+01
             xred      8.6075800000E-01  1.3924200000E-01  2.5000000000E-01
                       1.3924200000E-01  8.6075800000E-01  7.5000000000E-01
                       1.9848300000E-01  4.8346800000E-01  5.2110100000E-01
                       5.1653200000E-01  8.0151700000E-01  9.7889900000E-01
                       4.8346800000E-01  1.9848300000E-01  2.1101000000E-02
                       8.0151700000E-01  5.1653200000E-01  4.7889900000E-01
            znucl       56.00000   16.00000

 chkinp: Checking input parameters for consistency.

== DATASET  1 ==================================================================
-   mpi_nproc: 1, omp_nthreads: -1 (-1 if OMP is not activated)

--- !DatasetInfo
iteration_state: {dtset: 1, }
dimensions: {natom: 6, nkpt: 2, mband: 31, nsppol: 1, nspinor: 1, nspden: 1, mpw: 7720, }
cutoff_energies: {ecut:  27.0, pawecutdg:  -1.0, }
electrons: {nelect:   4.40000000E+01, charge:   0.00000000E+00, occopt:   1.00000000E+00, tsmear:   1.00000000E-02, }
meta: {optdriver: 1, rfelfd: 2, }
...

 Real(R)+Recip(G) space primitive vectors, cartesian coordinates (Bohr,Bohr^-1):
 R(1)=  8.8257004  0.0000000  3.9891140  G(1)=  0.1133055 -0.0636333  0.0000000
 R(2)=  4.3216840  7.6951956  3.9891140  G(2)=  0.0000000  0.1299512  0.0000000
 R(3)=  0.0000000  0.0000000 16.9692408  G(3)= -0.0266357 -0.0155900  0.0589302
 Unit cell volume ucvol=  1.1524743E+03 bohr^3
 Angles (23,13,12)=  6.56775843E+01  6.56775843E+01  5.48133797E+01 degrees

 getcut: wavevector=  0.0000  0.0000  0.0000  ngfft=  48  48  80
         ecut(hartree)=     27.000   => boxcut(ratio)=   2.01600

--- Pseudopotential description ------------------------------------------------
- pspini: atom type   1  psp file is /scratch/users/j/a/jabreu/pseudos/PBEsol/Ba.psp8
- pspatm: opening atomic psp file    /scratch/users/j/a/jabreu/pseudos/PBEsol/Ba.psp8
- Ba    ONCVPSP-3.3.0  r_core=   2.15444   1.91218   2.15444
- 56.00000  10.00000    180112                znucl, zion, pspdat
    8 -116133    2    4       600   0.00000   pspcod,pspxc,lmax,lloc,mmax,r2well
    5.99000000000000    5.00000000000000    0.00000000000000   rchrg,fchrg,qchrg
     nproj     2     2     2
     extension_switch     1
  pspatm : epsatm=   26.37418029
         --- l  ekb(1:nproj) -->
             0    6.652372    0.677024
             1    5.027722    0.408462
             2    2.543237    0.416854
 pspatm: atomic psp has been read  and splines computed

- pspini: atom type   2  psp file is /scratch/users/j/a/jabreu/pseudos/PBEsol/S.psp8
- pspatm: opening atomic psp file    /scratch/users/j/a/jabreu/pseudos/PBEsol/S.psp8
- S     ONCVPSP-3.3.0  r_core=   1.45376   1.45376   1.61851
- 16.00000   6.00000    180112                znucl, zion, pspdat
    8 -116133    2    4       600   0.00000   pspcod,pspxc,lmax,lloc,mmax,r2well
    5.99000000000000    6.00000000000000    0.00000000000000   rchrg,fchrg,qchrg
     nproj     2     2     2
     extension_switch     1
  pspatm : epsatm=    8.71840985
         --- l  ekb(1:nproj) -->
             0    6.834532    0.579453
             1    3.282851    0.896984
             2   -3.496974   -0.974265
 pspatm: atomic psp has been read  and splines computed

   3.85536800E+03                                ecore*ucvol(ha*bohr**3)

-inwffil : will read wavefunctions from disk file /scratch/users/j/a/jabreu/flow_simple_6atoms/flow/w261/t1/indata/in_WFK

 ==>  initialize data related to q vector <==

 The list of irreducible perturbations for this q vector is:
    1)    idir= 1    ipert=   7
    2)    idir= 2    ipert=   7
    3)    idir= 3    ipert=   7

 Perturbation wavevector (in red.coord.)   0.000000  0.000000  0.000000
 Perturbation : derivative vs k along direction   1

 dfpt_looppert : COMMENT -
  In a d/dk calculation, iscf is set to -3 automatically.
 The set of symmetries contains only one element for this perturbation.
 symkpt : not enough symmetry to change the number of k points.

[...]

 Initialisation of the first-order wave-functions :
  ireadwf=   0

--- !BeginCycle
iteration_state: {dtset: 1, }
solver: {iscf: 7, nstep: 1000, nline: 4, wfoptalg: 0, }
tolerances: {tolwfr: 1.00E-20, }
...

     iter   2DEtotal(Ha)        deltaE(Ha) residm    vres2
-ETOT  1  -33.382225715652     -3.338E+01 9.552E-02 0.000E+00
 ETOT  2  -33.403478489034     -2.125E-02 7.490E-03 0.000E+00
 ETOT  3  -33.403533418227     -5.493E-05 6.529E-04 0.000E+00
 ETOT  4  -33.403533602987     -1.848E-07 1.829E-04 0.000E+00
 ETOT  5  -33.403533603688     -7.012E-10 2.558E-05 0.000E+00
 ETOT  6  -33.403533603691     -2.885E-12 7.427E-06 0.000E+00
 ETOT  7  -33.403533603691     -4.974E-14 1.131E-06 0.000E+00
 ETOT  8  -33.403533603691      7.105E-15 3.264E-07 0.000E+00
 ETOT  9  -33.403533603691     -4.974E-14 5.075E-08 0.000E+00
 ETOT 10  -33.403533603691     -2.132E-14 1.470E-08 0.000E+00
 ETOT 11  -33.403533603691      1.421E-14 2.292E-09 0.000E+00
 ETOT 12  -33.403533603691      7.105E-15 6.673E-10 0.000E+00
 ETOT 13  -33.403533603691     -7.105E-15 1.039E-10 0.000E+00
 ETOT 14  -33.403533603691      0.000E+00 3.040E-11 0.000E+00
 ETOT 15  -33.403533603691      1.421E-14 4.731E-12 0.000E+00
 ETOT 16  -33.403533603691     -7.105E-15 1.390E-12 0.000E+00
 ETOT 17  -33.403533603691      0.000E+00 2.165E-13 0.000E+00
 ETOT 18  -33.403533603691      0.000E+00 6.389E-14 0.000E+00
 ETOT 19  -33.403533603691     -7.105E-15 9.979E-15 0.000E+00
 ETOT 20  -33.403533603691      1.421E-14 2.955E-15 0.000E+00
 ETOT 21  -33.403533603691     -7.105E-15 4.632E-16 0.000E+00
 ETOT 22  -33.403533603691      7.105E-15 1.375E-16 0.000E+00
 ETOT 23  -33.403533603691      0.000E+00 2.165E-17 0.000E+00
 ETOT 24  -33.403533603691     -7.105E-15 6.439E-18 0.000E+00
 ETOT 25  -33.403533603691      0.000E+00 1.018E-18 0.000E+00
 ETOT 26  -33.403533603691      7.105E-15 3.029E-19 0.000E+00
 ETOT 27  -33.403533603691      0.000E+00 4.807E-20 0.000E+00
 ETOT 28  -33.403533603691     -1.421E-14 1.431E-20 0.000E+00
 ETOT 29  -33.403533603691      1.421E-14 9.884E-21 0.000E+00

 At SCF step   29   max residual=  9.88E-21 < tolwfr=  1.00E-20 =>converged.

 ----iterations are completed or convergence reached----

 dfpt_looppert: DFPT cycle converged with prtwf=-1. Will skip output of the 1st-order WFK file.
 dfpt_looppert : ek2=    5.8668243582E+01
          f-sum rule ratio=    1.1309653368E+00
 prteigrs : about to open file /scratch/users/j/a/jabreu/flow_simple_6atoms/flow/w261/t1/tmpdata/tmp_1WF1_EIG
 Expectation of eigenvalue derivatives (hartree) for nkpt=   2  k points:
  (in case of degenerate eigenvalues, averaged derivative)
 kpt#   1, nband= 31, wtk=  0.50000, kpt=  0.5000  0.0000  0.5000 (reduced coord)
   0.00000    0.00000    0.00000   -0.00000   -0.00000   -0.00000    0.00000   -0.00000
   0.00000   -0.00000    0.00000    0.00000    0.00000   -0.00000    0.00000   -0.00000
   0.00000   -0.00000   -0.00000    0.00000   -0.00000   -0.00000    0.00000    0.00000
   0.00000    0.00000   -0.00000    0.00000    0.00000   -0.00000    0.02411
 prteigrs : prtvol=0 or 1, do not print more k-points.

 Eight components of 2nd-order total energy (hartree) are
 1,2,3: 0th-order hamiltonian combined with 1st-order wavefunctions
     kin0=   3.37438736E+01 eigvalue=   6.51067089E-02  local=  -2.16495776E+01
 4,5,6: 1st-order hamiltonian combined with 1st and 0th-order wfs
     kin1=  -6.63517499E+01  Hartree=   0.00000000E+00     xc=   0.00000000E+00
 7,8,9: eventually, occupation + non-local contributions
    edocc=   1.54416853E+01     enl0=   5.80244564E+00   enl1=  -4.55317347E-01
 1-9 gives the relaxation energy (to be shifted if some occ is /=2.0)
   erelax=  -3.34035336E+01
  No Ewald or frozen-wf contrib.: the relaxation energy is the total one
 2DEtotal=   -0.3340353360E+02 Ha. Also 2DEtotal=   -0.908956375170E+03 eV
    (  non-var. 2DEtotal :   -3.3403533603E+01 Ha)

 Perturbation wavevector (in red.coord.)   0.000000  0.000000  0.000000
 Perturbation : derivative vs k along direction   2
 The set of symmetries contains only one element for this perturbation.
 symkpt : not enough symmetry to change the number of k points.

[...]

 Perturbation wavevector (in red.coord.)   0.000000  0.000000  0.000000
 Perturbation : derivative vs k along direction   3
 The set of symmetries contains only one element for this perturbation.
 symkpt : not enough symmetry to change the number of k points.

-inwffil : will read wavefunctions from disk file /scratch/users/j/a/jabreu/flow_simple_6atoms/flow/w261/t1/indata/in_WFK

 Initialisation of the first-order wave-functions :
  ireadwf=   0

--- !BeginCycle
iteration_state: {dtset: 1, }
solver: {iscf: 7, nstep: 1000, nline: 4, wfoptalg: 0, }
tolerances: {tolwfr: 1.00E-20, }
...

     iter   2DEtotal(Ha)        deltaE(Ha) residm    vres2
-ETOT  1  -7.6072663821872     -7.607E+00 2.946E-02 0.000E+00
 ETOT  2  -7.6131277023764     -5.861E-03 2.159E-03 0.000E+00
 ETOT  3  -7.6131411074584     -1.341E-05 4.294E-05 0.000E+00
 ETOT  4  -7.6131411480327     -4.057E-08 1.083E-05 0.000E+00
 ETOT  5  -7.6131411481735     -1.408E-10 4.709E-07 0.000E+00
 ETOT  6  -7.6131411481741     -5.507E-13 1.384E-07 0.000E+00
 ETOT  7  -7.6131411481741     -8.882E-16 8.358E-09 0.000E+00
 ETOT  8  -7.6131411481741      5.329E-15 3.124E-09 0.000E+00
 ETOT  9  -7.6131411481741      4.441E-15 2.620E-10 0.000E+00
 ETOT 10  -7.6131411481741     -1.776E-15 1.063E-10 0.000E+00
 ETOT 11  -7.6131411481741      1.776E-15 1.009E-11 0.000E+00
 ETOT 12  -7.6131411481741     -1.776E-15 4.133E-12 0.000E+00
 ETOT 13  -7.6131411481741      8.882E-16 4.026E-13 0.000E+00
 ETOT 14  -7.6131411481741     -1.776E-15 1.655E-13 0.000E+00
 ETOT 15  -7.6131411481741      0.000E+00 1.628E-14 0.000E+00
 ETOT 16  -7.6131411481741     -8.882E-16 6.713E-15 0.000E+00
 ETOT 17  -7.6131411481741      1.776E-15 6.631E-16 0.000E+00
 ETOT 18  -7.6131411481741      0.000E+00 2.749E-16 0.000E+00
 ETOT 19  -7.6131411481741      1.776E-15 2.713E-17 0.000E+00
 ETOT 20  -7.6131411481741     -1.776E-15 1.135E-17 0.000E+00
 ETOT 21  -7.6131411481741      8.882E-16 1.113E-18 0.000E+00
 ETOT 22  -7.6131411481741     -8.882E-16 4.712E-19 0.000E+00
 ETOT 23  -7.6131411481741      0.000E+00 4.566E-20 0.000E+00
 ETOT 24  -7.6131411481741      0.000E+00 1.966E-20 0.000E+00
 ETOT 25  -7.6131411481741     -8.882E-16 9.890E-21 0.000E+00

 At SCF step   25   max residual=  9.89E-21 < tolwfr=  1.00E-20 =>converged.

 ----iterations are completed or convergence reached----

 dfpt_looppert: DFPT cycle converged with prtwf=-1. Will skip output of the 1st-order WFK file.
 dfpt_looppert : ek2=    1.5373844981E+01
          f-sum rule ratio=    9.7287467348E-01
 prteigrs : about to open file /scratch/users/j/a/jabreu/flow_simple_6atoms/flow/w261/t1/tmpdata/tmp_1WF1_EIG
 Expectation of eigenvalue derivatives (hartree) for nkpt=   2  k points:
  (in case of degenerate eigenvalues, averaged derivative)
 kpt#   1, nband= 31, wtk=  0.50000, kpt=  0.5000  0.0000  0.5000 (reduced coord)
  -0.00000   -0.00000   -0.00000    0.00000   -0.00000   -0.00000    0.00000    0.00000
   0.00000   -0.00000    0.00000    0.00000   -0.00000    0.00000    0.00000   -0.00000
  -0.00000   -0.00000    0.00000   -0.00000    0.00000   -0.00000    0.00000   -0.00000
  -0.00000    0.00000    0.00000    0.00000    0.00000   -0.00000   -0.01044
 prteigrs : prtvol=0 or 1, do not print more k-points.

 Eight components of 2nd-order total energy (hartree) are
 1,2,3: 0th-order hamiltonian combined with 1st-order wavefunctions
     kin0=   9.08396951E+00 eigvalue=   9.53098520E-03  local=  -5.75948645E+00
 4,5,6: 1st-order hamiltonian combined with 1st and 0th-order wfs
     kin1=  -1.49568244E+01  Hartree=   0.00000000E+00     xc=   0.00000000E+00
 7,8,9: eventually, occupation + non-local contributions
    edocc=   2.70684037E+00     enl0=   1.57228673E+00   enl1=  -2.69457880E-01
 1-9 gives the relaxation energy (to be shifted if some occ is /=2.0)
   erelax=  -7.61314115E+00
  No Ewald or frozen-wf contrib.: the relaxation energy is the total one
 2DEtotal=   -0.7613141148E+01 Ha. Also 2DEtotal=   -0.207164106163E+03 eV
    (  non-var. 2DEtotal :   -7.6131411480E+00 Ha)

 CALCULATION OF EFFECTIVE MASSES
 NOTE : Additional infos (eff. mass eigenvalues, eigenvectors and, if degenerate, average mass) are available in stdout.

 K-point ( 0.500, 0.000, 0.500) | band =    22
 Effective mass tensor:
             -6.4695130983              1.9828514913              6.7915203200
              1.9828514913             -2.2285496558             -1.5484183118
              6.7915203200             -1.5484183118             -9.1287584165
 Effective mass tensor eigenvalues:
            -15.1857449096             -2.0165511627             -0.6245250984
 Angular average effective mass 1/(<1/m>)=  -1.3869855884
 Angular average effective mass for Frohlich model (<m**0.5>)**2=  -1.9413632406
 Effective masses along directions: (cart. coord. / red. coord. -> eff. mass)
    1:   1.000000  0.000000  0.000000 /   0.898107  0.439777  0.000000 ->  -1.0656645239
    2:   0.000000  1.000000  0.000000 /   0.000000  1.000000  0.000000 ->  -1.4786541954
    3:   0.000000  0.000000  1.000000 /   0.223075  0.223075  0.948934 ->  -1.8238463147
    4:   0.577350  0.577350  0.577350 /   0.481486  0.601386  0.637578 ->  -0.6552267671
    5:   0.000000  0.707107  0.707107 /   0.190089  0.556780  0.808617 ->  -1.2616115558
    6:   0.707107  0.000000  0.707107 /   0.561296  0.364017  0.743262 ->  -0.7276997503
    7:   0.707107  0.707107  0.000000 /   0.591945  0.805979  0.000000 ->  -0.8306091653

 K-point ( 0.500, 0.500, 0.000) | band =    23
 Effective mass tensor:
              0.8288275151              0.2196784036             -1.2117088012
              0.2196784036              0.5820812085             -0.7092160928
             -1.2117088012             -0.7092160928              2.7473369160
 Effective mass tensor eigenvalues:
              0.1873821716              0.4535029063              3.5173605617
 Angular average effective mass 1/(<1/m>)=   0.3833352107
 Angular average effective mass for Frohlich model (<m**0.5>)**2=   0.5061513560
 Effective masses along directions: (cart. coord. / red. coord. -> eff. mass)
    1:   1.000000  0.000000  0.000000 /   0.898107  0.439777  0.000000 ->   0.2726723428
    2:   0.000000  1.000000  0.000000 /   0.000000  1.000000  0.000000 ->   0.3695454573
    3:   0.000000  0.000000  1.000000 /   0.223075  0.223075  0.948934 ->   0.6884130517
    4:   0.577350  0.577350  0.577350 /   0.481486  0.601386  0.637578 ->   0.1952248566
    5:   0.000000  0.707107  0.707107 /   0.190089  0.556780  0.808617 ->   0.3169196368
    6:   0.707107  0.000000  0.707107 /   0.561296  0.364017  0.743262 ->   0.2273519788
    7:   0.707107  0.707107  0.000000 /   0.591945  0.805979  0.000000 ->   0.2473636075

 END OF EFFECTIVE MASSES SECTION

 ---- first-order wavefunction calculations are completed ----

 Total localisation tensor (bohr^2) in cartesian coordinates
  WARNING : still subject to testing - especially symmetries.
      direction              matrix element
   alpha     beta       real part   imaginary part
     1        1       2.9737205818    0.0000000000
     1        2       0.8628992556    0.0000000000
     1        3       1.5723670524    0.0000000000
     2        1       0.8628992556    0.0000000000
     2        2       1.5364794303    0.0000000000
     2        3       0.7964958926    0.0000000000
     3        1       1.5723670524    0.0000000000
     3        2       0.7964958926    0.0000000000
     3        3       2.4060023988    0.0000000000

 respfn : d/dk was computed, but no 2DTE, so no DDB output.

== END DATASET(S) ==============================================================

 -outvars: echo values of variables after computation  --------
            acell      1.0000000000E+00  1.0000000000E+00  1.0000000000E+00 Bohr
              amu      1.37327000E+02  3.20660000E+01
             ecut      2.70000000E+01 Hartree
           etotal     -7.6131411482E+00
            fcart      0.0000000000E+00  0.0000000000E+00  0.0000000000E+00
                       0.0000000000E+00  0.0000000000E+00  0.0000000000E+00
                       0.0000000000E+00  0.0000000000E+00  0.0000000000E+00
                       0.0000000000E+00  0.0000000000E+00  0.0000000000E+00
                       0.0000000000E+00  0.0000000000E+00  0.0000000000E+00
                       0.0000000000E+00  0.0000000000E+00  0.0000000000E+00
-          fftalg         512
           irdden           1
           irdwfk           1
           istwfk        1    1
              ixc     -116133
              kpt      5.00000000E-01  0.00000000E+00  5.00000000E-01
                       5.00000000E-01  5.00000000E-01  0.00000000E+00
           kptopt           0
P           mkmem           2
P          mkqmem           2
P          mk1mem           2
            natom           6
            nband          31
           nbdbuf           4
            ngfft          48      48      80
             nkpt           2
            nstep        1000
             nsym           4
           ntypat           2
              occ      2.000000  2.000000  2.000000  2.000000  2.000000  2.000000
                       2.000000  2.000000  2.000000  2.000000  2.000000  2.000000
                       2.000000  2.000000  2.000000  2.000000  2.000000  2.000000
                       2.000000  2.000000  2.000000  2.000000  0.000000  0.000000
                       0.000000  0.000000  0.000000  0.000000  0.000000  0.000000
                       0.000000
        optdriver           1
            prtwf          -1
            rfdir           1       1       1
           rfelfd           2
            rprim      8.8257003714E+00  0.0000000000E+00  3.9891140330E+00
                       4.3216839682E+00  7.6951955612E+00  3.9891140330E+00
                       0.0000000000E+00  0.0000000000E+00  1.6969240804E+01
          spgroup          15
           strten      0.0000000000E+00  0.0000000000E+00  0.0000000000E+00
                       0.0000000000E+00  0.0000000000E+00  0.0000000000E+00
           symrel      1  0  0   0  1  0   0  0  1      -1  0  0   0 -1  0   0  0 -1
                       0 -1  0  -1  0  0   0  0 -1       0  1  0   1  0  0   0  0  1
            tnons      0.0000000  0.0000000  0.0000000     0.0000000  0.0000000 -0.0000000
                       0.0000000  0.0000000  0.5000000     0.0000000  0.0000000  0.5000000
           tolwfr      1.00000000E-20
            typat      1  1  2  2  2  2
           useylm           1
              wtk        0.50000    0.50000
           xangst      4.3384869250E+00  5.6701042637E-01  4.3558820989E+00
                       2.6188092201E+00  3.5051116803E+00  8.8457498393E+00
                       2.0326476544E+00  1.9687407306E+00  6.1189123943E+00
                       4.2454087361E+00  3.2638750945E+00  1.1572587284E+01
                       2.7118874090E+00  8.0824701209E-01  1.6290446539E+00
                       4.9246484906E+00  2.1033813760E+00  7.0827195439E+00
            xcart      8.1985521194E+00  1.0714944203E+00  8.2314242341E+00
                       4.9488322202E+00  6.6237011409E+00  1.6716044636E+01
                       3.8411473916E+00  3.7203808076E+00  1.1563068656E+01
                       8.0226598334E+00  6.1678300606E+00  2.1869020616E+01
                       5.1247245062E+00  1.5273655006E+00  3.0784482541E+00
                       9.3062369480E+00  3.9748147536E+00  1.3384400214E+01
             xred      8.6075800000E-01  1.3924200000E-01  2.5000000000E-01
                       1.3924200000E-01  8.6075800000E-01  7.5000000000E-01
                       1.9848300000E-01  4.8346800000E-01  5.2110100000E-01
                       5.1653200000E-01  8.0151700000E-01  9.7889900000E-01
                       4.8346800000E-01  1.9848300000E-01  2.1101000000E-02
                       8.0151700000E-01  5.1653200000E-01  4.7889900000E-01
            znucl       56.00000   16.00000

- Timing analysis has been suppressed with timopt=0

 Suggested references for the acknowledgment of ABINIT usage.

 Calculation completed.
.Delivered  14 WARNINGs and   9 COMMENTs to log file.