.Version 9.5.2 of ABINIT

 ABINIT is a project of the Universite Catholique de Louvain,
 Corning Inc. and other collaborators, see ~abinit/doc/developers/contributors.txt .
 acknowledgments of the ABINIT effort.

.Starting date : Mon 24 May 2021.
- ( at 16h00 )

- input  file    -> /scratch/users/j/a/jabreu/flow_simple_10atoms/flow/w359/t1/run.abi
- output file    -> /scratch/users/j/a/jabreu/flow_simple_10atoms/flow/w359/t1/run.abo
- root for input  files -> /scratch/users/j/a/jabreu/flow_simple_10atoms/flow/w359/t1/indata/in
- root for output files -> /scratch/users/j/a/jabreu/flow_simple_10atoms/flow/w359/t1/outdata/out

 Symmetries : space group P4/m b m (#127); Bravais tP (primitive tetrag.)
     intxc =       0      iscf =       7    lmnmax =      32     lnmax =       8
     mgfft =      90  mpssoang =       4    mqgrid =    4359     natom =      10
  nloc_mem =       1    nspden =       1   nspinor =       1    nsppol =       1
      nsym =      16    n1xccc =    2501    ntypat =       3    occopt =       1
   xclevel =       2
-    mband =          53        mffmem =           1         mkmem =           2
-   mkqmem =           2        mk1mem =           2           mpw =       31576
      nfft =      518400          nkpt =           2
  Rough estimation (10% accuracy) of disk space for files :

------------- Echo of variables that govern the present computation ------------
-
- outvars: echo of selected default values
-   iomode0 =  0 , fftalg0 =512 , wfoptalg0 =  0
-
- outvars: echo of global parameters not present in the input file
-  max_nthreads =    0
-
 -outvars: echo values of preprocessed input variables --------
            acell      1.0000000000E+00  1.0000000000E+00  1.0000000000E+00 Bohr
              amu      1.32905430E+02  1.18710000E+02  1.26904470E+02
             ecut      3.60000000E+01 Hartree
-          fftalg         512
           irdden           1
           irdwfk           1
           istwfk        1    1
              ixc     -116133
              kpt      0.00000000E+00  0.00000000E+00  5.00000000E-01
                       0.00000000E+00  0.00000000E+00  5.00000000E-01
           kptopt           0
P           mkmem           2
P          mkqmem           2
P          mk1mem           2
            natom          10
            nband          53
           nbdbuf           4
            ngfft          90      90      64
             nkpt           2
            nstep        2000
             nsym          16
           ntypat           3
              occ      2.000000  2.000000  2.000000  2.000000  2.000000  2.000000
                       2.000000  2.000000  2.000000  2.000000  2.000000  2.000000
                       2.000000  2.000000  2.000000  2.000000  2.000000  2.000000
                       2.000000  2.000000  2.000000  2.000000  2.000000  2.000000
                       2.000000  2.000000  2.000000  2.000000  2.000000  2.000000
                       2.000000  2.000000  2.000000  2.000000  2.000000  2.000000
                       2.000000  2.000000  2.000000  2.000000  2.000000  2.000000
                       2.000000  2.000000  0.000000  0.000000  0.000000  0.000000
                       0.000000  0.000000  0.000000  0.000000  0.000000
        optdriver           1
            prtwf          -1
            rfdir           1       1       1
           rfelfd           2
            rprim      1.6136880943E+01  0.0000000000E+00  0.0000000000E+00
                       0.0000000000E+00  1.6136880943E+01  0.0000000000E+00
                       0.0000000000E+00  0.0000000000E+00  1.1755306865E+01
          spgroup         127
           symrel      1  0  0   0  1  0   0  0  1      -1  0  0   0 -1  0   0  0 -1
                      -1  0  0   0  1  0   0  0 -1       1  0  0   0 -1  0   0  0  1
                      -1  0  0   0 -1  0   0  0  1       1  0  0   0  1  0   0  0 -1
                       1  0  0   0 -1  0   0  0 -1      -1  0  0   0  1  0   0  0  1
                       0  1  0   1  0  0   0  0  1       0 -1  0  -1  0  0   0  0 -1
                       0 -1  0   1  0  0   0  0 -1       0  1  0  -1  0  0   0  0  1
                       0 -1  0  -1  0  0   0  0  1       0  1  0   1  0  0   0  0 -1
                       0  1  0  -1  0  0   0  0 -1       0 -1  0   1  0  0   0  0  1
            tnons      0.0000000  0.0000000  0.0000000     0.0000000  0.0000000  0.0000000
                       0.5000000  0.5000000  0.0000000     0.5000000  0.5000000  0.0000000
                       0.0000000  0.0000000  0.0000000     0.0000000  0.0000000  0.0000000
                       0.5000000  0.5000000  0.0000000     0.5000000  0.5000000  0.0000000
                       0.5000000  0.5000000  0.0000000     0.5000000  0.5000000  0.0000000
                       0.0000000  0.0000000  0.0000000     0.0000000  0.0000000  0.0000000
                       0.5000000  0.5000000  0.0000000     0.5000000  0.5000000  0.0000000
                       0.0000000  0.0000000  0.0000000     0.0000000  0.0000000  0.0000000
           tolwfr      1.00000000E-20
            typat      1  1  2  2  3  3  3  3  3  3
           useylm           1
              wtk        0.50000    0.50000
           xangst      0.0000000000E+00  4.2696348063E+00  0.0000000000E+00
                       4.2696348063E+00  0.0000000000E+00  0.0000000000E+00
                       4.2696348063E+00  4.2696348063E+00  3.1103202364E+00
                       0.0000000000E+00  0.0000000000E+00  3.1103202364E+00
                       6.8797223383E+00  5.9291820807E+00  3.1103202364E+00
                       5.9291820807E+00  1.6595472743E+00  3.1103202364E+00
                       4.2696348063E+00  4.2696348063E+00  0.0000000000E+00
                       0.0000000000E+00  0.0000000000E+00  0.0000000000E+00
                       1.6595472743E+00  2.6100875320E+00  3.1103202364E+00
                       2.6100875320E+00  6.8797223383E+00  3.1103202364E+00
            xcart      0.0000000000E+00  8.0684404714E+00  0.0000000000E+00
                       8.0684404714E+00  0.0000000000E+00  0.0000000000E+00
                       8.0684404714E+00  8.0684404714E+00  5.8776534324E+00
                       0.0000000000E+00  0.0000000000E+00  5.8776534324E+00
                       1.3000791090E+01  1.1204530324E+01  5.8776534324E+00
                       1.1204530324E+01  3.1360898531E+00  5.8776534324E+00
                       8.0684404714E+00  8.0684404714E+00  0.0000000000E+00
                       0.0000000000E+00  0.0000000000E+00  0.0000000000E+00
                       3.1360898531E+00  4.9323506183E+00  5.8776534324E+00
                       4.9323506183E+00  1.3000791090E+01  5.8776534324E+00
             xred      0.0000000000E+00  5.0000000000E-01  0.0000000000E+00
                       5.0000000000E-01  0.0000000000E+00  0.0000000000E+00
                       5.0000000000E-01  5.0000000000E-01  5.0000000000E-01
                       0.0000000000E+00  0.0000000000E+00  5.0000000000E-01
                       8.0565700000E-01  6.9434300000E-01  5.0000000000E-01
                       6.9434300000E-01  1.9434300000E-01  5.0000000000E-01
                       5.0000000000E-01  5.0000000000E-01  0.0000000000E+00
                       0.0000000000E+00  0.0000000000E+00  0.0000000000E+00
                       1.9434300000E-01  3.0565700000E-01  5.0000000000E-01
                       3.0565700000E-01  8.0565700000E-01  5.0000000000E-01
            znucl       55.00000   50.00000   53.00000

 chkinp: Checking input parameters for consistency.

== DATASET  1 ==================================================================
-   mpi_nproc: 1, omp_nthreads: -1 (-1 if OMP is not activated)

--- !DatasetInfo
iteration_state: {dtset: 1, }
dimensions: {natom: 10, nkpt: 2, mband: 53, nsppol: 1, nspinor: 1, nspden: 1, mpw: 31576, }
cutoff_energies: {ecut:  36.0, pawecutdg:  -1.0, }
electrons: {nelect:   8.80000000E+01, charge:   0.00000000E+00, occopt:   1.00000000E+00, tsmear:   1.00000000E-02, }
meta: {optdriver: 1, rfelfd: 2, }
...

 Real(R)+Recip(G) space primitive vectors, cartesian coordinates (Bohr,Bohr^-1):
 R(1)= 16.1368809  0.0000000  0.0000000  G(1)=  0.0619698  0.0000000  0.0000000
 R(2)=  0.0000000 16.1368809  0.0000000  G(2)=  0.0000000  0.0619698  0.0000000
 R(3)=  0.0000000  0.0000000 11.7553069  G(3)=  0.0000000  0.0000000  0.0850680
 Unit cell volume ucvol=  3.0610693E+03 bohr^3
 Angles (23,13,12)=  9.00000000E+01  9.00000000E+01  9.00000000E+01 degrees

 getcut: wavevector=  0.0000  0.0000  0.0000  ngfft=  90  90  64
         ecut(hartree)=     36.000   => boxcut(ratio)=   2.01572

--- Pseudopotential description ------------------------------------------------
- pspini: atom type   1  psp file is /scratch/users/j/a/jabreu/pseudos/PBEsol/Cs.psp8
- pspatm: opening atomic psp file    /scratch/users/j/a/jabreu/pseudos/PBEsol/Cs.psp8
- Cs    ONCVPSP-3.3.0  r_core=   2.27353   1.85623   2.01788   1.90105
- 55.00000   9.00000    180112                znucl, zion, pspdat
    8 -116133    3    4       600   0.00000   pspcod,pspxc,lmax,lloc,mmax,r2well
    5.99000000000000    5.00000000000000    0.00000000000000   rchrg,fchrg,qchrg
     nproj     2     2     2     2
     extension_switch     1
  pspatm : epsatm=   22.12462445
         --- l  ekb(1:nproj) -->
             0    6.214110    0.767882
             1    6.311966    0.793598
             2    3.769790    0.913105
             3   -9.247129   -2.432478
 pspatm: atomic psp has been read  and splines computed

- pspini: atom type   2  psp file is /scratch/users/j/a/jabreu/pseudos/PBEsol/Sn.psp8
- pspatm: opening atomic psp file    /scratch/users/j/a/jabreu/pseudos/PBEsol/Sn.psp8
- Sn    ONCVPSP-3.3.0  r_core=   2.27326   2.62311   1.85601
- 50.00000  14.00000    180112                znucl, zion, pspdat
    8 -116133    2    4       600   0.00000   pspcod,pspxc,lmax,lloc,mmax,r2well
    5.99000000000000    6.50000000000000    0.00000000000000   rchrg,fchrg,qchrg
     nproj     2     2     2
     extension_switch     1
  pspatm : epsatm=   32.44586081
         --- l  ekb(1:nproj) -->
             0    5.587869    0.749373
             1    4.197111    0.728791
             2   -5.271877   -1.523486
 pspatm: atomic psp has been read  and splines computed

- pspini: atom type   3  psp file is /scratch/users/j/a/jabreu/pseudos/PBEsol/I.psp8
- pspatm: opening atomic psp file    /scratch/users/j/a/jabreu/pseudos/PBEsol/I.psp8
- I     ONCVPSP-3.3.0  r_core=   2.02042   2.17032   2.27639
- 53.00000   7.00000    180112                znucl, zion, pspdat
    8 -116133    2    4       600   0.00000   pspcod,pspxc,lmax,lloc,mmax,r2well
    5.99000000000000    4.00000000000000    0.00000000000000   rchrg,fchrg,qchrg
     nproj     2     2     2
     extension_switch     1
  pspatm : epsatm=   18.14229533
         --- l  ekb(1:nproj) -->
             0    6.015861    0.935228
             1    4.063749    0.754139
             2    4.149534    0.722940
 pspatm: atomic psp has been read  and splines computed

   1.91835373E+04                                ecore*ucvol(ha*bohr**3)

[...]
 dfpt_looppert : ek2=    2.6682911447E+01
          f-sum rule ratio=    1.3730909039E+00
 prteigrs : about to open file /scratch/users/j/a/jabreu/flow_simple_10atoms/flow/w359/t1/tmpdata/tmp_1WF1_EIG
 Expectation of eigenvalue derivatives (hartree) for nkpt=   2  k points:
  (in case of degenerate eigenvalues, averaged derivative)
 kpt#   1, nband= 53, wtk=  0.50000, kpt=  0.0000  0.0000  0.5000 (reduced coord)
   0.00000   -0.00000   -0.00000    0.00000   -0.00000    0.00000    0.00000    0.00000
   0.00000    0.00000   -0.00000    0.00000   -0.00000    0.00000   -0.00000   -0.00000
   0.00000    0.00000    0.00000    0.00000   -0.00000   -0.00000    0.00000    0.00000
   0.00000   -0.00000    0.00000    0.00000    0.00000   -0.00000   -0.00000    0.00000
  -0.00000    0.00000    0.00000    0.00000   -0.00000   -0.00000   -0.00000    0.00000
   0.00000    0.00000    0.00000    0.00000   -0.00000   -0.00000   -0.00000    0.00000
   0.00000   -0.00000   -0.00000   -0.00000   -0.00011
 prteigrs : prtvol=0 or 1, do not print more k-points.

 Eight components of 2nd-order total energy (hartree) are
 1,2,3: 0th-order hamiltonian combined with 1st-order wavefunctions
     kin0=   2.41248386E+01 eigvalue=   2.40921394E+00  local=  -1.44769549E+01
 4,5,6: 1st-order hamiltonian combined with 1st and 0th-order wfs
     kin1=  -3.66380630E+01  Hartree=   0.00000000E+00     xc=   0.00000000E+00
 7,8,9: eventually, occupation + non-local contributions
    edocc=   9.12272451E+00     enl0=   5.01716628E+00   enl1=  -1.57559139E+01
 1-9 gives the relaxation energy (to be shifted if some occ is /=2.0)
   erelax=  -2.61969885E+01
  No Ewald or frozen-wf contrib.: the relaxation energy is the total one
 2DEtotal=   -0.2619698847E+02 Ha. Also 2DEtotal=   -0.712856309215E+03 eV
    (  non-var. 2DEtotal :   -2.6196988469E+01 Ha)

 Perturbation wavevector (in red.coord.)   0.000000  0.000000  0.000000
 Perturbation : derivative vs k along direction   2
 The set of symmetries contains only one element for this perturbation.
 symkpt : not enough symmetry to change the number of k points.

[...]

 Perturbation wavevector (in red.coord.)   0.000000  0.000000  0.000000
 Perturbation : derivative vs k along direction   3
 The set of symmetries contains only one element for this perturbation.
 symkpt : not enough symmetry to change the number of k points.

 Initialisation of the first-order wave-functions :
  ireadwf=   0

--- !BeginCycle
iteration_state: {dtset: 1, }
solver: {iscf: 7, nstep: 2000, nline: 4, wfoptalg: 0, }
tolerances: {tolwfr: 1.00E-20, }
...

     iter   2DEtotal(Ha)        deltaE(Ha) residm    vres2
-ETOT  1  -65.506415291807     -6.551E+01 3.625E-03 0.000E+00
 ETOT  2  -65.521355802216     -1.494E-02 1.390E-04 0.000E+00
 ETOT  3  -65.521506588589     -1.508E-04 3.658E-06 0.000E+00
 ETOT  4  -65.521515834067     -9.245E-06 1.321E-06 0.000E+00
 ETOT  5  -65.521516568714     -7.346E-07 7.005E-08 0.000E+00
 ETOT  6  -65.521516634218     -6.550E-08 2.497E-08 0.000E+00
 ETOT  7  -65.521516640549     -6.332E-09 1.347E-09 0.000E+00
 ETOT  8  -65.521516641218     -6.684E-10 4.776E-10 0.000E+00
 ETOT  9  -65.521516641290     -7.250E-11 2.599E-11 0.000E+00
 ETOT 10  -65.521516641298     -7.788E-12 9.165E-12 0.000E+00
 ETOT 11  -65.521516641299     -9.663E-13 5.065E-13 0.000E+00
 ETOT 12  -65.521516641299     -2.842E-14 1.860E-13 0.000E+00
 ETOT 13  -65.521516641299     -9.948E-14 1.269E-14 0.000E+00
 ETOT 14  -65.521516641299     -1.847E-13 4.675E-15 0.000E+00
 ETOT 15  -65.521516641299      2.842E-14 3.296E-16 0.000E+00
 ETOT 16  -65.521516641299     -2.842E-14 1.315E-16 0.000E+00
 ETOT 17  -65.521516641299      0.000E+00 8.883E-18 0.000E+00
 ETOT 18  -65.521516641299      1.421E-14 3.618E-18 0.000E+00
 ETOT 19  -65.521516641299      0.000E+00 2.418E-19 0.000E+00
 ETOT 20  -65.521516641299      0.000E+00 9.966E-20 0.000E+00
 ETOT 21  -65.521516641299      0.000E+00 9.876E-21 0.000E+00

 At SCF step   21   max residual=  9.88E-21 < tolwfr=  1.00E-20 =>converged.

 ----iterations are completed or convergence reached----

 dfpt_looppert: DFPT cycle converged with prtwf=-1. Will skip output of the 1st-order WFK file.
 dfpt_looppert : ek2=    5.0281064476E+01
          f-sum rule ratio=    1.9329191567E+00
 prteigrs : about to open file /scratch/users/j/a/jabreu/flow_simple_10atoms/flow/w359/t1/tmpdata/tmp_1WF1_EIG
 Expectation of eigenvalue derivatives (hartree) for nkpt=   2  k points:
  (in case of degenerate eigenvalues, averaged derivative)
 kpt#   1, nband= 53, wtk=  0.50000, kpt=  0.0000  0.0000  0.5000 (reduced coord)
   0.00000    0.00000    0.00000   -0.00000    0.00000    0.00000   -0.00000   -0.00000
  -0.00000   -0.00000   -0.00000    0.00000   -0.00000   -0.00000    0.00000    0.00000
   0.00000   -0.00000    0.00000    0.00000   -0.00000   -0.00000   -0.00000    0.00000
   0.00000   -0.00000    0.00000    0.00000    0.00000    0.00000    0.00000   -0.00000
  -0.00000   -0.00000   -0.00000   -0.00000    0.00000   -0.00000   -0.00000   -0.00000
  -0.00000   -0.00000    0.00000   -0.00000   -0.00000    0.00000    0.00000    0.00000
   0.00000    0.00000   -0.00000   -0.00000   -0.00000
 prteigrs : prtvol=0 or 1, do not print more k-points.

 Eight components of 2nd-order total energy (hartree) are
 1,2,3: 0th-order hamiltonian combined with 1st-order wavefunctions
     kin0=   4.61224801E+01 eigvalue=   4.69495624E+00  local=  -2.85393770E+01
 4,5,6: 1st-order hamiltonian combined with 1st and 0th-order wfs
     kin1=  -9.71892327E+01  Hartree=   0.00000000E+00     xc=   0.00000000E+00
 7,8,9: eventually, occupation + non-local contributions
    edocc=   3.29656406E+01     enl0=   1.02778167E+01   enl1=  -3.38538005E+01
 1-9 gives the relaxation energy (to be shifted if some occ is /=2.0)
   erelax=  -6.55215166E+01
  No Ewald or frozen-wf contrib.: the relaxation energy is the total one
 2DEtotal=   -0.6552151664E+02 Ha. Also 2DEtotal=   -0.178293114042E+04 eV
    (  non-var. 2DEtotal :   -6.5521516641E+01 Ha)

 CALCULATION OF EFFECTIVE MASSES
 NOTE : Additional infos (eff. mass eigenvalues, eigenvectors and, if degenerate, average mass) are available in stdout.

 K-point ( 0.000, 0.000, 0.500) | band =    44
 Effective mass tensor:
             -0.0664080192             -0.0000000025              0.0000000744
             -0.0000000025             -0.0664080133             -0.0000002240
              0.0000000744             -0.0000002240             -0.0304609039
 Effective mass tensor eigenvalues:
             -0.0664080202             -0.0664080124             -0.0304609039
 Angular average effective mass 1/(<1/m>)=  -0.0476600408
 Angular average effective mass for Frohlich model (<m**0.5>)**2=  -0.0498410968
 Effective masses along directions: (cart. coord. / red. coord. -> eff. mass)
    1:   1.000000  0.000000  0.000000 /   1.000000  0.000000  0.000000 ->  -0.0664080192
    2:   0.000000  1.000000  0.000000 /   0.000000  1.000000  0.000000 ->  -0.0664080133
    3:   0.000000  0.000000  1.000000 /   0.000000  0.000000  1.000000 ->  -0.0304609039
    4:   0.577350  0.577350  0.577350 /   0.628611  0.628611  0.457927 ->  -0.0476601536
    5:   0.000000  0.707107  0.707107 /   0.000000  0.808274  0.588807 ->  -0.0417648411
    6:   0.707107  0.000000  0.707107 /   0.808274  0.000000  0.588807 ->  -0.0417645850
    7:   0.707107  0.707107  0.000000 /   0.707107  0.707107  0.000000 ->  -0.0664080188

 K-point ( 0.000, 0.000, 0.500) | band =    45
 Effective mass tensor:
              0.7373478735             -0.0000000041              0.0000000000
             -0.0000000041              0.7373478816              0.0000000000
              0.0000000000              0.0000000000              0.0246494556
 Effective mass tensor eigenvalues:
              0.0246494556              0.7373478718              0.7373478833
 Angular average effective mass 1/(<1/m>)=   0.0693140456
 Angular average effective mass for Frohlich model (<m**0.5>)**2=   0.1449193956
 Effective masses along directions: (cart. coord. / red. coord. -> eff. mass)
    1:   1.000000  0.000000  0.000000 /   1.000000  0.000000  0.000000 ->   0.7373478735
    2:   0.000000  1.000000  0.000000 /   0.000000  1.000000  0.000000 ->   0.7373478816
    3:   0.000000  0.000000  1.000000 /   0.000000  0.000000  1.000000 ->   0.0246494556
    4:   0.577350  0.577350  0.577350 /   0.628611  0.628611  0.457927 ->   0.0693140456
    5:   0.000000  0.707107  0.707107 /   0.000000  0.808274  0.588807 ->   0.0477041664
    6:   0.707107  0.000000  0.707107 /   0.808274  0.000000  0.588807 ->   0.0477041664
    7:   0.707107  0.707107  0.000000 /   0.707107  0.707107  0.000000 ->   0.7373478734

 END OF EFFECTIVE MASSES SECTION

 ---- first-order wavefunction calculations are completed ----

 Total localisation tensor (bohr^2) in cartesian coordinates
  WARNING : still subject to testing - especially symmetries.
      direction              matrix element
   alpha     beta       real part   imaginary part
     1        1      10.0741359895    0.0000000000
     1        2       0.0000000000    0.0000000000
     1        3       0.0000000000    0.0000000000
     2        1       0.0000000000    0.0000000000
     2        2      10.0741557784    0.0000000000
     2        3       0.0000000000    0.0000000000
     3        1       0.0000000000    0.0000000000
     3        2       0.0000000000    0.0000000000
     3        3      37.8138705226    0.0000000000

 respfn : d/dk was computed, but no 2DTE, so no DDB output.

== END DATASET(S) ==============================================================

 -outvars: echo values of variables after computation  --------
            acell      1.0000000000E+00  1.0000000000E+00  1.0000000000E+00 Bohr
              amu      1.32905430E+02  1.18710000E+02  1.26904470E+02
             ecut      3.60000000E+01 Hartree
           etotal     -6.5521516641E+01
            fcart      0.0000000000E+00  0.0000000000E+00  0.0000000000E+00
                       0.0000000000E+00  0.0000000000E+00  0.0000000000E+00
                       0.0000000000E+00  0.0000000000E+00  0.0000000000E+00
                       0.0000000000E+00  0.0000000000E+00  0.0000000000E+00
                       0.0000000000E+00  0.0000000000E+00  0.0000000000E+00
                       0.0000000000E+00  0.0000000000E+00  0.0000000000E+00
                       0.0000000000E+00  0.0000000000E+00  0.0000000000E+00
                       0.0000000000E+00  0.0000000000E+00  0.0000000000E+00
                       0.0000000000E+00  0.0000000000E+00  0.0000000000E+00
                       0.0000000000E+00  0.0000000000E+00  0.0000000000E+00
-          fftalg         512
           irdden           1
           irdwfk           1
           istwfk        1    1
              ixc     -116133
              kpt      0.00000000E+00  0.00000000E+00  5.00000000E-01
                       0.00000000E+00  0.00000000E+00  5.00000000E-01
           kptopt           0
P           mkmem           2
P          mkqmem           2
P          mk1mem           2
            natom          10
            nband          53
           nbdbuf           4
            ngfft          90      90      64
             nkpt           2
            nstep        2000
             nsym          16
           ntypat           3
              occ      2.000000  2.000000  2.000000  2.000000  2.000000  2.000000
                       2.000000  2.000000  2.000000  2.000000  2.000000  2.000000
                       2.000000  2.000000  2.000000  2.000000  2.000000  2.000000
                       2.000000  2.000000  2.000000  2.000000  2.000000  2.000000
                       2.000000  2.000000  2.000000  2.000000  2.000000  2.000000
                       2.000000  2.000000  2.000000  2.000000  2.000000  2.000000
                       2.000000  2.000000  2.000000  2.000000  2.000000  2.000000
                       2.000000  2.000000  0.000000  0.000000  0.000000  0.000000
                       0.000000  0.000000  0.000000  0.000000  0.000000
        optdriver           1
            prtwf          -1
            rfdir           1       1       1
           rfelfd           2
            rprim      1.6136880943E+01  0.0000000000E+00  0.0000000000E+00
                       0.0000000000E+00  1.6136880943E+01  0.0000000000E+00
                       0.0000000000E+00  0.0000000000E+00  1.1755306865E+01
          spgroup         127
           strten      0.0000000000E+00  0.0000000000E+00  0.0000000000E+00
                       0.0000000000E+00  0.0000000000E+00  0.0000000000E+00
           symrel      1  0  0   0  1  0   0  0  1      -1  0  0   0 -1  0   0  0 -1
                      -1  0  0   0  1  0   0  0 -1       1  0  0   0 -1  0   0  0  1
                      -1  0  0   0 -1  0   0  0  1       1  0  0   0  1  0   0  0 -1
                       1  0  0   0 -1  0   0  0 -1      -1  0  0   0  1  0   0  0  1
                       0  1  0   1  0  0   0  0  1       0 -1  0  -1  0  0   0  0 -1
                       0 -1  0   1  0  0   0  0 -1       0  1  0  -1  0  0   0  0  1
                       0 -1  0  -1  0  0   0  0  1       0  1  0   1  0  0   0  0 -1
                       0  1  0  -1  0  0   0  0 -1       0 -1  0   1  0  0   0  0  1
            tnons      0.0000000  0.0000000  0.0000000     0.0000000  0.0000000  0.0000000
                       0.5000000  0.5000000  0.0000000     0.5000000  0.5000000  0.0000000
                       0.0000000  0.0000000  0.0000000     0.0000000  0.0000000  0.0000000
                       0.5000000  0.5000000  0.0000000     0.5000000  0.5000000  0.0000000
                       0.5000000  0.5000000  0.0000000     0.5000000  0.5000000  0.0000000
                       0.0000000  0.0000000  0.0000000     0.0000000  0.0000000  0.0000000
                       0.5000000  0.5000000  0.0000000     0.5000000  0.5000000  0.0000000
                       0.0000000  0.0000000  0.0000000     0.0000000  0.0000000  0.0000000
           tolwfr      1.00000000E-20
            typat      1  1  2  2  3  3  3  3  3  3
           useylm           1
              wtk        0.50000    0.50000
           xangst      0.0000000000E+00  4.2696348063E+00  0.0000000000E+00
                       4.2696348063E+00  0.0000000000E+00  0.0000000000E+00
                       4.2696348063E+00  4.2696348063E+00  3.1103202364E+00
                       0.0000000000E+00  0.0000000000E+00  3.1103202364E+00
                       6.8797223383E+00  5.9291820807E+00  3.1103202364E+00
                       5.9291820807E+00  1.6595472743E+00  3.1103202364E+00
                       4.2696348063E+00  4.2696348063E+00  0.0000000000E+00
                       0.0000000000E+00  0.0000000000E+00  0.0000000000E+00
                       1.6595472743E+00  2.6100875320E+00  3.1103202364E+00
                       2.6100875320E+00  6.8797223383E+00  3.1103202364E+00
            xcart      0.0000000000E+00  8.0684404714E+00  0.0000000000E+00
                       8.0684404714E+00  0.0000000000E+00  0.0000000000E+00
                       8.0684404714E+00  8.0684404714E+00  5.8776534324E+00
                       0.0000000000E+00  0.0000000000E+00  5.8776534324E+00
                       1.3000791090E+01  1.1204530324E+01  5.8776534324E+00
                       1.1204530324E+01  3.1360898531E+00  5.8776534324E+00
                       8.0684404714E+00  8.0684404714E+00  0.0000000000E+00
                       0.0000000000E+00  0.0000000000E+00  0.0000000000E+00
                       3.1360898531E+00  4.9323506183E+00  5.8776534324E+00
                       4.9323506183E+00  1.3000791090E+01  5.8776534324E+00
             xred      0.0000000000E+00  5.0000000000E-01  0.0000000000E+00
                       5.0000000000E-01  0.0000000000E+00  0.0000000000E+00
                       5.0000000000E-01  5.0000000000E-01  5.0000000000E-01
                       0.0000000000E+00  0.0000000000E+00  5.0000000000E-01
                       8.0565700000E-01  6.9434300000E-01  5.0000000000E-01
                       6.9434300000E-01  1.9434300000E-01  5.0000000000E-01
                       5.0000000000E-01  5.0000000000E-01  0.0000000000E+00
                       0.0000000000E+00  0.0000000000E+00  0.0000000000E+00
                       1.9434300000E-01  3.0565700000E-01  5.0000000000E-01
                       3.0565700000E-01  8.0565700000E-01  5.0000000000E-01
            znucl       55.00000   50.00000   53.00000

- Timing analysis has been suppressed with timopt=0

 Suggested references for the acknowledgment of ABINIT usage.

 Calculation completed.
.Delivered   2 WARNINGs and   7 COMMENTs to log file.