.Version 9.5.1 of ABINIT

 ABINIT is a project of the Universite Catholique de Louvain,
 Corning Inc. and other collaborators, see ~abinit/doc/developers/contributors.txt .
 acknowledgments of the ABINIT effort.

.Starting date : Fri  7 May 2021.
- ( at 11h47 )

- input  file    -> /scratch/users/j/a/jabreu/flow_simple_7atoms/flow/w190/t1/run.abi
- output file    -> /scratch/users/j/a/jabreu/flow_simple_7atoms/flow/w190/t1/run.abo
- root for input  files -> /scratch/users/j/a/jabreu/flow_simple_7atoms/flow/w190/t1/indata/in
- root for output files -> /scratch/users/j/a/jabreu/flow_simple_7atoms/flow/w190/t1/outdata/out

 Symmetries : space group Pm (#  6); Bravais mP (primitive monocl.)
     intxc =       0      iscf =       7    lmnmax =      18     lnmax =       6
     mgfft =      96  mpssoang =       3    mqgrid =    4697     natom =       7
  nloc_mem =       1    nspden =       1   nspinor =       1    nsppol =       1
      nsym =       2    n1xccc =    2501    ntypat =       3    occopt =       1
   xclevel =       2
-    mband =          57        mffmem =           1         mkmem =           1
-   mkqmem =           1        mk1mem =           1           mpw =       30199
      nfft =      518400          nkpt =           1
  Rough estimation (10% accuracy) of disk space for files :

------------- Echo of variables that govern the present computation ------------
-
- outvars: echo of selected default values
-   iomode0 =  0 , fftalg0 =512 , wfoptalg0 =  0
-
- outvars: echo of global parameters not present in the input file
-  max_nthreads =    0
-
 -outvars: echo values of preprocessed input variables --------
            acell      1.0000000000E+00  1.0000000000E+00  1.0000000000E+00 Bohr
              amu      1.12411000E+02  7.49215900E+01  1.26904470E+02
        autoparal           1
             ecut      5.10000000E+01 Hartree
-          fftalg         512
           irdden           1
           irdwfk           1
           istwfk        1
              ixc     -116133
           kptopt           0
P           mkmem           1
P          mkqmem           1
P          mk1mem           1
            natom           7
            nband          57
           nbdbuf           4
            ngfft          60      90      96
             nkpt           1
            nstep        2000
             nsym           2
           ntypat           3
              occ      2.000000  2.000000  2.000000  2.000000  2.000000  2.000000
                       2.000000  2.000000  2.000000  2.000000  2.000000  2.000000
                       2.000000  2.000000  2.000000  2.000000  2.000000  2.000000
                       2.000000  2.000000  2.000000  2.000000  2.000000  2.000000
                       2.000000  2.000000  2.000000  2.000000  2.000000  2.000000
                       2.000000  2.000000  2.000000  2.000000  2.000000  2.000000
                       2.000000  2.000000  2.000000  2.000000  2.000000  2.000000
                       2.000000  2.000000  2.000000  2.000000  2.000000  2.000000
                       0.000000  0.000000  0.000000  0.000000  0.000000  0.000000
                       0.000000  0.000000  0.000000
        optdriver           1
            prtwf          -1
            rfdir           1       1       1
           rfelfd           2
            rprim      8.5225857181E+00  0.0000000000E+00  0.0000000000E+00
                       0.0000000000E+00  1.3909795343E+01  5.7282822600E-02
                       0.0000000000E+00  0.0000000000E+00  1.4608235069E+01
          spgroup           6
           symrel      1  0  0   0  1  0   0  0  1      -1  0  0   0  1  0   0  0  1
           tolwfr      1.00000000E-20
            typat      1  1  1  2  3  3  3
           useylm           1
           xangst      2.2549790601E+00  4.4164774460E+00  1.0959215661E+00
                       0.0000000000E+00  2.9677794505E-01  2.3924652773E+00
                       2.2549790601E+00  5.6718233478E-01  6.8183587840E+00
                       2.2549790601E+00  6.9435616325E+00  1.4637719390E+00
                       0.0000000000E+00  6.9220756130E+00  5.2801548103E+00
                       0.0000000000E+00  3.2507927993E+00  2.5616105128E+00
                       2.2549790601E+00  3.3068596067E+00  6.2613758297E+00
            xcart      4.2612928590E+00  8.3459328449E+00  2.0709916231E+00
                       0.0000000000E+00  5.6082903843E-01  4.5211041565E+00
                       4.2612928590E+00  1.0718192801E+00  1.2884830778E+01
                       4.2612928590E+00  1.3121429872E+01  2.7661280858E+00
                       0.0000000000E+00  1.3080827180E+01  9.9780465307E+00
                       0.0000000000E+00  6.1431081054E+00  4.8407423284E+00
                       4.2612928590E+00  6.2490590166E+00  1.1832285533E+01
             xred      5.0000000000E-01  6.0000400000E-01  1.3941600000E-01
                       0.0000000000E+00  4.0319000000E-02  3.0933200000E-01
                       5.0000000000E-01  7.7055000000E-02  8.8172300000E-01
                       5.0000000000E-01  9.4332300000E-01  1.8565500000E-01
                       0.0000000000E+00  9.4040400000E-01  6.7935500000E-01
                       0.0000000000E+00  4.4163900000E-01  3.2963900000E-01
                       5.0000000000E-01  4.4925600000E-01  8.0821200000E-01
            znucl       48.00000   33.00000   53.00000

 chkinp: Checking input parameters for consistency.

== DATASET  1 ==================================================================
-   mpi_nproc: 1, omp_nthreads: -1 (-1 if OMP is not activated)

--- !DatasetInfo
iteration_state: {dtset: 1, }
dimensions: {natom: 7, nkpt: 1, mband: 57, nsppol: 1, nspinor: 1, nspden: 1, mpw: 30199, }
cutoff_energies: {ecut:  51.0, pawecutdg:  -1.0, }
electrons: {nelect:   9.60000000E+01, charge:   0.00000000E+00, occopt:   1.00000000E+00, tsmear:   1.00000000E-02, }
meta: {optdriver: 1, rfelfd: 2, }
...

 Real(R)+Recip(G) space primitive vectors, cartesian coordinates (Bohr,Bohr^-1):
 R(1)=  8.5225857  0.0000000  0.0000000  G(1)=  0.1173353  0.0000000  0.0000000
 R(2)=  0.0000000 13.9097953  0.0572828  G(2)=  0.0000000  0.0718918  0.0000000
 R(3)=  0.0000000  0.0000000 14.6082351  G(3)=  0.0000000 -0.0002819  0.0684545
 Unit cell volume ucvol=  1.7317686E+03 bohr^3
 Angles (23,13,12)=  8.97640479E+01  9.00000000E+01  9.00000000E+01 degrees

 getcut: wavevector=  0.0000  0.0000  0.0000  ngfft=  60  90  96
         ecut(hartree)=     51.000   => boxcut(ratio)=   2.01267

--- Pseudopotential description ------------------------------------------------
- pspini: atom type   1  psp file is /scratch/users/j/a/jabreu/pseudos/PBEsol/Cd.psp8
- pspatm: opening atomic psp file    /scratch/users/j/a/jabreu/pseudos/PBEsol/Cd.psp8
- Cd    ONCVPSP-3.3.0  r_core=   1.25838   1.30423   1.35174
- 48.00000  20.00000    180112                znucl, zion, pspdat
    8 -116133    2    4       600   0.00000   pspcod,pspxc,lmax,lloc,mmax,r2well
    5.99000000000000    6.00000000000000    0.00000000000000   rchrg,fchrg,qchrg
     nproj     2     2     2
     extension_switch     1
  pspatm : epsatm=   23.26728021
         --- l  ekb(1:nproj) -->
             0   63.701523    3.700425
             1    8.703569    1.290373
             2    0.983656   -0.721725
 pspatm: atomic psp has been read  and splines computed

- pspini: atom type   2  psp file is /scratch/users/j/a/jabreu/pseudos/PBEsol/As.psp8
- pspatm: opening atomic psp file    /scratch/users/j/a/jabreu/pseudos/PBEsol/As.psp8
- As    ONCVPSP-3.3.0  r_core=   1.76603   1.70395   1.80867
- 33.00000  15.00000    180112                znucl, zion, pspdat
    8 -116133    2    4       600   0.00000   pspcod,pspxc,lmax,lloc,mmax,r2well
    5.99000000000000    5.00000000000000    0.00000000000000   rchrg,fchrg,qchrg
     nproj     2     2     2
     extension_switch     1
  pspatm : epsatm=   28.79155382
         --- l  ekb(1:nproj) -->
             0    8.270760    0.868950
             1    4.919053    0.756587
             2  -10.048665   -4.076802
 pspatm: atomic psp has been read  and splines computed

- pspini: atom type   3  psp file is /scratch/users/j/a/jabreu/pseudos/PBEsol/I.psp8
- pspatm: opening atomic psp file    /scratch/users/j/a/jabreu/pseudos/PBEsol/I.psp8
- I     ONCVPSP-3.3.0  r_core=   2.02042   2.17032   2.27639
- 53.00000   7.00000    180112                znucl, zion, pspdat
    8 -116133    2    4       600   0.00000   pspcod,pspxc,lmax,lloc,mmax,r2well
    5.99000000000000    4.00000000000000    0.00000000000000   rchrg,fchrg,qchrg
     nproj     2     2     2
     extension_switch     1
  pspatm : epsatm=   18.14229533
         --- l  ekb(1:nproj) -->
             0    6.015861    0.935228
             1    4.063749    0.754139
             2    4.149534    0.722940
 pspatm: atomic psp has been read  and splines computed

   1.46899469E+04                                ecore*ucvol(ha*bohr**3)

-inwffil : will read wavefunctions from disk file /scratch/users/j/a/jabreu/flow_simple_7atoms/flow/w190/t1/indata/in_WFK

 ==>  initialize data related to q vector <==

 The list of irreducible perturbations for this q vector is:
    1)    idir= 1    ipert=   8
    2)    idir= 2    ipert=   8
    3)    idir= 3    ipert=   8

 Perturbation wavevector (in red.coord.)   0.000000  0.000000  0.000000
 Perturbation : derivative vs k along direction   1

 dfpt_looppert : COMMENT -
  In a d/dk calculation, iscf is set to -3 automatically.
 The set of symmetries contains only one element for this perturbation.
 symkpt : not enough symmetry to change the number of k points.

[...]

 Initialisation of the first-order wave-functions :
  ireadwf=   0

--- !BeginCycle
iteration_state: {dtset: 1, }
solver: {iscf: 7, nstep: 2000, nline: 4, wfoptalg: 0, }
tolerances: {tolwfr: 1.00E-20, }
...

     iter   2DEtotal(Ha)        deltaE(Ha) residm    vres2
-ETOT  1  -88.904173712970     -8.890E+01 1.310E-01 0.000E+00
 ETOT  2  -89.065250056402     -1.611E-01 1.682E-03 0.000E+00
 ETOT  3  -89.067147329285     -1.897E-03 2.919E-05 0.000E+00
 ETOT  4  -89.067200925654     -5.360E-05 1.525E-06 0.000E+00
 ETOT  5  -89.067202942227     -2.017E-06 3.529E-08 0.000E+00
 ETOT  6  -89.067203026707     -8.448E-08 3.507E-09 0.000E+00
 ETOT  7  -89.067203030526     -3.819E-09 7.965E-11 0.000E+00
 ETOT  8  -89.067203030707     -1.818E-10 1.004E-11 0.000E+00
 ETOT  9  -89.067203030716     -9.024E-12 2.441E-13 0.000E+00
 ETOT 10  -89.067203030717     -4.121E-13 3.160E-14 0.000E+00
 ETOT 11  -89.067203030717     -4.263E-14 7.855E-16 0.000E+00
 ETOT 12  -89.067203030717      2.842E-14 1.056E-16 0.000E+00
 ETOT 13  -89.067203030717     -1.137E-13 2.626E-18 0.000E+00
 ETOT 14  -89.067203030717      1.847E-13 3.660E-19 0.000E+00
 ETOT 15  -89.067203030717     -5.684E-14 9.943E-21 0.000E+00

 At SCF step   15   max residual=  9.94E-21 < tolwfr=  1.00E-20 =>converged.

 ----iterations are completed or convergence reached----

 dfpt_looppert: DFPT cycle converged with prtwf=-1. Will skip output of the 1st-order WFK file.
 dfpt_looppert : ek2=    1.0435618873E+02
          f-sum rule ratio=    1.3931356672E+00
 prteigrs : about to open file /scratch/users/j/a/jabreu/flow_simple_7atoms/flow/w190/t1/tmpdata/tmp_1WF1_EIG
 Expectation of eigenvalue derivatives (hartree) for nkpt=   1  k points:
  (in case of degenerate eigenvalues, averaged derivative)
 kpt#   1, nband= 57, wtk=  1.00000, kpt=  0.0000  0.0000  0.0000 (reduced coord)
  -0.00000   -0.00000    0.00000    0.00000    0.00000    0.00000   -0.00000   -0.00000
   0.00000   -0.00000    0.00000   -0.00000   -0.00000   -0.00000    0.00000    0.00000
   0.00000   -0.00000    0.00000    0.00000    0.00000   -0.00000   -0.00000    0.00000
  -0.00000   -0.00000    0.00000    0.00000   -0.00000    0.00000    0.00000    0.00000
   0.00000    0.00000    0.00000    0.00000    0.00000    0.00000    0.00000    0.00000
  -0.00000    0.00000   -0.00000    0.00000    0.00000   -0.00000   -0.00000    0.00000
  -0.00000    0.00000   -0.00000    0.00000   -0.00000   -0.00000   -0.00000   -0.00000
   0.00000

 Eight components of 2nd-order total energy (hartree) are
 1,2,3: 0th-order hamiltonian combined with 1st-order wavefunctions
     kin0=   9.53933185E+01 eigvalue=   5.75568410E+00  local=  -5.12525964E+01
 4,5,6: 1st-order hamiltonian combined with 1st and 0th-order wfs
     kin1=  -1.45382329E+02  Hartree=   0.00000000E+00     xc=   0.00000000E+00
 7,8,9: eventually, occupation + non-local contributions
    edocc=   3.09914522E+01     enl0=   8.17934456E+00   enl1=  -3.27520774E+01
 1-9 gives the relaxation energy (to be shifted if some occ is /=2.0)
   erelax=  -8.90672030E+01
  No Ewald or frozen-wf contrib.: the relaxation energy is the total one
 2DEtotal=   -0.8906720303E+02 Ha. Also 2DEtotal=   -0.242364185101E+04 eV
    (  non-var. 2DEtotal :   -8.9067203031E+01 Ha)

 Perturbation wavevector (in red.coord.)   0.000000  0.000000  0.000000
 Perturbation : derivative vs k along direction   2
 The set of symmetries contains only one element for this perturbation.
 symkpt : not enough symmetry to change the number of k points.

[...]

 Perturbation wavevector (in red.coord.)   0.000000  0.000000  0.000000
 Perturbation : derivative vs k along direction   3
 The set of symmetries contains only one element for this perturbation.
 symkpt : not enough symmetry to change the number of k points.

-inwffil : will read wavefunctions from disk file /scratch/users/j/a/jabreu/flow_simple_7atoms/flow/w190/t1/indata/in_WFK

 Initialisation of the first-order wave-functions :
  ireadwf=   0

--- !BeginCycle
iteration_state: {dtset: 1, }
solver: {iscf: 7, nstep: 2000, nline: 4, wfoptalg: 0, }
tolerances: {tolwfr: 1.00E-20, }
...

     iter   2DEtotal(Ha)        deltaE(Ha) residm    vres2
-ETOT  1  -26.336863481337     -2.634E+01 4.309E-02 0.000E+00
 ETOT  2  -26.406080378974     -6.922E-02 7.570E-03 0.000E+00
 ETOT  3  -26.407253853006     -1.173E-03 2.144E-04 0.000E+00
 ETOT  4  -26.407299211409     -4.536E-05 7.680E-05 0.000E+00
 ETOT  5  -26.407301418635     -2.207E-06 3.545E-06 0.000E+00
 ETOT  6  -26.407301537217     -1.186E-07 1.334E-06 0.000E+00
 ETOT  7  -26.407301543978     -6.760E-09 6.910E-08 0.000E+00
 ETOT  8  -26.407301544379     -4.016E-10 2.648E-08 0.000E+00
 ETOT  9  -26.407301544404     -2.458E-11 1.405E-09 0.000E+00
 ETOT 10  -26.407301544405     -1.581E-12 5.411E-10 0.000E+00
 ETOT 11  -26.407301544405     -6.040E-14 2.906E-11 0.000E+00
 ETOT 12  -26.407301544405      3.553E-15 1.119E-11 0.000E+00
 ETOT 13  -26.407301544406     -3.197E-14 6.061E-13 0.000E+00
 ETOT 14  -26.407301544406      1.066E-14 2.329E-13 0.000E+00
 ETOT 15  -26.407301544406     -1.066E-14 1.270E-14 0.000E+00
 ETOT 16  -26.407301544406      0.000E+00 4.866E-15 0.000E+00
 ETOT 17  -26.407301544406      7.105E-15 2.670E-16 0.000E+00
 ETOT 18  -26.407301544406      3.553E-15 1.019E-16 0.000E+00
 ETOT 19  -26.407301544406     -3.553E-15 5.621E-18 0.000E+00
 ETOT 20  -26.407301544406      7.105E-15 2.139E-18 0.000E+00
 ETOT 21  -26.407301544406     -7.105E-15 1.185E-19 0.000E+00
 ETOT 22  -26.407301544406      0.000E+00 4.494E-20 0.000E+00
 ETOT 23  -26.407301544406      0.000E+00 9.825E-21 0.000E+00

 At SCF step   23   max residual=  9.83E-21 < tolwfr=  1.00E-20 =>converged.

 ----iterations are completed or convergence reached----

 dfpt_looppert: DFPT cycle converged with prtwf=-1. Will skip output of the 1st-order WFK file.
 dfpt_looppert : ek2=    3.5519989871E+01
          f-sum rule ratio=    1.1786151871E+00
 prteigrs : about to open file /scratch/users/j/a/jabreu/flow_simple_7atoms/flow/w190/t1/tmpdata/tmp_1WF1_EIG
 Expectation of eigenvalue derivatives (hartree) for nkpt=   1  k points:
  (in case of degenerate eigenvalues, averaged derivative)
 kpt#   1, nband= 57, wtk=  1.00000, kpt=  0.0000  0.0000  0.0000 (reduced coord)
   0.00000   -0.00000    0.00000    0.00000   -0.00000    0.00000   -0.00000   -0.00000
   0.00000    0.00000   -0.00000    0.00000   -0.00000   -0.00000   -0.00000    0.00000
   0.00000    0.00000   -0.00000    0.00000   -0.00000    0.00000   -0.00000    0.00000
  -0.00000    0.00000    0.00000    0.00000   -0.00000   -0.00000    0.00000    0.00000
   0.00000    0.00000    0.00000   -0.00000   -0.00000   -0.00000   -0.00000    0.00000
  -0.00000   -0.00000    0.00000    0.00000    0.00000    0.00000   -0.00000   -0.00000
   0.00000   -0.00000    0.00000    0.00000    0.00000    0.00000    0.00000   -0.00001
  -0.00000

 Eight components of 2nd-order total energy (hartree) are
 1,2,3: 0th-order hamiltonian combined with 1st-order wavefunctions
     kin0=   3.16257554E+01 eigvalue=   2.09826146E+00  local=  -1.68856906E+01
 4,5,6: 1st-order hamiltonian combined with 1st and 0th-order wfs
     kin1=  -4.18643995E+01  Hartree=   0.00000000E+00     xc=   0.00000000E+00
 7,8,9: eventually, occupation + non-local contributions
    edocc=   6.97625470E+00     enl0=   2.59272052E+00   enl1=  -1.09502036E+01
 1-9 gives the relaxation energy (to be shifted if some occ is /=2.0)
   erelax=  -2.64073015E+01
  No Ewald or frozen-wf contrib.: the relaxation energy is the total one
 2DEtotal=   -0.2640730154E+02 Ha. Also 2DEtotal=   -0.718579219032E+03 eV
    (  non-var. 2DEtotal :   -2.6407301544E+01 Ha)

 CALCULATION OF EFFECTIVE MASSES
 NOTE : Additional infos (eff. mass eigenvalues, eigenvectors and, if degenerate, average mass) are available in stdout.

 K-point ( 0.000, 0.000, 0.000) | band =    48
 Effective mass tensor:
             -0.0833817562             -0.0000001367              0.0000000754
             -0.0000001367             -1.9599508629             -0.0088719439
              0.0000000754             -0.0088719439             -1.9097186247
 Effective mass tensor eigenvalues:
             -1.9614717637             -1.9081977240             -0.0833817562
 Angular average effective mass 1/(<1/m>)=  -0.2302925762
 Angular average effective mass for Frohlich model (<m**0.5>)**2=  -0.4428200945
 Effective masses along directions: (cart. coord. / red. coord. -> eff. mass)
    1:   1.000000  0.000000  0.000000 /   1.000000  0.000000  0.000000 ->  -0.0833817562
    2:   0.000000  1.000000  0.000000 /   0.000000  1.000000  0.000000 ->  -1.9599096467
    3:   0.000000  0.000000  1.000000 /   0.000000  0.003921  0.999992 ->  -1.9096784649
    4:   0.577350  0.577350  0.577350 /   0.388550  0.636768  0.665999 ->  -0.2303764268
    5:   0.000000  0.707107  0.707107 /   0.000000  0.691067  0.722791 ->  -1.9433791531
    6:   0.707107  0.000000  0.707107 /   0.503917  0.003387  0.863745 ->  -0.1597867745
    7:   0.707107  0.707107  0.000000 /   0.522438  0.852677  0.000000 ->  -0.1599583202

 K-point ( 0.000, 0.000, 0.000) | band =    49
 Effective mass tensor:
              0.0940578884              0.0000000022              0.0000000017
              0.0000000022              0.1630917955             -0.0071245429
              0.0000000017             -0.0071245429              0.1271889793
 Effective mass tensor eigenvalues:
              0.0940578884              0.1258268645              0.1644539102
 Angular average effective mass 1/(<1/m>)=   0.1216549454
 Angular average effective mass for Frohlich model (<m**0.5>)**2=   0.1235632351
 Effective masses along directions: (cart. coord. / red. coord. -> eff. mass)
    1:   1.000000  0.000000  0.000000 /   1.000000  0.000000  0.000000 ->   0.0940578884
    2:   0.000000  1.000000  0.000000 /   0.000000  1.000000  0.000000 ->   0.1626927113
    3:   0.000000  0.000000  1.000000 /   0.000000  0.003921  0.999992 ->   0.1268777490
    4:   0.577350  0.577350  0.577350 /   0.388550  0.636768  0.665999 ->   0.1183501367
    5:   0.000000  0.707107  0.707107 /   0.000000  0.691067  0.722791 ->   0.1358994474
    6:   0.707107  0.000000  0.707107 /   0.503917  0.003387  0.863745 ->   0.1080301349
    7:   0.707107  0.707107  0.000000 /   0.522438  0.852677  0.000000 ->   0.1192015377

 END OF EFFECTIVE MASSES SECTION

 ---- first-order wavefunction calculations are completed ----

 Total localisation tensor (bohr^2) in cartesian coordinates
  WARNING : still subject to testing - especially symmetries.
      direction              matrix element
   alpha     beta       real part   imaginary part
     1        1       4.4529485889    0.0000000000
     1        2       0.0000000000    0.0000000000
     1        3       0.0000000000    0.0000000000
     2        1       0.0000000000    0.0000000000
     2        2       1.9012589092    0.0000000000
     2        3       0.0078296966    0.0000000000
     3        1       0.0000000000    0.0000000000
     3        2       0.0078296966    0.0000000000
     3        3       2.7826216572    0.0000000000

 respfn : d/dk was computed, but no 2DTE, so no DDB output.

== END DATASET(S) ==============================================================

 -outvars: echo values of variables after computation  --------
            acell      1.0000000000E+00  1.0000000000E+00  1.0000000000E+00 Bohr
              amu      1.12411000E+02  7.49215900E+01  1.26904470E+02
        autoparal           1
             ecut      5.10000000E+01 Hartree
           etotal     -2.6407301544E+01
            fcart      0.0000000000E+00  0.0000000000E+00  0.0000000000E+00
                       0.0000000000E+00  0.0000000000E+00  0.0000000000E+00
                       0.0000000000E+00  0.0000000000E+00  0.0000000000E+00
                       0.0000000000E+00  0.0000000000E+00  0.0000000000E+00
                       0.0000000000E+00  0.0000000000E+00  0.0000000000E+00
                       0.0000000000E+00  0.0000000000E+00  0.0000000000E+00
                       0.0000000000E+00  0.0000000000E+00  0.0000000000E+00
-          fftalg         512
           irdden           1
           irdwfk           1
           istwfk        1
              ixc     -116133
           kptopt           0
P           mkmem           1
P          mkqmem           1
P          mk1mem           1
            natom           7
            nband          57
           nbdbuf           4
            ngfft          60      90      96
             nkpt           1
            nstep        2000
             nsym           2
           ntypat           3
              occ      2.000000  2.000000  2.000000  2.000000  2.000000  2.000000
                       2.000000  2.000000  2.000000  2.000000  2.000000  2.000000
                       2.000000  2.000000  2.000000  2.000000  2.000000  2.000000
                       2.000000  2.000000  2.000000  2.000000  2.000000  2.000000
                       2.000000  2.000000  2.000000  2.000000  2.000000  2.000000
                       2.000000  2.000000  2.000000  2.000000  2.000000  2.000000
                       2.000000  2.000000  2.000000  2.000000  2.000000  2.000000
                       2.000000  2.000000  2.000000  2.000000  2.000000  2.000000
                       0.000000  0.000000  0.000000  0.000000  0.000000  0.000000
                       0.000000  0.000000  0.000000
        optdriver           1
            prtwf          -1
            rfdir           1       1       1
           rfelfd           2
            rprim      8.5225857181E+00  0.0000000000E+00  0.0000000000E+00
                       0.0000000000E+00  1.3909795343E+01  5.7282822600E-02
                       0.0000000000E+00  0.0000000000E+00  1.4608235069E+01
          spgroup           6
           strten      0.0000000000E+00  0.0000000000E+00  0.0000000000E+00
                       0.0000000000E+00  0.0000000000E+00  0.0000000000E+00
           symrel      1  0  0   0  1  0   0  0  1      -1  0  0   0  1  0   0  0  1
           tolwfr      1.00000000E-20
            typat      1  1  1  2  3  3  3
           useylm           1
           xangst      2.2549790601E+00  4.4164774460E+00  1.0959215661E+00
                       0.0000000000E+00  2.9677794505E-01  2.3924652773E+00
                       2.2549790601E+00  5.6718233478E-01  6.8183587840E+00
                       2.2549790601E+00  6.9435616325E+00  1.4637719390E+00
                       0.0000000000E+00  6.9220756130E+00  5.2801548103E+00
                       0.0000000000E+00  3.2507927993E+00  2.5616105128E+00
                       2.2549790601E+00  3.3068596067E+00  6.2613758297E+00
            xcart      4.2612928590E+00  8.3459328449E+00  2.0709916231E+00
                       0.0000000000E+00  5.6082903843E-01  4.5211041565E+00
                       4.2612928590E+00  1.0718192801E+00  1.2884830778E+01
                       4.2612928590E+00  1.3121429872E+01  2.7661280858E+00
                       0.0000000000E+00  1.3080827180E+01  9.9780465307E+00
                       0.0000000000E+00  6.1431081054E+00  4.8407423284E+00
                       4.2612928590E+00  6.2490590166E+00  1.1832285533E+01
             xred      5.0000000000E-01  6.0000400000E-01  1.3941600000E-01
                       0.0000000000E+00  4.0319000000E-02  3.0933200000E-01
                       5.0000000000E-01  7.7055000000E-02  8.8172300000E-01
                       5.0000000000E-01  9.4332300000E-01  1.8565500000E-01
                       0.0000000000E+00  9.4040400000E-01  6.7935500000E-01
                       0.0000000000E+00  4.4163900000E-01  3.2963900000E-01
                       5.0000000000E-01  4.4925600000E-01  8.0821200000E-01
            znucl       48.00000   33.00000   53.00000

- Timing analysis has been suppressed with timopt=0

 Suggested references for the acknowledgment of ABINIT usage.

 Calculation completed.
.Delivered   6 WARNINGs and   5 COMMENTs to log file.