.Version 9.5.1 of ABINIT

 ABINIT is a project of the Universite Catholique de Louvain,
 Corning Inc. and other collaborators, see ~abinit/doc/developers/contributors.txt .
 acknowledgments of the ABINIT effort.

.Starting date : Wed  5 May 2021.
- ( at 20h08 )

- input  file    -> /scratch/users/j/a/jabreu/flow_simple_7atoms/flow/w193/t1/run.abi
- output file    -> /scratch/users/j/a/jabreu/flow_simple_7atoms/flow/w193/t1/run.abo
- root for input  files -> /scratch/users/j/a/jabreu/flow_simple_7atoms/flow/w193/t1/indata/in
- root for output files -> /scratch/users/j/a/jabreu/flow_simple_7atoms/flow/w193/t1/outdata/out

 Symmetries : space group I4/m m m (#139); Bravais tI (body-center tetrag.)
     intxc =       0      iscf =       7    lmnmax =      32     lnmax =       8
     mgfft =      90  mpssoang =       4    mqgrid =    3001     natom =       7
  nloc_mem =       1    nspden =       1   nspinor =       1    nsppol =       1
      nsym =      16    n1xccc =    2501    ntypat =       3    occopt =       1
   xclevel =       2
-    mband =          25        mffmem =           1         mkmem =           2
-   mkqmem =           2        mk1mem =           2           mpw =       12248
      nfft =      729000          nkpt =           2
  Rough estimation (10% accuracy) of disk space for files :

------------- Echo of variables that govern the present computation ------------
-
- outvars: echo of selected default values
-   iomode0 =  0 , fftalg0 =512 , wfoptalg0 =  0
-
- outvars: echo of global parameters not present in the input file
-  max_nthreads =    0
-
 -outvars: echo values of preprocessed input variables --------
            acell      1.0000000000E+00  1.0000000000E+00  1.0000000000E+00 Bohr
              amu      1.32905430E+02  4.00780000E+01  1.00794000E+00
             ecut      3.90000000E+01 Hartree
-          fftalg         512
           irdden           1
           irdwfk           1
           istwfk        1    0
              ixc     -116133
              kpt      0.00000000E+00  5.00000000E-01  0.00000000E+00
                      -2.48477118E-01  2.48477118E-01  2.48477118E-01
           kptopt           0
P           mkmem           2
P          mkqmem           2
P          mk1mem           2
            natom           7
            nband          25
           nbdbuf           4
            ngfft          90      90      90
             nkpt           2
            nstep        2000
             nsym          16
           ntypat           3
              occ      2.000000  2.000000  2.000000  2.000000  2.000000  2.000000
                       2.000000  2.000000  2.000000  2.000000  2.000000  2.000000
                       2.000000  2.000000  2.000000  2.000000  0.000000  0.000000
                       0.000000  0.000000  0.000000  0.000000  0.000000  0.000000
                       0.000000
        optdriver           1
            prtwf          -1
            rfdir           1       1       1
           rfelfd           2
            rprim      8.2262713144E+00  0.0000000000E+00 -1.3246801012E+01
                      -6.6929441620E-01  8.1989990073E+00 -1.3246801012E+01
                       0.0000000000E+00  0.0000000000E+00  1.5593244588E+01
          spgroup         139
           symrel      1  0  0   0  1  0   0  0  1      -1  0  0   0 -1  0   0  0 -1
                       0  0  1  -1 -1 -1   1  0  0       0  0 -1   1  1  1  -1  0  0
                       0  1  0   1  0  0  -1 -1 -1       0 -1  0  -1  0  0   1  1  1
                      -1 -1 -1   0  0  1   0  1  0       1  1  1   0  0 -1   0 -1  0
                       0  1  0   1  0  0   0  0  1       0 -1  0  -1  0  0   0  0 -1
                       0  0  1  -1 -1 -1   0  1  0       0  0 -1   1  1  1   0 -1  0
                       1  0  0   0  1  0  -1 -1 -1      -1  0  0   0 -1  0   1  1  1
                      -1 -1 -1   0  0  1   1  0  0       1  1  1   0  0 -1  -1  0  0
           tolwfr      1.00000000E-20
            typat      1  1  2  3  3  3  3
           useylm           1
              wtk        0.50000    0.50000
           xangst      2.5895354614E+00  2.8095360041E+00 -9.0785141816E+00
                       1.4094444790E+00  1.5291874038E+00 -4.9412961827E+00
                       0.0000000000E+00  0.0000000000E+00  0.0000000000E+00
                       3.4000527147E+00  3.6889128031E+00 -1.1920063366E+01
                       5.9892722567E-01  6.4981060480E-01 -2.0997469983E+00
                      -1.7708767544E-01  2.1693617040E+00  6.2084223091E-01
                       2.1765776456E+00  0.0000000000E+00  6.2084223091E-01
            xcart      4.8935128335E+00  5.3092536082E+00 -1.7155905497E+01
                       2.6634640647E+00  2.8897453991E+00 -9.3376965267E+00
                       0.0000000000E+00  0.0000000000E+00  0.0000000000E+00
                       6.4251684682E+00  6.9710349260E+00 -2.2525655248E+01
                       1.1318084300E+00  1.2279640813E+00 -3.9679467750E+00
                      -3.3464720810E-01  4.0994995036E+00  1.1732217881E+00
                       4.1131356572E+00  0.0000000000E+00  1.1732217881E+00
             xred      6.4754900000E-01  6.4754900000E-01  1.1102230246E-16
                       3.5245100000E-01  3.5245100000E-01  0.0000000000E+00
                       0.0000000000E+00  0.0000000000E+00  0.0000000000E+00
                       8.5023000000E-01  8.5023000000E-01  0.0000000000E+00
                       1.4977000000E-01  1.4977000000E-01  1.3877787808E-17
                       0.0000000000E+00  5.0000000000E-01  5.0000000000E-01
                       5.0000000000E-01  0.0000000000E+00  5.0000000000E-01
            znucl       55.00000   20.00000    1.00000

 chkinp: Checking input parameters for consistency.

== DATASET  1 ==================================================================
-   mpi_nproc: 1, omp_nthreads: -1 (-1 if OMP is not activated)

--- !DatasetInfo
iteration_state: {dtset: 1, }
dimensions: {natom: 7, nkpt: 2, mband: 25, nsppol: 1, nspinor: 1, nspden: 1, mpw: 12248, }
cutoff_energies: {ecut:  39.0, pawecutdg:  -1.0, }
electrons: {nelect:   3.20000000E+01, charge:   0.00000000E+00, occopt:   1.00000000E+00, tsmear:   1.00000000E-02, }
meta: {optdriver: 1, rfelfd: 2, }
...

 Real(R)+Recip(G) space primitive vectors, cartesian coordinates (Bohr,Bohr^-1):
 R(1)=  8.2262713  0.0000000-13.2468010  G(1)=  0.1215618  0.0099232  0.0000000
 R(2)= -0.6692944  8.1989990-13.2468010  G(2)=  0.0000000  0.1219661  0.0000000
 R(3)=  0.0000000  0.0000000 15.5932446  G(3)=  0.1032694  0.1120429  0.0641303
 Unit cell volume ucvol=  1.0517205E+03 bohr^3
 Angles (23,13,12)=  1.48159694E+02  1.48159694E+02  4.56496799E+01 degrees

 getcut: wavevector=  0.0000  0.0000  0.0000  ngfft=  90  90  90
         ecut(hartree)=     39.000   => boxcut(ratio)=   2.05330

--- Pseudopotential description ------------------------------------------------
- pspini: atom type   1  psp file is /scratch/users/j/a/jabreu/pseudos/PBEsol/Cs.psp8
- pspatm: opening atomic psp file    /scratch/users/j/a/jabreu/pseudos/PBEsol/Cs.psp8
- Cs    ONCVPSP-3.3.0  r_core=   2.27353   1.85623   2.01788   1.90105
- 55.00000   9.00000    180112                znucl, zion, pspdat
    8 -116133    3    4       600   0.00000   pspcod,pspxc,lmax,lloc,mmax,r2well
    5.99000000000000    5.00000000000000    0.00000000000000   rchrg,fchrg,qchrg
     nproj     2     2     2     2
     extension_switch     1
  pspatm : epsatm=   22.12462445
         --- l  ekb(1:nproj) -->
             0    6.214110    0.767882
             1    6.311966    0.793598
             2    3.769790    0.913105
             3   -9.247129   -2.432478
 pspatm: atomic psp has been read  and splines computed

- pspini: atom type   2  psp file is /scratch/users/j/a/jabreu/pseudos/PBEsol/Ca.psp8
- pspatm: opening atomic psp file    /scratch/users/j/a/jabreu/pseudos/PBEsol/Ca.psp8
- Ca    ONCVPSP-3.3.0  r_core=   1.45885   1.45885   1.85192
- 20.00000  10.00000    180112                znucl, zion, pspdat
    8 -116133    2    4       400   0.00000   pspcod,pspxc,lmax,lloc,mmax,r2well
    3.99000000000000    6.00000000000000    0.00000000000000   rchrg,fchrg,qchrg
     nproj     2     2     2
     extension_switch     1
  pspatm : epsatm=   12.46045226
         --- l  ekb(1:nproj) -->
             0   10.054847    0.973777
             1    2.998958    0.458102
             2   -3.447298   -1.091650
 pspatm: atomic psp has been read  and splines computed

- pspini: atom type   3  psp file is /scratch/users/j/a/jabreu/pseudos/PBEsol/H.psp8
- pspatm: opening atomic psp file    /scratch/users/j/a/jabreu/pseudos/PBEsol/H.psp8
- H     ONCVPSP-3.3.0  r_core=   1.00957   0.70586
-  1.00000   1.00000    180112                znucl, zion, pspdat
    8 -116133    1    4       300   0.00000   pspcod,pspxc,lmax,lloc,mmax,r2well
    2.99000000000000    0.00000000000000    0.00000000000000   rchrg,fchrg,qchrg
     nproj     2     1
     extension_switch     1
  pspatm : epsatm=    0.35627032
         --- l  ekb(1:nproj) -->
             0   -1.674911   -0.523609
             1   -0.494138
 pspatm: atomic psp has been read  and splines computed

   1.86031304E+03                                ecore*ucvol(ha*bohr**3)

-inwffil : will read wavefunctions from disk file /scratch/users/j/a/jabreu/flow_simple_7atoms/flow/w193/t1/indata/in_WFK

 ==>  initialize data related to q vector <==

 The list of irreducible perturbations for this q vector is:
    1)    idir= 1    ipert=   8
    2)    idir= 2    ipert=   8
    3)    idir= 3    ipert=   8

 Perturbation wavevector (in red.coord.)   0.000000  0.000000  0.000000
 Perturbation : derivative vs k along direction   1

 dfpt_looppert : COMMENT -
  In a d/dk calculation, iscf is set to -3 automatically.
 The set of symmetries contains only one element for this perturbation.
 symkpt : not enough symmetry to change the number of k points.

[...]

 Initialisation of the first-order wave-functions :
  ireadwf=   0

--- !BeginCycle
iteration_state: {dtset: 1, }
solver: {iscf: 7, nstep: 2000, nline: 4, wfoptalg: 0, }
tolerances: {tolwfr: 1.00E-20, }
...

     iter   2DEtotal(Ha)        deltaE(Ha) residm    vres2
-ETOT  1  -21.423860602711     -2.142E+01 9.592E-02 0.000E+00
 ETOT  2  -21.440283990289     -1.642E-02 4.927E-03 0.000E+00
 ETOT  3  -21.440642306704     -3.583E-04 5.443E-04 0.000E+00
 ETOT  4  -21.440658123871     -1.582E-05 8.179E-05 0.000E+00
 ETOT  5  -21.440658917795     -7.939E-07 1.165E-05 0.000E+00
 ETOT  6  -21.440658961847     -4.405E-08 1.684E-06 0.000E+00
 ETOT  7  -21.440658964437     -2.591E-09 2.285E-07 0.000E+00
 ETOT  8  -21.440658964598     -1.604E-10 3.354E-08 0.000E+00
 ETOT  9  -21.440658964608     -1.027E-11 4.618E-09 0.000E+00
 ETOT 10  -21.440658964609     -6.430E-13 6.863E-10 0.000E+00
 ETOT 11  -21.440658964609     -6.040E-14 9.447E-11 0.000E+00
 ETOT 12  -21.440658964609      1.421E-14 1.417E-11 0.000E+00
 ETOT 13  -21.440658964609     -6.395E-14 1.941E-12 0.000E+00
 ETOT 14  -21.440658964609      2.842E-14 2.935E-13 0.000E+00
 ETOT 15  -21.440658964609      2.487E-14 3.999E-14 0.000E+00
 ETOT 16  -21.440658964609      1.066E-14 6.097E-15 0.000E+00
 ETOT 17  -21.440658964609      1.421E-14 8.264E-16 0.000E+00
 ETOT 18  -21.440658964609     -7.105E-15 1.270E-16 0.000E+00
 ETOT 19  -21.440658964609      3.553E-15 1.713E-17 0.000E+00
 ETOT 20  -21.440658964609      0.000E+00 2.651E-18 0.000E+00
 ETOT 21  -21.440658964609     -3.553E-15 3.559E-19 0.000E+00
 ETOT 22  -21.440658964609      0.000E+00 5.547E-20 0.000E+00
 ETOT 23  -21.440658964609      0.000E+00 9.857E-21 0.000E+00

 At SCF step   23   max residual=  9.86E-21 < tolwfr=  1.00E-20 =>converged.

 ----iterations are completed or convergence reached----

 dfpt_looppert: DFPT cycle converged with prtwf=-1. Will skip output of the 1st-order WFK file.
 dfpt_looppert : ek2=    3.7585301901E+01
          f-sum rule ratio=    1.0816247403E+00
 prteigrs : about to open file /scratch/users/j/a/jabreu/flow_simple_7atoms/flow/w193/t1/tmpdata/tmp_1WF1_EIG
 Expectation of eigenvalue derivatives (hartree) for nkpt=   2  k points:
  (in case of degenerate eigenvalues, averaged derivative)
 kpt#   1, nband= 25, wtk=  0.50000, kpt=  0.0000  0.5000  0.0000 (reduced coord)
  -0.00000   -0.00000    0.00000    0.00000    0.00000    0.00000   -0.00000   -0.00000
  -0.00000   -0.00000    0.00000   -0.00000   -0.00000   -0.00000   -0.00000    0.00000
  -0.00000    0.00000    0.00000    0.00000    0.00000   -0.00000    0.00000    0.00000
  -0.00007
 prteigrs : prtvol=0 or 1, do not print more k-points.

 Eight components of 2nd-order total energy (hartree) are
 1,2,3: 0th-order hamiltonian combined with 1st-order wavefunctions
     kin0=   2.27999394E+01 eigvalue=   2.12021299E+00  local=  -1.56602744E+01
 4,5,6: 1st-order hamiltonian combined with 1st and 0th-order wfs
     kin1=  -4.06531924E+01  Hartree=   0.00000000E+00     xc=   0.00000000E+00
 7,8,9: eventually, occupation + non-local contributions
    edocc=   1.06079523E+01     enl0=   1.57282872E+00   enl1=  -2.22812552E+00
 1-9 gives the relaxation energy (to be shifted if some occ is /=2.0)
   erelax=  -2.14406590E+01
  No Ewald or frozen-wf contrib.: the relaxation energy is the total one
 2DEtotal=   -0.2144065896E+02 Ha. Also 2DEtotal=   -0.583430001297E+03 eV
    (  non-var. 2DEtotal :   -2.1440658965E+01 Ha)

 Perturbation wavevector (in red.coord.)   0.000000  0.000000  0.000000
 Perturbation : derivative vs k along direction   2
 The set of symmetries contains only one element for this perturbation.
 symkpt : not enough symmetry to change the number of k points.

[...]

 Perturbation wavevector (in red.coord.)   0.000000  0.000000  0.000000
 Perturbation : derivative vs k along direction   3
 The set of symmetries contains only one element for this perturbation.
 symkpt : not enough symmetry to change the number of k points.

-inwffil : will read wavefunctions from disk file /scratch/users/j/a/jabreu/flow_simple_7atoms/flow/w193/t1/indata/in_WFK

 Initialisation of the first-order wave-functions :
  ireadwf=   0

--- !BeginCycle
iteration_state: {dtset: 1, }
solver: {iscf: 7, nstep: 2000, nline: 4, wfoptalg: 0, }
tolerances: {tolwfr: 1.00E-20, }
...

     iter   2DEtotal(Ha)        deltaE(Ha) residm    vres2
-ETOT  1  -40.606310223016     -4.061E+01 1.170E-01 0.000E+00
 ETOT  2  -40.639880275790     -3.357E-02 5.102E-03 0.000E+00
 ETOT  3  -40.640605969132     -7.257E-04 5.894E-04 0.000E+00
 ETOT  4  -40.640642437073     -3.647E-05 8.294E-05 0.000E+00
 ETOT  5  -40.640644574882     -2.138E-06 1.197E-05 0.000E+00
 ETOT  6  -40.640644715631     -1.407E-07 1.883E-06 0.000E+00
 ETOT  7  -40.640644725395     -9.764E-09 2.352E-07 0.000E+00
 ETOT  8  -40.640644726104     -7.093E-10 3.746E-08 0.000E+00
 ETOT  9  -40.640644726157     -5.291E-11 4.710E-09 0.000E+00
 ETOT 10  -40.640644726161     -4.142E-12 7.575E-10 0.000E+00
 ETOT 11  -40.640644726162     -3.553E-13 9.516E-11 0.000E+00
 ETOT 12  -40.640644726162      0.000E+00 1.541E-11 0.000E+00
 ETOT 13  -40.640644726162     -2.132E-14 1.928E-12 0.000E+00
 ETOT 14  -40.640644726162      1.421E-14 3.145E-13 0.000E+00
 ETOT 15  -40.640644726162      5.684E-14 3.916E-14 0.000E+00
 ETOT 16  -40.640644726162      7.105E-15 6.437E-15 0.000E+00
 ETOT 17  -40.640644726162      0.000E+00 7.977E-16 0.000E+00
 ETOT 18  -40.640644726162      0.000E+00 1.322E-16 0.000E+00
 ETOT 19  -40.640644726162      0.000E+00 1.630E-17 0.000E+00
 ETOT 20  -40.640644726162     -3.553E-14 2.722E-18 0.000E+00
 ETOT 21  -40.640644726162      1.421E-14 3.340E-19 0.000E+00
 ETOT 22  -40.640644726162     -7.105E-15 5.621E-20 0.000E+00
 ETOT 23  -40.640644726162      2.842E-14 9.843E-21 0.000E+00

 At SCF step   23   max residual=  9.84E-21 < tolwfr=  1.00E-20 =>converged.

 ----iterations are completed or convergence reached----

 dfpt_looppert: DFPT cycle converged with prtwf=-1. Will skip output of the 1st-order WFK file.
 dfpt_looppert : ek2=    6.9054677952E+01
          f-sum rule ratio=    1.1260792267E+00
 prteigrs : about to open file /scratch/users/j/a/jabreu/flow_simple_7atoms/flow/w193/t1/tmpdata/tmp_1WF1_EIG
 Expectation of eigenvalue derivatives (hartree) for nkpt=   2  k points:
  (in case of degenerate eigenvalues, averaged derivative)
 kpt#   1, nband= 25, wtk=  0.50000, kpt=  0.0000  0.5000  0.0000 (reduced coord)
   0.00000   -0.00000   -0.00000   -0.00000    0.00000    0.00000   -0.00000   -0.00000
  -0.00000    0.00000    0.00000   -0.00000   -0.00000    0.00000   -0.00000    0.00000
  -0.00000    0.00000    0.00000    0.00000    0.00000   -0.00000    0.00000   -0.00000
  -0.00017
 prteigrs : prtvol=0 or 1, do not print more k-points.

 Eight components of 2nd-order total energy (hartree) are
 1,2,3: 0th-order hamiltonian combined with 1st-order wavefunctions
     kin0=   4.01153230E+01 eigvalue=   3.78144052E+00  local=  -2.81345851E+01
 4,5,6: 1st-order hamiltonian combined with 1st and 0th-order wfs
     kin1=  -7.77610383E+01  Hartree=   0.00000000E+00     xc=   0.00000000E+00
 7,8,9: eventually, occupation + non-local contributions
    edocc=   1.94864510E+01     enl0=   5.39201536E+00   enl1=  -3.52025110E+00
 1-9 gives the relaxation energy (to be shifted if some occ is /=2.0)
   erelax=  -4.06406447E+01
  No Ewald or frozen-wf contrib.: the relaxation energy is the total one
 2DEtotal=   -0.4064064473E+02 Ha. Also 2DEtotal=   -0.110588818396E+04 eV
    (  non-var. 2DEtotal :   -4.0640644726E+01 Ha)

 CALCULATION OF EFFECTIVE MASSES
 NOTE : Additional infos (eff. mass eigenvalues, eigenvectors and, if degenerate, average mass) are available in stdout.

 K-point ( 0.000, 0.500, 0.000) | band =    16
 Effective mass tensor:
             -1.0153433563             -0.2602451172              0.3051917477
             -0.2602451172             -1.1943164716              0.9121275554
              0.3051917477              0.9121275554             -1.9978748694
 Effective mass tensor eigenvalues:
             -2.6874971533             -0.9282631557             -0.5917743883
 Angular average effective mass 1/(<1/m>)=  -0.9556552632
 Angular average effective mass for Frohlich model (<m**0.5>)**2=  -1.0530080894
 Effective masses along directions: (cart. coord. / red. coord. -> eff. mass)
    1:   1.000000  0.000000  0.000000 /   0.996707 -0.081093  0.000000 ->  -0.9499292228
    2:   0.000000  1.000000  0.000000 /   0.000000  1.000000  0.000000 ->  -0.7627943677
    3:   0.000000  0.000000  1.000000 /  -0.543475 -0.543475  0.639742 ->  -1.2894440750
    4:   0.577350  0.577350  0.577350 /  -0.289359 -0.329506  0.898720 ->  -0.7261781885
    5:   0.000000  0.707107  0.707107 /  -0.628589 -0.239529  0.739933 ->  -0.6185153208
    6:   0.707107  0.000000  0.707107 /  -0.233573 -0.647426  0.725453 ->  -0.9997748344
    7:   0.707107  0.707107  0.000000 /   0.737647  0.675186  0.000000 ->  -0.9821134152

 K-point (-0.248, 0.248, 0.248) | band =    17
 Effective mass tensor:
              0.6368389190              0.1983795342             -0.6314105627
              0.1983795342              0.6355118160             -0.6954884325
             -0.6314105627             -0.6954884325              2.6703653019
 Effective mass tensor eigenvalues:
              0.4202781337              0.4567367520              3.0657011512
 Angular average effective mass 1/(<1/m>)=   0.6128688533
 Angular average effective mass for Frohlich model (<m**0.5>)**2=   0.7153697534
 Effective masses along directions: (cart. coord. / red. coord. -> eff. mass)
    1:   1.000000  0.000000  0.000000 /   0.996707 -0.081093  0.000000 ->   0.4850074728
    2:   0.000000  1.000000  0.000000 /   0.000000  1.000000  0.000000 ->   0.4520125812
    3:   0.000000  0.000000  1.000000 /  -0.543475 -0.543475  0.639742 ->   1.6106699582
    4:   0.577350  0.577350  0.577350 /  -0.289359 -0.329506  0.898720 ->   0.4572130733
    5:   0.000000  0.707107  0.707107 /  -0.628589 -0.239529  0.739933 ->   0.5111476471
    6:   0.707107  0.000000  0.707107 /  -0.233573 -0.647426  0.725453 ->   0.5590459569
    7:   0.707107  0.707107  0.000000 /   0.737647  0.675186  0.000000 ->   0.5042589284

 END OF EFFECTIVE MASSES SECTION

 ---- first-order wavefunction calculations are completed ----

 Total localisation tensor (bohr^2) in cartesian coordinates
  WARNING : still subject to testing - especially symmetries.
      direction              matrix element
   alpha     beta       real part   imaginary part
     1        1       1.3484391136    0.0000000000
     1        2      -0.1242970362    0.0000000000
     1        3      -1.9542366256    0.0000000000
     2        1      -0.1242970362    0.0000000000
     2        2       1.5226651409    0.0000000000
     2        3      -2.4601103270    0.0000000000
     3        1      -1.9542366256    0.0000000000
     3        2      -2.4601103270    0.0000000000
     3        3      17.2247827885    0.0000000000

 respfn : d/dk was computed, but no 2DTE, so no DDB output.

== END DATASET(S) ==============================================================

 -outvars: echo values of variables after computation  --------
            acell      1.0000000000E+00  1.0000000000E+00  1.0000000000E+00 Bohr
              amu      1.32905430E+02  4.00780000E+01  1.00794000E+00
             ecut      3.90000000E+01 Hartree
           etotal     -4.0640644726E+01
            fcart      0.0000000000E+00  0.0000000000E+00  0.0000000000E+00
                       0.0000000000E+00  0.0000000000E+00  0.0000000000E+00
                       0.0000000000E+00  0.0000000000E+00  0.0000000000E+00
                       0.0000000000E+00  0.0000000000E+00  0.0000000000E+00
                       0.0000000000E+00  0.0000000000E+00  0.0000000000E+00
                       0.0000000000E+00  0.0000000000E+00  0.0000000000E+00
                       0.0000000000E+00  0.0000000000E+00  0.0000000000E+00
-          fftalg         512
           irdden           1
           irdwfk           1
           istwfk        1    0
              ixc     -116133
              kpt      0.00000000E+00  5.00000000E-01  0.00000000E+00
                      -2.48477118E-01  2.48477118E-01  2.48477118E-01
           kptopt           0
P           mkmem           2
P          mkqmem           2
P          mk1mem           2
            natom           7
            nband          25
           nbdbuf           4
            ngfft          90      90      90
             nkpt           2
            nstep        2000
             nsym          16
           ntypat           3
              occ      2.000000  2.000000  2.000000  2.000000  2.000000  2.000000
                       2.000000  2.000000  2.000000  2.000000  2.000000  2.000000
                       2.000000  2.000000  2.000000  2.000000  0.000000  0.000000
                       0.000000  0.000000  0.000000  0.000000  0.000000  0.000000
                       0.000000
        optdriver           1
            prtwf          -1
            rfdir           1       1       1
           rfelfd           2
            rprim      8.2262713144E+00  0.0000000000E+00 -1.3246801012E+01
                      -6.6929441620E-01  8.1989990073E+00 -1.3246801012E+01
                       0.0000000000E+00  0.0000000000E+00  1.5593244588E+01
          spgroup         139
           strten      0.0000000000E+00  0.0000000000E+00  0.0000000000E+00
                       0.0000000000E+00  0.0000000000E+00  0.0000000000E+00
           symrel      1  0  0   0  1  0   0  0  1      -1  0  0   0 -1  0   0  0 -1
                       0  0  1  -1 -1 -1   1  0  0       0  0 -1   1  1  1  -1  0  0
                       0  1  0   1  0  0  -1 -1 -1       0 -1  0  -1  0  0   1  1  1
                      -1 -1 -1   0  0  1   0  1  0       1  1  1   0  0 -1   0 -1  0
                       0  1  0   1  0  0   0  0  1       0 -1  0  -1  0  0   0  0 -1
                       0  0  1  -1 -1 -1   0  1  0       0  0 -1   1  1  1   0 -1  0
                       1  0  0   0  1  0  -1 -1 -1      -1  0  0   0 -1  0   1  1  1
                      -1 -1 -1   0  0  1   1  0  0       1  1  1   0  0 -1  -1  0  0
           tolwfr      1.00000000E-20
            typat      1  1  2  3  3  3  3
           useylm           1
              wtk        0.50000    0.50000
           xangst      2.5895354614E+00  2.8095360041E+00 -9.0785141816E+00
                       1.4094444790E+00  1.5291874038E+00 -4.9412961827E+00
                       0.0000000000E+00  0.0000000000E+00  0.0000000000E+00
                       3.4000527147E+00  3.6889128031E+00 -1.1920063366E+01
                       5.9892722567E-01  6.4981060480E-01 -2.0997469983E+00
                      -1.7708767544E-01  2.1693617040E+00  6.2084223091E-01
                       2.1765776456E+00  0.0000000000E+00  6.2084223091E-01
            xcart      4.8935128335E+00  5.3092536082E+00 -1.7155905497E+01
                       2.6634640647E+00  2.8897453991E+00 -9.3376965267E+00
                       0.0000000000E+00  0.0000000000E+00  0.0000000000E+00
                       6.4251684682E+00  6.9710349260E+00 -2.2525655248E+01
                       1.1318084300E+00  1.2279640813E+00 -3.9679467750E+00
                      -3.3464720810E-01  4.0994995036E+00  1.1732217881E+00
                       4.1131356572E+00  0.0000000000E+00  1.1732217881E+00
             xred      6.4754900000E-01  6.4754900000E-01  1.1102230246E-16
                       3.5245100000E-01  3.5245100000E-01  0.0000000000E+00
                       0.0000000000E+00  0.0000000000E+00  0.0000000000E+00
                       8.5023000000E-01  8.5023000000E-01  0.0000000000E+00
                       1.4977000000E-01  1.4977000000E-01  1.3877787808E-17
                       0.0000000000E+00  5.0000000000E-01  5.0000000000E-01
                       5.0000000000E-01  0.0000000000E+00  5.0000000000E-01
            znucl       55.00000   20.00000    1.00000

- Timing analysis has been suppressed with timopt=0

 Suggested references for the acknowledgment of ABINIT usage.

 Calculation completed.
.Delivered  14 WARNINGs and   9 COMMENTs to log file.