.Version 9.5.1 of ABINIT

 ABINIT is a project of the Universite Catholique de Louvain,
 Corning Inc. and other collaborators, see ~abinit/doc/developers/contributors.txt .
 acknowledgments of the ABINIT effort.

.Starting date : Wed 19 May 2021.
- ( at 07h51 )

- input  file    -> /scratch/users/j/a/jabreu/flow_simple_9atoms/flow/w127/t1/run.abi
- output file    -> /scratch/users/j/a/jabreu/flow_simple_9atoms/flow/w127/t1/run.abo
- root for input  files -> /scratch/users/j/a/jabreu/flow_simple_9atoms/flow/w127/t1/indata/in
- root for output files -> /scratch/users/j/a/jabreu/flow_simple_9atoms/flow/w127/t1/outdata/out

 Symmetries : space group Fm -3 m (#225); Bravais cF (face-center cubic)
     intxc =       0      iscf =       7    lmnmax =      32     lnmax =       8
     mgfft =      80  mpssoang =       4    mqgrid =    3184     natom =       9
  nloc_mem =       1    nspden =       1   nspinor =       1    nsppol =       1
      nsym =      48    n1xccc =    2501    ntypat =       3    occopt =       1
   xclevel =       2
-    mband =          46        mffmem =           1         mkmem =           1
-   mkqmem =           1        mk1mem =           1           mpw =       22123
      nfft =      512000          nkpt =           1
  Rough estimation (10% accuracy) of disk space for files :

------------- Echo of variables that govern the present computation ------------
-
- outvars: echo of selected default values
-   iomode0 =  0 , fftalg0 =512 , wfoptalg0 =  0
-
- outvars: echo of global parameters not present in the input file
-  max_nthreads =    0
-
 -outvars: echo values of preprocessed input variables --------
            acell      1.0000000000E+00  1.0000000000E+00  1.0000000000E+00 Bohr
              amu      1.32905430E+02  1.18710000E+02  7.99040000E+01
             ecut      3.60000000E+01 Hartree
-          fftalg         512
           irdden           1
           irdwfk           1
           istwfk        1
              ixc     -116133
           kptopt           0
P           mkmem           1
P          mkqmem           1
P          mk1mem           1
            natom           9
            nband          46
           nbdbuf           4
            ngfft          80      80      80
             nkpt           1
            nstep        2000
             nsym          48
           ntypat           3
              occ      2.000000  2.000000  2.000000  2.000000  2.000000  2.000000
                       2.000000  2.000000  2.000000  2.000000  2.000000  2.000000
                       2.000000  2.000000  2.000000  2.000000  2.000000  2.000000
                       2.000000  2.000000  2.000000  2.000000  2.000000  2.000000
                       2.000000  2.000000  2.000000  2.000000  2.000000  2.000000
                       2.000000  2.000000  2.000000  2.000000  2.000000  2.000000
                       2.000000  0.000000  0.000000  0.000000  0.000000  0.000000
                       0.000000  0.000000  0.000000  0.000000
        optdriver           1
            prtwf          -1
            rfdir           1       1       1
           rfelfd           2
            rprim      1.2502190852E+01  0.0000000000E+00  7.2181432539E+00
                       4.1673969507E+00  1.1787178575E+01  7.2181432539E+00
                       0.0000000000E+00  0.0000000000E+00  1.4436286508E+01
          spgroup         225
           symrel      1  0  0   0  1  0   0  0  1      -1  0  0   0 -1  0   0  0 -1
                       0 -1  1   0 -1  0   1 -1  0       0  1 -1   0  1  0  -1  1  0
                      -1  0  0  -1  0  1  -1  1  0       1  0  0   1  0 -1   1 -1  0
                       0  1 -1   1  0 -1   0  0 -1       0 -1  1  -1  0  1   0  0  1
                      -1  0  0  -1  1  0  -1  0  1       1  0  0   1 -1  0   1  0 -1
                       0 -1  1   1 -1  0   0 -1  0       0  1 -1  -1  1  0   0  1  0
                       1  0  0   0  0  1   0  1  0      -1  0  0   0  0 -1   0 -1  0
                       0  1 -1   0  0 -1   1  0 -1       0 -1  1   0  0  1  -1  0  1
                      -1  0  1  -1  1  0  -1  0  0       1  0 -1   1 -1  0   1  0  0
                       0 -1  0   1 -1  0   0 -1  1       0  1  0  -1  1  0   0  1 -1
                       1  0 -1   0  0 -1   0  1 -1      -1  0  1   0  0  1   0 -1  1
                       0  1  0   0  0  1   1  0  0       0 -1  0   0  0 -1  -1  0  0
                       1  0 -1   0  1 -1   0  0 -1      -1  0  1   0 -1  1   0  0  1
                       0 -1  0   0 -1  1   1 -1  0       0  1  0   0  1 -1  -1  1  0
                      -1  0  1  -1  0  0  -1  1  0       1  0 -1   1  0  0   1 -1  0
                       0  1  0   1  0  0   0  0  1       0 -1  0  -1  0  0   0  0 -1
                       0  0 -1   0  1 -1   1  0 -1       0  0  1   0 -1  1  -1  0  1
                       1 -1  0   0 -1  1   0 -1  0      -1  1  0   0  1 -1   0  1  0
                       0  0  1   1  0  0   0  1  0       0  0 -1  -1  0  0   0 -1  0
                      -1  1  0  -1  0  0  -1  0  1       1 -1  0   1  0  0   1  0 -1
                       0  0  1   0  1  0   1  0  0       0  0 -1   0 -1  0  -1  0  0
                       1 -1  0   0 -1  0   0 -1  1      -1  1  0   0  1  0   0  1 -1
                       0  0 -1   1  0 -1   0  1 -1       0  0  1  -1  0  1   0 -1  1
                      -1  1  0  -1  0  1  -1  0  0       1 -1  0   1  0 -1   1  0  0
           tolwfr      1.00000000E-20
            typat      1  1  2  3  3  3  3  3  3
           useylm           1
           xangst      6.6158744564E+00  4.6781296916E+00  1.1459030695E+01
                       2.2052914855E+00  1.5593765639E+00  3.8196768983E+00
                       0.0000000000E+00  0.0000000000E+00  0.0000000000E+00
                       2.1435168604E+00  1.5156953075E+00  7.6393537966E+00
                       6.6776490815E+00  4.7218109479E+00  7.6393537966E+00
                       3.2770499156E+00  4.7218109479E+00  9.6026906404E+00
                       5.5441160262E+00  1.5156953075E+00  9.6026906404E+00
                       5.5441160262E+00  1.5156953075E+00  5.6760169528E+00
                       3.2770499156E+00  4.7218109479E+00  5.6760169528E+00
            xcart      1.2502190852E+01  8.8403839312E+00  2.1654429762E+01
                       4.1673969507E+00  2.9467946437E+00  7.2181432539E+00
                       0.0000000000E+00  0.0000000000E+00  0.0000000000E+00
                       4.0506598273E+00  2.8642490322E+00  1.4436286508E+01
                       1.2618927975E+01  8.9229295427E+00  1.4436286508E+01
                       6.1927268644E+00  8.9229295427E+00  1.8146455449E+01
                       1.0476860938E+01  2.8642490322E+00  1.8146455449E+01
                       1.0476860938E+01  2.8642490322E+00  1.0726117566E+01
                       6.1927268644E+00  8.9229295427E+00  1.0726117566E+01
             xred      7.5000000000E-01  7.5000000000E-01  7.5000000000E-01
                       2.5000000000E-01  2.5000000000E-01  2.5000000000E-01
                       0.0000000000E+00  0.0000000000E+00  0.0000000000E+00
                       2.4299700000E-01  2.4299700000E-01  7.5700300000E-01
                       7.5700300000E-01  7.5700300000E-01  2.4299700000E-01
                       2.4299700000E-01  7.5700300000E-01  7.5700300000E-01
                       7.5700300000E-01  2.4299700000E-01  7.5700300000E-01
                       7.5700300000E-01  2.4299700000E-01  2.4299700000E-01
                       2.4299700000E-01  7.5700300000E-01  2.4299700000E-01
            znucl       55.00000   50.00000   35.00000

 chkinp: Checking input parameters for consistency.

== DATASET  1 ==================================================================
-   mpi_nproc: 1, omp_nthreads: -1 (-1 if OMP is not activated)

--- !DatasetInfo
iteration_state: {dtset: 1, }
dimensions: {natom: 9, nkpt: 1, mband: 46, nsppol: 1, nspinor: 1, nspden: 1, mpw: 22123, }
cutoff_energies: {ecut:  36.0, pawecutdg:  -1.0, }
electrons: {nelect:   7.40000000E+01, charge:   0.00000000E+00, occopt:   1.00000000E+00, tsmear:   1.00000000E-02, }
meta: {optdriver: 1, rfelfd: 2, }
...

 Real(R)+Recip(G) space primitive vectors, cartesian coordinates (Bohr,Bohr^-1):
 R(1)= 12.5021909  0.0000000  7.2181433  G(1)=  0.0799860 -0.0282793  0.0000000
 R(2)=  4.1673970 11.7871786  7.2181433  G(2)=  0.0000000  0.0848379  0.0000000
 R(3)=  0.0000000  0.0000000 14.4362865  G(3)= -0.0399930 -0.0282793  0.0692699
 Unit cell volume ucvol=  2.1274114E+03 bohr^3
 Angles (23,13,12)=  6.00000000E+01  6.00000000E+01  6.00000000E+01 degrees

 getcut: wavevector=  0.0000  0.0000  0.0000  ngfft=  80  80  80
         ecut(hartree)=     36.000   => boxcut(ratio)=   2.05172

--- Pseudopotential description ------------------------------------------------
- pspini: atom type   1  psp file is /scratch/users/j/a/jabreu/pseudos/PBEsol/Cs.psp8
- pspatm: opening atomic psp file    /scratch/users/j/a/jabreu/pseudos/PBEsol/Cs.psp8
- Cs    ONCVPSP-3.3.0  r_core=   2.27353   1.85623   2.01788   1.90105
- 55.00000   9.00000    180112                znucl, zion, pspdat
    8 -116133    3    4       600   0.00000   pspcod,pspxc,lmax,lloc,mmax,r2well
    5.99000000000000    5.00000000000000    0.00000000000000   rchrg,fchrg,qchrg
     nproj     2     2     2     2
     extension_switch     1
  pspatm : epsatm=   22.12462445
         --- l  ekb(1:nproj) -->
             0    6.214110    0.767882
             1    6.311966    0.793598
             2    3.769790    0.913105
             3   -9.247129   -2.432478
 pspatm: atomic psp has been read  and splines computed

- pspini: atom type   2  psp file is /scratch/users/j/a/jabreu/pseudos/PBEsol/Sn.psp8
- pspatm: opening atomic psp file    /scratch/users/j/a/jabreu/pseudos/PBEsol/Sn.psp8
- Sn    ONCVPSP-3.3.0  r_core=   2.27326   2.62311   1.85601
- 50.00000  14.00000    180112                znucl, zion, pspdat
    8 -116133    2    4       600   0.00000   pspcod,pspxc,lmax,lloc,mmax,r2well
    5.99000000000000    6.50000000000000    0.00000000000000   rchrg,fchrg,qchrg
     nproj     2     2     2
     extension_switch     1
  pspatm : epsatm=   32.44586081
         --- l  ekb(1:nproj) -->
             0    5.587869    0.749373
             1    4.197111    0.728791
             2   -5.271877   -1.523486
 pspatm: atomic psp has been read  and splines computed

- pspini: atom type   3  psp file is /scratch/users/j/a/jabreu/pseudos/PBEsol/Br.psp8
- pspatm: opening atomic psp file    /scratch/users/j/a/jabreu/pseudos/PBEsol/Br.psp8
- Br    ONCVPSP-3.3.0  r_core=   1.81012   1.51356   1.92136
- 35.00000   7.00000    180112                znucl, zion, pspdat
    8 -116133    2    4       600   0.00000   pspcod,pspxc,lmax,lloc,mmax,r2well
    5.99000000000000    8.00000000000000    0.00000000000000   rchrg,fchrg,qchrg
     nproj     2     2     2
     extension_switch     1
  pspatm : epsatm=   10.94933070
         --- l  ekb(1:nproj) -->
             0    8.508690    0.897946
             1    5.393311    0.892021
             2    2.527513    0.394763
 pspatm: atomic psp has been read  and splines computed
[...]

[...]

 Perturbation wavevector (in red.coord.)   0.000000  0.000000  0.000000
 Perturbation : derivative vs k along direction   3
 The set of symmetries contains only one element for this perturbation.
 symkpt : not enough symmetry to change the number of k points.

-inwffil : will read wavefunctions from disk file /scratch/users/j/a/jabreu/flow_simple_9atoms/flow/w127/t1/indata/in_WFK

 Initialisation of the first-order wave-functions :
  ireadwf=   0

--- !BeginCycle
iteration_state: {dtset: 1, }
solver: {iscf: 7, nstep: 2000, nline: 4, wfoptalg: 0, }
tolerances: {tolwfr: 1.00E-20, }
...

     iter   2DEtotal(Ha)        deltaE(Ha) residm    vres2
-ETOT  1  -32.265690250581     -3.227E+01 1.091E-02 0.000E+00
 ETOT  2  -32.274812133162     -9.122E-03 1.754E-04 0.000E+00
 ETOT  3  -32.274850399006     -3.827E-05 2.482E-05 0.000E+00
 ETOT  4  -32.274851733959     -1.335E-06 3.604E-06 0.000E+00
 ETOT  5  -32.274851803859     -6.990E-08 7.068E-07 0.000E+00
 ETOT  6  -32.274851808889     -5.031E-09 1.004E-07 0.000E+00
 ETOT  7  -32.274851809304     -4.146E-10 2.259E-08 0.000E+00
 ETOT  8  -32.274851809342     -3.831E-11 3.202E-09 0.000E+00
 ETOT  9  -32.274851809346     -3.737E-12 7.482E-10 0.000E+00
 ETOT 10  -32.274851809346     -3.979E-13 1.054E-10 0.000E+00
 ETOT 11  -32.274851809346      0.000E+00 2.504E-11 0.000E+00
 ETOT 12  -32.274851809346     -7.105E-15 3.505E-12 0.000E+00
 ETOT 13  -32.274851809347     -6.395E-14 8.429E-13 0.000E+00
 ETOT 14  -32.274851809346      4.263E-14 1.173E-13 0.000E+00
 ETOT 15  -32.274851809346     -2.132E-14 2.848E-14 0.000E+00
 ETOT 16  -32.274851809346      2.132E-14 3.942E-15 0.000E+00
 ETOT 17  -32.274851809346     -1.421E-14 9.646E-16 0.000E+00
 ETOT 18  -32.274851809346      0.000E+00 1.329E-16 0.000E+00
 ETOT 19  -32.274851809346     -7.105E-15 3.274E-17 0.000E+00
 ETOT 20  -32.274851809346      7.105E-15 4.490E-18 0.000E+00
 ETOT 21  -32.274851809346     -7.105E-15 1.113E-18 0.000E+00
 ETOT 22  -32.274851809346      0.000E+00 1.520E-19 0.000E+00
 ETOT 23  -32.274851809346      7.105E-15 3.787E-20 0.000E+00
 ETOT 24  -32.274851809346      0.000E+00 9.936E-21 0.000E+00

 At SCF step   24   max residual=  9.94E-21 < tolwfr=  1.00E-20 =>converged.

 ----iterations are completed or convergence reached----

 dfpt_looppert: DFPT cycle converged with prtwf=-1. Will skip output of the 1st-order WFK file.
 dfpt_looppert : ek2=    4.2053459242E+01
          f-sum rule ratio=    1.2082486837E+00
 prteigrs : about to open file /scratch/users/j/a/jabreu/flow_simple_9atoms/flow/w127/t1/tmpdata/tmp_1WF1_EIG
 Expectation of eigenvalue derivatives (hartree) for nkpt=   1  k points:
  (in case of degenerate eigenvalues, averaged derivative)
 kpt#   1, nband= 46, wtk=  1.00000, kpt=  0.0000  0.0000  0.0000 (reduced coord)
  -0.00000   -0.00000    0.00000    0.00000    0.00000    0.00000    0.00000    0.00000
  -0.00000   -0.00000   -0.00000   -0.00000   -0.00000    0.00000   -0.00000   -0.00000
  -0.00000   -0.00000   -0.00000   -0.00000    0.00000    0.00000    0.00000   -0.00000
  -0.00000   -0.00000   -0.00000   -0.00000   -0.00000    0.00000    0.00000    0.00000
   0.00000    0.00000    0.00000    0.00000    0.00000   -0.00000    0.00000    0.00000
   0.00000    0.00000   -0.00000   -0.00000   -0.00000    0.00251

 Eight components of 2nd-order total energy (hartree) are
 1,2,3: 0th-order hamiltonian combined with 1st-order wavefunctions
     kin0=   3.53131960E+01 eigvalue=   2.54920485E+00  local=  -2.07284709E+01
 4,5,6: 1st-order hamiltonian combined with 1st and 0th-order wfs
     kin1=  -5.08110368E+01  Hartree=   0.00000000E+00     xc=   0.00000000E+00
 7,8,9: eventually, occupation + non-local contributions
    edocc=   9.16986608E+00     enl0=   5.97105573E+00   enl1=  -1.37386668E+01
 1-9 gives the relaxation energy (to be shifted if some occ is /=2.0)
   erelax=  -3.22748518E+01
  No Ewald or frozen-wf contrib.: the relaxation energy is the total one
 2DEtotal=   -0.3227485181E+02 Ha. Also 2DEtotal=   -0.878243381609E+03 eV
    (  non-var. 2DEtotal :   -3.2274851810E+01 Ha)

 CALCULATION OF EFFECTIVE MASSES
 NOTE : Additional infos (eff. mass eigenvalues, eigenvectors and, if degenerate, average mass) are available in stdout.

 COMMENTS:
 - At k-point ( 0.000, 0.000, 0.000), bands    35 through    37
   are DEGENERATE (effective mass tensor is therefore not defined).
   See Section IIIB Eqs. (67)-(70) and Appendix E of PRB 93 205147 (2016).
 - Angular average effective mass for Frohlich model is to be averaged over degenerate bands. See later.
 - Associated theta integrals calculated with ntheta=   1000 points.

 K-point ( 0.000, 0.000, 0.000) | band =    35
 Transport equivalent effective mass tensor:
             -0.8240577446             -0.0000002207              0.0000000098
             -0.0000002207             -0.8240575331              0.0000000024
              0.0000000098              0.0000000024             -0.8240565866
 Transport equivalent effective mass tensor eigenvalues:
             -0.8240578836             -0.8240573941             -0.8240565865
 Angular average effective mass 1/(<1/m>)=  -0.7919321051
 Angular average effective mass for Frohlich model (<m**0.5>)**2=  -0.7931992223
 Effective masses along directions: (cart. coord. / red. coord. -> eff. mass)
    1:   1.000000  0.000000  0.000000 /   0.948683  0.316228  0.000000 ->  -0.8359406378
    2:   0.000000  1.000000  0.000000 /   0.000000  1.000000  0.000000 ->  -0.9295390359
    3:   0.000000  0.000000  1.000000 /   0.408248  0.408248  0.816497 ->  -0.7594673456
    4:   0.577350  0.577350  0.577350 /   0.585539  0.688047  0.428644 ->  -0.8122559538
    5:   0.000000  0.707107  0.707107 /   0.289489  0.762222  0.578977 ->  -0.7640360737
    6:   0.707107  0.000000  0.707107 /   0.731423  0.422287  0.535439 ->  -0.7839877841
    7:   0.707107  0.707107  0.000000 /   0.616798  0.787122  0.000000 ->  -0.7654747117

[...]

 K-point ( 0.000, 0.000, 0.000) | band =    37
 Transport equivalent effective mass tensor:
            -41.3191096125              0.0000005298              0.0000013936
              0.0000005298            -41.3191069675             -0.0000014026
              0.0000013936             -0.0000014026            -41.3191090526
 Transport equivalent effective mass tensor eigenvalues:
            -41.3191111722            -41.3191082065            -41.3191062539
 Angular average effective mass 1/(<1/m>)=  -3.2229995813
 Angular average effective mass for Frohlich model (<m**0.5>)**2=  -4.0062561839
 Effective masses along directions: (cart. coord. / red. coord. -> eff. mass)
    1:   1.000000  0.000000  0.000000 /   0.948683  0.316228  0.000000 ->  -2.7347786805
    2:   0.000000  1.000000  0.000000 /   0.000000  1.000000  0.000000 ->  -1.8976088880
    3:   0.000000  0.000000  1.000000 /   0.408248  0.408248  0.816497 ->  -2.4598806060
    4:   0.577350  0.577350  0.577350 /   0.585539  0.688047  0.428644 ->  -2.6543208676
    5:   0.000000  0.707107  0.707107 /   0.289489  0.762222  0.578977 ->  -4.5722645244
    6:   0.707107  0.000000  0.707107 /   0.731423  0.422287  0.535439 ->  -2.5976519127
    7:   0.707107  0.707107  0.000000 /   0.616798  0.787122  0.000000 -> -13.3978660053

 Angular average effective mass for Frohlich model, averaged over degenerate bands.
 Value of     (<<m**0.5>>)**2 =     1.643598E+00
 Absolute Value of <<m**0.5>> =     1.282029E+00

 K-point ( 0.000, 0.000, 0.000) | band =    38
 Effective mass tensor:
              0.3367583008              0.0000000000              0.0000000000
              0.0000000000              0.3367583036             -0.0000000008
              0.0000000000             -0.0000000008              0.3367583012
 Effective mass tensor eigenvalues:
              0.3367583008              0.3367583010              0.3367583039
 Angular average effective mass 1/(<1/m>)=   0.3367583019
 Angular average effective mass for Frohlich model (<m**0.5>)**2=   0.3367583019
 Effective masses along directions: (cart. coord. / red. coord. -> eff. mass)
    1:   1.000000  0.000000  0.000000 /   0.948683  0.316228  0.000000 ->   0.3367583008
    2:   0.000000  1.000000  0.000000 /   0.000000  1.000000  0.000000 ->   0.3367583036
    3:   0.000000  0.000000  1.000000 /   0.408248  0.408248  0.816497 ->   0.3367583012
    4:   0.577350  0.577350  0.577350 /   0.585539  0.688047  0.428644 ->   0.3367583014
    5:   0.000000  0.707107  0.707107 /   0.289489  0.762222  0.578977 ->   0.3367583016
    6:   0.707107  0.000000  0.707107 /   0.731423  0.422287  0.535439 ->   0.3367583011
    7:   0.707107  0.707107  0.000000 /   0.616798  0.787122  0.000000 ->   0.3367583022

 END OF EFFECTIVE MASSES SECTION

 ---- first-order wavefunction calculations are completed ----

 Total localisation tensor (bohr^2) in cartesian coordinates
  WARNING : still subject to testing - especially symmetries.
      direction              matrix element
   alpha     beta       real part   imaginary part
     1        1       2.4458283844    0.0000000000
     1        2       0.6917822706    0.0000000000
     1        3       1.6945186054    0.0000000000
     2        1       0.6917822706    0.0000000000
     2        2       1.9566557384    0.0000000000
     2        3       1.1982020404    0.0000000000
     3        1       1.6945186054    0.0000000000
     3        2       1.1982020404    0.0000000000
     3        3       4.4024724827    0.0000000000

 respfn : d/dk was computed, but no 2DTE, so no DDB output.

== END DATASET(S) ==============================================================

 -outvars: echo values of variables after computation  --------
            acell      1.0000000000E+00  1.0000000000E+00  1.0000000000E+00 Bohr
              amu      1.32905430E+02  1.18710000E+02  7.99040000E+01
             ecut      3.60000000E+01 Hartree
           etotal     -3.2274851809E+01
            fcart      0.0000000000E+00  0.0000000000E+00  0.0000000000E+00
                       0.0000000000E+00  0.0000000000E+00  0.0000000000E+00
                       0.0000000000E+00  0.0000000000E+00  0.0000000000E+00
                       0.0000000000E+00  0.0000000000E+00  0.0000000000E+00
                       0.0000000000E+00  0.0000000000E+00  0.0000000000E+00
                       0.0000000000E+00  0.0000000000E+00  0.0000000000E+00
                       0.0000000000E+00  0.0000000000E+00  0.0000000000E+00
                       0.0000000000E+00  0.0000000000E+00  0.0000000000E+00
                       0.0000000000E+00  0.0000000000E+00  0.0000000000E+00
-          fftalg         512
           irdden           1
           irdwfk           1
           istwfk        1
              ixc     -116133
           kptopt           0
P           mkmem           1
P          mkqmem           1
P          mk1mem           1
            natom           9
            nband          46
           nbdbuf           4
            ngfft          80      80      80
             nkpt           1
            nstep        2000
             nsym          48
           ntypat           3
              occ      2.000000  2.000000  2.000000  2.000000  2.000000  2.000000
                       2.000000  2.000000  2.000000  2.000000  2.000000  2.000000
                       2.000000  2.000000  2.000000  2.000000  2.000000  2.000000
                       2.000000  2.000000  2.000000  2.000000  2.000000  2.000000
                       2.000000  2.000000  2.000000  2.000000  2.000000  2.000000
                       2.000000  2.000000  2.000000  2.000000  2.000000  2.000000
                       2.000000  0.000000  0.000000  0.000000  0.000000  0.000000
                       0.000000  0.000000  0.000000  0.000000
        optdriver           1
            prtwf          -1
            rfdir           1       1       1
           rfelfd           2
            rprim      1.2502190852E+01  0.0000000000E+00  7.2181432539E+00
                       4.1673969507E+00  1.1787178575E+01  7.2181432539E+00
                       0.0000000000E+00  0.0000000000E+00  1.4436286508E+01
          spgroup         225
           strten      0.0000000000E+00  0.0000000000E+00  0.0000000000E+00
                       0.0000000000E+00  0.0000000000E+00  0.0000000000E+00
           symrel      1  0  0   0  1  0   0  0  1      -1  0  0   0 -1  0   0  0 -1
                       0 -1  1   0 -1  0   1 -1  0       0  1 -1   0  1  0  -1  1  0
                      -1  0  0  -1  0  1  -1  1  0       1  0  0   1  0 -1   1 -1  0
                       0  1 -1   1  0 -1   0  0 -1       0 -1  1  -1  0  1   0  0  1
                      -1  0  0  -1  1  0  -1  0  1       1  0  0   1 -1  0   1  0 -1
                       0 -1  1   1 -1  0   0 -1  0       0  1 -1  -1  1  0   0  1  0
                       1  0  0   0  0  1   0  1  0      -1  0  0   0  0 -1   0 -1  0
                       0  1 -1   0  0 -1   1  0 -1       0 -1  1   0  0  1  -1  0  1
                      -1  0  1  -1  1  0  -1  0  0       1  0 -1   1 -1  0   1  0  0
                       0 -1  0   1 -1  0   0 -1  1       0  1  0  -1  1  0   0  1 -1
                       1  0 -1   0  0 -1   0  1 -1      -1  0  1   0  0  1   0 -1  1
                       0  1  0   0  0  1   1  0  0       0 -1  0   0  0 -1  -1  0  0
                       1  0 -1   0  1 -1   0  0 -1      -1  0  1   0 -1  1   0  0  1
                       0 -1  0   0 -1  1   1 -1  0       0  1  0   0  1 -1  -1  1  0
                      -1  0  1  -1  0  0  -1  1  0       1  0 -1   1  0  0   1 -1  0
                       0  1  0   1  0  0   0  0  1       0 -1  0  -1  0  0   0  0 -1
                       0  0 -1   0  1 -1   1  0 -1       0  0  1   0 -1  1  -1  0  1
                       1 -1  0   0 -1  1   0 -1  0      -1  1  0   0  1 -1   0  1  0
                       0  0  1   1  0  0   0  1  0       0  0 -1  -1  0  0   0 -1  0
                      -1  1  0  -1  0  0  -1  0  1       1 -1  0   1  0  0   1  0 -1
                       0  0  1   0  1  0   1  0  0       0  0 -1   0 -1  0  -1  0  0
                       1 -1  0   0 -1  0   0 -1  1      -1  1  0   0  1  0   0  1 -1
                       0  0 -1   1  0 -1   0  1 -1       0  0  1  -1  0  1   0 -1  1
                      -1  1  0  -1  0  1  -1  0  0       1 -1  0   1  0 -1   1  0  0
           tolwfr      1.00000000E-20
            typat      1  1  2  3  3  3  3  3  3
           useylm           1
           xangst      6.6158744564E+00  4.6781296916E+00  1.1459030695E+01
                       2.2052914855E+00  1.5593765639E+00  3.8196768983E+00
                       0.0000000000E+00  0.0000000000E+00  0.0000000000E+00
                       2.1435168604E+00  1.5156953075E+00  7.6393537966E+00
                       6.6776490815E+00  4.7218109479E+00  7.6393537966E+00
                       3.2770499156E+00  4.7218109479E+00  9.6026906404E+00
                       5.5441160262E+00  1.5156953075E+00  9.6026906404E+00
                       5.5441160262E+00  1.5156953075E+00  5.6760169528E+00
                       3.2770499156E+00  4.7218109479E+00  5.6760169528E+00
            xcart      1.2502190852E+01  8.8403839312E+00  2.1654429762E+01
                       4.1673969507E+00  2.9467946437E+00  7.2181432539E+00
                       0.0000000000E+00  0.0000000000E+00  0.0000000000E+00
                       4.0506598273E+00  2.8642490322E+00  1.4436286508E+01
                       1.2618927975E+01  8.9229295427E+00  1.4436286508E+01
                       6.1927268644E+00  8.9229295427E+00  1.8146455449E+01
                       1.0476860938E+01  2.8642490322E+00  1.8146455449E+01
                       1.0476860938E+01  2.8642490322E+00  1.0726117566E+01
                       6.1927268644E+00  8.9229295427E+00  1.0726117566E+01
             xred      7.5000000000E-01  7.5000000000E-01  7.5000000000E-01
                       2.5000000000E-01  2.5000000000E-01  2.5000000000E-01
                       0.0000000000E+00  0.0000000000E+00  0.0000000000E+00
                       2.4299700000E-01  2.4299700000E-01  7.5700300000E-01
                       7.5700300000E-01  7.5700300000E-01  2.4299700000E-01
                       2.4299700000E-01  7.5700300000E-01  7.5700300000E-01
                       7.5700300000E-01  2.4299700000E-01  7.5700300000E-01
                       7.5700300000E-01  2.4299700000E-01  2.4299700000E-01
                       2.4299700000E-01  7.5700300000E-01  2.4299700000E-01
            znucl       55.00000   50.00000   35.00000

- Timing analysis has been suppressed with timopt=0

 Suggested references for the acknowledgment of ABINIT usage.

 Calculation completed.
.Delivered   6 WARNINGs and   5 COMMENTs to log file.