.Version 9.5.2 of ABINIT

 ABINIT is a project of the Universite Catholique de Louvain,
 Corning Inc. and other collaborators, see ~abinit/doc/developers/contributors.txt .
 acknowledgments of the ABINIT effort.

.Starting date : Tue 25 May 2021.
- ( at 11h17 )

- input  file    -> /scratch/users/j/a/jabreu/flow_simple_10atoms/flow/w505/t1/run.abi
- output file    -> /scratch/users/j/a/jabreu/flow_simple_10atoms/flow/w505/t1/run.abo
- root for input  files -> /scratch/users/j/a/jabreu/flow_simple_10atoms/flow/w505/t1/indata/in
- root for output files -> /scratch/users/j/a/jabreu/flow_simple_10atoms/flow/w505/t1/outdata/out

 Symmetries : space group Ib a m (# 72); Bravais oI (body-center ortho.)
     intxc =       0      iscf =       7    lmnmax =      18     lnmax =       6
     mgfft =      96  mpssoang =       3    mqgrid =    3523     natom =      10
  nloc_mem =       1    nspden =       1   nspinor =       1    nsppol =       1
      nsym =       8    n1xccc =    2501    ntypat =       3    occopt =       1
   xclevel =       2
-    mband =          61        mffmem =           1         mkmem =           2
-   mkqmem =           2        mk1mem =           2           mpw =       27812
      nfft =      884736          nkpt =           2
  Rough estimation (10% accuracy) of disk space for files :

------------- Echo of variables that govern the present computation ------------
-
- outvars: echo of selected default values
-   iomode0 =  0 , fftalg0 =512 , wfoptalg0 =  0
-
- outvars: echo of global parameters not present in the input file
-  max_nthreads =    0
-
 -outvars: echo values of preprocessed input variables --------
            acell      1.0000000000E+00  1.0000000000E+00  1.0000000000E+00 Bohr
              amu      8.54678000E+01  2.80855000E+01  7.49215900E+01
             ecut      4.20000000E+01 Hartree
-          fftalg         512
           irdden           1
           irdwfk           1
              ixc     -116133
              kpt      5.00000000E-01  5.00000000E-01 -5.00000000E-01
                      -2.70092559E-01  2.70092559E-01  2.70092559E-01
           kptopt           0
P           mkmem           2
P          mkqmem           2
P          mk1mem           2
            natom          10
            nband          61
           nbdbuf           4
            ngfft          96      96      96
             nkpt           2
            nstep        2000
             nsym           8
           ntypat           3
              occ      2.000000  2.000000  2.000000  2.000000  2.000000  2.000000
                       2.000000  2.000000  2.000000  2.000000  2.000000  2.000000
                       2.000000  2.000000  2.000000  2.000000  2.000000  2.000000
                       2.000000  2.000000  2.000000  2.000000  2.000000  2.000000
                       2.000000  2.000000  2.000000  2.000000  2.000000  2.000000
                       2.000000  2.000000  2.000000  2.000000  2.000000  2.000000
                       2.000000  2.000000  2.000000  2.000000  2.000000  2.000000
                       2.000000  2.000000  2.000000  2.000000  2.000000  2.000000
                       2.000000  2.000000  2.000000  2.000000  0.000000  0.000000
                       0.000000  0.000000  0.000000  0.000000  0.000000  0.000000
                       0.000000
        optdriver           1
            prtwf          -1
            rfdir           1       1       1
           rfelfd           2
            rprim      1.2314503809E+01  0.0000000000E+00 -9.9798803559E+00
                      -2.1825830733E+00  1.0927502026E+01 -1.1272579411E+01
                       0.0000000000E+00  0.0000000000E+00  1.5850710267E+01
          spgroup          72
           symrel      1  0  0   0  1  0   0  0  1      -1  0  0   0 -1  0   0  0 -1
                       0  0  1  -1 -1 -1   1  0  0       0  0 -1   1  1  1  -1  0  0
                      -1 -1 -1   0  0  1   0  1  0       1  1  1   0  0 -1   0 -1  0
                       0  1  0   1  0  0  -1 -1 -1       0 -1  0  -1  0  0   1  1  1
            tnons      0.0000000  0.0000000  0.0000000     0.0000000  0.0000000 -0.0000000
                       0.0000000  0.5000000  0.5000000    -0.0000000  0.5000000  0.5000000
                       0.0000000  0.0000000 -0.0000000     0.0000000 -0.0000000 -0.0000000
                      -0.0000000  0.5000000  0.5000000     0.0000000  0.5000000  0.5000000
           tolwfr      1.00000000E-20
            typat      1  1  1  1  2  2  3  3  3  3
           useylm           1
              wtk        0.50000    0.50000
           xangst      4.0903178782E+00  2.0596006539E+00 -2.9660208893E+00
                       1.2712636543E+00  3.7229843649E+00  1.0753816747E-01
                       6.2100848614E+00  8.3169185550E-01  9.7544430378E-01
                      -8.4850332896E-01  4.9508931633E+00 -3.8339270256E+00
                       2.9695340708E+00  1.4456462547E+00  2.1590153190E+00
                       2.3920474617E+00  4.3369387641E+00 -5.0174980409E+00
                       4.2534136023E+00  3.4572991593E+00 -6.2244212608E+00
                       1.1081679301E+00  2.3252858595E+00  3.3659385389E+00
                       2.7352511440E+00  5.6600664987E-01 -4.6989911857E-02
                       2.6263303885E+00  5.2165783689E+00 -2.8114928100E+00
            xcart      7.7295805862E+00  3.8920811790E+00 -5.6049671853E+00
                       2.4023401493E+00  7.0354208467E+00  2.0321768536E-01
                       1.1735359650E+01  1.5716698339E+00  1.8433225920E+00
                      -1.6034389146E+00  9.3558321918E+00 -7.2450720919E+00
                       5.6116061361E+00  2.7318755064E+00  4.0799476696E+00
                       4.5203145994E+00  8.1956265193E+00 -9.4816971695E+00
                       8.0377868383E+00  6.5333485705E+00 -1.1762451519E+01
                       2.0941338972E+00  4.3941534552E+00  6.3607020187E+00
                       5.1688755668E+00  1.0695975577E+00 -8.8798064418E-02
                       4.9630451687E+00  9.8579044680E+00 -5.3129514355E+00
             xred      6.9080800000E-01  3.5617300000E-01  3.3463500000E-01
                       3.0919200000E-01  6.4382700000E-01  6.6536500000E-01
                       9.7846200000E-01  1.4382700000E-01  8.3463500000E-01
                       2.1538000000E-02  8.5617300000E-01  1.6536500000E-01
                       5.0000000000E-01  2.5000000000E-01  7.5000000000E-01
                       5.0000000000E-01  7.5000000000E-01  2.5000000000E-01
                       7.5867550000E-01  5.9788125000E-01  1.6079425000E-01
                       2.4132450000E-01  4.0211875000E-01  8.3920575000E-01
                       4.3708700000E-01  9.7881250000E-02  3.3920575000E-01
                       5.6291300000E-01  9.0211875000E-01  6.6079425000E-01
            znucl       37.00000   14.00000   33.00000

 chkinp: Checking input parameters for consistency.

== DATASET  1 ==================================================================
-   mpi_nproc: 1, omp_nthreads: -1 (-1 if OMP is not activated)

--- !DatasetInfo
iteration_state: {dtset: 1, }
dimensions: {natom: 10, nkpt: 2, mband: 61, nsppol: 1, nspinor: 1, nspden: 1, mpw: 27812, }
cutoff_energies: {ecut:  42.0, pawecutdg:  -1.0, }
electrons: {nelect:   1.04000000E+02, charge:   0.00000000E+00, occopt:   1.00000000E+00, tsmear:   1.00000000E-02, }
meta: {optdriver: 1, rfelfd: 2, }
...

 Real(R)+Recip(G) space primitive vectors, cartesian coordinates (Bohr,Bohr^-1):
 R(1)= 12.3145038  0.0000000 -9.9798804  G(1)=  0.0812051  0.0162193  0.0000000
 R(2)= -2.1825831 10.9275020-11.2725794  G(2)=  0.0000000  0.0915122  0.0000000
 R(3)=  0.0000000  0.0000000 15.8507103  G(3)=  0.0511281  0.0752929  0.0630887
 Unit cell volume ucvol=  2.1329788E+03 bohr^3
 Angles (23,13,12)=  1.35330343E+02  1.29021888E+02  7.00750416E+01 degrees

 getcut: wavevector=  0.0000  0.0000  0.0000  ngfft=  96  96  96
         ecut(hartree)=     42.000   => boxcut(ratio)=   2.07609

--- Pseudopotential description ------------------------------------------------
- pspini: atom type   1  psp file is /scratch/users/j/a/jabreu/pseudos/PBEsol/Rb.psp8
- pspatm: opening atomic psp file    /scratch/users/j/a/jabreu/pseudos/PBEsol/Rb.psp8
- Rb    ONCVPSP-3.3.0  r_core=   1.71227   1.75361   1.90633
- 37.00000   9.00000    180112                znucl, zion, pspdat
    8 -116133    2    4       600   0.00000   pspcod,pspxc,lmax,lloc,mmax,r2well
    5.99000000000000    7.00000000000000    0.00000000000000   rchrg,fchrg,qchrg
     nproj     2     2     2
     extension_switch     1
  pspatm : epsatm=   34.48400912
         --- l  ekb(1:nproj) -->
             0    8.196957   -0.477221
             1    3.231347   -0.378736
             2   -1.047201    0.996637
 pspatm: atomic psp has been read  and splines computed

- pspini: atom type   2  psp file is /scratch/users/j/a/jabreu/pseudos/PBEsol/Si.psp8
- pspatm: opening atomic psp file    /scratch/users/j/a/jabreu/pseudos/PBEsol/Si.psp8
- Si    ONCVPSP-3.3.0  r_core=   1.60303   1.72197   1.91712
- 14.00000   4.00000    180112                znucl, zion, pspdat
    8 -116133    2    4       600   0.00000   pspcod,pspxc,lmax,lloc,mmax,r2well
    5.99000000000000    4.00000000000000    0.00000000000000   rchrg,fchrg,qchrg
     nproj     2     2     2
     extension_switch     1
  pspatm : epsatm=    7.86468782
         --- l  ekb(1:nproj) -->
             0    5.384426    0.843824
             1    2.663259    0.615854
             2   -2.267219   -0.458043
 pspatm: atomic psp has been read  and splines computed

- pspini: atom type   3  psp file is /scratch/users/j/a/jabreu/pseudos/PBEsol/As.psp8
- pspatm: opening atomic psp file    /scratch/users/j/a/jabreu/pseudos/PBEsol/As.psp8
- As    ONCVPSP-3.3.0  r_core=   1.76603   1.70395   1.80867
- 33.00000  15.00000    180112                znucl, zion, pspdat
    8 -116133    2    4       600   0.00000   pspcod,pspxc,lmax,lloc,mmax,r2well
    5.99000000000000    5.00000000000000    0.00000000000000   rchrg,fchrg,qchrg
     nproj     2     2     2
     extension_switch     1
  pspatm : epsatm=   28.79155382
         --- l  ekb(1:nproj) -->
             0    8.270760    0.868950
             1    4.919053    0.756587
             2  -10.048665   -4.076802
 pspatm: atomic psp has been read  and splines computed

   2.79584892E+04                                ecore*ucvol(ha*bohr**3)

 ==>  initialize data related to q vector <==

 The list of irreducible perturbations for this q vector is:
    1)    idir= 1    ipert=  11
    2)    idir= 2    ipert=  11
    3)    idir= 3    ipert=  11

 Perturbation wavevector (in red.coord.)   0.000000  0.000000  0.000000
 Perturbation : derivative vs k along direction   1

 dfpt_looppert : COMMENT -
  In a d/dk calculation, iscf is set to -3 automatically.
 The set of symmetries contains only one element for this perturbation.
 symkpt : not enough symmetry to change the number of k points.

 Initialisation of the first-order wave-functions :
  ireadwf=   0

--- !BeginCycle
iteration_state: {dtset: 1, }
[...]
 ETOT 20  -54.547222699266      1.421E-14 1.115E-19 0.000E+00
 ETOT 21  -54.547222699266     -1.421E-14 9.851E-21 0.000E+00

 At SCF step   21   max residual=  9.85E-21 < tolwfr=  1.00E-20 =>converged.

 ----iterations are completed or convergence reached----

 dfpt_looppert: DFPT cycle converged with prtwf=-1. Will skip output of the 1st-order WFK file.
 dfpt_looppert : ek2=    5.6309025284E+01
          f-sum rule ratio=    1.0299635823E+00
 prteigrs : about to open file /scratch/users/j/a/jabreu/flow_simple_10atoms/flow/w505/t1/tmpdata/tmp_1WF1_EIG
 Expectation of eigenvalue derivatives (hartree) for nkpt=   2  k points:
  (in case of degenerate eigenvalues, averaged derivative)
 kpt#   1, nband= 61, wtk=  0.50000, kpt=  0.5000  0.5000 -0.5000 (reduced coord)
   0.00000   -0.00000   -0.00000    0.00000    0.00000   -0.00000   -0.00000   -0.00000
   0.00000    0.00000    0.00000    0.00000    0.00000    0.00000   -0.00000    0.00000
  -0.00000   -0.00000    0.00000   -0.00000   -0.00000    0.00000   -0.00000   -0.00000
   0.00000    0.00000   -0.00000   -0.00000    0.00000   -0.00000    0.00000   -0.00000
   0.00000    0.00000   -0.00000    0.00000    0.00000    0.00000    0.00000    0.00000
  -0.00000    0.00000   -0.00000   -0.00000   -0.00000   -0.00000    0.00000    0.00000
   0.00000    0.00000    0.00000    0.00000   -0.00000   -0.00000    0.00000   -0.00000
   0.00000   -0.00000   -0.00000    0.00000    0.00000
 prteigrs : prtvol=0 or 1, do not print more k-points.

 Eight components of 2nd-order total energy (hartree) are
 1,2,3: 0th-order hamiltonian combined with 1st-order wavefunctions
     kin0=   6.65874646E+01 eigvalue=   8.68752238E+00  local=  -3.00795821E+01
 4,5,6: 1st-order hamiltonian combined with 1st and 0th-order wfs
     kin1=  -5.79962454E+01  Hartree=   0.00000000E+00     xc=   0.00000000E+00
 7,8,9: eventually, occupation + non-local contributions
    edocc=   5.40342589E+00     enl0=   3.94839194E+00   enl1=  -5.10982000E+01
 1-9 gives the relaxation energy (to be shifted if some occ is /=2.0)
   erelax=  -5.45472227E+01
  No Ewald or frozen-wf contrib.: the relaxation energy is the total one
 2DEtotal=   -0.5454722270E+02 Ha. Also 2DEtotal=   -0.148430541537E+04 eV
    (  non-var. 2DEtotal :   -5.4547222699E+01 Ha)

 Perturbation wavevector (in red.coord.)   0.000000  0.000000  0.000000
 Perturbation : derivative vs k along direction   2
 The set of symmetries contains only one element for this perturbation.
 symkpt : not enough symmetry to change the number of k points.

[...]

 Perturbation wavevector (in red.coord.)   0.000000  0.000000  0.000000
 Perturbation : derivative vs k along direction   3
 The set of symmetries contains only one element for this perturbation.
 symkpt : not enough symmetry to change the number of k points.

 Initialisation of the first-order wave-functions :
  ireadwf=   0

--- !BeginCycle
iteration_state: {dtset: 1, }
solver: {iscf: 7, nstep: 2000, nline: 4, wfoptalg: 0, }
tolerances: {tolwfr: 1.00E-20, }
...

     iter   2DEtotal(Ha)        deltaE(Ha) residm    vres2
-ETOT  1  -97.633284705873     -9.763E+01 1.615E-01 0.000E+00
 ETOT  2  -97.749146112218     -1.159E-01 1.041E-02 0.000E+00
 ETOT  3  -97.749641080653     -4.950E-04 8.240E-04 0.000E+00
 ETOT  4  -97.749646498523     -5.418E-06 1.284E-04 0.000E+00
 ETOT  5  -97.749646572446     -7.392E-08 1.255E-05 0.000E+00
 ETOT  6  -97.749646573578     -1.132E-09 1.628E-06 0.000E+00
 ETOT  7  -97.749646573596     -1.839E-11 2.114E-07 0.000E+00
 ETOT  8  -97.749646573596     -2.842E-13 2.702E-08 0.000E+00
 ETOT  9  -97.749646573596     -2.842E-14 3.823E-09 0.000E+00
 ETOT 10  -97.749646573596     -4.263E-14 5.038E-10 0.000E+00
 ETOT 11  -97.749646573596      4.263E-14 7.211E-11 0.000E+00
 ETOT 12  -97.749646573596      0.000E+00 9.688E-12 0.000E+00
 ETOT 13  -97.749646573596     -2.842E-14 1.400E-12 0.000E+00
 ETOT 14  -97.749646573596      0.000E+00 1.903E-13 0.000E+00
 ETOT 15  -97.749646573596      0.000E+00 2.771E-14 0.000E+00
 ETOT 16  -97.749646573596      4.263E-14 3.797E-15 0.000E+00
 ETOT 17  -97.749646573596     -4.263E-14 5.563E-16 0.000E+00
 ETOT 18  -97.749646573596      2.842E-14 7.661E-17 0.000E+00
 ETOT 19  -97.749646573596      0.000E+00 1.129E-17 0.000E+00
 ETOT 20  -97.749646573596      0.000E+00 1.560E-18 0.000E+00
 ETOT 21  -97.749646573596      0.000E+00 2.312E-19 0.000E+00
 ETOT 22  -97.749646573596     -2.842E-14 3.200E-20 0.000E+00
 ETOT 23  -97.749646573596      1.421E-14 9.792E-21 0.000E+00

 At SCF step   23   max residual=  9.79E-21 < tolwfr=  1.00E-20 =>converged.

 ----iterations are completed or convergence reached----

 dfpt_looppert: DFPT cycle converged with prtwf=-1. Will skip output of the 1st-order WFK file.
 dfpt_looppert : ek2=    1.0070006405E+02
          f-sum rule ratio=    1.0335057205E+00
 prteigrs : about to open file /scratch/users/j/a/jabreu/flow_simple_10atoms/flow/w505/t1/tmpdata/tmp_1WF1_EIG
 Expectation of eigenvalue derivatives (hartree) for nkpt=   2  k points:
  (in case of degenerate eigenvalues, averaged derivative)
 kpt#   1, nband= 61, wtk=  0.50000, kpt=  0.5000  0.5000 -0.5000 (reduced coord)
   0.00000    0.00000   -0.00000    0.00000   -0.00000   -0.00000   -0.00000   -0.00000
  -0.00000    0.00000    0.00000   -0.00000   -0.00000    0.00000    0.00000   -0.00000
  -0.00000   -0.00000    0.00000    0.00000   -0.00000    0.00000    0.00000    0.00000
   0.00000    0.00000    0.00000   -0.00000    0.00000   -0.00000    0.00000    0.00000
  -0.00000    0.00000    0.00000   -0.00000    0.00000    0.00000    0.00000    0.00000
  -0.00000    0.00000   -0.00000   -0.00000   -0.00000   -0.00000   -0.00000    0.00000
   0.00000    0.00000    0.00000   -0.00000   -0.00000    0.00000    0.00000    0.00000
  -0.00000   -0.00000    0.00000   -0.00000   -0.00000
 prteigrs : prtvol=0 or 1, do not print more k-points.

 Eight components of 2nd-order total energy (hartree) are
 1,2,3: 0th-order hamiltonian combined with 1st-order wavefunctions
     kin0=   1.11624328E+02 eigvalue=   1.60027494E+01  local=  -4.97517339E+01
 4,5,6: 1st-order hamiltonian combined with 1st and 0th-order wfs
     kin1=  -1.04074092E+02  Hartree=   0.00000000E+00     xc=   0.00000000E+00
 7,8,9: eventually, occupation + non-local contributions
    edocc=   1.25268782E+01     enl0=   7.34742497E+00   enl1=  -9.14252009E+01
 1-9 gives the relaxation energy (to be shifted if some occ is /=2.0)
   erelax=  -9.77496466E+01
  No Ewald or frozen-wf contrib.: the relaxation energy is the total one
 2DEtotal=   -0.9774964657E+02 Ha. Also 2DEtotal=   -0.265990315509E+04 eV
    (  non-var. 2DEtotal :   -9.7749646573E+01 Ha)

 CALCULATION OF EFFECTIVE MASSES
 NOTE : Additional infos (eff. mass eigenvalues, eigenvectors and, if degenerate, average mass) are available in stdout.

 K-point ( 0.500, 0.500,-0.500) | band =    52
 Effective mass tensor:
             -1.5934769291             -0.1415792557             -0.2443413516
             -0.1415792557             -0.5248066039              0.2969730550
             -0.2443413516              0.2969730550             -1.1974402713
 Effective mass tensor eigenvalues:
             -1.7099644899             -1.2336490896             -0.3721102247
 Angular average effective mass 1/(<1/m>)=  -0.7347922774
 Angular average effective mass for Frohlich model (<m**0.5>)**2=  -0.8463746232
 Effective masses along directions: (cart. coord. / red. coord. -> eff. mass)
    1:   1.000000  0.000000  0.000000 /   0.984654 -0.174517  0.000000 ->  -1.4530159464
    2:   0.000000  1.000000  0.000000 /   0.000000  1.000000  0.000000 ->  -0.4246748590
    3:   0.000000  0.000000  1.000000 /  -0.456510 -0.515642  0.725060 ->  -0.9617047465
    4:   0.577350  0.577350  0.577350 /   0.143936 -0.155837  0.977240 ->  -0.6934879532
    5:   0.000000  0.707107  0.707107 /  -0.532715 -0.018420  0.846094 ->  -0.4265836322
    6:   0.707107  0.000000  0.707107 /   0.111586 -0.643106  0.757604 ->  -1.5453593526
    7:   0.707107  0.707107  0.000000 /   0.815332  0.578993  0.000000 ->  -0.8243564094

 K-point (-0.270, 0.270, 0.270) | band =    53
 Effective mass tensor:
              0.8667979722              0.3270824275             -0.5525160950
              0.3270824275              0.7409002483             -0.6860749023
             -0.5525160950             -0.6860749023              1.7623280931
 Effective mass tensor eigenvalues:
              0.3881386099              0.6033896470              2.3784980567
 Angular average effective mass 1/(<1/m>)=   0.6445878907
 Angular average effective mass for Frohlich model (<m**0.5>)**2=   0.7339996554
 Effective masses along directions: (cart. coord. / red. coord. -> eff. mass)
    1:   1.000000  0.000000  0.000000 /   0.984654 -0.174517  0.000000 ->   0.6671070627
    2:   0.000000  1.000000  0.000000 /   0.000000  1.000000  0.000000 ->   0.4557290480
    3:   0.000000  0.000000  1.000000 /  -0.456510 -0.515642  0.725060 ->   1.0407555664
    4:   0.577350  0.577350  0.577350 /   0.143936 -0.155837  0.977240 ->   0.4921322737
    5:   0.000000  0.707107  0.707107 /  -0.532715 -0.018420  0.846094 ->   0.4309004287
    6:   0.707107  0.000000  0.707107 /   0.111586 -0.643106  0.757604 ->   0.6402219511
    7:   0.707107  0.707107  0.000000 /   0.815332  0.578993  0.000000 ->   0.6700844541

 END OF EFFECTIVE MASSES SECTION

 ---- first-order wavefunction calculations are completed ----

 Total localisation tensor (bohr^2) in cartesian coordinates
  WARNING : still subject to testing - especially symmetries.
      direction              matrix element
   alpha     beta       real part   imaginary part
     1        1       1.2058165997    0.0000000000
     1        2      -0.2706405206    0.0000000000
     1        3      -0.6542191986    0.0000000000
     2        1      -0.2706405206    0.0000000000
     2        2       1.3550113504    0.0000000000
     2        3      -1.3978009809    0.0000000000
     3        1      -0.6542191986    0.0000000000
     3        2      -1.3978009809    0.0000000000
     3        3       6.2004384184    0.0000000000

 respfn : d/dk was computed, but no 2DTE, so no DDB output.

== END DATASET(S) ==============================================================

 -outvars: echo values of variables after computation  --------
            acell      1.0000000000E+00  1.0000000000E+00  1.0000000000E+00 Bohr
              amu      8.54678000E+01  2.80855000E+01  7.49215900E+01
             ecut      4.20000000E+01 Hartree
           etotal     -9.7749646574E+01
            fcart      0.0000000000E+00  0.0000000000E+00  0.0000000000E+00
                       0.0000000000E+00  0.0000000000E+00  0.0000000000E+00
                       0.0000000000E+00  0.0000000000E+00  0.0000000000E+00
                       0.0000000000E+00  0.0000000000E+00  0.0000000000E+00
                       0.0000000000E+00  0.0000000000E+00  0.0000000000E+00
                       0.0000000000E+00  0.0000000000E+00  0.0000000000E+00
                       0.0000000000E+00  0.0000000000E+00  0.0000000000E+00
                       0.0000000000E+00  0.0000000000E+00  0.0000000000E+00
                       0.0000000000E+00  0.0000000000E+00  0.0000000000E+00
                       0.0000000000E+00  0.0000000000E+00  0.0000000000E+00
-          fftalg         512
           irdden           1
           irdwfk           1
              ixc     -116133
              kpt      5.00000000E-01  5.00000000E-01 -5.00000000E-01
                      -2.70092559E-01  2.70092559E-01  2.70092559E-01
           kptopt           0
P           mkmem           2
P          mkqmem           2
P          mk1mem           2
            natom          10
            nband          61
           nbdbuf           4
            ngfft          96      96      96
             nkpt           2
            nstep        2000
             nsym           8
           ntypat           3
              occ      2.000000  2.000000  2.000000  2.000000  2.000000  2.000000
                       2.000000  2.000000  2.000000  2.000000  2.000000  2.000000
                       2.000000  2.000000  2.000000  2.000000  2.000000  2.000000
                       2.000000  2.000000  2.000000  2.000000  2.000000  2.000000
                       2.000000  2.000000  2.000000  2.000000  2.000000  2.000000
                       2.000000  2.000000  2.000000  2.000000  2.000000  2.000000
                       2.000000  2.000000  2.000000  2.000000  2.000000  2.000000
                       2.000000  2.000000  2.000000  2.000000  2.000000  2.000000
                       2.000000  2.000000  2.000000  2.000000  0.000000  0.000000
                       0.000000  0.000000  0.000000  0.000000  0.000000  0.000000
                       0.000000
        optdriver           1
            prtwf          -1
            rfdir           1       1       1
           rfelfd           2
            rprim      1.2314503809E+01  0.0000000000E+00 -9.9798803559E+00
                      -2.1825830733E+00  1.0927502026E+01 -1.1272579411E+01
                       0.0000000000E+00  0.0000000000E+00  1.5850710267E+01
          spgroup          72
           strten      0.0000000000E+00  0.0000000000E+00  0.0000000000E+00
                       0.0000000000E+00  0.0000000000E+00  0.0000000000E+00
           symrel      1  0  0   0  1  0   0  0  1      -1  0  0   0 -1  0   0  0 -1
                       0  0  1  -1 -1 -1   1  0  0       0  0 -1   1  1  1  -1  0  0
                      -1 -1 -1   0  0  1   0  1  0       1  1  1   0  0 -1   0 -1  0
                       0  1  0   1  0  0  -1 -1 -1       0 -1  0  -1  0  0   1  1  1
            tnons      0.0000000  0.0000000  0.0000000     0.0000000  0.0000000 -0.0000000
                       0.0000000  0.5000000  0.5000000    -0.0000000  0.5000000  0.5000000
                       0.0000000  0.0000000 -0.0000000     0.0000000 -0.0000000 -0.0000000
                      -0.0000000  0.5000000  0.5000000     0.0000000  0.5000000  0.5000000
           tolwfr      1.00000000E-20
            typat      1  1  1  1  2  2  3  3  3  3
           useylm           1
              wtk        0.50000    0.50000
           xangst      4.0903178782E+00  2.0596006539E+00 -2.9660208893E+00
                       1.2712636543E+00  3.7229843649E+00  1.0753816747E-01
                       6.2100848614E+00  8.3169185550E-01  9.7544430378E-01
                      -8.4850332896E-01  4.9508931633E+00 -3.8339270256E+00
                       2.9695340708E+00  1.4456462547E+00  2.1590153190E+00
                       2.3920474617E+00  4.3369387641E+00 -5.0174980409E+00
                       4.2534136023E+00  3.4572991593E+00 -6.2244212608E+00
                       1.1081679301E+00  2.3252858595E+00  3.3659385389E+00
                       2.7352511440E+00  5.6600664987E-01 -4.6989911857E-02
                       2.6263303885E+00  5.2165783689E+00 -2.8114928100E+00
            xcart      7.7295805862E+00  3.8920811790E+00 -5.6049671853E+00
                       2.4023401493E+00  7.0354208467E+00  2.0321768536E-01
                       1.1735359650E+01  1.5716698339E+00  1.8433225920E+00
                      -1.6034389146E+00  9.3558321918E+00 -7.2450720919E+00
                       5.6116061361E+00  2.7318755064E+00  4.0799476696E+00
                       4.5203145994E+00  8.1956265193E+00 -9.4816971695E+00
                       8.0377868383E+00  6.5333485705E+00 -1.1762451519E+01
                       2.0941338972E+00  4.3941534552E+00  6.3607020187E+00
                       5.1688755668E+00  1.0695975577E+00 -8.8798064418E-02
                       4.9630451687E+00  9.8579044680E+00 -5.3129514355E+00
             xred      6.9080800000E-01  3.5617300000E-01  3.3463500000E-01
                       3.0919200000E-01  6.4382700000E-01  6.6536500000E-01
                       9.7846200000E-01  1.4382700000E-01  8.3463500000E-01
                       2.1538000000E-02  8.5617300000E-01  1.6536500000E-01
                       5.0000000000E-01  2.5000000000E-01  7.5000000000E-01
                       5.0000000000E-01  7.5000000000E-01  2.5000000000E-01
                       7.5867550000E-01  5.9788125000E-01  1.6079425000E-01
                       2.4132450000E-01  4.0211875000E-01  8.3920575000E-01
                       4.3708700000E-01  9.7881250000E-02  3.3920575000E-01
                       5.6291300000E-01  9.0211875000E-01  6.6079425000E-01
            znucl       37.00000   14.00000   33.00000

- Timing analysis has been suppressed with timopt=0

 Suggested references for the acknowledgment of ABINIT usage.

 Calculation completed.
.Delivered   2 WARNINGs and   7 COMMENTs to log file.