.Version 9.5.1 of ABINIT

 ABINIT is a project of the Universite Catholique de Louvain,
 Corning Inc. and other collaborators, see ~abinit/doc/developers/contributors.txt .
 acknowledgments of the ABINIT effort.

.Starting date : Sat  1 May 2021.
- ( at 05h10 )

- input  file    -> /scratch/users/j/a/jabreu/flow_simple_6atoms/flow/w155/t1/run.abi
- output file    -> /scratch/users/j/a/jabreu/flow_simple_6atoms/flow/w155/t1/run.abo
- root for input  files -> /scratch/users/j/a/jabreu/flow_simple_6atoms/flow/w155/t1/indata/in
- root for output files -> /scratch/users/j/a/jabreu/flow_simple_6atoms/flow/w155/t1/outdata/out

 Symmetries : space group P2_1/m (# 11); Bravais mP (primitive monocl.)
     intxc =       0      iscf =       7    lmnmax =      18     lnmax =       6
     mgfft =      72  mpssoang =       3    mqgrid =    3268     natom =       6
  nloc_mem =       1    nspden =       1   nspinor =       1    nsppol =       1
      nsym =       4    n1xccc =    2501    ntypat =       3    occopt =       1
   xclevel =       2
-    mband =          25        mffmem =           1         mkmem =           1
-   mkqmem =           1        mk1mem =           1           mpw =        9373
      nfft =      174960          nkpt =           1
  Rough estimation (10% accuracy) of disk space for files :

------------- Echo of variables that govern the present computation ------------
-
- outvars: echo of selected default values
-   iomode0 =  0 , fftalg0 =512 , wfoptalg0 =  0
-
- outvars: echo of global parameters not present in the input file
-  max_nthreads =    0
-
 -outvars: echo values of preprocessed input variables --------
            acell      1.0000000000E+00  1.0000000000E+00  1.0000000000E+00 Bohr
              amu      2.29897680E+01  1.00794000E+00  3.20660000E+01
             ecut      4.40000000E+01 Hartree
-          fftalg         512
           irdden           1
           irdwfk           1
           istwfk        1
              ixc     -116133
           kptopt           0
P           mkmem           1
P          mkqmem           1
P          mk1mem           1
            natom           6
            nband          25
           nbdbuf           4
            ngfft          54      45      72
             nkpt           1
            nstep        1000
             nsym           4
           ntypat           3
              occ      2.000000  2.000000  2.000000  2.000000  2.000000  2.000000
                       2.000000  2.000000  2.000000  2.000000  2.000000  2.000000
                       2.000000  2.000000  2.000000  2.000000  0.000000  0.000000
                       0.000000  0.000000  0.000000  0.000000  0.000000  0.000000
                       0.000000
        optdriver           1
            prtwf          -1
            rfdir           1       1       1
           rfelfd           2
            rprim      8.5168186141E+00  0.0000000000E+00  0.0000000000E+00
                       0.0000000000E+00  7.1091809859E+00  1.1942388514E+00
                       0.0000000000E+00  0.0000000000E+00  1.1095155232E+01
          spgroup          11
           symrel      1  0  0   0  1  0   0  0  1      -1  0  0   0 -1  0   0  0 -1
                       1  0  0   0 -1  0   0  0 -1      -1  0  0   0  1  0   0  0  1
            tnons      0.0000000  0.0000000  0.0000000     0.0000000  0.0000000  0.0000000
                       0.5000000  0.0000000  0.0000000     0.5000000  0.0000000  0.0000000
           tolwfr      1.00000000E-20
            typat      1  1  2  2  3  3
           useylm           1
           xangst      1.1267265751E+00  2.8679131242E+00  4.9894842042E+00
                       3.3801797252E+00  8.9410342525E-01  1.5137830519E+00
                       1.1267265751E+00  1.6220348175E+00  2.5701892735E+00
                       3.3801797252E+00  2.1399817320E+00  3.9330779826E+00
                       1.1267265751E+00  2.8465373462E+00  1.9732748330E+00
                       3.3801797252E+00  9.1547920328E-01  4.5299924231E+00
            xcart      2.1292046535E+00  5.4195703777E+00  9.4287586902E+00
                       6.3876139606E+00  1.6896106082E+00  2.8606353928E+00
                       2.1292046535E+00  3.0652015831E+00  4.8569538367E+00
                       6.3876139606E+00  4.0439794028E+00  7.4324402463E+00
                       2.1292046535E+00  5.3791760113E+00  3.7289490193E+00
                       6.3876139606E+00  1.7300049746E+00  8.5604450637E+00
             xred      2.5000000000E-01  7.6233400000E-01  7.6775400000E-01
                       7.5000000000E-01  2.3766600000E-01  2.3224600000E-01
                       2.5000000000E-01  4.3116100000E-01  3.9134600000E-01
                       7.5000000000E-01  5.6883900000E-01  6.0865400000E-01
                       2.5000000000E-01  7.5665200000E-01  2.5464500000E-01
                       7.5000000000E-01  2.4334800000E-01  7.4535500000E-01
            znucl       11.00000    1.00000   16.00000

 chkinp: Checking input parameters for consistency.

== DATASET  1 ==================================================================
-   mpi_nproc: 1, omp_nthreads: -1 (-1 if OMP is not activated)

--- !DatasetInfo
iteration_state: {dtset: 1, }
dimensions: {natom: 6, nkpt: 1, mband: 25, nsppol: 1, nspinor: 1, nspden: 1, mpw: 9373, }
cutoff_energies: {ecut:  44.0, pawecutdg:  -1.0, }
electrons: {nelect:   3.20000000E+01, charge:   0.00000000E+00, occopt:   1.00000000E+00, tsmear:   1.00000000E-02, }
meta: {optdriver: 1, rfelfd: 2, }
...

 Real(R)+Recip(G) space primitive vectors, cartesian coordinates (Bohr,Bohr^-1):
 R(1)=  8.5168186  0.0000000  0.0000000  G(1)=  0.1174147  0.0000000  0.0000000
 R(2)=  0.0000000  7.1091810  1.1942389  G(2)=  0.0000000  0.1406632  0.0000000
 R(3)=  0.0000000  0.0000000 11.0951552  G(3)=  0.0000000 -0.0151404  0.0901294
 Unit cell volume ucvol=  6.7178508E+02 bohr^3
 Angles (23,13,12)=  8.04641759E+01  9.00000000E+01  9.00000000E+01 degrees

 getcut: wavevector=  0.0000  0.0000  0.0000  ngfft=  54  45  72
         ecut(hartree)=     44.000   => boxcut(ratio)=   2.04422

--- Pseudopotential description ------------------------------------------------
- pspini: atom type   1  psp file is /scratch/users/j/a/jabreu/pseudos/PBEsol/Na.psp8
- pspatm: opening atomic psp file    /scratch/users/j/a/jabreu/pseudos/PBEsol/Na.psp8
- Na    ONCVPSP-3.3.0  r_core=   1.20708   1.55069
- 11.00000   9.00000    180112                znucl, zion, pspdat
    8 -116133    1    4       400   0.00000   pspcod,pspxc,lmax,lloc,mmax,r2well
    3.99000000000000    0.00000000000000    0.00000000000000   rchrg,fchrg,qchrg
     nproj     2     2
     extension_switch     1
  pspatm : epsatm=    9.32878306
         --- l  ekb(1:nproj) -->
             0    2.657905   -0.678300
             1   -6.761319   -2.404728
 pspatm: atomic psp has been read  and splines computed

- pspini: atom type   2  psp file is /scratch/users/j/a/jabreu/pseudos/PBEsol/H.psp8
- pspatm: opening atomic psp file    /scratch/users/j/a/jabreu/pseudos/PBEsol/H.psp8
- H     ONCVPSP-3.3.0  r_core=   1.00957   0.70586
-  1.00000   1.00000    180112                znucl, zion, pspdat
    8 -116133    1    4       300   0.00000   pspcod,pspxc,lmax,lloc,mmax,r2well
    2.99000000000000    0.00000000000000    0.00000000000000   rchrg,fchrg,qchrg
     nproj     2     1
     extension_switch     1
  pspatm : epsatm=    0.35627032
         --- l  ekb(1:nproj) -->
             0   -1.674911   -0.523609
             1   -0.494138
 pspatm: atomic psp has been read  and splines computed

- pspini: atom type   3  psp file is /scratch/users/j/a/jabreu/pseudos/PBEsol/S.psp8
- pspatm: opening atomic psp file    /scratch/users/j/a/jabreu/pseudos/PBEsol/S.psp8
- S     ONCVPSP-3.3.0  r_core=   1.45376   1.45376   1.61851
- 16.00000   6.00000    180112                znucl, zion, pspdat
    8 -116133    2    4       600   0.00000   pspcod,pspxc,lmax,lloc,mmax,r2well
    5.99000000000000    6.00000000000000    0.00000000000000   rchrg,fchrg,qchrg
     nproj     2     2     2
     extension_switch     1
  pspatm : epsatm=    8.71840985
         --- l  ekb(1:nproj) -->
             0    6.834532    0.579453
             1    3.282851    0.896984
             2   -3.496974   -0.974265
 pspatm: atomic psp has been read  and splines computed

   1.17782165E+03                                ecore*ucvol(ha*bohr**3)

-inwffil : will read wavefunctions from disk file /scratch/users/j/a/jabreu/flow_simple_6atoms/flow/w155/t1/indata/in_WFK

 ==>  initialize data related to q vector <==

 The list of irreducible perturbations for this q vector is:
    1)    idir= 1    ipert=   7
    2)    idir= 2    ipert=   7
    3)    idir= 3    ipert=   7

 Perturbation wavevector (in red.coord.)   0.000000  0.000000  0.000000
 Perturbation : derivative vs k along direction   1

 dfpt_looppert : COMMENT -
  In a d/dk calculation, iscf is set to -3 automatically.
 The set of symmetries contains only one element for this perturbation.
 symkpt : not enough symmetry to change the number of k points.

[...]

 Initialisation of the first-order wave-functions :
  ireadwf=   0

--- !BeginCycle
iteration_state: {dtset: 1, }
solver: {iscf: 7, nstep: 1000, nline: 4, wfoptalg: 0, }
tolerances: {tolwfr: 1.00E-20, }
...

     iter   2DEtotal(Ha)        deltaE(Ha) residm    vres2
-ETOT  1  -23.316142617605     -2.332E+01 1.790E-02 0.000E+00
 ETOT  2  -23.321317783693     -5.175E-03 5.905E-05 0.000E+00
 ETOT  3  -23.321322217140     -4.433E-06 3.632E-07 0.000E+00
 ETOT  4  -23.321322225745     -8.605E-09 1.552E-09 0.000E+00
 ETOT  5  -23.321322225766     -2.120E-11 1.254E-11 0.000E+00
 ETOT  6  -23.321322225766      2.842E-14 6.041E-14 0.000E+00
 ETOT  7  -23.321322225766     -3.553E-14 4.960E-16 0.000E+00
 ETOT  8  -23.321322225766      3.553E-15 2.551E-18 0.000E+00
 ETOT  9  -23.321322225766     -7.105E-15 2.441E-20 0.000E+00
 ETOT 10  -23.321322225766      1.066E-14 9.701E-21 0.000E+00

 At SCF step   10   max residual=  9.70E-21 < tolwfr=  1.00E-20 =>converged.

 ----iterations are completed or convergence reached----

 dfpt_looppert: DFPT cycle converged with prtwf=-1. Will skip output of the 1st-order WFK file.
 dfpt_looppert : ek2=    3.4832521567E+01
          f-sum rule ratio=    1.2759656315E+00
 prteigrs : about to open file /scratch/users/j/a/jabreu/flow_simple_6atoms/flow/w155/t1/tmpdata/tmp_1WF1_EIG
 Expectation of eigenvalue derivatives (hartree) for nkpt=   1  k points:
  (in case of degenerate eigenvalues, averaged derivative)
 kpt#   1, nband= 25, wtk=  1.00000, kpt=  0.0000  0.0000  0.0000 (reduced coord)
  -0.00000   -0.00000    0.00000   -0.00000    0.00000    0.00000   -0.00000    0.00000
   0.00000   -0.00000   -0.00000   -0.00000   -0.00000   -0.00000    0.00000   -0.00000
   0.00000   -0.00000   -0.00000    0.00000    0.00000    0.00000   -0.00000   -0.00003
  -0.00068

 Eight components of 2nd-order total energy (hartree) are
 1,2,3: 0th-order hamiltonian combined with 1st-order wavefunctions
     kin0=   1.81760313E+01 eigvalue=   2.54755213E+00  local=  -7.18313969E+00
 4,5,6: 1st-order hamiltonian combined with 1st and 0th-order wfs
     kin1=  -4.44451004E+01  Hartree=   0.00000000E+00     xc=   0.00000000E+00
 7,8,9: eventually, occupation + non-local contributions
    edocc=   9.66866454E+00     enl0=   1.12213965E-01   enl1=  -2.19754407E+00
 1-9 gives the relaxation energy (to be shifted if some occ is /=2.0)
   erelax=  -2.33213222E+01
  No Ewald or frozen-wf contrib.: the relaxation energy is the total one
 2DEtotal=   -0.2332132223E+02 Ha. Also 2DEtotal=   -0.634605451208E+03 eV
    (  non-var. 2DEtotal :   -2.3321322226E+01 Ha)

 Perturbation wavevector (in red.coord.)   0.000000  0.000000  0.000000
 Perturbation : derivative vs k along direction   2
 The set of symmetries contains only one element for this perturbation.
 symkpt : not enough symmetry to change the number of k points.

[...]

 Perturbation wavevector (in red.coord.)   0.000000  0.000000  0.000000
 Perturbation : derivative vs k along direction   3
 The set of symmetries contains only one element for this perturbation.
 symkpt : not enough symmetry to change the number of k points.

-inwffil : will read wavefunctions from disk file /scratch/users/j/a/jabreu/flow_simple_6atoms/flow/w155/t1/indata/in_WFK

 Initialisation of the first-order wave-functions :
  ireadwf=   0

--- !BeginCycle
iteration_state: {dtset: 1, }
solver: {iscf: 7, nstep: 1000, nline: 4, wfoptalg: 0, }
tolerances: {tolwfr: 1.00E-20, }
...

     iter   2DEtotal(Ha)        deltaE(Ha) residm    vres2
-ETOT  1  -12.762943879091     -1.276E+01 1.235E-02 0.000E+00
 ETOT  2  -12.766497706478     -3.554E-03 3.397E-05 0.000E+00
 ETOT  3  -12.766500976622     -3.270E-06 2.291E-07 0.000E+00
 ETOT  4  -12.766500983138     -6.516E-09 9.516E-10 0.000E+00
 ETOT  5  -12.766500983154     -1.674E-11 8.048E-12 0.000E+00
 ETOT  6  -12.766500983155     -5.151E-14 3.517E-14 0.000E+00
 ETOT  7  -12.766500983155      2.309E-14 3.304E-16 0.000E+00
 ETOT  8  -12.766500983155      1.421E-14 1.508E-18 0.000E+00
 ETOT  9  -12.766500983155     -2.132E-14 1.597E-20 0.000E+00
 ETOT 10  -12.766500983155      1.776E-15 9.650E-21 0.000E+00

 At SCF step   10   max residual=  9.65E-21 < tolwfr=  1.00E-20 =>converged.

 ----iterations are completed or convergence reached----

 dfpt_looppert: DFPT cycle converged with prtwf=-1. Will skip output of the 1st-order WFK file.
 dfpt_looppert : ek2=    2.1103700489E+01
          f-sum rule ratio=    1.1391531208E+00
 prteigrs : about to open file /scratch/users/j/a/jabreu/flow_simple_6atoms/flow/w155/t1/tmpdata/tmp_1WF1_EIG
 Expectation of eigenvalue derivatives (hartree) for nkpt=   1  k points:
  (in case of degenerate eigenvalues, averaged derivative)
 kpt#   1, nband= 25, wtk=  1.00000, kpt=  0.0000  0.0000  0.0000 (reduced coord)
  -0.00000   -0.00000    0.00000   -0.00000    0.00000   -0.00000    0.00000   -0.00000
  -0.00000   -0.00000    0.00000    0.00000    0.00000    0.00000   -0.00000    0.00000
   0.00000   -0.00000    0.00000   -0.00000    0.00000   -0.00000    0.00000   -0.00013
  -0.00121

 Eight components of 2nd-order total energy (hartree) are
 1,2,3: 0th-order hamiltonian combined with 1st-order wavefunctions
     kin0=   1.05588677E+01 eigvalue=   1.51983731E+00  local=  -4.15117825E+00
 4,5,6: 1st-order hamiltonian combined with 1st and 0th-order wfs
     kin1=  -2.40403463E+01  Hartree=   0.00000000E+00     xc=   0.00000000E+00
 7,8,9: eventually, occupation + non-local contributions
    edocc=   4.74929431E+00     enl0=   8.96798979E-02   enl1=  -1.49265569E+00
 1-9 gives the relaxation energy (to be shifted if some occ is /=2.0)
   erelax=  -1.27665010E+01
  No Ewald or frozen-wf contrib.: the relaxation energy is the total one
 2DEtotal=   -0.1276650098E+02 Ha. Also 2DEtotal=   -0.347394158802E+03 eV
    (  non-var. 2DEtotal :   -1.2766500983E+01 Ha)

 CALCULATION OF EFFECTIVE MASSES
 NOTE : Additional infos (eff. mass eigenvalues, eigenvectors and, if degenerate, average mass) are available in stdout.

 K-point ( 0.000, 0.000, 0.000) | band =    16
 Effective mass tensor:
             -2.2613235803             -0.0000932871              0.0000812506
             -0.0000932871             -1.3760922708              0.7892183748
              0.0000812506              0.7892183748             -0.9269594783
 Effective mass tensor eigenvalues:
             -2.2613236330             -1.9720718044             -0.3309798920
 Angular average effective mass 1/(<1/m>)=  -0.7555473447
 Angular average effective mass for Frohlich model (<m**0.5>)**2=  -0.9768808497
 Effective masses along directions: (cart. coord. / red. coord. -> eff. mass)
    1:   1.000000  0.000000  0.000000 /   1.000000  0.000000  0.000000 ->  -2.2613235723
    2:   0.000000  1.000000  0.000000 /   0.000000  1.000000  0.000000 ->  -0.7041474254
    3:   0.000000  0.000000  1.000000 /   0.000000  0.107018  0.994257 ->  -0.4743258456
    4:   0.577350  0.577350  0.577350 /   0.523594  0.510474  0.682104 ->  -0.4695635200
    5:   0.000000  0.707107  0.707107 /   0.000000  0.599171  0.800621 ->  -0.3363225889
    6:   0.707107  0.000000  0.707107 /   0.606698  0.085072  0.790367 ->  -0.7841519820
    7:   0.707107  0.707107  0.000000 /   0.767696  0.640814  0.000000 ->  -1.0739144404

 K-point ( 0.000, 0.000, 0.000) | band =    17
 Effective mass tensor:
              0.2900374999              0.0000000287             -0.0000000142
              0.0000000287              0.4355297865             -0.1033289530
             -0.0000000142             -0.1033289530              0.3481365056
 Effective mass tensor eigenvalues:
              0.2796446043              0.2900374999              0.5040216879
 Angular average effective mass 1/(<1/m>)=   0.3330432500
 Angular average effective mass for Frohlich model (<m**0.5>)**2=   0.3395743078
 Effective masses along directions: (cart. coord. / red. coord. -> eff. mass)
    1:   1.000000  0.000000  0.000000 /   1.000000  0.000000  0.000000 ->   0.2900374999
    2:   0.000000  1.000000  0.000000 /   0.000000  1.000000  0.000000 ->   0.4048611484
    3:   0.000000  0.000000  1.000000 /   0.000000  0.107018  0.994257 ->   0.3236218275
    4:   0.577350  0.577350  0.577350 /   0.523594  0.510474  0.682104 ->   0.2864221736
    5:   0.000000  0.707107  0.707107 /   0.000000  0.599171  0.800621 ->   0.2846480895
    6:   0.707107  0.000000  0.707107 /   0.606698  0.085072  0.790367 ->   0.3059106553
    7:   0.707107  0.707107  0.000000 /   0.767696  0.640814  0.000000 ->   0.3379627341

 END OF EFFECTIVE MASSES SECTION

 ---- first-order wavefunction calculations are completed ----

 Total localisation tensor (bohr^2) in cartesian coordinates
  WARNING : still subject to testing - especially symmetries.
      direction              matrix element
   alpha     beta       real part   imaginary part
     1        1       1.6402519784    0.0000000000
     1        2       0.0000000000    0.0000000000
     1        3       0.0000000000    0.0000000000
     2        1       0.0000000000    0.0000000000
     2        2       1.4184602256    0.0000000000
     2        3       0.2382806562    0.0000000000
     3        1       0.0000000000    0.0000000000
     3        2       0.2382806562    0.0000000000
     3        3       1.2934568154    0.0000000000

 respfn : d/dk was computed, but no 2DTE, so no DDB output.

== END DATASET(S) ==============================================================

 -outvars: echo values of variables after computation  --------
            acell      1.0000000000E+00  1.0000000000E+00  1.0000000000E+00 Bohr
              amu      2.29897680E+01  1.00794000E+00  3.20660000E+01
             ecut      4.40000000E+01 Hartree
           etotal     -1.2766500983E+01
            fcart      0.0000000000E+00  0.0000000000E+00  0.0000000000E+00
                       0.0000000000E+00  0.0000000000E+00  0.0000000000E+00
                       0.0000000000E+00  0.0000000000E+00  0.0000000000E+00
                       0.0000000000E+00  0.0000000000E+00  0.0000000000E+00
                       0.0000000000E+00  0.0000000000E+00  0.0000000000E+00
                       0.0000000000E+00  0.0000000000E+00  0.0000000000E+00
-          fftalg         512
           irdden           1
           irdwfk           1
           istwfk        1
              ixc     -116133
           kptopt           0
P           mkmem           1
P          mkqmem           1
P          mk1mem           1
            natom           6
            nband          25
           nbdbuf           4
            ngfft          54      45      72
             nkpt           1
            nstep        1000
             nsym           4
           ntypat           3
              occ      2.000000  2.000000  2.000000  2.000000  2.000000  2.000000
                       2.000000  2.000000  2.000000  2.000000  2.000000  2.000000
                       2.000000  2.000000  2.000000  2.000000  0.000000  0.000000
                       0.000000  0.000000  0.000000  0.000000  0.000000  0.000000
                       0.000000
        optdriver           1
            prtwf          -1
            rfdir           1       1       1
           rfelfd           2
            rprim      8.5168186141E+00  0.0000000000E+00  0.0000000000E+00
                       0.0000000000E+00  7.1091809859E+00  1.1942388514E+00
                       0.0000000000E+00  0.0000000000E+00  1.1095155232E+01
          spgroup          11
           strten      0.0000000000E+00  0.0000000000E+00  0.0000000000E+00
                       0.0000000000E+00  0.0000000000E+00  0.0000000000E+00
           symrel      1  0  0   0  1  0   0  0  1      -1  0  0   0 -1  0   0  0 -1
                       1  0  0   0 -1  0   0  0 -1      -1  0  0   0  1  0   0  0  1
            tnons      0.0000000  0.0000000  0.0000000     0.0000000  0.0000000  0.0000000
                       0.5000000  0.0000000  0.0000000     0.5000000  0.0000000  0.0000000
           tolwfr      1.00000000E-20
            typat      1  1  2  2  3  3
           useylm           1
           xangst      1.1267265751E+00  2.8679131242E+00  4.9894842042E+00
                       3.3801797252E+00  8.9410342525E-01  1.5137830519E+00
                       1.1267265751E+00  1.6220348175E+00  2.5701892735E+00
                       3.3801797252E+00  2.1399817320E+00  3.9330779826E+00
                       1.1267265751E+00  2.8465373462E+00  1.9732748330E+00
                       3.3801797252E+00  9.1547920328E-01  4.5299924231E+00
            xcart      2.1292046535E+00  5.4195703777E+00  9.4287586902E+00
                       6.3876139606E+00  1.6896106082E+00  2.8606353928E+00
                       2.1292046535E+00  3.0652015831E+00  4.8569538367E+00
                       6.3876139606E+00  4.0439794028E+00  7.4324402463E+00
                       2.1292046535E+00  5.3791760113E+00  3.7289490193E+00
                       6.3876139606E+00  1.7300049746E+00  8.5604450637E+00
             xred      2.5000000000E-01  7.6233400000E-01  7.6775400000E-01
                       7.5000000000E-01  2.3766600000E-01  2.3224600000E-01
                       2.5000000000E-01  4.3116100000E-01  3.9134600000E-01
                       7.5000000000E-01  5.6883900000E-01  6.0865400000E-01
                       2.5000000000E-01  7.5665200000E-01  2.5464500000E-01
                       7.5000000000E-01  2.4334800000E-01  7.4535500000E-01
            znucl       11.00000    1.00000   16.00000

- Timing analysis has been suppressed with timopt=0

 Suggested references for the acknowledgment of ABINIT usage.

 Calculation completed.
.Delivered   6 WARNINGs and   5 COMMENTs to log file.