.Version 9.5.1 of ABINIT

 ABINIT is a project of the Universite Catholique de Louvain,
 Corning Inc. and other collaborators, see ~abinit/doc/developers/contributors.txt .
 acknowledgments of the ABINIT effort.

.Starting date : Wed  5 May 2021.
- ( at 20h05 )

- input  file    -> /scratch/users/j/a/jabreu/flow_simple_7atoms/flow/w188/t1/run.abi
- output file    -> /scratch/users/j/a/jabreu/flow_simple_7atoms/flow/w188/t1/run.abo
- root for input  files -> /scratch/users/j/a/jabreu/flow_simple_7atoms/flow/w188/t1/indata/in
- root for output files -> /scratch/users/j/a/jabreu/flow_simple_7atoms/flow/w188/t1/outdata/out

 Symmetries : space group I4/m m m (#139); Bravais tI (body-center tetrag.)
     intxc =       0      iscf =       7    lmnmax =      18     lnmax =       6
     mgfft =      60  mpssoang =       3    mqgrid =    3001     natom =       7
  nloc_mem =       1    nspden =       1   nspinor =       1    nsppol =       1
      nsym =      16    n1xccc =    2501    ntypat =       3    occopt =       1
   xclevel =       2
-    mband =          29        mffmem =           1         mkmem =           1
-   mkqmem =           1        mk1mem =           1           mpw =        8518
      nfft =      216000          nkpt =           1
  Rough estimation (10% accuracy) of disk space for files :

------------- Echo of variables that govern the present computation ------------
-
- outvars: echo of selected default values
-   iomode0 =  0 , fftalg0 =512 , wfoptalg0 =  0
-
- outvars: echo of global parameters not present in the input file
-  max_nthreads =    0
-
 -outvars: echo values of preprocessed input variables --------
            acell      1.0000000000E+00  1.0000000000E+00  1.0000000000E+00 Bohr
              amu      2.29897680E+01  1.00794000E+00  1.06420000E+02
             ecut      4.40000000E+01 Hartree
-          fftalg         512
           irdden           1
           irdwfk           1
              ixc     -116133
              kpt      5.00000000E-01  5.00000000E-01 -5.00000000E-01
           kptopt           0
P           mkmem           1
P          mkqmem           1
P          mk1mem           1
            natom           7
            nband          29
           nbdbuf           4
            ngfft          60      60      60
             nkpt           1
            nstep        2000
             nsym          16
           ntypat           3
              occ      2.000000  2.000000  2.000000  2.000000  2.000000  2.000000
                       2.000000  2.000000  2.000000  2.000000  2.000000  2.000000
                       2.000000  2.000000  2.000000  2.000000  2.000000  2.000000
                       2.000000  2.000000  0.000000  0.000000  0.000000  0.000000
                       0.000000  0.000000  0.000000  0.000000  0.000000
        optdriver           1
            prtwf          -1
            rfdir           1       1       1
           rfelfd           2
            rprim      8.4150668843E+00  0.0000000000E+00 -4.0742082616E+00
                      -3.3069671045E+00  7.7380436311E+00 -4.0742082616E+00
                       0.0000000000E+00  0.0000000000E+00  9.3494664888E+00
          spgroup         139
           symrel      1  0  0   0  1  0   0  0  1      -1  0  0   0 -1  0   0  0 -1
                      -1 -1 -1   0  0  1   0  1  0       1  1  1   0  0 -1   0 -1  0
                       0  1  0   1  0  0  -1 -1 -1       0 -1  0  -1  0  0   1  1  1
                       0  0  1  -1 -1 -1   1  0  0       0  0 -1   1  1  1  -1  0  0
                       0  1  0   1  0  0   0  0  1       0 -1  0  -1  0  0   0  0 -1
                      -1 -1 -1   0  0  1   1  0  0       1  1  1   0  0 -1  -1  0  0
                       1  0  0   0  1  0  -1 -1 -1      -1  0  0   0 -1  0   1  1  1
                       0  0  1  -1 -1 -1   0  1  0       0  0 -1   1  1  1   0 -1  0
           tolwfr      1.00000000E-20
            typat      1  1  2  2  2  2  3
           useylm           1
           xangst      2.9023032976E+00  1.0236990822E+00  3.1778413409E-01
                      -1.9921331496E-01  3.0710972465E+00  3.1778413409E-01
                       5.9734166405E-01  9.0488754299E-01  1.2337783769E+00
                       2.1057483186E+00  3.1899087857E+00 -5.9821010874E-01
                      -3.7919587475E-01  3.1899087857E+00 -2.1559781551E+00
                       3.0822858574E+00  9.0488754299E-01 -2.1559781551E+00
                       0.0000000000E+00  0.0000000000E+00  0.0000000000E+00
            xcart      5.4845583871E+00  1.9345109078E+00  6.0052498280E-01
                      -3.7645860730E-01  5.8035327233E+00  6.0052498280E-01
                       1.1288121528E+00  1.7099896373E+00  2.3315032410E+00
                       3.9792876270E+00  6.0280539938E+00 -1.1304532754E+00
                      -7.1657635399E-01  6.0280539938E+00 -4.0742082616E+00
                       5.8246761338E+00  1.7099896373E+00 -4.0742082616E+00
                       0.0000000000E+00  0.0000000000E+00  0.0000000000E+00
             xred      7.5000000000E-01  2.5000000000E-01  5.0000000000E-01
                       2.5000000000E-01  7.5000000000E-01  5.0000000000E-01
                       2.2098475000E-01  2.2098475000E-01  4.4196950000E-01
                       7.7901525000E-01  7.7901525000E-01  5.5803050000E-01
                       2.2098475000E-01  7.7901525000E-01  0.0000000000E+00
                       7.7901525000E-01  2.2098475000E-01  0.0000000000E+00
                       0.0000000000E+00  0.0000000000E+00  0.0000000000E+00
            znucl       11.00000    1.00000   46.00000

 chkinp: Checking input parameters for consistency.

== DATASET  1 ==================================================================
-   mpi_nproc: 1, omp_nthreads: -1 (-1 if OMP is not activated)

--- !DatasetInfo
iteration_state: {dtset: 1, }
dimensions: {natom: 7, nkpt: 1, mband: 29, nsppol: 1, nspinor: 1, nspden: 1, mpw: 8518, }
cutoff_energies: {ecut:  44.0, pawecutdg:  -1.0, }
electrons: {nelect:   4.00000000E+01, charge:   0.00000000E+00, occopt:   1.00000000E+00, tsmear:   1.00000000E-02, }
meta: {optdriver: 1, rfelfd: 2, }
...

 Real(R)+Recip(G) space primitive vectors, cartesian coordinates (Bohr,Bohr^-1):
 R(1)=  8.4150669  0.0000000 -4.0742083  G(1)=  0.1188345  0.0507857  0.0000000
 R(2)= -3.3069671  7.7380436 -4.0742083  G(2)=  0.0000000  0.1292316  0.0000000
 R(3)=  0.0000000  0.0000000  9.3494665  G(3)=  0.0517844  0.0784460  0.1069580
 Unit cell volume ucvol=  6.0880131E+02 bohr^3
 Angles (23,13,12)=  1.15834241E+02  1.15834241E+02  9.73807188E+01 degrees

 getcut: wavevector=  0.0000  0.0000  0.0000  ngfft=  60  60  60
         ecut(hartree)=     44.000   => boxcut(ratio)=   2.14921

--- Pseudopotential description ------------------------------------------------
- pspini: atom type   1  psp file is /scratch/users/j/a/jabreu/pseudos/PBEsol/Na.psp8
- pspatm: opening atomic psp file    /scratch/users/j/a/jabreu/pseudos/PBEsol/Na.psp8
- Na    ONCVPSP-3.3.0  r_core=   1.20708   1.55069
- 11.00000   9.00000    180112                znucl, zion, pspdat
    8 -116133    1    4       400   0.00000   pspcod,pspxc,lmax,lloc,mmax,r2well
    3.99000000000000    0.00000000000000    0.00000000000000   rchrg,fchrg,qchrg
     nproj     2     2
     extension_switch     1
  pspatm : epsatm=    9.32878306
         --- l  ekb(1:nproj) -->
             0    2.657905   -0.678300
             1   -6.761319   -2.404728
 pspatm: atomic psp has been read  and splines computed

- pspini: atom type   2  psp file is /scratch/users/j/a/jabreu/pseudos/PBEsol/H.psp8
- pspatm: opening atomic psp file    /scratch/users/j/a/jabreu/pseudos/PBEsol/H.psp8
- H     ONCVPSP-3.3.0  r_core=   1.00957   0.70586
-  1.00000   1.00000    180112                znucl, zion, pspdat
    8 -116133    1    4       300   0.00000   pspcod,pspxc,lmax,lloc,mmax,r2well
    2.99000000000000    0.00000000000000    0.00000000000000   rchrg,fchrg,qchrg
     nproj     2     1
     extension_switch     1
  pspatm : epsatm=    0.35627032
         --- l  ekb(1:nproj) -->
             0   -1.674911   -0.523609
             1   -0.494138
 pspatm: atomic psp has been read  and splines computed

- pspini: atom type   3  psp file is /scratch/users/j/a/jabreu/pseudos/PBEsol/Pd.psp8
- pspatm: opening atomic psp file    /scratch/users/j/a/jabreu/pseudos/PBEsol/Pd.psp8
- Pd    ONCVPSP-3.3.0  r_core=   1.41052   1.46191   1.55175
- 46.00000  18.00000    180112                znucl, zion, pspdat
    8 -116133    2    4       600   0.00000   pspcod,pspxc,lmax,lloc,mmax,r2well
    5.99000000000000    7.00000000000000    0.00000000000000   rchrg,fchrg,qchrg
     nproj     2     2     2
     extension_switch     1
  pspatm : epsatm=   26.17262427
         --- l  ekb(1:nproj) -->
             0    7.952303   -2.096627
             1    3.304793   -0.572651
             2   -1.185452   -0.410427
 pspatm: atomic psp has been read  and splines computed

   1.85021087E+03                                ecore*ucvol(ha*bohr**3)

-inwffil : will read wavefunctions from disk file /scratch/users/j/a/jabreu/flow_simple_7atoms/flow/w188/t1/indata/in_WFK

 ==>  initialize data related to q vector <==

 The list of irreducible perturbations for this q vector is:
    1)    idir= 1    ipert=   8
    2)    idir= 2    ipert=   8
    3)    idir= 3    ipert=   8

 Perturbation wavevector (in red.coord.)   0.000000  0.000000  0.000000
 Perturbation : derivative vs k along direction   1

 dfpt_looppert : COMMENT -
  In a d/dk calculation, iscf is set to -3 automatically.
 The set of symmetries contains only one element for this perturbation.
 symkpt : not enough symmetry to change the number of k points.

[...]

 Initialisation of the first-order wave-functions :
  ireadwf=   0

--- !BeginCycle
iteration_state: {dtset: 1, }
solver: {iscf: 7, nstep: 2000, nline: 4, wfoptalg: 0, }
tolerances: {tolwfr: 1.00E-20, }
...

     iter   2DEtotal(Ha)        deltaE(Ha) residm    vres2
-ETOT  1  -30.836506242221     -3.084E+01 1.178E-02 0.000E+00
 ETOT  2  -30.849180410488     -1.267E-02 1.515E-05 0.000E+00
 ETOT  3  -30.849185152547     -4.742E-06 3.274E-08 0.000E+00
 ETOT  4  -30.849185157196     -4.648E-09 1.156E-10 0.000E+00
 ETOT  5  -30.849185157205     -9.333E-12 3.474E-13 0.000E+00
 ETOT  6  -30.849185157205     -1.776E-14 1.306E-15 0.000E+00
 ETOT  7  -30.849185157205     -2.842E-14 4.177E-18 0.000E+00
 ETOT  8  -30.849185157205     -1.066E-14 1.607E-20 0.000E+00
 ETOT  9  -30.849185157205      0.000E+00 9.944E-21 0.000E+00

 At SCF step    9   max residual=  9.94E-21 < tolwfr=  1.00E-20 =>converged.

 ----iterations are completed or convergence reached----

 dfpt_looppert: DFPT cycle converged with prtwf=-1. Will skip output of the 1st-order WFK file.
 dfpt_looppert : ek2=    5.2745738263E+01
          f-sum rule ratio=    1.0774592171E+00
 prteigrs : about to open file /scratch/users/j/a/jabreu/flow_simple_7atoms/flow/w188/t1/tmpdata/tmp_1WF1_EIG
 Expectation of eigenvalue derivatives (hartree) for nkpt=   1  k points:
  (in case of degenerate eigenvalues, averaged derivative)
 kpt#   1, nband= 29, wtk=  1.00000, kpt=  0.5000  0.5000 -0.5000 (reduced coord)
  -0.00000    0.00000    0.00000   -0.00000   -0.00000    0.00000   -0.00000    0.00000
   0.00000    0.00000    0.00000   -0.00000   -0.00000    0.00000    0.00000   -0.00000
  -0.00000   -0.00000   -0.00000    0.00000    0.00000   -0.00000    0.00000    0.00000
   0.00000    0.00000    0.00000   -0.00000   -0.00000

 Eight components of 2nd-order total energy (hartree) are
 1,2,3: 0th-order hamiltonian combined with 1st-order wavefunctions
     kin0=   3.37796735E+01 eigvalue=   3.54407973E+00  local=  -1.49967412E+01
 4,5,6: 1st-order hamiltonian combined with 1st and 0th-order wfs
     kin1=  -5.68313819E+01  Hartree=   0.00000000E+00     xc=   0.00000000E+00
 7,8,9: eventually, occupation + non-local contributions
    edocc=   8.19042469E+00     enl0=   3.31748431E-01   enl1=  -4.86698846E+00
 1-9 gives the relaxation energy (to be shifted if some occ is /=2.0)
   erelax=  -3.08491852E+01
  No Ewald or frozen-wf contrib.: the relaxation energy is the total one
 2DEtotal=   -0.3084918516E+02 Ha. Also 2DEtotal=   -0.839449019081E+03 eV
    (  non-var. 2DEtotal :   -3.0849185157E+01 Ha)

 Perturbation wavevector (in red.coord.)   0.000000  0.000000  0.000000
 Perturbation : derivative vs k along direction   2
 The set of symmetries contains only one element for this perturbation.
 symkpt : not enough symmetry to change the number of k points.

[...]

 Perturbation wavevector (in red.coord.)   0.000000  0.000000  0.000000
 Perturbation : derivative vs k along direction   3
 The set of symmetries contains only one element for this perturbation.
 symkpt : not enough symmetry to change the number of k points.

-inwffil : will read wavefunctions from disk file /scratch/users/j/a/jabreu/flow_simple_7atoms/flow/w188/t1/indata/in_WFK

 Initialisation of the first-order wave-functions :
  ireadwf=   0

--- !BeginCycle
iteration_state: {dtset: 1, }
solver: {iscf: 7, nstep: 2000, nline: 4, wfoptalg: 0, }
tolerances: {tolwfr: 1.00E-20, }
...

     iter   2DEtotal(Ha)        deltaE(Ha) residm    vres2
-ETOT  1  -37.227271293627     -3.723E+01 1.560E-02 0.000E+00
 ETOT  2  -37.236550955699     -9.280E-03 1.908E-05 0.000E+00
 ETOT  3  -37.236554496939     -3.541E-06 4.178E-08 0.000E+00
 ETOT  4  -37.236554501071     -4.132E-09 1.467E-10 0.000E+00
 ETOT  5  -37.236554501081     -1.011E-11 4.378E-13 0.000E+00
 ETOT  6  -37.236554501081     -7.105E-15 1.636E-15 0.000E+00
 ETOT  7  -37.236554501081     -7.105E-15 5.217E-18 0.000E+00
 ETOT  8  -37.236554501081      7.105E-15 1.998E-20 0.000E+00
 ETOT  9  -37.236554501081     -7.105E-15 9.985E-21 0.000E+00

 At SCF step    9   max residual=  9.98E-21 < tolwfr=  1.00E-20 =>converged.

 ----iterations are completed or convergence reached----

 dfpt_looppert: DFPT cycle converged with prtwf=-1. Will skip output of the 1st-order WFK file.
 dfpt_looppert : ek2=    6.4035259074E+01
          f-sum rule ratio=    1.0709556721E+00
 prteigrs : about to open file /scratch/users/j/a/jabreu/flow_simple_7atoms/flow/w188/t1/tmpdata/tmp_1WF1_EIG
 Expectation of eigenvalue derivatives (hartree) for nkpt=   1  k points:
  (in case of degenerate eigenvalues, averaged derivative)
 kpt#   1, nband= 29, wtk=  1.00000, kpt=  0.5000  0.5000 -0.5000 (reduced coord)
  -0.00000   -0.00000   -0.00000   -0.00000   -0.00000    0.00000   -0.00000    0.00000
   0.00000    0.00000    0.00000   -0.00000   -0.00000    0.00000    0.00000   -0.00000
  -0.00000   -0.00000   -0.00000   -0.00000   -0.00000    0.00000   -0.00000    0.00000
   0.00000    0.00000    0.00000    0.00001    0.00001

 Eight components of 2nd-order total energy (hartree) are
 1,2,3: 0th-order hamiltonian combined with 1st-order wavefunctions
     kin0=   3.89753351E+01 eigvalue=   4.26131484E+00  local=  -1.71980223E+01
 4,5,6: 1st-order hamiltonian combined with 1st and 0th-order wfs
     kin1=  -6.85789239E+01  Hartree=   0.00000000E+00     xc=   0.00000000E+00
 7,8,9: eventually, occupation + non-local contributions
    edocc=   1.06798830E+01     enl0=   5.18043953E-01   enl1=  -5.89418508E+00
 1-9 gives the relaxation energy (to be shifted if some occ is /=2.0)
   erelax=  -3.72365545E+01
  No Ewald or frozen-wf contrib.: the relaxation energy is the total one
 2DEtotal=   -0.3723655450E+02 Ha. Also 2DEtotal=   -0.101325817815E+04 eV
    (  non-var. 2DEtotal :   -3.7236554501E+01 Ha)

 CALCULATION OF EFFECTIVE MASSES
 NOTE : Additional infos (eff. mass eigenvalues, eigenvectors and, if degenerate, average mass) are available in stdout.

 K-point ( 0.500, 0.500,-0.500) | band =    20
 Effective mass tensor:
            -34.2999942506             10.5552314725            -11.1147390931
             10.5552314725            -25.2783672674            -16.8374800094
            -11.1147390931            -16.8374800094            -23.5372861124
 Effective mass tensor eigenvalues:
            -41.2679601327            -41.2675457976             -0.5801417002
 Angular average effective mass 1/(<1/m>)=  -1.6928295357
 Angular average effective mass for Frohlich model (<m**0.5>)**2=  -4.6855952122
 Effective masses along directions: (cart. coord. / red. coord. -> eff. mass)
    1:   1.000000  0.000000  0.000000 /   0.930712 -0.365753  0.000000 ->  -3.1719094405
    2:   0.000000  1.000000  0.000000 /   0.000000  1.000000  0.000000 ->  -1.4448811421
    3:   0.000000  0.000000  1.000000 /  -0.370980 -0.370980  0.851322 ->  -1.3075060171
    4:   0.577350  0.577350  0.577350 /   0.420862  0.034600  0.906465 ->  -9.4088704833
    5:   0.000000  0.707107  0.707107 /  -0.375962  0.338093  0.862755 -> -39.7280076672
    6:   0.707107  0.000000  0.707107 /   0.342387 -0.582193  0.737443 -> -13.1956006189
    7:   0.707107  0.707107  0.000000 /   0.884827  0.465919  0.000000 ->  -1.0586935107

 K-point ( 0.500, 0.500,-0.500) | band =    21
 Effective mass tensor:
              0.6512882243             -0.1101062383              0.1159455199
             -0.1101062383              0.5571771737              0.1756409488
              0.1159455199              0.1756409488              0.5390166996
 Effective mass tensor eigenvalues:
              0.2995372125              0.7239724425              0.7239724426
 Angular average effective mass 1/(<1/m>)=   0.4917211008
 Angular average effective mass for Frohlich model (<m**0.5>)**2=   0.5209836033
 Effective masses along directions: (cart. coord. / red. coord. -> eff. mass)
    1:   1.000000  0.000000  0.000000 /   0.930712 -0.365753  0.000000 ->   0.5826012945
    2:   0.000000  1.000000  0.000000 /   0.000000  1.000000  0.000000 ->   0.4650259118
    3:   0.000000  0.000000  1.000000 /  -0.370980 -0.370980  0.851322 ->   0.4475951299
    4:   0.577350  0.577350  0.577350 /   0.420862  0.034600  0.906465 ->   0.6776161578
    5:   0.000000  0.707107  0.707107 /  -0.375962  0.338093  0.862755 ->   0.7234059686
    6:   0.707107  0.000000  0.707107 /   0.342387 -0.582193  0.737443 ->   0.6941375946
    7:   0.707107  0.707107  0.000000 /   0.884827  0.465919  0.000000 ->   0.4096402940

 END OF EFFECTIVE MASSES SECTION

 ---- first-order wavefunction calculations are completed ----

 Total localisation tensor (bohr^2) in cartesian coordinates
  WARNING : still subject to testing - especially symmetries.
      direction              matrix element
   alpha     beta       real part   imaginary part
     1        1       1.3006781701    0.0000000000
     1        2      -0.4071424820    0.0000000000
     1        3      -0.3311219503    0.0000000000
     2        1      -0.4071424820    0.0000000000
     2        2       0.9526814723    0.0000000000
     2        3      -0.5016025898    0.0000000000
     3        1      -0.3311219503    0.0000000000
     3        2      -0.5016025898    0.0000000000
     3        3       1.9156597961    0.0000000000

 respfn : d/dk was computed, but no 2DTE, so no DDB output.

== END DATASET(S) ==============================================================

 -outvars: echo values of variables after computation  --------
            acell      1.0000000000E+00  1.0000000000E+00  1.0000000000E+00 Bohr
              amu      2.29897680E+01  1.00794000E+00  1.06420000E+02
             ecut      4.40000000E+01 Hartree
           etotal     -3.7236554501E+01
            fcart      0.0000000000E+00  0.0000000000E+00  0.0000000000E+00
                       0.0000000000E+00  0.0000000000E+00  0.0000000000E+00
                       0.0000000000E+00  0.0000000000E+00  0.0000000000E+00
                       0.0000000000E+00  0.0000000000E+00  0.0000000000E+00
                       0.0000000000E+00  0.0000000000E+00  0.0000000000E+00
                       0.0000000000E+00  0.0000000000E+00  0.0000000000E+00
                       0.0000000000E+00  0.0000000000E+00  0.0000000000E+00
-          fftalg         512
           irdden           1
           irdwfk           1
              ixc     -116133
              kpt      5.00000000E-01  5.00000000E-01 -5.00000000E-01
           kptopt           0
P           mkmem           1
P          mkqmem           1
P          mk1mem           1
            natom           7
            nband          29
           nbdbuf           4
            ngfft          60      60      60
             nkpt           1
            nstep        2000
             nsym          16
           ntypat           3
              occ      2.000000  2.000000  2.000000  2.000000  2.000000  2.000000
                       2.000000  2.000000  2.000000  2.000000  2.000000  2.000000
                       2.000000  2.000000  2.000000  2.000000  2.000000  2.000000
                       2.000000  2.000000  0.000000  0.000000  0.000000  0.000000
                       0.000000  0.000000  0.000000  0.000000  0.000000
        optdriver           1
            prtwf          -1
            rfdir           1       1       1
           rfelfd           2
            rprim      8.4150668843E+00  0.0000000000E+00 -4.0742082616E+00
                      -3.3069671045E+00  7.7380436311E+00 -4.0742082616E+00
                       0.0000000000E+00  0.0000000000E+00  9.3494664888E+00
          spgroup         139
           strten      0.0000000000E+00  0.0000000000E+00  0.0000000000E+00
                       0.0000000000E+00  0.0000000000E+00  0.0000000000E+00
           symrel      1  0  0   0  1  0   0  0  1      -1  0  0   0 -1  0   0  0 -1
                      -1 -1 -1   0  0  1   0  1  0       1  1  1   0  0 -1   0 -1  0
                       0  1  0   1  0  0  -1 -1 -1       0 -1  0  -1  0  0   1  1  1
                       0  0  1  -1 -1 -1   1  0  0       0  0 -1   1  1  1  -1  0  0
                       0  1  0   1  0  0   0  0  1       0 -1  0  -1  0  0   0  0 -1
                      -1 -1 -1   0  0  1   1  0  0       1  1  1   0  0 -1  -1  0  0
                       1  0  0   0  1  0  -1 -1 -1      -1  0  0   0 -1  0   1  1  1
                       0  0  1  -1 -1 -1   0  1  0       0  0 -1   1  1  1   0 -1  0
           tolwfr      1.00000000E-20
            typat      1  1  2  2  2  2  3
           useylm           1
           xangst      2.9023032976E+00  1.0236990822E+00  3.1778413409E-01
                      -1.9921331496E-01  3.0710972465E+00  3.1778413409E-01
                       5.9734166405E-01  9.0488754299E-01  1.2337783769E+00
                       2.1057483186E+00  3.1899087857E+00 -5.9821010874E-01
                      -3.7919587475E-01  3.1899087857E+00 -2.1559781551E+00
                       3.0822858574E+00  9.0488754299E-01 -2.1559781551E+00
                       0.0000000000E+00  0.0000000000E+00  0.0000000000E+00
            xcart      5.4845583871E+00  1.9345109078E+00  6.0052498280E-01
                      -3.7645860730E-01  5.8035327233E+00  6.0052498280E-01
                       1.1288121528E+00  1.7099896373E+00  2.3315032410E+00
                       3.9792876270E+00  6.0280539938E+00 -1.1304532754E+00
                      -7.1657635399E-01  6.0280539938E+00 -4.0742082616E+00
                       5.8246761338E+00  1.7099896373E+00 -4.0742082616E+00
                       0.0000000000E+00  0.0000000000E+00  0.0000000000E+00
             xred      7.5000000000E-01  2.5000000000E-01  5.0000000000E-01
                       2.5000000000E-01  7.5000000000E-01  5.0000000000E-01
                       2.2098475000E-01  2.2098475000E-01  4.4196950000E-01
                       7.7901525000E-01  7.7901525000E-01  5.5803050000E-01
                       2.2098475000E-01  7.7901525000E-01  0.0000000000E+00
                       7.7901525000E-01  2.2098475000E-01  0.0000000000E+00
                       0.0000000000E+00  0.0000000000E+00  0.0000000000E+00
            znucl       11.00000    1.00000   46.00000

- Timing analysis has been suppressed with timopt=0

 Suggested references for the acknowledgment of ABINIT usage.

 Calculation completed.
.Delivered   6 WARNINGs and   5 COMMENTs to log file.