.Version 9.5.1 of ABINIT

 ABINIT is a project of the Universite Catholique de Louvain,
 Corning Inc. and other collaborators, see ~abinit/doc/developers/contributors.txt .
 acknowledgments of the ABINIT effort.

.Starting date : Sat  1 May 2021.
- ( at 05h11 )

- input  file    -> /scratch/users/j/a/jabreu/flow_simple_6atoms/flow/w158/t1/run.abi
- output file    -> /scratch/users/j/a/jabreu/flow_simple_6atoms/flow/w158/t1/run.abo
- root for input  files -> /scratch/users/j/a/jabreu/flow_simple_6atoms/flow/w158/t1/indata/in
- root for output files -> /scratch/users/j/a/jabreu/flow_simple_6atoms/flow/w158/t1/outdata/out

 Symmetries : space group Cm c 2_1 (# 36); Bravais oC (1-face-center ortho.)
     intxc =       0      iscf =       7    lmnmax =      32     lnmax =       8
     mgfft =      72  mpssoang =       4    mqgrid =    3001     natom =       6
  nloc_mem =       1    nspden =       1   nspinor =       1    nsppol =       1
      nsym =       4    n1xccc =    2501    ntypat =       3    occopt =       1
   xclevel =       2
-    mband =          25        mffmem =           1         mkmem =           2
-   mkqmem =           2        mk1mem =           2           mpw =        9872
      nfft =      259200          nkpt =           2
  Rough estimation (10% accuracy) of disk space for files :

------------- Echo of variables that govern the present computation ------------
-
- outvars: echo of selected default values
-   iomode0 =  0 , fftalg0 =512 , wfoptalg0 =  0
-
- outvars: echo of global parameters not present in the input file
-  max_nthreads =    0
-
 -outvars: echo values of preprocessed input variables --------
            acell      1.0000000000E+00  1.0000000000E+00  1.0000000000E+00 Bohr
              amu      1.32905430E+02  1.00794000E+00  1.59994000E+01
             ecut      4.40000000E+01 Hartree
-          fftalg         512
           irdden           1
           irdwfk           1
           istwfk        1    0
              ixc     -116133
              kpt      0.00000000E+00  0.00000000E+00  0.00000000E+00
                      -5.00000000E-01  5.00000000E-01  0.00000000E+00
           kptopt           0
P           mkmem           2
P          mkqmem           2
P          mk1mem           2
            natom           6
            nband          25
           nbdbuf           4
            ngfft          72      72      50
             nkpt           2
            nstep        1000
             nsym           4
           ntypat           3
              occ      2.000000  2.000000  2.000000  2.000000  2.000000  2.000000
                       2.000000  2.000000  2.000000  2.000000  2.000000  2.000000
                       2.000000  2.000000  2.000000  2.000000  0.000000  0.000000
                       0.000000  0.000000  0.000000  0.000000  0.000000  0.000000
                       0.000000
        optdriver           1
            prtwf          -1
            rfdir           1       1       1
           rfelfd           2
            rprim      1.1245399910E+01  0.0000000000E+00  0.0000000000E+00
                      -8.3140369177E+00  7.5720412884E+00  0.0000000000E+00
                       0.0000000000E+00  0.0000000000E+00  8.2772756645E+00
          spgroup          36
           symrel      1  0  0   0  1  0   0  0  1       0 -1  0  -1  0  0   0  0  1
                      -1  0  0   0 -1  0   0  0  1       0  1  0   1  0  0   0  0  1
            tnons      0.0000000  0.0000000  0.0000000     0.0000000  0.0000000  0.0000000
                       0.0000000  0.0000000  0.5000000     0.0000000  0.0000000  0.5000000
           tolwfr      1.00000000E-20
            typat      1  1  2  2  3  3
           useylm           1
              wtk        0.50000    0.50000
           xangst      4.5151870183E+00  5.5577221085E-01  3.2276942742E+00
                      -2.9639765325E+00  3.4511794615E+00  1.0376214588E+00
                       1.0737694514E+00  1.8880475793E+00  2.6276055625E+00
                       4.7744103439E-01  2.1189040930E+00  4.3753274707E-01
                       1.6685246064E+00  1.6578001223E+00  3.3855591029E+00
                      -1.1731412058E-01  2.3491515500E+00  1.1954862875E+00
            xcart      8.5324669034E+00  1.0502572708E+00  6.0994582190E+00
                      -5.6011039108E+00  6.5217840176E+00  1.9608203867E+00
                       2.0291301930E+00  3.5678928508E+00  4.9654548984E+00
                       9.0223279960E-01  4.0041484376E+00  8.2681706613E-01
                       3.1530545520E+00  3.1327882143E+00  6.3977795112E+00
                      -2.2169155941E-01  4.4392530741E+00  2.2591416789E+00
             xred      8.6129800000E-01  1.3870200000E-01  7.3689200000E-01
                       1.3870200000E-01  8.6129800000E-01  2.3689200000E-01
                       5.2880700000E-01  4.7119300000E-01  5.9989000000E-01
                       4.7119300000E-01  5.2880700000E-01  9.9890000000E-02
                       5.8626900000E-01  4.1373100000E-01  7.7293300000E-01
                       4.1373100000E-01  5.8626900000E-01  2.7293300000E-01
            znucl       55.00000    1.00000    8.00000

 chkinp: Checking input parameters for consistency.

== DATASET  1 ==================================================================
-   mpi_nproc: 1, omp_nthreads: -1 (-1 if OMP is not activated)

--- !DatasetInfo
iteration_state: {dtset: 1, }
dimensions: {natom: 6, nkpt: 2, mband: 25, nsppol: 1, nspinor: 1, nspden: 1, mpw: 9872, }
cutoff_energies: {ecut:  44.0, pawecutdg:  -1.0, }
electrons: {nelect:   3.20000000E+01, charge:   0.00000000E+00, occopt:   1.00000000E+00, tsmear:   1.00000000E-02, }
meta: {optdriver: 1, rfelfd: 2, }
...

 Real(R)+Recip(G) space primitive vectors, cartesian coordinates (Bohr,Bohr^-1):
 R(1)= 11.2453999  0.0000000  0.0000000  G(1)=  0.0889253  0.0976392  0.0000000
 R(2)= -8.3140369  7.5720413  0.0000000  G(2)=  0.0000000  0.1320648  0.0000000
 R(3)=  0.0000000  0.0000000  8.2772757  G(3)=  0.0000000  0.0000000  0.1208127
 Unit cell volume ucvol=  7.0481526E+02 bohr^3
 Angles (23,13,12)=  9.00000000E+01  9.00000000E+01  1.37674187E+02 degrees

 getcut: wavevector=  0.0000  0.0000  0.0000  ngfft=  72  72  50
         ecut(hartree)=     44.000   => boxcut(ratio)=   2.02298

--- Pseudopotential description ------------------------------------------------
- pspini: atom type   1  psp file is /scratch/users/j/a/jabreu/pseudos/PBEsol/Cs.psp8
- pspatm: opening atomic psp file    /scratch/users/j/a/jabreu/pseudos/PBEsol/Cs.psp8
- Cs    ONCVPSP-3.3.0  r_core=   2.27353   1.85623   2.01788   1.90105
- 55.00000   9.00000    180112                znucl, zion, pspdat
    8 -116133    3    4       600   0.00000   pspcod,pspxc,lmax,lloc,mmax,r2well
    5.99000000000000    5.00000000000000    0.00000000000000   rchrg,fchrg,qchrg
     nproj     2     2     2     2
     extension_switch     1
  pspatm : epsatm=   22.12462445
         --- l  ekb(1:nproj) -->
             0    6.214110    0.767882
             1    6.311966    0.793598
             2    3.769790    0.913105
             3   -9.247129   -2.432478
 pspatm: atomic psp has been read  and splines computed

- pspini: atom type   2  psp file is /scratch/users/j/a/jabreu/pseudos/PBEsol/H.psp8
- pspatm: opening atomic psp file    /scratch/users/j/a/jabreu/pseudos/PBEsol/H.psp8
- H     ONCVPSP-3.3.0  r_core=   1.00957   0.70586
-  1.00000   1.00000    180112                znucl, zion, pspdat
    8 -116133    1    4       300   0.00000   pspcod,pspxc,lmax,lloc,mmax,r2well
    2.99000000000000    0.00000000000000    0.00000000000000   rchrg,fchrg,qchrg
     nproj     2     1
     extension_switch     1
  pspatm : epsatm=    0.35627032
         --- l  ekb(1:nproj) -->
             0   -1.674911   -0.523609
             1   -0.494138
 pspatm: atomic psp has been read  and splines computed

- pspini: atom type   3  psp file is /scratch/users/j/a/jabreu/pseudos/PBEsol/O.psp8
- pspatm: opening atomic psp file    /scratch/users/j/a/jabreu/pseudos/PBEsol/O.psp8
- O     ONCVPSP-3.3.0  r_core=   1.35509   1.45563   1.26150
-  8.00000   6.00000    180112                znucl, zion, pspdat
    8 -116133    2    4       600   0.00000   pspcod,pspxc,lmax,lloc,mmax,r2well
    5.99000000000000    4.00000000000000    0.00000000000000   rchrg,fchrg,qchrg
     nproj     2     2     1
     extension_switch     1
  pspatm : epsatm=    6.22910522
         --- l  ekb(1:nproj) -->
             0    6.050032    0.820363
             1   -4.739617   -1.153841
             2   -1.335834
 pspatm: atomic psp has been read  and splines computed

   1.83744000E+03                                ecore*ucvol(ha*bohr**3)

-inwffil : will read wavefunctions from disk file /scratch/users/j/a/jabreu/flow_simple_6atoms/flow/w158/t1/indata/in_WFK

 ==>  initialize data related to q vector <==

 The list of irreducible perturbations for this q vector is:
    1)    idir= 1    ipert=   7
    2)    idir= 2    ipert=   7
    3)    idir= 3    ipert=   7

 Perturbation wavevector (in red.coord.)   0.000000  0.000000  0.000000
 Perturbation : derivative vs k along direction   1

 dfpt_looppert : COMMENT -
  In a d/dk calculation, iscf is set to -3 automatically.
 The set of symmetries contains only one element for this perturbation.
 symkpt : not enough symmetry to change the number of k points.

[...]

 Initialisation of the first-order wave-functions :
  ireadwf=   0

--- !BeginCycle
iteration_state: {dtset: 1, }
solver: {iscf: 7, nstep: 1000, nline: 4, wfoptalg: 0, }
tolerances: {tolwfr: 1.00E-20, }
...

     iter   2DEtotal(Ha)        deltaE(Ha) residm    vres2
-ETOT  1  -27.491045763782     -2.749E+01 3.313E-02 0.000E+00
 ETOT  2  -27.517246253566     -2.620E-02 2.454E-03 0.000E+00
 ETOT  3  -27.518001007897     -7.548E-04 8.082E-05 0.000E+00
 ETOT  4  -27.518033322168     -3.231E-05 1.700E-05 0.000E+00
 ETOT  5  -27.518034986273     -1.664E-06 1.619E-06 0.000E+00
 ETOT  6  -27.518035081412     -9.514E-08 2.643E-07 0.000E+00
 ETOT  7  -27.518035087207     -5.795E-09 3.513E-08 0.000E+00
 ETOT  8  -27.518035087577     -3.693E-10 5.487E-09 0.000E+00
 ETOT  9  -27.518035087601     -2.455E-11 7.849E-10 0.000E+00
 ETOT 10  -27.518035087603     -1.720E-12 1.186E-10 0.000E+00
 ETOT 11  -27.518035087603     -7.461E-14 1.754E-11 0.000E+00
 ETOT 12  -27.518035087603     -3.553E-14 2.592E-12 0.000E+00
 ETOT 13  -27.518035087603      1.066E-14 3.893E-13 0.000E+00
 ETOT 14  -27.518035087603     -2.487E-14 5.683E-14 0.000E+00
 ETOT 15  -27.518035087603      7.105E-15 8.599E-15 0.000E+00
 ETOT 16  -27.518035087603      1.776E-14 1.248E-15 0.000E+00
 ETOT 17  -27.518035087603     -2.487E-14 1.894E-16 0.000E+00
 ETOT 18  -27.518035087603      1.421E-14 2.743E-17 0.000E+00
 ETOT 19  -27.518035087603      0.000E+00 4.169E-18 0.000E+00
 ETOT 20  -27.518035087603      0.000E+00 6.045E-19 0.000E+00
 ETOT 21  -27.518035087603      0.000E+00 9.173E-20 0.000E+00
 ETOT 22  -27.518035087603      7.105E-15 1.335E-20 0.000E+00
 ETOT 23  -27.518035087603     -1.421E-14 9.937E-21 0.000E+00

 At SCF step   23   max residual=  9.94E-21 < tolwfr=  1.00E-20 =>converged.

 ----iterations are completed or convergence reached----

 dfpt_looppert: DFPT cycle converged with prtwf=-1. Will skip output of the 1st-order WFK file.
 dfpt_looppert : ek2=    4.4067028245E+01
          f-sum rule ratio=    1.1628716007E+00
 prteigrs : about to open file /scratch/users/j/a/jabreu/flow_simple_6atoms/flow/w158/t1/tmpdata/tmp_1WF1_EIG
 Expectation of eigenvalue derivatives (hartree) for nkpt=   2  k points:
  (in case of degenerate eigenvalues, averaged derivative)
 kpt#   1, nband= 25, wtk=  0.50000, kpt=  0.0000  0.0000  0.0000 (reduced coord)
   0.00000   -0.00000   -0.00000    0.00000   -0.00000   -0.00000    0.00000    0.00000
  -0.00000    0.00000   -0.00000    0.00000   -0.00000    0.00000   -0.00000    0.00000
   0.00000    0.00000   -0.00000    0.00000    0.00000    0.00000    0.00000   -0.00019
   0.03474
 prteigrs : prtvol=0 or 1, do not print more k-points.

 Eight components of 2nd-order total energy (hartree) are
 1,2,3: 0th-order hamiltonian combined with 1st-order wavefunctions
     kin0=   2.27936138E+01 eigvalue=   2.32122794E-01  local=  -1.00795740E+01
 4,5,6: 1st-order hamiltonian combined with 1st and 0th-order wfs
     kin1=  -5.12442957E+01  Hartree=   0.00000000E+00     xc=   0.00000000E+00
 7,8,9: eventually, occupation + non-local contributions
    edocc=   1.34321226E+01     enl0=   1.13974979E+00   enl1=  -3.79177450E+00
 1-9 gives the relaxation energy (to be shifted if some occ is /=2.0)
   erelax=  -2.75180351E+01
  No Ewald or frozen-wf contrib.: the relaxation energy is the total one
 2DEtotal=   -0.2751803509E+02 Ha. Also 2DEtotal=   -0.748803815842E+03 eV
    (  non-var. 2DEtotal :   -2.7518035088E+01 Ha)

 Perturbation wavevector (in red.coord.)   0.000000  0.000000  0.000000
 Perturbation : derivative vs k along direction   2
 The set of symmetries contains only one element for this perturbation.
 symkpt : not enough symmetry to change the number of k points.

[...]

 Perturbation wavevector (in red.coord.)   0.000000  0.000000  0.000000
 Perturbation : derivative vs k along direction   3
 The set of symmetries contains only one element for this perturbation.
 symkpt : not enough symmetry to change the number of k points.

-inwffil : will read wavefunctions from disk file /scratch/users/j/a/jabreu/flow_simple_6atoms/flow/w158/t1/indata/in_WFK

 Initialisation of the first-order wave-functions :
  ireadwf=   0

--- !BeginCycle
iteration_state: {dtset: 1, }
solver: {iscf: 7, nstep: 1000, nline: 4, wfoptalg: 0, }
tolerances: {tolwfr: 1.00E-20, }
...

     iter   2DEtotal(Ha)        deltaE(Ha) residm    vres2
-ETOT  1  -22.813570121789     -2.281E+01 1.740E-02 0.000E+00
 ETOT  2  -22.834558001080     -2.099E-02 1.596E-03 0.000E+00
 ETOT  3  -22.835084907421     -5.269E-04 3.607E-05 0.000E+00
 ETOT  4  -22.835109129781     -2.422E-05 5.986E-06 0.000E+00
 ETOT  5  -22.835110481415     -1.352E-06 2.775E-07 0.000E+00
 ETOT  6  -22.835110564000     -8.259E-08 3.800E-08 0.000E+00
 ETOT  7  -22.835110569219     -5.219E-09 2.696E-09 0.000E+00
 ETOT  8  -22.835110569557     -3.389E-10 4.831E-10 0.000E+00
 ETOT  9  -22.835110569580     -2.235E-11 2.903E-11 0.000E+00
 ETOT 10  -22.835110569581     -1.517E-12 6.293E-12 0.000E+00
 ETOT 11  -22.835110569581     -1.279E-13 3.413E-13 0.000E+00
 ETOT 12  -22.835110569581     -1.066E-14 8.389E-14 0.000E+00
 ETOT 13  -22.835110569581      1.421E-14 4.366E-15 0.000E+00
 ETOT 14  -22.835110569581      3.553E-15 1.141E-15 0.000E+00
 ETOT 15  -22.835110569581     -1.421E-14 5.787E-17 0.000E+00
 ETOT 16  -22.835110569581      1.066E-14 1.576E-17 0.000E+00
 ETOT 17  -22.835110569581      3.553E-15 7.961E-19 0.000E+00
 ETOT 18  -22.835110569581      0.000E+00 2.208E-19 0.000E+00
 ETOT 19  -22.835110569581      0.000E+00 1.099E-20 0.000E+00
 ETOT 20  -22.835110569581     -3.553E-15 9.813E-21 0.000E+00

 At SCF step   20   max residual=  9.81E-21 < tolwfr=  1.00E-20 =>converged.

 ----iterations are completed or convergence reached----

 dfpt_looppert: DFPT cycle converged with prtwf=-1. Will skip output of the 1st-order WFK file.
 dfpt_looppert : ek2=    3.6877788780E+01
          f-sum rule ratio=    1.1518366519E+00
 prteigrs : about to open file /scratch/users/j/a/jabreu/flow_simple_6atoms/flow/w158/t1/tmpdata/tmp_1WF1_EIG
 Expectation of eigenvalue derivatives (hartree) for nkpt=   2  k points:
  (in case of degenerate eigenvalues, averaged derivative)
 kpt#   1, nband= 25, wtk=  0.50000, kpt=  0.0000  0.0000  0.0000 (reduced coord)
  -0.00000    0.00000   -0.00000    0.00000    0.00000    0.00000   -0.00000   -0.00000
  -0.00000    0.00000    0.00000   -0.00000   -0.00000   -0.00000   -0.00000   -0.00000
  -0.00000   -0.00000    0.00000   -0.00000   -0.00000    0.00000    0.00000    0.00000
  -0.00023
 prteigrs : prtvol=0 or 1, do not print more k-points.

 Eight components of 2nd-order total energy (hartree) are
 1,2,3: 0th-order hamiltonian combined with 1st-order wavefunctions
     kin0=   1.84208091E+01 eigvalue=   1.75890156E-01  local=  -8.29238484E+00
 4,5,6: 1st-order hamiltonian combined with 1st and 0th-order wfs
     kin1=  -4.24771888E+01  Hartree=   0.00000000E+00     xc=   0.00000000E+00
 7,8,9: eventually, occupation + non-local contributions
    edocc=   1.19427385E+01     enl0=   5.88057730E-01   enl1=  -3.19303238E+00
 1-9 gives the relaxation energy (to be shifted if some occ is /=2.0)
   erelax=  -2.28351106E+01
  No Ewald or frozen-wf contrib.: the relaxation energy is the total one
 2DEtotal=   -0.2283511057E+02 Ha. Also 2DEtotal=   -0.621374959194E+03 eV
    (  non-var. 2DEtotal :   -2.2835110570E+01 Ha)

 CALCULATION OF EFFECTIVE MASSES
 NOTE : Additional infos (eff. mass eigenvalues, eigenvectors and, if degenerate, average mass) are available in stdout.

 K-point ( 0.000, 0.000, 0.000) | band =    16
 Effective mass tensor:
            -26.9354308082              9.5458789317             -0.0000247374
              9.5458789317             -5.9733904874              0.0000187994
             -0.0000247374              0.0000187994             -1.3396288423
 Effective mass tensor eigenvalues:
            -30.6309965620             -2.2778247337             -1.3396288422
 Angular average effective mass 1/(<1/m>)=  -2.4627763122
 Angular average effective mass for Frohlich model (<m**0.5>)**2=  -3.2440461964
 Effective masses along directions: (cart. coord. / red. coord. -> eff. mass)
    1:   1.000000  0.000000  0.000000 /   0.804100 -0.594494  0.000000 -> -11.6804755575
    2:   0.000000  1.000000  0.000000 /   0.000000  1.000000  0.000000 ->  -2.5903443713
    3:   0.000000  0.000000  1.000000 /   0.000000  0.000000  1.000000 ->  -1.3396288422
    4:   0.577350  0.577350  0.577350 /   0.804222 -0.053064  0.591955 ->  -2.0110279728
    5:   0.000000  0.707107  0.707107 /   0.000000  0.674975  0.737840 ->  -1.7659572346
    6:   0.707107  0.000000  0.707107 /   0.691981 -0.511601  0.509339 ->  -2.4035888984
    7:   0.707107  0.707107  0.000000 /   0.997830 -0.065839  0.000000 ->  -2.6835101728

 K-point (-0.500, 0.500, 0.000) | band =    17
 Effective mass tensor:
              0.9635354371             -0.1599159116              0.0000000015
             -0.1599159116              0.6123628159             -0.0000000003
              0.0000000015             -0.0000000003              0.5307843554
 Effective mass tensor eigenvalues:
              0.5307843554              0.5504545976              1.0254436554
 Angular average effective mass 1/(<1/m>)=   0.6415915298
 Angular average effective mass for Frohlich model (<m**0.5>)**2=   0.6571908465
 Effective masses along directions: (cart. coord. / red. coord. -> eff. mass)
    1:   1.000000  0.000000  0.000000 /   0.804100 -0.594494  0.000000 ->   0.9217740856
    2:   0.000000  1.000000  0.000000 /   0.000000  1.000000  0.000000 ->   0.5858219148
    3:   0.000000  0.000000  1.000000 /   0.000000  0.000000  1.000000 ->   0.5307843554
    4:   0.577350  0.577350  0.577350 /   0.804222 -0.053064  0.591955 ->   0.5722474204
    5:   0.000000  0.707107  0.707107 /   0.000000  0.674975  0.737840 ->   0.5569467335
    6:   0.707107  0.000000  0.707107 /   0.691981 -0.511601  0.509339 ->   0.6736572533
    7:   0.707107  0.707107  0.000000 /   0.997830 -0.065839  0.000000 ->   0.5955069045

 END OF EFFECTIVE MASSES SECTION

 ---- first-order wavefunction calculations are completed ----

 Total localisation tensor (bohr^2) in cartesian coordinates
  WARNING : still subject to testing - especially symmetries.
      direction              matrix element
   alpha     beta       real part   imaginary part
     1        1       4.1743291398    0.0000000000
     1        2      -1.3436373627    0.0000000000
     1        3       0.0000000000    0.0000000000
     2        1      -1.3436373627    0.0000000000
     2        2       1.2237229264    0.0000000000
     2        3       0.0000000000    0.0000000000
     3        1       0.0000000000    0.0000000000
     3        2       0.0000000000    0.0000000000
     3        3       1.1879557018    0.0000000000

 respfn : d/dk was computed, but no 2DTE, so no DDB output.

== END DATASET(S) ==============================================================

 -outvars: echo values of variables after computation  --------
            acell      1.0000000000E+00  1.0000000000E+00  1.0000000000E+00 Bohr
              amu      1.32905430E+02  1.00794000E+00  1.59994000E+01
             ecut      4.40000000E+01 Hartree
           etotal     -2.2835110570E+01
            fcart      0.0000000000E+00  0.0000000000E+00  0.0000000000E+00
                       0.0000000000E+00  0.0000000000E+00  0.0000000000E+00
                       0.0000000000E+00  0.0000000000E+00  0.0000000000E+00
                       0.0000000000E+00  0.0000000000E+00  0.0000000000E+00
                       0.0000000000E+00  0.0000000000E+00  0.0000000000E+00
                       0.0000000000E+00  0.0000000000E+00  0.0000000000E+00
-          fftalg         512
           irdden           1
           irdwfk           1
           istwfk        1    0
              ixc     -116133
              kpt      0.00000000E+00  0.00000000E+00  0.00000000E+00
                      -5.00000000E-01  5.00000000E-01  0.00000000E+00
           kptopt           0
P           mkmem           2
P          mkqmem           2
P          mk1mem           2
            natom           6
            nband          25
           nbdbuf           4
            ngfft          72      72      50
             nkpt           2
            nstep        1000
             nsym           4
           ntypat           3
              occ      2.000000  2.000000  2.000000  2.000000  2.000000  2.000000
                       2.000000  2.000000  2.000000  2.000000  2.000000  2.000000
                       2.000000  2.000000  2.000000  2.000000  0.000000  0.000000
                       0.000000  0.000000  0.000000  0.000000  0.000000  0.000000
                       0.000000
        optdriver           1
            prtwf          -1
            rfdir           1       1       1
           rfelfd           2
            rprim      1.1245399910E+01  0.0000000000E+00  0.0000000000E+00
                      -8.3140369177E+00  7.5720412884E+00  0.0000000000E+00
                       0.0000000000E+00  0.0000000000E+00  8.2772756645E+00
          spgroup          36
           strten      0.0000000000E+00  0.0000000000E+00  0.0000000000E+00
                       0.0000000000E+00  0.0000000000E+00  0.0000000000E+00
           symrel      1  0  0   0  1  0   0  0  1       0 -1  0  -1  0  0   0  0  1
                      -1  0  0   0 -1  0   0  0  1       0  1  0   1  0  0   0  0  1
            tnons      0.0000000  0.0000000  0.0000000     0.0000000  0.0000000  0.0000000
                       0.0000000  0.0000000  0.5000000     0.0000000  0.0000000  0.5000000
           tolwfr      1.00000000E-20
            typat      1  1  2  2  3  3
           useylm           1
              wtk        0.50000    0.50000
           xangst      4.5151870183E+00  5.5577221085E-01  3.2276942742E+00
                      -2.9639765325E+00  3.4511794615E+00  1.0376214588E+00
                       1.0737694514E+00  1.8880475793E+00  2.6276055625E+00
                       4.7744103439E-01  2.1189040930E+00  4.3753274707E-01
                       1.6685246064E+00  1.6578001223E+00  3.3855591029E+00
                      -1.1731412058E-01  2.3491515500E+00  1.1954862875E+00
            xcart      8.5324669034E+00  1.0502572708E+00  6.0994582190E+00
                      -5.6011039108E+00  6.5217840176E+00  1.9608203867E+00
                       2.0291301930E+00  3.5678928508E+00  4.9654548984E+00
                       9.0223279960E-01  4.0041484376E+00  8.2681706613E-01
                       3.1530545520E+00  3.1327882143E+00  6.3977795112E+00
                      -2.2169155941E-01  4.4392530741E+00  2.2591416789E+00
             xred      8.6129800000E-01  1.3870200000E-01  7.3689200000E-01
                       1.3870200000E-01  8.6129800000E-01  2.3689200000E-01
                       5.2880700000E-01  4.7119300000E-01  5.9989000000E-01
                       4.7119300000E-01  5.2880700000E-01  9.9890000000E-02
                       5.8626900000E-01  4.1373100000E-01  7.7293300000E-01
                       4.1373100000E-01  5.8626900000E-01  2.7293300000E-01
            znucl       55.00000    1.00000    8.00000

- Timing analysis has been suppressed with timopt=0

 Suggested references for the acknowledgment of ABINIT usage.

 Calculation completed.
.Delivered  14 WARNINGs and   9 COMMENTs to log file.