.Version 9.5.2 of ABINIT

 ABINIT is a project of the Universite Catholique de Louvain,
 Corning Inc. and other collaborators, see ~abinit/doc/developers/contributors.txt .
 acknowledgments of the ABINIT effort.

.Starting date : Mon 31 May 2021.
- ( at 22h33 )

- input  file    -> /scratch/users/j/a/jabreu/flow_simple_11atoms/flow/w370/t1/run.abi
- output file    -> /scratch/users/j/a/jabreu/flow_simple_11atoms/flow/w370/t1/run.abo
- root for input  files -> /scratch/users/j/a/jabreu/flow_simple_11atoms/flow/w370/t1/indata/in
- root for output files -> /scratch/users/j/a/jabreu/flow_simple_11atoms/flow/w370/t1/outdata/out

 Symmetries : space group R-3 (#148); Bravais hR (rhombohedral)
     intxc =       0      iscf =       7    lmnmax =      13     lnmax =       5
     mgfft =      72  mpssoang =       3    mqgrid =    3001     natom =      11
  nloc_mem =       1    nspden =       1   nspinor =       1    nsppol =       1
      nsym =       6    n1xccc =    2501    ntypat =       4    occopt =       1
   xclevel =       2
-    mband =          45        mffmem =           1         mkmem =           2
-   mkqmem =           2        mk1mem =           2           mpw =       10838
      nfft =      373248          nkpt =           2
  Rough estimation (10% accuracy) of disk space for files :

------------- Echo of variables that govern the present computation ------------
-
- outvars: echo of selected default values
-   iomode0 =  0 , fftalg0 =512 , wfoptalg0 =  0
-
- outvars: echo of global parameters not present in the input file
-  max_nthreads =    0
-
 -outvars: echo values of preprocessed input variables --------
            acell      1.0000000000E+00  1.0000000000E+00  1.0000000000E+00 Bohr
              amu      2.29897680E+01  2.43050000E+01  1.20110000E+01
                       1.59994000E+01
             ecut      4.40000000E+01 Hartree
-          fftalg         512
           irdden           1
           irdwfk           1
           istwfk        1    1
              ixc     -116133
              kpt      5.00000000E-01  0.00000000E+00  0.00000000E+00
                       0.00000000E+00  0.00000000E+00  0.00000000E+00
           kptopt           0
P           mkmem           2
P          mkqmem           2
P          mk1mem           2
            natom          11
            nband          45
           nbdbuf           4
            ngfft          72      72      72
             nkpt           2
            nstep        2000
             nsym           6
           ntypat           4
              occ      2.000000  2.000000  2.000000  2.000000  2.000000  2.000000
                       2.000000  2.000000  2.000000  2.000000  2.000000  2.000000
                       2.000000  2.000000  2.000000  2.000000  2.000000  2.000000
                       2.000000  2.000000  2.000000  2.000000  2.000000  2.000000
                       2.000000  2.000000  2.000000  2.000000  2.000000  2.000000
                       2.000000  2.000000  2.000000  2.000000  2.000000  2.000000
                       0.000000  0.000000  0.000000  0.000000  0.000000  0.000000
                       0.000000  0.000000  0.000000
        optdriver           1
            prtwf          -1
            rfdir           1       1       1
           rfelfd           2
            rprim      8.5517922735E+00  0.0000000000E+00  7.8247617147E+00
                       3.4463975489E+00  7.8265889776E+00  7.8247617147E+00
                       0.0000000000E+00  0.0000000000E+00  1.1591378131E+01
          spgroup         148
           symrel      1  0  0   0  1  0   0  0  1      -1  0  0   0 -1  0   0  0 -1
                       0  0  1   1  0  0   0  1  0       0  0 -1  -1  0  0   0 -1  0
                       0  1  0   0  0  1   1  0  0       0 -1  0   0  0 -1  -1  0  0
           tolwfr      1.00000000E-20
            typat      1  1  2  3  3  4  4  4  4  4  4
           useylm           1
              wtk        0.50000    0.50000
           xangst      5.0816904202E+00  3.3148585594E+00  1.1537559461E+01
                       1.2674781781E+00  8.2679394851E-01  2.8777047864E+00
                       0.0000000000E+00  0.0000000000E+00  0.0000000000E+00
                       2.6000861277E+00  1.6960729684E+00  5.9032813535E+00
                       3.7490824706E+00  2.4455795395E+00  8.5119828938E+00
                       4.8523474296E+00  2.7498004828E+00  7.9150250825E+00
                       2.8205744331E+00  3.3326842318E+00  8.6424461819E+00
                       3.5498749010E+00  1.2383044000E+00  8.9229642344E+00
                       1.4968211688E+00  1.3918520251E+00  6.5002391648E+00
                       2.7992936974E+00  2.9033481079E+00  5.4923000129E+00
                       3.5285941653E+00  8.0896827611E-01  5.7728180654E+00
            xcart      9.6030031863E+00  6.2641748466E+00  2.1802827623E+01
                       2.3951866361E+00  1.5624141310E+00  5.4380739376E+00
                       0.0000000000E+00  0.0000000000E+00  0.0000000000E+00
                       4.9134507033E+00  3.2051134118E+00  1.1155585043E+01
                       7.0847391191E+00  4.6214755658E+00  1.6085316517E+01
                       9.1696077435E+00  5.1963698326E+00  1.4957229741E+01
                       5.3301132159E+00  6.2978604856E+00  1.6331856402E+01
                       6.7082913688E+00  2.3400561852E+00  1.6861958697E+01
                       2.8285820789E+00  2.6302191450E+00  1.2283671820E+01
                       5.2898984536E+00  5.4865327924E+00  1.0378942864E+01
                       6.6680766065E+00  1.5287284920E+00  1.0909045159E+01
             xred      8.0037100000E-01  8.0037100000E-01  8.0037100000E-01
                       1.9962900000E-01  1.9962900000E-01  1.9962900000E-01
                       0.0000000000E+00  0.0000000000E+00  0.0000000000E+00
                       4.0951600000E-01  4.0951600000E-01  4.0951600000E-01
                       5.9048400000E-01  5.9048400000E-01  5.9048400000E-01
                       8.0467500000E-01  6.6393800000E-01  2.9898800000E-01
                       2.9898800000E-01  8.0467500000E-01  6.6393800000E-01
                       6.6393800000E-01  2.9898800000E-01  8.0467500000E-01
                       1.9532500000E-01  3.3606200000E-01  7.0101200000E-01
                       3.3606200000E-01  7.0101200000E-01  1.9532500000E-01
                       7.0101200000E-01  1.9532500000E-01  3.3606200000E-01
            znucl       11.00000   12.00000    6.00000    8.00000

 chkinp: Checking input parameters for consistency.

== DATASET  1 ==================================================================
-   mpi_nproc: 1, omp_nthreads: -1 (-1 if OMP is not activated)

--- !DatasetInfo
iteration_state: {dtset: 1, }
dimensions: {natom: 11, nkpt: 2, mband: 45, nsppol: 1, nspinor: 1, nspden: 1, mpw: 10838, }
cutoff_energies: {ecut:  44.0, pawecutdg:  -1.0, }
electrons: {nelect:   7.20000000E+01, charge:   0.00000000E+00, occopt:   1.00000000E+00, tsmear:   1.00000000E-02, }
meta: {optdriver: 1, rfelfd: 2, }
...

 Real(R)+Recip(G) space primitive vectors, cartesian coordinates (Bohr,Bohr^-1):
 R(1)=  8.5517923  0.0000000  7.8247617  G(1)=  0.1169346 -0.0514915  0.0000000
 R(2)=  3.4463975  7.8265890  7.8247617  G(2)=  0.0000000  0.1277696  0.0000000
 R(3)=  0.0000000  0.0000000 11.5913781  G(3)= -0.0789367 -0.0514915  0.0862710
 Unit cell volume ucvol=  7.7582674E+02 bohr^3
 Angles (23,13,12)=  4.75419541E+01  4.75419541E+01  4.75419541E+01 degrees

 getcut: wavevector=  0.0000  0.0000  0.0000  ngfft=  72  72  72
         ecut(hartree)=     44.000   => boxcut(ratio)=   2.08040

--- Pseudopotential description ------------------------------------------------
- pspini: atom type   1  psp file is /scratch/users/j/a/jabreu/pseudos/PBEsol/Na.psp8
- pspatm: opening atomic psp file    /scratch/users/j/a/jabreu/pseudos/PBEsol/Na.psp8
- Na    ONCVPSP-3.3.0  r_core=   1.20708   1.55069
- 11.00000   9.00000    180112                znucl, zion, pspdat
    8 -116133    1    4       400   0.00000   pspcod,pspxc,lmax,lloc,mmax,r2well
    3.99000000000000    0.00000000000000    0.00000000000000   rchrg,fchrg,qchrg
     nproj     2     2
     extension_switch     1
  pspatm : epsatm=    9.32878306
         --- l  ekb(1:nproj) -->
             0    2.657905   -0.678300
             1   -6.761319   -2.404728
 pspatm: atomic psp has been read  and splines computed

- pspini: atom type   2  psp file is /scratch/users/j/a/jabreu/pseudos/PBEsol/Mg.psp8
- pspatm: opening atomic psp file    /scratch/users/j/a/jabreu/pseudos/PBEsol/Mg.psp8
- Mg    ONCVPSP-3.3.0  r_core=   1.16056   1.56380
- 12.00000  10.00000    180112                znucl, zion, pspdat
    8 -116133    1    4       400   0.00000   pspcod,pspxc,lmax,lloc,mmax,r2well
    3.99000000000000    0.00000000000000    0.00000000000000   rchrg,fchrg,qchrg
     nproj     2     2
     extension_switch     1
  pspatm : epsatm=    9.18164846
         --- l  ekb(1:nproj) -->
             0    2.230603   -0.826587
             1   -6.503151   -2.501445
 pspatm: atomic psp has been read  and splines computed

[...]

- pspini: atom type   4  psp file is /scratch/users/j/a/jabreu/pseudos/PBEsol/O.psp8
- pspatm: opening atomic psp file    /scratch/users/j/a/jabreu/pseudos/PBEsol/O.psp8
- O     ONCVPSP-3.3.0  r_core=   1.35509   1.45563   1.26150
-  8.00000   6.00000    180112                znucl, zion, pspdat
    8 -116133    2    4       600   0.00000   pspcod,pspxc,lmax,lloc,mmax,r2well
    5.99000000000000    4.00000000000000    0.00000000000000   rchrg,fchrg,qchrg
     nproj     2     2     1
     extension_switch     1
  pspatm : epsatm=    6.22910522
         --- l  ekb(1:nproj) -->
             0    6.050032    0.820363
             1   -4.739617   -1.153841
             2   -1.335834
 pspatm: atomic psp has been read  and splines computed

   5.32166662E+03                                ecore*ucvol(ha*bohr**3)

 ==>  initialize data related to q vector <==

 The list of irreducible perturbations for this q vector is:
    1)    idir= 1    ipert=  12
    2)    idir= 2    ipert=  12
    3)    idir= 3    ipert=  12

 Perturbation wavevector (in red.coord.)   0.000000  0.000000  0.000000
 Perturbation : derivative vs k along direction   1

 dfpt_looppert : COMMENT -
  In a d/dk calculation, iscf is set to -3 automatically.
 The set of symmetries contains only one element for this perturbation.
 symkpt : not enough symmetry to change the number of k points.

 Initialisation of the first-order wave-functions :
  ireadwf=   0

--- !BeginCycle
iteration_state: {dtset: 1, }
solver: {iscf: 7, nstep: 2000, nline: 4, wfoptalg: 0, }
tolerances: {tolwfr: 1.00E-20, }
...

     iter   2DEtotal(Ha)        deltaE(Ha) residm    vres2
-ETOT  1  -50.904732059160     -5.090E+01 1.264E-01 0.000E+00
 ETOT  2  -50.952138234184     -4.741E-02 6.158E-03 0.000E+00
 ETOT  3  -50.952313364844     -1.751E-04 8.014E-04 0.000E+00
 ETOT  4  -50.952314316875     -9.520E-07 1.047E-04 0.000E+00
 ETOT  5  -50.952314323135     -6.260E-09 1.127E-05 0.000E+00
 ETOT  6  -50.952314323180     -4.506E-11 2.011E-06 0.000E+00
[...]
 ETOT 34  -50.952314323180      2.132E-14 9.980E-21 0.000E+00

 At SCF step   34   max residual=  9.98E-21 < tolwfr=  1.00E-20 =>converged.

 ----iterations are completed or convergence reached----

 dfpt_looppert: DFPT cycle converged with prtwf=-1. Will skip output of the 1st-order WFK file.
 dfpt_looppert : ek2=    9.2806239388E+01
          f-sum rule ratio=    1.0066322536E+00
 prteigrs : about to open file /scratch/users/j/a/jabreu/flow_simple_11atoms/flow/w370/t1/tmpdata/tmp_1WF1_EIG
 Expectation of eigenvalue derivatives (hartree) for nkpt=   2  k points:
  (in case of degenerate eigenvalues, averaged derivative)
 kpt#   1, nband= 45, wtk=  0.50000, kpt=  0.5000  0.0000  0.0000 (reduced coord)
  -0.00000   -0.00000   -0.00000    0.00000    0.00000   -0.00000    0.00000    0.00000
   0.00000   -0.00000   -0.00000   -0.00000    0.00000    0.00000   -0.00000   -0.00000
   0.00000    0.00000    0.00000   -0.00000    0.00000   -0.00000    0.00000   -0.00000
  -0.00000   -0.00000   -0.00000    0.00000   -0.00000    0.00000    0.00000    0.00000
   0.00000    0.00000   -0.00000    0.00000    0.00000    0.00000   -0.00000   -0.00000
  -0.00000   -0.00000   -0.00000   -0.00000   -0.00000
 prteigrs : prtvol=0 or 1, do not print more k-points.

 Eight components of 2nd-order total energy (hartree) are
 1,2,3: 0th-order hamiltonian combined with 1st-order wavefunctions
     kin0=   7.31222122E+01 eigvalue=   5.84358615E+00  local=  -2.94627368E+01
 4,5,6: 1st-order hamiltonian combined with 1st and 0th-order wfs
     kin1=  -9.34217539E+01  Hartree=   0.00000000E+00     xc=   0.00000000E+00
 7,8,9: eventually, occupation + non-local contributions
    edocc=   6.57173396E+00     enl0=  -5.12248116E+00   enl1=  -8.48287475E+00
 1-9 gives the relaxation energy (to be shifted if some occ is /=2.0)
   erelax=  -5.09523143E+01
  No Ewald or frozen-wf contrib.: the relaxation energy is the total one
 2DEtotal=   -0.5095231432E+02 Ha. Also 2DEtotal=   -0.138648298360E+04 eV
    (  non-var. 2DEtotal :   -5.0952314323E+01 Ha)

 Perturbation wavevector (in red.coord.)   0.000000  0.000000  0.000000
 Perturbation : derivative vs k along direction   2
 The set of symmetries contains only one element for this perturbation.
 symkpt : not enough symmetry to change the number of k points.

[...]

 Perturbation wavevector (in red.coord.)   0.000000  0.000000  0.000000
 Perturbation : derivative vs k along direction   3
 The set of symmetries contains only one element for this perturbation.
 symkpt : not enough symmetry to change the number of k points.

 Initialisation of the first-order wave-functions :
  ireadwf=   0

--- !BeginCycle
iteration_state: {dtset: 1, }
solver: {iscf: 7, nstep: 2000, nline: 4, wfoptalg: 0, }
tolerances: {tolwfr: 1.00E-20, }
...

     iter   2DEtotal(Ha)        deltaE(Ha) residm    vres2
-ETOT  1  -52.266888139930     -5.227E+01 1.265E-01 0.000E+00
 ETOT  2  -52.313641252405     -4.675E-02 6.380E-03 0.000E+00
 ETOT  3  -52.313822243893     -1.810E-04 8.015E-04 0.000E+00
 ETOT  4  -52.313823260683     -1.017E-06 1.047E-04 0.000E+00
 ETOT  5  -52.313823267571     -6.888E-09 1.128E-05 0.000E+00
 ETOT  6  -52.313823267623     -5.135E-11 2.011E-06 0.000E+00
 ETOT  7  -52.313823267623     -3.695E-13 2.748E-07 0.000E+00
 ETOT  8  -52.313823267623     -5.684E-14 7.424E-08 0.000E+00
 ETOT  9  -52.313823267623      4.263E-14 1.693E-08 0.000E+00
 ETOT 10  -52.313823267623     -7.105E-15 5.796E-09 0.000E+00
 ETOT 11  -52.313823267623      0.000E+00 1.581E-09 0.000E+00
 ETOT 12  -52.313823267623     -7.105E-15 5.557E-10 0.000E+00
 ETOT 13  -52.313823267623      0.000E+00 1.538E-10 0.000E+00
 ETOT 14  -52.313823267623      1.421E-14 5.377E-11 0.000E+00
 ETOT 15  -52.313823267623     -1.421E-14 1.501E-11 0.000E+00
 ETOT 16  -52.313823267623      1.421E-14 5.205E-12 0.000E+00
 ETOT 17  -52.313823267623     -2.132E-14 1.467E-12 0.000E+00
 ETOT 18  -52.313823267623      7.105E-15 5.040E-13 0.000E+00
 ETOT 19  -52.313823267623      0.000E+00 1.437E-13 0.000E+00
 ETOT 20  -52.313823267623      0.000E+00 4.884E-14 0.000E+00
 ETOT 21  -52.313823267623      1.421E-14 1.409E-14 0.000E+00
 ETOT 22  -52.313823267623     -1.421E-14 4.734E-15 0.000E+00
 ETOT 23  -52.313823267623      0.000E+00 1.384E-15 0.000E+00
 ETOT 24  -52.313823267623      1.421E-14 4.591E-16 0.000E+00
 ETOT 25  -52.313823267623      0.000E+00 1.360E-16 0.000E+00
 ETOT 26  -52.313823267623     -1.421E-14 4.454E-17 0.000E+00
 ETOT 27  -52.313823267623      0.000E+00 1.339E-17 0.000E+00
 ETOT 28  -52.313823267623      0.000E+00 4.323E-18 0.000E+00
 ETOT 29  -52.313823267623      0.000E+00 1.318E-18 0.000E+00
 ETOT 30  -52.313823267623      0.000E+00 4.198E-19 0.000E+00
 ETOT 31  -52.313823267623      0.000E+00 1.299E-19 0.000E+00
 ETOT 32  -52.313823267623      0.000E+00 4.078E-20 0.000E+00
 ETOT 33  -52.313823267623      1.421E-14 1.281E-20 0.000E+00
 ETOT 34  -52.313823267623     -1.421E-14 9.515E-21 0.000E+00

 At SCF step   34   max residual=  9.51E-21 < tolwfr=  1.00E-20 =>converged.

 ----iterations are completed or convergence reached----

 dfpt_looppert: DFPT cycle converged with prtwf=-1. Will skip output of the 1st-order WFK file.
 dfpt_looppert : ek2=    9.2806239388E+01
          f-sum rule ratio=    1.0430487538E+00
 prteigrs : about to open file /scratch/users/j/a/jabreu/flow_simple_11atoms/flow/w370/t1/tmpdata/tmp_1WF1_EIG
 Expectation of eigenvalue derivatives (hartree) for nkpt=   2  k points:
  (in case of degenerate eigenvalues, averaged derivative)
 kpt#   1, nband= 45, wtk=  0.50000, kpt=  0.5000  0.0000  0.0000 (reduced coord)
  -0.00000   -0.00000   -0.00000   -0.00000   -0.00000   -0.00000   -0.00000   -0.00000
  -0.00000    0.00000    0.00000    0.00000    0.00000   -0.00000   -0.00000    0.00000
  -0.00000   -0.00000   -0.00000    0.00000   -0.00000   -0.00000   -0.00000    0.00000
   0.00000   -0.00000    0.00000   -0.00000    0.00000   -0.00000    0.00000    0.00000
  -0.00000    0.00000    0.00000   -0.00000   -0.00000   -0.00000    0.00000    0.00000
   0.00000    0.00000    0.00000    0.00000    0.00000
 prteigrs : prtvol=0 or 1, do not print more k-points.

 Eight components of 2nd-order total energy (hartree) are
 1,2,3: 0th-order hamiltonian combined with 1st-order wavefunctions
     kin0=   7.26651866E+01 eigvalue=   5.81254959E+00  local=  -2.92498970E+01
 4,5,6: 1st-order hamiltonian combined with 1st and 0th-order wfs
     kin1=  -9.68014323E+01  Hartree=   0.00000000E+00     xc=   0.00000000E+00
 7,8,9: eventually, occupation + non-local contributions
    edocc=   8.13994407E+00     enl0=  -5.05395999E+00   enl1=  -7.82621420E+00
 1-9 gives the relaxation energy (to be shifted if some occ is /=2.0)
   erelax=  -5.23138233E+01
  No Ewald or frozen-wf contrib.: the relaxation energy is the total one
 2DEtotal=   -0.5231382327E+02 Ha. Also 2DEtotal=   -0.142353152612E+04 eV
    (  non-var. 2DEtotal :   -5.2313823267E+01 Ha)

 CALCULATION OF EFFECTIVE MASSES
 NOTE : Additional infos (eff. mass eigenvalues, eigenvectors and, if degenerate, average mass) are available in stdout.

 K-point ( 0.500, 0.000, 0.000) | band =    36
 Effective mass tensor:
             -9.9215584118              1.8677680340             -2.5390878099
              1.8677680340             -5.3111790759             -1.6396000540
             -2.5390878099             -1.6396000540            -10.0695705568
 Effective mass tensor eigenvalues:
            -12.5383361603             -9.0857294801             -3.6782424040
 Angular average effective mass 1/(<1/m>)=  -6.4979075617
 Angular average effective mass for Frohlich model (<m**0.5>)**2=  -7.0896510374
 Effective masses along directions: (cart. coord. / red. coord. -> eff. mass)
    1:   1.000000  0.000000  0.000000 /   0.927513  0.373791  0.000000 ->  -8.2496620613
    2:   0.000000  1.000000  0.000000 /   0.000000  1.000000  0.000000 ->  -4.4835245590
    3:   0.000000  0.000000  1.000000 /   0.488272  0.488272  0.723312 ->  -8.5156256000
    4:   0.577350  0.577350  0.577350 /   0.591217  0.689456  0.418465 ->  -7.6518246315
    5:   0.000000  0.707107  0.707107 /   0.372797  0.745682  0.552251 ->  -8.3267240610
    6:   0.707107  0.000000  0.707107 /   0.711627  0.489777  0.503692 -> -12.5262100753
    7:   0.707107  0.707107  0.000000 /   0.604381  0.796696  0.000000 ->  -4.4063081032

 K-point ( 0.000, 0.000, 0.000) | band =    37
 Effective mass tensor:
              1.1093596949              0.0742392878              0.2584379485
              0.0742392878              1.0439319484              0.1685321494
              0.2584379485              0.1685321494              1.5821570452
 Effective mass tensor eigenvalues:
              0.9955072647              0.9955184418              1.7444229820
 Angular average effective mass 1/(<1/m>)=   1.1617684294
 Angular average effective mass for Frohlich model (<m**0.5>)**2=   1.1837117975
 Effective masses along directions: (cart. coord. / red. coord. -> eff. mass)
    1:   1.000000  0.000000  0.000000 /   0.927513  0.373791  0.000000 ->   1.0650184577
    2:   0.000000  1.000000  0.000000 /   0.000000  1.000000  0.000000 ->   1.0239352469
    3:   0.000000  0.000000  1.000000 /   0.488272  0.488272  0.723312 ->   1.4999360631
    4:   0.577350  0.577350  0.577350 /   0.591217  0.689456  0.418465 ->   1.4962302464
    5:   0.000000  0.707107  0.707107 /   0.372797  0.745682  0.552251 ->   1.3800491364
    6:   0.707107  0.000000  0.707107 /   0.711627  0.489777  0.503692 ->   1.5290442793
    7:   0.707107  0.707107  0.000000 /   0.604381  0.796696  0.000000 ->   1.0928490860

 END OF EFFECTIVE MASSES SECTION

 ---- first-order wavefunction calculations are completed ----

 Total localisation tensor (bohr^2) in cartesian coordinates
  WARNING : still subject to testing - especially symmetries.
      direction              matrix element
   alpha     beta       real part   imaginary part
     1        1       0.6828193625    0.0000000000
     1        2       0.2338313987    0.0000000000
     1        3       0.7643335421    0.0000000000
     2        1       0.2338313987    0.0000000000
     2        2       0.5310189035    0.0000000000
     2        3       0.5308949272    0.0000000000
     3        1       0.7643335421    0.0000000000
     3        2       0.5308949272    0.0000000000
     3        3       2.1831024321    0.0000000000

 respfn : d/dk was computed, but no 2DTE, so no DDB output.

== END DATASET(S) ==============================================================

 -outvars: echo values of variables after computation  --------
            acell      1.0000000000E+00  1.0000000000E+00  1.0000000000E+00 Bohr
              amu      2.29897680E+01  2.43050000E+01  1.20110000E+01
                       1.59994000E+01
             ecut      4.40000000E+01 Hartree
           etotal     -5.2313823268E+01
            fcart      0.0000000000E+00  0.0000000000E+00  0.0000000000E+00
                       0.0000000000E+00  0.0000000000E+00  0.0000000000E+00
                       0.0000000000E+00  0.0000000000E+00  0.0000000000E+00
                       0.0000000000E+00  0.0000000000E+00  0.0000000000E+00
                       0.0000000000E+00  0.0000000000E+00  0.0000000000E+00
                       0.0000000000E+00  0.0000000000E+00  0.0000000000E+00
                       0.0000000000E+00  0.0000000000E+00  0.0000000000E+00
                       0.0000000000E+00  0.0000000000E+00  0.0000000000E+00
                       0.0000000000E+00  0.0000000000E+00  0.0000000000E+00
                       0.0000000000E+00  0.0000000000E+00  0.0000000000E+00
                       0.0000000000E+00  0.0000000000E+00  0.0000000000E+00
-          fftalg         512
           irdden           1
           irdwfk           1
           istwfk        1    1
              ixc     -116133
              kpt      5.00000000E-01  0.00000000E+00  0.00000000E+00
                       0.00000000E+00  0.00000000E+00  0.00000000E+00
           kptopt           0
P           mkmem           2
P          mkqmem           2
P          mk1mem           2
            natom          11
            nband          45
           nbdbuf           4
            ngfft          72      72      72
             nkpt           2
            nstep        2000
             nsym           6
           ntypat           4
              occ      2.000000  2.000000  2.000000  2.000000  2.000000  2.000000
                       2.000000  2.000000  2.000000  2.000000  2.000000  2.000000
                       2.000000  2.000000  2.000000  2.000000  2.000000  2.000000
                       2.000000  2.000000  2.000000  2.000000  2.000000  2.000000
                       2.000000  2.000000  2.000000  2.000000  2.000000  2.000000
                       2.000000  2.000000  2.000000  2.000000  2.000000  2.000000
                       0.000000  0.000000  0.000000  0.000000  0.000000  0.000000
                       0.000000  0.000000  0.000000
        optdriver           1
            prtwf          -1
            rfdir           1       1       1
           rfelfd           2
            rprim      8.5517922735E+00  0.0000000000E+00  7.8247617147E+00
                       3.4463975489E+00  7.8265889776E+00  7.8247617147E+00
                       0.0000000000E+00  0.0000000000E+00  1.1591378131E+01
          spgroup         148
           strten      0.0000000000E+00  0.0000000000E+00  0.0000000000E+00
                       0.0000000000E+00  0.0000000000E+00  0.0000000000E+00
           symrel      1  0  0   0  1  0   0  0  1      -1  0  0   0 -1  0   0  0 -1
                       0  0  1   1  0  0   0  1  0       0  0 -1  -1  0  0   0 -1  0
                       0  1  0   0  0  1   1  0  0       0 -1  0   0  0 -1  -1  0  0
           tolwfr      1.00000000E-20
            typat      1  1  2  3  3  4  4  4  4  4  4
           useylm           1
              wtk        0.50000    0.50000
           xangst      5.0816904202E+00  3.3148585594E+00  1.1537559461E+01
                       1.2674781781E+00  8.2679394851E-01  2.8777047864E+00
                       0.0000000000E+00  0.0000000000E+00  0.0000000000E+00
                       2.6000861277E+00  1.6960729684E+00  5.9032813535E+00
                       3.7490824706E+00  2.4455795395E+00  8.5119828938E+00
                       4.8523474296E+00  2.7498004828E+00  7.9150250825E+00
                       2.8205744331E+00  3.3326842318E+00  8.6424461819E+00
                       3.5498749010E+00  1.2383044000E+00  8.9229642344E+00
                       1.4968211688E+00  1.3918520251E+00  6.5002391648E+00
                       2.7992936974E+00  2.9033481079E+00  5.4923000129E+00
                       3.5285941653E+00  8.0896827611E-01  5.7728180654E+00
            xcart      9.6030031863E+00  6.2641748466E+00  2.1802827623E+01
                       2.3951866361E+00  1.5624141310E+00  5.4380739376E+00
                       0.0000000000E+00  0.0000000000E+00  0.0000000000E+00
                       4.9134507033E+00  3.2051134118E+00  1.1155585043E+01
                       7.0847391191E+00  4.6214755658E+00  1.6085316517E+01
                       9.1696077435E+00  5.1963698326E+00  1.4957229741E+01
                       5.3301132159E+00  6.2978604856E+00  1.6331856402E+01
                       6.7082913688E+00  2.3400561852E+00  1.6861958697E+01
                       2.8285820789E+00  2.6302191450E+00  1.2283671820E+01
                       5.2898984536E+00  5.4865327924E+00  1.0378942864E+01
                       6.6680766065E+00  1.5287284920E+00  1.0909045159E+01
             xred      8.0037100000E-01  8.0037100000E-01  8.0037100000E-01
                       1.9962900000E-01  1.9962900000E-01  1.9962900000E-01
                       0.0000000000E+00  0.0000000000E+00  0.0000000000E+00
                       4.0951600000E-01  4.0951600000E-01  4.0951600000E-01
                       5.9048400000E-01  5.9048400000E-01  5.9048400000E-01
                       8.0467500000E-01  6.6393800000E-01  2.9898800000E-01
                       2.9898800000E-01  8.0467500000E-01  6.6393800000E-01
                       6.6393800000E-01  2.9898800000E-01  8.0467500000E-01
                       1.9532500000E-01  3.3606200000E-01  7.0101200000E-01
                       3.3606200000E-01  7.0101200000E-01  1.9532500000E-01
                       7.0101200000E-01  1.9532500000E-01  3.3606200000E-01
            znucl       11.00000   12.00000    6.00000    8.00000

- Timing analysis has been suppressed with timopt=0

 Suggested references for the acknowledgment of ABINIT usage.

 Calculation completed.
.Delivered   2 WARNINGs and   5 COMMENTs to log file.