.Version 9.5.1 of ABINIT

 ABINIT is a project of the Universite Catholique de Louvain,
 Corning Inc. and other collaborators, see ~abinit/doc/developers/contributors.txt .
 acknowledgments of the ABINIT effort.

.Starting date : Wed 19 May 2021.
- ( at 13h43 )

- input  file    -> /scratch/users/j/a/jabreu/flow_simple_9atoms/flow/w169/t1/run.abi
- output file    -> /scratch/users/j/a/jabreu/flow_simple_9atoms/flow/w169/t1/run.abo
- root for input  files -> /scratch/users/j/a/jabreu/flow_simple_9atoms/flow/w169/t1/indata/in
- root for output files -> /scratch/users/j/a/jabreu/flow_simple_9atoms/flow/w169/t1/outdata/out

 Symmetries : space group Fm -3 m (#225); Bravais cF (face-center cubic)
     intxc =       0      iscf =       7    lmnmax =      32     lnmax =       8
     mgfft =      60  mpssoang =       4    mqgrid =    3001     natom =       9
  nloc_mem =       1    nspden =       1   nspinor =       1    nsppol =       1
      nsym =      48    n1xccc =    2501    ntypat =       3    occopt =       1
   xclevel =       2
-    mband =          30        mffmem =           1         mkmem =           2
-   mkqmem =           2        mk1mem =           2           mpw =       10002
      nfft =      216000          nkpt =           2
  Rough estimation (10% accuracy) of disk space for files :

------------- Echo of variables that govern the present computation ------------
-
- outvars: echo of selected default values
-   iomode0 =  0 , fftalg0 =512 , wfoptalg0 =  0
-
- outvars: echo of global parameters not present in the input file
-  max_nthreads =    0
-
 -outvars: echo values of preprocessed input variables --------
            acell      1.0000000000E+00  1.0000000000E+00  1.0000000000E+00 Bohr
              amu      1.37327000E+02  1.00794000E+00  1.90200000E+02
             ecut      3.90000000E+01 Hartree
-          fftalg         512
           irdden           1
           irdwfk           1
           istwfk        1    1
              ixc     -116133
              kpt      0.00000000E+00  0.00000000E+00  0.00000000E+00
                       5.00000000E-01  0.00000000E+00  5.00000000E-01
           kptopt           0
P           mkmem           2
P          mkqmem           2
P          mk1mem           2
            natom           9
            nband          30
           nbdbuf           4
            ngfft          60      60      60
             nkpt           2
            nstep        2000
             nsym          48
           ntypat           3
              occ      2.000000  2.000000  2.000000  2.000000  2.000000  2.000000
                       2.000000  2.000000  2.000000  2.000000  2.000000  2.000000
                       2.000000  2.000000  2.000000  2.000000  2.000000  2.000000
                       2.000000  2.000000  2.000000  0.000000  0.000000  0.000000
                       0.000000  0.000000  0.000000  0.000000  0.000000  0.000000
        optdriver           1
            prtwf          -1
            rfdir           1       1       1
           rfelfd           2
            rprim      9.2360574943E+00  0.0000000000E+00  5.3324402806E+00
                       3.0786858314E+00  8.7078385142E+00  5.3324402806E+00
                       0.0000000000E+00  0.0000000000E+00  1.0664880561E+01
          spgroup         225
           symrel      1  0  0   0  1  0   0  0  1      -1  0  0   0 -1  0   0  0 -1
                       0 -1  1   0 -1  0   1 -1  0       0  1 -1   0  1  0  -1  1  0
                      -1  0  0  -1  0  1  -1  1  0       1  0  0   1  0 -1   1 -1  0
                       0  1 -1   1  0 -1   0  0 -1       0 -1  1  -1  0  1   0  0  1
                      -1  0  0  -1  1  0  -1  0  1       1  0  0   1 -1  0   1  0 -1
                       0 -1  1   1 -1  0   0 -1  0       0  1 -1  -1  1  0   0  1  0
                       1  0  0   0  0  1   0  1  0      -1  0  0   0  0 -1   0 -1  0
                       0  1 -1   0  0 -1   1  0 -1       0 -1  1   0  0  1  -1  0  1
                      -1  0  1  -1  1  0  -1  0  0       1  0 -1   1 -1  0   1  0  0
                       0 -1  0   1 -1  0   0 -1  1       0  1  0  -1  1  0   0  1 -1
                       1  0 -1   0  0 -1   0  1 -1      -1  0  1   0  0  1   0 -1  1
                       0  1  0   0  0  1   1  0  0       0 -1  0   0  0 -1  -1  0  0
                       1  0 -1   0  1 -1   0  0 -1      -1  0  1   0 -1  1   0  0  1
                       0 -1  0   0 -1  1   1 -1  0       0  1  0   0  1 -1  -1  1  0
                      -1  0  1  -1  0  0  -1  1  0       1  0 -1   1  0  0   1 -1  0
                       0  1  0   1  0  0   0  0  1       0 -1  0  -1  0  0   0  0 -1
                       0  0 -1   0  1 -1   1  0 -1       0  0  1   0 -1  1  -1  0  1
                       1 -1  0   0 -1  1   0 -1  0      -1  1  0   0  1 -1   0  1  0
                       0  0  1   1  0  0   0  1  0       0  0 -1  -1  0  0   0 -1  0
                      -1  1  0  -1  0  0  -1  0  1       1 -1  0   1  0  0   1  0 -1
                       0  0  1   0  1  0   1  0  0       0  0 -1   0 -1  0  -1  0  0
                       1 -1  0   0 -1  0   0 -1  1      -1  1  0   0  1  0   0  1 -1
                       0  0 -1   1  0 -1   0  1 -1       0  0  1  -1  0  1   0 -1  1
                      -1  1  0  -1  0  1  -1  0  0       1 -1  0   1  0 -1   1  0  0
           tolwfr      1.00000000E-20
            typat      1  1  2  2  2  2  2  2  3
           useylm           1
              wtk        0.50000    0.50000
           xangst      4.8875111232E+00  3.4559922583E+00  8.4654175880E+00
                       1.6291703744E+00  1.1519974194E+00  2.8218058627E+00
                       2.3356242655E+00  3.6089130038E+00  7.2418035554E+00
                       5.1037737154E+00  3.6089130038E+00  5.6436117253E+00
                       4.1810572321E+00  9.9907667400E-01  7.2418035554E+00
                       4.1810572321E+00  9.9907667400E-01  4.0454198953E+00
                       1.4129077822E+00  9.9907667400E-01  5.6436117253E+00
                       2.3356242655E+00  3.6089130038E+00  4.0454198953E+00
                       0.0000000000E+00  0.0000000000E+00  0.0000000000E+00
            xcart      9.2360574943E+00  6.5308788857E+00  1.5997320842E+01
                       3.0786858314E+00  2.1769596285E+00  5.3324402806E+00
                       4.4136902111E+00  6.8198572146E+00  1.3685025428E+01
                       9.6447345663E+00  6.8198572146E+00  1.0664880561E+01
                       7.9010531146E+00  1.8879812996E+00  1.3685025428E+01
                       7.9010531146E+00  1.8879812996E+00  7.6447356946E+00
                       2.6700087594E+00  1.8879812996E+00  1.0664880561E+01
                       4.4136902111E+00  6.8198572146E+00  7.6447356946E+00
                       0.0000000000E+00  0.0000000000E+00  0.0000000000E+00
             xred      7.5000000000E-01  7.5000000000E-01  7.5000000000E-01
                       2.5000000000E-01  2.5000000000E-01  2.5000000000E-01
                       2.1681400000E-01  7.8318600000E-01  7.8318600000E-01
                       7.8318600000E-01  7.8318600000E-01  2.1681400000E-01
                       7.8318600000E-01  2.1681400000E-01  7.8318600000E-01
                       7.8318600000E-01  2.1681400000E-01  2.1681400000E-01
                       2.1681400000E-01  2.1681400000E-01  7.8318600000E-01
                       2.1681400000E-01  7.8318600000E-01  2.1681400000E-01
                       0.0000000000E+00  0.0000000000E+00  0.0000000000E+00
            znucl       56.00000    1.00000   76.00000

 chkinp: Checking input parameters for consistency.

== DATASET  1 ==================================================================
-   mpi_nproc: 1, omp_nthreads: -1 (-1 if OMP is not activated)

--- !DatasetInfo
iteration_state: {dtset: 1, }
dimensions: {natom: 9, nkpt: 2, mband: 30, nsppol: 1, nspinor: 1, nspden: 1, mpw: 10002, }
cutoff_energies: {ecut:  39.0, pawecutdg:  -1.0, }
electrons: {nelect:   4.20000000E+01, charge:   0.00000000E+00, occopt:   1.00000000E+00, tsmear:   1.00000000E-02, }
meta: {optdriver: 1, rfelfd: 2, }
...

 Real(R)+Recip(G) space primitive vectors, cartesian coordinates (Bohr,Bohr^-1):
 R(1)=  9.2360575  0.0000000  5.3324403  G(1)=  0.1082713 -0.0382797  0.0000000
 R(2)=  3.0786858  8.7078385  5.3324403  G(2)=  0.0000000  0.1148391  0.0000000
 R(3)=  0.0000000  0.0000000 10.6648806  G(3)= -0.0541357 -0.0382797  0.0937657
 Unit cell volume ucvol=  8.5773472E+02 bohr^3
 Angles (23,13,12)=  6.00000000E+01  6.00000000E+01  6.00000000E+01 degrees

 getcut: wavevector=  0.0000  0.0000  0.0000  ngfft=  60  60  60
         ecut(hartree)=     39.000   => boxcut(ratio)=   2.00123

--- Pseudopotential description ------------------------------------------------
- pspini: atom type   1  psp file is /scratch/users/j/a/jabreu/pseudos/PBEsol/Ba.psp8
- pspatm: opening atomic psp file    /scratch/users/j/a/jabreu/pseudos/PBEsol/Ba.psp8
- Ba    ONCVPSP-3.3.0  r_core=   2.15444   1.91218   2.15444
- 56.00000  10.00000    180112                znucl, zion, pspdat
    8 -116133    2    4       600   0.00000   pspcod,pspxc,lmax,lloc,mmax,r2well
    5.99000000000000    5.00000000000000    0.00000000000000   rchrg,fchrg,qchrg
     nproj     2     2     2
     extension_switch     1
  pspatm : epsatm=   26.37418029
         --- l  ekb(1:nproj) -->
             0    6.652372    0.677024
             1    5.027722    0.408462
             2    2.543237    0.416854
 pspatm: atomic psp has been read  and splines computed

- pspini: atom type   2  psp file is /scratch/users/j/a/jabreu/pseudos/PBEsol/H.psp8
- pspatm: opening atomic psp file    /scratch/users/j/a/jabreu/pseudos/PBEsol/H.psp8
- H     ONCVPSP-3.3.0  r_core=   1.00957   0.70586
-  1.00000   1.00000    180112                znucl, zion, pspdat
    8 -116133    1    4       300   0.00000   pspcod,pspxc,lmax,lloc,mmax,r2well
    2.99000000000000    0.00000000000000    0.00000000000000   rchrg,fchrg,qchrg
     nproj     2     1
     extension_switch     1
  pspatm : epsatm=    0.35627032
         --- l  ekb(1:nproj) -->
             0   -1.674911   -0.523609
             1   -0.494138
 pspatm: atomic psp has been read  and splines computed

- pspini: atom type   3  psp file is /scratch/users/j/a/jabreu/pseudos/PBEsol/Os.psp8
- pspatm: opening atomic psp file    /scratch/users/j/a/jabreu/pseudos/PBEsol/Os.psp8
- Os    ONCVPSP-3.3.0  r_core=   1.51352   1.55006   1.55006   2.27051
- 76.00000  16.00000    180112                znucl, zion, pspdat
    8 -116133    3    4       600   0.00000   pspcod,pspxc,lmax,lloc,mmax,r2well
    5.99000000000000    5.00000000000000    0.00000000000000   rchrg,fchrg,qchrg
     nproj     2     2     2     2
     extension_switch     1
  pspatm : epsatm=   26.11825460
         --- l  ekb(1:nproj) -->
             0    7.994989   -1.246074
             1    8.240861    1.154929
             2    2.240487    0.219183
             3    0.647575    0.186609
 pspatm: atomic psp has been read  and splines computed

   3.40217796E+03                                ecore*ucvol(ha*bohr**3)

[...]
    (  non-var. 2DEtotal :   -2.3228803570E+01 Ha)

 Perturbation wavevector (in red.coord.)   0.000000  0.000000  0.000000
 Perturbation : derivative vs k along direction   2
 The set of symmetries contains only one element for this perturbation.
 symkpt : not enough symmetry to change the number of k points.

[...]

 Perturbation wavevector (in red.coord.)   0.000000  0.000000  0.000000
 Perturbation : derivative vs k along direction   3
 The set of symmetries contains only one element for this perturbation.
 symkpt : not enough symmetry to change the number of k points.

-inwffil : will read wavefunctions from disk file /scratch/users/j/a/jabreu/flow_simple_9atoms/flow/w169/t1/indata/in_WFK

 Initialisation of the first-order wave-functions :
  ireadwf=   0

--- !BeginCycle
iteration_state: {dtset: 1, }
solver: {iscf: 7, nstep: 2000, nline: 4, wfoptalg: 0, }
tolerances: {tolwfr: 1.00E-20, }
...

     iter   2DEtotal(Ha)        deltaE(Ha) residm    vres2
-ETOT  1  -23.215130854643     -2.322E+01 1.439E-01 0.000E+00
 ETOT  2  -23.228795423443     -1.366E-02 1.491E-02 0.000E+00
 ETOT  3  -23.228829601653     -3.418E-05 1.013E-03 0.000E+00
 ETOT  4  -23.228829740900     -1.392E-07 8.117E-05 0.000E+00
 ETOT  5  -23.228829741606     -7.051E-10 7.359E-06 0.000E+00
 ETOT  6  -23.228829741609     -3.890E-12 8.353E-07 0.000E+00
 ETOT  7  -23.228829741609      2.132E-14 7.702E-08 0.000E+00
 ETOT  8  -23.228829741609     -3.553E-14 8.868E-09 0.000E+00
 ETOT  9  -23.228829741609      1.421E-14 7.957E-10 0.000E+00
 ETOT 10  -23.228829741609      0.000E+00 9.288E-11 0.000E+00
 ETOT 11  -23.228829741609     -7.105E-15 8.217E-12 0.000E+00
 ETOT 12  -23.228829741609      0.000E+00 9.808E-13 0.000E+00
 ETOT 13  -23.228829741609      0.000E+00 8.620E-14 0.000E+00
 ETOT 14  -23.228829741609      0.000E+00 1.055E-14 0.000E+00
 ETOT 15  -23.228829741609      0.000E+00 9.240E-16 0.000E+00
 ETOT 16  -23.228829741609      0.000E+00 1.158E-16 0.000E+00
 ETOT 17  -23.228829741609      7.105E-15 1.012E-17 0.000E+00
 ETOT 18  -23.228829741609      0.000E+00 1.296E-18 0.000E+00
 ETOT 19  -23.228829741609      0.000E+00 1.131E-19 0.000E+00
 ETOT 20  -23.228829741609      0.000E+00 1.475E-20 0.000E+00
 ETOT 21  -23.228829741609      0.000E+00 8.751E-21 0.000E+00

 At SCF step   21   max residual=  8.75E-21 < tolwfr=  1.00E-20 =>converged.

 ----iterations are completed or convergence reached----

 dfpt_looppert: DFPT cycle converged with prtwf=-1. Will skip output of the 1st-order WFK file.
 dfpt_looppert : ek2=    4.3733908277E+01
          f-sum rule ratio=    9.7978331246E-01
 prteigrs : about to open file /scratch/users/j/a/jabreu/flow_simple_9atoms/flow/w169/t1/tmpdata/tmp_1WF1_EIG
 Expectation of eigenvalue derivatives (hartree) for nkpt=   2  k points:
  (in case of degenerate eigenvalues, averaged derivative)
 kpt#   1, nband= 30, wtk=  0.50000, kpt=  0.0000  0.0000  0.0000 (reduced coord)
   0.00000   -0.00000   -0.00000   -0.00000    0.00000   -0.00000   -0.00000   -0.00000
  -0.00000    0.00000    0.00000    0.00000    0.00000    0.00000    0.00000   -0.00000
  -0.00000   -0.00000   -0.00000   -0.00000   -0.00000   -0.00000   -0.00000   -0.00000
  -0.00000   -0.00000   -0.00000   -0.00000   -0.00000   -0.00000
 prteigrs : prtvol=0 or 1, do not print more k-points.

 Eight components of 2nd-order total energy (hartree) are
 1,2,3: 0th-order hamiltonian combined with 1st-order wavefunctions
     kin0=   2.77710327E+01 eigvalue=  -2.74270856E-01  local=  -1.70008711E+01
 4,5,6: 1st-order hamiltonian combined with 1st and 0th-order wfs
     kin1=  -4.28497535E+01  Hartree=   0.00000000E+00     xc=   0.00000000E+00
 7,8,9: eventually, occupation + non-local contributions
    edocc=   8.88580920E+00     enl0=   3.84712982E+00   enl1=  -3.60790596E+00
 1-9 gives the relaxation energy (to be shifted if some occ is /=2.0)
   erelax=  -2.32288297E+01
  No Ewald or frozen-wf contrib.: the relaxation energy is the total one
 2DEtotal=   -0.2322882974E+02 Ha. Also 2DEtotal=   -0.632088602718E+03 eV
    (  non-var. 2DEtotal :   -2.3228829741E+01 Ha)

 CALCULATION OF EFFECTIVE MASSES
 NOTE : Additional infos (eff. mass eigenvalues, eigenvectors and, if degenerate, average mass) are available in stdout.

 COMMENTS:
 - At k-point ( 0.000, 0.000, 0.000), bands    19 through    21
   are DEGENERATE (effective mass tensor is therefore not defined).
   See Section IIIB Eqs. (67)-(70) and Appendix E of PRB 93 205147 (2016).
 - Angular average effective mass for Frohlich model is to be averaged over degenerate bands. See later.
 - Associated theta integrals calculated with ntheta=   1000 points.

 K-point ( 0.000, 0.000, 0.000) | band =    19
 Transport equivalent effective mass tensor:
             -2.5451665347             -0.0000000002             -0.0000000001
             -0.0000000002             -2.5451665345              0.0000000001
             -0.0000000001              0.0000000001             -2.5451665344
 Transport equivalent effective mass tensor eigenvalues:
             -2.5451665348             -2.5451665345             -2.5451665343
 Angular average effective mass 1/(<1/m>)=  -2.3639616606
 Angular average effective mass for Frohlich model (<m**0.5>)**2=  -2.3758533153
 Effective masses along directions: (cart. coord. / red. coord. -> eff. mass)
    1:   1.000000  0.000000  0.000000 /   0.948683  0.316228  0.000000 ->  -2.4485153983
    2:   0.000000  1.000000  0.000000 /   0.000000  1.000000  0.000000 ->  -2.7420865143
    3:   0.000000  0.000000  1.000000 /   0.408248  0.408248  0.816497 ->  -2.5191343246
    4:   0.577350  0.577350  0.577350 /   0.585539  0.688047  0.428644 ->  -2.4668526551
    5:   0.000000  0.707107  0.707107 /   0.289489  0.762222  0.578977 ->  -2.2338957452
    6:   0.707107  0.000000  0.707107 /   0.731423  0.422287  0.535439 ->  -2.4811923509
    7:   0.707107  0.707107  0.000000 /   0.616798  0.787122  0.000000 ->  -2.0577337937

[...]

 K-point ( 0.000, 0.000, 0.000) | band =    21
 Transport equivalent effective mass tensor:
             -6.3774403378              0.0000024377             -0.0000000005
              0.0000024377             -6.3774408773             -0.0000000000
             -0.0000000005             -0.0000000000             -6.3774444933
 Transport equivalent effective mass tensor eigenvalues:
             -6.3774444933             -6.3774430601             -6.3774381550
 Angular average effective mass 1/(<1/m>)=  -5.6717674260
 Angular average effective mass for Frohlich model (<m**0.5>)**2=  -5.7015416450
 Effective masses along directions: (cart. coord. / red. coord. -> eff. mass)
    1:   1.000000  0.000000  0.000000 /   0.948683  0.316228  0.000000 ->  -5.1505067588
    2:   0.000000  1.000000  0.000000 /   0.000000  1.000000  0.000000 ->  -4.4163443372
    3:   0.000000  0.000000  1.000000 /   0.408248  0.408248  0.816497 ->  -6.1774273818
    4:   0.577350  0.577350  0.577350 /   0.585539  0.688047  0.428644 ->  -5.4131500715
    5:   0.000000  0.707107  0.707107 /   0.289489  0.762222  0.578977 ->  -6.0983812353
    6:   0.707107  0.000000  0.707107 /   0.731423  0.422287  0.535439 ->  -5.7849754880
    7:   0.707107  0.707107  0.000000 /   0.616798  0.787122  0.000000 ->  -6.0735436076

 Angular average effective mass for Frohlich model, averaged over degenerate bands.
 Value of     (<<m**0.5>>)**2 =     4.111244E+00
 Absolute Value of <<m**0.5>> =     2.027620E+00

 K-point ( 0.500, 0.000, 0.500) | band =    22
 Effective mass tensor:
             20.5271234913              5.6751742137             -6.9493098645
              5.6751742137             16.5111937424              9.8301464999
             -6.9493098645              9.8301464999             12.5018777547
 Effective mass tensor eigenvalues:
              0.4620874345             24.5390046104             24.5391029436
 Angular average effective mass 1/(<1/m>)=   1.3359486218
 Angular average effective mass for Frohlich model (<m**0.5>)**2=   3.3688231673
 Effective masses along directions: (cart. coord. / red. coord. -> eff. mass)
    1:   1.000000  0.000000  0.000000 /   0.948683  0.316228  0.000000 ->   2.5344304547
    2:   0.000000  1.000000  0.000000 /   0.000000  1.000000  0.000000 ->   1.3356055400
    3:   0.000000  0.000000  1.000000 /   0.408248  0.408248  0.816497 ->   0.9071896734
    4:   0.577350  0.577350  0.577350 /   0.585539  0.688047  0.428644 ->   4.0733964756
    5:   0.000000  0.707107  0.707107 /   0.289489  0.762222  0.578977 ->  17.0665238317
    6:   0.707107  0.000000  0.707107 /   0.731423  0.422287  0.535439 ->   0.7345960511
    7:   0.707107  0.707107  0.000000 /   0.616798  0.787122  0.000000 ->  14.0539993513

 END OF EFFECTIVE MASSES SECTION

 ---- first-order wavefunction calculations are completed ----

 Total localisation tensor (bohr^2) in cartesian coordinates
  WARNING : still subject to testing - especially symmetries.
      direction              matrix element
   alpha     beta       real part   imaginary part
     1        1       1.3471228652    0.0000000000
     1        2       0.3808824265    0.0000000000
     1        3       0.9332563483    0.0000000000
     2        1       0.3808824265    0.0000000000
     2        2       1.0772981863    0.0000000000
     2        3       0.6597077143    0.0000000000
     3        1       0.9332563483    0.0000000000
     3        2       0.6597077143    0.0000000000
     3        3       2.4247552596    0.0000000000

 respfn : d/dk was computed, but no 2DTE, so no DDB output.

== END DATASET(S) ==============================================================

 -outvars: echo values of variables after computation  --------
            acell      1.0000000000E+00  1.0000000000E+00  1.0000000000E+00 Bohr
              amu      1.37327000E+02  1.00794000E+00  1.90200000E+02
             ecut      3.90000000E+01 Hartree
           etotal     -2.3228829742E+01
            fcart      0.0000000000E+00  0.0000000000E+00  0.0000000000E+00
                       0.0000000000E+00  0.0000000000E+00  0.0000000000E+00
                       0.0000000000E+00  0.0000000000E+00  0.0000000000E+00
                       0.0000000000E+00  0.0000000000E+00  0.0000000000E+00
                       0.0000000000E+00  0.0000000000E+00  0.0000000000E+00
                       0.0000000000E+00  0.0000000000E+00  0.0000000000E+00
                       0.0000000000E+00  0.0000000000E+00  0.0000000000E+00
                       0.0000000000E+00  0.0000000000E+00  0.0000000000E+00
                       0.0000000000E+00  0.0000000000E+00  0.0000000000E+00
-          fftalg         512
           irdden           1
           irdwfk           1
           istwfk        1    1
              ixc     -116133
              kpt      0.00000000E+00  0.00000000E+00  0.00000000E+00
                       5.00000000E-01  0.00000000E+00  5.00000000E-01
           kptopt           0
P           mkmem           2
P          mkqmem           2
P          mk1mem           2
            natom           9
            nband          30
           nbdbuf           4
            ngfft          60      60      60
             nkpt           2
            nstep        2000
             nsym          48
           ntypat           3
              occ      2.000000  2.000000  2.000000  2.000000  2.000000  2.000000
                       2.000000  2.000000  2.000000  2.000000  2.000000  2.000000
                       2.000000  2.000000  2.000000  2.000000  2.000000  2.000000
                       2.000000  2.000000  2.000000  0.000000  0.000000  0.000000
                       0.000000  0.000000  0.000000  0.000000  0.000000  0.000000
        optdriver           1
            prtwf          -1
            rfdir           1       1       1
           rfelfd           2
            rprim      9.2360574943E+00  0.0000000000E+00  5.3324402806E+00
                       3.0786858314E+00  8.7078385142E+00  5.3324402806E+00
                       0.0000000000E+00  0.0000000000E+00  1.0664880561E+01
          spgroup         225
           strten      0.0000000000E+00  0.0000000000E+00  0.0000000000E+00
                       0.0000000000E+00  0.0000000000E+00  0.0000000000E+00
           symrel      1  0  0   0  1  0   0  0  1      -1  0  0   0 -1  0   0  0 -1
                       0 -1  1   0 -1  0   1 -1  0       0  1 -1   0  1  0  -1  1  0
                      -1  0  0  -1  0  1  -1  1  0       1  0  0   1  0 -1   1 -1  0
                       0  1 -1   1  0 -1   0  0 -1       0 -1  1  -1  0  1   0  0  1
                      -1  0  0  -1  1  0  -1  0  1       1  0  0   1 -1  0   1  0 -1
                       0 -1  1   1 -1  0   0 -1  0       0  1 -1  -1  1  0   0  1  0
                       1  0  0   0  0  1   0  1  0      -1  0  0   0  0 -1   0 -1  0
                       0  1 -1   0  0 -1   1  0 -1       0 -1  1   0  0  1  -1  0  1
                      -1  0  1  -1  1  0  -1  0  0       1  0 -1   1 -1  0   1  0  0
                       0 -1  0   1 -1  0   0 -1  1       0  1  0  -1  1  0   0  1 -1
                       1  0 -1   0  0 -1   0  1 -1      -1  0  1   0  0  1   0 -1  1
                       0  1  0   0  0  1   1  0  0       0 -1  0   0  0 -1  -1  0  0
                       1  0 -1   0  1 -1   0  0 -1      -1  0  1   0 -1  1   0  0  1
                       0 -1  0   0 -1  1   1 -1  0       0  1  0   0  1 -1  -1  1  0
                      -1  0  1  -1  0  0  -1  1  0       1  0 -1   1  0  0   1 -1  0
                       0  1  0   1  0  0   0  0  1       0 -1  0  -1  0  0   0  0 -1
                       0  0 -1   0  1 -1   1  0 -1       0  0  1   0 -1  1  -1  0  1
                       1 -1  0   0 -1  1   0 -1  0      -1  1  0   0  1 -1   0  1  0
                       0  0  1   1  0  0   0  1  0       0  0 -1  -1  0  0   0 -1  0
                      -1  1  0  -1  0  0  -1  0  1       1 -1  0   1  0  0   1  0 -1
                       0  0  1   0  1  0   1  0  0       0  0 -1   0 -1  0  -1  0  0
                       1 -1  0   0 -1  0   0 -1  1      -1  1  0   0  1  0   0  1 -1
                       0  0 -1   1  0 -1   0  1 -1       0  0  1  -1  0  1   0 -1  1
                      -1  1  0  -1  0  1  -1  0  0       1 -1  0   1  0 -1   1  0  0
           tolwfr      1.00000000E-20
            typat      1  1  2  2  2  2  2  2  3
           useylm           1
              wtk        0.50000    0.50000
           xangst      4.8875111232E+00  3.4559922583E+00  8.4654175880E+00
                       1.6291703744E+00  1.1519974194E+00  2.8218058627E+00
                       2.3356242655E+00  3.6089130038E+00  7.2418035554E+00
                       5.1037737154E+00  3.6089130038E+00  5.6436117253E+00
                       4.1810572321E+00  9.9907667400E-01  7.2418035554E+00
                       4.1810572321E+00  9.9907667400E-01  4.0454198953E+00
                       1.4129077822E+00  9.9907667400E-01  5.6436117253E+00
                       2.3356242655E+00  3.6089130038E+00  4.0454198953E+00
                       0.0000000000E+00  0.0000000000E+00  0.0000000000E+00
            xcart      9.2360574943E+00  6.5308788857E+00  1.5997320842E+01
                       3.0786858314E+00  2.1769596285E+00  5.3324402806E+00
                       4.4136902111E+00  6.8198572146E+00  1.3685025428E+01
                       9.6447345663E+00  6.8198572146E+00  1.0664880561E+01
                       7.9010531146E+00  1.8879812996E+00  1.3685025428E+01
                       7.9010531146E+00  1.8879812996E+00  7.6447356946E+00
                       2.6700087594E+00  1.8879812996E+00  1.0664880561E+01
                       4.4136902111E+00  6.8198572146E+00  7.6447356946E+00
                       0.0000000000E+00  0.0000000000E+00  0.0000000000E+00
             xred      7.5000000000E-01  7.5000000000E-01  7.5000000000E-01
                       2.5000000000E-01  2.5000000000E-01  2.5000000000E-01
                       2.1681400000E-01  7.8318600000E-01  7.8318600000E-01
                       7.8318600000E-01  7.8318600000E-01  2.1681400000E-01
                       7.8318600000E-01  2.1681400000E-01  7.8318600000E-01
                       7.8318600000E-01  2.1681400000E-01  2.1681400000E-01
                       2.1681400000E-01  2.1681400000E-01  7.8318600000E-01
                       2.1681400000E-01  7.8318600000E-01  2.1681400000E-01
                       0.0000000000E+00  0.0000000000E+00  0.0000000000E+00
            znucl       56.00000    1.00000   76.00000

- Timing analysis has been suppressed with timopt=0

 Suggested references for the acknowledgment of ABINIT usage.

 Calculation completed.
.Delivered  14 WARNINGs and   9 COMMENTs to log file.