.Version 9.5.1 of ABINIT

 ABINIT is a project of the Universite Catholique de Louvain,
 Corning Inc. and other collaborators, see ~abinit/doc/developers/contributors.txt .
 acknowledgments of the ABINIT effort.

.Starting date : Wed 19 May 2021.
- ( at 07h43 )

- input  file    -> /scratch/users/j/a/jabreu/flow_simple_9atoms/flow/w105/t1/run.abi
- output file    -> /scratch/users/j/a/jabreu/flow_simple_9atoms/flow/w105/t1/run.abo
- root for input  files -> /scratch/users/j/a/jabreu/flow_simple_9atoms/flow/w105/t1/indata/in
- root for output files -> /scratch/users/j/a/jabreu/flow_simple_9atoms/flow/w105/t1/outdata/out

 Symmetries : space group Fm -3 m (#225); Bravais cF (face-center cubic)
     intxc =       0      iscf =       7    lmnmax =      18     lnmax =       6
     mgfft =      54  mpssoang =       3    mqgrid =    3001     natom =       9
  nloc_mem =       1    nspden =       1   nspinor =       1    nsppol =       1
      nsym =      48    n1xccc =    2501    ntypat =       3    occopt =       1
   xclevel =       2
-    mband =          30        mffmem =           1         mkmem =           2
-   mkqmem =           2        mk1mem =           2           mpw =        6730
      nfft =      157464          nkpt =           2
  Rough estimation (10% accuracy) of disk space for files :

------------- Echo of variables that govern the present computation ------------
-
- outvars: echo of selected default values
-   iomode0 =  0 , fftalg0 =512 , wfoptalg0 =  0
-
- outvars: echo of global parameters not present in the input file
-  max_nthreads =    0
-
 -outvars: echo values of preprocessed input variables --------
            acell      1.0000000000E+00  1.0000000000E+00  1.0000000000E+00 Bohr
              amu      2.43050000E+01  1.00794000E+00  1.01070000E+02
             ecut      4.40000000E+01 Hartree
-          fftalg         512
           irdden           1
           irdwfk           1
              ixc     -116133
              kpt      5.00000000E-01  2.50000000E-01  7.50000000E-01
                       4.48275862E-01  0.00000000E+00  4.48275862E-01
           kptopt           0
P           mkmem           2
P          mkqmem           2
P          mk1mem           2
            natom           9
            nband          30
           nbdbuf           4
            ngfft          54      54      54
             nkpt           2
            nstep        2000
             nsym          48
           ntypat           3
              occ      2.000000  2.000000  2.000000  2.000000  2.000000  2.000000
                       2.000000  2.000000  2.000000  2.000000  2.000000  2.000000
                       2.000000  2.000000  2.000000  2.000000  2.000000  2.000000
                       2.000000  2.000000  2.000000  0.000000  0.000000  0.000000
                       0.000000  0.000000  0.000000  0.000000  0.000000  0.000000
        optdriver           1
            prtwf          -1
            rfdir           1       1       1
           rfelfd           2
            rprim      7.6152882839E+00  0.0000000000E+00  4.3966887407E+00
                       2.5384294280E+00  7.1797626483E+00  4.3966887407E+00
                       0.0000000000E+00  0.0000000000E+00  8.7933774814E+00
          spgroup         225
           symrel      1  0  0   0  1  0   0  0  1      -1  0  0   0 -1  0   0  0 -1
                       0 -1  1   0 -1  0   1 -1  0       0  1 -1   0  1  0  -1  1  0
                      -1  0  0  -1  0  1  -1  1  0       1  0  0   1  0 -1   1 -1  0
                       0  1 -1   1  0 -1   0  0 -1       0 -1  1  -1  0  1   0  0  1
                      -1  0  0  -1  1  0  -1  0  1       1  0  0   1 -1  0   1  0 -1
                       0 -1  1   1 -1  0   0 -1  0       0  1 -1  -1  1  0   0  1  0
                       1  0  0   0  0  1   0  1  0      -1  0  0   0  0 -1   0 -1  0
                       0  1 -1   0  0 -1   1  0 -1       0 -1  1   0  0  1  -1  0  1
                      -1  0  1  -1  1  0  -1  0  0       1  0 -1   1 -1  0   1  0  0
                       0 -1  0   1 -1  0   0 -1  1       0  1  0  -1  1  0   0  1 -1
                       1  0 -1   0  0 -1   0  1 -1      -1  0  1   0  0  1   0 -1  1
                       0  1  0   0  0  1   1  0  0       0 -1  0   0  0 -1  -1  0  0
                       1  0 -1   0  1 -1   0  0 -1      -1  0  1   0 -1  1   0  0  1
                       0 -1  0   0 -1  1   1 -1  0       0  1  0   0  1 -1  -1  1  0
                      -1  0  1  -1  0  0  -1  1  0       1  0 -1   1  0  0   1 -1  0
                       0  1  0   1  0  0   0  0  1       0 -1  0  -1  0  0   0  0 -1
                       0  0 -1   0  1 -1   1  0 -1       0  0  1   0 -1  1  -1  0  1
                       1 -1  0   0 -1  1   0 -1  0      -1  1  0   0  1 -1   0  1  0
                       0  0  1   1  0  0   0  1  0       0  0 -1  -1  0  0   0 -1  0
                      -1  1  0  -1  0  0  -1  0  1       1 -1  0   1  0  0   1  0 -1
                       0  0  1   0  1  0   1  0  0       0  0 -1   0 -1  0  -1  0  0
                       1 -1  0   0 -1  0   0 -1  1      -1  1  0   0  1  0   0  1 -1
                       0  0 -1   1  0 -1   0  1 -1       0  0  1  -1  0  1   0 -1  1
                      -1  1  0  -1  0  1  -1  0  0       1 -1  0   1  0 -1   1  0  0
           tolwfr      1.00000000E-20
            typat      1  1  2  2  2  2  2  2  3
           useylm           1
              wtk        0.50000    0.50000
           xangst      4.0298369967E+00  2.8495250674E+00  6.9798824245E+00
                       1.3432789989E+00  9.4984168914E-01  2.3266274748E+00
                       2.0271100985E+00  2.8322835411E+00  5.7954522161E+00
                       4.0054537963E+00  2.8322835411E+00  4.6532549497E+00
                       3.3460058970E+00  9.6708321548E-01  5.7954522161E+00
                       3.3460058970E+00  9.6708321548E-01  3.5110576832E+00
                       1.3676621993E+00  9.6708321548E-01  4.6532549497E+00
                       2.0271100985E+00  2.8322835411E+00  3.5110576832E+00
                       0.0000000000E+00  0.0000000000E+00  0.0000000000E+00
            xcart      7.6152882839E+00  5.3848219862E+00  1.3190066222E+01
                       2.5384294280E+00  1.7949406621E+00  4.3966887407E+00
                       3.8306829275E+00  5.3522402233E+00  1.0951817505E+01
                       7.5692107129E+00  5.3522402233E+00  8.7933774814E+00
                       6.3230347844E+00  1.8275224250E+00  1.0951817505E+01
                       6.3230347844E+00  1.8275224250E+00  6.6349374581E+00
                       2.5845069990E+00  1.8275224250E+00  8.7933774814E+00
                       3.8306829275E+00  5.3522402233E+00  6.6349374581E+00
                       0.0000000000E+00  0.0000000000E+00  0.0000000000E+00
             xred      7.5000000000E-01  7.5000000000E-01  7.5000000000E-01
                       2.5000000000E-01  2.5000000000E-01  2.5000000000E-01
                       2.5453800000E-01  7.4546200000E-01  7.4546200000E-01
                       7.4546200000E-01  7.4546200000E-01  2.5453800000E-01
                       7.4546200000E-01  2.5453800000E-01  7.4546200000E-01
                       7.4546200000E-01  2.5453800000E-01  2.5453800000E-01
                       2.5453800000E-01  2.5453800000E-01  7.4546200000E-01
                       2.5453800000E-01  7.4546200000E-01  2.5453800000E-01
                       0.0000000000E+00  0.0000000000E+00  0.0000000000E+00
            znucl       12.00000    1.00000   44.00000

 chkinp: Checking input parameters for consistency.

== DATASET  1 ==================================================================
-   mpi_nproc: 1, omp_nthreads: -1 (-1 if OMP is not activated)

--- !DatasetInfo
iteration_state: {dtset: 1, }
dimensions: {natom: 9, nkpt: 2, mband: 30, nsppol: 1, nspinor: 1, nspden: 1, mpw: 6730, }
cutoff_energies: {ecut:  44.0, pawecutdg:  -1.0, }
electrons: {nelect:   4.20000000E+01, charge:   0.00000000E+00, occopt:   1.00000000E+00, tsmear:   1.00000000E-02, }
meta: {optdriver: 1, rfelfd: 2, }
...

 Real(R)+Recip(G) space primitive vectors, cartesian coordinates (Bohr,Bohr^-1):
 R(1)=  7.6152883  0.0000000  4.3966887  G(1)=  0.1313148 -0.0464268  0.0000000
 R(2)=  2.5384294  7.1797626  4.3966887  G(2)=  0.0000000  0.1392804  0.0000000
 R(3)=  0.0000000  0.0000000  8.7933775  G(3)= -0.0656574 -0.0464268  0.1137219
 Unit cell volume ucvol=  4.8078638E+02 bohr^3
 Angles (23,13,12)=  6.00000000E+01  6.00000000E+01  6.00000000E+01 degrees

 getcut: wavevector=  0.0000  0.0000  0.0000  ngfft=  54  54  54
         ecut(hartree)=     44.000   => boxcut(ratio)=   2.05729

--- Pseudopotential description ------------------------------------------------
- pspini: atom type   1  psp file is /scratch/users/j/a/jabreu/pseudos/PBEsol/Mg.psp8
- pspatm: opening atomic psp file    /scratch/users/j/a/jabreu/pseudos/PBEsol/Mg.psp8
- Mg    ONCVPSP-3.3.0  r_core=   1.16056   1.56380
- 12.00000  10.00000    180112                znucl, zion, pspdat
    8 -116133    1    4       400   0.00000   pspcod,pspxc,lmax,lloc,mmax,r2well
    3.99000000000000    0.00000000000000    0.00000000000000   rchrg,fchrg,qchrg
     nproj     2     2
     extension_switch     1
  pspatm : epsatm=    9.18164846
         --- l  ekb(1:nproj) -->
             0    2.230603   -0.826587
             1   -6.503151   -2.501445
 pspatm: atomic psp has been read  and splines computed

- pspini: atom type   2  psp file is /scratch/users/j/a/jabreu/pseudos/PBEsol/H.psp8
- pspatm: opening atomic psp file    /scratch/users/j/a/jabreu/pseudos/PBEsol/H.psp8
- H     ONCVPSP-3.3.0  r_core=   1.00957   0.70586
-  1.00000   1.00000    180112                znucl, zion, pspdat
    8 -116133    1    4       300   0.00000   pspcod,pspxc,lmax,lloc,mmax,r2well
    2.99000000000000    0.00000000000000    0.00000000000000   rchrg,fchrg,qchrg
     nproj     2     1
     extension_switch     1
  pspatm : epsatm=    0.35627032
         --- l  ekb(1:nproj) -->
             0   -1.674911   -0.523609
             1   -0.494138
 pspatm: atomic psp has been read  and splines computed

- pspini: atom type   3  psp file is /scratch/users/j/a/jabreu/pseudos/PBEsol/Ru.psp8
- pspatm: opening atomic psp file    /scratch/users/j/a/jabreu/pseudos/PBEsol/Ru.psp8
- Ru    ONCVPSP-3.3.0  r_core=   1.35650   1.40592   1.30881
- 44.00000  16.00000    180112                znucl, zion, pspdat
    8 -116133    2    4       600   0.00000   pspcod,pspxc,lmax,lloc,mmax,r2well
    5.99000000000000    7.00000000000000    0.00000000000000   rchrg,fchrg,qchrg
     nproj     2     2     2
     extension_switch     1
  pspatm : epsatm=   20.24388641
         --- l  ekb(1:nproj) -->
             0   14.596908    1.144598
             1    7.305594    1.039251
             2    1.509539    0.405296
 pspatm: atomic psp has been read  and splines computed

   1.71128182E+03                                ecore*ucvol(ha*bohr**3)

-inwffil : will read wavefunctions from disk file /scratch/users/j/a/jabreu/flow_simple_9atoms/flow/w105/t1/indata/in_WFK

 ==>  initialize data related to q vector <==

[...]
 ETOT  4  -33.632980473514     -3.545E-09 9.027E-08 0.000E+00
 ETOT  5  -33.632980473520     -5.876E-12 1.469E-09 0.000E+00
 ETOT  6  -33.632980473520      1.421E-14 8.193E-11 0.000E+00
 ETOT  7  -33.632980473520     -7.105E-15 2.150E-12 0.000E+00
 ETOT  8  -33.632980473520      0.000E+00 1.375E-13 0.000E+00
 ETOT  9  -33.632980473520      7.105E-15 4.023E-15 0.000E+00
 ETOT 10  -33.632980473520     -7.105E-15 3.469E-16 0.000E+00
 ETOT 11  -33.632980473520      7.105E-15 9.561E-18 0.000E+00
 ETOT 12  -33.632980473520     -7.105E-15 1.120E-18 0.000E+00
 ETOT 13  -33.632980473520      7.105E-15 3.181E-20 0.000E+00
 ETOT 14  -33.632980473520     -7.105E-15 9.881E-21 0.000E+00

 At SCF step   14   max residual=  9.88E-21 < tolwfr=  1.00E-20 =>converged.

 ----iterations are completed or convergence reached----

 dfpt_looppert: DFPT cycle converged with prtwf=-1. Will skip output of the 1st-order WFK file.
 dfpt_looppert : ek2=    6.4330784566E+01
          f-sum rule ratio=    9.4020205056E-01
 prteigrs : about to open file /scratch/users/j/a/jabreu/flow_simple_9atoms/flow/w105/t1/tmpdata/tmp_1WF1_EIG
 Expectation of eigenvalue derivatives (hartree) for nkpt=   2  k points:
  (in case of degenerate eigenvalues, averaged derivative)
 kpt#   1, nband= 30, wtk=  0.50000, kpt=  0.5000  0.2500  0.7500 (reduced coord)
  -0.00000   -0.00000   -0.00000    0.00000   -0.00000   -0.00000    0.00000    0.00000
  -0.00000    0.00000    0.00000   -0.00000   -0.00000    0.00000   -0.00000   -0.00000
  -0.00000    0.00000   -0.00000   -0.00000    0.00000   -0.00000   -0.00000    0.00000
   0.00000   -0.00000   -0.00000    0.00000    0.00004   -0.00009
 prteigrs : prtvol=0 or 1, do not print more k-points.

 Eight components of 2nd-order total energy (hartree) are
 1,2,3: 0th-order hamiltonian combined with 1st-order wavefunctions
     kin0=   3.45051266E+01 eigvalue=   4.14684706E+00  local=  -1.54432594E+01
 4,5,6: 1st-order hamiltonian combined with 1st and 0th-order wfs
     kin1=  -6.04839356E+01  Hartree=   0.00000000E+00     xc=   0.00000000E+00
 7,8,9: eventually, occupation + non-local contributions
    edocc=   9.93839634E+00     enl0=   4.85869909E-01   enl1=  -6.78202538E+00
 1-9 gives the relaxation energy (to be shifted if some occ is /=2.0)
   erelax=  -3.36329805E+01
  No Ewald or frozen-wf contrib.: the relaxation energy is the total one
 2DEtotal=   -0.3363298047E+02 Ha. Also 2DEtotal=   -0.915199942021E+03 eV
    (  non-var. 2DEtotal :   -3.3632980474E+01 Ha)

 Perturbation wavevector (in red.coord.)   0.000000  0.000000  0.000000
 Perturbation : derivative vs k along direction   2
 The set of symmetries contains only one element for this perturbation.
 symkpt : not enough symmetry to change the number of k points.

[...]

 Perturbation wavevector (in red.coord.)   0.000000  0.000000  0.000000
 Perturbation : derivative vs k along direction   3
 The set of symmetries contains only one element for this perturbation.
 symkpt : not enough symmetry to change the number of k points.

-inwffil : will read wavefunctions from disk file /scratch/users/j/a/jabreu/flow_simple_9atoms/flow/w105/t1/indata/in_WFK

 Initialisation of the first-order wave-functions :
  ireadwf=   0

--- !BeginCycle
iteration_state: {dtset: 1, }
solver: {iscf: 7, nstep: 2000, nline: 4, wfoptalg: 0, }
tolerances: {tolwfr: 1.00E-20, }
...

     iter   2DEtotal(Ha)        deltaE(Ha) residm    vres2
-ETOT  1  -33.626092248908     -3.363E+01 9.956E-02 0.000E+00
 ETOT  2  -33.632975284249     -6.883E-03 7.927E-04 0.000E+00
 ETOT  3  -33.632978585619     -3.301E-06 7.111E-06 0.000E+00
 ETOT  4  -33.632978589163     -3.545E-09 9.027E-08 0.000E+00
 ETOT  5  -33.632978589169     -5.841E-12 1.469E-09 0.000E+00
 ETOT  6  -33.632978589169      2.132E-14 1.265E-10 0.000E+00
 ETOT  7  -33.632978589169     -7.105E-15 3.164E-12 0.000E+00
 ETOT  8  -33.632978589169     -2.132E-14 2.373E-13 0.000E+00
 ETOT  9  -33.632978589169      0.000E+00 5.510E-15 0.000E+00
 ETOT 10  -33.632978589169      7.105E-15 5.815E-16 0.000E+00
 ETOT 11  -33.632978589169     -1.421E-14 1.553E-17 0.000E+00
 ETOT 12  -33.632978589169      7.105E-15 2.173E-18 0.000E+00
 ETOT 13  -33.632978589169      7.105E-15 6.332E-20 0.000E+00
 ETOT 14  -33.632978589169     -7.105E-15 9.881E-21 0.000E+00

 At SCF step   14   max residual=  9.88E-21 < tolwfr=  1.00E-20 =>converged.

 ----iterations are completed or convergence reached----

 dfpt_looppert: DFPT cycle converged with prtwf=-1. Will skip output of the 1st-order WFK file.
 dfpt_looppert : ek2=    6.4330784565E+01
          f-sum rule ratio=    9.4020198592E-01
 prteigrs : about to open file /scratch/users/j/a/jabreu/flow_simple_9atoms/flow/w105/t1/tmpdata/tmp_1WF1_EIG
 Expectation of eigenvalue derivatives (hartree) for nkpt=   2  k points:
  (in case of degenerate eigenvalues, averaged derivative)
 kpt#   1, nband= 30, wtk=  0.50000, kpt=  0.5000  0.2500  0.7500 (reduced coord)
   0.00000    0.00000    0.00000   -0.00000   -0.00000   -0.00000    0.00000   -0.00000
   0.00000    0.00000    0.00000   -0.00000    0.00000    0.00000   -0.00000   -0.00000
  -0.00000   -0.00000    0.00000    0.00000    0.00000   -0.00000   -0.00000    0.00000
   0.00000   -0.00000   -0.00000    0.00000    0.00001   -0.00002
 prteigrs : prtvol=0 or 1, do not print more k-points.

 Eight components of 2nd-order total energy (hartree) are
 1,2,3: 0th-order hamiltonian combined with 1st-order wavefunctions
     kin0=   3.45050272E+01 eigvalue=   4.14685462E+00  local=  -1.54431910E+01
 4,5,6: 1st-order hamiltonian combined with 1st and 0th-order wfs
     kin1=  -6.04839314E+01  Hartree=   0.00000000E+00     xc=   0.00000000E+00
 7,8,9: eventually, occupation + non-local contributions
    edocc=   9.93842027E+00     enl0=   4.85867499E-01   enl1=  -6.78202577E+00
 1-9 gives the relaxation energy (to be shifted if some occ is /=2.0)
   erelax=  -3.36329786E+01
  No Ewald or frozen-wf contrib.: the relaxation energy is the total one
 2DEtotal=   -0.3363297859E+02 Ha. Also 2DEtotal=   -0.915199890745E+03 eV
    (  non-var. 2DEtotal :   -3.3632978589E+01 Ha)

 CALCULATION OF EFFECTIVE MASSES
 NOTE : Additional infos (eff. mass eigenvalues, eigenvectors and, if degenerate, average mass) are available in stdout.

 K-point ( 0.500, 0.250, 0.750) | band =    21
 Effective mass tensor:
           -175.6373457964            235.0962335831            287.9272118111
            235.0962335831           -341.8804350187           -407.1946080642
            287.9272118111           -407.1946080642           -508.1004989096
 Effective mass tensor eigenvalues:
          -1006.8165713405             -9.4008541958             -9.4008541885
 Angular average effective mass 1/(<1/m>)= -14.0357539221
 Angular average effective mass for Frohlich model (<m**0.5>)**2= -20.6179705960
 Effective masses along directions: (cart. coord. / red. coord. -> eff. mass)
    1:   1.000000  0.000000  0.000000 /   0.948683  0.316228  0.000000 -> -11.2600048664
    2:   0.000000  1.000000  0.000000 /   0.000000  1.000000  0.000000 -> -14.0359136713
    3:   0.000000  0.000000  1.000000 /   0.408248  0.408248  0.816497 -> -18.6274758546
    4:   0.577350  0.577350  0.577350 /   0.585539  0.688047  0.428644 -> -12.5936542564
    5:   0.000000  0.707107  0.707107 /   0.289489  0.762222  0.578977 -> -51.4308259549
    6:   0.707107  0.000000  0.707107 /   0.731423  0.422287  0.535439 ->  -9.8359915335
    7:   0.707107  0.707107  0.000000 /   0.616798  0.787122  0.000000 ->  -9.5359330153

 K-point ( 0.448, 0.000, 0.448) | band =    22
 Effective mass tensor:
              1.3927175719             -1.3001513707              1.5923537234
             -1.3001513707              2.3120634229             -2.2519282318
              1.5923537234             -2.2519282318              3.2314092738
 Effective mass tensor eigenvalues:
              0.4733717211              0.4733717211              5.9894468263
 Angular average effective mass 1/(<1/m>)=   0.6830648081
 Angular average effective mass for Frohlich model (<m**0.5>)**2=   0.8498108304
 Effective masses along directions: (cart. coord. / red. coord. -> eff. mass)
    1:   1.000000  0.000000  0.000000 /   0.948683  0.316228  0.000000 ->   0.5592067626
    2:   0.000000  1.000000  0.000000 /   0.000000  1.000000  0.000000 ->   0.6830648082
    3:   0.000000  0.000000  1.000000 /   0.408248  0.408248  0.816497 ->   0.8773988414
    4:   0.577350  0.577350  0.577350 /   0.585539  0.688047  0.428644 ->   0.5195364781
    5:   0.000000  0.707107  0.707107 /   0.289489  0.762222  0.578977 ->   0.4770704655
    6:   0.707107  0.000000  0.707107 /   0.731423  0.422287  0.535439 ->   1.1082055972
    7:   0.707107  0.707107  0.000000 /   0.616798  0.787122  0.000000 ->   0.4796881238

 END OF EFFECTIVE MASSES SECTION

 ---- first-order wavefunction calculations are completed ----

 Total localisation tensor (bohr^2) in cartesian coordinates
  WARNING : still subject to testing - especially symmetries.
      direction              matrix element
   alpha     beta       real part   imaginary part
     1        1       0.7543617517    0.0000000000
     1        2       0.2133656055    0.0000000000
     1        3       0.5226371041    0.0000000000
     2        1       0.2133656055    0.0000000000
     2        2       0.6034890660    0.0000000000
     2        3       0.3695600693    0.0000000000
     3        1       0.5226371041    0.0000000000
     3        2       0.3695600693    0.0000000000
     3        3       1.3578509672    0.0000000000

 respfn : d/dk was computed, but no 2DTE, so no DDB output.

== END DATASET(S) ==============================================================

 -outvars: echo values of variables after computation  --------
            acell      1.0000000000E+00  1.0000000000E+00  1.0000000000E+00 Bohr
              amu      2.43050000E+01  1.00794000E+00  1.01070000E+02
             ecut      4.40000000E+01 Hartree
           etotal     -3.3632978589E+01
            fcart      0.0000000000E+00  0.0000000000E+00  0.0000000000E+00
                       0.0000000000E+00  0.0000000000E+00  0.0000000000E+00
                       0.0000000000E+00  0.0000000000E+00  0.0000000000E+00
                       0.0000000000E+00  0.0000000000E+00  0.0000000000E+00
                       0.0000000000E+00  0.0000000000E+00  0.0000000000E+00
                       0.0000000000E+00  0.0000000000E+00  0.0000000000E+00
                       0.0000000000E+00  0.0000000000E+00  0.0000000000E+00
                       0.0000000000E+00  0.0000000000E+00  0.0000000000E+00
                       0.0000000000E+00  0.0000000000E+00  0.0000000000E+00
-          fftalg         512
           irdden           1
           irdwfk           1
              ixc     -116133
              kpt      5.00000000E-01  2.50000000E-01  7.50000000E-01
                       4.48275862E-01  0.00000000E+00  4.48275862E-01
           kptopt           0
P           mkmem           2
P          mkqmem           2
P          mk1mem           2
            natom           9
            nband          30
           nbdbuf           4
            ngfft          54      54      54
             nkpt           2
            nstep        2000
             nsym          48
           ntypat           3
              occ      2.000000  2.000000  2.000000  2.000000  2.000000  2.000000
                       2.000000  2.000000  2.000000  2.000000  2.000000  2.000000
                       2.000000  2.000000  2.000000  2.000000  2.000000  2.000000
                       2.000000  2.000000  2.000000  0.000000  0.000000  0.000000
                       0.000000  0.000000  0.000000  0.000000  0.000000  0.000000
        optdriver           1
            prtwf          -1
            rfdir           1       1       1
           rfelfd           2
            rprim      7.6152882839E+00  0.0000000000E+00  4.3966887407E+00
                       2.5384294280E+00  7.1797626483E+00  4.3966887407E+00
                       0.0000000000E+00  0.0000000000E+00  8.7933774814E+00
          spgroup         225
           strten      0.0000000000E+00  0.0000000000E+00  0.0000000000E+00
                       0.0000000000E+00  0.0000000000E+00  0.0000000000E+00
           symrel      1  0  0   0  1  0   0  0  1      -1  0  0   0 -1  0   0  0 -1
                       0 -1  1   0 -1  0   1 -1  0       0  1 -1   0  1  0  -1  1  0
                      -1  0  0  -1  0  1  -1  1  0       1  0  0   1  0 -1   1 -1  0
                       0  1 -1   1  0 -1   0  0 -1       0 -1  1  -1  0  1   0  0  1
                      -1  0  0  -1  1  0  -1  0  1       1  0  0   1 -1  0   1  0 -1
                       0 -1  1   1 -1  0   0 -1  0       0  1 -1  -1  1  0   0  1  0
                       1  0  0   0  0  1   0  1  0      -1  0  0   0  0 -1   0 -1  0
                       0  1 -1   0  0 -1   1  0 -1       0 -1  1   0  0  1  -1  0  1
                      -1  0  1  -1  1  0  -1  0  0       1  0 -1   1 -1  0   1  0  0
                       0 -1  0   1 -1  0   0 -1  1       0  1  0  -1  1  0   0  1 -1
                       1  0 -1   0  0 -1   0  1 -1      -1  0  1   0  0  1   0 -1  1
                       0  1  0   0  0  1   1  0  0       0 -1  0   0  0 -1  -1  0  0
                       1  0 -1   0  1 -1   0  0 -1      -1  0  1   0 -1  1   0  0  1
                       0 -1  0   0 -1  1   1 -1  0       0  1  0   0  1 -1  -1  1  0
                      -1  0  1  -1  0  0  -1  1  0       1  0 -1   1  0  0   1 -1  0
                       0  1  0   1  0  0   0  0  1       0 -1  0  -1  0  0   0  0 -1
                       0  0 -1   0  1 -1   1  0 -1       0  0  1   0 -1  1  -1  0  1
                       1 -1  0   0 -1  1   0 -1  0      -1  1  0   0  1 -1   0  1  0
                       0  0  1   1  0  0   0  1  0       0  0 -1  -1  0  0   0 -1  0
                      -1  1  0  -1  0  0  -1  0  1       1 -1  0   1  0  0   1  0 -1
                       0  0  1   0  1  0   1  0  0       0  0 -1   0 -1  0  -1  0  0
                       1 -1  0   0 -1  0   0 -1  1      -1  1  0   0  1  0   0  1 -1
                       0  0 -1   1  0 -1   0  1 -1       0  0  1  -1  0  1   0 -1  1
                      -1  1  0  -1  0  1  -1  0  0       1 -1  0   1  0 -1   1  0  0
           tolwfr      1.00000000E-20
            typat      1  1  2  2  2  2  2  2  3
           useylm           1
              wtk        0.50000    0.50000
           xangst      4.0298369967E+00  2.8495250674E+00  6.9798824245E+00
                       1.3432789989E+00  9.4984168914E-01  2.3266274748E+00
                       2.0271100985E+00  2.8322835411E+00  5.7954522161E+00
                       4.0054537963E+00  2.8322835411E+00  4.6532549497E+00
                       3.3460058970E+00  9.6708321548E-01  5.7954522161E+00
                       3.3460058970E+00  9.6708321548E-01  3.5110576832E+00
                       1.3676621993E+00  9.6708321548E-01  4.6532549497E+00
                       2.0271100985E+00  2.8322835411E+00  3.5110576832E+00
                       0.0000000000E+00  0.0000000000E+00  0.0000000000E+00
            xcart      7.6152882839E+00  5.3848219862E+00  1.3190066222E+01
                       2.5384294280E+00  1.7949406621E+00  4.3966887407E+00
                       3.8306829275E+00  5.3522402233E+00  1.0951817505E+01
                       7.5692107129E+00  5.3522402233E+00  8.7933774814E+00
                       6.3230347844E+00  1.8275224250E+00  1.0951817505E+01
                       6.3230347844E+00  1.8275224250E+00  6.6349374581E+00
                       2.5845069990E+00  1.8275224250E+00  8.7933774814E+00
                       3.8306829275E+00  5.3522402233E+00  6.6349374581E+00
                       0.0000000000E+00  0.0000000000E+00  0.0000000000E+00
             xred      7.5000000000E-01  7.5000000000E-01  7.5000000000E-01
                       2.5000000000E-01  2.5000000000E-01  2.5000000000E-01
                       2.5453800000E-01  7.4546200000E-01  7.4546200000E-01
                       7.4546200000E-01  7.4546200000E-01  2.5453800000E-01
                       7.4546200000E-01  2.5453800000E-01  7.4546200000E-01
                       7.4546200000E-01  2.5453800000E-01  2.5453800000E-01
                       2.5453800000E-01  2.5453800000E-01  7.4546200000E-01
                       2.5453800000E-01  7.4546200000E-01  2.5453800000E-01
                       0.0000000000E+00  0.0000000000E+00  0.0000000000E+00
            znucl       12.00000    1.00000   44.00000

- Timing analysis has been suppressed with timopt=0

 Suggested references for the acknowledgment of ABINIT usage.

 Calculation completed.
.Delivered  14 WARNINGs and   9 COMMENTs to log file.