.Version 9.5.1 of ABINIT

 ABINIT is a project of the Universite Catholique de Louvain,
 Corning Inc. and other collaborators, see ~abinit/doc/developers/contributors.txt .
 acknowledgments of the ABINIT effort.

.Starting date : Tue  4 May 2021.
- ( at 19h29 )

- input  file    -> /scratch/users/j/a/jabreu/flow_simple_6atoms/flow/w191/t1/run.abi
- output file    -> /scratch/users/j/a/jabreu/flow_simple_6atoms/flow/w191/t1/run.abo
- root for input  files -> /scratch/users/j/a/jabreu/flow_simple_6atoms/flow/w191/t1/indata/in
- root for output files -> /scratch/users/j/a/jabreu/flow_simple_6atoms/flow/w191/t1/outdata/out

 Symmetries : space group I-4 (# 82); Bravais tI (body-center tetrag.)
     intxc =       0      iscf =       7    lmnmax =      18     lnmax =       6
     mgfft =      60  mpssoang =       3    mqgrid =    3001     natom =       6
  nloc_mem =       1    nspden =       1   nspinor =       1    nsppol =       1
      nsym =       4    n1xccc =    2501    ntypat =       3    occopt =       1
   xclevel =       2
-    mband =          30        mffmem =           1         mkmem =           2
-   mkqmem =           2        mk1mem =           2           mpw =        8505
      nfft =      216000          nkpt =           2
  Rough estimation (10% accuracy) of disk space for files :

------------- Echo of variables that govern the present computation ------------
-
- outvars: echo of selected default values
-   iomode0 =  0 , fftalg0 =512 , wfoptalg0 =  0
-
- outvars: echo of global parameters not present in the input file
-  max_nthreads =    0
-
 -outvars: echo values of preprocessed input variables --------
            acell      1.0000000000E+00  1.0000000000E+00  1.0000000000E+00 Bohr
              amu      6.97230000E+01  3.09737620E+01  1.59994000E+01
             ecut      4.40000000E+01 Hartree
-          fftalg         512
           irdden           1
           irdwfk           1
           istwfk        1    1
              ixc     -116133
              kpt      0.00000000E+00  5.00000000E-01  5.55111512E-17
                       0.00000000E+00  0.00000000E+00  0.00000000E+00
           kptopt           0
P           mkmem           2
P          mkqmem           2
P          mk1mem           2
            natom           6
            nband          30
           nbdbuf           4
            ngfft          60      60      60
             nkpt           2
            nstep        1000
             nsym           4
           ntypat           3
              occ      2.000000  2.000000  2.000000  2.000000  2.000000  2.000000
                       2.000000  2.000000  2.000000  2.000000  2.000000  2.000000
                       2.000000  2.000000  2.000000  2.000000  2.000000  2.000000
                       2.000000  2.000000  2.000000  0.000000  0.000000  0.000000
                       0.000000  0.000000  0.000000  0.000000  0.000000  0.000000
        optdriver           1
            prtwf          -1
            rfdir           1       1       1
           rfelfd           2
            rprim      8.1554000330E+00  0.0000000000E+00 -5.1000771705E+00
                      -2.5037235365E+00  7.7615667330E+00 -5.1000771705E+00
                       0.0000000000E+00  0.0000000000E+00  9.6188012165E+00
          spgroup          82
           symrel      1  0  0   0  1  0   0  0  1       0  1  0   1  0  0  -1 -1 -1
                       0  0  1  -1 -1 -1   0  1  0      -1 -1 -1   0  0  1   1  0  0
           tolwfr      1.00000000E-20
            typat      1  2  3  3  3  3
           useylm           1
              wtk        0.50000    0.50000
           xangst      0.0000000000E+00  0.0000000000E+00  0.0000000000E+00
                       8.5227882005E-02  3.0804331635E+00 -1.5381941181E-01
                       1.5641708667E+00  2.9994013424E+00 -5.7193809094E-01
                       6.2212170359E-01  3.0804331635E-03  1.7161643110E+00
                       3.0440644714E-02  3.5142197616E+00  1.3218124134E+00
                       3.7647435696E+00  1.6977868990E+00 -3.0813162807E+00
            xcart      0.0000000000E+00  0.0000000000E+00  0.0000000000E+00
                       1.6105735588E-01  5.8211750497E+00 -2.9067656225E-01
                       2.9558545630E+00  5.6680470997E+00 -1.0808063568E+00
                       1.1756396411E+00  5.8211750497E-03  3.2430805468E+00
                       5.7524481819E-02  6.6409129203E+00  2.4978634604E+00
                       7.1143343070E+00  3.2083522710E+00 -5.8228438994E+00
             xred      0.0000000000E+00  0.0000000000E+00  0.0000000000E+00
                       2.5000000000E-01  7.5000000000E-01  5.0000000000E-01
                       5.8663600000E-01  7.3027100000E-01  5.8588600000E-01
                       1.4438500000E-01  7.5000000000E-04  4.1411400000E-01
                       2.6972900000E-01  8.5561500000E-01  8.5636500000E-01
                       9.9925000000E-01  4.1336400000E-01  1.4363500000E-01
            znucl       31.00000   15.00000    8.00000

 chkinp: Checking input parameters for consistency.

== DATASET  1 ==================================================================
-   mpi_nproc: 1, omp_nthreads: -1 (-1 if OMP is not activated)

--- !DatasetInfo
iteration_state: {dtset: 1, }
dimensions: {natom: 6, nkpt: 2, mband: 30, nsppol: 1, nspinor: 1, nspden: 1, mpw: 8505, }
cutoff_energies: {ecut:  44.0, pawecutdg:  -1.0, }
electrons: {nelect:   4.20000000E+01, charge:   0.00000000E+00, occopt:   1.00000000E+00, tsmear:   1.00000000E-02, }
meta: {optdriver: 1, rfelfd: 2, }
...

 Real(R)+Recip(G) space primitive vectors, cartesian coordinates (Bohr,Bohr^-1):
 R(1)=  8.1554000  0.0000000 -5.1000772  G(1)=  0.1226181  0.0395541  0.0000000
 R(2)= -2.5037235  7.7615667 -5.1000772  G(2)=  0.0000000  0.1288400  0.0000000
 R(3)=  0.0000000  0.0000000  9.6188012  G(3)=  0.0650145  0.0892858  0.1039631
 Unit cell volume ucvol=  6.0885744E+02 bohr^3
 Angles (23,13,12)=  1.22020295E+02  1.22020295E+02  8.65349743E+01 degrees

 getcut: wavevector=  0.0000  0.0000  0.0000  ngfft=  60  60  60
         ecut(hartree)=     44.000   => boxcut(ratio)=   2.08904

--- Pseudopotential description ------------------------------------------------
- pspini: atom type   1  psp file is /scratch/users/j/a/jabreu/pseudos/PBEsol/Ga.psp8
- pspatm: opening atomic psp file    /scratch/users/j/a/jabreu/pseudos/PBEsol/Ga.psp8
- Ga    ONCVPSP-3.3.0  r_core=   1.66857   1.75011   1.90252
- 31.00000  13.00000    180112                znucl, zion, pspdat
    8 -116133    2    4       600   0.00000   pspcod,pspxc,lmax,lloc,mmax,r2well
    5.99000000000000    5.00000000000000    0.00000000000000   rchrg,fchrg,qchrg
     nproj     2     2     2
     extension_switch     1
  pspatm : epsatm=   24.50969055
         --- l  ekb(1:nproj) -->
             0    7.053021    1.156713
             1    6.846070    1.293139
             2   -8.368667   -2.819170
 pspatm: atomic psp has been read  and splines computed

- pspini: atom type   2  psp file is /scratch/users/j/a/jabreu/pseudos/PBEsol/P.psp8
- pspatm: opening atomic psp file    /scratch/users/j/a/jabreu/pseudos/PBEsol/P.psp8
- P     ONCVPSP-3.3.0  r_core=   1.46089   1.55067   1.70594
- 15.00000   5.00000    180112                znucl, zion, pspdat
    8 -116133    2    4       600   0.00000   pspcod,pspxc,lmax,lloc,mmax,r2well
    5.99000000000000    5.00000000000000    0.00000000000000   rchrg,fchrg,qchrg
     nproj     2     2     2
     extension_switch     1
  pspatm : epsatm=    7.31221086
         --- l  ekb(1:nproj) -->
             0    6.742364    1.063650
             1    3.449117    0.910422
             2   -3.077645   -0.799176
 pspatm: atomic psp has been read  and splines computed

- pspini: atom type   3  psp file is /scratch/users/j/a/jabreu/pseudos/PBEsol/O.psp8
- pspatm: opening atomic psp file    /scratch/users/j/a/jabreu/pseudos/PBEsol/O.psp8
- O     ONCVPSP-3.3.0  r_core=   1.35509   1.45563   1.26150
-  8.00000   6.00000    180112                znucl, zion, pspdat
    8 -116133    2    4       600   0.00000   pspcod,pspxc,lmax,lloc,mmax,r2well
    5.99000000000000    4.00000000000000    0.00000000000000   rchrg,fchrg,qchrg
     nproj     2     2     1
     extension_switch     1
  pspatm : epsatm=    6.22910522
         --- l  ekb(1:nproj) -->
             0    6.050032    0.820363
             1   -4.739617   -1.153841
             2   -1.335834
 pspatm: atomic psp has been read  and splines computed

   2.38300954E+03                                ecore*ucvol(ha*bohr**3)

-inwffil : will read wavefunctions from disk file /scratch/users/j/a/jabreu/flow_simple_6atoms/flow/w191/t1/indata/in_WFK

 ==>  initialize data related to q vector <==

 The list of irreducible perturbations for this q vector is:
    1)    idir= 1    ipert=   7
    2)    idir= 2    ipert=   7
    3)    idir= 3    ipert=   7

 Perturbation wavevector (in red.coord.)   0.000000  0.000000  0.000000
 Perturbation : derivative vs k along direction   1

 dfpt_looppert : COMMENT -
  In a d/dk calculation, iscf is set to -3 automatically.
 The set of symmetries contains only one element for this perturbation.
 symkpt : not enough symmetry to change the number of k points.

[...]

 Initialisation of the first-order wave-functions :
  ireadwf=   0

--- !BeginCycle
iteration_state: {dtset: 1, }
solver: {iscf: 7, nstep: 1000, nline: 4, wfoptalg: 0, }
tolerances: {tolwfr: 1.00E-20, }
...

     iter   2DEtotal(Ha)        deltaE(Ha) residm    vres2
-ETOT  1  -41.158976747770     -4.116E+01 1.009E-01 0.000E+00
 ETOT  2  -41.189917193928     -3.094E-02 8.382E-03 0.000E+00
 ETOT  3  -41.190020554999     -1.034E-04 7.503E-04 0.000E+00
 ETOT  4  -41.190021204336     -6.493E-07 9.908E-05 0.000E+00
 ETOT  5  -41.190021209610     -5.274E-09 1.785E-05 0.000E+00
 ETOT  6  -41.190021209659     -4.915E-11 2.795E-06 0.000E+00
 ETOT  7  -41.190021209659     -5.187E-13 4.895E-07 0.000E+00
 ETOT  8  -41.190021209659      0.000E+00 8.174E-08 0.000E+00
 ETOT  9  -41.190021209659     -2.842E-14 1.380E-08 0.000E+00
 ETOT 10  -41.190021209659      1.421E-14 2.430E-09 0.000E+00
 ETOT 11  -41.190021209659      0.000E+00 4.025E-10 0.000E+00
 ETOT 12  -41.190021209659     -1.421E-14 7.336E-11 0.000E+00
 ETOT 13  -41.190021209659      1.421E-14 1.189E-11 0.000E+00
 ETOT 14  -41.190021209659     -1.421E-14 2.233E-12 0.000E+00
 ETOT 15  -41.190021209659      1.421E-14 3.573E-13 0.000E+00
 ETOT 16  -41.190021209659     -7.105E-15 6.848E-14 0.000E+00
 ETOT 17  -41.190021209659     -1.421E-14 1.082E-14 0.000E+00
 ETOT 18  -41.190021209659      0.000E+00 2.109E-15 0.000E+00
 ETOT 19  -41.190021209659      1.421E-14 3.309E-16 0.000E+00
 ETOT 20  -41.190021209659      0.000E+00 6.524E-17 0.000E+00
 ETOT 21  -41.190021209659      0.000E+00 1.017E-17 0.000E+00
 ETOT 22  -41.190021209659      0.000E+00 2.023E-18 0.000E+00
 ETOT 23  -41.190021209659      7.105E-15 3.143E-19 0.000E+00
 ETOT 24  -41.190021209659      0.000E+00 6.287E-20 0.000E+00
 ETOT 25  -41.190021209659     -7.105E-15 9.842E-21 0.000E+00

 At SCF step   25   max residual=  9.84E-21 < tolwfr=  1.00E-20 =>converged.

 ----iterations are completed or convergence reached----

 dfpt_looppert: DFPT cycle converged with prtwf=-1. Will skip output of the 1st-order WFK file.
 dfpt_looppert : ek2=    5.5047833478E+01
          f-sum rule ratio=    1.0201798998E+00
 prteigrs : about to open file /scratch/users/j/a/jabreu/flow_simple_6atoms/flow/w191/t1/tmpdata/tmp_1WF1_EIG
 Expectation of eigenvalue derivatives (hartree) for nkpt=   2  k points:
  (in case of degenerate eigenvalues, averaged derivative)
 kpt#   1, nband= 30, wtk=  0.50000, kpt=  0.0000  0.5000  0.0000 (reduced coord)
  -0.00000    0.00000   -0.00000   -0.00000   -0.00000    0.00000   -0.00000   -0.00000
   0.00000    0.00000   -0.00000   -0.00000   -0.00000   -0.00000    0.00000    0.00000
   0.00000    0.00000    0.00000    0.00000   -0.00000   -0.00000    0.00000    0.00000
  -0.00000    0.00000    0.00000    0.00000   -0.00002   -0.06428
 prteigrs : prtvol=0 or 1, do not print more k-points.

 Eight components of 2nd-order total energy (hartree) are
 1,2,3: 0th-order hamiltonian combined with 1st-order wavefunctions
     kin0=   4.86870769E+01 eigvalue=   3.43692519E+00  local=  -1.91568076E+01
 4,5,6: 1st-order hamiltonian combined with 1st and 0th-order wfs
     kin1=  -5.61586932E+01  Hartree=   0.00000000E+00     xc=   0.00000000E+00
 7,8,9: eventually, occupation + non-local contributions
    edocc=   7.08066601E+00     enl0=   1.14216069E+00   enl1=  -2.62213492E+01
 1-9 gives the relaxation energy (to be shifted if some occ is /=2.0)
   erelax=  -4.11900212E+01
  No Ewald or frozen-wf contrib.: the relaxation energy is the total one
 2DEtotal=   -0.4119002121E+02 Ha. Also 2DEtotal=   -0.112083747834E+04 eV
    (  non-var. 2DEtotal :   -4.1190021210E+01 Ha)

 Perturbation wavevector (in red.coord.)   0.000000  0.000000  0.000000
 Perturbation : derivative vs k along direction   2
 The set of symmetries contains only one element for this perturbation.
 symkpt : not enough symmetry to change the number of k points.

[...]

 Perturbation wavevector (in red.coord.)   0.000000  0.000000  0.000000
 Perturbation : derivative vs k along direction   3
 The set of symmetries contains only one element for this perturbation.
 symkpt : not enough symmetry to change the number of k points.

-inwffil : will read wavefunctions from disk file /scratch/users/j/a/jabreu/flow_simple_6atoms/flow/w191/t1/indata/in_WFK

 Initialisation of the first-order wave-functions :
  ireadwf=   0

--- !BeginCycle
iteration_state: {dtset: 1, }
solver: {iscf: 7, nstep: 1000, nline: 4, wfoptalg: 0, }
tolerances: {tolwfr: 1.00E-20, }
...

     iter   2DEtotal(Ha)        deltaE(Ha) residm    vres2
-ETOT  1  -56.949368584958     -5.695E+01 1.761E-01 0.000E+00
 ETOT  2  -56.991919263017     -4.255E-02 2.715E-02 0.000E+00
 ETOT  3  -56.992070094613     -1.508E-04 2.337E-03 0.000E+00
 ETOT  4  -56.992071209725     -1.115E-06 6.064E-04 0.000E+00
 ETOT  5  -56.992071220296     -1.057E-08 7.294E-05 0.000E+00
 ETOT  6  -56.992071220409     -1.129E-10 2.107E-05 0.000E+00
 ETOT  7  -56.992071220410     -1.286E-12 2.500E-06 0.000E+00
 ETOT  8  -56.992071220410     -2.842E-14 7.488E-07 0.000E+00
 ETOT  9  -56.992071220410     -7.105E-15 8.768E-08 0.000E+00
 ETOT 10  -56.992071220410      2.132E-14 2.691E-08 0.000E+00
 ETOT 11  -56.992071220410      2.132E-14 3.120E-09 0.000E+00
 ETOT 12  -56.992071220410      1.421E-14 9.755E-10 0.000E+00
 ETOT 13  -56.992071220410     -3.553E-14 1.123E-10 0.000E+00
 ETOT 14  -56.992071220410      7.105E-15 3.561E-11 0.000E+00
 ETOT 15  -56.992071220410     -7.105E-15 4.076E-12 0.000E+00
 ETOT 16  -56.992071220410     -7.105E-15 1.308E-12 0.000E+00
 ETOT 17  -56.992071220410      2.132E-14 1.491E-13 0.000E+00
 ETOT 18  -56.992071220410     -4.263E-14 4.828E-14 0.000E+00
 ETOT 19  -56.992071220410      7.105E-15 5.483E-15 0.000E+00
 ETOT 20  -56.992071220410      7.105E-15 1.789E-15 0.000E+00
 ETOT 21  -56.992071220410      1.421E-14 2.026E-16 0.000E+00
 ETOT 22  -56.992071220410     -7.105E-15 6.649E-17 0.000E+00
 ETOT 23  -56.992071220410      2.132E-14 7.509E-18 0.000E+00
 ETOT 24  -56.992071220410     -2.132E-14 2.476E-18 0.000E+00
 ETOT 25  -56.992071220410      3.553E-14 2.790E-19 0.000E+00
 ETOT 26  -56.992071220410     -1.421E-14 9.235E-20 0.000E+00
 ETOT 27  -56.992071220410      0.000E+00 1.038E-20 0.000E+00
 ETOT 28  -56.992071220410      1.421E-14 9.987E-21 0.000E+00

 At SCF step   28   max residual=  9.99E-21 < tolwfr=  1.00E-20 =>converged.

 ----iterations are completed or convergence reached----

 dfpt_looppert: DFPT cycle converged with prtwf=-1. Will skip output of the 1st-order WFK file.
 dfpt_looppert : ek2=    7.6296084913E+01
          f-sum rule ratio=    1.0168867715E+00
 prteigrs : about to open file /scratch/users/j/a/jabreu/flow_simple_6atoms/flow/w191/t1/tmpdata/tmp_1WF1_EIG
 Expectation of eigenvalue derivatives (hartree) for nkpt=   2  k points:
  (in case of degenerate eigenvalues, averaged derivative)
 kpt#   1, nband= 30, wtk=  0.50000, kpt=  0.0000  0.5000  0.0000 (reduced coord)
  -0.00000   -0.00000   -0.00000    0.00000    0.00000    0.00000   -0.00000    0.00000
   0.00000    0.00000   -0.00000    0.00000   -0.00000   -0.00000    0.00000    0.00000
  -0.00000   -0.00000   -0.00000    0.00000   -0.00000   -0.00000    0.00000   -0.00000
   0.00000    0.00000   -0.00000    0.00000   -0.00001   -0.05702
 prteigrs : prtvol=0 or 1, do not print more k-points.

 Eight components of 2nd-order total energy (hartree) are
 1,2,3: 0th-order hamiltonian combined with 1st-order wavefunctions
     kin0=   6.78284832E+01 eigvalue=   4.76407724E+00  local=  -2.68474331E+01
 4,5,6: 1st-order hamiltonian combined with 1st and 0th-order wfs
     kin1=  -7.75844795E+01  Hartree=   0.00000000E+00     xc=   0.00000000E+00
 7,8,9: eventually, occupation + non-local contributions
    edocc=   9.65729568E+00     enl0=   1.58964818E+00   enl1=  -3.63996630E+01
 1-9 gives the relaxation energy (to be shifted if some occ is /=2.0)
   erelax=  -5.69920712E+01
  No Ewald or frozen-wf contrib.: the relaxation energy is the total one
 2DEtotal=   -0.5699207122E+02 Ha. Also 2DEtotal=   -0.155083312696E+04 eV
    (  non-var. 2DEtotal :   -5.6992071220E+01 Ha)

 CALCULATION OF EFFECTIVE MASSES
 NOTE : Additional infos (eff. mass eigenvalues, eigenvectors and, if degenerate, average mass) are available in stdout.

 K-point ( 0.000, 0.500, 0.000) | band =    21
 Effective mass tensor:
            -11.0062743227             -3.0765764404             -0.1264602947
             -3.0765764404             -4.6775500156             -0.4265338116
             -0.1264602947             -0.4265338116             -3.6033210887
 Effective mass tensor eigenvalues:
            -12.2642719171             -3.8686631837             -3.1542103262
 Angular average effective mass 1/(<1/m>)=  -4.5657830567
 Angular average effective mass for Frohlich model (<m**0.5>)**2=  -4.9541672453
 Effective masses along directions: (cart. coord. / red. coord. -> eff. mass)
    1:   1.000000  0.000000  0.000000 /   0.955964 -0.293483  0.000000 ->  -8.9760493000
    2:   0.000000  1.000000  0.000000 /   0.000000  1.000000  0.000000 ->  -3.7750717028
    3:   0.000000  0.000000  1.000000 /  -0.424208 -0.424208  0.800060 ->  -3.5617834696
    4:   0.577350  0.577350  0.577350 /   0.302698  0.015630  0.952958 ->  -6.4973906042
    5:   0.000000  0.707107  0.707107 /  -0.455046  0.237467  0.858221 ->  -4.0973921455
    6:   0.707107  0.000000  0.707107 /   0.241791 -0.601746  0.761209 ->  -4.9776283164
    7:   0.707107  0.707107  0.000000 /   0.840471  0.541857  0.000000 ->  -8.7385038048

 K-point ( 0.000, 0.000, 0.000) | band =    22
 Effective mass tensor:
              0.5743454170             -0.0107100255              0.0140748395
             -0.0107100255              0.5674354119              0.0193295601
              0.0140748395              0.0193295601              0.5567415239
 Effective mass tensor eigenvalues:
              0.5342344859              0.5821439333              0.5821439336
 Angular average effective mass 1/(<1/m>)=   0.5652470619
 Angular average effective mass for Frohlich model (<m**0.5>)**2=   0.5655291603
 Effective masses along directions: (cart. coord. / red. coord. -> eff. mass)
    1:   1.000000  0.000000  0.000000 /   0.955964 -0.293483  0.000000 ->   0.5737683197
    2:   0.000000  1.000000  0.000000 /   0.000000  1.000000  0.000000 ->   0.5665458177
    3:   0.000000  0.000000  1.000000 /  -0.424208 -0.424208  0.800060 ->   0.5557199097
    4:   0.577350  0.577350  0.577350 /   0.302698  0.015630  0.952958 ->   0.5812297871
    5:   0.000000  0.707107  0.707107 /  -0.455046  0.237467  0.858221 ->   0.5813540031
    6:   0.707107  0.000000  0.707107 /   0.241791 -0.601746  0.761209 ->   0.5794047649
    7:   0.707107  0.707107  0.000000 /   0.840471  0.541857  0.000000 ->   0.5591558187

 END OF EFFECTIVE MASSES SECTION

 ---- first-order wavefunction calculations are completed ----

 Total localisation tensor (bohr^2) in cartesian coordinates
  WARNING : still subject to testing - especially symmetries.
      direction              matrix element
   alpha     beta       real part   imaginary part
     1        1       0.7228005832    0.0000000000
     1        2      -0.1887978015    0.0000000000
     1        3      -0.2898681471    0.0000000000
     2        1      -0.1887978015    0.0000000000
     2        2       0.5852749771    0.0000000000
     2        3      -0.3845805431    0.0000000000
     3        1      -0.2898681471    0.0000000000
     3        2      -0.3845805431    0.0000000000
     3        3       1.7855532420    0.0000000000

 respfn : d/dk was computed, but no 2DTE, so no DDB output.

== END DATASET(S) ==============================================================

 -outvars: echo values of variables after computation  --------
            acell      1.0000000000E+00  1.0000000000E+00  1.0000000000E+00 Bohr
              amu      6.97230000E+01  3.09737620E+01  1.59994000E+01
             ecut      4.40000000E+01 Hartree
           etotal     -5.6992071220E+01
            fcart      0.0000000000E+00  0.0000000000E+00  0.0000000000E+00
                       0.0000000000E+00  0.0000000000E+00  0.0000000000E+00
                       0.0000000000E+00  0.0000000000E+00  0.0000000000E+00
                       0.0000000000E+00  0.0000000000E+00  0.0000000000E+00
                       0.0000000000E+00  0.0000000000E+00  0.0000000000E+00
                       0.0000000000E+00  0.0000000000E+00  0.0000000000E+00
-          fftalg         512
           irdden           1
           irdwfk           1
           istwfk        1    1
              ixc     -116133
              kpt      0.00000000E+00  5.00000000E-01  5.55111512E-17
                       0.00000000E+00  0.00000000E+00  0.00000000E+00
           kptopt           0
P           mkmem           2
P          mkqmem           2
P          mk1mem           2
            natom           6
            nband          30
           nbdbuf           4
            ngfft          60      60      60
             nkpt           2
            nstep        1000
             nsym           4
           ntypat           3
              occ      2.000000  2.000000  2.000000  2.000000  2.000000  2.000000
                       2.000000  2.000000  2.000000  2.000000  2.000000  2.000000
                       2.000000  2.000000  2.000000  2.000000  2.000000  2.000000
                       2.000000  2.000000  2.000000  0.000000  0.000000  0.000000
                       0.000000  0.000000  0.000000  0.000000  0.000000  0.000000
        optdriver           1
            prtwf          -1
            rfdir           1       1       1
           rfelfd           2
            rprim      8.1554000330E+00  0.0000000000E+00 -5.1000771705E+00
                      -2.5037235365E+00  7.7615667330E+00 -5.1000771705E+00
                       0.0000000000E+00  0.0000000000E+00  9.6188012165E+00
          spgroup          82
           strten      0.0000000000E+00  0.0000000000E+00  0.0000000000E+00
                       0.0000000000E+00  0.0000000000E+00  0.0000000000E+00
           symrel      1  0  0   0  1  0   0  0  1       0  1  0   1  0  0  -1 -1 -1
                       0  0  1  -1 -1 -1   0  1  0      -1 -1 -1   0  0  1   1  0  0
           tolwfr      1.00000000E-20
            typat      1  2  3  3  3  3
           useylm           1
              wtk        0.50000    0.50000
           xangst      0.0000000000E+00  0.0000000000E+00  0.0000000000E+00
                       8.5227882005E-02  3.0804331635E+00 -1.5381941181E-01
                       1.5641708667E+00  2.9994013424E+00 -5.7193809094E-01
                       6.2212170359E-01  3.0804331635E-03  1.7161643110E+00
                       3.0440644714E-02  3.5142197616E+00  1.3218124134E+00
                       3.7647435696E+00  1.6977868990E+00 -3.0813162807E+00
            xcart      0.0000000000E+00  0.0000000000E+00  0.0000000000E+00
                       1.6105735588E-01  5.8211750497E+00 -2.9067656225E-01
                       2.9558545630E+00  5.6680470997E+00 -1.0808063568E+00
                       1.1756396411E+00  5.8211750497E-03  3.2430805468E+00
                       5.7524481819E-02  6.6409129203E+00  2.4978634604E+00
                       7.1143343070E+00  3.2083522710E+00 -5.8228438994E+00
             xred      0.0000000000E+00  0.0000000000E+00  0.0000000000E+00
                       2.5000000000E-01  7.5000000000E-01  5.0000000000E-01
                       5.8663600000E-01  7.3027100000E-01  5.8588600000E-01
                       1.4438500000E-01  7.5000000000E-04  4.1411400000E-01
                       2.6972900000E-01  8.5561500000E-01  8.5636500000E-01
                       9.9925000000E-01  4.1336400000E-01  1.4363500000E-01
            znucl       31.00000   15.00000    8.00000

- Timing analysis has been suppressed with timopt=0

 Suggested references for the acknowledgment of ABINIT usage.

 Calculation completed.
.Delivered  14 WARNINGs and   9 COMMENTs to log file.