.Version 9.5.1 of ABINIT

 ABINIT is a project of the Universite Catholique de Louvain,
 Corning Inc. and other collaborators, see ~abinit/doc/developers/contributors.txt .
 acknowledgments of the ABINIT effort.

.Starting date : Tue 11 May 2021.
- ( at 21h29 )

- input  file    -> /scratch/users/j/a/jabreu/flow_simple_8atoms/flow/w317/t1/run.abi
- output file    -> /scratch/users/j/a/jabreu/flow_simple_8atoms/flow/w317/t1/run.abo
- root for input  files -> /scratch/users/j/a/jabreu/flow_simple_8atoms/flow/w317/t1/indata/in
- root for output files -> /scratch/users/j/a/jabreu/flow_simple_8atoms/flow/w317/t1/outdata/out

 Symmetries : space group R-3 (#148); Bravais hR (rhombohedral)
     intxc =       0      iscf =       7    lmnmax =      18     lnmax =       6
     mgfft =      72  mpssoang =       3    mqgrid =    3001     natom =       8
  nloc_mem =       1    nspden =       1   nspinor =       1    nsppol =       1
      nsym =       6    n1xccc =    2501    ntypat =       3    occopt =       1
   xclevel =       2
-    mband =          46        mffmem =           1         mkmem =           2
-   mkqmem =           2        mk1mem =           2           mpw =       14766
      nfft =      373248          nkpt =           2
  Rough estimation (10% accuracy) of disk space for files :

------------- Echo of variables that govern the present computation ------------
-
- outvars: echo of selected default values
-   iomode0 =  0 , fftalg0 =512 , wfoptalg0 =  0
-
- outvars: echo of global parameters not present in the input file
-  max_nthreads =    0
-
 -outvars: echo values of preprocessed input variables --------
            acell      1.0000000000E+00  1.0000000000E+00  1.0000000000E+00 Bohr
              amu      4.78800000E+01  1.12411000E+02  1.89984032E+01
             ecut      5.10000000E+01 Hartree
-          fftalg         512
           irdden           1
           irdwfk           1
           istwfk        1    1
              ixc     -116133
              kpt      5.00000000E-01  0.00000000E+00  0.00000000E+00
                       5.00000000E-01  5.00000000E-01  0.00000000E+00
           kptopt           0
P           mkmem           2
P          mkqmem           2
P          mk1mem           2
            natom           8
            nband          46
           nbdbuf           4
            ngfft          72      72      72
             nkpt           2
            nstep        2000
             nsym           6
           ntypat           3
              occ      2.000000  2.000000  2.000000  2.000000  2.000000  2.000000
                       2.000000  2.000000  2.000000  2.000000  2.000000  2.000000
                       2.000000  2.000000  2.000000  2.000000  2.000000  2.000000
                       2.000000  2.000000  2.000000  2.000000  2.000000  2.000000
                       2.000000  2.000000  2.000000  2.000000  2.000000  2.000000
                       2.000000  2.000000  2.000000  2.000000  2.000000  2.000000
                       2.000000  0.000000  0.000000  0.000000  0.000000  0.000000
                       0.000000  0.000000  0.000000  0.000000
        optdriver           1
            prtwf          -1
            rfdir           1       1       1
           rfelfd           2
            rprim      9.1588983016E+00  0.0000000000E+00  5.6715688809E+00
                       3.1588615799E+00  8.5969187282E+00  5.6715688809E+00
                       0.0000000000E+00  0.0000000000E+00  1.0772748566E+01
          spgroup         148
           symrel      1  0  0   0  1  0   0  0  1      -1  0  0   0 -1  0   0  0 -1
                       0  0  1   1  0  0   0  1  0       0  0 -1  -1  0  0   0 -1  0
                       0  1  0   0  0  1   1  0  0       0 -1  0   0  0 -1  -1  0  0
           tolwfr      1.00000000E-20
            typat      1  2  3  3  3  3  3  3
           useylm           1
              wtk        0.50000    0.50000
           xangst      3.2591388951E+00  2.2746467275E+00  5.8516114963E+00
                       0.0000000000E+00  0.0000000000E+00  0.0000000000E+00
                       5.0063256229E+00  2.9312553505E+00  5.9260380449E+00
                       3.8375895567E+00  8.6112665952E-01  4.7761155612E+00
                       2.6806882335E+00  3.6881667955E+00  6.9271074313E+00
                       3.5800313705E+00  1.2441726191E+00  7.3762382663E+00
                       1.5119521672E+00  1.6180381046E+00  5.7771849477E+00
                       2.9382464197E+00  3.3051208359E+00  4.3269847262E+00
            xcart      6.1588799408E+00  4.2984593641E+00  1.1057943164E+01
                       0.0000000000E+00  0.0000000000E+00  0.0000000000E+00
                       9.4605843594E+00  5.5392698380E+00  1.1198588958E+01
                       7.2519932725E+00  1.6272935522E+00  9.0255503897E+00
                       5.0657666090E+00  6.9696251760E+00  1.3090335938E+01
                       6.7652788374E+00  2.3511455122E+00  1.3939070214E+01
                       2.8571755221E+00  3.0576488902E+00  1.0917297370E+01
                       5.5524810441E+00  6.2457732160E+00  8.1768161137E+00
             xred      5.0000000000E-01  5.0000000000E-01  5.0000000000E-01
                       0.0000000000E+00  0.0000000000E+00  0.0000000000E+00
                       8.1071200000E-01  6.4433200000E-01  2.7348700000E-01
                       7.2651300000E-01  1.8928800000E-01  3.5566800000E-01
                       2.7348700000E-01  8.1071200000E-01  6.4433200000E-01
                       6.4433200000E-01  2.7348700000E-01  8.1071200000E-01
                       1.8928800000E-01  3.5566800000E-01  7.2651300000E-01
                       3.5566800000E-01  7.2651300000E-01  1.8928800000E-01
            znucl       22.00000   48.00000    9.00000

 chkinp: Checking input parameters for consistency.

== DATASET  1 ==================================================================
-   mpi_nproc: 1, omp_nthreads: -1 (-1 if OMP is not activated)

--- !DatasetInfo
iteration_state: {dtset: 1, }
dimensions: {natom: 8, nkpt: 2, mband: 46, nsppol: 1, nspinor: 1, nspden: 1, mpw: 14766, }
cutoff_energies: {ecut:  51.0, pawecutdg:  -1.0, }
electrons: {nelect:   7.40000000E+01, charge:   0.00000000E+00, occopt:   1.00000000E+00, tsmear:   1.00000000E-02, }
meta: {optdriver: 1, rfelfd: 2, }
...

 Real(R)+Recip(G) space primitive vectors, cartesian coordinates (Bohr,Bohr^-1):
 R(1)=  9.1588983  0.0000000  5.6715689  G(1)=  0.1091834 -0.0401185  0.0000000
 R(2)=  3.1588616  8.5969187  5.6715689  G(2)=  0.0000000  0.1163207  0.0000000
 R(3)=  0.0000000  0.0000000 10.7727486  G(3)= -0.0574822 -0.0401185  0.0928268
 Unit cell volume ucvol=  8.4822796E+02 bohr^3
 Angles (23,13,12)=  5.82324944E+01  5.82324944E+01  5.82324944E+01 degrees

 getcut: wavevector=  0.0000  0.0000  0.0000  ngfft=  72  72  72
         ecut(hartree)=     51.000   => boxcut(ratio)=   2.07901

--- Pseudopotential description ------------------------------------------------
- pspini: atom type   1  psp file is /scratch/users/j/a/jabreu/pseudos/PBEsol/Ti.psp8
- pspatm: opening atomic psp file    /scratch/users/j/a/jabreu/pseudos/PBEsol/Ti.psp8
- Ti    ONCVPSP-3.3.0  r_core=   1.35825   1.31050   1.66360
- 22.00000  12.00000    180112                znucl, zion, pspdat
    8 -116133    2    4       600   0.00000   pspcod,pspxc,lmax,lloc,mmax,r2well
    5.99000000000000    2.50000000000000    0.00000000000000   rchrg,fchrg,qchrg
     nproj     2     2     2
     extension_switch     1
  pspatm : epsatm=   14.76919902
         --- l  ekb(1:nproj) -->
             0   11.321950    1.254474
             1    1.946894   -0.084268
             2   -5.237105   -1.488377
 pspatm: atomic psp has been read  and splines computed

- pspini: atom type   2  psp file is /scratch/users/j/a/jabreu/pseudos/PBEsol/Cd.psp8
- pspatm: opening atomic psp file    /scratch/users/j/a/jabreu/pseudos/PBEsol/Cd.psp8
- Cd    ONCVPSP-3.3.0  r_core=   1.25838   1.30423   1.35174
- 48.00000  20.00000    180112                znucl, zion, pspdat
    8 -116133    2    4       600   0.00000   pspcod,pspxc,lmax,lloc,mmax,r2well
    5.99000000000000    6.00000000000000    0.00000000000000   rchrg,fchrg,qchrg
     nproj     2     2     2
     extension_switch     1
  pspatm : epsatm=   23.26728021
         --- l  ekb(1:nproj) -->
             0   63.701523    3.700425
             1    8.703569    1.290373
             2    0.983656   -0.721725
 pspatm: atomic psp has been read  and splines computed

- pspini: atom type   3  psp file is /scratch/users/j/a/jabreu/pseudos/PBEsol/F.psp8
- pspatm: opening atomic psp file    /scratch/users/j/a/jabreu/pseudos/PBEsol/F.psp8
- F     ONCVPSP-3.3.0  r_core=   1.30942   1.45782   1.60379
-  9.00000   7.00000    180112                znucl, zion, pspdat
    8 -116133    2    4       600   0.00000   pspcod,pspxc,lmax,lloc,mmax,r2well
    5.99000000000000    2.50000000000000    0.00000000000000   rchrg,fchrg,qchrg
     nproj     2     2     1
     extension_switch     1
  pspatm : epsatm=    4.89824824
         --- l  ekb(1:nproj) -->
             0    6.506434    1.065875
             1   -3.978753   -1.295852
             2   -2.394754
 pspatm: atomic psp has been read  and splines computed

   4.98952168E+03                                ecore*ucvol(ha*bohr**3)

-inwffil : will read wavefunctions from disk file /scratch/users/j/a/jabreu/flow_simple_8atoms/flow/w317/t1/indata/in_WFK

 ==>  initialize data related to q vector <==

 The list of irreducible perturbations for this q vector is:
    1)    idir= 1    ipert=   9
    2)    idir= 2    ipert=   9
    3)    idir= 3    ipert=   9

 Perturbation wavevector (in red.coord.)   0.000000  0.000000  0.000000
 Perturbation : derivative vs k along direction   1

 dfpt_looppert : COMMENT -
  In a d/dk calculation, iscf is set to -3 automatically.
 The set of symmetries contains only one element for this perturbation.
 symkpt : not enough symmetry to change the number of k points.

[...]

 Initialisation of the first-order wave-functions :
  ireadwf=   0

--- !BeginCycle
iteration_state: {dtset: 1, }
solver: {iscf: 7, nstep: 2000, nline: 4, wfoptalg: 0, }
tolerances: {tolwfr: 1.00E-20, }
...

     iter   2DEtotal(Ha)        deltaE(Ha) residm    vres2
-ETOT  1  -40.155749070159     -4.016E+01 1.537E-01 0.000E+00
 ETOT  2  -40.216416093798     -6.067E-02 6.927E-03 0.000E+00
 ETOT  3  -40.216758951750     -3.429E-04 6.005E-05 0.000E+00
 ETOT  4  -40.216763749191     -4.797E-06 2.849E-05 0.000E+00
 ETOT  5  -40.216763855838     -1.066E-07 4.713E-07 0.000E+00
 ETOT  6  -40.216763859027     -3.189E-09 2.846E-07 0.000E+00
 ETOT  7  -40.216763859140     -1.128E-10 5.323E-09 0.000E+00
 ETOT  8  -40.216763859144     -4.356E-12 3.264E-09 0.000E+00
 ETOT  9  -40.216763859144     -1.421E-13 7.892E-11 0.000E+00
 ETOT 10  -40.216763859144     -3.553E-14 5.453E-11 0.000E+00
 ETOT 11  -40.216763859144      2.132E-14 1.508E-12 0.000E+00
 ETOT 12  -40.216763859144     -5.684E-14 9.783E-13 0.000E+00
 ETOT 13  -40.216763859144      2.842E-14 2.762E-14 0.000E+00
 ETOT 14  -40.216763859144     -7.105E-15 1.846E-14 0.000E+00
 ETOT 15  -40.216763859144      0.000E+00 5.198E-16 0.000E+00
 ETOT 16  -40.216763859144      0.000E+00 3.533E-16 0.000E+00
 ETOT 17  -40.216763859144      0.000E+00 9.929E-18 0.000E+00
 ETOT 18  -40.216763859144      7.105E-15 6.812E-18 0.000E+00
 ETOT 19  -40.216763859144     -7.105E-15 1.914E-19 0.000E+00
 ETOT 20  -40.216763859144      0.000E+00 1.322E-19 0.000E+00
 ETOT 21  -40.216763859144      0.000E+00 9.816E-21 0.000E+00

 At SCF step   21   max residual=  9.82E-21 < tolwfr=  1.00E-20 =>converged.

 ----iterations are completed or convergence reached----

 dfpt_looppert: DFPT cycle converged with prtwf=-1. Will skip output of the 1st-order WFK file.
 dfpt_looppert : ek2=    7.9056177181E+01
          f-sum rule ratio=    9.9552020090E-01
 prteigrs : about to open file /scratch/users/j/a/jabreu/flow_simple_8atoms/flow/w317/t1/tmpdata/tmp_1WF1_EIG
 Expectation of eigenvalue derivatives (hartree) for nkpt=   2  k points:
  (in case of degenerate eigenvalues, averaged derivative)
 kpt#   1, nband= 46, wtk=  0.50000, kpt=  0.5000  0.0000  0.0000 (reduced coord)
  -0.00000   -0.00000    0.00000   -0.00000    0.00000   -0.00000    0.00000   -0.00000
   0.00000    0.00000    0.00000   -0.00000   -0.00000    0.00000   -0.00000    0.00000
   0.00000    0.00000    0.00000   -0.00000   -0.00000   -0.00000   -0.00000   -0.00000
   0.00000    0.00000   -0.00000   -0.00000    0.00000   -0.00000    0.00000   -0.00000
  -0.00000   -0.00000   -0.00000   -0.00000   -0.00000   -0.00000   -0.00000    0.00000
   0.00000   -0.00000   -0.00000    0.00000   -0.00000   -0.00003
 prteigrs : prtvol=0 or 1, do not print more k-points.

 Eight components of 2nd-order total energy (hartree) are
 1,2,3: 0th-order hamiltonian combined with 1st-order wavefunctions
     kin0=   5.81513205E+01 eigvalue=   3.65880493E+00  local=  -2.73358982E+01
 4,5,6: 1st-order hamiltonian combined with 1st and 0th-order wfs
     kin1=  -7.87020214E+01  Hartree=   0.00000000E+00     xc=   0.00000000E+00
 7,8,9: eventually, occupation + non-local contributions
    edocc=   5.42259977E+00     enl0=   3.19936848E-01   enl1=  -1.73150633E+00
 1-9 gives the relaxation energy (to be shifted if some occ is /=2.0)
   erelax=  -4.02167639E+01
  No Ewald or frozen-wf contrib.: the relaxation energy is the total one
 2DEtotal=   -0.4021676386E+02 Ha. Also 2DEtotal=   -0.109435379898E+04 eV
    (  non-var. 2DEtotal :   -4.0216763859E+01 Ha)

 Perturbation wavevector (in red.coord.)   0.000000  0.000000  0.000000
 Perturbation : derivative vs k along direction   2
 The set of symmetries contains only one element for this perturbation.
 symkpt : not enough symmetry to change the number of k points.

[...]

 Perturbation wavevector (in red.coord.)   0.000000  0.000000  0.000000
 Perturbation : derivative vs k along direction   3
 The set of symmetries contains only one element for this perturbation.
 symkpt : not enough symmetry to change the number of k points.

-inwffil : will read wavefunctions from disk file /scratch/users/j/a/jabreu/flow_simple_8atoms/flow/w317/t1/indata/in_WFK

 Initialisation of the first-order wave-functions :
  ireadwf=   0

--- !BeginCycle
iteration_state: {dtset: 1, }
solver: {iscf: 7, nstep: 2000, nline: 4, wfoptalg: 0, }
tolerances: {tolwfr: 1.00E-20, }
...

     iter   2DEtotal(Ha)        deltaE(Ha) residm    vres2
-ETOT  1  -40.438689748516     -4.044E+01 1.005E-01 0.000E+00
 ETOT  2  -40.495349223943     -5.666E-02 1.204E-02 0.000E+00
 ETOT  3  -40.495726682582     -3.775E-04 1.519E-04 0.000E+00
 ETOT  4  -40.495733453051     -6.770E-06 5.496E-05 0.000E+00
 ETOT  5  -40.495733629388     -1.763E-07 1.708E-06 0.000E+00
 ETOT  6  -40.495733635113     -5.725E-09 6.841E-07 0.000E+00
 ETOT  7  -40.495733635325     -2.114E-10 2.362E-08 0.000E+00
 ETOT  8  -40.495733635333     -8.370E-12 9.573E-09 0.000E+00
 ETOT  9  -40.495733635333     -3.055E-13 4.783E-10 0.000E+00
 ETOT 10  -40.495733635334     -6.395E-14 2.150E-10 0.000E+00
 ETOT 11  -40.495733635333      7.105E-15 8.864E-12 0.000E+00
 ETOT 12  -40.495733635333      1.421E-14 4.093E-12 0.000E+00
 ETOT 13  -40.495733635334     -2.842E-14 1.728E-13 0.000E+00
 ETOT 14  -40.495733635333      2.132E-14 8.322E-14 0.000E+00
 ETOT 15  -40.495733635333      0.000E+00 3.536E-15 0.000E+00
 ETOT 16  -40.495733635333      0.000E+00 1.746E-15 0.000E+00
 ETOT 17  -40.495733635333     -7.105E-15 7.426E-17 0.000E+00
 ETOT 18  -40.495733635333      7.105E-15 3.714E-17 0.000E+00
 ETOT 19  -40.495733635333      0.000E+00 1.580E-18 0.000E+00
 ETOT 20  -40.495733635333     -7.105E-15 7.958E-19 0.000E+00
 ETOT 21  -40.495733635333      0.000E+00 3.387E-20 0.000E+00
 ETOT 22  -40.495733635333      0.000E+00 1.711E-20 0.000E+00
 ETOT 23  -40.495733635333      1.421E-14 9.150E-21 0.000E+00

 At SCF step   23   max residual=  9.15E-21 < tolwfr=  1.00E-20 =>converged.

 ----iterations are completed or convergence reached----

 dfpt_looppert: DFPT cycle converged with prtwf=-1. Will skip output of the 1st-order WFK file.
 dfpt_looppert : ek2=    7.9056177181E+01
          f-sum rule ratio=    1.0035379059E+00
 prteigrs : about to open file /scratch/users/j/a/jabreu/flow_simple_8atoms/flow/w317/t1/tmpdata/tmp_1WF1_EIG
 Expectation of eigenvalue derivatives (hartree) for nkpt=   2  k points:
  (in case of degenerate eigenvalues, averaged derivative)
 kpt#   1, nband= 46, wtk=  0.50000, kpt=  0.5000  0.0000  0.0000 (reduced coord)
  -0.00000    0.00000   -0.00000   -0.00000   -0.00000   -0.00000   -0.00000    0.00000
   0.00000    0.00000   -0.00000    0.00000   -0.00000    0.00000   -0.00000   -0.00000
   0.00000   -0.00000    0.00000    0.00000    0.00000    0.00000    0.00000   -0.00000
   0.00000   -0.00000   -0.00000    0.00000   -0.00000    0.00000   -0.00000    0.00000
   0.00000    0.00000    0.00000    0.00000    0.00000    0.00000    0.00000   -0.00000
   0.00000    0.00000   -0.00000    0.00000    0.00000    0.00002
 prteigrs : prtvol=0 or 1, do not print more k-points.

 Eight components of 2nd-order total energy (hartree) are
 1,2,3: 0th-order hamiltonian combined with 1st-order wavefunctions
     kin0=   5.83741295E+01 eigvalue=   3.60104021E+00  local=  -2.75406333E+01
 4,5,6: 1st-order hamiltonian combined with 1st and 0th-order wfs
     kin1=  -7.93358705E+01  Hartree=   0.00000000E+00     xc=   0.00000000E+00
 7,8,9: eventually, occupation + non-local contributions
    edocc=   5.67844005E+00     enl0=   3.82757203E-01   enl1=  -1.65559677E+00
 1-9 gives the relaxation energy (to be shifted if some occ is /=2.0)
   erelax=  -4.04957336E+01
  No Ewald or frozen-wf contrib.: the relaxation energy is the total one
 2DEtotal=   -0.4049573364E+02 Ha. Also 2DEtotal=   -0.110194495264E+04 eV
    (  non-var. 2DEtotal :   -4.0495733635E+01 Ha)

 CALCULATION OF EFFECTIVE MASSES
 NOTE : Additional infos (eff. mass eigenvalues, eigenvectors and, if degenerate, average mass) are available in stdout.

 K-point ( 0.500, 0.000, 0.000) | band =    37
 Effective mass tensor:
             -5.1796947536              3.0624224798             -4.6129363856
              3.0624224798             -4.2414620489              3.5954451140
             -4.6129363856              3.5954451140             -6.0502759573
 Effective mass tensor eigenvalues:
            -12.8402686839             -1.6766522266             -0.9545118494
 Angular average effective mass 1/(<1/m>)=  -1.7421981894
 Angular average effective mass for Frohlich model (<m**0.5>)**2=  -2.1742888164
 Effective masses along directions: (cart. coord. / red. coord. -> eff. mass)
    1:   1.000000  0.000000  0.000000 /   0.945353  0.326048  0.000000 ->  -1.6136399148
    2:   0.000000  1.000000  0.000000 /   0.000000  1.000000  0.000000 ->  -2.0428022371
    3:   0.000000  0.000000  1.000000 /   0.422282  0.422282  0.802095 ->  -1.6320616916
    4:   0.577350  0.577350  0.577350 /   0.586360  0.689034  0.425928 ->  -1.9787817259
    5:   0.000000  0.707107  0.707107 /   0.302378  0.760720  0.574346 ->  -1.2988030606
    6:   0.707107  0.000000  0.707107 /   0.728903  0.434007  0.529470 ->  -5.0021628893
    7:   0.707107  0.707107  0.000000 /   0.614589  0.788847  0.000000 ->  -1.5404279640

 K-point ( 0.500, 0.500, 0.000) | band =    38
 Effective mass tensor:
              2.9985027242             -0.2941895825              0.2503214280
             -0.2941895825              3.9314706936              0.1387265558
              0.2503214280              0.1387265558              3.3619120926
 Effective mass tensor eigenvalues:
              2.7791568639              3.4893611791              4.0233674674
 Angular average effective mass 1/(<1/m>)=   3.3521246606
 Angular average effective mass for Frohlich model (<m**0.5>)**2=   3.3759619499
 Effective masses along directions: (cart. coord. / red. coord. -> eff. mass)
    1:   1.000000  0.000000  0.000000 /   0.945353  0.326048  0.000000 ->   2.9562428443
    2:   0.000000  1.000000  0.000000 /   0.000000  1.000000  0.000000 ->   3.8946267996
    3:   0.000000  0.000000  1.000000 /   0.422282  0.422282  0.802095 ->   3.3341827881
    4:   0.577350  0.577350  0.577350 /   0.586360  0.689034  0.425928 ->   3.4490820046
    5:   0.000000  0.707107  0.707107 /   0.302378  0.760720  0.574346 ->   3.7622993258
    6:   0.707107  0.000000  0.707107 /   0.728903  0.434007  0.529470 ->   3.4149981613
    7:   0.707107  0.707107  0.000000 /   0.614589  0.788847  0.000000 ->   3.0887564625

 END OF EFFECTIVE MASSES SECTION

 ---- first-order wavefunction calculations are completed ----

 Total localisation tensor (bohr^2) in cartesian coordinates
  WARNING : still subject to testing - especially symmetries.
      direction              matrix element
   alpha     beta       real part   imaginary part
     1        1       0.5428729515    0.0000000000
     1        2       0.1591240780    0.0000000000
     1        3       0.4049406560    0.0000000000
     2        1       0.1591240780    0.0000000000
     2        2       0.4330600540    0.0000000000
     2        3       0.2856988653    0.0000000000
     3        1       0.4049406560    0.0000000000
     3        2       0.2856988653    0.0000000000
     3        3       1.0607855531    0.0000000000

 respfn : d/dk was computed, but no 2DTE, so no DDB output.

== END DATASET(S) ==============================================================

 -outvars: echo values of variables after computation  --------
            acell      1.0000000000E+00  1.0000000000E+00  1.0000000000E+00 Bohr
              amu      4.78800000E+01  1.12411000E+02  1.89984032E+01
             ecut      5.10000000E+01 Hartree
           etotal     -4.0495733635E+01
            fcart      0.0000000000E+00  0.0000000000E+00  0.0000000000E+00
                       0.0000000000E+00  0.0000000000E+00  0.0000000000E+00
                       0.0000000000E+00  0.0000000000E+00  0.0000000000E+00
                       0.0000000000E+00  0.0000000000E+00  0.0000000000E+00
                       0.0000000000E+00  0.0000000000E+00  0.0000000000E+00
                       0.0000000000E+00  0.0000000000E+00  0.0000000000E+00
                       0.0000000000E+00  0.0000000000E+00  0.0000000000E+00
                       0.0000000000E+00  0.0000000000E+00  0.0000000000E+00
-          fftalg         512
           irdden           1
           irdwfk           1
           istwfk        1    1
              ixc     -116133
              kpt      5.00000000E-01  0.00000000E+00  0.00000000E+00
                       5.00000000E-01  5.00000000E-01  0.00000000E+00
           kptopt           0
P           mkmem           2
P          mkqmem           2
P          mk1mem           2
            natom           8
            nband          46
           nbdbuf           4
            ngfft          72      72      72
             nkpt           2
            nstep        2000
             nsym           6
           ntypat           3
              occ      2.000000  2.000000  2.000000  2.000000  2.000000  2.000000
                       2.000000  2.000000  2.000000  2.000000  2.000000  2.000000
                       2.000000  2.000000  2.000000  2.000000  2.000000  2.000000
                       2.000000  2.000000  2.000000  2.000000  2.000000  2.000000
                       2.000000  2.000000  2.000000  2.000000  2.000000  2.000000
                       2.000000  2.000000  2.000000  2.000000  2.000000  2.000000
                       2.000000  0.000000  0.000000  0.000000  0.000000  0.000000
                       0.000000  0.000000  0.000000  0.000000
        optdriver           1
            prtwf          -1
            rfdir           1       1       1
           rfelfd           2
            rprim      9.1588983016E+00  0.0000000000E+00  5.6715688809E+00
                       3.1588615799E+00  8.5969187282E+00  5.6715688809E+00
                       0.0000000000E+00  0.0000000000E+00  1.0772748566E+01
          spgroup         148
           strten      0.0000000000E+00  0.0000000000E+00  0.0000000000E+00
                       0.0000000000E+00  0.0000000000E+00  0.0000000000E+00
           symrel      1  0  0   0  1  0   0  0  1      -1  0  0   0 -1  0   0  0 -1
                       0  0  1   1  0  0   0  1  0       0  0 -1  -1  0  0   0 -1  0
                       0  1  0   0  0  1   1  0  0       0 -1  0   0  0 -1  -1  0  0
           tolwfr      1.00000000E-20
            typat      1  2  3  3  3  3  3  3
           useylm           1
              wtk        0.50000    0.50000
           xangst      3.2591388951E+00  2.2746467275E+00  5.8516114963E+00
                       0.0000000000E+00  0.0000000000E+00  0.0000000000E+00
                       5.0063256229E+00  2.9312553505E+00  5.9260380449E+00
                       3.8375895567E+00  8.6112665952E-01  4.7761155612E+00
                       2.6806882335E+00  3.6881667955E+00  6.9271074313E+00
                       3.5800313705E+00  1.2441726191E+00  7.3762382663E+00
                       1.5119521672E+00  1.6180381046E+00  5.7771849477E+00
                       2.9382464197E+00  3.3051208359E+00  4.3269847262E+00
            xcart      6.1588799408E+00  4.2984593641E+00  1.1057943164E+01
                       0.0000000000E+00  0.0000000000E+00  0.0000000000E+00
                       9.4605843594E+00  5.5392698380E+00  1.1198588958E+01
                       7.2519932725E+00  1.6272935522E+00  9.0255503897E+00
                       5.0657666090E+00  6.9696251760E+00  1.3090335938E+01
                       6.7652788374E+00  2.3511455122E+00  1.3939070214E+01
                       2.8571755221E+00  3.0576488902E+00  1.0917297370E+01
                       5.5524810441E+00  6.2457732160E+00  8.1768161137E+00
             xred      5.0000000000E-01  5.0000000000E-01  5.0000000000E-01
                       0.0000000000E+00  0.0000000000E+00  0.0000000000E+00
                       8.1071200000E-01  6.4433200000E-01  2.7348700000E-01
                       7.2651300000E-01  1.8928800000E-01  3.5566800000E-01
                       2.7348700000E-01  8.1071200000E-01  6.4433200000E-01
                       6.4433200000E-01  2.7348700000E-01  8.1071200000E-01
                       1.8928800000E-01  3.5566800000E-01  7.2651300000E-01
                       3.5566800000E-01  7.2651300000E-01  1.8928800000E-01
            znucl       22.00000   48.00000    9.00000

- Timing analysis has been suppressed with timopt=0

 Suggested references for the acknowledgment of ABINIT usage.

 Calculation completed.
.Delivered  14 WARNINGs and   9 COMMENTs to log file.