.Version 9.5.2 of ABINIT

 ABINIT is a project of the Universite Catholique de Louvain,
 Corning Inc. and other collaborators, see ~abinit/doc/developers/contributors.txt .
 acknowledgments of the ABINIT effort.

.Starting date : Tue 25 May 2021.
- ( at 11h17 )

- input  file    -> /scratch/users/j/a/jabreu/flow_simple_10atoms/flow/w471/t1/run.abi
- output file    -> /scratch/users/j/a/jabreu/flow_simple_10atoms/flow/w471/t1/run.abo
- root for input  files -> /scratch/users/j/a/jabreu/flow_simple_10atoms/flow/w471/t1/indata/in
- root for output files -> /scratch/users/j/a/jabreu/flow_simple_10atoms/flow/w471/t1/outdata/out

 Symmetries : space group Ib a m (# 72); Bravais oI (body-center ortho.)
     intxc =       0      iscf =       7    lmnmax =      18     lnmax =       6
     mgfft =      90  mpssoang =       3    mqgrid =    3384     natom =      10
  nloc_mem =       1    nspden =       1   nspinor =       1    nsppol =       1
      nsym =       8    n1xccc =    2501    ntypat =       3    occopt =       1
   xclevel =       2
-    mband =          61        mffmem =           1         mkmem =           2
-   mkqmem =           2        mk1mem =           2           mpw =       25458
      nfft =      729000          nkpt =           2
  Rough estimation (10% accuracy) of disk space for files :

------------- Echo of variables that govern the present computation ------------
-
- outvars: echo of selected default values
-   iomode0 =  0 , fftalg0 =512 , wfoptalg0 =  0
-
- outvars: echo of global parameters not present in the input file
-  max_nthreads =    0
-
 -outvars: echo values of preprocessed input variables --------
            acell      1.0000000000E+00  1.0000000000E+00  1.0000000000E+00 Bohr
              amu      3.90983000E+01  2.80855000E+01  7.49215900E+01
             ecut      4.20000000E+01 Hartree
-          fftalg         512
           irdden           1
           irdwfk           1
              ixc     -116133
              kpt      5.00000000E-01  5.00000000E-01 -5.00000000E-01
                      -3.07441748E-01  3.07441748E-01  3.07441748E-01
           kptopt           0
P           mkmem           2
P          mkqmem           2
P          mk1mem           2
            natom          10
            nband          61
           nbdbuf           4
            ngfft          90      90      90
             nkpt           2
            nstep        2000
             nsym           8
           ntypat           3
              occ      2.000000  2.000000  2.000000  2.000000  2.000000  2.000000
                       2.000000  2.000000  2.000000  2.000000  2.000000  2.000000
                       2.000000  2.000000  2.000000  2.000000  2.000000  2.000000
                       2.000000  2.000000  2.000000  2.000000  2.000000  2.000000
                       2.000000  2.000000  2.000000  2.000000  2.000000  2.000000
                       2.000000  2.000000  2.000000  2.000000  2.000000  2.000000
                       2.000000  2.000000  2.000000  2.000000  2.000000  2.000000
                       2.000000  2.000000  2.000000  2.000000  2.000000  2.000000
                       2.000000  2.000000  2.000000  2.000000  0.000000  0.000000
                       0.000000  0.000000  0.000000  0.000000  0.000000  0.000000
                       0.000000
        optdriver           1
            prtwf          -1
            rfdir           1       1       1
           rfelfd           2
            rprim      1.1838846227E+01  0.0000000000E+00 -9.7159127977E+00
                      -2.2119443079E+00  1.0792916352E+01 -1.0638491457E+01
                       0.0000000000E+00  0.0000000000E+00  1.5315261718E+01
          spgroup          72
           symrel      1  0  0   0  1  0   0  0  1      -1  0  0   0 -1  0   0  0 -1
                       0  0  1  -1 -1 -1   1  0  0       0  0 -1   1  1  1  -1  0  0
                      -1 -1 -1   0  0  1   0  1  0       1  1  1   0  0 -1   0 -1  0
                       0  1  0   1  0  0  -1 -1 -1       0 -1  0  -1  0  0   1  1  1
            tnons      0.0000000  0.0000000  0.0000000     0.0000000  0.0000000 -0.0000000
                       0.0000000  0.5000000  0.5000000    -0.0000000  0.5000000  0.5000000
                       0.0000000  0.0000000 -0.0000000     0.0000000 -0.0000000  0.0000000
                      -0.0000000  0.5000000  0.5000000     0.0000000  0.5000000  0.5000000
           tolwfr      1.00000000E-20
            typat      1  1  1  1  2  2  3  3  3  3
           useylm           1
              wtk        0.50000    0.50000
           xangst      1.7598791669E+00  8.1626262414E-01 -1.0513878694E+00
                       5.3758682989E+00  3.6719452980E+00 -5.9314175440E+00
                      -2.8153121398E-01  2.0394200498E+00  3.2648181627E+00
                       3.3344579180E+00  4.8951027237E+00 -1.6152115119E+00
                       2.2545409139E+00  4.2835240109E+00 -4.7668333549E+00
                       2.8397961711E+00  1.4278413370E+00  2.1002339737E+00
                       3.0731267933E+00  2.2720253984E+00 -3.7898365266E+00
                       3.9475149650E-01  5.1277080723E+00 -3.5423869879E+00
                       4.6995855885E+00  5.8365727546E-01  8.7578760664E-01
                       2.0212102916E+00  3.4393399494E+00  1.1232371454E+00
            xcart      3.3256896525E+00  1.5425128121E+00 -1.9868351326E+00
                       1.0158918811E+01  6.9389709882E+00 -1.1208754738E+01
                      -5.3201689228E-01  3.8539453640E+00  6.1696122012E+00
                       6.3012122667E+00  9.2504035401E+00 -3.0523074041E+00
                       4.2604648826E+00  8.0946872642E+00 -9.0080095620E+00
                       5.3664370366E+00  2.6982290881E+00  3.9688670253E+00
                       5.8073680110E+00  4.2935057700E+00 -7.1617531237E+00
                       7.4597221893E-01  9.6899639461E+00 -6.6941412638E+00
                       8.8809297003E+00  1.1029524061E+00  1.6549987271E+00
                       3.8195339082E+00  6.4994105822E+00  2.1226105870E+00
             xred      3.0761600000E-01  1.4291900000E-01  1.6469700000E-01
                       9.7822200000E-01  6.4291900000E-01  3.3530300000E-01
                       2.1778000000E-02  3.5708100000E-01  6.6469700000E-01
                       6.9238400000E-01  8.5708100000E-01  8.3530300000E-01
                       5.0000000000E-01  7.5000000000E-01  2.5000000000E-01
                       5.0000000000E-01  2.5000000000E-01  7.5000000000E-01
                       5.6486050000E-01  3.9780775000E-01  1.6705275000E-01
                       2.3075500000E-01  8.9780775000E-01  3.3294725000E-01
                       7.6924500000E-01  1.0219225000E-01  6.6705275000E-01
                       4.3513950000E-01  6.0219225000E-01  8.3294725000E-01
            znucl       19.00000   14.00000   33.00000

 chkinp: Checking input parameters for consistency.

== DATASET  1 ==================================================================
-   mpi_nproc: 1, omp_nthreads: -1 (-1 if OMP is not activated)

--- !DatasetInfo
iteration_state: {dtset: 1, }
dimensions: {natom: 10, nkpt: 2, mband: 61, nsppol: 1, nspinor: 1, nspden: 1, mpw: 25458, }
cutoff_energies: {ecut:  42.0, pawecutdg:  -1.0, }
electrons: {nelect:   1.04000000E+02, charge:   0.00000000E+00, occopt:   1.00000000E+00, tsmear:   1.00000000E-02, }
meta: {optdriver: 1, rfelfd: 2, }
...

 Real(R)+Recip(G) space primitive vectors, cartesian coordinates (Bohr,Bohr^-1):
 R(1)= 11.8388462  0.0000000 -9.7159128  G(1)=  0.0844677  0.0173112  0.0000000
 R(2)= -2.2119443 10.7929164-10.6384915  G(2)=  0.0000000  0.0926534  0.0000000
 R(3)=  0.0000000  0.0000000 15.3152617  G(3)=  0.0535858  0.0753422  0.0652943
 Unit cell volume ucvol=  1.9569179E+03 bohr^3
 Angles (23,13,12)=  1.33998007E+02  1.29375066E+02  7.07902396E+01 degrees

 getcut: wavevector=  0.0000  0.0000  0.0000  ngfft=  90  90  90
         ecut(hartree)=     42.000   => boxcut(ratio)=   2.01452

--- Pseudopotential description ------------------------------------------------
- pspini: atom type   1  psp file is /scratch/users/j/a/jabreu/pseudos/PBEsol/K.psp8
- pspatm: opening atomic psp file    /scratch/users/j/a/jabreu/pseudos/PBEsol/K.psp8
- K     ONCVPSP-3.3.0  r_core=   1.36296   1.46408   1.61068
- 19.00000   9.00000    180112                znucl, zion, pspdat
    8 -116133    2    4       400   0.00000   pspcod,pspxc,lmax,lloc,mmax,r2well
    3.99000000000000    5.00000000000000    0.00000000000000   rchrg,fchrg,qchrg
     nproj     2     2     2
     extension_switch     1
  pspatm : epsatm=    8.32487830
         --- l  ekb(1:nproj) -->
             0   10.921326    0.816676
             1    4.431000    0.560368
             2   -3.384038   -1.043186
 pspatm: atomic psp has been read  and splines computed

- pspini: atom type   2  psp file is /scratch/users/j/a/jabreu/pseudos/PBEsol/Si.psp8
- pspatm: opening atomic psp file    /scratch/users/j/a/jabreu/pseudos/PBEsol/Si.psp8
- Si    ONCVPSP-3.3.0  r_core=   1.60303   1.72197   1.91712
- 14.00000   4.00000    180112                znucl, zion, pspdat
    8 -116133    2    4       600   0.00000   pspcod,pspxc,lmax,lloc,mmax,r2well
    5.99000000000000    4.00000000000000    0.00000000000000   rchrg,fchrg,qchrg
     nproj     2     2     2
     extension_switch     1
  pspatm : epsatm=    7.86468782
         --- l  ekb(1:nproj) -->
             0    5.384426    0.843824
             1    2.663259    0.615854
             2   -2.267219   -0.458043
 pspatm: atomic psp has been read  and splines computed

- pspini: atom type   3  psp file is /scratch/users/j/a/jabreu/pseudos/PBEsol/As.psp8
- pspatm: opening atomic psp file    /scratch/users/j/a/jabreu/pseudos/PBEsol/As.psp8
- As    ONCVPSP-3.3.0  r_core=   1.76603   1.70395   1.80867
- 33.00000  15.00000    180112                znucl, zion, pspdat
    8 -116133    2    4       600   0.00000   pspcod,pspxc,lmax,lloc,mmax,r2well
    5.99000000000000    5.00000000000000    0.00000000000000   rchrg,fchrg,qchrg
     nproj     2     2     2
     extension_switch     1
  pspatm : epsatm=   28.79155382
         --- l  ekb(1:nproj) -->
             0    8.270760    0.868950
             1    4.919053    0.756587
             2  -10.048665   -4.076802
 pspatm: atomic psp has been read  and splines computed

   1.70762908E+04                                ecore*ucvol(ha*bohr**3)

 ==>  initialize data related to q vector <==

 The list of irreducible perturbations for this q vector is:
    1)    idir= 1    ipert=  11
    2)    idir= 2    ipert=  11
    3)    idir= 3    ipert=  11

 Perturbation wavevector (in red.coord.)   0.000000  0.000000  0.000000
 Perturbation : derivative vs k along direction   1

 dfpt_looppert : COMMENT -
  In a d/dk calculation, iscf is set to -3 automatically.
 The set of symmetries contains only one element for this perturbation.
 symkpt : not enough symmetry to change the number of k points.

 Initialisation of the first-order wave-functions :
  ireadwf=   0

--- !BeginCycle
iteration_state: {dtset: 1, }
[...]
 prteigrs : about to open file /scratch/users/j/a/jabreu/flow_simple_10atoms/flow/w471/t1/tmpdata/tmp_1WF1_EIG
 Expectation of eigenvalue derivatives (hartree) for nkpt=   2  k points:
  (in case of degenerate eigenvalues, averaged derivative)
 kpt#   1, nband= 61, wtk=  0.50000, kpt=  0.5000  0.5000 -0.5000 (reduced coord)
  -0.00000   -0.00000    0.00000   -0.00000    0.00000    0.00000   -0.00000   -0.00000
  -0.00000    0.00000   -0.00000   -0.00000   -0.00000   -0.00000   -0.00000    0.00000
  -0.00000   -0.00000   -0.00000    0.00000   -0.00000   -0.00000    0.00000   -0.00000
   0.00000   -0.00000   -0.00000   -0.00000    0.00000    0.00000   -0.00000    0.00000
  -0.00000   -0.00000    0.00000   -0.00000    0.00000    0.00000    0.00000   -0.00000
  -0.00000   -0.00000   -0.00000    0.00000   -0.00000   -0.00000    0.00000    0.00000
  -0.00000   -0.00000    0.00000   -0.00000    0.00000    0.00000    0.00000    0.00000
  -0.00000    0.00000    0.00000   -0.00000    0.00000
 prteigrs : prtvol=0 or 1, do not print more k-points.

 Eight components of 2nd-order total energy (hartree) are
 1,2,3: 0th-order hamiltonian combined with 1st-order wavefunctions
     kin0=   7.12818522E+01 eigvalue=   8.53973110E+00  local=  -3.35747436E+01
 4,5,6: 1st-order hamiltonian combined with 1st and 0th-order wfs
     kin1=  -6.22313686E+01  Hartree=   0.00000000E+00     xc=   0.00000000E+00
 7,8,9: eventually, occupation + non-local contributions
    edocc=   5.67720845E+00     enl0=   5.47642468E+00   enl1=  -5.25695772E+01
 1-9 gives the relaxation energy (to be shifted if some occ is /=2.0)
   erelax=  -5.74004729E+01
  No Ewald or frozen-wf contrib.: the relaxation energy is the total one
 2DEtotal=   -0.5740047290E+02 Ha. Also 2DEtotal=   -0.156194630182E+04 eV
    (  non-var. 2DEtotal :   -5.7400472899E+01 Ha)

 Perturbation wavevector (in red.coord.)   0.000000  0.000000  0.000000
 Perturbation : derivative vs k along direction   2
 The set of symmetries contains only one element for this perturbation.
 symkpt : not enough symmetry to change the number of k points.

[...]

 Perturbation wavevector (in red.coord.)   0.000000  0.000000  0.000000
 Perturbation : derivative vs k along direction   3
 The set of symmetries contains only one element for this perturbation.
 symkpt : not enough symmetry to change the number of k points.

 Initialisation of the first-order wave-functions :
  ireadwf=   0

--- !BeginCycle
iteration_state: {dtset: 1, }
solver: {iscf: 7, nstep: 2000, nline: 4, wfoptalg: 0, }
tolerances: {tolwfr: 1.00E-20, }
...

     iter   2DEtotal(Ha)        deltaE(Ha) residm    vres2
-ETOT  1  -98.918326994781     -9.892E+01 1.659E-01 0.000E+00
 ETOT  2  -99.180777282149     -2.625E-01 1.831E-02 0.000E+00
 ETOT  3  -99.187549344687     -6.772E-03 2.836E-03 0.000E+00
 ETOT  4  -99.187915714566     -3.664E-04 5.407E-04 0.000E+00
 ETOT  5  -99.187940881240     -2.517E-05 8.483E-05 0.000E+00
 ETOT  6  -99.187942758169     -1.877E-06 2.442E-05 0.000E+00
 ETOT  7  -99.187942905530     -1.474E-07 3.472E-06 0.000E+00
 ETOT  8  -99.187942917366     -1.184E-08 1.147E-06 0.000E+00
 ETOT  9  -99.187942918348     -9.814E-10 1.671E-07 0.000E+00
 ETOT 10  -99.187942918430     -8.239E-11 5.508E-08 0.000E+00
 ETOT 11  -99.187942918437     -7.191E-12 8.209E-09 0.000E+00
 ETOT 12  -99.187942918438     -5.400E-13 2.690E-09 0.000E+00
 ETOT 13  -99.187942918438     -9.948E-14 4.093E-10 0.000E+00
 ETOT 14  -99.187942918438      4.263E-14 1.331E-10 0.000E+00
 ETOT 15  -99.187942918438     -8.527E-14 2.062E-11 0.000E+00
 ETOT 16  -99.187942918438      7.105E-14 6.662E-12 0.000E+00
 ETOT 17  -99.187942918438     -2.842E-14 1.046E-12 0.000E+00
 ETOT 18  -99.187942918438      0.000E+00 3.362E-13 0.000E+00
 ETOT 19  -99.187942918438     -4.263E-14 5.336E-14 0.000E+00
 ETOT 20  -99.187942918438      4.263E-14 1.708E-14 0.000E+00
 ETOT 21  -99.187942918438     -2.842E-14 2.732E-15 0.000E+00
 ETOT 22  -99.187942918438      1.421E-14 8.722E-16 0.000E+00
 ETOT 23  -99.187942918438      0.000E+00 1.403E-16 0.000E+00
 ETOT 24  -99.187942918438      1.421E-14 4.470E-17 0.000E+00
 ETOT 25  -99.187942918438      0.000E+00 7.219E-18 0.000E+00
 ETOT 26  -99.187942918438     -1.421E-14 2.298E-18 0.000E+00
 ETOT 27  -99.187942918438     -1.421E-14 3.721E-19 0.000E+00
 ETOT 28  -99.187942918438      2.842E-14 1.184E-19 0.000E+00
 ETOT 29  -99.187942918438     -2.842E-14 1.921E-20 0.000E+00
 ETOT 30  -99.187942918438      0.000E+00 9.721E-21 0.000E+00

 At SCF step   30   max residual=  9.72E-21 < tolwfr=  1.00E-20 =>converged.

 ----iterations are completed or convergence reached----

 dfpt_looppert: DFPT cycle converged with prtwf=-1. Will skip output of the 1st-order WFK file.
 dfpt_looppert : ek2=    1.0519963144E+02
          f-sum rule ratio=    1.0231257859E+00
 prteigrs : about to open file /scratch/users/j/a/jabreu/flow_simple_10atoms/flow/w471/t1/tmpdata/tmp_1WF1_EIG
 Expectation of eigenvalue derivatives (hartree) for nkpt=   2  k points:
  (in case of degenerate eigenvalues, averaged derivative)
 kpt#   1, nband= 61, wtk=  0.50000, kpt=  0.5000  0.5000 -0.5000 (reduced coord)
  -0.00000   -0.00000   -0.00000    0.00000   -0.00000    0.00000   -0.00000   -0.00000
  -0.00000    0.00000   -0.00000   -0.00000   -0.00000   -0.00000   -0.00000    0.00000
  -0.00000   -0.00000    0.00000    0.00000   -0.00000   -0.00000    0.00000   -0.00000
   0.00000    0.00000   -0.00000   -0.00000    0.00000    0.00000   -0.00000    0.00000
  -0.00000   -0.00000    0.00000   -0.00000    0.00000    0.00000    0.00000   -0.00000
  -0.00000   -0.00000    0.00000    0.00000   -0.00000   -0.00000   -0.00000    0.00000
  -0.00000    0.00000    0.00000   -0.00000    0.00000    0.00000    0.00000    0.00000
   0.00000    0.00000    0.00000   -0.00000   -0.00000
 prteigrs : prtvol=0 or 1, do not print more k-points.

 Eight components of 2nd-order total energy (hartree) are
 1,2,3: 0th-order hamiltonian combined with 1st-order wavefunctions
     kin0=   1.15967378E+02 eigvalue=   1.54242482E+01  local=  -5.39021277E+01
 4,5,6: 1st-order hamiltonian combined with 1st and 0th-order wfs
     kin1=  -1.07632456E+02  Hartree=   0.00000000E+00     xc=   0.00000000E+00
 7,8,9: eventually, occupation + non-local contributions
    edocc=   1.22410351E+01     enl0=   9.45740948E+00   enl1=  -9.07434302E+01
 1-9 gives the relaxation energy (to be shifted if some occ is /=2.0)
   erelax=  -9.91879429E+01
  No Ewald or frozen-wf contrib.: the relaxation energy is the total one
 2DEtotal=   -0.9918794292E+02 Ha. Also 2DEtotal=   -0.269904118904E+04 eV
    (  non-var. 2DEtotal :   -9.9187942918E+01 Ha)

 CALCULATION OF EFFECTIVE MASSES
 NOTE : Additional infos (eff. mass eigenvalues, eigenvectors and, if degenerate, average mass) are available in stdout.

 K-point ( 0.500, 0.500,-0.500) | band =    52
 Effective mass tensor:
             -3.0239168841             -0.1919054051             -0.8135057443
             -0.1919054051             -0.5826706579              0.4057504960
             -0.8135057443              0.4057504960             -1.6886599416
 Effective mass tensor eigenvalues:
             -3.4086758756             -1.5190500206             -0.3675215874
 Angular average effective mass 1/(<1/m>)=  -0.8168591399
 Angular average effective mass for Frohlich model (<m**0.5>)**2=  -1.0491337769
 Effective masses along directions: (cart. coord. / red. coord. -> eff. mass)
    1:   1.000000  0.000000  0.000000 /   0.982990 -0.183660  0.000000 ->  -2.3227268469
    2:   0.000000  1.000000  0.000000 /   0.000000  1.000000  0.000000 ->  -0.4281641753
    3:   0.000000  0.000000  1.000000 /  -0.462069 -0.505945  0.728363 ->  -1.1031163880
    4:   0.577350  0.577350  0.577350 /   0.136103 -0.131909  0.981874 ->  -0.7774669431
    5:   0.000000  0.707107  0.707107 /  -0.535672  0.008514  0.844383 ->  -0.4259270974
    6:   0.707107  0.000000  0.707107 /   0.105594 -0.639177  0.761776 ->  -2.6418269576
    7:   0.707107  0.707107  0.000000 /   0.809682  0.586869  0.000000 ->  -0.9621871661

 K-point (-0.307, 0.307, 0.307) | band =    53
 Effective mass tensor:
              0.9532402412              0.3361906484             -0.5775129952
              0.3361906484              0.9107972823             -0.7108174558
             -0.5775129952             -0.7108174558              1.9011472609
 Effective mass tensor eigenvalues:
              0.5338866268              0.6800972451              2.5512009125
 Angular average effective mass 1/(<1/m>)=   0.8031253207
 Angular average effective mass for Frohlich model (<m**0.5>)**2=   0.8901351311
 Effective masses along directions: (cart. coord. / red. coord. -> eff. mass)
    1:   1.000000  0.000000  0.000000 /   0.982990 -0.183660  0.000000 ->   0.7553854101
    2:   0.000000  1.000000  0.000000 /   0.000000  1.000000  0.000000 ->   0.6264352448
    3:   0.000000  0.000000  1.000000 /  -0.462069 -0.505945  0.728363 ->   1.2266245992
    4:   0.577350  0.577350  0.577350 /   0.136103 -0.131909  0.981874 ->   0.6115945320
    5:   0.000000  0.707107  0.707107 /  -0.535672  0.008514  0.844383 ->   0.5788167203
    6:   0.707107  0.000000  0.707107 /   0.105594 -0.639177  0.761776 ->   0.7249575079
    7:   0.707107  0.707107  0.000000 /   0.809682  0.586869  0.000000 ->   0.8242289968

 END OF EFFECTIVE MASSES SECTION

 ---- first-order wavefunction calculations are completed ----

 Total localisation tensor (bohr^2) in cartesian coordinates
  WARNING : still subject to testing - especially symmetries.
      direction              matrix element
   alpha     beta       real part   imaginary part
     1        1       1.0721585121    0.0000000000
     1        2      -0.2518543835    0.0000000000
     1        3      -0.5892886518    0.0000000000
     2        1      -0.2518543835    0.0000000000
     2        2       1.2288931890    0.0000000000
     2        3      -1.2113102025    0.0000000000
     3        1      -0.5892886518    0.0000000000
     3        2      -1.2113102025    0.0000000000
     3        3       5.3658853855    0.0000000000

 respfn : d/dk was computed, but no 2DTE, so no DDB output.

== END DATASET(S) ==============================================================

 -outvars: echo values of variables after computation  --------
            acell      1.0000000000E+00  1.0000000000E+00  1.0000000000E+00 Bohr
              amu      3.90983000E+01  2.80855000E+01  7.49215900E+01
             ecut      4.20000000E+01 Hartree
           etotal     -9.9187942918E+01
            fcart      0.0000000000E+00  0.0000000000E+00  0.0000000000E+00
                       0.0000000000E+00  0.0000000000E+00  0.0000000000E+00
                       0.0000000000E+00  0.0000000000E+00  0.0000000000E+00
                       0.0000000000E+00  0.0000000000E+00  0.0000000000E+00
                       0.0000000000E+00  0.0000000000E+00  0.0000000000E+00
                       0.0000000000E+00  0.0000000000E+00  0.0000000000E+00
                       0.0000000000E+00  0.0000000000E+00  0.0000000000E+00
                       0.0000000000E+00  0.0000000000E+00  0.0000000000E+00
                       0.0000000000E+00  0.0000000000E+00  0.0000000000E+00
                       0.0000000000E+00  0.0000000000E+00  0.0000000000E+00
-          fftalg         512
           irdden           1
           irdwfk           1
              ixc     -116133
              kpt      5.00000000E-01  5.00000000E-01 -5.00000000E-01
                      -3.07441748E-01  3.07441748E-01  3.07441748E-01
           kptopt           0
P           mkmem           2
P          mkqmem           2
P          mk1mem           2
            natom          10
            nband          61
           nbdbuf           4
            ngfft          90      90      90
             nkpt           2
            nstep        2000
             nsym           8
           ntypat           3
              occ      2.000000  2.000000  2.000000  2.000000  2.000000  2.000000
                       2.000000  2.000000  2.000000  2.000000  2.000000  2.000000
                       2.000000  2.000000  2.000000  2.000000  2.000000  2.000000
                       2.000000  2.000000  2.000000  2.000000  2.000000  2.000000
                       2.000000  2.000000  2.000000  2.000000  2.000000  2.000000
                       2.000000  2.000000  2.000000  2.000000  2.000000  2.000000
                       2.000000  2.000000  2.000000  2.000000  2.000000  2.000000
                       2.000000  2.000000  2.000000  2.000000  2.000000  2.000000
                       2.000000  2.000000  2.000000  2.000000  0.000000  0.000000
                       0.000000  0.000000  0.000000  0.000000  0.000000  0.000000
                       0.000000
        optdriver           1
            prtwf          -1
            rfdir           1       1       1
           rfelfd           2
            rprim      1.1838846227E+01  0.0000000000E+00 -9.7159127977E+00
                      -2.2119443079E+00  1.0792916352E+01 -1.0638491457E+01
                       0.0000000000E+00  0.0000000000E+00  1.5315261718E+01
          spgroup          72
           strten      0.0000000000E+00  0.0000000000E+00  0.0000000000E+00
                       0.0000000000E+00  0.0000000000E+00  0.0000000000E+00
           symrel      1  0  0   0  1  0   0  0  1      -1  0  0   0 -1  0   0  0 -1
                       0  0  1  -1 -1 -1   1  0  0       0  0 -1   1  1  1  -1  0  0
                      -1 -1 -1   0  0  1   0  1  0       1  1  1   0  0 -1   0 -1  0
                       0  1  0   1  0  0  -1 -1 -1       0 -1  0  -1  0  0   1  1  1
            tnons      0.0000000  0.0000000  0.0000000     0.0000000  0.0000000 -0.0000000
                       0.0000000  0.5000000  0.5000000    -0.0000000  0.5000000  0.5000000
                       0.0000000  0.0000000 -0.0000000     0.0000000 -0.0000000  0.0000000
                      -0.0000000  0.5000000  0.5000000     0.0000000  0.5000000  0.5000000
           tolwfr      1.00000000E-20
            typat      1  1  1  1  2  2  3  3  3  3
           useylm           1
              wtk        0.50000    0.50000
           xangst      1.7598791669E+00  8.1626262414E-01 -1.0513878694E+00
                       5.3758682989E+00  3.6719452980E+00 -5.9314175440E+00
                      -2.8153121398E-01  2.0394200498E+00  3.2648181627E+00
                       3.3344579180E+00  4.8951027237E+00 -1.6152115119E+00
                       2.2545409139E+00  4.2835240109E+00 -4.7668333549E+00
                       2.8397961711E+00  1.4278413370E+00  2.1002339737E+00
                       3.0731267933E+00  2.2720253984E+00 -3.7898365266E+00
                       3.9475149650E-01  5.1277080723E+00 -3.5423869879E+00
                       4.6995855885E+00  5.8365727546E-01  8.7578760664E-01
                       2.0212102916E+00  3.4393399494E+00  1.1232371454E+00
            xcart      3.3256896525E+00  1.5425128121E+00 -1.9868351326E+00
                       1.0158918811E+01  6.9389709882E+00 -1.1208754738E+01
                      -5.3201689228E-01  3.8539453640E+00  6.1696122012E+00
                       6.3012122667E+00  9.2504035401E+00 -3.0523074041E+00
                       4.2604648826E+00  8.0946872642E+00 -9.0080095620E+00
                       5.3664370366E+00  2.6982290881E+00  3.9688670253E+00
                       5.8073680110E+00  4.2935057700E+00 -7.1617531237E+00
                       7.4597221893E-01  9.6899639461E+00 -6.6941412638E+00
                       8.8809297003E+00  1.1029524061E+00  1.6549987271E+00
                       3.8195339082E+00  6.4994105822E+00  2.1226105870E+00
             xred      3.0761600000E-01  1.4291900000E-01  1.6469700000E-01
                       9.7822200000E-01  6.4291900000E-01  3.3530300000E-01
                       2.1778000000E-02  3.5708100000E-01  6.6469700000E-01
                       6.9238400000E-01  8.5708100000E-01  8.3530300000E-01
                       5.0000000000E-01  7.5000000000E-01  2.5000000000E-01
                       5.0000000000E-01  2.5000000000E-01  7.5000000000E-01
                       5.6486050000E-01  3.9780775000E-01  1.6705275000E-01
                       2.3075500000E-01  8.9780775000E-01  3.3294725000E-01
                       7.6924500000E-01  1.0219225000E-01  6.6705275000E-01
                       4.3513950000E-01  6.0219225000E-01  8.3294725000E-01
            znucl       19.00000   14.00000   33.00000

- Timing analysis has been suppressed with timopt=0

 Suggested references for the acknowledgment of ABINIT usage.

 Calculation completed.
.Delivered   2 WARNINGs and   7 COMMENTs to log file.