.Version 9.5.1 of ABINIT

 ABINIT is a project of the Universite Catholique de Louvain,
 Corning Inc. and other collaborators, see ~abinit/doc/developers/contributors.txt .
 acknowledgments of the ABINIT effort.

.Starting date : Tue 27 Apr 2021.
- ( at 18h45 )

- input  file    -> /scratch/users/j/a/jabreu/flow_simple_4atoms/flow/w253/t1/run.abi
- output file    -> /scratch/users/j/a/jabreu/flow_simple_4atoms/flow/w253/t1/run.abo
- root for input  files -> /scratch/users/j/a/jabreu/flow_simple_4atoms/flow/w253/t1/indata/in
- root for output files -> /scratch/users/j/a/jabreu/flow_simple_4atoms/flow/w253/t1/outdata/out

 Symmetries : space group P6_3 m c (#186); Bravais hP (primitive hexag.)
     intxc =       0      iscf =       7    lmnmax =      18     lnmax =       6
     mgfft =      90  mpssoang =       3    mqgrid =    4078     natom =       4
  nloc_mem =       1    nspden =       1   nspinor =       1    nsppol =       1
      nsym =      12    n1xccc =    2501    ntypat =       2    occopt =       1
   xclevel =       2
-    mband =          35        mffmem =           1         mkmem =           1
-   mkqmem =           1        mk1mem =           1           mpw =       11597
      nfft =      262440          nkpt =           1
  Rough estimation (10% accuracy) of disk space for files :

------------- Echo of variables that govern the present computation ------------
-
- outvars: echo of selected default values
-   iomode0 =  0 , fftalg0 =512 , wfoptalg0 =  0
-
- outvars: echo of global parameters not present in the input file
-  max_nthreads =    0
-
 -outvars: echo values of preprocessed input variables --------
            acell      1.0000000000E+00  1.0000000000E+00  1.0000000000E+00 Bohr
              amu      1.12411000E+02  3.20660000E+01
             ecut      5.10000000E+01 Hartree
-          fftalg         512
           irdden           1
           irdwfk           1
           istwfk        1
              ixc     -116133
           kptopt           0
P           mkmem           1
P          mkqmem           1
P          mk1mem           1
            natom           4
            nband          35
           nbdbuf           4
            ngfft          54      54      90
             nkpt           1
            nstep         100
             nsym          12
           ntypat           2
              occ      2.000000  2.000000  2.000000  2.000000  2.000000  2.000000
                       2.000000  2.000000  2.000000  2.000000  2.000000  2.000000
                       2.000000  2.000000  2.000000  2.000000  2.000000  2.000000
                       2.000000  2.000000  2.000000  2.000000  2.000000  2.000000
                       2.000000  2.000000  0.000000  0.000000  0.000000  0.000000
                       0.000000  0.000000  0.000000  0.000000  0.000000
        optdriver           1
            prtwf          -1
            rfdir           1       1       1
           rfelfd           2
            rprim      7.7946263842E+00  0.0000000000E+00  0.0000000000E+00
                      -3.8973131921E+00  6.7503444617E+00  0.0000000000E+00
                       0.0000000000E+00  0.0000000000E+00  1.2682804705E+01
          spgroup         186
           symrel      1  0  0   0  1  0   0  0  1       0  1  0   1  0  0   0  0  1
                       1  1  0  -1  0  0   0  0  1      -1  0  0   1  1  0   0  0  1
                       0  1  0  -1 -1  0   0  0  1      -1 -1  0   0  1  0   0  0  1
                      -1  0  0   0 -1  0   0  0  1       0 -1  0  -1  0  0   0  0  1
                      -1 -1  0   1  0  0   0  0  1       1  0  0  -1 -1  0   0  0  1
                       0 -1  0   1  1  0   0  0  1       1  1  0   0 -1  0   0  0  1
            tnons      0.0000000  0.0000000  0.0000000     0.0000000  0.0000000  0.5000000
                       0.0000000  0.0000000  0.5000000     0.0000000  0.0000000  0.0000000
                       0.0000000  0.0000000  0.0000000     0.0000000  0.0000000  0.5000000
                       0.0000000  0.0000000  0.5000000     0.0000000  0.0000000  0.0000000
                       0.0000000  0.0000000  0.0000000     0.0000000  0.0000000  0.5000000
                       0.0000000  0.0000000  0.5000000     0.0000000  0.0000000  0.0000000
           tolwfr      1.00000000E-20
            typat      1  1  2  2
           useylm           1
           xangst      2.0623693160E+00  1.1907094798E+00  3.3573094978E+00
                       0.0000000000E+00  2.3814189595E+00  1.5839024810E-03
                       2.0623693160E+00  1.1907094798E+00  5.8843587917E+00
                       0.0000000000E+00  2.3814189595E+00  2.5286331964E+00
            xcart      3.8973131921E+00  2.2501148206E+00  6.3443954942E+00
                       0.0000000000E+00  4.5002296411E+00  2.9931419103E-03
                       3.8973131921E+00  2.2501148206E+00  1.1119826584E+01
                       0.0000000000E+00  4.5002296411E+00  4.7784242317E+00
             xred      6.6666666667E-01  3.3333333333E-01  5.0023600000E-01
                       3.3333333333E-01  6.6666666667E-01  2.3600000000E-04
                       6.6666666667E-01  3.3333333333E-01  8.7676400000E-01
                       3.3333333333E-01  6.6666666667E-01  3.7676400000E-01
            znucl       48.00000   16.00000

 chkinp: Checking input parameters for consistency.

== DATASET  1 ==================================================================
-   mpi_nproc: 1, omp_nthreads: -1 (-1 if OMP is not activated)

--- !DatasetInfo
iteration_state: {dtset: 1, }
dimensions: {natom: 4, nkpt: 1, mband: 35, nsppol: 1, nspinor: 1, nspden: 1, mpw: 11597, }
cutoff_energies: {ecut:  51.0, pawecutdg:  -1.0, }
electrons: {nelect:   5.20000000E+01, charge:   0.00000000E+00, occopt:   1.00000000E+00, tsmear:   1.00000000E-02, }
meta: {optdriver: 1, rfelfd: 2, }
...

 Real(R)+Recip(G) space primitive vectors, cartesian coordinates (Bohr,Bohr^-1):
 R(1)=  7.7946264  0.0000000  0.0000000  G(1)=  0.1282935  0.0740703  0.0000000
 R(2)= -3.8973132  6.7503445  0.0000000  G(2)=  0.0000000  0.1481406  0.0000000
 R(3)=  0.0000000  0.0000000 12.6828047  G(3)=  0.0000000  0.0000000  0.0788469
 Unit cell volume ucvol=  6.6732369E+02 bohr^3
 Angles (23,13,12)=  9.00000000E+01  9.00000000E+01  1.20000000E+02 degrees

 getcut: wavevector=  0.0000  0.0000  0.0000  ngfft=  54  54  90
         ecut(hartree)=     51.000   => boxcut(ratio)=   2.15550

--- Pseudopotential description ------------------------------------------------
- pspini: atom type   1  psp file is /scratch/users/j/a/jabreu/pseudos/PBEsol/Cd.psp8
- pspatm: opening atomic psp file    /scratch/users/j/a/jabreu/pseudos/PBEsol/Cd.psp8
- Cd    ONCVPSP-3.3.0  r_core=   1.25838   1.30423   1.35174
- 48.00000  20.00000    180112                znucl, zion, pspdat
    8 -116133    2    4       600   0.00000   pspcod,pspxc,lmax,lloc,mmax,r2well
    5.99000000000000    6.00000000000000    0.00000000000000   rchrg,fchrg,qchrg
     nproj     2     2     2
     extension_switch     1
  pspatm : epsatm=   23.26728021
         --- l  ekb(1:nproj) -->
             0   63.701523    3.700425
             1    8.703569    1.290373
             2    0.983656   -0.721725
 pspatm: atomic psp has been read  and splines computed

- pspini: atom type   2  psp file is /scratch/users/j/a/jabreu/pseudos/PBEsol/S.psp8
- pspatm: opening atomic psp file    /scratch/users/j/a/jabreu/pseudos/PBEsol/S.psp8
- S     ONCVPSP-3.3.0  r_core=   1.45376   1.45376   1.61851
- 16.00000   6.00000    180112                znucl, zion, pspdat
    8 -116133    2    4       600   0.00000   pspcod,pspxc,lmax,lloc,mmax,r2well
    5.99000000000000    6.00000000000000    0.00000000000000   rchrg,fchrg,qchrg
     nproj     2     2     2
     extension_switch     1
  pspatm : epsatm=    8.71840985
         --- l  ekb(1:nproj) -->
             0    6.834532    0.579453
             1    3.282851    0.896984
             2   -3.496974   -0.974265
 pspatm: atomic psp has been read  and splines computed

   3.32651177E+03                                ecore*ucvol(ha*bohr**3)

-inwffil : will read wavefunctions from disk file /scratch/users/j/a/jabreu/flow_simple_4atoms/flow/w253/t1/indata/in_WFK

 ==>  initialize data related to q vector <==

 The list of irreducible perturbations for this q vector is:
    1)    idir= 1    ipert=   5
    2)    idir= 2    ipert=   5
    3)    idir= 3    ipert=   5

 Perturbation wavevector (in red.coord.)   0.000000  0.000000  0.000000
 Perturbation : derivative vs k along direction   1

 dfpt_looppert : COMMENT -
  In a d/dk calculation, iscf is set to -3 automatically.
 The set of symmetries contains only one element for this perturbation.
 symkpt : not enough symmetry to change the number of k points.

[...]

 Initialisation of the first-order wave-functions :
  ireadwf=   0

--- !BeginCycle
iteration_state: {dtset: 1, }
solver: {iscf: 7, nstep: 100, nline: 4, wfoptalg: 0, }
tolerances: {tolwfr: 1.00E-20, }
...

     iter   2DEtotal(Ha)        deltaE(Ha) residm    vres2
-ETOT  1  -67.877299808959     -6.788E+01 2.597E-01 0.000E+00
 ETOT  2  -67.991302089717     -1.140E-01 6.018E-03 0.000E+00
 ETOT  3  -67.992196143628     -8.941E-04 3.471E-05 0.000E+00
 ETOT  4  -67.992209789851     -1.365E-05 2.562E-06 0.000E+00
 ETOT  5  -67.992210047283     -2.574E-07 2.176E-08 0.000E+00
 ETOT  6  -67.992210052823     -5.539E-09 2.223E-09 0.000E+00
 ETOT  7  -67.992210052949     -1.267E-10 1.115E-10 0.000E+00
 ETOT  8  -67.992210052952     -3.027E-12 1.349E-11 0.000E+00
 ETOT  9  -67.992210052952     -2.842E-14 6.449E-13 0.000E+00
 ETOT 10  -67.992210052952     -8.527E-14 8.272E-14 0.000E+00
 ETOT 11  -67.992210052952      9.948E-14 3.851E-15 0.000E+00
 ETOT 12  -67.992210052952      2.842E-14 5.093E-16 0.000E+00
 ETOT 13  -67.992210052952     -7.105E-14 2.332E-17 0.000E+00
 ETOT 14  -67.992210052952     -1.421E-14 3.146E-18 0.000E+00
 ETOT 15  -67.992210052952      1.421E-14 1.424E-19 0.000E+00
 ETOT 16  -67.992210052952     -1.421E-14 1.949E-20 0.000E+00
 ETOT 17  -67.992210052952      0.000E+00 9.163E-21 0.000E+00

 At SCF step   17   max residual=  9.16E-21 < tolwfr=  1.00E-20 =>converged.

 ----iterations are completed or convergence reached----

 dfpt_looppert: DFPT cycle converged with prtwf=-1. Will skip output of the 1st-order WFK file.
 dfpt_looppert : ek2=    9.0103405615E+01
          f-sum rule ratio=    1.5421980629E+00
 prteigrs : about to open file /scratch/users/j/a/jabreu/flow_simple_4atoms/flow/w253/t1/tmpdata/tmp_1WF1_EIG
 Expectation of eigenvalue derivatives (hartree) for nkpt=   1  k points:
  (in case of degenerate eigenvalues, averaged derivative)
 kpt#   1, nband= 35, wtk=  1.00000, kpt=  0.0000  0.0000  0.0000 (reduced coord)
   0.00000    0.00000   -0.00000   -0.00000   -0.00000   -0.00000   -0.00000   -0.00000
   0.00000   -0.00000   -0.00000   -0.00000   -0.00000    0.00000    0.00000    0.00000
   0.00000    0.00000    0.00000    0.00000   -0.00000   -0.00000   -0.00000    0.00000
  -0.00000   -0.00000    0.00000   -0.00000   -0.00000   -0.00000   -0.00000    0.00000
   0.00000   -0.00000    0.00181

 Eight components of 2nd-order total energy (hartree) are
 1,2,3: 0th-order hamiltonian combined with 1st-order wavefunctions
     kin0=   6.12715531E+01 eigvalue=   2.07149527E+00  local=  -3.30341970E+01
 4,5,6: 1st-order hamiltonian combined with 1st and 0th-order wfs
     kin1=  -1.38957298E+02  Hartree=   0.00000000E+00     xc=   0.00000000E+00
 7,8,9: eventually, occupation + non-local contributions
    edocc=   3.48579288E+01     enl0=   2.82542993E+00   enl1=   2.97287749E+00
 1-9 gives the relaxation energy (to be shifted if some occ is /=2.0)
   erelax=  -6.79922101E+01
  No Ewald or frozen-wf contrib.: the relaxation energy is the total one
 2DEtotal=   -0.6799221005E+02 Ha. Also 2DEtotal=   -0.185016212724E+04 eV
    (  non-var. 2DEtotal :   -6.7992210053E+01 Ha)

 Perturbation wavevector (in red.coord.)   0.000000  0.000000  0.000000
 Perturbation : derivative vs k along direction   2
 The set of symmetries contains only one element for this perturbation.
 symkpt : not enough symmetry to change the number of k points.

[...]

 Perturbation wavevector (in red.coord.)   0.000000  0.000000  0.000000
 Perturbation : derivative vs k along direction   3
 The set of symmetries contains only one element for this perturbation.
 symkpt : not enough symmetry to change the number of k points.

-inwffil : will read wavefunctions from disk file /scratch/users/j/a/jabreu/flow_simple_4atoms/flow/w253/t1/indata/in_WFK

 Initialisation of the first-order wave-functions :
  ireadwf=   0

--- !BeginCycle
iteration_state: {dtset: 1, }
solver: {iscf: 7, nstep: 100, nline: 4, wfoptalg: 0, }
tolerances: {tolwfr: 1.00E-20, }
...

     iter   2DEtotal(Ha)        deltaE(Ha) residm    vres2
-ETOT  1  -16.426733828477     -1.643E+01 3.475E-02 0.000E+00
 ETOT  2  -16.442352565075     -1.562E-02 6.180E-04 0.000E+00
 ETOT  3  -16.442419293951     -6.673E-05 1.030E-05 0.000E+00
 ETOT  4  -16.442419850012     -5.561E-07 1.678E-07 0.000E+00
 ETOT  5  -16.442419856157     -6.145E-09 1.283E-08 0.000E+00
 ETOT  6  -16.442419856243     -8.593E-11 1.454E-10 0.000E+00
 ETOT  7  -16.442419856244     -1.460E-12 3.053E-11 0.000E+00
 ETOT  8  -16.442419856244     -2.842E-14 4.165E-13 0.000E+00
 ETOT  9  -16.442419856244      2.487E-14 7.745E-14 0.000E+00
 ETOT 10  -16.442419856244     -1.066E-14 1.293E-15 0.000E+00
 ETOT 11  -16.442419856244     -2.132E-14 2.085E-16 0.000E+00
 ETOT 12  -16.442419856244      7.105E-15 4.062E-18 0.000E+00
 ETOT 13  -16.442419856244      3.553E-15 5.889E-19 0.000E+00
 ETOT 14  -16.442419856244      0.000E+00 1.266E-20 0.000E+00
 ETOT 15  -16.442419856244     -1.066E-14 9.736E-21 0.000E+00

 At SCF step   15   max residual=  9.74E-21 < tolwfr=  1.00E-20 =>converged.

 ----iterations are completed or convergence reached----

 dfpt_looppert: DFPT cycle converged with prtwf=-1. Will skip output of the 1st-order WFK file.
 dfpt_looppert : ek2=    2.5524806939E+01
          f-sum rule ratio=    1.3063874665E+00
 prteigrs : about to open file /scratch/users/j/a/jabreu/flow_simple_4atoms/flow/w253/t1/tmpdata/tmp_1WF1_EIG
 Expectation of eigenvalue derivatives (hartree) for nkpt=   1  k points:
  (in case of degenerate eigenvalues, averaged derivative)
 kpt#   1, nband= 35, wtk=  1.00000, kpt=  0.0000  0.0000  0.0000 (reduced coord)
  -0.00000    0.00000   -0.00000   -0.00000   -0.00000   -0.00000   -0.00000   -0.00000
   0.00000   -0.00000    0.00000    0.00000    0.00000   -0.00000   -0.00000    0.00000
   0.00000    0.00000    0.00000    0.00000   -0.00000   -0.00000   -0.00000    0.00000
  -0.00000   -0.00000   -0.00000    0.00000    0.00000    0.00000   -0.00000    0.00000
   0.00000   -0.00000   -0.00000

 Eight components of 2nd-order total energy (hartree) are
 1,2,3: 0th-order hamiltonian combined with 1st-order wavefunctions
     kin0=   1.89537080E+01 eigvalue=   4.13605197E-01  local=  -1.01866886E+01
 4,5,6: 1st-order hamiltonian combined with 1st and 0th-order wfs
     kin1=  -3.33452879E+01  Hartree=   0.00000000E+00     xc=   0.00000000E+00
 7,8,9: eventually, occupation + non-local contributions
    edocc=   6.49988307E+00     enl0=   7.61912209E-01   enl1=   4.60448158E-01
 1-9 gives the relaxation energy (to be shifted if some occ is /=2.0)
   erelax=  -1.64424199E+01
  No Ewald or frozen-wf contrib.: the relaxation energy is the total one
 2DEtotal=   -0.1644241986E+02 Ha. Also 2DEtotal=   -0.447420998296E+03 eV
    (  non-var. 2DEtotal :   -1.6442419856E+01 Ha)

 CALCULATION OF EFFECTIVE MASSES
 NOTE : Additional infos (eff. mass eigenvalues, eigenvectors and, if degenerate, average mass) are available in stdout.

 COMMENTS:
 - At k-point ( 0.000, 0.000, 0.000), bands    25 through    26
   are DEGENERATE (effective mass tensor is therefore not defined).
   See Section IIIB Eqs. (67)-(70) and Appendix E of PRB 93 205147 (2016).
 - Angular average effective mass for Frohlich model is to be averaged over degenerate bands. See later.
 - Associated theta integrals calculated with ntheta=   1000 points.

 K-point ( 0.000, 0.000, 0.000) | band =    25
 Transport equivalent effective mass tensor:
             -0.1208603935             -0.0000000653             -0.0000041909
             -0.0000000653             -0.1208604536             -0.0000054746
             -0.0000041909             -0.0000054746             -1.6179368581
 Transport equivalent effective mass tensor eigenvalues:
             -1.6179368582             -0.1208604954             -0.1208603517
 Angular average effective mass 1/(<1/m>)=  -0.1747632005
 Angular average effective mass for Frohlich model (<m**0.5>)**2=  -0.2186973594
 Effective masses along directions: (cart. coord. / red. coord. -> eff. mass)
    1:   1.000000  0.000000  0.000000 /   0.894427 -0.447214  0.000000 ->  -0.1208604235
    2:   0.000000  1.000000  0.000000 /   0.000000  1.000000  0.000000 ->  -0.1208604234
    3:   0.000000  0.000000  1.000000 /   0.000000  0.000000  1.000000 ->  -1.6179219741
    4:   0.577350  0.577350  0.577350 /   0.514243  0.188226  0.836735 ->  -0.1747642767
    5:   0.000000  0.707107  0.707107 /   0.000000  0.469839  0.882752 ->  -0.2249207873
    6:   0.707107  0.000000  0.707107 /   0.506530 -0.253265  0.824187 ->  -0.2249201744
    7:   0.707107  0.707107  0.000000 /   0.939071  0.343724  0.000000 ->  -0.1208604236

 K-point ( 0.000, 0.000, 0.000) | band =    26
 Transport equivalent effective mass tensor:
             -1.5663834647              0.0000008432              0.0000042286
              0.0000008432             -1.5663826851              0.0000137042
              0.0000042286              0.0000137042             -1.6179368642
 Transport equivalent effective mass tensor eigenvalues:
             -1.6179368682             -1.5663840036             -1.5663821423
 Angular average effective mass 1/(<1/m>)=  -1.5831987062
 Angular average effective mass for Frohlich model (<m**0.5>)**2=  -1.5833087593
 Effective masses along directions: (cart. coord. / red. coord. -> eff. mass)
    1:   1.000000  0.000000  0.000000 /   0.894427 -0.447214  0.000000 ->  -1.5663830750
    2:   0.000000  1.000000  0.000000 /   0.000000  1.000000  0.000000 ->  -1.5663830747
    3:   0.000000  0.000000  1.000000 /   0.000000  0.000000  1.000000 ->  -1.6179517514
    4:   0.577350  0.577350  0.577350 /   0.514243  0.188226  0.836735 ->  -1.5831811757
    5:   0.000000  0.707107  0.707107 /   0.000000  0.469839  0.882752 ->  -1.5917253917
    6:   0.707107  0.000000  0.707107 /   0.506530 -0.253265  0.824187 ->  -1.5917489338
    7:   0.707107  0.707107  0.000000 /   0.939071  0.343724  0.000000 ->  -1.5663830740

 Angular average effective mass for Frohlich model, averaged over degenerate bands.
 Value of     (<<m**0.5>>)**2 =     7.447231E-01
 Absolute Value of <<m**0.5>> =     8.629734E-01

 K-point ( 0.000, 0.000, 0.000) | band =    27
 Effective mass tensor:
              0.1209438250              0.0000000066              0.0000000140
              0.0000000066              0.1209437497             -0.0000000064
              0.0000000140             -0.0000000064              0.1131709691
 Effective mass tensor eigenvalues:
              0.1131709691              0.1209437491              0.1209438256
 Angular average effective mass 1/(<1/m>)=   0.1182368691
 Angular average effective mass for Frohlich model (<m**0.5>)**2=   0.1182720522
 Effective masses along directions: (cart. coord. / red. coord. -> eff. mass)
    1:   1.000000  0.000000  0.000000 /   0.894427 -0.447214  0.000000 ->   0.1209438250
    2:   0.000000  1.000000  0.000000 /   0.000000  1.000000  0.000000 ->   0.1209437497
    3:   0.000000  0.000000  1.000000 /   0.000000  0.000000  1.000000 ->   0.1131709691
    4:   0.577350  0.577350  0.577350 /   0.514243  0.188226  0.836735 ->   0.1182368785
    5:   0.000000  0.707107  0.707107 /   0.000000  0.469839  0.882752 ->   0.1169283220
    6:   0.707107  0.000000  0.707107 /   0.506530 -0.253265  0.824187 ->   0.1169283776
    7:   0.707107  0.707107  0.000000 /   0.939071  0.343724  0.000000 ->   0.1209437940

 END OF EFFECTIVE MASSES SECTION

 ---- first-order wavefunction calculations are completed ----

 Total localisation tensor (bohr^2) in cartesian coordinates
  WARNING : still subject to testing - especially symmetries.
      direction              matrix element
   alpha     beta       real part   imaginary part
     1        1       7.9880980187    0.0000000000
     1        2      -2.7671593303    0.0000000000
     1        3       0.0000000000    0.0000000000
     2        1      -2.7671593303    0.0000000000
     2        2       4.7928605528    0.0000000000
     2        3       0.0000000000    0.0000000000
     3        1       0.0000000000    0.0000000000
     3        2       0.0000000000    0.0000000000
     3        3       4.1888377511    0.0000000000

 respfn : d/dk was computed, but no 2DTE, so no DDB output.

== END DATASET(S) ==============================================================

 -outvars: echo values of variables after computation  --------
            acell      1.0000000000E+00  1.0000000000E+00  1.0000000000E+00 Bohr
              amu      1.12411000E+02  3.20660000E+01
             ecut      5.10000000E+01 Hartree
           etotal     -1.6442419856E+01
            fcart      0.0000000000E+00  0.0000000000E+00  0.0000000000E+00
                       0.0000000000E+00  0.0000000000E+00  0.0000000000E+00
                       0.0000000000E+00  0.0000000000E+00  0.0000000000E+00
                       0.0000000000E+00  0.0000000000E+00  0.0000000000E+00
-          fftalg         512
           irdden           1
           irdwfk           1
           istwfk        1
              ixc     -116133
           kptopt           0
P           mkmem           1
P          mkqmem           1
P          mk1mem           1
            natom           4
            nband          35
           nbdbuf           4
            ngfft          54      54      90
             nkpt           1
            nstep         100
             nsym          12
           ntypat           2
              occ      2.000000  2.000000  2.000000  2.000000  2.000000  2.000000
                       2.000000  2.000000  2.000000  2.000000  2.000000  2.000000
                       2.000000  2.000000  2.000000  2.000000  2.000000  2.000000
                       2.000000  2.000000  2.000000  2.000000  2.000000  2.000000
                       2.000000  2.000000  0.000000  0.000000  0.000000  0.000000
                       0.000000  0.000000  0.000000  0.000000  0.000000
        optdriver           1
            prtwf          -1
            rfdir           1       1       1
           rfelfd           2
            rprim      7.7946263842E+00  0.0000000000E+00  0.0000000000E+00
                      -3.8973131921E+00  6.7503444617E+00  0.0000000000E+00
                       0.0000000000E+00  0.0000000000E+00  1.2682804705E+01
          spgroup         186
           strten      0.0000000000E+00  0.0000000000E+00  0.0000000000E+00
                       0.0000000000E+00  0.0000000000E+00  0.0000000000E+00
           symrel      1  0  0   0  1  0   0  0  1       0  1  0   1  0  0   0  0  1
                       1  1  0  -1  0  0   0  0  1      -1  0  0   1  1  0   0  0  1
                       0  1  0  -1 -1  0   0  0  1      -1 -1  0   0  1  0   0  0  1
                      -1  0  0   0 -1  0   0  0  1       0 -1  0  -1  0  0   0  0  1
                      -1 -1  0   1  0  0   0  0  1       1  0  0  -1 -1  0   0  0  1
                       0 -1  0   1  1  0   0  0  1       1  1  0   0 -1  0   0  0  1
            tnons      0.0000000  0.0000000  0.0000000     0.0000000  0.0000000  0.5000000
                       0.0000000  0.0000000  0.5000000     0.0000000  0.0000000  0.0000000
                       0.0000000  0.0000000  0.0000000     0.0000000  0.0000000  0.5000000
                       0.0000000  0.0000000  0.5000000     0.0000000  0.0000000  0.0000000
                       0.0000000  0.0000000  0.0000000     0.0000000  0.0000000  0.5000000
                       0.0000000  0.0000000  0.5000000     0.0000000  0.0000000  0.0000000
           tolwfr      1.00000000E-20
            typat      1  1  2  2
           useylm           1
           xangst      2.0623693160E+00  1.1907094798E+00  3.3573094978E+00
                       0.0000000000E+00  2.3814189595E+00  1.5839024810E-03
                       2.0623693160E+00  1.1907094798E+00  5.8843587917E+00
                       0.0000000000E+00  2.3814189595E+00  2.5286331964E+00
            xcart      3.8973131921E+00  2.2501148206E+00  6.3443954942E+00
                       0.0000000000E+00  4.5002296411E+00  2.9931419103E-03
                       3.8973131921E+00  2.2501148206E+00  1.1119826584E+01
                       0.0000000000E+00  4.5002296411E+00  4.7784242317E+00
             xred      6.6666666667E-01  3.3333333333E-01  5.0023600000E-01
                       3.3333333333E-01  6.6666666667E-01  2.3600000000E-04
                       6.6666666667E-01  3.3333333333E-01  8.7676400000E-01
                       3.3333333333E-01  6.6666666667E-01  3.7676400000E-01
            znucl       48.00000   16.00000

- Timing analysis has been suppressed with timopt=0

 Suggested references for the acknowledgment of ABINIT usage.

 Calculation completed.
.Delivered   6 WARNINGs and   5 COMMENTs to log file.