.Version 9.5.1 of ABINIT

 ABINIT is a project of the Universite Catholique de Louvain,
 Corning Inc. and other collaborators, see ~abinit/doc/developers/contributors.txt .
 acknowledgments of the ABINIT effort.

.Starting date : Tue 11 May 2021.
- ( at 21h44 )

- input  file    -> /scratch/users/j/a/jabreu/flow_simple_8atoms/flow/w349/t1/run.abi
- output file    -> /scratch/users/j/a/jabreu/flow_simple_8atoms/flow/w349/t1/run.abo
- root for input  files -> /scratch/users/j/a/jabreu/flow_simple_8atoms/flow/w349/t1/indata/in
- root for output files -> /scratch/users/j/a/jabreu/flow_simple_8atoms/flow/w349/t1/outdata/out

 Symmetries : space group P2_1/m (# 11); Bravais mP (primitive monocl.)
     intxc =       0      iscf =       7    lmnmax =      18     lnmax =       6
     mgfft =      72  mpssoang =       3    mqgrid =    3462     natom =       8
  nloc_mem =       1    nspden =       1   nspinor =       1    nsppol =       1
      nsym =       4    n1xccc =    2501    ntypat =       3    occopt =       1
   xclevel =       2
-    mband =          25        mffmem =           1         mkmem =           2
-   mkqmem =           2        mk1mem =           2           mpw =       10314
      nfft =      174960          nkpt =           2
  Rough estimation (10% accuracy) of disk space for files :

------------- Echo of variables that govern the present computation ------------
-
- outvars: echo of selected default values
-   iomode0 =  0 , fftalg0 =512 , wfoptalg0 =  0
-
- outvars: echo of global parameters not present in the input file
-  max_nthreads =    0
-
 -outvars: echo values of preprocessed input variables --------
            acell      1.0000000000E+00  1.0000000000E+00  1.0000000000E+00 Bohr
              amu      8.54678000E+01  1.00794000E+00  1.40067400E+01
             ecut      4.20000000E+01 Hartree
-          fftalg         512
           irdden           1
           irdwfk           1
           istwfk        1    1
              ixc     -116133
              kpt      0.00000000E+00  0.00000000E+00  5.00000000E-01
                       0.00000000E+00  0.00000000E+00  0.00000000E+00
           kptopt           0
P           mkmem           2
P          mkqmem           2
P          mk1mem           2
            natom           8
            nband          25
           nbdbuf           4
            ngfft          45      54      72
             nkpt           2
            nstep        2000
             nsym           4
           ntypat           3
              occ      2.000000  2.000000  2.000000  2.000000  2.000000  2.000000
                       2.000000  2.000000  2.000000  2.000000  2.000000  2.000000
                       2.000000  2.000000  2.000000  2.000000  0.000000  0.000000
                       0.000000  0.000000  0.000000  0.000000  0.000000  0.000000
                       0.000000
        optdriver           1
            prtwf          -1
            rfdir           1       1       1
           rfelfd           2
            rprim      7.3940126094E+00  0.0000000000E+00  0.0000000000E+00
                       0.0000000000E+00  8.9363168746E+00  1.4535132762E+00
                       0.0000000000E+00  0.0000000000E+00  1.2022665128E+01
          spgroup          11
           symrel      1  0  0   0  1  0   0  0  1      -1  0  0   0 -1  0   0  0 -1
                       1  0  0   0 -1  0   0  0 -1      -1  0  0   0  1  0   0  0  1
            tnons      0.0000000  0.0000000  0.0000000     0.0000000 -0.0000000  0.0000000
                       0.5000000 -0.0000000  0.0000000     0.5000000  0.0000000  0.0000000
           tolwfr      1.00000000E-20
            typat      1  1  2  2  2  2  3  3
           useylm           1
              wtk        0.50000    0.50000
           xangst      9.7818573823E-01  3.7588805870E+00  2.5509087462E+00
                       2.9345572147E+00  9.7001463175E-01  4.5803777241E+00
                       1.7753327728E+00  3.1443180933E+00  6.0599187295E+00
                       3.7317042492E+00  1.5845771255E+00  1.0713677409E+00
                       2.1374101801E+00  1.5845771255E+00  1.0713677409E+00
                       1.8103870369E-01  3.1443180933E+00  6.0599187295E+00
                       9.7818573823E-01  3.3492211231E+00  5.4336029700E+00
                       2.9345572147E+00  1.3796740957E+00  1.6976835004E+00
            xcart      1.8485031523E+00  7.1032548757E+00  4.8205189203E+00
                       5.5455094570E+00  1.8330619989E+00  8.6556594838E+00
                       3.3548927353E+00  5.9419000710E+00  1.1451586786E+01
                       7.0518990400E+00  2.9944168036E+00  2.0245916179E+00
                       4.0391198741E+00  2.9944168036E+00  2.0245916179E+00
                       3.4211356942E-01  5.9419000710E+00  1.1451586786E+01
                       1.8485031523E+00  6.3291106812E+00  1.0268021528E+01
                       5.5455094570E+00  2.6072061934E+00  3.2081568761E+00
             xred      2.5000000000E-01  7.9487500000E-01  3.0485400000E-01
                       7.5000000000E-01  2.0512500000E-01  6.9514600000E-01
                       4.5373100000E-01  6.6491600000E-01  8.7211300000E-01
                       9.5373100000E-01  3.3508400000E-01  1.2788700000E-01
                       5.4626900000E-01  3.3508400000E-01  1.2788700000E-01
                       4.6269000000E-02  6.6491600000E-01  8.7211300000E-01
                       2.5000000000E-01  7.0824600000E-01  7.6843000000E-01
                       7.5000000000E-01  2.9175400000E-01  2.3157000000E-01
            znucl       37.00000    1.00000    7.00000

 chkinp: Checking input parameters for consistency.

== DATASET  1 ==================================================================
-   mpi_nproc: 1, omp_nthreads: -1 (-1 if OMP is not activated)

--- !DatasetInfo
iteration_state: {dtset: 1, }
dimensions: {natom: 8, nkpt: 2, mband: 25, nsppol: 1, nspinor: 1, nspden: 1, mpw: 10314, }
cutoff_energies: {ecut:  42.0, pawecutdg:  -1.0, }
electrons: {nelect:   3.20000000E+01, charge:   0.00000000E+00, occopt:   1.00000000E+00, tsmear:   1.00000000E-02, }
meta: {optdriver: 1, rfelfd: 2, }
...

 Real(R)+Recip(G) space primitive vectors, cartesian coordinates (Bohr,Bohr^-1):
 R(1)=  7.3940126  0.0000000  0.0000000  G(1)=  0.1352446  0.0000000  0.0000000
 R(2)=  0.0000000  8.9363169  1.4535133  G(2)=  0.0000000  0.1119029  0.0000000
 R(3)=  0.0000000  0.0000000 12.0226651  G(3)=  0.0000000 -0.0135288  0.0831762
 Unit cell volume ucvol=  7.9440048E+02 bohr^3
 Angles (23,13,12)=  8.07616074E+01  9.00000000E+01  9.00000000E+01 degrees

 getcut: wavevector=  0.0000  0.0000  0.0000  ngfft=  45  54  72
         ecut(hartree)=     42.000   => boxcut(ratio)=   2.03978

--- Pseudopotential description ------------------------------------------------
- pspini: atom type   1  psp file is /scratch/users/j/a/jabreu/pseudos/PBEsol/Rb.psp8
- pspatm: opening atomic psp file    /scratch/users/j/a/jabreu/pseudos/PBEsol/Rb.psp8
- Rb    ONCVPSP-3.3.0  r_core=   1.71227   1.75361   1.90633
- 37.00000   9.00000    180112                znucl, zion, pspdat
    8 -116133    2    4       600   0.00000   pspcod,pspxc,lmax,lloc,mmax,r2well
    5.99000000000000    7.00000000000000    0.00000000000000   rchrg,fchrg,qchrg
     nproj     2     2     2
     extension_switch     1
  pspatm : epsatm=   34.48400912
         --- l  ekb(1:nproj) -->
             0    8.196957   -0.477221
             1    3.231347   -0.378736
             2   -1.047201    0.996637
 pspatm: atomic psp has been read  and splines computed

- pspini: atom type   2  psp file is /scratch/users/j/a/jabreu/pseudos/PBEsol/H.psp8
- pspatm: opening atomic psp file    /scratch/users/j/a/jabreu/pseudos/PBEsol/H.psp8
- H     ONCVPSP-3.3.0  r_core=   1.00957   0.70586
-  1.00000   1.00000    180112                znucl, zion, pspdat
    8 -116133    1    4       300   0.00000   pspcod,pspxc,lmax,lloc,mmax,r2well
    2.99000000000000    0.00000000000000    0.00000000000000   rchrg,fchrg,qchrg
     nproj     2     1
     extension_switch     1
  pspatm : epsatm=    0.35627032
         --- l  ekb(1:nproj) -->
             0   -1.674911   -0.523609
             1   -0.494138
 pspatm: atomic psp has been read  and splines computed

- pspini: atom type   3  psp file is /scratch/users/j/a/jabreu/pseudos/PBEsol/N.psp8
- pspatm: opening atomic psp file    /scratch/users/j/a/jabreu/pseudos/PBEsol/N.psp8
- N     ONCVPSP-3.3.0  r_core=   1.20551   1.35824
-  7.00000   5.00000    180112                znucl, zion, pspdat
    8 -116133    1    4       600   0.00000   pspcod,pspxc,lmax,lloc,mmax,r2well
    5.99000000000000    4.00000000000000    0.00000000000000   rchrg,fchrg,qchrg
     nproj     2     2
     extension_switch     1
  pspatm : epsatm=    5.26508895
         --- l  ekb(1:nproj) -->
             0    7.464189    0.625868
             1   -4.309714   -1.012941
 pspatm: atomic psp has been read  and splines computed

   2.58954488E+03                                ecore*ucvol(ha*bohr**3)

-inwffil : will read wavefunctions from disk file /scratch/users/j/a/jabreu/flow_simple_8atoms/flow/w349/t1/indata/in_WFK

 ==>  initialize data related to q vector <==

 The list of irreducible perturbations for this q vector is:
    1)    idir= 1    ipert=   9
    2)    idir= 2    ipert=   9
    3)    idir= 3    ipert=   9

 Perturbation wavevector (in red.coord.)   0.000000  0.000000  0.000000
 Perturbation : derivative vs k along direction   1

 dfpt_looppert : COMMENT -
  In a d/dk calculation, iscf is set to -3 automatically.
 The set of symmetries contains only one element for this perturbation.
 symkpt : not enough symmetry to change the number of k points.

[...]

 Initialisation of the first-order wave-functions :
  ireadwf=   0

--- !BeginCycle
iteration_state: {dtset: 1, }
solver: {iscf: 7, nstep: 2000, nline: 4, wfoptalg: 0, }
tolerances: {tolwfr: 1.00E-20, }
...

     iter   2DEtotal(Ha)        deltaE(Ha) residm    vres2
-ETOT  1  -27.301515452498     -2.730E+01 1.195E-02 0.000E+00
 ETOT  2  -27.309718883181     -8.203E-03 3.324E-05 0.000E+00
 ETOT  3  -27.309731020976     -1.214E-05 2.583E-07 0.000E+00
 ETOT  4  -27.309731056712     -3.574E-08 2.851E-09 0.000E+00
 ETOT  5  -27.309731056866     -1.537E-10 1.849E-10 0.000E+00
 ETOT  6  -27.309731056867     -9.202E-13 1.938E-11 0.000E+00
 ETOT  7  -27.309731056867      3.553E-15 8.047E-13 0.000E+00
 ETOT  8  -27.309731056867      1.066E-14 8.861E-14 0.000E+00
 ETOT  9  -27.309731056867     -7.105E-15 4.043E-15 0.000E+00
 ETOT 10  -27.309731056867      0.000E+00 4.469E-16 0.000E+00
 ETOT 11  -27.309731056867      3.553E-15 2.197E-17 0.000E+00
 ETOT 12  -27.309731056867     -3.553E-15 2.355E-18 0.000E+00
 ETOT 13  -27.309731056867     -7.105E-15 1.234E-19 0.000E+00
 ETOT 14  -27.309731056867      3.553E-15 1.276E-20 0.000E+00
 ETOT 15  -27.309731056867      3.553E-15 9.727E-21 0.000E+00

 At SCF step   15   max residual=  9.73E-21 < tolwfr=  1.00E-20 =>converged.

 ----iterations are completed or convergence reached----

 dfpt_looppert: DFPT cycle converged with prtwf=-1. Will skip output of the 1st-order WFK file.
 dfpt_looppert : ek2=    4.6214614741E+01
          f-sum rule ratio=    1.1702404224E+00
 prteigrs : about to open file /scratch/users/j/a/jabreu/flow_simple_8atoms/flow/w349/t1/tmpdata/tmp_1WF1_EIG
 Expectation of eigenvalue derivatives (hartree) for nkpt=   2  k points:
  (in case of degenerate eigenvalues, averaged derivative)
 kpt#   1, nband= 25, wtk=  0.50000, kpt=  0.0000  0.0000  0.5000 (reduced coord)
  -0.00000   -0.00000   -0.00000    0.00000    0.00000   -0.00000    0.00000   -0.00000
  -0.00000   -0.00000    0.00000   -0.00000   -0.00000    0.00000   -0.00000   -0.00000
  -0.00000    0.00000   -0.00000    0.00000   -0.00000   -0.00000   -0.00037   -0.00054
   0.02120
 prteigrs : prtvol=0 or 1, do not print more k-points.

 Eight components of 2nd-order total energy (hartree) are
 1,2,3: 0th-order hamiltonian combined with 1st-order wavefunctions
     kin0=   2.35337431E+01 eigvalue=   2.70622158E+00  local=  -1.14852863E+01
 4,5,6: 1st-order hamiltonian combined with 1st and 0th-order wfs
     kin1=  -5.40822103E+01  Hartree=   0.00000000E+00     xc=   0.00000000E+00
 7,8,9: eventually, occupation + non-local contributions
    edocc=   1.35939735E+01     enl0=  -1.03892086E+00   enl1=  -5.37251837E-01
 1-9 gives the relaxation energy (to be shifted if some occ is /=2.0)
   erelax=  -2.73097311E+01
  No Ewald or frozen-wf contrib.: the relaxation energy is the total one
 2DEtotal=   -0.2730973106E+02 Ha. Also 2DEtotal=   -0.743135574902E+03 eV
    (  non-var. 2DEtotal :   -2.7309731057E+01 Ha)

 Perturbation wavevector (in red.coord.)   0.000000  0.000000  0.000000
 Perturbation : derivative vs k along direction   2
 The set of symmetries contains only one element for this perturbation.
 symkpt : not enough symmetry to change the number of k points.

[...]

 Perturbation wavevector (in red.coord.)   0.000000  0.000000  0.000000
 Perturbation : derivative vs k along direction   3
 The set of symmetries contains only one element for this perturbation.
 symkpt : not enough symmetry to change the number of k points.

-inwffil : will read wavefunctions from disk file /scratch/users/j/a/jabreu/flow_simple_8atoms/flow/w349/t1/indata/in_WFK

 Initialisation of the first-order wave-functions :
  ireadwf=   0

--- !BeginCycle
iteration_state: {dtset: 1, }
solver: {iscf: 7, nstep: 2000, nline: 4, wfoptalg: 0, }
tolerances: {tolwfr: 1.00E-20, }
...

     iter   2DEtotal(Ha)        deltaE(Ha) residm    vres2
-ETOT  1  -9.2523791948057     -9.252E+00 3.495E-02 0.000E+00
 ETOT  2  -9.2576050616440     -5.226E-03 1.952E-03 0.000E+00
 ETOT  3  -9.2576165009108     -1.144E-05 1.645E-04 0.000E+00
 ETOT  4  -9.2576165458973     -4.499E-08 7.061E-06 0.000E+00
 ETOT  5  -9.2576165461352     -2.379E-10 8.084E-07 0.000E+00
 ETOT  6  -9.2576165461367     -1.517E-12 3.987E-08 0.000E+00
 ETOT  7  -9.2576165461367     -7.105E-15 4.627E-09 0.000E+00
 ETOT  8  -9.2576165461367     -1.421E-14 2.400E-10 0.000E+00
 ETOT  9  -9.2576165461367      1.599E-14 2.774E-11 0.000E+00
 ETOT 10  -9.2576165461367      0.000E+00 1.484E-12 0.000E+00
 ETOT 11  -9.2576165461367      0.000E+00 1.705E-13 0.000E+00
 ETOT 12  -9.2576165461367     -1.776E-15 9.282E-15 0.000E+00
 ETOT 13  -9.2576165461367      3.553E-15 1.062E-15 0.000E+00
 ETOT 14  -9.2576165461367     -3.553E-15 5.841E-17 0.000E+00
 ETOT 15  -9.2576165461367      0.000E+00 6.667E-18 0.000E+00
 ETOT 16  -9.2576165461367     -3.553E-15 3.688E-19 0.000E+00
 ETOT 17  -9.2576165461367      1.776E-15 4.205E-20 0.000E+00
 ETOT 18  -9.2576165461367      0.000E+00 9.680E-21 0.000E+00

 At SCF step   18   max residual=  9.68E-21 < tolwfr=  1.00E-20 =>converged.

 ----iterations are completed or convergence reached----

 dfpt_looppert: DFPT cycle converged with prtwf=-1. Will skip output of the 1st-order WFK file.
 dfpt_looppert : ek2=    1.7942314381E+01
          f-sum rule ratio=    1.0115728183E+00
 prteigrs : about to open file /scratch/users/j/a/jabreu/flow_simple_8atoms/flow/w349/t1/tmpdata/tmp_1WF1_EIG
 Expectation of eigenvalue derivatives (hartree) for nkpt=   2  k points:
  (in case of degenerate eigenvalues, averaged derivative)
 kpt#   1, nband= 25, wtk=  0.50000, kpt=  0.0000  0.0000  0.5000 (reduced coord)
  -0.00000   -0.00000   -0.00000   -0.00000    0.00000   -0.00000    0.00000   -0.00000
   0.00000    0.00000    0.00000    0.00000    0.00000    0.00000    0.00000    0.00000
   0.00000   -0.00000   -0.00000    0.00000    0.00000   -0.00000    0.00619   -0.00369
  -0.00091
 prteigrs : prtvol=0 or 1, do not print more k-points.

 Eight components of 2nd-order total energy (hartree) are
 1,2,3: 0th-order hamiltonian combined with 1st-order wavefunctions
     kin0=   1.11716471E+01 eigvalue=   1.43756919E+00  local=  -5.58849933E+00
 4,5,6: 1st-order hamiltonian combined with 1st and 0th-order wfs
     kin1=  -1.81499575E+01  Hartree=   0.00000000E+00     xc=   0.00000000E+00
 7,8,9: eventually, occupation + non-local contributions
    edocc=   2.72980563E+00     enl0=  -4.92906048E-01   enl1=  -3.65275568E-01
 1-9 gives the relaxation energy (to be shifted if some occ is /=2.0)
   erelax=  -9.25761655E+00
  No Ewald or frozen-wf contrib.: the relaxation energy is the total one
 2DEtotal=   -0.9257616546E+01 Ha. Also 2DEtotal=   -0.251912557466E+03 eV
    (  non-var. 2DEtotal :   -9.2576165461E+00 Ha)

 CALCULATION OF EFFECTIVE MASSES
 NOTE : Additional infos (eff. mass eigenvalues, eigenvectors and, if degenerate, average mass) are available in stdout.

 K-point ( 0.000, 0.000, 0.500) | band =    16
 Effective mass tensor:
             -2.2323227696              0.0005564312             -0.0011989145
              0.0005564312             -1.0108706460              1.2316445474
             -0.0011989145              1.2316445474             -7.0938403585
 Effective mass tensor eigenvalues:
             -7.3337546764             -2.2323225156             -0.7709565821
 Angular average effective mass 1/(<1/m>)=  -1.5945490643
 Angular average effective mass for Frohlich model (<m**0.5>)**2=  -1.9769821977
 Effective masses along directions: (cart. coord. / red. coord. -> eff. mass)
    1:   1.000000  0.000000  0.000000 /   1.000000  0.000000  0.000000 ->  -2.2323224148
    2:   0.000000  1.000000  0.000000 /   0.000000  1.000000  0.000000 ->  -0.7970303846
    3:   0.000000  0.000000  1.000000 /   0.000000  0.120024  0.992771 ->  -5.5932048223
    4:   0.577350  0.577350  0.577350 /   0.421886  0.592820  0.685986 ->  -1.2945603474
    5:   0.000000  0.707107  0.707107 /   0.000000  0.653858  0.756617 ->  -1.0700239367
    6:   0.707107  0.000000  0.707107 /   0.521108  0.102439  0.847321 ->  -3.1914780297
    7:   0.707107  0.707107  0.000000 /   0.637488  0.770460  0.000000 ->  -1.1743893180

 K-point ( 0.000, 0.000, 0.000) | band =    17
 Effective mass tensor:
              0.4758080645             -0.0000000148              0.0000000238
             -0.0000000148              0.3309410817             -0.0138122383
              0.0000000238             -0.0138122383              0.3973428002
 Effective mass tensor eigenvalues:
              0.3281825892              0.4001012928              0.4758080645
 Angular average effective mass 1/(<1/m>)=   0.3922522787
 Angular average effective mass for Frohlich model (<m**0.5>)**2=   0.3949778507
 Effective masses along directions: (cart. coord. / red. coord. -> eff. mass)
    1:   1.000000  0.000000  0.000000 /   1.000000  0.000000  0.000000 ->   0.4758080645
    2:   0.000000  1.000000  0.000000 /   0.000000  1.000000  0.000000 ->   0.3304609474
    3:   0.000000  0.000000  1.000000 /   0.000000  0.120024  0.992771 ->   0.3967663293
    4:   0.577350  0.577350  0.577350 /   0.421886  0.592820  0.685986 ->   0.3817512202
    5:   0.000000  0.707107  0.707107 /   0.000000  0.653858  0.756617 ->   0.3474132194
    6:   0.707107  0.000000  0.707107 /   0.521108  0.102439  0.847321 ->   0.4327072410
    7:   0.707107  0.707107  0.000000 /   0.637488  0.770460  0.000000 ->   0.3900335397

 END OF EFFECTIVE MASSES SECTION

 ---- first-order wavefunction calculations are completed ----

 Total localisation tensor (bohr^2) in cartesian coordinates
  WARNING : still subject to testing - especially symmetries.
      direction              matrix element
   alpha     beta       real part   imaginary part
     1        1       1.0474525021    0.0000000000
     1        2       0.0000000000    0.0000000000
     1        3       0.0000000000    0.0000000000
     2        1       0.0000000000    0.0000000000
     2        2       1.4972647701    0.0000000000
     2        3       0.2435336898    0.0000000000
     3        1       0.0000000000    0.0000000000
     3        2       0.2435336898    0.0000000000
     3        3       0.9384532784    0.0000000000

 respfn : d/dk was computed, but no 2DTE, so no DDB output.

== END DATASET(S) ==============================================================

 -outvars: echo values of variables after computation  --------
            acell      1.0000000000E+00  1.0000000000E+00  1.0000000000E+00 Bohr
              amu      8.54678000E+01  1.00794000E+00  1.40067400E+01
             ecut      4.20000000E+01 Hartree
           etotal     -9.2576165461E+00
            fcart      0.0000000000E+00  0.0000000000E+00  0.0000000000E+00
                       0.0000000000E+00  0.0000000000E+00  0.0000000000E+00
                       0.0000000000E+00  0.0000000000E+00  0.0000000000E+00
                       0.0000000000E+00  0.0000000000E+00  0.0000000000E+00
                       0.0000000000E+00  0.0000000000E+00  0.0000000000E+00
                       0.0000000000E+00  0.0000000000E+00  0.0000000000E+00
                       0.0000000000E+00  0.0000000000E+00  0.0000000000E+00
                       0.0000000000E+00  0.0000000000E+00  0.0000000000E+00
-          fftalg         512
           irdden           1
           irdwfk           1
           istwfk        1    1
              ixc     -116133
              kpt      0.00000000E+00  0.00000000E+00  5.00000000E-01
                       0.00000000E+00  0.00000000E+00  0.00000000E+00
           kptopt           0
P           mkmem           2
P          mkqmem           2
P          mk1mem           2
            natom           8
            nband          25
           nbdbuf           4
            ngfft          45      54      72
             nkpt           2
            nstep        2000
             nsym           4
           ntypat           3
              occ      2.000000  2.000000  2.000000  2.000000  2.000000  2.000000
                       2.000000  2.000000  2.000000  2.000000  2.000000  2.000000
                       2.000000  2.000000  2.000000  2.000000  0.000000  0.000000
                       0.000000  0.000000  0.000000  0.000000  0.000000  0.000000
                       0.000000
        optdriver           1
            prtwf          -1
            rfdir           1       1       1
           rfelfd           2
            rprim      7.3940126094E+00  0.0000000000E+00  0.0000000000E+00
                       0.0000000000E+00  8.9363168746E+00  1.4535132762E+00
                       0.0000000000E+00  0.0000000000E+00  1.2022665128E+01
          spgroup          11
           strten      0.0000000000E+00  0.0000000000E+00  0.0000000000E+00
                       0.0000000000E+00  0.0000000000E+00  0.0000000000E+00
           symrel      1  0  0   0  1  0   0  0  1      -1  0  0   0 -1  0   0  0 -1
                       1  0  0   0 -1  0   0  0 -1      -1  0  0   0  1  0   0  0  1
            tnons      0.0000000  0.0000000  0.0000000     0.0000000 -0.0000000  0.0000000
                       0.5000000 -0.0000000  0.0000000     0.5000000  0.0000000  0.0000000
           tolwfr      1.00000000E-20
            typat      1  1  2  2  2  2  3  3
           useylm           1
              wtk        0.50000    0.50000
           xangst      9.7818573823E-01  3.7588805870E+00  2.5509087462E+00
                       2.9345572147E+00  9.7001463175E-01  4.5803777241E+00
                       1.7753327728E+00  3.1443180933E+00  6.0599187295E+00
                       3.7317042492E+00  1.5845771255E+00  1.0713677409E+00
                       2.1374101801E+00  1.5845771255E+00  1.0713677409E+00
                       1.8103870369E-01  3.1443180933E+00  6.0599187295E+00
                       9.7818573823E-01  3.3492211231E+00  5.4336029700E+00
                       2.9345572147E+00  1.3796740957E+00  1.6976835004E+00
            xcart      1.8485031523E+00  7.1032548757E+00  4.8205189203E+00
                       5.5455094570E+00  1.8330619989E+00  8.6556594838E+00
                       3.3548927353E+00  5.9419000710E+00  1.1451586786E+01
                       7.0518990400E+00  2.9944168036E+00  2.0245916179E+00
                       4.0391198741E+00  2.9944168036E+00  2.0245916179E+00
                       3.4211356942E-01  5.9419000710E+00  1.1451586786E+01
                       1.8485031523E+00  6.3291106812E+00  1.0268021528E+01
                       5.5455094570E+00  2.6072061934E+00  3.2081568761E+00
             xred      2.5000000000E-01  7.9487500000E-01  3.0485400000E-01
                       7.5000000000E-01  2.0512500000E-01  6.9514600000E-01
                       4.5373100000E-01  6.6491600000E-01  8.7211300000E-01
                       9.5373100000E-01  3.3508400000E-01  1.2788700000E-01
                       5.4626900000E-01  3.3508400000E-01  1.2788700000E-01
                       4.6269000000E-02  6.6491600000E-01  8.7211300000E-01
                       2.5000000000E-01  7.0824600000E-01  7.6843000000E-01
                       7.5000000000E-01  2.9175400000E-01  2.3157000000E-01
            znucl       37.00000    1.00000    7.00000

- Timing analysis has been suppressed with timopt=0

 Suggested references for the acknowledgment of ABINIT usage.

 Calculation completed.
.Delivered  14 WARNINGs and   9 COMMENTs to log file.