.Version 9.5.2 of ABINIT

 ABINIT is a project of the Universite Catholique de Louvain,
 Corning Inc. and other collaborators, see ~abinit/doc/developers/contributors.txt .
 acknowledgments of the ABINIT effort.

.Starting date : Mon 24 May 2021.
- ( at 18h25 )

- input  file    -> /scratch/users/j/a/jabreu/flow_simple_10atoms/flow/w412/t1/run.abi
- output file    -> /scratch/users/j/a/jabreu/flow_simple_10atoms/flow/w412/t1/run.abo
- root for input  files -> /scratch/users/j/a/jabreu/flow_simple_10atoms/flow/w412/t1/indata/in
- root for output files -> /scratch/users/j/a/jabreu/flow_simple_10atoms/flow/w412/t1/outdata/out

 Symmetries : space group P2_1/m (# 11); Bravais mP (primitive monocl.)
     intxc =       0      iscf =       7    lmnmax =      18     lnmax =       6
     mgfft =      80  mpssoang =       3    mqgrid =    3674     natom =      10
  nloc_mem =       1    nspden =       1   nspinor =       1    nsppol =       1
      nsym =       4    n1xccc =    2501    ntypat =       3    occopt =       1
   xclevel =       2
-    mband =          53        mffmem =           1         mkmem =           1
-   mkqmem =           1        mk1mem =           1           mpw =       16104
      nfft =      276480          nkpt =           1
  Rough estimation (10% accuracy) of disk space for files :

------------- Echo of variables that govern the present computation ------------
-
- outvars: echo of selected default values
-   iomode0 =  0 , fftalg0 =512 , wfoptalg0 =  0
-
- outvars: echo of global parameters not present in the input file
-  max_nthreads =    0
-
 -outvars: echo values of preprocessed input variables --------
            acell      1.0000000000E+00  1.0000000000E+00  1.0000000000E+00 Bohr
              amu      1.37327000E+02  7.89600000E+01  1.59994000E+01
             ecut      4.40000000E+01 Hartree
-          fftalg         512
           irdden           1
           irdwfk           1
              ixc     -116133
              kpt      2.94117647E-01  5.00000000E-01  5.00000000E-01
           kptopt           0
P           mkmem           1
P          mkqmem           1
P          mk1mem           1
            natom          10
            nband          53
           nbdbuf           4
            ngfft          64      54      80
             nkpt           1
            nstep        2000
             nsym           4
           ntypat           3
              occ      2.000000  2.000000  2.000000  2.000000  2.000000  2.000000
                       2.000000  2.000000  2.000000  2.000000  2.000000  2.000000
                       2.000000  2.000000  2.000000  2.000000  2.000000  2.000000
                       2.000000  2.000000  2.000000  2.000000  2.000000  2.000000
                       2.000000  2.000000  2.000000  2.000000  2.000000  2.000000
                       2.000000  2.000000  2.000000  2.000000  2.000000  2.000000
                       2.000000  2.000000  2.000000  2.000000  2.000000  2.000000
                       2.000000  2.000000  0.000000  0.000000  0.000000  0.000000
                       0.000000  0.000000  0.000000  0.000000  0.000000
        optdriver           1
            prtwf          -1
            rfdir           1       1       1
           rfelfd           2
            rprim      1.0663081674E+01  0.0000000000E+00  0.0000000000E+00
                       0.0000000000E+00  8.4244254524E+00  2.5820638700E+00
                       0.0000000000E+00  0.0000000000E+00  1.2867359799E+01
          spgroup          11
           symrel      1  0  0   0  1  0   0  0  1      -1  0  0   0 -1  0   0  0 -1
                       1  0  0   0 -1  0   0  0 -1      -1  0  0   0  1  0   0  0  1
            tnons      0.0000000  0.0000000  0.0000000     0.0000000  0.0000000  0.0000000
                       0.5000000  0.0000000  0.0000000     0.5000000  0.0000000  0.0000000
           tolwfr      1.00000000E-20
            typat      1  1  2  2  3  3  3  3  3  3
           useylm           1
           xangst      4.2319948465E+00  2.9333241376E+00  2.3071738740E+00
                       1.4106649488E+00  1.5246898073E+00  5.8683090174E+00
                       1.4106649488E+00  2.9948046079E-01  2.4116821799E+00
                       4.2319948465E+00  4.1585334841E+00  5.7638007115E+00
                       5.5570606462E+00  3.6691951254E+00  6.7268919855E+00
                       2.7357307486E+00  7.8881881946E-01  1.4485909059E+00
                       8.5599149095E-02  7.8881881946E-01  1.4485909059E+00
                       2.9069290468E+00  3.6691951254E+00  6.7268919855E+00
                       4.2319948465E+00  1.3960582729E+00  4.6211853731E+00
                       1.4106649488E+00  3.0619556719E+00  3.5542975183E+00
            xcart      7.9973112557E+00  5.5431792790E+00  4.3599267628E+00
                       2.6657704186E+00  2.8812461734E+00  1.1089496906E+01
                       2.6657704186E+00  5.6593605304E-01  4.5574188395E+00
                       7.9973112557E+00  7.8584893994E+00  1.0892004829E+01
                       1.0501322725E+01  6.9337739152E+00  1.2711983578E+01
                       5.1697818881E+00  1.4906515372E+00  2.7374400907E+00
                       1.6175894900E-01  1.4906515372E+00  2.7374400907E+00
                       5.4932997861E+00  6.9337739152E+00  1.2711983578E+01
                       7.9973112557E+00  2.6381678014E+00  8.7327747644E+00
                       2.6657704186E+00  5.7862576510E+00  6.7166489044E+00
             xred      7.5000000000E-01  6.5798900000E-01  2.0679900000E-01
                       2.5000000000E-01  3.4201100000E-01  7.9320100000E-01
                       2.5000000000E-01  6.7178000000E-02  3.4070400000E-01
                       7.5000000000E-01  9.3282200000E-01  6.5929600000E-01
                       9.8483000000E-01  8.2305600000E-01  8.2276400000E-01
                       4.8483000000E-01  1.7694400000E-01  1.7723600000E-01
                       1.5170000000E-02  1.7694400000E-01  1.7723600000E-01
                       5.1517000000E-01  8.2305600000E-01  8.2276400000E-01
                       7.5000000000E-01  3.1315700000E-01  6.1583600000E-01
                       2.5000000000E-01  6.8684300000E-01  3.8416400000E-01
            znucl       56.00000   34.00000    8.00000

 chkinp: Checking input parameters for consistency.

== DATASET  1 ==================================================================
-   mpi_nproc: 1, omp_nthreads: -1 (-1 if OMP is not activated)

--- !DatasetInfo
iteration_state: {dtset: 1, }
dimensions: {natom: 10, nkpt: 1, mband: 53, nsppol: 1, nspinor: 1, nspden: 1, mpw: 16104, }
cutoff_energies: {ecut:  44.0, pawecutdg:  -1.0, }
electrons: {nelect:   8.80000000E+01, charge:   0.00000000E+00, occopt:   1.00000000E+00, tsmear:   1.00000000E-02, }
meta: {optdriver: 1, rfelfd: 2, }
...

 Real(R)+Recip(G) space primitive vectors, cartesian coordinates (Bohr,Bohr^-1):
 R(1)= 10.6630817  0.0000000  0.0000000  G(1)=  0.0937815  0.0000000  0.0000000
 R(2)=  0.0000000  8.4244255  2.5820639  G(2)=  0.0000000  0.1187025  0.0000000
 R(3)=  0.0000000  0.0000000 12.8673598  G(3)=  0.0000000 -0.0238198  0.0777160
 Unit cell volume ucvol=  1.1558793E+03 bohr^3
 Angles (23,13,12)=  7.29598379E+01  9.00000000E+01  9.00000000E+01 degrees

 getcut: wavevector=  0.0000  0.0000  0.0000  ngfft=  64  54  80
         ecut(hartree)=     44.000   => boxcut(ratio)=   2.01004

--- Pseudopotential description ------------------------------------------------
- pspini: atom type   1  psp file is /scratch/users/j/a/jabreu/pseudos/PBEsol/Ba.psp8
- pspatm: opening atomic psp file    /scratch/users/j/a/jabreu/pseudos/PBEsol/Ba.psp8
- Ba    ONCVPSP-3.3.0  r_core=   2.15444   1.91218   2.15444
- 56.00000  10.00000    180112                znucl, zion, pspdat
    8 -116133    2    4       600   0.00000   pspcod,pspxc,lmax,lloc,mmax,r2well
    5.99000000000000    5.00000000000000    0.00000000000000   rchrg,fchrg,qchrg
     nproj     2     2     2
     extension_switch     1
  pspatm : epsatm=   26.37418029
         --- l  ekb(1:nproj) -->
             0    6.652372    0.677024
             1    5.027722    0.408462
             2    2.543237    0.416854
 pspatm: atomic psp has been read  and splines computed

- pspini: atom type   2  psp file is /scratch/users/j/a/jabreu/pseudos/PBEsol/Se.psp8
- pspatm: opening atomic psp file    /scratch/users/j/a/jabreu/pseudos/PBEsol/Se.psp8
- Se    ONCVPSP-3.3.0  r_core=   1.81943   1.50330   1.90835
- 34.00000  16.00000    180112                znucl, zion, pspdat
    8 -116133    2    4       600   0.00000   pspcod,pspxc,lmax,lloc,mmax,r2well
    5.99000000000000    5.00000000000000    0.00000000000000   rchrg,fchrg,qchrg
     nproj     2     2     2
     extension_switch     1
  pspatm : epsatm=   29.17862020
         --- l  ekb(1:nproj) -->
             0    8.973804    1.019550
             1    6.849857    1.297308
             2   -9.203962   -3.731027
 pspatm: atomic psp has been read  and splines computed

- pspini: atom type   3  psp file is /scratch/users/j/a/jabreu/pseudos/PBEsol/O.psp8
- pspatm: opening atomic psp file    /scratch/users/j/a/jabreu/pseudos/PBEsol/O.psp8
- O     ONCVPSP-3.3.0  r_core=   1.35509   1.45563   1.26150
-  8.00000   6.00000    180112                znucl, zion, pspdat
    8 -116133    2    4       600   0.00000   pspcod,pspxc,lmax,lloc,mmax,r2well
    5.99000000000000    4.00000000000000    0.00000000000000   rchrg,fchrg,qchrg
     nproj     2     2     1
     extension_switch     1
  pspatm : epsatm=    6.22910522
         --- l  ekb(1:nproj) -->
             0    6.050032    0.820363
             1   -4.739617   -1.153841
             2   -1.335834
 pspatm: atomic psp has been read  and splines computed

   1.30662604E+04                                ecore*ucvol(ha*bohr**3)

 ==>  initialize data related to q vector <==

 The list of irreducible perturbations for this q vector is:
    1)    idir= 1    ipert=  11
    2)    idir= 2    ipert=  11
    3)    idir= 3    ipert=  11

 Perturbation wavevector (in red.coord.)   0.000000  0.000000  0.000000
 Perturbation : derivative vs k along direction   1

 dfpt_looppert : COMMENT -
  In a d/dk calculation, iscf is set to -3 automatically.
 The set of symmetries contains only one element for this perturbation.
 symkpt : not enough symmetry to change the number of k points.

 Initialisation of the first-order wave-functions :
  ireadwf=   0

--- !BeginCycle
iteration_state: {dtset: 1, }
solver: {iscf: 7, nstep: 2000, nline: 4, wfoptalg: 0, }
tolerances: {tolwfr: 1.00E-20, }
...

     iter   2DEtotal(Ha)        deltaE(Ha) residm    vres2
-ETOT  1  -49.133738299533     -4.913E+01 8.683E-02 0.000E+00
 ETOT  2  -49.209435650182     -7.570E-02 5.928E-03 0.000E+00
 ETOT  3  -49.210194238562     -7.586E-04 4.442E-04 0.000E+00
 ETOT  4  -49.210208944910     -1.471E-05 7.947E-05 0.000E+00
 ETOT  5  -49.210209290412     -3.455E-07 5.596E-06 0.000E+00
 ETOT  6  -49.210209299511     -9.099E-09 1.725E-06 0.000E+00
 ETOT  7  -49.210209299769     -2.583E-10 1.273E-07 0.000E+00
[...]
 ETOT 12  -49.210209299777      7.105E-15 3.895E-11 0.000E+00
 ETOT 13  -49.210209299777     -7.105E-15 2.857E-12 0.000E+00
 ETOT 14  -49.210209299777     -7.105E-15 1.154E-12 0.000E+00
 ETOT 15  -49.210209299777      0.000E+00 8.442E-14 0.000E+00
 ETOT 16  -49.210209299777      0.000E+00 3.455E-14 0.000E+00
 ETOT 17  -49.210209299777     -7.105E-15 2.520E-15 0.000E+00
 ETOT 18  -49.210209299777      7.105E-15 1.042E-15 0.000E+00
 ETOT 19  -49.210209299777      0.000E+00 7.575E-17 0.000E+00
 ETOT 20  -49.210209299777     -1.421E-14 3.159E-17 0.000E+00
 ETOT 21  -49.210209299777      7.105E-15 2.289E-18 0.000E+00
 ETOT 22  -49.210209299777     -1.421E-14 9.612E-19 0.000E+00
 ETOT 23  -49.210209299777      7.105E-15 6.946E-20 0.000E+00
 ETOT 24  -49.210209299777      0.000E+00 2.933E-20 0.000E+00
 ETOT 25  -49.210209299777     -7.105E-15 9.359E-21 0.000E+00

 At SCF step   25   max residual=  9.36E-21 < tolwfr=  1.00E-20 =>converged.

 ----iterations are completed or convergence reached----

 dfpt_looppert: DFPT cycle converged with prtwf=-1. Will skip output of the 1st-order WFK file.
 dfpt_looppert : ek2=    6.1109247115E+01
          f-sum rule ratio=    9.9440123571E-01
 prteigrs : about to open file /scratch/users/j/a/jabreu/flow_simple_10atoms/flow/w412/t1/tmpdata/tmp_1WF1_EIG
 Expectation of eigenvalue derivatives (hartree) for nkpt=   1  k points:
  (in case of degenerate eigenvalues, averaged derivative)
 kpt#   1, nband= 53, wtk=  1.00000, kpt=  0.2941  0.5000  0.5000 (reduced coord)
   0.00001   -0.00002    0.00002   -0.00000    0.00002   -0.00002    0.00000   -0.00000
   0.00001   -0.00001    0.00091   -0.00036    0.01087   -0.00150   -0.00766   -0.01830
  -0.00116   -0.00587    0.07079    0.07287    0.00740    0.00494    0.00235    0.00520
  -0.04223   -0.06995   -0.02170   -0.03010    0.01335   -0.00468    0.01692    0.01456
  -0.00869   -0.02370   -0.02277    0.01224   -0.01163   -0.03322   -0.00117    0.00633
  -0.00979   -0.00366    0.05104   -0.00065   -0.00013   -0.05926    0.06635    0.07146
  -0.03823    0.00107    0.04628   -0.05507    0.02929

 Eight components of 2nd-order total energy (hartree) are
 1,2,3: 0th-order hamiltonian combined with 1st-order wavefunctions
     kin0=   6.18267496E+01 eigvalue=   6.27138387E+00  local=  -2.77249478E+01
 4,5,6: 1st-order hamiltonian combined with 1st and 0th-order wfs
     kin1=  -6.07671108E+01  Hartree=   0.00000000E+00     xc=   0.00000000E+00
 7,8,9: eventually, occupation + non-local contributions
    edocc=   6.01971925E+00     enl0=   2.81730444E+00   enl1=  -3.76533078E+01
 1-9 gives the relaxation energy (to be shifted if some occ is /=2.0)
   erelax=  -4.92102093E+01
  No Ewald or frozen-wf contrib.: the relaxation energy is the total one
 2DEtotal=   -0.4921020930E+02 Ha. Also 2DEtotal=   -0.133907789509E+04 eV
    (  non-var. 2DEtotal :   -4.9210209300E+01 Ha)

 Perturbation wavevector (in red.coord.)   0.000000  0.000000  0.000000
 Perturbation : derivative vs k along direction   2
 The set of symmetries contains only one element for this perturbation.
 symkpt : not enough symmetry to change the number of k points.

[...]

 Perturbation wavevector (in red.coord.)   0.000000  0.000000  0.000000
 Perturbation : derivative vs k along direction   3
 The set of symmetries contains only one element for this perturbation.
 symkpt : not enough symmetry to change the number of k points.

 Initialisation of the first-order wave-functions :
  ireadwf=   0

--- !BeginCycle
iteration_state: {dtset: 1, }
solver: {iscf: 7, nstep: 2000, nline: 4, wfoptalg: 0, }
tolerances: {tolwfr: 1.00E-20, }
...

     iter   2DEtotal(Ha)        deltaE(Ha) residm    vres2
-ETOT  1  -37.201278453745     -3.720E+01 8.783E-02 0.000E+00
 ETOT  2  -37.264267149020     -6.299E-02 7.187E-03 0.000E+00
 ETOT  3  -37.264886230255     -6.191E-04 5.227E-04 0.000E+00
 ETOT  4  -37.264897975171     -1.174E-05 8.772E-05 0.000E+00
 ETOT  5  -37.264898247179     -2.720E-07 9.338E-06 0.000E+00
 ETOT  6  -37.264898254032     -6.852E-09 2.003E-06 0.000E+00
 ETOT  7  -37.264898254213     -1.812E-10 2.378E-07 0.000E+00
 ETOT  8  -37.264898254218     -4.889E-12 5.536E-08 0.000E+00
 ETOT  9  -37.264898254218     -1.492E-13 6.821E-09 0.000E+00
 ETOT 10  -37.264898254218     -2.132E-14 1.657E-09 0.000E+00
 ETOT 11  -37.264898254218      7.105E-15 2.059E-10 0.000E+00
 ETOT 12  -37.264898254218      4.974E-14 5.120E-11 0.000E+00
 ETOT 13  -37.264898254218     -2.132E-14 6.368E-12 0.000E+00
 ETOT 14  -37.264898254218     -7.105E-15 1.605E-12 0.000E+00
 ETOT 15  -37.264898254218      0.000E+00 1.993E-13 0.000E+00
 ETOT 16  -37.264898254218      7.105E-15 5.066E-14 0.000E+00
 ETOT 17  -37.264898254218     -7.105E-15 6.289E-15 0.000E+00
 ETOT 18  -37.264898254218      0.000E+00 1.607E-15 0.000E+00
 ETOT 19  -37.264898254218     -7.105E-15 1.995E-16 0.000E+00
 ETOT 20  -37.264898254218      7.105E-15 5.112E-17 0.000E+00
 ETOT 21  -37.264898254218      1.421E-14 6.354E-18 0.000E+00
 ETOT 22  -37.264898254218     -1.421E-14 1.631E-18 0.000E+00
 ETOT 23  -37.264898254218     -7.105E-15 2.031E-19 0.000E+00
 ETOT 24  -37.264898254218      7.105E-15 5.215E-20 0.000E+00
 ETOT 25  -37.264898254218      7.105E-15 9.930E-21 0.000E+00

 At SCF step   25   max residual=  9.93E-21 < tolwfr=  1.00E-20 =>converged.

 ----iterations are completed or convergence reached----

 dfpt_looppert: DFPT cycle converged with prtwf=-1. Will skip output of the 1st-order WFK file.
 dfpt_looppert : ek2=    4.5907882319E+01
          f-sum rule ratio=    1.0105412948E+00
 prteigrs : about to open file /scratch/users/j/a/jabreu/flow_simple_10atoms/flow/w412/t1/tmpdata/tmp_1WF1_EIG
 Expectation of eigenvalue derivatives (hartree) for nkpt=   1  k points:
  (in case of degenerate eigenvalues, averaged derivative)
 kpt#   1, nband= 53, wtk=  1.00000, kpt=  0.2941  0.5000  0.5000 (reduced coord)
  -0.00000   -0.00000   -0.00000    0.00000   -0.00000   -0.00000   -0.00000    0.00000
  -0.00000   -0.00000   -0.00000    0.00000    0.00000   -0.00000    0.00000   -0.00000
   0.00000    0.00000    0.00000   -0.00000    0.00000   -0.00000   -0.00000   -0.00000
  -0.00000   -0.00000   -0.00000   -0.00000   -0.00000   -0.00000   -0.00000    0.00000
  -0.00000   -0.00000    0.00000   -0.00000    0.00000   -0.00000    0.00000   -0.00000
  -0.00000   -0.00000    0.00000   -0.00000    0.00000    0.00000   -0.00000   -0.00000
  -0.00000   -0.00000    0.00000    0.00000   -0.00002

 Eight components of 2nd-order total energy (hartree) are
 1,2,3: 0th-order hamiltonian combined with 1st-order wavefunctions
     kin0=   4.61382671E+01 eigvalue=   4.58412551E+00  local=  -2.04309097E+01
 4,5,6: 1st-order hamiltonian combined with 1st and 0th-order wfs
     kin1=  -4.63918108E+01  Hartree=   0.00000000E+00     xc=   0.00000000E+00
 7,8,9: eventually, occupation + non-local contributions
    edocc=   4.75820180E+00     enl0=   2.21521355E+00   enl1=  -2.81379857E+01
 1-9 gives the relaxation energy (to be shifted if some occ is /=2.0)
   erelax=  -3.72648983E+01
  No Ewald or frozen-wf contrib.: the relaxation energy is the total one
 2DEtotal=   -0.3726489825E+02 Ha. Also 2DEtotal=   -0.101402945090E+04 eV
    (  non-var. 2DEtotal :   -3.7264898254E+01 Ha)

 CALCULATION OF EFFECTIVE MASSES
 NOTE : Additional infos (eff. mass eigenvalues, eigenvectors and, if degenerate, average mass) are available in stdout.

 K-point ( 0.294, 0.500, 0.500) | band =    44
 Effective mass tensor:
             -3.5848793308              0.0000177500             -0.0000499255
              0.0000177500             -1.4074163919              0.2592181450
             -0.0000499255              0.2592181450             -1.6321774172
 Effective mass tensor eigenvalues:
             -3.5848793323             -1.8023273020             -1.2372665055
 Angular average effective mass 1/(<1/m>)=  -1.8270169349
 Angular average effective mass for Frohlich model (<m**0.5>)**2=  -1.9245010352
 Effective masses along directions: (cart. coord. / red. coord. -> eff. mass)
    1:   1.000000  0.000000  0.000000 /   1.000000  0.000000  0.000000 ->  -3.5848793292
    2:   0.000000  1.000000  0.000000 /   0.000000  1.000000  0.000000 ->  -1.3662480446
    3:   0.000000  0.000000  1.000000 /   0.000000  0.196746  0.980455 ->  -1.5844345829
    4:   0.577350  0.577350  0.577350 /   0.532879  0.550041  0.643036 ->  -1.6004307243
    5:   0.000000  0.707107  0.707107 /   0.000000  0.650019  0.759918 ->  -1.2534796741
    6:   0.707107  0.000000  0.707107 /   0.630590  0.152697  0.760946 ->  -2.1976259962
    7:   0.707107  0.707107  0.000000 /   0.784661  0.619925  0.000000 ->  -1.9784645288

 K-point ( 0.294, 0.500, 0.500) | band =    45
 Effective mass tensor:
              1.1042551545             -0.0001016323              0.0000290349
             -0.0001016323              0.7811046487              0.0860302865
              0.0000290349              0.0860302865              1.3987622199
 Effective mass tensor eigenvalues:
              0.7693457709              1.1042551865              1.4105210658
 Angular average effective mass 1/(<1/m>)=   1.0293885926
 Angular average effective mass for Frohlich model (<m**0.5>)**2=   1.0490680083
 Effective masses along directions: (cart. coord. / red. coord. -> eff. mass)
    1:   1.000000  0.000000  0.000000 /   1.000000  0.000000  0.000000 ->   1.1042551401
    2:   0.000000  1.000000  0.000000 /   0.000000  1.000000  0.000000 ->   0.7758133822
    3:   0.000000  0.000000  1.000000 /   0.000000  0.196746  0.980455 ->   1.3892869065
    4:   0.577350  0.577350  0.577350 /   0.532879  0.550041  0.643036 ->   1.0885399509
    5:   0.000000  0.707107  0.707107 /   0.000000  0.650019  0.759918 ->   1.0809593125
    6:   0.707107  0.000000  0.707107 /   0.630590  0.152697  0.760946 ->   1.2305200241
    7:   0.707107  0.707107  0.000000 /   0.784661  0.619925  0.000000 ->   0.9112451654

 END OF EFFECTIVE MASSES SECTION

 ---- first-order wavefunction calculations are completed ----

 Total localisation tensor (bohr^2) in cartesian coordinates
  WARNING : still subject to testing - especially symmetries.
      direction              matrix element
   alpha     beta       real part   imaginary part
     1        1       0.7069280509    0.0000000000
     1        2       0.0000000000    0.0000000000
     1        3       0.0000000000    0.0000000000
     2        1       0.0000000000    0.0000000000
     2        2       0.9138615131    0.0000000000
     2        3       0.2800961096    0.0000000000
     3        1       0.0000000000    0.0000000000
     3        2       0.2800961096    0.0000000000
     3        3       0.8526455539    0.0000000000

 respfn : d/dk was computed, but no 2DTE, so no DDB output.

== END DATASET(S) ==============================================================

 -outvars: echo values of variables after computation  --------
            acell      1.0000000000E+00  1.0000000000E+00  1.0000000000E+00 Bohr
              amu      1.37327000E+02  7.89600000E+01  1.59994000E+01
             ecut      4.40000000E+01 Hartree
           etotal     -3.7264898254E+01
            fcart      0.0000000000E+00  0.0000000000E+00  0.0000000000E+00
                       0.0000000000E+00  0.0000000000E+00  0.0000000000E+00
                       0.0000000000E+00  0.0000000000E+00  0.0000000000E+00
                       0.0000000000E+00  0.0000000000E+00  0.0000000000E+00
                       0.0000000000E+00  0.0000000000E+00  0.0000000000E+00
                       0.0000000000E+00  0.0000000000E+00  0.0000000000E+00
                       0.0000000000E+00  0.0000000000E+00  0.0000000000E+00
                       0.0000000000E+00  0.0000000000E+00  0.0000000000E+00
                       0.0000000000E+00  0.0000000000E+00  0.0000000000E+00
                       0.0000000000E+00  0.0000000000E+00  0.0000000000E+00
-          fftalg         512
           irdden           1
           irdwfk           1
              ixc     -116133
              kpt      2.94117647E-01  5.00000000E-01  5.00000000E-01
           kptopt           0
P           mkmem           1
P          mkqmem           1
P          mk1mem           1
            natom          10
            nband          53
           nbdbuf           4
            ngfft          64      54      80
             nkpt           1
            nstep        2000
             nsym           4
           ntypat           3
              occ      2.000000  2.000000  2.000000  2.000000  2.000000  2.000000
                       2.000000  2.000000  2.000000  2.000000  2.000000  2.000000
                       2.000000  2.000000  2.000000  2.000000  2.000000  2.000000
                       2.000000  2.000000  2.000000  2.000000  2.000000  2.000000
                       2.000000  2.000000  2.000000  2.000000  2.000000  2.000000
                       2.000000  2.000000  2.000000  2.000000  2.000000  2.000000
                       2.000000  2.000000  2.000000  2.000000  2.000000  2.000000
                       2.000000  2.000000  0.000000  0.000000  0.000000  0.000000
                       0.000000  0.000000  0.000000  0.000000  0.000000
        optdriver           1
            prtwf          -1
            rfdir           1       1       1
           rfelfd           2
            rprim      1.0663081674E+01  0.0000000000E+00  0.0000000000E+00
                       0.0000000000E+00  8.4244254524E+00  2.5820638700E+00
                       0.0000000000E+00  0.0000000000E+00  1.2867359799E+01
          spgroup          11
           strten      0.0000000000E+00  0.0000000000E+00  0.0000000000E+00
                       0.0000000000E+00  0.0000000000E+00  0.0000000000E+00
           symrel      1  0  0   0  1  0   0  0  1      -1  0  0   0 -1  0   0  0 -1
                       1  0  0   0 -1  0   0  0 -1      -1  0  0   0  1  0   0  0  1
            tnons      0.0000000  0.0000000  0.0000000     0.0000000  0.0000000  0.0000000
                       0.5000000  0.0000000  0.0000000     0.5000000  0.0000000  0.0000000
           tolwfr      1.00000000E-20
            typat      1  1  2  2  3  3  3  3  3  3
           useylm           1
           xangst      4.2319948465E+00  2.9333241376E+00  2.3071738740E+00
                       1.4106649488E+00  1.5246898073E+00  5.8683090174E+00
                       1.4106649488E+00  2.9948046079E-01  2.4116821799E+00
                       4.2319948465E+00  4.1585334841E+00  5.7638007115E+00
                       5.5570606462E+00  3.6691951254E+00  6.7268919855E+00
                       2.7357307486E+00  7.8881881946E-01  1.4485909059E+00
                       8.5599149095E-02  7.8881881946E-01  1.4485909059E+00
                       2.9069290468E+00  3.6691951254E+00  6.7268919855E+00
                       4.2319948465E+00  1.3960582729E+00  4.6211853731E+00
                       1.4106649488E+00  3.0619556719E+00  3.5542975183E+00
            xcart      7.9973112557E+00  5.5431792790E+00  4.3599267628E+00
                       2.6657704186E+00  2.8812461734E+00  1.1089496906E+01
                       2.6657704186E+00  5.6593605304E-01  4.5574188395E+00
                       7.9973112557E+00  7.8584893994E+00  1.0892004829E+01
                       1.0501322725E+01  6.9337739152E+00  1.2711983578E+01
                       5.1697818881E+00  1.4906515372E+00  2.7374400907E+00
                       1.6175894900E-01  1.4906515372E+00  2.7374400907E+00
                       5.4932997861E+00  6.9337739152E+00  1.2711983578E+01
                       7.9973112557E+00  2.6381678014E+00  8.7327747644E+00
                       2.6657704186E+00  5.7862576510E+00  6.7166489044E+00
             xred      7.5000000000E-01  6.5798900000E-01  2.0679900000E-01
                       2.5000000000E-01  3.4201100000E-01  7.9320100000E-01
                       2.5000000000E-01  6.7178000000E-02  3.4070400000E-01
                       7.5000000000E-01  9.3282200000E-01  6.5929600000E-01
                       9.8483000000E-01  8.2305600000E-01  8.2276400000E-01
                       4.8483000000E-01  1.7694400000E-01  1.7723600000E-01
                       1.5170000000E-02  1.7694400000E-01  1.7723600000E-01
                       5.1517000000E-01  8.2305600000E-01  8.2276400000E-01
                       7.5000000000E-01  3.1315700000E-01  6.1583600000E-01
                       2.5000000000E-01  6.8684300000E-01  3.8416400000E-01
            znucl       56.00000   34.00000    8.00000

- Timing analysis has been suppressed with timopt=0

 Suggested references for the acknowledgment of ABINIT usage.

 Calculation completed.
.Delivered   2 WARNINGs and   5 COMMENTs to log file.