.Version 9.5.2 of ABINIT

 ABINIT is a project of the Universite Catholique de Louvain,
 Corning Inc. and other collaborators, see ~abinit/doc/developers/contributors.txt .
 acknowledgments of the ABINIT effort.

.Starting date : Mon 24 May 2021.
- ( at 23h19 )

- input  file    -> /scratch/users/j/a/jabreu/flow_simple_10atoms/flow/w491/t1/run.abi
- output file    -> /scratch/users/j/a/jabreu/flow_simple_10atoms/flow/w491/t1/run.abo
- root for input  files -> /scratch/users/j/a/jabreu/flow_simple_10atoms/flow/w491/t1/indata/in
- root for output files -> /scratch/users/j/a/jabreu/flow_simple_10atoms/flow/w491/t1/outdata/out

 Symmetries : space group P2_1/m (# 11); Bravais mP (primitive monocl.)
     intxc =       0      iscf =       7    lmnmax =      18     lnmax =       6
     mgfft =      80  mpssoang =       3    mqgrid =    3723     natom =      10
  nloc_mem =       1    nspden =       1   nspinor =       1    nsppol =       1
      nsym =       4    n1xccc =    2501    ntypat =       4    occopt =       1
   xclevel =       2
-    mband =          43        mffmem =           1         mkmem =           2
-   mkqmem =           2        mk1mem =           2           mpw =       16290
      nfft =      311040          nkpt =           2
  Rough estimation (10% accuracy) of disk space for files :

------------- Echo of variables that govern the present computation ------------
-
- outvars: echo of selected default values
-   iomode0 =  0 , fftalg0 =512 , wfoptalg0 =  0
-
- outvars: echo of global parameters not present in the input file
-  max_nthreads =    0
-
 -outvars: echo values of preprocessed input variables --------
            acell      1.0000000000E+00  1.0000000000E+00  1.0000000000E+00 Bohr
              amu      3.90983000E+01  3.20660000E+01  1.59994000E+01
                       1.89984032E+01
             ecut      4.40000000E+01 Hartree
-          fftalg         512
           irdden           1
           irdwfk           1
           istwfk        0    1
              ixc     -116133
              kpt      2.64705882E-01  5.00000000E-01  5.00000000E-01
                       0.00000000E+00  5.00000000E-01  0.00000000E+00
           kptopt           0
P           mkmem           2
P          mkqmem           2
P          mk1mem           2
            natom          10
            nband          43
           nbdbuf           4
            ngfft          72      54      80
             nkpt           2
            nstep        2000
             nsym           4
           ntypat           4
              occ      2.000000  2.000000  2.000000  2.000000  2.000000  2.000000
                       2.000000  2.000000  2.000000  2.000000  2.000000  2.000000
                       2.000000  2.000000  2.000000  2.000000  2.000000  2.000000
                       2.000000  2.000000  2.000000  2.000000  2.000000  2.000000
                       2.000000  2.000000  2.000000  2.000000  2.000000  2.000000
                       2.000000  2.000000  2.000000  2.000000  0.000000  0.000000
                       0.000000  0.000000  0.000000  0.000000  0.000000  0.000000
                       0.000000
        optdriver           1
            prtwf          -1
            rfdir           1       1       1
           rfelfd           2
            rprim      1.0825619872E+01  0.0000000000E+00  0.0000000000E+00
                       0.0000000000E+00  8.2579530727E+00  2.5750318138E+00
                       0.0000000000E+00  0.0000000000E+00  1.3059730252E+01
          spgroup          11
           symrel      1  0  0   0  1  0   0  0  1      -1  0  0   0 -1  0   0  0 -1
                       1  0  0   0 -1  0   0  0 -1      -1  0  0   0  1  0   0  0  1
            tnons      0.0000000  0.0000000  0.0000000     0.0000000  0.0000000 -0.0000000
                       0.5000000  0.0000000 -0.0000000     0.5000000  0.0000000  0.0000000
           tolwfr      1.00000000E-20
            typat      1  1  2  2  3  3  3  3  4  4
           useylm           1
              wtk        0.50000    0.50000
           xangst      1.4321678262E+00  1.4850213626E+00  5.9401707648E+00
                       4.2965034787E+00  2.8848991931E+00  2.3333889823E+00
                       1.4321678262E+00  4.4039622368E-01  2.3641740751E+00
                       4.2965034787E+00  3.9295243320E+00  5.9093856719E+00
                       2.6491610296E+00  7.2744756514E-01  1.5777049286E+00
                       5.5134966821E+00  3.6424729905E+00  6.6958548184E+00
                       3.0795102754E+00  3.6424729905E+00  6.6958548184E+00
                       2.1517462289E-01  7.2744756514E-01  1.5777049286E+00
                       4.2965034787E+00  1.3442880711E+00  4.6739744793E+00
                       1.4321678262E+00  3.0256324846E+00  3.5995852678E+00
            xcart      2.7064049679E+00  2.8062836768E+00  1.1225295928E+01
                       8.1192149038E+00  5.4516693959E+00  4.4094661380E+00
                       2.7064049679E+00  8.3222825271E-01  4.4676415325E+00
                       8.1192149038E+00  7.4257248200E+00  1.1167120534E+01
                       5.0061888278E+00  1.3746766742E+00  2.9814302336E+00
                       1.0418998764E+01  6.8832763985E+00  1.2653331832E+01
                       5.8194310439E+00  6.8832763985E+00  1.2653331832E+01
                       4.0662110800E-01  1.3746766742E+00  2.9814302336E+00
                       8.1192149038E+00  2.5403362981E+00  8.8325317179E+00
                       2.7064049679E+00  5.7176167746E+00  6.8022303481E+00
             xred      2.5000000000E-01  3.3982800000E-01  7.9253000000E-01
                       7.5000000000E-01  6.6017200000E-01  2.0747000000E-01
                       2.5000000000E-01  1.0077900000E-01  3.2222200000E-01
                       7.5000000000E-01  8.9922100000E-01  6.7777800000E-01
                       4.6243900000E-01  1.6646700000E-01  1.9546900000E-01
                       9.6243900000E-01  8.3353300000E-01  8.0453100000E-01
                       5.3756100000E-01  8.3353300000E-01  8.0453100000E-01
                       3.7561000000E-02  1.6646700000E-01  1.9546900000E-01
                       7.5000000000E-01  3.0762300000E-01  6.1566300000E-01
                       2.5000000000E-01  6.9237700000E-01  3.8433700000E-01
            znucl       19.00000   16.00000    8.00000    9.00000

 chkinp: Checking input parameters for consistency.

== DATASET  1 ==================================================================
-   mpi_nproc: 1, omp_nthreads: -1 (-1 if OMP is not activated)

--- !DatasetInfo
iteration_state: {dtset: 1, }
dimensions: {natom: 10, nkpt: 2, mband: 43, nsppol: 1, nspinor: 1, nspden: 1, mpw: 16290, }
cutoff_energies: {ecut:  44.0, pawecutdg:  -1.0, }
electrons: {nelect:   6.80000000E+01, charge:   0.00000000E+00, occopt:   1.00000000E+00, tsmear:   1.00000000E-02, }
meta: {optdriver: 1, rfelfd: 2, }
...

 Real(R)+Recip(G) space primitive vectors, cartesian coordinates (Bohr,Bohr^-1):
 R(1)= 10.8256199  0.0000000  0.0000000  G(1)=  0.0923735  0.0000000  0.0000000
 R(2)=  0.0000000  8.2579531  2.5750318  G(2)=  0.0000000  0.1210954  0.0000000
 R(3)=  0.0000000  0.0000000 13.0597303  G(3)=  0.0000000 -0.0238768  0.0765713
 Unit cell volume ucvol=  1.1675067E+03 bohr^3
 Angles (23,13,12)=  7.26812438E+01  9.00000000E+01  9.00000000E+01 degrees

 getcut: wavevector=  0.0000  0.0000  0.0000  ngfft=  72  54  80
         ecut(hartree)=     44.000   => boxcut(ratio)=   2.05149

--- Pseudopotential description ------------------------------------------------
- pspini: atom type   1  psp file is /scratch/users/j/a/jabreu/pseudos/PBEsol/K.psp8
- pspatm: opening atomic psp file    /scratch/users/j/a/jabreu/pseudos/PBEsol/K.psp8
- K     ONCVPSP-3.3.0  r_core=   1.36296   1.46408   1.61068
- 19.00000   9.00000    180112                znucl, zion, pspdat
    8 -116133    2    4       400   0.00000   pspcod,pspxc,lmax,lloc,mmax,r2well
    3.99000000000000    5.00000000000000    0.00000000000000   rchrg,fchrg,qchrg
     nproj     2     2     2
     extension_switch     1
  pspatm : epsatm=    8.32487830
         --- l  ekb(1:nproj) -->
             0   10.921326    0.816676
             1    4.431000    0.560368
             2   -3.384038   -1.043186
 pspatm: atomic psp has been read  and splines computed

- pspini: atom type   2  psp file is /scratch/users/j/a/jabreu/pseudos/PBEsol/S.psp8
- pspatm: opening atomic psp file    /scratch/users/j/a/jabreu/pseudos/PBEsol/S.psp8
- S     ONCVPSP-3.3.0  r_core=   1.45376   1.45376   1.61851
- 16.00000   6.00000    180112                znucl, zion, pspdat
    8 -116133    2    4       600   0.00000   pspcod,pspxc,lmax,lloc,mmax,r2well
    5.99000000000000    6.00000000000000    0.00000000000000   rchrg,fchrg,qchrg
     nproj     2     2     2
     extension_switch     1
  pspatm : epsatm=    8.71840985
         --- l  ekb(1:nproj) -->
             0    6.834532    0.579453
             1    3.282851    0.896984
             2   -3.496974   -0.974265
 pspatm: atomic psp has been read  and splines computed

[...]

- pspini: atom type   4  psp file is /scratch/users/j/a/jabreu/pseudos/PBEsol/F.psp8
- pspatm: opening atomic psp file    /scratch/users/j/a/jabreu/pseudos/PBEsol/F.psp8
- F     ONCVPSP-3.3.0  r_core=   1.30942   1.45782   1.60379
-  9.00000   7.00000    180112                znucl, zion, pspdat
    8 -116133    2    4       600   0.00000   pspcod,pspxc,lmax,lloc,mmax,r2well
    5.99000000000000    2.50000000000000    0.00000000000000   rchrg,fchrg,qchrg
     nproj     2     2     1
     extension_switch     1
  pspatm : epsatm=    4.89824824
         --- l  ekb(1:nproj) -->
             0    6.506434    1.065875
             1   -3.978753   -1.295852
             2   -2.394754
 pspatm: atomic psp has been read  and splines computed

   4.67836557E+03                                ecore*ucvol(ha*bohr**3)

 ==>  initialize data related to q vector <==

 The list of irreducible perturbations for this q vector is:
    1)    idir= 1    ipert=  11
    2)    idir= 2    ipert=  11
    3)    idir= 3    ipert=  11

 Perturbation wavevector (in red.coord.)   0.000000  0.000000  0.000000
 Perturbation : derivative vs k along direction   1

 dfpt_looppert : COMMENT -
  In a d/dk calculation, iscf is set to -3 automatically.
 The set of symmetries contains only one element for this perturbation.
 symkpt : not enough symmetry to change the number of k points.

 Initialisation of the first-order wave-functions :
  ireadwf=   0

--- !BeginCycle
iteration_state: {dtset: 1, }
solver: {iscf: 7, nstep: 2000, nline: 4, wfoptalg: 0, }
tolerances: {tolwfr: 1.00E-20, }
...

     iter   2DEtotal(Ha)        deltaE(Ha) residm    vres2
-ETOT  1  -22.675206364965     -2.268E+01 4.916E-02 0.000E+00
 ETOT  2  -22.716348112656     -4.114E-02 6.735E-03 0.000E+00
 ETOT  3  -22.716702304984     -3.542E-04 4.451E-04 0.000E+00
 ETOT  4  -22.716706747195     -4.442E-06 1.068E-04 0.000E+00
 ETOT  5  -22.716706813443     -6.625E-08 1.103E-05 0.000E+00
 ETOT  6  -22.716706814515     -1.072E-09 2.727E-06 0.000E+00
[...]
 ETOT 14  -22.716706814534     -3.553E-15 1.355E-12 0.000E+00
 ETOT 15  -22.716706814534      3.553E-15 1.109E-13 0.000E+00
 ETOT 16  -22.716706814534     -3.553E-15 3.703E-14 0.000E+00
 ETOT 17  -22.716706814534      0.000E+00 3.018E-15 0.000E+00
 ETOT 18  -22.716706814534     -7.105E-15 1.016E-15 0.000E+00
 ETOT 19  -22.716706814534      1.421E-14 8.260E-17 0.000E+00
 ETOT 20  -22.716706814534     -3.553E-15 2.794E-17 0.000E+00
 ETOT 21  -22.716706814534      0.000E+00 2.269E-18 0.000E+00
 ETOT 22  -22.716706814534     -3.553E-15 7.702E-19 0.000E+00
 ETOT 23  -22.716706814534      0.000E+00 6.250E-20 0.000E+00
 ETOT 24  -22.716706814534      0.000E+00 2.128E-20 0.000E+00
 ETOT 25  -22.716706814534      3.553E-15 9.866E-21 0.000E+00

 At SCF step   25   max residual=  9.87E-21 < tolwfr=  1.00E-20 =>converged.

 ----iterations are completed or convergence reached----

 dfpt_looppert: DFPT cycle converged with prtwf=-1. Will skip output of the 1st-order WFK file.
 dfpt_looppert : ek2=    4.5813460628E+01
          f-sum rule ratio=    1.0134024463E+00
 prteigrs : about to open file /scratch/users/j/a/jabreu/flow_simple_10atoms/flow/w491/t1/tmpdata/tmp_1WF1_EIG
 Expectation of eigenvalue derivatives (hartree) for nkpt=   2  k points:
  (in case of degenerate eigenvalues, averaged derivative)
 kpt#   1, nband= 43, wtk=  0.50000, kpt=  0.2647  0.5000  0.5000 (reduced coord)
   0.00019   -0.00009    0.00055   -0.00040    0.00160    0.00094   -0.00302   -0.00496
   0.01266    0.01091    0.00267    0.00157    0.00171    0.00108   -0.00407   -0.01154
   0.00891    0.00417    0.02744   -0.00972   -0.01814   -0.01010   -0.00120   -0.02558
   0.01541    0.00898    0.00398    0.00004   -0.01563   -0.01827   -0.01750   -0.03285
   0.02765   -0.00036    0.00722    0.00122    0.04699   -0.04073    0.00346    0.07084
   0.00932    0.07694   -0.01587
 prteigrs : prtvol=0 or 1, do not print more k-points.

 Eight components of 2nd-order total energy (hartree) are
 1,2,3: 0th-order hamiltonian combined with 1st-order wavefunctions
     kin0=   3.20531010E+01 eigvalue=   2.80587827E+00  local=  -1.61097369E+01
 4,5,6: 1st-order hamiltonian combined with 1st and 0th-order wfs
     kin1=  -4.64274731E+01  Hartree=   0.00000000E+00     xc=   0.00000000E+00
 7,8,9: eventually, occupation + non-local contributions
    edocc=   4.52690549E+00     enl0=  -5.59441019E-01   enl1=   9.94059446E-01
 1-9 gives the relaxation energy (to be shifted if some occ is /=2.0)
   erelax=  -2.27167068E+01
  No Ewald or frozen-wf contrib.: the relaxation energy is the total one
 2DEtotal=   -0.2271670681E+02 Ha. Also 2DEtotal=   -0.618153029165E+03 eV
    (  non-var. 2DEtotal :   -2.2716706814E+01 Ha)

 Perturbation wavevector (in red.coord.)   0.000000  0.000000  0.000000
 Perturbation : derivative vs k along direction   2
 The set of symmetries contains only one element for this perturbation.
 symkpt : not enough symmetry to change the number of k points.

[...]

 Perturbation wavevector (in red.coord.)   0.000000  0.000000  0.000000
 Perturbation : derivative vs k along direction   3
 The set of symmetries contains only one element for this perturbation.
 symkpt : not enough symmetry to change the number of k points.

 Initialisation of the first-order wave-functions :
  ireadwf=   0

--- !BeginCycle
iteration_state: {dtset: 1, }
solver: {iscf: 7, nstep: 2000, nline: 4, wfoptalg: 0, }
tolerances: {tolwfr: 1.00E-20, }
...

     iter   2DEtotal(Ha)        deltaE(Ha) residm    vres2
-ETOT  1  -16.928744388147     -1.693E+01 4.413E-02 0.000E+00
 ETOT  2  -16.959684218812     -3.094E-02 3.613E-03 0.000E+00
 ETOT  3  -16.959929404116     -2.452E-04 1.113E-03 0.000E+00
 ETOT  4  -16.959932700560     -3.296E-06 8.785E-05 0.000E+00
 ETOT  5  -16.959932759066     -5.851E-08 3.718E-05 0.000E+00
 ETOT  6  -16.959932760276     -1.209E-09 3.060E-06 0.000E+00
 ETOT  7  -16.959932760303     -2.740E-11 1.341E-06 0.000E+00
 ETOT  8  -16.959932760304     -6.573E-13 1.168E-07 0.000E+00
 ETOT  9  -16.959932760304     -1.066E-14 5.072E-08 0.000E+00
 ETOT 10  -16.959932760304      1.776E-14 4.656E-09 0.000E+00
 ETOT 11  -16.959932760304     -2.132E-14 1.973E-09 0.000E+00
 ETOT 12  -16.959932760304      7.105E-15 1.896E-10 0.000E+00
 ETOT 13  -16.959932760304      0.000E+00 7.831E-11 0.000E+00
 ETOT 14  -16.959932760304      0.000E+00 7.826E-12 0.000E+00
 ETOT 15  -16.959932760304      0.000E+00 3.163E-12 0.000E+00
 ETOT 16  -16.959932760304      0.000E+00 3.266E-13 0.000E+00
 ETOT 17  -16.959932760304     -3.553E-15 1.298E-13 0.000E+00
 ETOT 18  -16.959932760304      3.553E-15 1.377E-14 0.000E+00
 ETOT 19  -16.959932760304      0.000E+00 5.397E-15 0.000E+00
 ETOT 20  -16.959932760304      0.000E+00 6.140E-16 0.000E+00
 ETOT 21  -16.959932760304      0.000E+00 2.270E-16 0.000E+00
 ETOT 22  -16.959932760304     -3.553E-15 3.113E-17 0.000E+00
 ETOT 23  -16.959932760304      7.105E-15 9.625E-18 0.000E+00
 ETOT 24  -16.959932760304      0.000E+00 1.590E-18 0.000E+00
 ETOT 25  -16.959932760304     -1.421E-14 4.108E-19 0.000E+00
 ETOT 26  -16.959932760304      7.105E-15 8.162E-20 0.000E+00
 ETOT 27  -16.959932760304      7.105E-15 1.762E-20 0.000E+00
 ETOT 28  -16.959932760304     -7.105E-15 9.992E-21 0.000E+00

 At SCF step   28   max residual=  9.99E-21 < tolwfr=  1.00E-20 =>converged.

 ----iterations are completed or convergence reached----

 dfpt_looppert: DFPT cycle converged with prtwf=-1. Will skip output of the 1st-order WFK file.
 dfpt_looppert : ek2=    3.4540584736E+01
          f-sum rule ratio=    1.0005802740E+00
 prteigrs : about to open file /scratch/users/j/a/jabreu/flow_simple_10atoms/flow/w491/t1/tmpdata/tmp_1WF1_EIG
 Expectation of eigenvalue derivatives (hartree) for nkpt=   2  k points:
  (in case of degenerate eigenvalues, averaged derivative)
 kpt#   1, nband= 43, wtk=  0.50000, kpt=  0.2647  0.5000  0.5000 (reduced coord)
  -0.00000    0.00000    0.00000   -0.00000    0.00000    0.00000    0.00000   -0.00000
  -0.00000   -0.00000   -0.00000   -0.00000   -0.00000    0.00000    0.00000    0.00000
  -0.00000    0.00000   -0.00000   -0.00000   -0.00000    0.00000   -0.00000    0.00000
  -0.00000   -0.00000    0.00000   -0.00000    0.00000    0.00000   -0.00000   -0.00000
   0.00000   -0.00000   -0.00000    0.00000   -0.00000   -0.00000    0.00000    0.00000
   0.00000   -0.00000   -0.00000
 prteigrs : prtvol=0 or 1, do not print more k-points.

 Eight components of 2nd-order total energy (hartree) are
 1,2,3: 0th-order hamiltonian combined with 1st-order wavefunctions
     kin0=   2.42803505E+01 eigvalue=   2.06086196E+00  local=  -1.17713087E+01
 4,5,6: 1st-order hamiltonian combined with 1st and 0th-order wfs
     kin1=  -3.45606277E+01  Hartree=   0.00000000E+00     xc=   0.00000000E+00
 7,8,9: eventually, occupation + non-local contributions
    edocc=   2.76303309E+00     enl0=  -3.73004122E-01   enl1=   6.40762221E-01
 1-9 gives the relaxation energy (to be shifted if some occ is /=2.0)
   erelax=  -1.69599328E+01
  No Ewald or frozen-wf contrib.: the relaxation energy is the total one
 2DEtotal=   -0.1695993276E+02 Ha. Also 2DEtotal=   -0.461503240580E+03 eV
    (  non-var. 2DEtotal :   -1.6959932760E+01 Ha)

 CALCULATION OF EFFECTIVE MASSES
 NOTE : Additional infos (eff. mass eigenvalues, eigenvectors and, if degenerate, average mass) are available in stdout.

 K-point ( 0.265, 0.500, 0.500) | band =    34
 Effective mass tensor:
             -7.7652985818             -0.0000028512              0.0000029712
             -0.0000028512             -2.6471272271              2.0253145615
              0.0000029712              2.0253145615             -5.4653976284
 Effective mass tensor eigenvalues:
             -7.7652985819             -6.5235607653             -1.5889640901
 Angular average effective mass 1/(<1/m>)=  -3.2916052568
 Angular average effective mass for Frohlich model (<m**0.5>)**2=  -3.9018909343
 Effective masses along directions: (cart. coord. / red. coord. -> eff. mass)
    1:   1.000000  0.000000  0.000000 /   1.000000  0.000000  0.000000 ->  -7.7652985818
    2:   0.000000  1.000000  0.000000 /   0.000000  1.000000  0.000000 ->  -1.8966056088
    3:   0.000000  0.000000  1.000000 /   0.000000  0.193449  0.981110 ->  -3.9158313547
    4:   0.577350  0.577350  0.577350 /   0.537860  0.538226  0.648860 ->  -2.3038264046
    5:   0.000000  0.707107  0.707107 /   0.000000  0.638439  0.769672 ->  -1.7044434058
    6:   0.707107  0.000000  0.707107 /   0.630954  0.150082  0.761165 ->  -5.2062763995
    7:   0.707107  0.707107  0.000000 /   0.795082  0.606501  0.000000 ->  -3.0486152396

--- !WARNING
src_file: m_efmas.F90
src_line: 0
message: |

    Band(s)    35,
    are not band extrema, but saddle points;
    the transport equivalent formalism breaks down in these conditions.
    The associated tensor(s) will therefore not be printed.
...

 K-point ( 0.000, 0.500, 0.000) | band =    35
 Effective mass tensor:
     *** SADDLE POINT: TRANSPORT EQV. EFF. MASS NOT DEFINED (see WARNING above) ***
 Angular average effective mass 1/(<1/m>)=   1.4876891704
 Angular average effective mass for Frohlich model (<m**0.5>)**2=   3.8792090808
 Effective masses along directions: (cart. coord. / red. coord. -> eff. mass)
    1:   1.000000  0.000000  0.000000 /   1.000000  0.000000  0.000000 ->   4.7053777779
    2:   0.000000  1.000000  0.000000 /   0.000000  1.000000  0.000000 ->   0.5828319725
    3:   0.000000  0.000000  1.000000 /   0.000000  0.193449  0.981110 ->  11.3292475662
    4:   0.577350  0.577350  0.577350 /   0.537860  0.538226  0.648860 ->   1.0638304084
    5:   0.000000  0.707107  0.707107 /   0.000000  0.638439  0.769672 ->   0.7670244755
    6:   0.707107  0.000000  0.707107 /   0.630954  0.150082  0.761165 ->   6.6491749420
    7:   0.707107  0.707107  0.000000 /   0.795082  0.606501  0.000000 ->   1.0371933904

 END OF EFFECTIVE MASSES SECTION

 ---- first-order wavefunction calculations are completed ----

 Total localisation tensor (bohr^2) in cartesian coordinates
  WARNING : still subject to testing - especially symmetries.
      direction              matrix element
   alpha     beta       real part   imaginary part
     1        1       0.6479860913    0.0000000000
     1        2       0.0000000000    0.0000000000
     1        3       0.0000000000    0.0000000000
     2        1       0.0000000000    0.0000000000
     2        2       0.7156715995    0.0000000000
     2        3       0.2231639149    0.0000000000
     3        1       0.0000000000    0.0000000000
     3        2       0.2231639149    0.0000000000
     3        3       0.6919968624    0.0000000000

 respfn : d/dk was computed, but no 2DTE, so no DDB output.

== END DATASET(S) ==============================================================

 -outvars: echo values of variables after computation  --------
            acell      1.0000000000E+00  1.0000000000E+00  1.0000000000E+00 Bohr
              amu      3.90983000E+01  3.20660000E+01  1.59994000E+01
                       1.89984032E+01
             ecut      4.40000000E+01 Hartree
           etotal     -1.6959932760E+01
            fcart      0.0000000000E+00  0.0000000000E+00  0.0000000000E+00
                       0.0000000000E+00  0.0000000000E+00  0.0000000000E+00
                       0.0000000000E+00  0.0000000000E+00  0.0000000000E+00
                       0.0000000000E+00  0.0000000000E+00  0.0000000000E+00
                       0.0000000000E+00  0.0000000000E+00  0.0000000000E+00
                       0.0000000000E+00  0.0000000000E+00  0.0000000000E+00
                       0.0000000000E+00  0.0000000000E+00  0.0000000000E+00
                       0.0000000000E+00  0.0000000000E+00  0.0000000000E+00
                       0.0000000000E+00  0.0000000000E+00  0.0000000000E+00
                       0.0000000000E+00  0.0000000000E+00  0.0000000000E+00
-          fftalg         512
           irdden           1
           irdwfk           1
           istwfk        0    1
              ixc     -116133
              kpt      2.64705882E-01  5.00000000E-01  5.00000000E-01
                       0.00000000E+00  5.00000000E-01  0.00000000E+00
           kptopt           0
P           mkmem           2
P          mkqmem           2
P          mk1mem           2
            natom          10
            nband          43
           nbdbuf           4
            ngfft          72      54      80
             nkpt           2
            nstep        2000
             nsym           4
           ntypat           4
              occ      2.000000  2.000000  2.000000  2.000000  2.000000  2.000000
                       2.000000  2.000000  2.000000  2.000000  2.000000  2.000000
                       2.000000  2.000000  2.000000  2.000000  2.000000  2.000000
                       2.000000  2.000000  2.000000  2.000000  2.000000  2.000000
                       2.000000  2.000000  2.000000  2.000000  2.000000  2.000000
                       2.000000  2.000000  2.000000  2.000000  0.000000  0.000000
                       0.000000  0.000000  0.000000  0.000000  0.000000  0.000000
                       0.000000
        optdriver           1
            prtwf          -1
            rfdir           1       1       1
           rfelfd           2
            rprim      1.0825619872E+01  0.0000000000E+00  0.0000000000E+00
                       0.0000000000E+00  8.2579530727E+00  2.5750318138E+00
                       0.0000000000E+00  0.0000000000E+00  1.3059730252E+01
          spgroup          11
           strten      0.0000000000E+00  0.0000000000E+00  0.0000000000E+00
                       0.0000000000E+00  0.0000000000E+00  0.0000000000E+00
           symrel      1  0  0   0  1  0   0  0  1      -1  0  0   0 -1  0   0  0 -1
                       1  0  0   0 -1  0   0  0 -1      -1  0  0   0  1  0   0  0  1
            tnons      0.0000000  0.0000000  0.0000000     0.0000000  0.0000000 -0.0000000
                       0.5000000  0.0000000 -0.0000000     0.5000000  0.0000000  0.0000000
           tolwfr      1.00000000E-20
            typat      1  1  2  2  3  3  3  3  4  4
           useylm           1
              wtk        0.50000    0.50000
           xangst      1.4321678262E+00  1.4850213626E+00  5.9401707648E+00
                       4.2965034787E+00  2.8848991931E+00  2.3333889823E+00
                       1.4321678262E+00  4.4039622368E-01  2.3641740751E+00
                       4.2965034787E+00  3.9295243320E+00  5.9093856719E+00
                       2.6491610296E+00  7.2744756514E-01  1.5777049286E+00
                       5.5134966821E+00  3.6424729905E+00  6.6958548184E+00
                       3.0795102754E+00  3.6424729905E+00  6.6958548184E+00
                       2.1517462289E-01  7.2744756514E-01  1.5777049286E+00
                       4.2965034787E+00  1.3442880711E+00  4.6739744793E+00
                       1.4321678262E+00  3.0256324846E+00  3.5995852678E+00
            xcart      2.7064049679E+00  2.8062836768E+00  1.1225295928E+01
                       8.1192149038E+00  5.4516693959E+00  4.4094661380E+00
                       2.7064049679E+00  8.3222825271E-01  4.4676415325E+00
                       8.1192149038E+00  7.4257248200E+00  1.1167120534E+01
                       5.0061888278E+00  1.3746766742E+00  2.9814302336E+00
                       1.0418998764E+01  6.8832763985E+00  1.2653331832E+01
                       5.8194310439E+00  6.8832763985E+00  1.2653331832E+01
                       4.0662110800E-01  1.3746766742E+00  2.9814302336E+00
                       8.1192149038E+00  2.5403362981E+00  8.8325317179E+00
                       2.7064049679E+00  5.7176167746E+00  6.8022303481E+00
             xred      2.5000000000E-01  3.3982800000E-01  7.9253000000E-01
                       7.5000000000E-01  6.6017200000E-01  2.0747000000E-01
                       2.5000000000E-01  1.0077900000E-01  3.2222200000E-01
                       7.5000000000E-01  8.9922100000E-01  6.7777800000E-01
                       4.6243900000E-01  1.6646700000E-01  1.9546900000E-01
                       9.6243900000E-01  8.3353300000E-01  8.0453100000E-01
                       5.3756100000E-01  8.3353300000E-01  8.0453100000E-01
                       3.7561000000E-02  1.6646700000E-01  1.9546900000E-01
                       7.5000000000E-01  3.0762300000E-01  6.1566300000E-01
                       2.5000000000E-01  6.9237700000E-01  3.8433700000E-01
            znucl       19.00000   16.00000    8.00000    9.00000

- Timing analysis has been suppressed with timopt=0

 Suggested references for the acknowledgment of ABINIT usage.

 Calculation completed.
.Delivered   3 WARNINGs and   5 COMMENTs to log file.