.Version 9.5.1 of ABINIT

 ABINIT is a project of the Universite Catholique de Louvain,
 Corning Inc. and other collaborators, see ~abinit/doc/developers/contributors.txt .
 acknowledgments of the ABINIT effort.

.Starting date : Tue 27 Apr 2021.
- ( at 18h26 )

- input  file    -> /scratch/users/j/a/jabreu/flow_simple_4atoms/flow/w156/t1/run.abi
- output file    -> /scratch/users/j/a/jabreu/flow_simple_4atoms/flow/w156/t1/run.abo
- root for input  files -> /scratch/users/j/a/jabreu/flow_simple_4atoms/flow/w156/t1/indata/in
- root for output files -> /scratch/users/j/a/jabreu/flow_simple_4atoms/flow/w156/t1/outdata/out

 Symmetries : space group R-3 m (#166); Bravais hR (rhombohedral)
     intxc =       0      iscf =       7    lmnmax =      18     lnmax =       6
     mgfft =      72  mpssoang =       3    mqgrid =    3001     natom =       4
  nloc_mem =       1    nspden =       1   nspinor =       1    nsppol =       1
      nsym =      12    n1xccc =    2501    ntypat =       3    occopt =       1
   xclevel =       2
-    mband =          30        mffmem =           1         mkmem =           2
-   mkqmem =           2        mk1mem =           2           mpw =        6058
      nfft =      373248          nkpt =           2
  Rough estimation (10% accuracy) of disk space for files :

------------- Echo of variables that govern the present computation ------------
-
- outvars: echo of selected default values
-   iomode0 =  0 , fftalg0 =512 , wfoptalg0 =  0
-
- outvars: echo of global parameters not present in the input file
-  max_nthreads =    0
-
 -outvars: echo values of preprocessed input variables --------
            acell      1.0000000000E+00  1.0000000000E+00  1.0000000000E+00 Bohr
              amu      8.89058500E+01  6.35460000E+01  1.59994000E+01
             ecut      4.60000000E+01 Hartree
-          fftalg         512
           irdden           1
           irdwfk           1
           istwfk        1    1
              ixc     -116133
              kpt      5.00000000E-01  5.00000000E-01  5.00000000E-01
                       5.00000000E-01  0.00000000E+00  0.00000000E+00
           kptopt           0
P           mkmem           2
P          mkqmem           2
P          mk1mem           2
            natom           4
            nband          30
           nbdbuf           4
            ngfft          72      72      72
             nkpt           2
            nstep         100
             nsym          12
           ntypat           3
              occ      2.000000  2.000000  2.000000  2.000000  2.000000  2.000000
                       2.000000  2.000000  2.000000  2.000000  2.000000  2.000000
                       2.000000  2.000000  2.000000  2.000000  2.000000  2.000000
                       2.000000  2.000000  2.000000  0.000000  0.000000  0.000000
                       0.000000  0.000000  0.000000  0.000000  0.000000  0.000000
        optdriver           1
            prtwf          -1
            rfdir           1       1       1
           rfelfd           2
            rprim      6.3469581040E+00  0.0000000000E+00  9.3524760552E+00
                       2.8738347579E+00  5.6590591937E+00  9.3524760552E+00
                       0.0000000000E+00  0.0000000000E+00  1.1302773356E+01
          spgroup         166
           symrel      1  0  0   0  1  0   0  0  1      -1  0  0   0 -1  0   0  0 -1
                       0  1  0   1  0  0   0  0  1       0 -1  0  -1  0  0   0  0 -1
                       0  0  1   1  0  0   0  1  0       0  0 -1  -1  0  0   0 -1  0
                       1  0  0   0  0  1   0  1  0      -1  0  0   0  0 -1   0 -1  0
                       0  1  0   0  0  1   1  0  0       0 -1  0   0  0 -1  -1  0  0
                       0  0  1   0  1  0   1  0  0       0  0 -1   0 -1  0  -1  0  0
           tolwfr      1.00000000E-20
            typat      1  2  3  3
           useylm           1
              wtk        0.50000    0.50000
           xangst      2.4397167138E+00  1.4973225737E+00  7.9397021992E+00
                       0.0000000000E+00  0.0000000000E+00  0.0000000000E+00
                       5.2037205732E-01  3.1936692639E-01  1.6934749615E+00
                       4.3590613703E+00  2.6752782210E+00  1.4185929437E+01
            xcart      4.6103964309E+00  2.8295295969E+00  1.5003862733E+01
                       0.0000000000E+00  0.0000000000E+00  0.0000000000E+00
                       9.8336067555E-01  6.0351602677E-01  3.2002038901E+00
                       8.2374321863E+00  5.0555431669E+00  2.6807521576E+01
             xred      5.0000000000E-01  5.0000000000E-01  5.0000000000E-01
                       0.0000000000E+00  0.0000000000E+00  0.0000000000E+00
                       1.0664600000E-01  1.0664600000E-01  1.0664600000E-01
                       8.9335400000E-01  8.9335400000E-01  8.9335400000E-01
            znucl       39.00000   29.00000    8.00000

 chkinp: Checking input parameters for consistency.

== DATASET  1 ==================================================================
-   mpi_nproc: 1, omp_nthreads: -1 (-1 if OMP is not activated)

--- !DatasetInfo
iteration_state: {dtset: 1, }
dimensions: {natom: 4, nkpt: 2, mband: 30, nsppol: 1, nspinor: 1, nspden: 1, mpw: 6058, }
cutoff_energies: {ecut:  46.0, pawecutdg:  -1.0, }
electrons: {nelect:   4.20000000E+01, charge:   0.00000000E+00, occopt:   1.00000000E+00, tsmear:   1.00000000E-02, }
meta: {optdriver: 1, rfelfd: 2, }
...

 Real(R)+Recip(G) space primitive vectors, cartesian coordinates (Bohr,Bohr^-1):
 R(1)=  6.3469581  0.0000000  9.3524761  G(1)=  0.1575558 -0.0800114  0.0000000
 R(2)=  2.8738348  5.6590592  9.3524761  G(2)=  0.0000000  0.1767078  0.0000000
 R(3)=  0.0000000  0.0000000 11.3027734  G(3)= -0.1303695 -0.0800114  0.0884739
 Unit cell volume ucvol=  4.0597088E+02 bohr^3
 Angles (23,13,12)=  3.41623584E+01  3.41623584E+01  3.41623584E+01 degrees

 getcut: wavevector=  0.0000  0.0000  0.0000  ngfft=  72  72  72
         ecut(hartree)=     46.000   => boxcut(ratio)=   2.08659

--- Pseudopotential description ------------------------------------------------
- pspini: atom type   1  psp file is /scratch/users/j/a/jabreu/pseudos/PBEsol/Y.psp8
- pspatm: opening atomic psp file    /scratch/users/j/a/jabreu/pseudos/PBEsol/Y.psp8
- Y     ONCVPSP-3.3.0  r_core=   1.60520   1.51226   1.56736
- 39.00000  11.00000    180112                znucl, zion, pspdat
    8 -116133    2    4       600   0.00000   pspcod,pspxc,lmax,lloc,mmax,r2well
    5.99000000000000    4.00000000000000    0.00000000000000   rchrg,fchrg,qchrg
     nproj     2     2     2
     extension_switch     1
  pspatm : epsatm=   18.54790046
         --- l  ekb(1:nproj) -->
             0   10.130768    0.866504
             1    5.598307    0.427135
             2    1.217602    0.315447
 pspatm: atomic psp has been read  and splines computed

- pspini: atom type   2  psp file is /scratch/users/j/a/jabreu/pseudos/PBEsol/Cu.psp8
- pspatm: opening atomic psp file    /scratch/users/j/a/jabreu/pseudos/PBEsol/Cu.psp8
- Cu    ONCVPSP-3.3.0  r_core=   1.26204   1.45626   1.76249
- 29.00000  19.00000    180112                znucl, zion, pspdat
    8 -116133    2    4       600   0.00000   pspcod,pspxc,lmax,lloc,mmax,r2well
    5.99000000000000    3.50000000000000    0.00000000000000   rchrg,fchrg,qchrg
     nproj     2     2     2
     extension_switch     1
  pspatm : epsatm=   21.63488701
         --- l  ekb(1:nproj) -->
             0    5.008230   -0.401634
             1   -3.496700   -0.765945
             2   -6.895851   -2.521180
 pspatm: atomic psp has been read  and splines computed

- pspini: atom type   3  psp file is /scratch/users/j/a/jabreu/pseudos/PBEsol/O.psp8
- pspatm: opening atomic psp file    /scratch/users/j/a/jabreu/pseudos/PBEsol/O.psp8
- O     ONCVPSP-3.3.0  r_core=   1.35509   1.45563   1.26150
-  8.00000   6.00000    180112                znucl, zion, pspdat
    8 -116133    2    4       600   0.00000   pspcod,pspxc,lmax,lloc,mmax,r2well
    5.99000000000000    4.00000000000000    0.00000000000000   rchrg,fchrg,qchrg
     nproj     2     2     1
     extension_switch     1
  pspatm : epsatm=    6.22910522
         --- l  ekb(1:nproj) -->
             0    6.050032    0.820363
             1   -4.739617   -1.153841
             2   -1.335834
 pspatm: atomic psp has been read  and splines computed

   2.21092191E+03                                ecore*ucvol(ha*bohr**3)

-inwffil : will read wavefunctions from disk file /scratch/users/j/a/jabreu/flow_simple_4atoms/flow/w156/t1/indata/in_WFK

 ==>  initialize data related to q vector <==

 The list of irreducible perturbations for this q vector is:
    1)    idir= 1    ipert=   5
    2)    idir= 2    ipert=   5
    3)    idir= 3    ipert=   5

 Perturbation wavevector (in red.coord.)   0.000000  0.000000  0.000000
 Perturbation : derivative vs k along direction   1

 dfpt_looppert : COMMENT -
  In a d/dk calculation, iscf is set to -3 automatically.
 The set of symmetries contains only one element for this perturbation.
 symkpt : not enough symmetry to change the number of k points.

[...]

 Initialisation of the first-order wave-functions :
  ireadwf=   0

--- !BeginCycle
iteration_state: {dtset: 1, }
solver: {iscf: 7, nstep: 100, nline: 4, wfoptalg: 0, }
tolerances: {tolwfr: 1.00E-20, }
...

     iter   2DEtotal(Ha)        deltaE(Ha) residm    vres2
-ETOT  1  -58.986585402085     -5.899E+01 1.362E-01 0.000E+00
 ETOT  2  -59.060672926203     -7.409E-02 1.928E-03 0.000E+00
 ETOT  3  -59.061606620106     -9.337E-04 3.580E-05 0.000E+00
 ETOT  4  -59.061625922388     -1.930E-05 1.171E-06 0.000E+00
 ETOT  5  -59.061626401485     -4.791E-07 2.163E-08 0.000E+00
 ETOT  6  -59.061626414271     -1.279E-08 9.423E-10 0.000E+00
 ETOT  7  -59.061626414624     -3.531E-10 1.664E-11 0.000E+00
 ETOT  8  -59.061626414633     -9.884E-12 7.947E-13 0.000E+00
 ETOT  9  -59.061626414634     -1.990E-13 1.493E-14 0.000E+00
 ETOT 10  -59.061626414634     -5.684E-14 6.835E-16 0.000E+00
 ETOT 11  -59.061626414634     -7.105E-15 1.454E-17 0.000E+00
 ETOT 12  -59.061626414634     -7.105E-15 5.950E-19 0.000E+00
 ETOT 13  -59.061626414634     -2.132E-14 1.465E-20 0.000E+00
 ETOT 14  -59.061626414634      0.000E+00 9.818E-21 0.000E+00

 At SCF step   14   max residual=  9.82E-21 < tolwfr=  1.00E-20 =>converged.

 ----iterations are completed or convergence reached----

 dfpt_looppert: DFPT cycle converged with prtwf=-1. Will skip output of the 1st-order WFK file.
 dfpt_looppert : ek2=    1.0355010639E+02
          f-sum rule ratio=    1.0632005376E+00
 prteigrs : about to open file /scratch/users/j/a/jabreu/flow_simple_4atoms/flow/w156/t1/tmpdata/tmp_1WF1_EIG
 Expectation of eigenvalue derivatives (hartree) for nkpt=   2  k points:
  (in case of degenerate eigenvalues, averaged derivative)
 kpt#   1, nband= 30, wtk=  0.50000, kpt=  0.5000  0.5000  0.5000 (reduced coord)
   0.00000   -0.00000    0.00000    0.00000    0.00000   -0.00000   -0.00000   -0.00000
  -0.00000   -0.00000   -0.00000   -0.00000    0.00000    0.00000    0.00000    0.00000
  -0.00000    0.00000    0.00000   -0.00000   -0.00000   -0.00000    0.00000    0.00000
   0.00000   -0.00000   -0.00000   -0.00000    0.00000    0.00145
 prteigrs : prtvol=0 or 1, do not print more k-points.

 Eight components of 2nd-order total energy (hartree) are
 1,2,3: 0th-order hamiltonian combined with 1st-order wavefunctions
     kin0=   6.68659390E+01 eigvalue=  -2.23127480E-01  local=  -2.52639411E+01
 4,5,6: 1st-order hamiltonian combined with 1st and 0th-order wfs
     kin1=  -1.10094529E+02  Hartree=   0.00000000E+00     xc=   0.00000000E+00
 7,8,9: eventually, occupation + non-local contributions
    edocc=   1.87576061E+01     enl0=  -1.07485000E+00   enl1=  -8.02872405E+00
 1-9 gives the relaxation energy (to be shifted if some occ is /=2.0)
   erelax=  -5.90616264E+01
  No Ewald or frozen-wf contrib.: the relaxation energy is the total one
 2DEtotal=   -0.5906162641E+02 Ha. Also 2DEtotal=   -0.160714858776E+04 eV
    (  non-var. 2DEtotal :   -5.9061626414E+01 Ha)

 Perturbation wavevector (in red.coord.)   0.000000  0.000000  0.000000
 Perturbation : derivative vs k along direction   2
 The set of symmetries contains only one element for this perturbation.
 symkpt : not enough symmetry to change the number of k points.

[...]

 Perturbation wavevector (in red.coord.)   0.000000  0.000000  0.000000
 Perturbation : derivative vs k along direction   3
 The set of symmetries contains only one element for this perturbation.
 symkpt : not enough symmetry to change the number of k points.

-inwffil : will read wavefunctions from disk file /scratch/users/j/a/jabreu/flow_simple_4atoms/flow/w156/t1/indata/in_WFK

 Initialisation of the first-order wave-functions :
  ireadwf=   0

--- !BeginCycle
iteration_state: {dtset: 1, }
solver: {iscf: 7, nstep: 100, nline: 4, wfoptalg: 0, }
tolerances: {tolwfr: 1.00E-20, }
...

     iter   2DEtotal(Ha)        deltaE(Ha) residm    vres2
-ETOT  1  -56.321813955960     -5.632E+01 8.682E-02 0.000E+00
 ETOT  2  -56.393384826398     -7.157E-02 1.573E-03 0.000E+00
 ETOT  3  -56.394274324645     -8.895E-04 2.482E-05 0.000E+00
 ETOT  4  -56.394292434809     -1.811E-05 5.240E-07 0.000E+00
 ETOT  5  -56.394292885164     -4.504E-07 1.274E-08 0.000E+00
 ETOT  6  -56.394292897547     -1.238E-08 5.727E-10 0.000E+00
 ETOT  7  -56.394292897907     -3.601E-10 1.370E-11 0.000E+00
 ETOT  8  -56.394292897918     -1.101E-11 6.793E-13 0.000E+00
 ETOT  9  -56.394292897919     -2.274E-13 1.646E-14 0.000E+00
 ETOT 10  -56.394292897919     -9.948E-14 8.224E-16 0.000E+00
 ETOT 11  -56.394292897919      2.132E-14 2.018E-17 0.000E+00
 ETOT 12  -56.394292897919     -2.132E-14 1.007E-18 0.000E+00
 ETOT 13  -56.394292897919      0.000E+00 2.496E-20 0.000E+00
 ETOT 14  -56.394292897919      2.132E-14 9.990E-21 0.000E+00

 At SCF step   14   max residual=  9.99E-21 < tolwfr=  1.00E-20 =>converged.

 ----iterations are completed or convergence reached----

 dfpt_looppert: DFPT cycle converged with prtwf=-1. Will skip output of the 1st-order WFK file.
 dfpt_looppert : ek2=    1.0355010639E+02
          f-sum rule ratio=    1.0074927998E+00
 prteigrs : about to open file /scratch/users/j/a/jabreu/flow_simple_4atoms/flow/w156/t1/tmpdata/tmp_1WF1_EIG
 Expectation of eigenvalue derivatives (hartree) for nkpt=   2  k points:
  (in case of degenerate eigenvalues, averaged derivative)
 kpt#   1, nband= 30, wtk=  0.50000, kpt=  0.5000  0.5000  0.5000 (reduced coord)
  -0.00000    0.00000    0.00000    0.00000    0.00000   -0.00000    0.00000    0.00000
   0.00000    0.00000    0.00000    0.00000    0.00000    0.00000    0.00000    0.00000
  -0.00000   -0.00000   -0.00000   -0.00000   -0.00000    0.00000    0.00000    0.00000
   0.00000   -0.00000   -0.00000   -0.00000   -0.00000    0.00196
 prteigrs : prtvol=0 or 1, do not print more k-points.

 Eight components of 2nd-order total energy (hartree) are
 1,2,3: 0th-order hamiltonian combined with 1st-order wavefunctions
     kin0=   6.82135904E+01 eigvalue=  -4.75985235E-01  local=  -2.59516480E+01
 4,5,6: 1st-order hamiltonian combined with 1st and 0th-order wfs
     kin1=  -1.04325987E+02  Hartree=   0.00000000E+00     xc=   0.00000000E+00
 7,8,9: eventually, occupation + non-local contributions
    edocc=   1.56183782E+01     enl0=  -1.01004241E+00   enl1=  -8.46259920E+00
 1-9 gives the relaxation energy (to be shifted if some occ is /=2.0)
   erelax=  -5.63942929E+01
  No Ewald or frozen-wf contrib.: the relaxation energy is the total one
 2DEtotal=   -0.5639429290E+02 Ha. Also 2DEtotal=   -0.153456675156E+04 eV
    (  non-var. 2DEtotal :   -5.6394292898E+01 Ha)

 CALCULATION OF EFFECTIVE MASSES
 NOTE : Additional infos (eff. mass eigenvalues, eigenvectors and, if degenerate, average mass) are available in stdout.

 COMMENTS:
 - At k-point ( 0.500, 0.500, 0.500), bands    20 through    21
   are DEGENERATE (effective mass tensor is therefore not defined).
   See Section IIIB Eqs. (67)-(70) and Appendix E of PRB 93 205147 (2016).
 - Angular average effective mass for Frohlich model is to be averaged over degenerate bands. See later.
 - Associated theta integrals calculated with ntheta=   1000 points.

 K-point ( 0.500, 0.500, 0.500) | band =    20
 Transport equivalent effective mass tensor:
             -1.9264717022              0.0585366865              0.3103934608
              0.0585366865             -1.9859167581              0.1905017843
              0.3103934608              0.1905017843             -1.0117452451
 Transport equivalent effective mass tensor eigenvalues:
             -2.0218523807             -2.0218440376             -0.8804372870
 Angular average effective mass 1/(<1/m>)=  -1.3365499351
 Angular average effective mass for Frohlich model (<m**0.5>)**2=  -1.4134946443
 Effective masses along directions: (cart. coord. / red. coord. -> eff. mass)
    1:   1.000000  0.000000  0.000000 /   0.910968  0.412477  0.000000 ->  -1.7512248403
    2:   0.000000  1.000000  0.000000 /   0.000000  1.000000  0.000000 ->  -2.0030473278
    3:   0.000000  0.000000  1.000000 /   0.537561  0.537561  0.649659 ->  -0.9088631322
    4:   0.577350  0.577350  0.577350 /   0.595895  0.678865  0.429013 ->  -0.9876918810
    5:   0.000000  0.707107  0.707107 /   0.445574  0.715186  0.538491 ->  -1.0684683496
    6:   0.707107  0.000000  0.707107 /   0.686024  0.534258  0.493902 ->  -0.9872977505
    7:   0.707107  0.707107  0.000000 /   0.596823  0.802373  0.000000 ->  -1.5665888539

 K-point ( 0.500, 0.500, 0.500) | band =    21
 Transport equivalent effective mass tensor:
             -5.4185794454              0.2391649584              1.2682394069
              0.2391649584             -5.6614661836              0.7783324102
              1.2682394069              0.7783324102             -1.6809912061
 Transport equivalent effective mass tensor eigenvalues:
             -5.8082854942             -5.8082464672             -1.1445048737
 Angular average effective mass 1/(<1/m>)=  -2.0502074765
 Angular average effective mass for Frohlich model (<m**0.5>)**2=  -2.5744225251
 Effective masses along directions: (cart. coord. / red. coord. -> eff. mass)
    1:   1.000000  0.000000  0.000000 /   0.910968  0.412477  0.000000 ->  -3.6653471331
    2:   0.000000  1.000000  0.000000 /   0.000000  1.000000  0.000000 ->  -3.8044323175
    3:   0.000000  0.000000  1.000000 /   0.537561  0.537561  0.649659 ->  -0.9983717377
    4:   0.577350  0.577350  0.577350 /   0.595895  0.678865  0.429013 ->  -1.3579358404
    5:   0.000000  0.707107  0.707107 /   0.445574  0.715186  0.538491 ->  -1.3191367887
    6:   0.707107  0.000000  0.707107 /   0.686024  0.534258  0.493902 ->  -1.1275204786
    7:   0.707107  0.707107  0.000000 /   0.596823  0.802373  0.000000 ->  -4.0791683803

 Angular average effective mass for Frohlich model, averaged over degenerate bands.
 Value of     (<<m**0.5>>)**2 =     1.950779E+00
 Absolute Value of <<m**0.5>> =     1.396703E+00

 K-point ( 0.500, 0.000, 0.000) | band =    22
 Effective mass tensor:
              0.5052535701              0.2897482862             -0.1669787187
              0.2897482862              1.0496997113              0.0223652327
             -0.1669787187              0.0223652327              1.0079810780
 Effective mass tensor eigenvalues:
              0.3403851782              1.0334146601              1.1891345211
 Angular average effective mass 1/(<1/m>)=   0.6320497543
 Angular average effective mass for Frohlich model (<m**0.5>)**2=   0.7022262962
 Effective masses along directions: (cart. coord. / red. coord. -> eff. mass)
    1:   1.000000  0.000000  0.000000 /   0.910968  0.412477  0.000000 ->   0.3955160838
    2:   0.000000  1.000000  0.000000 /   0.000000  1.000000  0.000000 ->   0.8688932431
    3:   0.000000  0.000000  1.000000 /   0.537561  0.537561  0.649659 ->   0.9370049528
    4:   0.577350  0.577350  0.577350 /   0.595895  0.678865  0.429013 ->   0.7661186990
    5:   0.000000  0.707107  0.707107 /   0.445574  0.715186  0.538491 ->   1.0347910337
    6:   0.707107  0.000000  0.707107 /   0.686024  0.534258  0.493902 ->   0.4479658046
    7:   0.707107  0.707107  0.000000 /   0.596823  0.802373  0.000000 ->   0.8830333192

 END OF EFFECTIVE MASSES SECTION

 ---- first-order wavefunction calculations are completed ----

 Total localisation tensor (bohr^2) in cartesian coordinates
  WARNING : still subject to testing - especially symmetries.
      direction              matrix element
   alpha     beta       real part   imaginary part
     1        1       1.2423184968    0.0000000000
     1        2       0.3108894860    0.0000000000
     1        3       2.1117551342    0.0000000000
     2        1       0.3108894860    0.0000000000
     2        2       0.6121931678    0.0000000000
     2        3       1.0117444874    0.0000000000
     3        1       2.1117551342    0.0000000000
     3        2       1.0117444874    0.0000000000
     3        3       6.4688572887    0.0000000000

 respfn : d/dk was computed, but no 2DTE, so no DDB output.

== END DATASET(S) ==============================================================

 -outvars: echo values of variables after computation  --------
            acell      1.0000000000E+00  1.0000000000E+00  1.0000000000E+00 Bohr
              amu      8.89058500E+01  6.35460000E+01  1.59994000E+01
             ecut      4.60000000E+01 Hartree
           etotal     -5.6394292898E+01
            fcart      0.0000000000E+00  0.0000000000E+00  0.0000000000E+00
                       0.0000000000E+00  0.0000000000E+00  0.0000000000E+00
                       0.0000000000E+00  0.0000000000E+00  0.0000000000E+00
                       0.0000000000E+00  0.0000000000E+00  0.0000000000E+00
-          fftalg         512
           irdden           1
           irdwfk           1
           istwfk        1    1
              ixc     -116133
              kpt      5.00000000E-01  5.00000000E-01  5.00000000E-01
                       5.00000000E-01  0.00000000E+00  0.00000000E+00
           kptopt           0
P           mkmem           2
P          mkqmem           2
P          mk1mem           2
            natom           4
            nband          30
           nbdbuf           4
            ngfft          72      72      72
             nkpt           2
            nstep         100
             nsym          12
           ntypat           3
              occ      2.000000  2.000000  2.000000  2.000000  2.000000  2.000000
                       2.000000  2.000000  2.000000  2.000000  2.000000  2.000000
                       2.000000  2.000000  2.000000  2.000000  2.000000  2.000000
                       2.000000  2.000000  2.000000  0.000000  0.000000  0.000000
                       0.000000  0.000000  0.000000  0.000000  0.000000  0.000000
        optdriver           1
            prtwf          -1
            rfdir           1       1       1
           rfelfd           2
            rprim      6.3469581040E+00  0.0000000000E+00  9.3524760552E+00
                       2.8738347579E+00  5.6590591937E+00  9.3524760552E+00
                       0.0000000000E+00  0.0000000000E+00  1.1302773356E+01
          spgroup         166
           strten      0.0000000000E+00  0.0000000000E+00  0.0000000000E+00
                       0.0000000000E+00  0.0000000000E+00  0.0000000000E+00
           symrel      1  0  0   0  1  0   0  0  1      -1  0  0   0 -1  0   0  0 -1
                       0  1  0   1  0  0   0  0  1       0 -1  0  -1  0  0   0  0 -1
                       0  0  1   1  0  0   0  1  0       0  0 -1  -1  0  0   0 -1  0
                       1  0  0   0  0  1   0  1  0      -1  0  0   0  0 -1   0 -1  0
                       0  1  0   0  0  1   1  0  0       0 -1  0   0  0 -1  -1  0  0
                       0  0  1   0  1  0   1  0  0       0  0 -1   0 -1  0  -1  0  0
           tolwfr      1.00000000E-20
            typat      1  2  3  3
           useylm           1
              wtk        0.50000    0.50000
           xangst      2.4397167138E+00  1.4973225737E+00  7.9397021992E+00
                       0.0000000000E+00  0.0000000000E+00  0.0000000000E+00
                       5.2037205732E-01  3.1936692639E-01  1.6934749615E+00
                       4.3590613703E+00  2.6752782210E+00  1.4185929437E+01
            xcart      4.6103964309E+00  2.8295295969E+00  1.5003862733E+01
                       0.0000000000E+00  0.0000000000E+00  0.0000000000E+00
                       9.8336067555E-01  6.0351602677E-01  3.2002038901E+00
                       8.2374321863E+00  5.0555431669E+00  2.6807521576E+01
             xred      5.0000000000E-01  5.0000000000E-01  5.0000000000E-01
                       0.0000000000E+00  0.0000000000E+00  0.0000000000E+00
                       1.0664600000E-01  1.0664600000E-01  1.0664600000E-01
                       8.9335400000E-01  8.9335400000E-01  8.9335400000E-01
            znucl       39.00000   29.00000    8.00000

- Timing analysis has been suppressed with timopt=0

 Suggested references for the acknowledgment of ABINIT usage.

 Calculation completed.
.Delivered  14 WARNINGs and   9 COMMENTs to log file.