.Version 9.5.1 of ABINIT

 ABINIT is a project of the Universite Catholique de Louvain,
 Corning Inc. and other collaborators, see ~abinit/doc/developers/contributors.txt .
 acknowledgments of the ABINIT effort.

.Starting date : Tue  4 May 2021.
- ( at 19h48 )

- input  file    -> /scratch/users/j/a/jabreu/flow_simple_6atoms/flow/w228/t1/run.abi
- output file    -> /scratch/users/j/a/jabreu/flow_simple_6atoms/flow/w228/t1/run.abo
- root for input  files -> /scratch/users/j/a/jabreu/flow_simple_6atoms/flow/w228/t1/indata/in
- root for output files -> /scratch/users/j/a/jabreu/flow_simple_6atoms/flow/w228/t1/outdata/out

 Symmetries : space group Cm c 2_1 (# 36); Bravais oC (1-face-center ortho.)
     intxc =       0      iscf =       7    lmnmax =      18     lnmax =       6
     mgfft =      64  mpssoang =       3    mqgrid =    3001     natom =       6
  nloc_mem =       1    nspden =       1   nspinor =       1    nsppol =       1
      nsym =       4    n1xccc =    2501    ntypat =       3    occopt =       1
   xclevel =       2
-    mband =          25        mffmem =           1         mkmem =           2
-   mkqmem =           2        mk1mem =           2           mpw =        7408
      nfft =      196608          nkpt =           2
  Rough estimation (10% accuracy) of disk space for files :

------------- Echo of variables that govern the present computation ------------
-
- outvars: echo of selected default values
-   iomode0 =  0 , fftalg0 =512 , wfoptalg0 =  0
-
- outvars: echo of global parameters not present in the input file
-  max_nthreads =    0
-
 -outvars: echo values of preprocessed input variables --------
            acell      1.0000000000E+00  1.0000000000E+00  1.0000000000E+00 Bohr
              amu      3.90983000E+01  1.00794000E+00  1.59994000E+01
             ecut      4.40000000E+01 Hartree
-          fftalg         512
           irdden           1
           irdwfk           1
           istwfk        0    1
              ixc     -116133
              kpt     -5.00000000E-01  5.00000000E-01  0.00000000E+00
                       0.00000000E+00  0.00000000E+00  0.00000000E+00
           kptopt           0
P           mkmem           2
P          mkqmem           2
P          mk1mem           2
            natom           6
            nband          25
           nbdbuf           4
            ngfft          64      64      48
             nkpt           2
            nstep        1000
             nsym           4
           ntypat           3
              occ      2.000000  2.000000  2.000000  2.000000  2.000000  2.000000
                       2.000000  2.000000  2.000000  2.000000  2.000000  2.000000
                       2.000000  2.000000  2.000000  2.000000  0.000000  0.000000
                       0.000000  0.000000  0.000000  0.000000  0.000000  0.000000
                       0.000000
        optdriver           1
            prtwf          -1
            rfdir           1       1       1
           rfelfd           2
            rprim      1.0342015373E+01  0.0000000000E+00  0.0000000000E+00
                      -7.6860082050E+00  6.9197225262E+00  0.0000000000E+00
                       0.0000000000E+00  0.0000000000E+00  7.4310060203E+00
          spgroup          36
           symrel      1  0  0   0  1  0   0  0  1       0 -1  0  -1  0  0   0  0  1
                      -1  0  0   0 -1  0   0  0  1       0  1  0   1  0  0   0  0  1
            tnons      0.0000000  0.0000000  0.0000000    -0.0000000 -0.0000000  0.0000000
                       0.0000000 -0.0000000  0.5000000     0.0000000 -0.0000000  0.5000000
           tolwfr      1.00000000E-20
            typat      1  1  2  2  3  3
           useylm           1
              wtk        0.50000    0.50000
           xangst      2.0335055868E+00  1.3200935760E+00  9.4350489706E-01
                      -6.2800712782E-01  2.3416658746E+00  2.9096644085E+00
                       5.1958216089E+00  1.0629721509E-01  3.5605182592E-01
                      -3.7903231500E+00  3.5554622355E+00  2.3222113373E+00
                       4.5224775142E+00  3.6474785888E-01  1.0385411832E+00
                      -3.1169790553E+00  3.2970115918E+00  3.0047006946E+00
            xcart      3.8427686487E+00  2.4946153285E+00  1.7829658605E+00
                      -1.1867614811E+00  4.4251071977E+00  5.4984688706E+00
                       9.8186798762E+00  2.0087262521E-01  6.7284044011E-01
                      -7.1626727086E+00  6.7188499010E+00  4.3883434503E+00
                       8.5462439440E+00  6.8927356083E-01  1.9625584140E+00
                      -5.8902367764E+00  6.2304489654E+00  5.6780614241E+00
             xred      6.3949200000E-01  3.6050800000E-01  2.3993600000E-01
                       3.6050800000E-01  6.3949200000E-01  7.3993600000E-01
                       9.7097100000E-01  2.9029000000E-02  9.0545000000E-02
                       2.9029000000E-02  9.7097100000E-01  5.9054500000E-01
                       9.0039000000E-01  9.9610000000E-02  2.6410400000E-01
                       9.9610000000E-02  9.0039000000E-01  7.6410400000E-01
            znucl       19.00000    1.00000    8.00000

 chkinp: Checking input parameters for consistency.

== DATASET  1 ==================================================================
-   mpi_nproc: 1, omp_nthreads: -1 (-1 if OMP is not activated)

--- !DatasetInfo
iteration_state: {dtset: 1, }
dimensions: {natom: 6, nkpt: 2, mband: 25, nsppol: 1, nspinor: 1, nspden: 1, mpw: 7408, }
cutoff_energies: {ecut:  44.0, pawecutdg:  -1.0, }
electrons: {nelect:   3.20000000E+01, charge:   0.00000000E+00, occopt:   1.00000000E+00, tsmear:   1.00000000E-02, }
meta: {optdriver: 1, rfelfd: 2, }
...

 Real(R)+Recip(G) space primitive vectors, cartesian coordinates (Bohr,Bohr^-1):
 R(1)= 10.3420154  0.0000000  0.0000000  G(1)=  0.0966930  0.1074007  0.0000000
 R(2)= -7.6860082  6.9197225  0.0000000  G(2)=  0.0000000  0.1445145  0.0000000
 R(3)=  0.0000000  0.0000000  7.4310060  G(3)=  0.0000000  0.0000000  0.1345713
 Unit cell volume ucvol=  5.3179160E+02 bohr^3
 Angles (23,13,12)=  9.00000000E+01  9.00000000E+01  1.38003254E+02 degrees

 getcut: wavevector=  0.0000  0.0000  0.0000  ngfft=  64  64  48
         ecut(hartree)=     44.000   => boxcut(ratio)=   2.07255

--- Pseudopotential description ------------------------------------------------
- pspini: atom type   1  psp file is /scratch/users/j/a/jabreu/pseudos/PBEsol/K.psp8
- pspatm: opening atomic psp file    /scratch/users/j/a/jabreu/pseudos/PBEsol/K.psp8
- K     ONCVPSP-3.3.0  r_core=   1.36296   1.46408   1.61068
- 19.00000   9.00000    180112                znucl, zion, pspdat
    8 -116133    2    4       400   0.00000   pspcod,pspxc,lmax,lloc,mmax,r2well
    3.99000000000000    5.00000000000000    0.00000000000000   rchrg,fchrg,qchrg
     nproj     2     2     2
     extension_switch     1
  pspatm : epsatm=    8.32487830
         --- l  ekb(1:nproj) -->
             0   10.921326    0.816676
             1    4.431000    0.560368
             2   -3.384038   -1.043186
 pspatm: atomic psp has been read  and splines computed

- pspini: atom type   2  psp file is /scratch/users/j/a/jabreu/pseudos/PBEsol/H.psp8
- pspatm: opening atomic psp file    /scratch/users/j/a/jabreu/pseudos/PBEsol/H.psp8
- H     ONCVPSP-3.3.0  r_core=   1.00957   0.70586
-  1.00000   1.00000    180112                znucl, zion, pspdat
    8 -116133    1    4       300   0.00000   pspcod,pspxc,lmax,lloc,mmax,r2well
    2.99000000000000    0.00000000000000    0.00000000000000   rchrg,fchrg,qchrg
     nproj     2     1
     extension_switch     1
  pspatm : epsatm=    0.35627032
         --- l  ekb(1:nproj) -->
             0   -1.674911   -0.523609
             1   -0.494138
 pspatm: atomic psp has been read  and splines computed

- pspini: atom type   3  psp file is /scratch/users/j/a/jabreu/pseudos/PBEsol/O.psp8
- pspatm: opening atomic psp file    /scratch/users/j/a/jabreu/pseudos/PBEsol/O.psp8
- O     ONCVPSP-3.3.0  r_core=   1.35509   1.45563   1.26150
-  8.00000   6.00000    180112                znucl, zion, pspdat
    8 -116133    2    4       600   0.00000   pspcod,pspxc,lmax,lloc,mmax,r2well
    5.99000000000000    4.00000000000000    0.00000000000000   rchrg,fchrg,qchrg
     nproj     2     2     1
     extension_switch     1
  pspatm : epsatm=    6.22910522
         --- l  ekb(1:nproj) -->
             0    6.050032    0.820363
             1   -4.739617   -1.153841
             2   -1.335834
 pspatm: atomic psp has been read  and splines computed

   9.54256246E+02                                ecore*ucvol(ha*bohr**3)

-inwffil : will read wavefunctions from disk file /scratch/users/j/a/jabreu/flow_simple_6atoms/flow/w228/t1/indata/in_WFK

 ==>  initialize data related to q vector <==

 The list of irreducible perturbations for this q vector is:
    1)    idir= 1    ipert=   7
    2)    idir= 2    ipert=   7
    3)    idir= 3    ipert=   7

 Perturbation wavevector (in red.coord.)   0.000000  0.000000  0.000000
 Perturbation : derivative vs k along direction   1

 dfpt_looppert : COMMENT -
  In a d/dk calculation, iscf is set to -3 automatically.
 The set of symmetries contains only one element for this perturbation.
 symkpt : not enough symmetry to change the number of k points.

[...]

 Initialisation of the first-order wave-functions :
  ireadwf=   0

--- !BeginCycle
iteration_state: {dtset: 1, }
solver: {iscf: 7, nstep: 1000, nline: 4, wfoptalg: 0, }
tolerances: {tolwfr: 1.00E-20, }
...

     iter   2DEtotal(Ha)        deltaE(Ha) residm    vres2
-ETOT  1  -28.303866351701     -2.830E+01 5.932E-02 0.000E+00
 ETOT  2  -28.339434801406     -3.557E-02 2.916E-03 0.000E+00
 ETOT  3  -28.339673307578     -2.385E-04 1.577E-04 0.000E+00
 ETOT  4  -28.339675690486     -2.383E-06 3.621E-05 0.000E+00
 ETOT  5  -28.339675720328     -2.984E-08 2.720E-06 0.000E+00
 ETOT  6  -28.339675720740     -4.121E-10 5.659E-07 0.000E+00
 ETOT  7  -28.339675720747     -6.104E-12 4.287E-08 0.000E+00
 ETOT  8  -28.339675720747     -8.882E-14 9.351E-09 0.000E+00
 ETOT  9  -28.339675720747      2.132E-14 6.802E-10 0.000E+00
 ETOT 10  -28.339675720747     -2.487E-14 1.568E-10 0.000E+00
 ETOT 11  -28.339675720747      1.776E-14 1.101E-11 0.000E+00
 ETOT 12  -28.339675720747      1.421E-14 2.649E-12 0.000E+00
 ETOT 13  -28.339675720747      3.553E-15 2.246E-13 0.000E+00
 ETOT 14  -28.339675720747     -1.776E-14 4.495E-14 0.000E+00
 ETOT 15  -28.339675720747      7.105E-15 5.846E-15 0.000E+00
 ETOT 16  -28.339675720747     -1.066E-14 9.808E-16 0.000E+00
 ETOT 17  -28.339675720747      3.553E-15 1.538E-16 0.000E+00
 ETOT 18  -28.339675720747      7.105E-15 2.595E-17 0.000E+00
 ETOT 19  -28.339675720747     -3.553E-15 4.079E-18 0.000E+00
 ETOT 20  -28.339675720747      1.066E-14 6.903E-19 0.000E+00
 ETOT 21  -28.339675720747     -1.066E-14 1.088E-19 0.000E+00
 ETOT 22  -28.339675720747      0.000E+00 1.843E-20 0.000E+00
 ETOT 23  -28.339675720747      3.553E-15 9.587E-21 0.000E+00

 At SCF step   23   max residual=  9.59E-21 < tolwfr=  1.00E-20 =>converged.

 ----iterations are completed or convergence reached----

 dfpt_looppert: DFPT cycle converged with prtwf=-1. Will skip output of the 1st-order WFK file.
 dfpt_looppert : ek2=    5.2766993560E+01
          f-sum rule ratio=    1.1423483689E+00
 prteigrs : about to open file /scratch/users/j/a/jabreu/flow_simple_6atoms/flow/w228/t1/tmpdata/tmp_1WF1_EIG
 Expectation of eigenvalue derivatives (hartree) for nkpt=   2  k points:
  (in case of degenerate eigenvalues, averaged derivative)
 kpt#   1, nband= 25, wtk=  0.50000, kpt= -0.5000  0.5000  0.0000 (reduced coord)
   0.00000    0.00000   -0.00000    0.00000   -0.00000    0.00000   -0.00000   -0.00000
   0.00000    0.00000   -0.00000   -0.00000   -0.00000   -0.00000    0.00000   -0.00000
   0.00000    0.00000    0.00000   -0.00000    0.00000    0.00000   -0.00001    0.00006
  -0.00002
 prteigrs : prtvol=0 or 1, do not print more k-points.

 Eight components of 2nd-order total energy (hartree) are
 1,2,3: 0th-order hamiltonian combined with 1st-order wavefunctions
     kin0=   2.93593934E+01 eigvalue=   1.38446637E+00  local=  -1.34916999E+01
 4,5,6: 1st-order hamiltonian combined with 1st and 0th-order wfs
     kin1=  -6.02782890E+01  Hartree=   0.00000000E+00     xc=   0.00000000E+00
 7,8,9: eventually, occupation + non-local contributions
    edocc=   1.16993145E+01     enl0=  -6.11798745E-01   enl1=   3.59893758E+00
 1-9 gives the relaxation energy (to be shifted if some occ is /=2.0)
   erelax=  -2.83396757E+01
  No Ewald or frozen-wf contrib.: the relaxation energy is the total one
 2DEtotal=   -0.2833967572E+02 Ha. Also 2DEtotal=   -0.771161794505E+03 eV
    (  non-var. 2DEtotal :   -2.8339675721E+01 Ha)

 Perturbation wavevector (in red.coord.)   0.000000  0.000000  0.000000
 Perturbation : derivative vs k along direction   2
 The set of symmetries contains only one element for this perturbation.
 symkpt : not enough symmetry to change the number of k points.

[...]

 Perturbation wavevector (in red.coord.)   0.000000  0.000000  0.000000
 Perturbation : derivative vs k along direction   3
 The set of symmetries contains only one element for this perturbation.
 symkpt : not enough symmetry to change the number of k points.

-inwffil : will read wavefunctions from disk file /scratch/users/j/a/jabreu/flow_simple_6atoms/flow/w228/t1/indata/in_WFK

 Initialisation of the first-order wave-functions :
  ireadwf=   0

--- !BeginCycle
iteration_state: {dtset: 1, }
solver: {iscf: 7, nstep: 1000, nline: 4, wfoptalg: 0, }
tolerances: {tolwfr: 1.00E-20, }
...

     iter   2DEtotal(Ha)        deltaE(Ha) residm    vres2
-ETOT  1  -24.158895625248     -2.416E+01 7.197E-02 0.000E+00
 ETOT  2  -24.183354434590     -2.446E-02 3.998E-04 0.000E+00
 ETOT  3  -24.183474520599     -1.201E-04 9.082E-05 0.000E+00
 ETOT  4  -24.183475412288     -8.917E-07 1.853E-06 0.000E+00
 ETOT  5  -24.183475420609     -8.321E-09 2.618E-07 0.000E+00
 ETOT  6  -24.183475420698     -8.864E-11 1.205E-08 0.000E+00
 ETOT  7  -24.183475420699     -1.052E-12 1.619E-09 0.000E+00
 ETOT  8  -24.183475420699     -2.132E-14 1.104E-10 0.000E+00
 ETOT  9  -24.183475420699     -2.132E-14 1.566E-11 0.000E+00
 ETOT 10  -24.183475420699      7.105E-15 1.153E-12 0.000E+00
 ETOT 11  -24.183475420699      2.132E-14 1.611E-13 0.000E+00
 ETOT 12  -24.183475420699     -1.421E-14 1.285E-14 0.000E+00
 ETOT 13  -24.183475420699      0.000E+00 1.650E-15 0.000E+00
 ETOT 14  -24.183475420699      0.000E+00 2.150E-16 0.000E+00
 ETOT 15  -24.183475420699     -3.553E-15 2.908E-17 0.000E+00
 ETOT 16  -24.183475420699      0.000E+00 3.631E-18 0.000E+00
 ETOT 17  -24.183475420699      0.000E+00 5.227E-19 0.000E+00
 ETOT 18  -24.183475420699      7.105E-15 6.182E-20 0.000E+00
 ETOT 19  -24.183475420699     -3.553E-15 9.469E-21 0.000E+00

 At SCF step   19   max residual=  9.47E-21 < tolwfr=  1.00E-20 =>converged.

 ----iterations are completed or convergence reached----

 dfpt_looppert: DFPT cycle converged with prtwf=-1. Will skip output of the 1st-order WFK file.
 dfpt_looppert : ek2=    4.5755624200E+01
          f-sum rule ratio=    1.1258558479E+00
 prteigrs : about to open file /scratch/users/j/a/jabreu/flow_simple_6atoms/flow/w228/t1/tmpdata/tmp_1WF1_EIG
 Expectation of eigenvalue derivatives (hartree) for nkpt=   2  k points:
  (in case of degenerate eigenvalues, averaged derivative)
 kpt#   1, nband= 25, wtk=  0.50000, kpt= -0.5000  0.5000  0.0000 (reduced coord)
  -0.00000    0.00000   -0.00000   -0.00000   -0.00000    0.00000    0.00000   -0.00000
  -0.00000   -0.00000    0.00000   -0.00000    0.00000    0.00000    0.00000    0.00000
  -0.00000    0.00000    0.00000    0.00000   -0.00000    0.00000    0.00057    0.00002
  -0.00001
 prteigrs : prtvol=0 or 1, do not print more k-points.

 Eight components of 2nd-order total energy (hartree) are
 1,2,3: 0th-order hamiltonian combined with 1st-order wavefunctions
     kin0=   2.45951945E+01 eigvalue=   1.10099513E+00  local=  -1.15128099E+01
 4,5,6: 1st-order hamiltonian combined with 1st and 0th-order wfs
     kin1=  -5.15142371E+01  Hartree=   0.00000000E+00     xc=   0.00000000E+00
 7,8,9: eventually, occupation + non-local contributions
    edocc=   1.07377098E+01     enl0=  -7.37614118E-01   enl1=   3.14728624E+00
 1-9 gives the relaxation energy (to be shifted if some occ is /=2.0)
   erelax=  -2.41834754E+01
  No Ewald or frozen-wf contrib.: the relaxation energy is the total one
 2DEtotal=   -0.2418347542E+02 Ha. Also 2DEtotal=   -0.658065832742E+03 eV
    (  non-var. 2DEtotal :   -2.4183475421E+01 Ha)

 CALCULATION OF EFFECTIVE MASSES
 NOTE : Additional infos (eff. mass eigenvalues, eigenvectors and, if degenerate, average mass) are available in stdout.

 K-point (-0.500, 0.500, 0.000) | band =    16
 Effective mass tensor:
            -24.8671564105              9.0662857241             -0.0000927841
              9.0662857241             -4.7265274666              0.0000321434
             -0.0000927841              0.0000321434             -2.1276518738
 Effective mass tensor eigenvalues:
            -28.3470733169             -2.1276518734             -1.2466105606
 Angular average effective mass 1/(<1/m>)=  -2.2945360543
 Angular average effective mass for Frohlich model (<m**0.5>)**2=  -3.0212725487
 Effective masses along directions: (cart. coord. / red. coord. -> eff. mass)
    1:   1.000000  0.000000  0.000000 /   0.802619 -0.596492  0.000000 ->  -7.4764742628
    2:   0.000000  1.000000  0.000000 /   0.000000  1.000000  0.000000 ->  -1.4210615953
    3:   0.000000  0.000000  1.000000 /   0.000000  0.000000  1.000000 ->  -2.1276518734
    4:   0.577350  0.577350  0.577350 /   0.810635 -0.060064  0.582463 ->  -1.6478351083
    5:   0.000000  0.707107  0.707107 /   0.000000  0.681482  0.731835 ->  -1.7040131657
    6:   0.707107  0.000000  0.707107 /   0.695283 -0.516723  0.499579 ->  -3.3126257111
    7:   0.707107  0.707107  0.000000 /   0.997266 -0.073892  0.000000 ->  -1.4808520265

 K-point ( 0.000, 0.000, 0.000) | band =    17
 Effective mass tensor:
              0.4471006213             -0.0022075901             -0.0000001503
             -0.0022075901              0.4421995282             -0.0000004521
             -0.0000001503             -0.0000004521              0.4436085878
 Effective mass tensor eigenvalues:
              0.4413517975              0.4436085879              0.4479483520
 Angular average effective mass 1/(<1/m>)=   0.4442860843
 Angular average effective mass for Frohlich model (<m**0.5>)**2=   0.4442911268
 Effective masses along directions: (cart. coord. / red. coord. -> eff. mass)
    1:   1.000000  0.000000  0.000000 /   0.802619 -0.596492  0.000000 ->   0.4470896004
    2:   0.000000  1.000000  0.000000 /   0.000000  1.000000  0.000000 ->   0.4421886281
    3:   0.000000  0.000000  1.000000 /   0.000000  0.000000  1.000000 ->   0.4436085878
    4:   0.577350  0.577350  0.577350 /   0.810635 -0.060064  0.582463 ->   0.4428211266
    5:   0.000000  0.707107  0.707107 /   0.000000  0.681482  0.731835 ->   0.4428970170
    6:   0.707107  0.000000  0.707107 /   0.695283 -0.516723  0.499579 ->   0.4453421393
    7:   0.707107  0.707107  0.000000 /   0.997266 -0.073892  0.000000 ->   0.4424290459

 END OF EFFECTIVE MASSES SECTION

 ---- first-order wavefunction calculations are completed ----

 Total localisation tensor (bohr^2) in cartesian coordinates
  WARNING : still subject to testing - especially symmetries.
      direction              matrix element
   alpha     beta       real part   imaginary part
     1        1       2.9218831740    0.0000000000
     1        2      -0.9359595523    0.0000000000
     1        3       0.0000000000    0.0000000000
     2        1      -0.9359595523    0.0000000000
     2        2       0.8426455222    0.0000000000
     2        3       0.0000000000    0.0000000000
     3        1       0.0000000000    0.0000000000
     3        2       0.0000000000    0.0000000000
     3        3       0.8145802965    0.0000000000

 respfn : d/dk was computed, but no 2DTE, so no DDB output.

== END DATASET(S) ==============================================================

 -outvars: echo values of variables after computation  --------
            acell      1.0000000000E+00  1.0000000000E+00  1.0000000000E+00 Bohr
              amu      3.90983000E+01  1.00794000E+00  1.59994000E+01
             ecut      4.40000000E+01 Hartree
           etotal     -2.4183475421E+01
            fcart      0.0000000000E+00  0.0000000000E+00  0.0000000000E+00
                       0.0000000000E+00  0.0000000000E+00  0.0000000000E+00
                       0.0000000000E+00  0.0000000000E+00  0.0000000000E+00
                       0.0000000000E+00  0.0000000000E+00  0.0000000000E+00
                       0.0000000000E+00  0.0000000000E+00  0.0000000000E+00
                       0.0000000000E+00  0.0000000000E+00  0.0000000000E+00
-          fftalg         512
           irdden           1
           irdwfk           1
           istwfk        0    1
              ixc     -116133
              kpt     -5.00000000E-01  5.00000000E-01  0.00000000E+00
                       0.00000000E+00  0.00000000E+00  0.00000000E+00
           kptopt           0
P           mkmem           2
P          mkqmem           2
P          mk1mem           2
            natom           6
            nband          25
           nbdbuf           4
            ngfft          64      64      48
             nkpt           2
            nstep        1000
             nsym           4
           ntypat           3
              occ      2.000000  2.000000  2.000000  2.000000  2.000000  2.000000
                       2.000000  2.000000  2.000000  2.000000  2.000000  2.000000
                       2.000000  2.000000  2.000000  2.000000  0.000000  0.000000
                       0.000000  0.000000  0.000000  0.000000  0.000000  0.000000
                       0.000000
        optdriver           1
            prtwf          -1
            rfdir           1       1       1
           rfelfd           2
            rprim      1.0342015373E+01  0.0000000000E+00  0.0000000000E+00
                      -7.6860082050E+00  6.9197225262E+00  0.0000000000E+00
                       0.0000000000E+00  0.0000000000E+00  7.4310060203E+00
          spgroup          36
           strten      0.0000000000E+00  0.0000000000E+00  0.0000000000E+00
                       0.0000000000E+00  0.0000000000E+00  0.0000000000E+00
           symrel      1  0  0   0  1  0   0  0  1       0 -1  0  -1  0  0   0  0  1
                      -1  0  0   0 -1  0   0  0  1       0  1  0   1  0  0   0  0  1
            tnons      0.0000000  0.0000000  0.0000000    -0.0000000 -0.0000000  0.0000000
                       0.0000000 -0.0000000  0.5000000     0.0000000 -0.0000000  0.5000000
           tolwfr      1.00000000E-20
            typat      1  1  2  2  3  3
           useylm           1
              wtk        0.50000    0.50000
           xangst      2.0335055868E+00  1.3200935760E+00  9.4350489706E-01
                      -6.2800712782E-01  2.3416658746E+00  2.9096644085E+00
                       5.1958216089E+00  1.0629721509E-01  3.5605182592E-01
                      -3.7903231500E+00  3.5554622355E+00  2.3222113373E+00
                       4.5224775142E+00  3.6474785888E-01  1.0385411832E+00
                      -3.1169790553E+00  3.2970115918E+00  3.0047006946E+00
            xcart      3.8427686487E+00  2.4946153285E+00  1.7829658605E+00
                      -1.1867614811E+00  4.4251071977E+00  5.4984688706E+00
                       9.8186798762E+00  2.0087262521E-01  6.7284044011E-01
                      -7.1626727086E+00  6.7188499010E+00  4.3883434503E+00
                       8.5462439440E+00  6.8927356083E-01  1.9625584140E+00
                      -5.8902367764E+00  6.2304489654E+00  5.6780614241E+00
             xred      6.3949200000E-01  3.6050800000E-01  2.3993600000E-01
                       3.6050800000E-01  6.3949200000E-01  7.3993600000E-01
                       9.7097100000E-01  2.9029000000E-02  9.0545000000E-02
                       2.9029000000E-02  9.7097100000E-01  5.9054500000E-01
                       9.0039000000E-01  9.9610000000E-02  2.6410400000E-01
                       9.9610000000E-02  9.0039000000E-01  7.6410400000E-01
            znucl       19.00000    1.00000    8.00000

- Timing analysis has been suppressed with timopt=0

 Suggested references for the acknowledgment of ABINIT usage.

 Calculation completed.
.Delivered  14 WARNINGs and   9 COMMENTs to log file.