.Version 9.5.1 of ABINIT

 ABINIT is a project of the Universite Catholique de Louvain,
 Corning Inc. and other collaborators, see ~abinit/doc/developers/contributors.txt .
 acknowledgments of the ABINIT effort.

.Starting date : Wed 19 May 2021.
- ( at 12h05 )

- input  file    -> /scratch/users/j/a/jabreu/flow_simple_9atoms/flow/w134/t1/run.abi
- output file    -> /scratch/users/j/a/jabreu/flow_simple_9atoms/flow/w134/t1/run.abo
- root for input  files -> /scratch/users/j/a/jabreu/flow_simple_9atoms/flow/w134/t1/indata/in
- root for output files -> /scratch/users/j/a/jabreu/flow_simple_9atoms/flow/w134/t1/outdata/out

 Symmetries : space group Fm -3 m (#225); Bravais cF (face-center cubic)
     intxc =       0      iscf =       7    lmnmax =      32     lnmax =       8
     mgfft =      72  mpssoang =       4    mqgrid =    3001     natom =       9
  nloc_mem =       1    nspden =       1   nspinor =       1    nsppol =       1
      nsym =      48    n1xccc =    2501    ntypat =       3    occopt =       1
   xclevel =       2
-    mband =          30        mffmem =           1         mkmem =           1
-   mkqmem =           1        mk1mem =           1           mpw =       15284
      nfft =      373248          nkpt =           1
  Rough estimation (10% accuracy) of disk space for files :

------------- Echo of variables that govern the present computation ------------
-
- outvars: echo of selected default values
-   iomode0 =  0 , fftalg0 =512 , wfoptalg0 =  0
-
- outvars: echo of global parameters not present in the input file
-  max_nthreads =    0
-
 -outvars: echo values of preprocessed input variables --------
            acell      1.0000000000E+00  1.0000000000E+00  1.0000000000E+00 Bohr
              amu      1.32905430E+02  1.00794000E+00  1.95080000E+02
             ecut      4.20000000E+01 Hartree
-          fftalg         512
           irdden           1
           irdwfk           1
           istwfk        1
              ixc     -116133
              kpt      5.00000000E-01  0.00000000E+00  5.00000000E-01
           kptopt           0
P           mkmem           1
P          mkqmem           1
P          mk1mem           1
            natom           9
            nband          30
           nbdbuf           4
            ngfft          72      72      72
             nkpt           1
            nstep        2000
             nsym          48
           ntypat           3
              occ      2.000000  2.000000  2.000000  2.000000  2.000000  2.000000
                       2.000000  2.000000  2.000000  2.000000  2.000000  2.000000
                       2.000000  2.000000  2.000000  2.000000  2.000000  2.000000
                       2.000000  2.000000  2.000000  0.000000  0.000000  0.000000
                       0.000000  0.000000  0.000000  0.000000  0.000000  0.000000
        optdriver           1
            prtwf          -1
            rfdir           1       1       1
           rfelfd           2
            rprim      1.0245826557E+01  0.0000000000E+00  5.9154307206E+00
                       3.4152755189E+00  9.6598579161E+00  5.9154307206E+00
                       0.0000000000E+00  0.0000000000E+00  1.1830861441E+01
          spgroup         225
           symrel      1  0  0   0  1  0   0  0  1      -1  0  0   0 -1  0   0  0 -1
                       0 -1  1   0 -1  0   1 -1  0       0  1 -1   0  1  0  -1  1  0
                      -1  0  0  -1  0  1  -1  1  0       1  0  0   1  0 -1   1 -1  0
                       0  1 -1   1  0 -1   0  0 -1       0 -1  1  -1  0  1   0  0  1
                      -1  0  0  -1  1  0  -1  0  1       1  0  0   1 -1  0   1  0 -1
                       0 -1  1   1 -1  0   0 -1  0       0  1 -1  -1  1  0   0  1  0
                       1  0  0   0  0  1   0  1  0      -1  0  0   0  0 -1   0 -1  0
                       0  1 -1   0  0 -1   1  0 -1       0 -1  1   0  0  1  -1  0  1
                      -1  0  1  -1  1  0  -1  0  0       1  0 -1   1 -1  0   1  0  0
                       0 -1  0   1 -1  0   0 -1  1       0  1  0  -1  1  0   0  1 -1
                       1  0 -1   0  0 -1   0  1 -1      -1  0  1   0  0  1   0 -1  1
                       0  1  0   0  0  1   1  0  0       0 -1  0   0  0 -1  -1  0  0
                       1  0 -1   0  1 -1   0  0 -1      -1  0  1   0 -1  1   0  0  1
                       0 -1  0   0 -1  1   1 -1  0       0  1  0   0  1 -1  -1  1  0
                      -1  0  1  -1  0  0  -1  1  0       1  0 -1   1  0  0   1 -1  0
                       0  1  0   1  0  0   0  0  1       0 -1  0  -1  0  0   0  0 -1
                       0  0 -1   0  1 -1   1  0 -1       0  0  1   0 -1  1  -1  0  1
                       1 -1  0   0 -1  1   0 -1  0      -1  1  0   0  1 -1   0  1  0
                       0  0  1   1  0  0   0  1  0       0  0 -1  -1  0  0   0 -1  0
                      -1  1  0  -1  0  0  -1  0  1       1 -1  0   1  0  0   1  0 -1
                       0  0  1   0  1  0   1  0  0       0  0 -1   0 -1  0  -1  0  0
                       1 -1  0   0 -1  0   0 -1  1      -1  1  0   0  1  0   0  1 -1
                       0  0 -1   1  0 -1   0  1 -1       0  0  1  -1  0  1   0 -1  1
                      -1  1  0  -1  0  1  -1  0  0       1 -1  0   1  0 -1   1  0  0
           tolwfr      1.00000000E-20
            typat      1  1  2  2  2  2  2  2  3
           useylm           1
           xangst      5.4218578970E+00  3.8338324856E+00  9.3909333490E+00
                       1.8072859657E+00  1.2779441619E+00  3.1303111163E+00
                       2.4790397008E+00  4.1617734046E+00  8.2274217495E+00
                       5.8856363923E+00  4.1617734046E+00  6.2606222327E+00
                       4.7501041618E+00  9.5000324282E-01  8.2274217495E+00
                       4.7501041618E+00  9.5000324282E-01  4.2938227158E+00
                       1.3435074703E+00  9.5000324282E-01  6.2606222326E+00
                       2.4790397008E+00  4.1617734046E+00  4.2938227158E+00
                       0.0000000000E+00  0.0000000000E+00  0.0000000000E+00
            xcart      1.0245826557E+01  7.2448934371E+00  1.7746292162E+01
                       3.4152755189E+00  2.4149644790E+00  5.9154307206E+00
                       4.6847061071E+00  7.8646119618E+00  1.5547573886E+01
                       1.1122240899E+01  7.8646119618E+00  1.1830861441E+01
                       8.9763959685E+00  1.7952459543E+00  1.5547573886E+01
                       8.9763959685E+00  1.7952459543E+00  8.1141489960E+00
                       2.5388611763E+00  1.7952459543E+00  1.1830861441E+01
                       4.6847061071E+00  7.8646119618E+00  8.1141489960E+00
                       0.0000000000E+00  0.0000000000E+00  0.0000000000E+00
             xred      7.5000000000E-01  7.5000000000E-01  7.5000000000E-01
                       2.5000000000E-01  2.5000000000E-01  2.5000000000E-01
                       1.8584600000E-01  8.1415400000E-01  8.1415400000E-01
                       8.1415400000E-01  8.1415400000E-01  1.8584600000E-01
                       8.1415400000E-01  1.8584600000E-01  8.1415400000E-01
                       8.1415400000E-01  1.8584600000E-01  1.8584600000E-01
                       1.8584600000E-01  1.8584600000E-01  8.1415400000E-01
                       1.8584600000E-01  8.1415400000E-01  1.8584600000E-01
                       0.0000000000E+00  0.0000000000E+00  0.0000000000E+00
            znucl       55.00000    1.00000   78.00000

 chkinp: Checking input parameters for consistency.

== DATASET  1 ==================================================================
-   mpi_nproc: 1, omp_nthreads: -1 (-1 if OMP is not activated)

--- !DatasetInfo
iteration_state: {dtset: 1, }
dimensions: {natom: 9, nkpt: 1, mband: 30, nsppol: 1, nspinor: 1, nspden: 1, mpw: 15284, }
cutoff_energies: {ecut:  42.0, pawecutdg:  -1.0, }
electrons: {nelect:   4.20000000E+01, charge:   0.00000000E+00, occopt:   1.00000000E+00, tsmear:   1.00000000E-02, }
meta: {optdriver: 1, rfelfd: 2, }
...

 Real(R)+Recip(G) space primitive vectors, cartesian coordinates (Bohr,Bohr^-1):
 R(1)= 10.2458266  0.0000000  5.9154307  G(1)=  0.0976007 -0.0345071  0.0000000
 R(2)=  3.4152755  9.6598579  5.9154307  G(2)=  0.0000000  0.1035212  0.0000000
 R(3)=  0.0000000  0.0000000 11.8308614  G(3)= -0.0488004 -0.0345071  0.0845247
 Unit cell volume ucvol=  1.1709386E+03 bohr^3
 Angles (23,13,12)=  6.00000000E+01  6.00000000E+01  6.00000000E+01 degrees

 getcut: wavevector=  0.0000  0.0000  0.0000  ngfft=  72  72  72
         ecut(hartree)=     42.000   => boxcut(ratio)=   2.08606

--- Pseudopotential description ------------------------------------------------
- pspini: atom type   1  psp file is /scratch/users/j/a/jabreu/pseudos/PBEsol/Cs.psp8
- pspatm: opening atomic psp file    /scratch/users/j/a/jabreu/pseudos/PBEsol/Cs.psp8
- Cs    ONCVPSP-3.3.0  r_core=   2.27353   1.85623   2.01788   1.90105
- 55.00000   9.00000    180112                znucl, zion, pspdat
    8 -116133    3    4       600   0.00000   pspcod,pspxc,lmax,lloc,mmax,r2well
    5.99000000000000    5.00000000000000    0.00000000000000   rchrg,fchrg,qchrg
     nproj     2     2     2     2
     extension_switch     1
  pspatm : epsatm=   22.12462445
         --- l  ekb(1:nproj) -->
             0    6.214110    0.767882
             1    6.311966    0.793598
             2    3.769790    0.913105
             3   -9.247129   -2.432478
 pspatm: atomic psp has been read  and splines computed

- pspini: atom type   2  psp file is /scratch/users/j/a/jabreu/pseudos/PBEsol/H.psp8
- pspatm: opening atomic psp file    /scratch/users/j/a/jabreu/pseudos/PBEsol/H.psp8
- H     ONCVPSP-3.3.0  r_core=   1.00957   0.70586
-  1.00000   1.00000    180112                znucl, zion, pspdat
    8 -116133    1    4       300   0.00000   pspcod,pspxc,lmax,lloc,mmax,r2well
    2.99000000000000    0.00000000000000    0.00000000000000   rchrg,fchrg,qchrg
     nproj     2     1
     extension_switch     1
  pspatm : epsatm=    0.35627032
         --- l  ekb(1:nproj) -->
             0   -1.674911   -0.523609
             1   -0.494138
 pspatm: atomic psp has been read  and splines computed

- pspini: atom type   3  psp file is /scratch/users/j/a/jabreu/pseudos/PBEsol/Pt.psp8
- pspatm: opening atomic psp file    /scratch/users/j/a/jabreu/pseudos/PBEsol/Pt.psp8
- Pt    ONCVPSP-3.3.0  r_core=   1.45722   1.45722   1.45722   1.91724
- 78.00000  18.00000    180112                znucl, zion, pspdat
    8 -116133    3    4       500   0.00000   pspcod,pspxc,lmax,lloc,mmax,r2well
    4.99000000000000    5.00000000000000    0.00000000000000   rchrg,fchrg,qchrg
     nproj     2     2     2     2
     extension_switch     1
  pspatm : epsatm=   26.54019552
         --- l  ekb(1:nproj) -->
             0   18.149684    1.747248
             1    8.048135    1.208190
             2    2.365973    0.348456
             3    3.491561    0.381218
 pspatm: atomic psp has been read  and splines computed

   3.06293679E+03                                ecore*ucvol(ha*bohr**3)

[...]
 Perturbation : derivative vs k along direction   2
 The set of symmetries contains only one element for this perturbation.
 symkpt : not enough symmetry to change the number of k points.

[...]

 Perturbation wavevector (in red.coord.)   0.000000  0.000000  0.000000
 Perturbation : derivative vs k along direction   3
 The set of symmetries contains only one element for this perturbation.
 symkpt : not enough symmetry to change the number of k points.

-inwffil : will read wavefunctions from disk file /scratch/users/j/a/jabreu/flow_simple_9atoms/flow/w134/t1/indata/in_WFK

 Initialisation of the first-order wave-functions :
  ireadwf=   0

--- !BeginCycle
iteration_state: {dtset: 1, }
solver: {iscf: 7, nstep: 2000, nline: 4, wfoptalg: 0, }
tolerances: {tolwfr: 1.00E-20, }
...

     iter   2DEtotal(Ha)        deltaE(Ha) residm    vres2
-ETOT  1  -19.912174472400     -1.991E+01 1.439E-02 0.000E+00
 ETOT  2  -19.921149385903     -8.975E-03 1.055E-03 0.000E+00
 ETOT  3  -19.921500046418     -3.507E-04 1.966E-04 0.000E+00
 ETOT  4  -19.921520703420     -2.066E-05 2.082E-05 0.000E+00
 ETOT  5  -19.921522164601     -1.461E-06 6.360E-06 0.000E+00
 ETOT  6  -19.921522276968     -1.124E-07 6.692E-07 0.000E+00
 ETOT  7  -19.921522286053     -9.086E-09 2.351E-07 0.000E+00
 ETOT  8  -19.921522286804     -7.513E-10 2.360E-08 0.000E+00
 ETOT  9  -19.921522286868     -6.320E-11 8.856E-09 0.000E+00
 ETOT 10  -19.921522286873     -5.439E-12 8.551E-10 0.000E+00
 ETOT 11  -19.921522286874     -4.583E-13 3.338E-10 0.000E+00
 ETOT 12  -19.921522286874     -4.263E-14 3.125E-11 0.000E+00
 ETOT 13  -19.921522286874     -3.908E-14 1.258E-11 0.000E+00
 ETOT 14  -19.921522286874      4.263E-14 1.149E-12 0.000E+00
 ETOT 15  -19.921522286874     -7.105E-15 4.743E-13 0.000E+00
 ETOT 16  -19.921522286874     -1.776E-14 4.242E-14 0.000E+00
 ETOT 17  -19.921522286874      2.132E-14 1.791E-14 0.000E+00
 ETOT 18  -19.921522286874      0.000E+00 1.574E-15 0.000E+00
 ETOT 19  -19.921522286874     -3.553E-15 6.774E-16 0.000E+00
 ETOT 20  -19.921522286874      0.000E+00 5.863E-17 0.000E+00
 ETOT 21  -19.921522286874      3.553E-15 2.567E-17 0.000E+00
 ETOT 22  -19.921522286874      3.553E-15 2.193E-18 0.000E+00
 ETOT 23  -19.921522286874     -1.066E-14 9.745E-19 0.000E+00
 ETOT 24  -19.921522286874      3.553E-15 8.227E-20 0.000E+00
 ETOT 25  -19.921522286874      3.553E-15 3.705E-20 0.000E+00
 ETOT 26  -19.921522286874      3.553E-15 9.940E-21 0.000E+00

 At SCF step   26   max residual=  9.94E-21 < tolwfr=  1.00E-20 =>converged.

 ----iterations are completed or convergence reached----

 dfpt_looppert: DFPT cycle converged with prtwf=-1. Will skip output of the 1st-order WFK file.
 dfpt_looppert : ek2=    3.5538373360E+01
          f-sum rule ratio=    1.0252913255E+00
 prteigrs : about to open file /scratch/users/j/a/jabreu/flow_simple_9atoms/flow/w134/t1/tmpdata/tmp_1WF1_EIG
 Expectation of eigenvalue derivatives (hartree) for nkpt=   1  k points:
  (in case of degenerate eigenvalues, averaged derivative)
 kpt#   1, nband= 30, wtk=  1.00000, kpt=  0.5000  0.0000  0.5000 (reduced coord)
  -0.00000    0.00000    0.00000    0.00000   -0.00000    0.00000    0.00000    0.00000
   0.00000    0.00000    0.00000    0.00000    0.00000   -0.00000   -0.00000    0.00000
  -0.00000   -0.00000    0.00000   -0.00000   -0.00000    0.00000   -0.00000   -0.00000
   0.00000    0.00000    0.00000   -0.00000    0.00000    0.00000

 Eight components of 2nd-order total energy (hartree) are
 1,2,3: 0th-order hamiltonian combined with 1st-order wavefunctions
     kin0=   2.21641398E+01 eigvalue=   1.70518939E+00  local=  -1.45727762E+01
 4,5,6: 1st-order hamiltonian combined with 1st and 0th-order wfs
     kin1=  -3.64371859E+01  Hartree=   0.00000000E+00     xc=   0.00000000E+00
 7,8,9: eventually, occupation + non-local contributions
    edocc=   7.25767390E+00     enl0=   3.36729535E+00   enl1=  -3.40585865E+00
 1-9 gives the relaxation energy (to be shifted if some occ is /=2.0)
   erelax=  -1.99215223E+01
  No Ewald or frozen-wf contrib.: the relaxation energy is the total one
 2DEtotal=   -0.1992152229E+02 Ha. Also 2DEtotal=   -0.542092190024E+03 eV
    (  non-var. 2DEtotal :   -1.9921522287E+01 Ha)

 CALCULATION OF EFFECTIVE MASSES
 NOTE : Additional infos (eff. mass eigenvalues, eigenvectors and, if degenerate, average mass) are available in stdout.

 COMMENTS:
 - At k-point ( 0.500, 0.000, 0.500), bands    20 through    21
   are DEGENERATE (effective mass tensor is therefore not defined).
   See Section IIIB Eqs. (67)-(70) and Appendix E of PRB 93 205147 (2016).
 - Angular average effective mass for Frohlich model is to be averaged over degenerate bands. See later.
 - Associated theta integrals calculated with ntheta=   1000 points.

 K-point ( 0.500, 0.000, 0.500) | band =    20
 Transport equivalent effective mass tensor:
             -1.4178952545              0.0298934237             -0.0366118157
              0.0298934237             -1.4390330941              0.0517769240
             -0.0366118157              0.0517769240             -1.4601709301
 Transport equivalent effective mass tensor eigenvalues:
             -1.5235844570             -1.3967574109             -1.3967574108
 Angular average effective mass 1/(<1/m>)=  -1.3600185404
 Angular average effective mass for Frohlich model (<m**0.5>)**2=  -1.3652554709
 Effective masses along directions: (cart. coord. / red. coord. -> eff. mass)
    1:   1.000000  0.000000  0.000000 /   0.948683  0.316228  0.000000 ->  -1.3777575582
    2:   0.000000  1.000000  0.000000 /   0.000000  1.000000  0.000000 ->  -1.5089319005
    3:   0.000000  0.000000  1.000000 /   0.408248  0.408248  0.816497 ->  -1.2918935722
    4:   0.577350  0.577350  0.577350 /   0.585539  0.688047  0.428644 ->  -1.4437254076
    5:   0.000000  0.707107  0.707107 /   0.289489  0.762222  0.578977 ->  -1.3410426034
    6:   0.707107  0.000000  0.707107 /   0.731423  0.422287  0.535439 ->  -1.3666291614
    7:   0.707107  0.707107  0.000000 /   0.616798  0.787122  0.000000 ->  -1.2034184291

 K-point ( 0.500, 0.000, 0.500) | band =    21
 Transport equivalent effective mass tensor:
            -22.7887378731             -3.9853807497              4.8810746269
             -3.9853807497            -19.9706481293             -6.9028819279
              4.8810746269             -6.9028819279            -17.1525583923
 Transport equivalent effective mass tensor eigenvalues:
            -25.6068276301            -25.6068276247             -8.6982891398
 Angular average effective mass 1/(<1/m>)=  -3.0686178046
 Angular average effective mass for Frohlich model (<m**0.5>)**2=  -4.1230403894
 Effective masses along directions: (cart. coord. / red. coord. -> eff. mass)
    1:   1.000000  0.000000  0.000000 /   0.948683  0.316228  0.000000 ->  -4.0435677551
    2:   0.000000  1.000000  0.000000 /   0.000000  1.000000  0.000000 ->  -2.5097675068
    3:   0.000000  0.000000  1.000000 /   0.408248  0.408248  0.816497 ->  -2.6656260300
    4:   0.577350  0.577350  0.577350 /   0.585539  0.688047  0.428644 ->  -4.1085129151
    5:   0.000000  0.707107  0.707107 /   0.289489  0.762222  0.578977 ->  -6.9520881706
    6:   0.707107  0.000000  0.707107 /   0.731423  0.422287  0.535439 ->  -2.0750051733
    7:   0.707107  0.707107  0.000000 /   0.616798  0.787122  0.000000 -> -16.2154199167

 Angular average effective mass for Frohlich model, averaged over degenerate bands.
 Value of     (<<m**0.5>>)**2 =     2.558350E+00
 Absolute Value of <<m**0.5>> =     1.599484E+00

 K-point ( 0.500, 0.000, 0.500) | band =    22
 Effective mass tensor:
              1.4789298110              0.2580962159             -0.3161020167
              0.2580962159              1.2964282265              0.4470357590
             -0.3161020167              0.4470357590              1.1139266420
 Effective mass tensor eigenvalues:
              0.5664218888              1.6614313952              1.6614313955
 Angular average effective mass 1/(<1/m>)=   1.0103562292
 Angular average effective mass for Frohlich model (<m**0.5>)**2=   1.1020340235
 Effective masses along directions: (cart. coord. / red. coord. -> eff. mass)
    1:   1.000000  0.000000  0.000000 /   0.948683  0.316228  0.000000 ->   1.2565651135
    2:   0.000000  1.000000  0.000000 /   0.000000  1.000000  0.000000 ->   1.0103562292
    3:   0.000000  0.000000  1.000000 /   0.408248  0.408248  0.816497 ->   0.8448232348
    4:   0.577350  0.577350  0.577350 /   0.585539  0.688047  0.428644 ->   1.4002539254
    5:   0.000000  0.707107  0.707107 /   0.289489  0.762222  0.578977 ->   1.6348255170
    6:   0.707107  0.000000  0.707107 /   0.731423  0.422287  0.535439 ->   0.7543492470
    7:   0.707107  0.707107  0.000000 /   0.616798  0.787122  0.000000 ->   1.6167438539

 END OF EFFECTIVE MASSES SECTION

 ---- first-order wavefunction calculations are completed ----

 Total localisation tensor (bohr^2) in cartesian coordinates
  WARNING : still subject to testing - especially symmetries.
      direction              matrix element
   alpha     beta       real part   imaginary part
     1        1       1.3313684102    0.0000000000
     1        2       0.3765678524    0.0000000000
     1        3       0.9223990920    0.0000000000
     2        1       0.3765678524    0.0000000000
     2        2       1.0650947281    0.0000000000
     2        3       0.6522346529    0.0000000000
     3        1       0.9223990920    0.0000000000
     3        2       0.6522346529    0.0000000000
     3        3       2.3964631383    0.0000000000

 respfn : d/dk was computed, but no 2DTE, so no DDB output.

== END DATASET(S) ==============================================================

 -outvars: echo values of variables after computation  --------
            acell      1.0000000000E+00  1.0000000000E+00  1.0000000000E+00 Bohr
              amu      1.32905430E+02  1.00794000E+00  1.95080000E+02
             ecut      4.20000000E+01 Hartree
           etotal     -1.9921522287E+01
            fcart      0.0000000000E+00  0.0000000000E+00  0.0000000000E+00
                       0.0000000000E+00  0.0000000000E+00  0.0000000000E+00
                       0.0000000000E+00  0.0000000000E+00  0.0000000000E+00
                       0.0000000000E+00  0.0000000000E+00  0.0000000000E+00
                       0.0000000000E+00  0.0000000000E+00  0.0000000000E+00
                       0.0000000000E+00  0.0000000000E+00  0.0000000000E+00
                       0.0000000000E+00  0.0000000000E+00  0.0000000000E+00
                       0.0000000000E+00  0.0000000000E+00  0.0000000000E+00
                       0.0000000000E+00  0.0000000000E+00  0.0000000000E+00
-          fftalg         512
           irdden           1
           irdwfk           1
           istwfk        1
              ixc     -116133
              kpt      5.00000000E-01  0.00000000E+00  5.00000000E-01
           kptopt           0
P           mkmem           1
P          mkqmem           1
P          mk1mem           1
            natom           9
            nband          30
           nbdbuf           4
            ngfft          72      72      72
             nkpt           1
            nstep        2000
             nsym          48
           ntypat           3
              occ      2.000000  2.000000  2.000000  2.000000  2.000000  2.000000
                       2.000000  2.000000  2.000000  2.000000  2.000000  2.000000
                       2.000000  2.000000  2.000000  2.000000  2.000000  2.000000
                       2.000000  2.000000  2.000000  0.000000  0.000000  0.000000
                       0.000000  0.000000  0.000000  0.000000  0.000000  0.000000
        optdriver           1
            prtwf          -1
            rfdir           1       1       1
           rfelfd           2
            rprim      1.0245826557E+01  0.0000000000E+00  5.9154307206E+00
                       3.4152755189E+00  9.6598579161E+00  5.9154307206E+00
                       0.0000000000E+00  0.0000000000E+00  1.1830861441E+01
          spgroup         225
           strten      0.0000000000E+00  0.0000000000E+00  0.0000000000E+00
                       0.0000000000E+00  0.0000000000E+00  0.0000000000E+00
           symrel      1  0  0   0  1  0   0  0  1      -1  0  0   0 -1  0   0  0 -1
                       0 -1  1   0 -1  0   1 -1  0       0  1 -1   0  1  0  -1  1  0
                      -1  0  0  -1  0  1  -1  1  0       1  0  0   1  0 -1   1 -1  0
                       0  1 -1   1  0 -1   0  0 -1       0 -1  1  -1  0  1   0  0  1
                      -1  0  0  -1  1  0  -1  0  1       1  0  0   1 -1  0   1  0 -1
                       0 -1  1   1 -1  0   0 -1  0       0  1 -1  -1  1  0   0  1  0
                       1  0  0   0  0  1   0  1  0      -1  0  0   0  0 -1   0 -1  0
                       0  1 -1   0  0 -1   1  0 -1       0 -1  1   0  0  1  -1  0  1
                      -1  0  1  -1  1  0  -1  0  0       1  0 -1   1 -1  0   1  0  0
                       0 -1  0   1 -1  0   0 -1  1       0  1  0  -1  1  0   0  1 -1
                       1  0 -1   0  0 -1   0  1 -1      -1  0  1   0  0  1   0 -1  1
                       0  1  0   0  0  1   1  0  0       0 -1  0   0  0 -1  -1  0  0
                       1  0 -1   0  1 -1   0  0 -1      -1  0  1   0 -1  1   0  0  1
                       0 -1  0   0 -1  1   1 -1  0       0  1  0   0  1 -1  -1  1  0
                      -1  0  1  -1  0  0  -1  1  0       1  0 -1   1  0  0   1 -1  0
                       0  1  0   1  0  0   0  0  1       0 -1  0  -1  0  0   0  0 -1
                       0  0 -1   0  1 -1   1  0 -1       0  0  1   0 -1  1  -1  0  1
                       1 -1  0   0 -1  1   0 -1  0      -1  1  0   0  1 -1   0  1  0
                       0  0  1   1  0  0   0  1  0       0  0 -1  -1  0  0   0 -1  0
                      -1  1  0  -1  0  0  -1  0  1       1 -1  0   1  0  0   1  0 -1
                       0  0  1   0  1  0   1  0  0       0  0 -1   0 -1  0  -1  0  0
                       1 -1  0   0 -1  0   0 -1  1      -1  1  0   0  1  0   0  1 -1
                       0  0 -1   1  0 -1   0  1 -1       0  0  1  -1  0  1   0 -1  1
                      -1  1  0  -1  0  1  -1  0  0       1 -1  0   1  0 -1   1  0  0
           tolwfr      1.00000000E-20
            typat      1  1  2  2  2  2  2  2  3
           useylm           1
           xangst      5.4218578970E+00  3.8338324856E+00  9.3909333490E+00
                       1.8072859657E+00  1.2779441619E+00  3.1303111163E+00
                       2.4790397008E+00  4.1617734046E+00  8.2274217495E+00
                       5.8856363923E+00  4.1617734046E+00  6.2606222327E+00
                       4.7501041618E+00  9.5000324282E-01  8.2274217495E+00
                       4.7501041618E+00  9.5000324282E-01  4.2938227158E+00
                       1.3435074703E+00  9.5000324282E-01  6.2606222326E+00
                       2.4790397008E+00  4.1617734046E+00  4.2938227158E+00
                       0.0000000000E+00  0.0000000000E+00  0.0000000000E+00
            xcart      1.0245826557E+01  7.2448934371E+00  1.7746292162E+01
                       3.4152755189E+00  2.4149644790E+00  5.9154307206E+00
                       4.6847061071E+00  7.8646119618E+00  1.5547573886E+01
                       1.1122240899E+01  7.8646119618E+00  1.1830861441E+01
                       8.9763959685E+00  1.7952459543E+00  1.5547573886E+01
                       8.9763959685E+00  1.7952459543E+00  8.1141489960E+00
                       2.5388611763E+00  1.7952459543E+00  1.1830861441E+01
                       4.6847061071E+00  7.8646119618E+00  8.1141489960E+00
                       0.0000000000E+00  0.0000000000E+00  0.0000000000E+00
             xred      7.5000000000E-01  7.5000000000E-01  7.5000000000E-01
                       2.5000000000E-01  2.5000000000E-01  2.5000000000E-01
                       1.8584600000E-01  8.1415400000E-01  8.1415400000E-01
                       8.1415400000E-01  8.1415400000E-01  1.8584600000E-01
                       8.1415400000E-01  1.8584600000E-01  8.1415400000E-01
                       8.1415400000E-01  1.8584600000E-01  1.8584600000E-01
                       1.8584600000E-01  1.8584600000E-01  8.1415400000E-01
                       1.8584600000E-01  8.1415400000E-01  1.8584600000E-01
                       0.0000000000E+00  0.0000000000E+00  0.0000000000E+00
            znucl       55.00000    1.00000   78.00000

- Timing analysis has been suppressed with timopt=0

 Suggested references for the acknowledgment of ABINIT usage.

 Calculation completed.
.Delivered   6 WARNINGs and   5 COMMENTs to log file.