.Version 9.5.2 of ABINIT

 ABINIT is a project of the Universite Catholique de Louvain,
 Corning Inc. and other collaborators, see ~abinit/doc/developers/contributors.txt .
 acknowledgments of the ABINIT effort.

.Starting date : Mon 24 May 2021.
- ( at 11h23 )

- input  file    -> /scratch/users/j/a/jabreu/flow_simple_10atoms/flow/w326/t1/run.abi
- output file    -> /scratch/users/j/a/jabreu/flow_simple_10atoms/flow/w326/t1/run.abo
- root for input  files -> /scratch/users/j/a/jabreu/flow_simple_10atoms/flow/w326/t1/indata/in
- root for output files -> /scratch/users/j/a/jabreu/flow_simple_10atoms/flow/w326/t1/outdata/out

 Symmetries : space group R-3 (#148); Bravais hR (rhombohedral)
     intxc =       0      iscf =       7    lmnmax =      18     lnmax =       6
     mgfft =      72  mpssoang =       3    mqgrid =    3001     natom =      10
  nloc_mem =       1    nspden =       1   nspinor =       1    nsppol =       1
      nsym =       6    n1xccc =    2501    ntypat =       4    occopt =       1
   xclevel =       2
-    mband =          41        mffmem =           1         mkmem =           2
-   mkqmem =           2        mk1mem =           2           mpw =        9990
      nfft =      373248          nkpt =           2
  Rough estimation (10% accuracy) of disk space for files :

------------- Echo of variables that govern the present computation ------------
-
- outvars: echo of selected default values
-   iomode0 =  0 , fftalg0 =512 , wfoptalg0 =  0
-
- outvars: echo of global parameters not present in the input file
-  max_nthreads =    0
-
 -outvars: echo values of preprocessed input variables --------
            acell      1.0000000000E+00  1.0000000000E+00  1.0000000000E+00 Bohr
              amu      4.00780000E+01  2.43050000E+01  1.20110000E+01
                       1.59994000E+01
             ecut      4.40000000E+01 Hartree
-          fftalg         512
           irdden           1
           irdwfk           1
              ixc     -116133
              kpt      5.00000000E-01  6.25398100E-02 -6.25398100E-02
                       4.44444444E-01  4.44444444E-01  4.44444444E-01
           kptopt           0
P           mkmem           2
P          mkqmem           2
P          mk1mem           2
            natom          10
            nband          41
           nbdbuf           4
            ngfft          72      72      72
             nkpt           2
            nstep        2000
             nsym           6
           ntypat           4
              occ      2.000000  2.000000  2.000000  2.000000  2.000000  2.000000
                       2.000000  2.000000  2.000000  2.000000  2.000000  2.000000
                       2.000000  2.000000  2.000000  2.000000  2.000000  2.000000
                       2.000000  2.000000  2.000000  2.000000  2.000000  2.000000
                       2.000000  2.000000  2.000000  2.000000  2.000000  2.000000
                       2.000000  2.000000  0.000000  0.000000  0.000000  0.000000
                       0.000000  0.000000  0.000000  0.000000  0.000000
        optdriver           1
            prtwf          -1
            rfdir           1       1       1
           rfelfd           2
            rprim      8.3221505936E+00  0.0000000000E+00  7.6285772292E+00
                       3.3558422937E+00  7.6155441698E+00  7.6285772292E+00
                       0.0000000000E+00  0.0000000000E+00  1.1289525280E+01
          spgroup         148
           symrel      1  0  0   0  1  0   0  0  1      -1  0  0   0 -1  0   0  0 -1
                       0  0  1   1  0  0   0  1  0       0  0 -1  -1  0  0   0 -1  0
                       0  1  0   0  0  1   1  0  0       0 -1  0   0  0 -1  -1  0  0
           tolwfr      1.00000000E-20
            typat      1  2  3  3  4  4  4  4  4  4
           useylm           1
              wtk        0.50000    0.50000
           xangst      0.0000000000E+00  0.0000000000E+00  0.0000000000E+00
                       3.0898638390E+00  2.0149862028E+00  7.0239489406E+00
                       4.6785605899E+00  3.0510195688E+00  1.0635410624E+01
                       1.5011670881E+00  9.7895283684E-01  3.4124872575E+00
                       1.4551566639E+00  2.9193966401E+00  6.0981563650E+00
                       2.2935929824E+00  1.5438018292E-01  6.5225352970E+00
                       2.0920140936E+00  1.9933734608E+00  8.8545626233E+00
                       4.7245710142E+00  1.1105757656E+00  7.9497415162E+00
                       3.8861346956E+00  3.8755922228E+00  7.5253625841E+00
                       4.0877135844E+00  2.0365989448E+00  5.1933352579E+00
            xcart      0.0000000000E+00  0.0000000000E+00  0.0000000000E+00
                       5.8389964437E+00  3.8077720849E+00  1.3273339869E+01
                       8.8411982111E+00  5.7655914112E+00  2.0098013390E+01
                       2.8367946762E+00  1.8499527586E+00  6.4486663486E+00
                       2.7498475752E+00  5.5168601230E+00  1.1523845445E+01
                       4.3342625970E+00  2.9173626606E-01  1.2325805403E+01
                       3.9533337031E+00  3.7669299215E+00  1.6732698385E+01
                       8.9281453121E+00  2.0986840468E+00  1.5022834293E+01
                       7.3437302903E+00  7.3238079037E+00  1.4220874335E+01
                       7.7246591842E+00  3.8486142483E+00  9.8139813537E+00
             xred      0.0000000000E+00  0.0000000000E+00  0.0000000000E+00
                       5.0000000000E-01  5.0000000000E-01  5.0000000000E-01
                       7.5708200000E-01  7.5708200000E-01  7.5708200000E-01
                       2.4291800000E-01  2.4291800000E-01  2.4291800000E-01
                       3.8308000000E-02  7.2442100000E-01  5.0536300000E-01
                       5.0536300000E-01  3.8308000000E-02  7.2442100000E-01
                       2.7557900000E-01  4.9463700000E-01  9.6169200000E-01
                       9.6169200000E-01  2.7557900000E-01  4.9463700000E-01
                       4.9463700000E-01  9.6169200000E-01  2.7557900000E-01
                       7.2442100000E-01  5.0536300000E-01  3.8308000000E-02
            znucl       20.00000   12.00000    6.00000    8.00000

 chkinp: Checking input parameters for consistency.

== DATASET  1 ==================================================================
-   mpi_nproc: 1, omp_nthreads: -1 (-1 if OMP is not activated)

--- !DatasetInfo
iteration_state: {dtset: 1, }
dimensions: {natom: 10, nkpt: 2, mband: 41, nsppol: 1, nspinor: 1, nspden: 1, mpw: 9990, }
cutoff_energies: {ecut:  44.0, pawecutdg:  -1.0, }
electrons: {nelect:   6.40000000E+01, charge:   0.00000000E+00, occopt:   1.00000000E+00, tsmear:   1.00000000E-02, }
meta: {optdriver: 1, rfelfd: 2, }
...

 Real(R)+Recip(G) space primitive vectors, cartesian coordinates (Bohr,Bohr^-1):
 R(1)=  8.3221506  0.0000000  7.6285772  G(1)=  0.1201612 -0.0529499  0.0000000
 R(2)=  3.3558423  7.6155442  7.6285772  G(2)=  0.0000000  0.1313104  0.0000000
 R(3)=  0.0000000  0.0000000 11.2895253  G(3)= -0.0811956 -0.0529499  0.0885777
 Unit cell volume ucvol=  7.1550421E+02 bohr^3
 Angles (23,13,12)=  4.74897804E+01  4.74897804E+01  4.74897804E+01 degrees

 getcut: wavevector=  0.0000  0.0000  0.0000  ngfft=  72  72  72
         ecut(hartree)=     44.000   => boxcut(ratio)=   2.13605

--- Pseudopotential description ------------------------------------------------
- pspini: atom type   1  psp file is /scratch/users/j/a/jabreu/pseudos/PBEsol/Ca.psp8
- pspatm: opening atomic psp file    /scratch/users/j/a/jabreu/pseudos/PBEsol/Ca.psp8
- Ca    ONCVPSP-3.3.0  r_core=   1.45885   1.45885   1.85192
- 20.00000  10.00000    180112                znucl, zion, pspdat
    8 -116133    2    4       400   0.00000   pspcod,pspxc,lmax,lloc,mmax,r2well
    3.99000000000000    6.00000000000000    0.00000000000000   rchrg,fchrg,qchrg
     nproj     2     2     2
     extension_switch     1
  pspatm : epsatm=   12.46045226
         --- l  ekb(1:nproj) -->
             0   10.054847    0.973777
             1    2.998958    0.458102
             2   -3.447298   -1.091650
 pspatm: atomic psp has been read  and splines computed

- pspini: atom type   2  psp file is /scratch/users/j/a/jabreu/pseudos/PBEsol/Mg.psp8
- pspatm: opening atomic psp file    /scratch/users/j/a/jabreu/pseudos/PBEsol/Mg.psp8
- Mg    ONCVPSP-3.3.0  r_core=   1.16056   1.56380
- 12.00000  10.00000    180112                znucl, zion, pspdat
    8 -116133    1    4       400   0.00000   pspcod,pspxc,lmax,lloc,mmax,r2well
    3.99000000000000    0.00000000000000    0.00000000000000   rchrg,fchrg,qchrg
     nproj     2     2
     extension_switch     1
  pspatm : epsatm=    9.18164846
         --- l  ekb(1:nproj) -->
             0    2.230603   -0.826587
             1   -6.503151   -2.501445
 pspatm: atomic psp has been read  and splines computed

[...]

- pspini: atom type   4  psp file is /scratch/users/j/a/jabreu/pseudos/PBEsol/O.psp8
- pspatm: opening atomic psp file    /scratch/users/j/a/jabreu/pseudos/PBEsol/O.psp8
- O     ONCVPSP-3.3.0  r_core=   1.35509   1.45563   1.26150
-  8.00000   6.00000    180112                znucl, zion, pspdat
    8 -116133    2    4       600   0.00000   pspcod,pspxc,lmax,lloc,mmax,r2well
    5.99000000000000    4.00000000000000    0.00000000000000   rchrg,fchrg,qchrg
     nproj     2     2     1
     extension_switch     1
  pspatm : epsatm=    6.22910522
         --- l  ekb(1:nproj) -->
             0    6.050032    0.820363
             1   -4.739617   -1.153841
             2   -1.335834
 pspatm: atomic psp has been read  and splines computed

   4.33375505E+03                                ecore*ucvol(ha*bohr**3)

 ==>  initialize data related to q vector <==

 The list of irreducible perturbations for this q vector is:
    1)    idir= 1    ipert=  11
    2)    idir= 2    ipert=  11
    3)    idir= 3    ipert=  11

 Perturbation wavevector (in red.coord.)   0.000000  0.000000  0.000000
 Perturbation : derivative vs k along direction   1

 dfpt_looppert : COMMENT -
  In a d/dk calculation, iscf is set to -3 automatically.
 The set of symmetries contains only one element for this perturbation.
 symkpt : not enough symmetry to change the number of k points.

 Initialisation of the first-order wave-functions :
  ireadwf=   0

--- !BeginCycle
iteration_state: {dtset: 1, }
solver: {iscf: 7, nstep: 2000, nline: 4, wfoptalg: 0, }
tolerances: {tolwfr: 1.00E-20, }
...

     iter   2DEtotal(Ha)        deltaE(Ha) residm    vres2
-ETOT  1  -45.048308515678     -4.505E+01 6.056E-02 0.000E+00
 ETOT  2  -45.104614699287     -5.631E-02 1.540E-03 0.000E+00
 ETOT  3  -45.104886782714     -2.721E-04 6.922E-05 0.000E+00
 ETOT  4  -45.104888578916     -1.796E-06 4.013E-06 0.000E+00
 ETOT  5  -45.104888592946     -1.403E-08 2.541E-07 0.000E+00
 ETOT  6  -45.104888593067     -1.202E-10 1.954E-08 0.000E+00
 ETOT  7  -45.104888593068     -1.101E-12 1.359E-09 0.000E+00
 ETOT  8  -45.104888593068      0.000E+00 1.106E-10 0.000E+00
 ETOT  9  -45.104888593068     -2.842E-14 8.070E-12 0.000E+00
 ETOT 10  -45.104888593068      0.000E+00 7.524E-13 0.000E+00
 ETOT 11  -45.104888593068     -2.842E-14 5.715E-14 0.000E+00
 ETOT 12  -45.104888593068      2.132E-14 5.904E-15 0.000E+00
 ETOT 13  -45.104888593068      0.000E+00 4.518E-16 0.000E+00
 ETOT 14  -45.104888593068     -7.105E-15 4.763E-17 0.000E+00
 ETOT 15  -45.104888593068      2.132E-14 3.653E-18 0.000E+00
 ETOT 16  -45.104888593068      7.105E-15 3.925E-19 0.000E+00
 ETOT 17  -45.104888593068     -7.105E-15 3.008E-20 0.000E+00
 ETOT 18  -45.104888593068     -1.421E-14 9.925E-21 0.000E+00

 At SCF step   18   max residual=  9.92E-21 < tolwfr=  1.00E-20 =>converged.

 ----iterations are completed or convergence reached----

 dfpt_looppert: DFPT cycle converged with prtwf=-1. Will skip output of the 1st-order WFK file.
 dfpt_looppert : ek2=    8.7130021992E+01
          f-sum rule ratio=    1.0069346863E+00
 prteigrs : about to open file /scratch/users/j/a/jabreu/flow_simple_10atoms/flow/w326/t1/tmpdata/tmp_1WF1_EIG
 Expectation of eigenvalue derivatives (hartree) for nkpt=   2  k points:
  (in case of degenerate eigenvalues, averaged derivative)
 kpt#   1, nband= 41, wtk=  0.50000, kpt=  0.5000  0.0625 -0.0625 (reduced coord)
  -0.00000    0.00000   -0.00000    0.00000   -0.00000   -0.00026    0.00011    0.01494
  -0.01302   -0.00057    0.00510   -0.01199   -0.00395    0.00980    0.00370   -0.00528
   0.00633   -0.00968    0.00702   -0.00648    0.01048   -0.00648    0.01313    0.00610
  -0.04135    0.01787    0.00466    0.00156   -0.00691    0.00601   -0.00129    0.00246
  -0.00566    0.00026   -0.00347    0.00254    0.00121    0.03969   -0.02228   -0.05763
   0.01735
 prteigrs : prtvol=0 or 1, do not print more k-points.

 Eight components of 2nd-order total energy (hartree) are
 1,2,3: 0th-order hamiltonian combined with 1st-order wavefunctions
     kin0=   6.90844119E+01 eigvalue=   3.32816461E+00  local=  -3.06346089E+01
 4,5,6: 1st-order hamiltonian combined with 1st and 0th-order wfs
     kin1=  -8.77342414E+01  Hartree=   0.00000000E+00     xc=   0.00000000E+00
 7,8,9: eventually, occupation + non-local contributions
    edocc=   8.25439508E+00     enl0=  -4.92747403E+00   enl1=  -2.47553582E+00
 1-9 gives the relaxation energy (to be shifted if some occ is /=2.0)
   erelax=  -4.51048886E+01
  No Ewald or frozen-wf contrib.: the relaxation energy is the total one
 2DEtotal=   -0.4510488859E+02 Ha. Also 2DEtotal=   -0.122736643747E+04 eV
    (  non-var. 2DEtotal :   -4.5104888593E+01 Ha)

 Perturbation wavevector (in red.coord.)   0.000000  0.000000  0.000000
 Perturbation : derivative vs k along direction   2
 The set of symmetries contains only one element for this perturbation.
 symkpt : not enough symmetry to change the number of k points.

[...]

 Perturbation wavevector (in red.coord.)   0.000000  0.000000  0.000000
 Perturbation : derivative vs k along direction   3
 The set of symmetries contains only one element for this perturbation.
 symkpt : not enough symmetry to change the number of k points.

 Initialisation of the first-order wave-functions :
  ireadwf=   0

--- !BeginCycle
iteration_state: {dtset: 1, }
solver: {iscf: 7, nstep: 2000, nline: 4, wfoptalg: 0, }
tolerances: {tolwfr: 1.00E-20, }
...

     iter   2DEtotal(Ha)        deltaE(Ha) residm    vres2
-ETOT  1  -45.538474179941     -4.554E+01 8.376E-02 0.000E+00
 ETOT  2  -45.594061481197     -5.559E-02 3.109E-03 0.000E+00
 ETOT  3  -45.594316830266     -2.553E-04 1.510E-04 0.000E+00
 ETOT  4  -45.594318454683     -1.624E-06 2.292E-05 0.000E+00
 ETOT  5  -45.594318467046     -1.236E-08 1.442E-06 0.000E+00
 ETOT  6  -45.594318467149     -1.027E-10 2.457E-07 0.000E+00
 ETOT  7  -45.594318467150     -9.024E-13 1.640E-08 0.000E+00
 ETOT  8  -45.594318467150     -4.974E-14 2.889E-09 0.000E+00
 ETOT  9  -45.594318467150      4.263E-14 1.951E-10 0.000E+00
 ETOT 10  -45.594318467150     -2.132E-14 3.483E-11 0.000E+00
 ETOT 11  -45.594318467150     -1.421E-14 2.366E-12 0.000E+00
 ETOT 12  -45.594318467150     -7.105E-15 4.249E-13 0.000E+00
 ETOT 13  -45.594318467150      2.132E-14 2.900E-14 0.000E+00
 ETOT 14  -45.594318467150      7.105E-15 5.218E-15 0.000E+00
 ETOT 15  -45.594318467150      7.105E-15 3.576E-16 0.000E+00
 ETOT 16  -45.594318467150     -7.105E-15 6.436E-17 0.000E+00
 ETOT 17  -45.594318467150     -7.105E-15 4.428E-18 0.000E+00
 ETOT 18  -45.594318467150      7.105E-15 7.963E-19 0.000E+00
 ETOT 19  -45.594318467150      2.842E-14 5.497E-20 0.000E+00
 ETOT 20  -45.594318467150     -2.132E-14 9.995E-21 0.000E+00

 At SCF step   20   max residual=  9.99E-21 < tolwfr=  1.00E-20 =>converged.

 ----iterations are completed or convergence reached----

 dfpt_looppert: DFPT cycle converged with prtwf=-1. Will skip output of the 1st-order WFK file.
 dfpt_looppert : ek2=    8.7130021993E+01
          f-sum rule ratio=    1.0210242072E+00
 prteigrs : about to open file /scratch/users/j/a/jabreu/flow_simple_10atoms/flow/w326/t1/tmpdata/tmp_1WF1_EIG
 Expectation of eigenvalue derivatives (hartree) for nkpt=   2  k points:
  (in case of degenerate eigenvalues, averaged derivative)
 kpt#   1, nband= 41, wtk=  0.50000, kpt=  0.5000  0.0625 -0.0625 (reduced coord)
  -0.00000   -0.00001    0.00001   -0.00000   -0.00002   -0.00480    0.00255   -0.02011
  -0.00443    0.05697   -0.00451   -0.02390    0.00005    0.00166   -0.03405   -0.01716
   0.04089   -0.00305    0.00194    0.00869   -0.01881   -0.00376   -0.02326    0.02136
   0.00520    0.02827    0.03318   -0.00378    0.01177   -0.01993   -0.01802   -0.00144
  -0.02508    0.02100   -0.01347    0.00402    0.00741   -0.02011    0.02482   -0.02099
  -0.00096
 prteigrs : prtvol=0 or 1, do not print more k-points.

 Eight components of 2nd-order total energy (hartree) are
 1,2,3: 0th-order hamiltonian combined with 1st-order wavefunctions
     kin0=   6.84334720E+01 eigvalue=   3.35377302E+00  local=  -3.01229878E+01
 4,5,6: 1st-order hamiltonian combined with 1st and 0th-order wfs
     kin1=  -8.89618616E+01  Hartree=   0.00000000E+00     xc=   0.00000000E+00
 7,8,9: eventually, occupation + non-local contributions
    edocc=   8.78929688E+00     enl0=  -4.85923555E+00   enl1=  -2.22677531E+00
 1-9 gives the relaxation energy (to be shifted if some occ is /=2.0)
   erelax=  -4.55943185E+01
  No Ewald or frozen-wf contrib.: the relaxation energy is the total one
 2DEtotal=   -0.4559431847E+02 Ha. Also 2DEtotal=   -0.124068450164E+04 eV
    (  non-var. 2DEtotal :   -4.5594318467E+01 Ha)

 CALCULATION OF EFFECTIVE MASSES
 NOTE : Additional infos (eff. mass eigenvalues, eigenvectors and, if degenerate, average mass) are available in stdout.

 K-point ( 0.500, 0.063,-0.063) | band =    32
 Effective mass tensor:
             -8.8348578478             -7.9551582493            -14.8283679822
             -7.9551582493            -12.1598525863             -9.8998770084
            -14.8283679822             -9.8998770084            -51.1908994817
 Effective mass tensor eigenvalues:
            -58.8880906910            -11.7747177182             -1.5228015067
 Angular average effective mass 1/(<1/m>)=  -3.9546872339
 Angular average effective mass for Frohlich model (<m**0.5>)**2=  -6.7024884292
 Effective masses along directions: (cart. coord. / red. coord. -> eff. mass)
    1:   1.000000  0.000000  0.000000 /   0.927436  0.373981  0.000000 ->  -2.0132780053
    2:   0.000000  1.000000  0.000000 /   0.000000  1.000000  0.000000 ->  -4.5437599959
    3:   0.000000  0.000000  1.000000 /   0.488526  0.488526  0.722969 -> -23.9182641721
    4:   0.577350  0.577350  0.577350 /   0.591239  0.689437  0.418464 -> -22.9517137616
    5:   0.000000  0.707107  0.707107 /   0.373112  0.745586  0.552168 ->  -6.2566838784
    6:   0.707107  0.000000  0.707107 /   0.711536  0.489997  0.503607 ->  -5.7778043336
    7:   0.707107  0.707107  0.000000 /   0.604342  0.796725  0.000000 ->  -8.9488549713

 K-point ( 0.444, 0.444, 0.444) | band =    33
 Effective mass tensor:
              1.9799867325              0.3738999540              1.3033608885
              0.3738999540              1.6504635300              0.8499579152
              1.3033608885              0.8499579152              4.3694626911
 Effective mass tensor eigenvalues:
              1.4066329591              1.4066329619              5.1866470326
 Angular average effective mass 1/(<1/m>)=   1.8580018335
 Angular average effective mass for Frohlich model (<m**0.5>)**2=   2.0200452950
 Effective masses along directions: (cart. coord. / red. coord. -> eff. mass)
    1:   1.000000  0.000000  0.000000 /   0.927436  0.373981  0.000000 ->   1.5814534770
    2:   0.000000  1.000000  0.000000 /   0.000000  1.000000  0.000000 ->   1.4760225732
    3:   0.000000  0.000000  1.000000 /   0.488526  0.488526  0.722969 ->   3.2807140504
    4:   0.577350  0.577350  0.577350 /   0.591239  0.689437  0.418464 ->   3.2543543447
    5:   0.000000  0.707107  0.707107 /   0.373112  0.745586  0.552168 ->   2.6691366780
    6:   0.707107  0.000000  0.707107 /   0.711536  0.489997  0.503607 ->   3.4491906258
    7:   0.707107  0.707107  0.000000 /   0.604342  0.796725  0.000000 ->   1.6565513293

 END OF EFFECTIVE MASSES SECTION

 ---- first-order wavefunction calculations are completed ----

 Total localisation tensor (bohr^2) in cartesian coordinates
  WARNING : still subject to testing - especially symmetries.
      direction              matrix element
   alpha     beta       real part   imaginary part
     1        1       0.7733839807    0.0000000000
     1        2       0.2538011003    0.0000000000
     1        3       0.8606466522    0.0000000000
     2        1       0.2538011003    0.0000000000
     2        2       0.5759607635    0.0000000000
     2        3       0.5769464489    0.0000000000
     3        1       0.8606466522    0.0000000000
     3        2       0.5769464489    0.0000000000
     3        3       2.3891243700    0.0000000000

 respfn : d/dk was computed, but no 2DTE, so no DDB output.

== END DATASET(S) ==============================================================

 -outvars: echo values of variables after computation  --------
            acell      1.0000000000E+00  1.0000000000E+00  1.0000000000E+00 Bohr
              amu      4.00780000E+01  2.43050000E+01  1.20110000E+01
                       1.59994000E+01
             ecut      4.40000000E+01 Hartree
           etotal     -4.5594318467E+01
            fcart      0.0000000000E+00  0.0000000000E+00  0.0000000000E+00
                       0.0000000000E+00  0.0000000000E+00  0.0000000000E+00
                       0.0000000000E+00  0.0000000000E+00  0.0000000000E+00
                       0.0000000000E+00  0.0000000000E+00  0.0000000000E+00
                       0.0000000000E+00  0.0000000000E+00  0.0000000000E+00
                       0.0000000000E+00  0.0000000000E+00  0.0000000000E+00
                       0.0000000000E+00  0.0000000000E+00  0.0000000000E+00
                       0.0000000000E+00  0.0000000000E+00  0.0000000000E+00
                       0.0000000000E+00  0.0000000000E+00  0.0000000000E+00
                       0.0000000000E+00  0.0000000000E+00  0.0000000000E+00
-          fftalg         512
           irdden           1
           irdwfk           1
              ixc     -116133
              kpt      5.00000000E-01  6.25398100E-02 -6.25398100E-02
                       4.44444444E-01  4.44444444E-01  4.44444444E-01
           kptopt           0
P           mkmem           2
P          mkqmem           2
P          mk1mem           2
            natom          10
            nband          41
           nbdbuf           4
            ngfft          72      72      72
             nkpt           2
            nstep        2000
             nsym           6
           ntypat           4
              occ      2.000000  2.000000  2.000000  2.000000  2.000000  2.000000
                       2.000000  2.000000  2.000000  2.000000  2.000000  2.000000
                       2.000000  2.000000  2.000000  2.000000  2.000000  2.000000
                       2.000000  2.000000  2.000000  2.000000  2.000000  2.000000
                       2.000000  2.000000  2.000000  2.000000  2.000000  2.000000
                       2.000000  2.000000  0.000000  0.000000  0.000000  0.000000
                       0.000000  0.000000  0.000000  0.000000  0.000000
        optdriver           1
            prtwf          -1
            rfdir           1       1       1
           rfelfd           2
            rprim      8.3221505936E+00  0.0000000000E+00  7.6285772292E+00
                       3.3558422937E+00  7.6155441698E+00  7.6285772292E+00
                       0.0000000000E+00  0.0000000000E+00  1.1289525280E+01
          spgroup         148
           strten      0.0000000000E+00  0.0000000000E+00  0.0000000000E+00
                       0.0000000000E+00  0.0000000000E+00  0.0000000000E+00
           symrel      1  0  0   0  1  0   0  0  1      -1  0  0   0 -1  0   0  0 -1
                       0  0  1   1  0  0   0  1  0       0  0 -1  -1  0  0   0 -1  0
                       0  1  0   0  0  1   1  0  0       0 -1  0   0  0 -1  -1  0  0
           tolwfr      1.00000000E-20
            typat      1  2  3  3  4  4  4  4  4  4
           useylm           1
              wtk        0.50000    0.50000
           xangst      0.0000000000E+00  0.0000000000E+00  0.0000000000E+00
                       3.0898638390E+00  2.0149862028E+00  7.0239489406E+00
                       4.6785605899E+00  3.0510195688E+00  1.0635410624E+01
                       1.5011670881E+00  9.7895283684E-01  3.4124872575E+00
                       1.4551566639E+00  2.9193966401E+00  6.0981563650E+00
                       2.2935929824E+00  1.5438018292E-01  6.5225352970E+00
                       2.0920140936E+00  1.9933734608E+00  8.8545626233E+00
                       4.7245710142E+00  1.1105757656E+00  7.9497415162E+00
                       3.8861346956E+00  3.8755922228E+00  7.5253625841E+00
                       4.0877135844E+00  2.0365989448E+00  5.1933352579E+00
            xcart      0.0000000000E+00  0.0000000000E+00  0.0000000000E+00
                       5.8389964437E+00  3.8077720849E+00  1.3273339869E+01
                       8.8411982111E+00  5.7655914112E+00  2.0098013390E+01
                       2.8367946762E+00  1.8499527586E+00  6.4486663486E+00
                       2.7498475752E+00  5.5168601230E+00  1.1523845445E+01
                       4.3342625970E+00  2.9173626606E-01  1.2325805403E+01
                       3.9533337031E+00  3.7669299215E+00  1.6732698385E+01
                       8.9281453121E+00  2.0986840468E+00  1.5022834293E+01
                       7.3437302903E+00  7.3238079037E+00  1.4220874335E+01
                       7.7246591842E+00  3.8486142483E+00  9.8139813537E+00
             xred      0.0000000000E+00  0.0000000000E+00  0.0000000000E+00
                       5.0000000000E-01  5.0000000000E-01  5.0000000000E-01
                       7.5708200000E-01  7.5708200000E-01  7.5708200000E-01
                       2.4291800000E-01  2.4291800000E-01  2.4291800000E-01
                       3.8308000000E-02  7.2442100000E-01  5.0536300000E-01
                       5.0536300000E-01  3.8308000000E-02  7.2442100000E-01
                       2.7557900000E-01  4.9463700000E-01  9.6169200000E-01
                       9.6169200000E-01  2.7557900000E-01  4.9463700000E-01
                       4.9463700000E-01  9.6169200000E-01  2.7557900000E-01
                       7.2442100000E-01  5.0536300000E-01  3.8308000000E-02
            znucl       20.00000   12.00000    6.00000    8.00000

- Timing analysis has been suppressed with timopt=0

 Suggested references for the acknowledgment of ABINIT usage.

 Calculation completed.
.Delivered   2 WARNINGs and   5 COMMENTs to log file.