.Version 9.5.2 of ABINIT

 ABINIT is a project of the Universite Catholique de Louvain,
 Corning Inc. and other collaborators, see ~abinit/doc/developers/contributors.txt .
 acknowledgments of the ABINIT effort.

.Starting date : Mon 24 May 2021.
- ( at 23h23 )

- input  file    -> /scratch/users/j/a/jabreu/flow_simple_10atoms/flow/w500/t1/run.abi
- output file    -> /scratch/users/j/a/jabreu/flow_simple_10atoms/flow/w500/t1/run.abo
- root for input  files -> /scratch/users/j/a/jabreu/flow_simple_10atoms/flow/w500/t1/indata/in
- root for output files -> /scratch/users/j/a/jabreu/flow_simple_10atoms/flow/w500/t1/outdata/out

 Symmetries : space group Fm -3 m (#225); Bravais cF (face-center cubic)
     intxc =       0      iscf =       7    lmnmax =      32     lnmax =       8
     mgfft =      75  mpssoang =       4    mqgrid =    3001     natom =      10
  nloc_mem =       1    nspden =       1   nspinor =       1    nsppol =       1
      nsym =      48    n1xccc =    2501    ntypat =       4    occopt =       1
   xclevel =       2
-    mband =          49        mffmem =           1         mkmem =           1
-   mkqmem =           1        mk1mem =           1           mpw =       18149
      nfft =      421875          nkpt =           1
  Rough estimation (10% accuracy) of disk space for files :

------------- Echo of variables that govern the present computation ------------
-
- outvars: echo of selected default values
-   iomode0 =  0 , fftalg0 =512 , wfoptalg0 =  0
-
- outvars: echo of global parameters not present in the input file
-  max_nthreads =    0
-
 -outvars: echo values of preprocessed input variables --------
            acell      1.0000000000E+00  1.0000000000E+00  1.0000000000E+00 Bohr
              amu      1.32905430E+02  3.90983000E+01  8.89058500E+01
                       1.89984032E+01
             ecut      4.20000000E+01 Hartree
-          fftalg         512
           irdden           1
           irdwfk           1
           istwfk        1
              ixc     -116133
           kptopt           0
P           mkmem           1
P          mkqmem           1
P          mk1mem           1
            natom          10
            nband          49
           nbdbuf           4
            ngfft          75      75      75
             nkpt           1
            nstep        2000
             nsym          48
           ntypat           4
              occ      2.000000  2.000000  2.000000  2.000000  2.000000  2.000000
                       2.000000  2.000000  2.000000  2.000000  2.000000  2.000000
                       2.000000  2.000000  2.000000  2.000000  2.000000  2.000000
                       2.000000  2.000000  2.000000  2.000000  2.000000  2.000000
                       2.000000  2.000000  2.000000  2.000000  2.000000  2.000000
                       2.000000  2.000000  2.000000  2.000000  2.000000  2.000000
                       2.000000  2.000000  2.000000  2.000000  0.000000  0.000000
                       0.000000  0.000000  0.000000  0.000000  0.000000  0.000000
                       0.000000
        optdriver           1
            prtwf          -1
            rfdir           1       1       1
           rfelfd           2
            rprim      1.0866310631E+01  0.0000000000E+00  6.2736673681E+00
                       3.6221035438E+00  1.0244855912E+01  6.2736673681E+00
                       0.0000000000E+00  0.0000000000E+00  1.2547334736E+01
          spgroup         225
           symrel      1  0  0   0  1  0   0  0  1      -1  0  0   0 -1  0   0  0 -1
                       0 -1  1   0 -1  0   1 -1  0       0  1 -1   0  1  0  -1  1  0
                      -1  0  0  -1  0  1  -1  1  0       1  0  0   1  0 -1   1 -1  0
                       0  1 -1   1  0 -1   0  0 -1       0 -1  1  -1  0  1   0  0  1
                      -1  0  0  -1  1  0  -1  0  1       1  0  0   1 -1  0   1  0 -1
                       0 -1  1   1 -1  0   0 -1  0       0  1 -1  -1  1  0   0  1  0
                       1  0  0   0  0  1   0  1  0      -1  0  0   0  0 -1   0 -1  0
                       0  1 -1   0  0 -1   1  0 -1       0 -1  1   0  0  1  -1  0  1
                      -1  0  1  -1  1  0  -1  0  0       1  0 -1   1 -1  0   1  0  0
                       0 -1  0   1 -1  0   0 -1  1       0  1  0  -1  1  0   0  1 -1
                       1  0 -1   0  0 -1   0  1 -1      -1  0  1   0  0  1   0 -1  1
                       0  1  0   0  0  1   1  0  0       0 -1  0   0  0 -1  -1  0  0
                       1  0 -1   0  1 -1   0  0 -1      -1  0  1   0 -1  1   0  0  1
                       0 -1  0   0 -1  1   1 -1  0       0  1  0   0  1 -1  -1  1  0
                      -1  0  1  -1  0  0  -1  1  0       1  0 -1   1  0  0   1 -1  0
                       0  1  0   1  0  0   0  0  1       0 -1  0  -1  0  0   0  0 -1
                       0  0 -1   0  1 -1   1  0 -1       0  0  1   0 -1  1  -1  0  1
                       1 -1  0   0 -1  1   0 -1  0      -1  1  0   0  1 -1   0  1  0
                       0  0  1   1  0  0   0  1  0       0  0 -1  -1  0  0   0 -1  0
                      -1  1  0  -1  0  0  -1  0  1       1 -1  0   1  0  0   1  0 -1
                       0  0  1   0  1  0   1  0  0       0  0 -1   0 -1  0  -1  0  0
                       1 -1  0   0 -1  0   0 -1  1      -1  1  0   0  1  0   0  1 -1
                       0  0 -1   1  0 -1   0  1 -1       0  0  1  -1  0  1   0 -1  1
                      -1  1  0  -1  0  1  -1  0  0       1 -1  0   1  0 -1   1  0  0
           tolwfr      1.00000000E-20
            typat      1  1  2  3  4  4  4  4  4  4
           useylm           1
           xangst      5.7502039276E+00  4.0660081904E+00  9.9596453565E+00
                       1.9167346425E+00  1.3553360635E+00  3.3198817855E+00
                       0.0000000000E+00  0.0000000000E+00  0.0000000000E+00
                       3.8334692851E+00  2.7106721269E+00  6.6397635710E+00
                       4.7138370068E+00  1.4656441550E+00  5.1149219476E+00
                       5.5942047285E+00  3.9557000989E+00  6.6397635710E+00
                       2.0727338416E+00  1.4656441550E+00  6.6397635710E+00
                       4.7138370068E+00  1.4656441550E+00  8.1646051943E+00
                       2.9531015633E+00  3.9557000989E+00  8.1646051943E+00
                       2.9531015633E+00  3.9557000989E+00  5.1149219476E+00
            xcart      1.0866310631E+01  7.6836419339E+00  1.8821002104E+01
                       3.6221035438E+00  2.5612139780E+00  6.2736673681E+00
                       0.0000000000E+00  0.0000000000E+00  0.0000000000E+00
                       7.2442070876E+00  5.1224279560E+00  1.2547334736E+01
                       8.9078609779E+00  2.7696660612E+00  9.6658016721E+00
                       1.0571514868E+01  7.4751898507E+00  1.2547334736E+01
                       3.9168993070E+00  2.7696660612E+00  1.2547334736E+01
                       8.9078609779E+00  2.7696660612E+00  1.5428867800E+01
                       5.5805531973E+00  7.4751898507E+00  1.5428867800E+01
                       5.5805531973E+00  7.4751898507E+00  9.6658016721E+00
             xred      7.5000000000E-01  7.5000000000E-01  7.5000000000E-01
                       2.5000000000E-01  2.5000000000E-01  2.5000000000E-01
                       0.0000000000E+00  0.0000000000E+00  0.0000000000E+00
                       5.0000000000E-01  5.0000000000E-01  5.0000000000E-01
                       7.2965300000E-01  2.7034700000E-01  2.7034700000E-01
                       7.2965300000E-01  7.2965300000E-01  2.7034700000E-01
                       2.7034700000E-01  2.7034700000E-01  7.2965300000E-01
                       7.2965300000E-01  2.7034700000E-01  7.2965300000E-01
                       2.7034700000E-01  7.2965300000E-01  7.2965300000E-01
                       2.7034700000E-01  7.2965300000E-01  2.7034700000E-01
            znucl       55.00000   19.00000   39.00000    9.00000

 chkinp: Checking input parameters for consistency.

== DATASET  1 ==================================================================
-   mpi_nproc: 1, omp_nthreads: -1 (-1 if OMP is not activated)

--- !DatasetInfo
iteration_state: {dtset: 1, }
dimensions: {natom: 10, nkpt: 1, mband: 49, nsppol: 1, nspinor: 1, nspden: 1, mpw: 18149, }
cutoff_energies: {ecut:  42.0, pawecutdg:  -1.0, }
electrons: {nelect:   8.00000000E+01, charge:   0.00000000E+00, occopt:   1.00000000E+00, tsmear:   1.00000000E-02, }
meta: {optdriver: 1, rfelfd: 2, }
...

 Real(R)+Recip(G) space primitive vectors, cartesian coordinates (Bohr,Bohr^-1):
 R(1)= 10.8663106  0.0000000  6.2736674  G(1)=  0.0920276 -0.0325367  0.0000000
 R(2)=  3.6221035 10.2448559  6.2736674  G(2)=  0.0000000  0.0976100  0.0000000
 R(3)=  0.0000000  0.0000000 12.5473347  G(3)= -0.0460138 -0.0325367  0.0796982
 Unit cell volume ucvol=  1.3968168E+03 bohr^3
 Angles (23,13,12)=  6.00000000E+01  6.00000000E+01  6.00000000E+01 degrees

 getcut: wavevector=  0.0000  0.0000  0.0000  ngfft=  75  75  75
         ecut(hartree)=     42.000   => boxcut(ratio)=   2.02195

--- Pseudopotential description ------------------------------------------------
- pspini: atom type   1  psp file is /scratch/users/j/a/jabreu/pseudos/PBEsol/Cs.psp8
- pspatm: opening atomic psp file    /scratch/users/j/a/jabreu/pseudos/PBEsol/Cs.psp8
- Cs    ONCVPSP-3.3.0  r_core=   2.27353   1.85623   2.01788   1.90105
- 55.00000   9.00000    180112                znucl, zion, pspdat
    8 -116133    3    4       600   0.00000   pspcod,pspxc,lmax,lloc,mmax,r2well
    5.99000000000000    5.00000000000000    0.00000000000000   rchrg,fchrg,qchrg
     nproj     2     2     2     2
     extension_switch     1
  pspatm : epsatm=   22.12462445
         --- l  ekb(1:nproj) -->
             0    6.214110    0.767882
             1    6.311966    0.793598
             2    3.769790    0.913105
             3   -9.247129   -2.432478
 pspatm: atomic psp has been read  and splines computed

- pspini: atom type   2  psp file is /scratch/users/j/a/jabreu/pseudos/PBEsol/K.psp8
- pspatm: opening atomic psp file    /scratch/users/j/a/jabreu/pseudos/PBEsol/K.psp8
- K     ONCVPSP-3.3.0  r_core=   1.36296   1.46408   1.61068
- 19.00000   9.00000    180112                znucl, zion, pspdat
    8 -116133    2    4       400   0.00000   pspcod,pspxc,lmax,lloc,mmax,r2well
    3.99000000000000    5.00000000000000    0.00000000000000   rchrg,fchrg,qchrg
     nproj     2     2     2
     extension_switch     1
  pspatm : epsatm=    8.32487830
         --- l  ekb(1:nproj) -->
             0   10.921326    0.816676
             1    4.431000    0.560368
             2   -3.384038   -1.043186
 pspatm: atomic psp has been read  and splines computed

[...]

- pspini: atom type   4  psp file is /scratch/users/j/a/jabreu/pseudos/PBEsol/F.psp8
- pspatm: opening atomic psp file    /scratch/users/j/a/jabreu/pseudos/PBEsol/F.psp8
- F     ONCVPSP-3.3.0  r_core=   1.30942   1.45782   1.60379
-  9.00000   7.00000    180112                znucl, zion, pspdat
    8 -116133    2    4       600   0.00000   pspcod,pspxc,lmax,lloc,mmax,r2well
[...]
 The set of symmetries contains only one element for this perturbation.
 symkpt : not enough symmetry to change the number of k points.

 Initialisation of the first-order wave-functions :
  ireadwf=   0

--- !BeginCycle
iteration_state: {dtset: 1, }
solver: {iscf: 7, nstep: 2000, nline: 4, wfoptalg: 0, }
tolerances: {tolwfr: 1.00E-20, }
...

     iter   2DEtotal(Ha)        deltaE(Ha) residm    vres2
-ETOT  1  -33.176757375607     -3.318E+01 2.483E-02 0.000E+00
 ETOT  2  -33.226262324227     -4.950E-02 4.446E-04 0.000E+00
 ETOT  3  -33.226685938558     -4.236E-04 2.015E-05 0.000E+00
 ETOT  4  -33.226692617219     -6.679E-06 3.128E-06 0.000E+00
 ETOT  5  -33.226692855878     -2.387E-07 1.977E-07 0.000E+00
 ETOT  6  -33.226692870218     -1.434E-08 4.522E-08 0.000E+00
 ETOT  7  -33.226692871169     -9.510E-10 2.485E-09 0.000E+00
 ETOT  8  -33.226692871235     -6.515E-11 7.163E-10 0.000E+00
 ETOT  9  -33.226692871239     -4.569E-12 4.064E-11 0.000E+00
 ETOT 10  -33.226692871239     -2.984E-13 1.201E-11 0.000E+00
 ETOT 11  -33.226692871239     -4.974E-14 6.999E-13 0.000E+00
 ETOT 12  -33.226692871239      1.421E-14 2.158E-13 0.000E+00
 ETOT 13  -33.226692871239     -3.553E-14 2.046E-14 0.000E+00
 ETOT 14  -33.226692871239      4.263E-14 5.160E-15 0.000E+00
 ETOT 15  -33.226692871239     -2.132E-14 4.913E-16 0.000E+00
 ETOT 16  -33.226692871239      2.132E-14 1.242E-16 0.000E+00
 ETOT 17  -33.226692871239      0.000E+00 1.213E-17 0.000E+00
 ETOT 18  -33.226692871239     -7.105E-15 3.033E-18 0.000E+00
 ETOT 19  -33.226692871239      0.000E+00 3.042E-19 0.000E+00
 ETOT 20  -33.226692871239      0.000E+00 7.499E-20 0.000E+00
 ETOT 21  -33.226692871239      0.000E+00 9.946E-21 0.000E+00

 At SCF step   21   max residual=  9.95E-21 < tolwfr=  1.00E-20 =>converged.

 ----iterations are completed or convergence reached----

 dfpt_looppert: DFPT cycle converged with prtwf=-1. Will skip output of the 1st-order WFK file.
 dfpt_looppert : ek2=    6.0182193127E+01
          f-sum rule ratio=    1.0558379836E+00
 prteigrs : about to open file /scratch/users/j/a/jabreu/flow_simple_10atoms/flow/w500/t1/tmpdata/tmp_1WF1_EIG
 Expectation of eigenvalue derivatives (hartree) for nkpt=   1  k points:
  (in case of degenerate eigenvalues, averaged derivative)
 kpt#   1, nband= 49, wtk=  1.00000, kpt=  0.0000  0.0000  0.0000 (reduced coord)
  -0.00000   -0.00000    0.00000    0.00000    0.00000    0.00000   -0.00000   -0.00000
  -0.00000   -0.00000   -0.00000   -0.00000   -0.00000   -0.00000   -0.00000   -0.00000
  -0.00000   -0.00000   -0.00000    0.00000    0.00000    0.00000   -0.00000   -0.00000
   0.00000   -0.00000   -0.00000   -0.00000   -0.00000   -0.00000   -0.00000    0.00000
   0.00000    0.00000   -0.00000   -0.00000   -0.00000   -0.00000   -0.00000   -0.00000
  -0.00000    0.00000    0.00000   -0.00000   -0.00000   -0.00000    0.00000    0.00000
   0.00000

 Eight components of 2nd-order total energy (hartree) are
 1,2,3: 0th-order hamiltonian combined with 1st-order wavefunctions
     kin0=   4.38722044E+01 eigvalue=   2.84543830E+00  local=  -2.30033919E+01
 4,5,6: 1st-order hamiltonian combined with 1st and 0th-order wfs
     kin1=  -6.35426454E+01  Hartree=   0.00000000E+00     xc=   0.00000000E+00
 7,8,9: eventually, occupation + non-local contributions
    edocc=   6.67800760E+00     enl0=   2.83443452E+00   enl1=  -2.91074030E+00
 1-9 gives the relaxation energy (to be shifted if some occ is /=2.0)
   erelax=  -3.32266929E+01
  No Ewald or frozen-wf contrib.: the relaxation energy is the total one
 2DEtotal=   -0.3322669287E+02 Ha. Also 2DEtotal=   -0.904144294118E+03 eV
    (  non-var. 2DEtotal :   -3.3226692871E+01 Ha)

 CALCULATION OF EFFECTIVE MASSES
 NOTE : Additional infos (eff. mass eigenvalues, eigenvectors and, if degenerate, average mass) are available in stdout.

 COMMENTS:
 - At k-point ( 0.000, 0.000, 0.000), bands    38 through    40
   are DEGENERATE (effective mass tensor is therefore not defined).
   See Section IIIB Eqs. (67)-(70) and Appendix E of PRB 93 205147 (2016).
 - Angular average effective mass for Frohlich model is to be averaged over degenerate bands. See later.
 - Associated theta integrals calculated with ntheta=   1000 points.

 K-point ( 0.000, 0.000, 0.000) | band =    38
 Transport equivalent effective mass tensor:
             -5.8772679043             -0.0000031059             -0.0000000010
             -0.0000031059             -5.8772678756             -0.0000000043
             -0.0000000010             -0.0000000043             -5.8772491677
 Transport equivalent effective mass tensor eigenvalues:
             -5.8772709959             -5.8772647840             -5.8772491677
 Angular average effective mass 1/(<1/m>)=  -5.2218128638
 Angular average effective mass for Frohlich model (<m**0.5>)**2=  -5.2428216268
 Effective masses along directions: (cart. coord. / red. coord. -> eff. mass)
    1:   1.000000  0.000000  0.000000 /   0.948683  0.316228  0.000000 ->  -5.7623462967
    2:   0.000000  1.000000  0.000000 /   0.000000  1.000000  0.000000 ->  -6.9716565229
    3:   0.000000  0.000000  1.000000 /   0.408248  0.408248  0.816497 ->  -4.9105564784
    4:   0.577350  0.577350  0.577350 /   0.585539  0.688047  0.428644 ->  -5.3970683894
    5:   0.000000  0.707107  0.707107 /   0.289489  0.762222  0.578977 ->  -4.9495716925
    6:   0.707107  0.000000  0.707107 /   0.731423  0.422287  0.535439 ->  -5.1247389641
    7:   0.707107  0.707107  0.000000 /   0.616798  0.787122  0.000000 ->  -4.9736267739

[...]

 K-point ( 0.000, 0.000, 0.000) | band =    40
 Transport equivalent effective mass tensor:
           -171.4754979726             -0.0000001130             -0.0000000852
             -0.0000001130           -171.4754981375             -0.0000001252
             -0.0000000852             -0.0000001252           -171.4754986497
 Transport equivalent effective mass tensor eigenvalues:
           -171.4754986953           -171.4754981498           -171.4754979146
 Angular average effective mass 1/(<1/m>)= -14.6150656598
 Angular average effective mass for Frohlich model (<m**0.5>)**2= -18.3731346484
 Effective masses along directions: (cart. coord. / red. coord. -> eff. mass)
    1:   1.000000  0.000000  0.000000 /   0.948683  0.316228  0.000000 -> -13.2724928080
    2:   0.000000  1.000000  0.000000 /   0.000000  1.000000  0.000000 ->  -7.5722469190
    3:   0.000000  0.000000  1.000000 /   0.408248  0.408248  0.816497 ->  -9.8078918195
    4:   0.577350  0.577350  0.577350 /   0.585539  0.688047  0.428644 -> -12.6674499619
    5:   0.000000  0.707107  0.707107 /   0.289489  0.762222  0.578977 -> -22.1633314307
    6:   0.707107  0.000000  0.707107 /   0.731423  0.422287  0.535439 -> -11.9465855234
    7:   0.707107  0.707107  0.000000 /   0.616798  0.787122  0.000000 -> -58.4052120240

 Angular average effective mass for Frohlich model, averaged over degenerate bands.
 Value of     (<<m**0.5>>)**2 =     9.214729E+00
 Absolute Value of <<m**0.5>> =     3.035577E+00

 K-point ( 0.000, 0.000, 0.000) | band =    41
 Effective mass tensor:
              0.4697040971              0.0000000000              0.0000000001
              0.0000000000              0.4697040971              0.0000000001
              0.0000000001              0.0000000001              0.4697040973
 Effective mass tensor eigenvalues:
              0.4697040970              0.4697040971              0.4697040973
 Angular average effective mass 1/(<1/m>)=   0.4697040972
 Angular average effective mass for Frohlich model (<m**0.5>)**2=   0.4697040972
 Effective masses along directions: (cart. coord. / red. coord. -> eff. mass)
    1:   1.000000  0.000000  0.000000 /   0.948683  0.316228  0.000000 ->   0.4697040971
    2:   0.000000  1.000000  0.000000 /   0.000000  1.000000  0.000000 ->   0.4697040971
    3:   0.000000  0.000000  1.000000 /   0.408248  0.408248  0.816497 ->   0.4697040973
    4:   0.577350  0.577350  0.577350 /   0.585539  0.688047  0.428644 ->   0.4697040973
    5:   0.000000  0.707107  0.707107 /   0.289489  0.762222  0.578977 ->   0.4697040973
    6:   0.707107  0.000000  0.707107 /   0.731423  0.422287  0.535439 ->   0.4697040973
    7:   0.707107  0.707107  0.000000 /   0.616798  0.787122  0.000000 ->   0.4697040971

 END OF EFFECTIVE MASSES SECTION

 ---- first-order wavefunction calculations are completed ----

 Total localisation tensor (bohr^2) in cartesian coordinates
  WARNING : still subject to testing - especially symmetries.
      direction              matrix element
   alpha     beta       real part   imaginary part
     1        1       0.8423341226    0.0000000000
     1        2       0.2382480680    0.0000000000
     1        3       0.5835861989    0.0000000000
     2        1       0.2382480680    0.0000000000
     2        2       0.6738672981    0.0000000000
     2        3       0.4126577587    0.0000000000
     3        1       0.5835861989    0.0000000000
     3        2       0.4126577587    0.0000000000
     3        3       1.5162014207    0.0000000000

 respfn : d/dk was computed, but no 2DTE, so no DDB output.

== END DATASET(S) ==============================================================

 -outvars: echo values of variables after computation  --------
            acell      1.0000000000E+00  1.0000000000E+00  1.0000000000E+00 Bohr
              amu      1.32905430E+02  3.90983000E+01  8.89058500E+01
                       1.89984032E+01
             ecut      4.20000000E+01 Hartree
           etotal     -3.3226692871E+01
            fcart      0.0000000000E+00  0.0000000000E+00  0.0000000000E+00
                       0.0000000000E+00  0.0000000000E+00  0.0000000000E+00
                       0.0000000000E+00  0.0000000000E+00  0.0000000000E+00
                       0.0000000000E+00  0.0000000000E+00  0.0000000000E+00
                       0.0000000000E+00  0.0000000000E+00  0.0000000000E+00
                       0.0000000000E+00  0.0000000000E+00  0.0000000000E+00
                       0.0000000000E+00  0.0000000000E+00  0.0000000000E+00
                       0.0000000000E+00  0.0000000000E+00  0.0000000000E+00
                       0.0000000000E+00  0.0000000000E+00  0.0000000000E+00
                       0.0000000000E+00  0.0000000000E+00  0.0000000000E+00
-          fftalg         512
           irdden           1
           irdwfk           1
           istwfk        1
              ixc     -116133
           kptopt           0
P           mkmem           1
P          mkqmem           1
P          mk1mem           1
            natom          10
            nband          49
           nbdbuf           4
            ngfft          75      75      75
             nkpt           1
            nstep        2000
             nsym          48
           ntypat           4
              occ      2.000000  2.000000  2.000000  2.000000  2.000000  2.000000
                       2.000000  2.000000  2.000000  2.000000  2.000000  2.000000
                       2.000000  2.000000  2.000000  2.000000  2.000000  2.000000
                       2.000000  2.000000  2.000000  2.000000  2.000000  2.000000
                       2.000000  2.000000  2.000000  2.000000  2.000000  2.000000
                       2.000000  2.000000  2.000000  2.000000  2.000000  2.000000
                       2.000000  2.000000  2.000000  2.000000  0.000000  0.000000
                       0.000000  0.000000  0.000000  0.000000  0.000000  0.000000
                       0.000000
        optdriver           1
            prtwf          -1
            rfdir           1       1       1
           rfelfd           2
            rprim      1.0866310631E+01  0.0000000000E+00  6.2736673681E+00
                       3.6221035438E+00  1.0244855912E+01  6.2736673681E+00
                       0.0000000000E+00  0.0000000000E+00  1.2547334736E+01
          spgroup         225
           strten      0.0000000000E+00  0.0000000000E+00  0.0000000000E+00
                       0.0000000000E+00  0.0000000000E+00  0.0000000000E+00
           symrel      1  0  0   0  1  0   0  0  1      -1  0  0   0 -1  0   0  0 -1
                       0 -1  1   0 -1  0   1 -1  0       0  1 -1   0  1  0  -1  1  0
                      -1  0  0  -1  0  1  -1  1  0       1  0  0   1  0 -1   1 -1  0
                       0  1 -1   1  0 -1   0  0 -1       0 -1  1  -1  0  1   0  0  1
                      -1  0  0  -1  1  0  -1  0  1       1  0  0   1 -1  0   1  0 -1
                       0 -1  1   1 -1  0   0 -1  0       0  1 -1  -1  1  0   0  1  0
                       1  0  0   0  0  1   0  1  0      -1  0  0   0  0 -1   0 -1  0
                       0  1 -1   0  0 -1   1  0 -1       0 -1  1   0  0  1  -1  0  1
                      -1  0  1  -1  1  0  -1  0  0       1  0 -1   1 -1  0   1  0  0
                       0 -1  0   1 -1  0   0 -1  1       0  1  0  -1  1  0   0  1 -1
                       1  0 -1   0  0 -1   0  1 -1      -1  0  1   0  0  1   0 -1  1
                       0  1  0   0  0  1   1  0  0       0 -1  0   0  0 -1  -1  0  0
                       1  0 -1   0  1 -1   0  0 -1      -1  0  1   0 -1  1   0  0  1
                       0 -1  0   0 -1  1   1 -1  0       0  1  0   0  1 -1  -1  1  0
                      -1  0  1  -1  0  0  -1  1  0       1  0 -1   1  0  0   1 -1  0
                       0  1  0   1  0  0   0  0  1       0 -1  0  -1  0  0   0  0 -1
                       0  0 -1   0  1 -1   1  0 -1       0  0  1   0 -1  1  -1  0  1
                       1 -1  0   0 -1  1   0 -1  0      -1  1  0   0  1 -1   0  1  0
                       0  0  1   1  0  0   0  1  0       0  0 -1  -1  0  0   0 -1  0
                      -1  1  0  -1  0  0  -1  0  1       1 -1  0   1  0  0   1  0 -1
                       0  0  1   0  1  0   1  0  0       0  0 -1   0 -1  0  -1  0  0
                       1 -1  0   0 -1  0   0 -1  1      -1  1  0   0  1  0   0  1 -1
                       0  0 -1   1  0 -1   0  1 -1       0  0  1  -1  0  1   0 -1  1
                      -1  1  0  -1  0  1  -1  0  0       1 -1  0   1  0 -1   1  0  0
           tolwfr      1.00000000E-20
            typat      1  1  2  3  4  4  4  4  4  4
           useylm           1
           xangst      5.7502039276E+00  4.0660081904E+00  9.9596453565E+00
                       1.9167346425E+00  1.3553360635E+00  3.3198817855E+00
                       0.0000000000E+00  0.0000000000E+00  0.0000000000E+00
                       3.8334692851E+00  2.7106721269E+00  6.6397635710E+00
                       4.7138370068E+00  1.4656441550E+00  5.1149219476E+00
                       5.5942047285E+00  3.9557000989E+00  6.6397635710E+00
                       2.0727338416E+00  1.4656441550E+00  6.6397635710E+00
                       4.7138370068E+00  1.4656441550E+00  8.1646051943E+00
                       2.9531015633E+00  3.9557000989E+00  8.1646051943E+00
                       2.9531015633E+00  3.9557000989E+00  5.1149219476E+00
            xcart      1.0866310631E+01  7.6836419339E+00  1.8821002104E+01
                       3.6221035438E+00  2.5612139780E+00  6.2736673681E+00
                       0.0000000000E+00  0.0000000000E+00  0.0000000000E+00
                       7.2442070876E+00  5.1224279560E+00  1.2547334736E+01
                       8.9078609779E+00  2.7696660612E+00  9.6658016721E+00
                       1.0571514868E+01  7.4751898507E+00  1.2547334736E+01
                       3.9168993070E+00  2.7696660612E+00  1.2547334736E+01
                       8.9078609779E+00  2.7696660612E+00  1.5428867800E+01
                       5.5805531973E+00  7.4751898507E+00  1.5428867800E+01
                       5.5805531973E+00  7.4751898507E+00  9.6658016721E+00
             xred      7.5000000000E-01  7.5000000000E-01  7.5000000000E-01
                       2.5000000000E-01  2.5000000000E-01  2.5000000000E-01
                       0.0000000000E+00  0.0000000000E+00  0.0000000000E+00
                       5.0000000000E-01  5.0000000000E-01  5.0000000000E-01
                       7.2965300000E-01  2.7034700000E-01  2.7034700000E-01
                       7.2965300000E-01  7.2965300000E-01  2.7034700000E-01
                       2.7034700000E-01  2.7034700000E-01  7.2965300000E-01
                       7.2965300000E-01  2.7034700000E-01  7.2965300000E-01
                       2.7034700000E-01  7.2965300000E-01  7.2965300000E-01
                       2.7034700000E-01  7.2965300000E-01  2.7034700000E-01
            znucl       55.00000   19.00000   39.00000    9.00000

- Timing analysis has been suppressed with timopt=0

 Suggested references for the acknowledgment of ABINIT usage.

 Calculation completed.
.Delivered   2 WARNINGs and   5 COMMENTs to log file.