.Version 9.5.1 of ABINIT

 ABINIT is a project of the Universite Catholique de Louvain,
 Corning Inc. and other collaborators, see ~abinit/doc/developers/contributors.txt .
 acknowledgments of the ABINIT effort.

.Starting date : Sun 25 Apr 2021.
- ( at 18h04 )

- input  file    -> /scratch/users/j/a/jabreu/flow_simple2/flow/w252/t1/run.abi
- output file    -> /scratch/users/j/a/jabreu/flow_simple2/flow/w252/t1/run.abo
- root for input  files -> /scratch/users/j/a/jabreu/flow_simple2/flow/w252/t1/indata/in
- root for output files -> /scratch/users/j/a/jabreu/flow_simple2/flow/w252/t1/outdata/out

 Symmetries : space group Fm -3 m (#225); Bravais cF (face-center cubic)
     intxc =       0      iscf =       7    lmnmax =      32     lnmax =       8
     mgfft =      60  mpssoang =       4    mqgrid =    3001     natom =       2
  nloc_mem =       1    nspden =       1   nspinor =       1    nsppol =       1
      nsym =      48    n1xccc =    2501    ntypat =       2    occopt =       1
   xclevel =       2
-    mband =          17        mffmem =           1         mkmem =           1
-   mkqmem =           1        mk1mem =           1           mpw =        7391
      nfft =      216000          nkpt =           1
  Rough estimation (10% accuracy) of disk space for files :

------------- Echo of variables that govern the present computation ------------
-
- outvars: echo of selected default values
-   iomode0 =  0 , fftalg0 =512 , wfoptalg0 =  0
-
- outvars: echo of global parameters not present in the input file
-  max_nthreads =    0
-
 -outvars: echo values of preprocessed input variables --------
            acell      1.0000000000E+00  1.0000000000E+00  1.0000000000E+00 Bohr
              amu      1.32905430E+02  1.26904470E+02
             ecut      3.50000000E+01 Hartree
-          fftalg         512
           irdden           1
           irdwfk           1
           istwfk        1
              ixc     -116133
           kptopt           0
P           mkmem           1
P          mkqmem           1
P          mk1mem           1
            natom           2
            nband          17
           nbdbuf           4
            ngfft          60      60      60
             nkpt           1
            nstep         100
             nsym          48
           ntypat           2
              occ      2.000000  2.000000  2.000000  2.000000  2.000000  2.000000
                       2.000000  2.000000  0.000000  0.000000  0.000000  0.000000
                       0.000000  0.000000  0.000000  0.000000  0.000000
        optdriver           1
            prtwf          -1
            rfdir           1       1       1
           rfelfd           2
            rprim      8.8368378413E+00  0.0000000000E+00  5.1019507064E+00
                       2.9456126138E+00  8.3314506157E+00  5.1019507064E+00
                       0.0000000000E+00  0.0000000000E+00  1.0203901413E+01
          spgroup         225
           symrel      1  0  0   0  1  0   0  0  1      -1  0  0   0 -1  0   0  0 -1
                       0 -1  1   0 -1  0   1 -1  0       0  1 -1   0  1  0  -1  1  0
                      -1  0  0  -1  0  1  -1  1  0       1  0  0   1  0 -1   1 -1  0
                       0  1 -1   1  0 -1   0  0 -1       0 -1  1  -1  0  1   0  0  1
                      -1  0  0  -1  1  0  -1  0  1       1  0  0   1 -1  0   1  0 -1
                       0 -1  1   1 -1  0   0 -1  0       0  1 -1  -1  1  0   0  1  0
                       1  0  0   0  0  1   0  1  0      -1  0  0   0  0 -1   0 -1  0
                       0  1 -1   0  0 -1   1  0 -1       0 -1  1   0  0  1  -1  0  1
                      -1  0  1  -1  1  0  -1  0  0       1  0 -1   1 -1  0   1  0  0
                       0 -1  0   1 -1  0   0 -1  1       0  1  0  -1  1  0   0  1 -1
                       1  0 -1   0  0 -1   0  1 -1      -1  0  1   0  0  1   0 -1  1
                       0  1  0   0  0  1   1  0  0       0 -1  0   0  0 -1  -1  0  0
                       1  0 -1   0  1 -1   0  0 -1      -1  0  1   0 -1  1   0  0  1
                       0 -1  0   0 -1  1   1 -1  0       0  1  0   0  1 -1  -1  1  0
                      -1  0  1  -1  0  0  -1  1  0       1  0 -1   1  0  0   1 -1  0
                       0  1  0   1  0  0   0  0  1       0 -1  0  -1  0  0   0  0 -1
                       0  0 -1   0  1 -1   1  0 -1       0  0  1   0 -1  1  -1  0  1
                       1 -1  0   0 -1  1   0 -1  0      -1  1  0   0  1 -1   0  1  0
                       0  0  1   1  0  0   0  1  0       0  0 -1  -1  0  0   0 -1  0
                      -1  1  0  -1  0  0  -1  0  1       1 -1  0   1  0  0   1  0 -1
                       0  0  1   0  1  0   1  0  0       0  0 -1   0 -1  0  -1  0  0
                       1 -1  0   0 -1  0   0 -1  1      -1  1  0   0  1  0   0  1 -1
                       0  0 -1   1  0 -1   0  1 -1       0  0  1  -1  0  1   0 -1  1
                      -1  1  0  -1  0  1  -1  0  0       1 -1  0   1  0 -1   1  0  0
           tolwfr      1.00000000E-20
            typat      1  2
           useylm           1
           xangst      0.0000000000E+00  0.0000000000E+00  0.0000000000E+00
                       3.1175021211E+00  2.2044068902E+00  5.3996720664E+00
            xcart      0.0000000000E+00  0.0000000000E+00  0.0000000000E+00
                       5.8912252275E+00  4.1657253078E+00  1.0203901413E+01
             xred      0.0000000000E+00  0.0000000000E+00  0.0000000000E+00
                       5.0000000000E-01  5.0000000000E-01  5.0000000000E-01
            znucl       55.00000   53.00000

 chkinp: Checking input parameters for consistency.

== DATASET  1 ==================================================================
-   mpi_nproc: 1, omp_nthreads: -1 (-1 if OMP is not activated)

--- !DatasetInfo
iteration_state: {dtset: 1, }
dimensions: {natom: 2, nkpt: 1, mband: 17, nsppol: 1, nspinor: 1, nspden: 1, mpw: 7391, }
cutoff_energies: {ecut:  35.0, pawecutdg:  -1.0, }
electrons: {nelect:   1.60000000E+01, charge:   0.00000000E+00, occopt:   1.00000000E+00, tsmear:   1.00000000E-02, }
meta: {optdriver: 1, rfelfd: 2, }
...

 Real(R)+Recip(G) space primitive vectors, cartesian coordinates (Bohr,Bohr^-1):
 R(1)=  8.8368378  0.0000000  5.1019507  G(1)=  0.1131627 -0.0400090  0.0000000
 R(2)=  2.9456126  8.3314506  5.1019507  G(2)=  0.0000000  0.1200271  0.0000000
 R(3)=  0.0000000  0.0000000 10.2039014  G(3)= -0.0565813 -0.0400090  0.0980017
 Unit cell volume ucvol=  7.5124875E+02 bohr^3
 Angles (23,13,12)=  6.00000000E+01  6.00000000E+01  6.00000000E+01 degrees

 getcut: wavevector=  0.0000  0.0000  0.0000  ngfft=  60  60  60
         ecut(hartree)=     35.000   => boxcut(ratio)=   2.20793

 getcut : COMMENT -
  Note that boxcut > 2.2 ; recall that boxcut=Gcut(box)/Gcut(sphere) = 2
  is sufficient for exact treatment of convolution.
  Such a large boxcut is a waste : you could raise ecut
  e.g. ecut=   42.655963 Hartrees makes boxcut=2

--- Pseudopotential description ------------------------------------------------
- pspini: atom type   1  psp file is /scratch/users/j/a/jabreu/pseudos/PBEsol/Cs.psp8
- pspatm: opening atomic psp file    /scratch/users/j/a/jabreu/pseudos/PBEsol/Cs.psp8
- Cs    ONCVPSP-3.3.0  r_core=   2.27353   1.85623   2.01788   1.90105
- 55.00000   9.00000    180112                znucl, zion, pspdat
    8 -116133    3    4       600   0.00000   pspcod,pspxc,lmax,lloc,mmax,r2well
    5.99000000000000    5.00000000000000    0.00000000000000   rchrg,fchrg,qchrg
     nproj     2     2     2     2
     extension_switch     1
  pspatm : epsatm=   22.12462445
         --- l  ekb(1:nproj) -->
             0    6.214110    0.767882
             1    6.311966    0.793598
             2    3.769790    0.913105
             3   -9.247129   -2.432478
 pspatm: atomic psp has been read  and splines computed

- pspini: atom type   2  psp file is /scratch/users/j/a/jabreu/pseudos/PBEsol/I.psp8
- pspatm: opening atomic psp file    /scratch/users/j/a/jabreu/pseudos/PBEsol/I.psp8
- I     ONCVPSP-3.3.0  r_core=   2.02042   2.17032   2.27639
- 53.00000   7.00000    180112                znucl, zion, pspdat
    8 -116133    2    4       600   0.00000   pspcod,pspxc,lmax,lloc,mmax,r2well
    5.99000000000000    4.00000000000000    0.00000000000000   rchrg,fchrg,qchrg
     nproj     2     2     2
     extension_switch     1
  pspatm : epsatm=   18.14229533
         --- l  ekb(1:nproj) -->
             0    6.015861    0.935228
             1    4.063749    0.754139
             2    4.149534    0.722940
 pspatm: atomic psp has been read  and splines computed

   6.44270717E+02                                ecore*ucvol(ha*bohr**3)

-inwffil : will read wavefunctions from disk file /scratch/users/j/a/jabreu/flow_simple2/flow/w252/t1/indata/in_WFK

 ==>  initialize data related to q vector <==

 The list of irreducible perturbations for this q vector is:
    1)    idir= 1    ipert=   3
    2)    idir= 2    ipert=   3
    3)    idir= 3    ipert=   3

 Perturbation wavevector (in red.coord.)   0.000000  0.000000  0.000000
 Perturbation : derivative vs k along direction   1

 dfpt_looppert : COMMENT -
  In a d/dk calculation, iscf is set to -3 automatically.
 The set of symmetries contains only one element for this perturbation.
 symkpt : not enough symmetry to change the number of k points.

[...]

 Initialisation of the first-order wave-functions :
  ireadwf=   0

--- !BeginCycle
iteration_state: {dtset: 1, }
solver: {iscf: 7, nstep: 100, nline: 4, wfoptalg: 0, }
tolerances: {tolwfr: 1.00E-20, }
...

     iter   2DEtotal(Ha)        deltaE(Ha) residm    vres2
-ETOT  1  -13.618235205351     -1.362E+01 9.465E-03 0.000E+00
 ETOT  2  -13.621486441431     -3.251E-03 1.850E-04 0.000E+00
 ETOT  3  -13.621502612783     -1.617E-05 5.171E-06 0.000E+00
 ETOT  4  -13.621503526648     -9.139E-07 5.811E-07 0.000E+00
 ETOT  5  -13.621503589710     -6.306E-08 8.553E-08 0.000E+00
 ETOT  6  -13.621503594299     -4.589E-09 2.114E-08 0.000E+00
 ETOT  7  -13.621503594641     -3.420E-10 2.065E-09 0.000E+00
 ETOT  8  -13.621503594667     -2.576E-11 8.032E-10 0.000E+00
 ETOT  9  -13.621503594669     -1.902E-12 7.660E-11 0.000E+00
 ETOT 10  -13.621503594669     -1.084E-13 3.083E-11 0.000E+00
 ETOT 11  -13.621503594669     -5.151E-14 2.938E-12 0.000E+00
 ETOT 12  -13.621503594669      1.776E-15 1.186E-12 0.000E+00
 ETOT 13  -13.621503594669     -1.421E-14 1.133E-13 0.000E+00
 ETOT 14  -13.621503594669      1.421E-14 4.582E-14 0.000E+00
 ETOT 15  -13.621503594669     -7.105E-15 4.380E-15 0.000E+00
 ETOT 16  -13.621503594669      7.105E-15 1.774E-15 0.000E+00
 ETOT 17  -13.621503594669     -3.553E-15 1.696E-16 0.000E+00
 ETOT 18  -13.621503594669      3.553E-15 6.889E-17 0.000E+00
 ETOT 19  -13.621503594669      0.000E+00 6.586E-18 0.000E+00
 ETOT 20  -13.621503594669     -1.776E-15 2.679E-18 0.000E+00
 ETOT 21  -13.621503594669      3.553E-15 2.561E-19 0.000E+00
 ETOT 22  -13.621503594669     -3.553E-15 1.043E-19 0.000E+00
 ETOT 23  -13.621503594669      3.553E-15 9.976E-21 0.000E+00

 At SCF step   23   max residual=  9.98E-21 < tolwfr=  1.00E-20 =>converged.

 ----iterations are completed or convergence reached----

 dfpt_looppert: DFPT cycle converged with prtwf=-1. Will skip output of the 1st-order WFK file.
 dfpt_looppert : ek2=    1.8199877558E+01
          f-sum rule ratio=    1.3141950757E+00
 prteigrs : about to open file /scratch/users/j/a/jabreu/flow_simple2/flow/w252/t1/tmpdata/tmp_1WF1_EIG
 Expectation of eigenvalue derivatives (hartree) for nkpt=   1  k points:
  (in case of degenerate eigenvalues, averaged derivative)
 kpt#   1, nband= 17, wtk=  1.00000, kpt=  0.0000  0.0000  0.0000 (reduced coord)
  -0.00000   -0.00000    0.00000    0.00000    0.00000   -0.00000   -0.00000   -0.00000
  -0.00000   -0.00000   -0.00000   -0.00000   -0.00000   -0.00000    0.00000   -0.00141
   0.00257

 Eight components of 2nd-order total energy (hartree) are
 1,2,3: 0th-order hamiltonian combined with 1st-order wavefunctions
     kin0=   5.16436740E+00 eigvalue=   4.46760993E-01  local=  -3.47239600E+00
 4,5,6: 1st-order hamiltonian combined with 1st and 0th-order wfs
     kin1=  -2.39181895E+01  Hartree=   0.00000000E+00     xc=   0.00000000E+00
 7,8,9: eventually, occupation + non-local contributions
    edocc=   9.94147008E+00     enl0=   1.54130113E+00   enl1=  -3.32481772E+00
 1-9 gives the relaxation energy (to be shifted if some occ is /=2.0)
   erelax=  -1.36215036E+01
  No Ewald or frozen-wf contrib.: the relaxation energy is the total one
 2DEtotal=   -0.1362150359E+02 Ha. Also 2DEtotal=   -0.370659963065E+03 eV
    (  non-var. 2DEtotal :   -1.3621503595E+01 Ha)

 Perturbation wavevector (in red.coord.)   0.000000  0.000000  0.000000
 Perturbation : derivative vs k along direction   2
 The set of symmetries contains only one element for this perturbation.
 symkpt : not enough symmetry to change the number of k points.

[...]

 Perturbation wavevector (in red.coord.)   0.000000  0.000000  0.000000
 Perturbation : derivative vs k along direction   3
 The set of symmetries contains only one element for this perturbation.
 symkpt : not enough symmetry to change the number of k points.

-inwffil : will read wavefunctions from disk file /scratch/users/j/a/jabreu/flow_simple2/flow/w252/t1/indata/in_WFK

 Initialisation of the first-order wave-functions :
  ireadwf=   0

--- !BeginCycle
iteration_state: {dtset: 1, }
solver: {iscf: 7, nstep: 100, nline: 4, wfoptalg: 0, }
tolerances: {tolwfr: 1.00E-20, }
...

     iter   2DEtotal(Ha)        deltaE(Ha) residm    vres2
-ETOT  1  -13.618778761492     -1.362E+01 6.947E-03 0.000E+00
 ETOT  2  -13.621843097910     -3.064E-03 1.850E-04 0.000E+00
 ETOT  3  -13.621861670087     -1.857E-05 5.746E-06 0.000E+00
 ETOT  4  -13.621862675624     -1.006E-06 5.483E-07 0.000E+00
 ETOT  5  -13.621862741643     -6.602E-08 8.544E-08 0.000E+00
 ETOT  6  -13.621862746317     -4.674E-09 1.672E-08 0.000E+00
 ETOT  7  -13.621862746659     -3.416E-10 1.889E-09 0.000E+00
 ETOT  8  -13.621862746684     -2.537E-11 5.517E-10 0.000E+00
 ETOT  9  -13.621862746686     -1.922E-12 5.583E-11 0.000E+00
 ETOT 10  -13.621862746686     -1.350E-13 1.861E-11 0.000E+00
 ETOT 11  -13.621862746686     -3.375E-14 1.835E-12 0.000E+00
 ETOT 12  -13.621862746686      3.020E-14 6.278E-13 0.000E+00
 ETOT 13  -13.621862746686     -3.553E-15 6.146E-14 0.000E+00
 ETOT 14  -13.621862746686     -1.954E-14 2.119E-14 0.000E+00
 ETOT 15  -13.621862746686     -1.776E-15 2.067E-15 0.000E+00
 ETOT 16  -13.621862746686      0.000E+00 7.150E-16 0.000E+00
 ETOT 17  -13.621862746686      5.329E-15 6.964E-17 0.000E+00
 ETOT 18  -13.621862746686     -5.329E-15 2.414E-17 0.000E+00
 ETOT 19  -13.621862746686      3.553E-15 2.348E-18 0.000E+00
 ETOT 20  -13.621862746686      0.000E+00 8.154E-19 0.000E+00
 ETOT 21  -13.621862746686      0.000E+00 7.922E-20 0.000E+00
 ETOT 22  -13.621862746686     -3.553E-15 2.755E-20 0.000E+00
 ETOT 23  -13.621862746686      0.000E+00 9.406E-21 0.000E+00

 At SCF step   23   max residual=  9.41E-21 < tolwfr=  1.00E-20 =>converged.

 ----iterations are completed or convergence reached----

 dfpt_looppert: DFPT cycle converged with prtwf=-1. Will skip output of the 1st-order WFK file.
 dfpt_looppert : ek2=    1.8199877558E+01
          f-sum rule ratio=    1.3142261462E+00
 prteigrs : about to open file /scratch/users/j/a/jabreu/flow_simple2/flow/w252/t1/tmpdata/tmp_1WF1_EIG
 Expectation of eigenvalue derivatives (hartree) for nkpt=   1  k points:
  (in case of degenerate eigenvalues, averaged derivative)
 kpt#   1, nband= 17, wtk=  1.00000, kpt=  0.0000  0.0000  0.0000 (reduced coord)
   0.00000   -0.00000    0.00000    0.00000    0.00000    0.00000    0.00000    0.00000
  -0.00000    0.00000    0.00000    0.00000    0.00000    0.00000   -0.00000    0.00522
  -0.00071

 Eight components of 2nd-order total energy (hartree) are
 1,2,3: 0th-order hamiltonian combined with 1st-order wavefunctions
     kin0=   3.75544217E+00 eigvalue=   3.46737456E-01  local=  -2.50852655E+00
 4,5,6: 1st-order hamiltonian combined with 1st and 0th-order wfs
     kin1=  -2.39187549E+01  Hartree=   0.00000000E+00     xc=   0.00000000E+00
 7,8,9: eventually, occupation + non-local contributions
    edocc=   1.07656269E+01     enl0=   1.26258276E+00   enl1=  -3.32497055E+00
 1-9 gives the relaxation energy (to be shifted if some occ is /=2.0)
   erelax=  -1.36218627E+01
  No Ewald or frozen-wf contrib.: the relaxation energy is the total one
 2DEtotal=   -0.1362186275E+02 Ha. Also 2DEtotal=   -0.370669736088E+03 eV
    (  non-var. 2DEtotal :   -1.3621862747E+01 Ha)

 CALCULATION OF EFFECTIVE MASSES
 NOTE : Additional infos (eff. mass eigenvalues, eigenvectors and, if degenerate, average mass) are available in stdout.

 COMMENTS:
 - At k-point ( 0.000, 0.000, 0.000), bands     6 through     8
   are DEGENERATE (effective mass tensor is therefore not defined).
   See Section IIIB Eqs. (67)-(70) and Appendix E of PRB 93 205147 (2016).
 - Angular average effective mass for Frohlich model is to be averaged over degenerate bands. See later.
 - Associated theta integrals calculated with ntheta=   1000 points.

 K-point ( 0.000, 0.000, 0.000) | band =     6
 Transport equivalent effective mass tensor:
             -0.6027317029              0.0000164125             -0.0000204791
              0.0000164125             -0.6027248854             -0.0000147038
             -0.0000204791             -0.0000147038             -0.6026850858
 Transport equivalent effective mass tensor eigenvalues:
             -0.6027460525             -0.6027254360             -0.6026701856
 Angular average effective mass 1/(<1/m>)=  -0.5285222082
 Angular average effective mass for Frohlich model (<m**0.5>)**2=  -0.5333243868
 Effective masses along directions: (cart. coord. / red. coord. -> eff. mass)
    1:   1.000000  0.000000  0.000000 /   0.948683  0.316228  0.000000 ->  -0.5554145240
    2:   0.000000  1.000000  0.000000 /   0.000000  1.000000  0.000000 ->  -0.6472925879
    3:   0.000000  0.000000  1.000000 /   0.408248  0.408248  0.816497 ->  -0.5749103455
    4:   0.577350  0.577350  0.577350 /   0.585539  0.688047  0.428644 ->  -0.5607906789
    5:   0.000000  0.707107  0.707107 /   0.289489  0.762222  0.578977 ->  -0.4904788541
    6:   0.707107  0.000000  0.707107 /   0.731423  0.422287  0.535439 ->  -0.5645658999
    7:   0.707107  0.707107  0.000000 /   0.616798  0.787122  0.000000 ->  -0.4397494125

[...]

 K-point ( 0.000, 0.000, 0.000) | band =     8
 Transport equivalent effective mass tensor:
            -13.5181826444              0.0005382319             -0.0001796362
              0.0005382319            -13.5174600186              0.0000785111
             -0.0001796362              0.0000785111            -13.5168598125
 Transport equivalent effective mass tensor eigenvalues:
            -13.5184929845            -13.5171737472            -13.5168357438
 Angular average effective mass 1/(<1/m>)=  -3.7875648725
 Angular average effective mass for Frohlich model (<m**0.5>)**2=  -4.0904127877
 Effective masses along directions: (cart. coord. / red. coord. -> eff. mass)
    1:   1.000000  0.000000  0.000000 /   0.948683  0.316228  0.000000 ->  -2.6957508444
    2:   0.000000  1.000000  0.000000 /   0.000000  1.000000  0.000000 ->  -1.7688688547
    3:   0.000000  0.000000  1.000000 /   0.408248  0.408248  0.816497 ->  -5.6615455003
    4:   0.577350  0.577350  0.577350 /   0.585539  0.688047  0.428644 ->  -3.1705691381
    5:   0.000000  0.707107  0.707107 /   0.289489  0.762222  0.578977 ->  -5.2784440598
    6:   0.707107  0.000000  0.707107 /   0.731423  0.422287  0.535439 ->  -4.1049581022
    7:   0.707107  0.707107  0.000000 /   0.616798  0.787122  0.000000 ->  -5.1728484072

 Angular average effective mass for Frohlich model, averaged over degenerate bands.
 Value of     (<<m**0.5>>)**2 =     1.968269E+00
 Absolute Value of <<m**0.5>> =     1.402950E+00

 K-point ( 0.000, 0.000, 0.000) | band =     9
 Effective mass tensor:
              0.3329638279             -0.0000000000             -0.0000000002
             -0.0000000000              0.3329638277             -0.0000000000
             -0.0000000002             -0.0000000000              0.3329638275
 Effective mass tensor eigenvalues:
              0.3329638275              0.3329638277              0.3329638280
 Angular average effective mass 1/(<1/m>)=   0.3329638277
 Angular average effective mass for Frohlich model (<m**0.5>)**2=   0.3329638277
 Effective masses along directions: (cart. coord. / red. coord. -> eff. mass)
    1:   1.000000  0.000000  0.000000 /   0.948683  0.316228  0.000000 ->   0.3329638279
    2:   0.000000  1.000000  0.000000 /   0.000000  1.000000  0.000000 ->   0.3329638277
    3:   0.000000  0.000000  1.000000 /   0.408248  0.408248  0.816497 ->   0.3329638275
    4:   0.577350  0.577350  0.577350 /   0.585539  0.688047  0.428644 ->   0.3329638276
    5:   0.000000  0.707107  0.707107 /   0.289489  0.762222  0.578977 ->   0.3329638276
    6:   0.707107  0.000000  0.707107 /   0.731423  0.422287  0.535439 ->   0.3329638275
    7:   0.707107  0.707107  0.000000 /   0.616798  0.787122  0.000000 ->   0.3329638278

 END OF EFFECTIVE MASSES SECTION

 ---- first-order wavefunction calculations are completed ----

 Total localisation tensor (bohr^2) in cartesian coordinates
  WARNING : still subject to testing - especially symmetries.
      direction              matrix element
   alpha     beta       real part   imaginary part
     1        1       3.0532328900    0.0000000000
     1        2       0.8635891708    0.0000000000
     1        3       2.1153436336    0.0000000000
     2        1       0.8635891708    0.0000000000
     2        2       2.4425990354    0.0000000000
     2        3       1.4957803207    0.0000000000
     3        1       2.1153436336    0.0000000000
     3        2       1.4957803207    0.0000000000
     3        3       5.4958996082    0.0000000000

 respfn : d/dk was computed, but no 2DTE, so no DDB output.

== END DATASET(S) ==============================================================

 -outvars: echo values of variables after computation  --------
            acell      1.0000000000E+00  1.0000000000E+00  1.0000000000E+00 Bohr
              amu      1.32905430E+02  1.26904470E+02
             ecut      3.50000000E+01 Hartree
           etotal     -1.3621862747E+01
            fcart      0.0000000000E+00  0.0000000000E+00  0.0000000000E+00
                       0.0000000000E+00  0.0000000000E+00  0.0000000000E+00
-          fftalg         512
           irdden           1
           irdwfk           1
           istwfk        1
              ixc     -116133
           kptopt           0
P           mkmem           1
P          mkqmem           1
P          mk1mem           1
            natom           2
            nband          17
           nbdbuf           4
            ngfft          60      60      60
             nkpt           1
            nstep         100
             nsym          48
           ntypat           2
              occ      2.000000  2.000000  2.000000  2.000000  2.000000  2.000000
                       2.000000  2.000000  0.000000  0.000000  0.000000  0.000000
                       0.000000  0.000000  0.000000  0.000000  0.000000
        optdriver           1
            prtwf          -1
            rfdir           1       1       1
           rfelfd           2
            rprim      8.8368378413E+00  0.0000000000E+00  5.1019507064E+00
                       2.9456126138E+00  8.3314506157E+00  5.1019507064E+00
                       0.0000000000E+00  0.0000000000E+00  1.0203901413E+01
          spgroup         225
           strten      0.0000000000E+00  0.0000000000E+00  0.0000000000E+00
                       0.0000000000E+00  0.0000000000E+00  0.0000000000E+00
           symrel      1  0  0   0  1  0   0  0  1      -1  0  0   0 -1  0   0  0 -1
                       0 -1  1   0 -1  0   1 -1  0       0  1 -1   0  1  0  -1  1  0
                      -1  0  0  -1  0  1  -1  1  0       1  0  0   1  0 -1   1 -1  0
                       0  1 -1   1  0 -1   0  0 -1       0 -1  1  -1  0  1   0  0  1
                      -1  0  0  -1  1  0  -1  0  1       1  0  0   1 -1  0   1  0 -1
                       0 -1  1   1 -1  0   0 -1  0       0  1 -1  -1  1  0   0  1  0
                       1  0  0   0  0  1   0  1  0      -1  0  0   0  0 -1   0 -1  0
                       0  1 -1   0  0 -1   1  0 -1       0 -1  1   0  0  1  -1  0  1
                      -1  0  1  -1  1  0  -1  0  0       1  0 -1   1 -1  0   1  0  0
                       0 -1  0   1 -1  0   0 -1  1       0  1  0  -1  1  0   0  1 -1
                       1  0 -1   0  0 -1   0  1 -1      -1  0  1   0  0  1   0 -1  1
                       0  1  0   0  0  1   1  0  0       0 -1  0   0  0 -1  -1  0  0
                       1  0 -1   0  1 -1   0  0 -1      -1  0  1   0 -1  1   0  0  1
                       0 -1  0   0 -1  1   1 -1  0       0  1  0   0  1 -1  -1  1  0
                      -1  0  1  -1  0  0  -1  1  0       1  0 -1   1  0  0   1 -1  0
                       0  1  0   1  0  0   0  0  1       0 -1  0  -1  0  0   0  0 -1
                       0  0 -1   0  1 -1   1  0 -1       0  0  1   0 -1  1  -1  0  1
                       1 -1  0   0 -1  1   0 -1  0      -1  1  0   0  1 -1   0  1  0
                       0  0  1   1  0  0   0  1  0       0  0 -1  -1  0  0   0 -1  0
                      -1  1  0  -1  0  0  -1  0  1       1 -1  0   1  0  0   1  0 -1
                       0  0  1   0  1  0   1  0  0       0  0 -1   0 -1  0  -1  0  0
                       1 -1  0   0 -1  0   0 -1  1      -1  1  0   0  1  0   0  1 -1
                       0  0 -1   1  0 -1   0  1 -1       0  0  1  -1  0  1   0 -1  1
                      -1  1  0  -1  0  1  -1  0  0       1 -1  0   1  0 -1   1  0  0
           tolwfr      1.00000000E-20
            typat      1  2
           useylm           1
           xangst      0.0000000000E+00  0.0000000000E+00  0.0000000000E+00
                       3.1175021211E+00  2.2044068902E+00  5.3996720664E+00
            xcart      0.0000000000E+00  0.0000000000E+00  0.0000000000E+00
                       5.8912252275E+00  4.1657253078E+00  1.0203901413E+01
             xred      0.0000000000E+00  0.0000000000E+00  0.0000000000E+00
                       5.0000000000E-01  5.0000000000E-01  5.0000000000E-01
            znucl       55.00000   53.00000

- Timing analysis has been suppressed with timopt=0

 Suggested references for the acknowledgment of ABINIT usage.

 Calculation completed.
.Delivered   6 WARNINGs and  11 COMMENTs to log file.