.Version 9.5.1 of ABINIT

 ABINIT is a project of the Universite Catholique de Louvain,
 Corning Inc. and other collaborators, see ~abinit/doc/developers/contributors.txt .
 acknowledgments of the ABINIT effort.

.Starting date : Tue 11 May 2021.
- ( at 21h42 )

- input  file    -> /scratch/users/j/a/jabreu/flow_simple_8atoms/flow/w346/t1/run.abi
- output file    -> /scratch/users/j/a/jabreu/flow_simple_8atoms/flow/w346/t1/run.abo
- root for input  files -> /scratch/users/j/a/jabreu/flow_simple_8atoms/flow/w346/t1/indata/in
- root for output files -> /scratch/users/j/a/jabreu/flow_simple_8atoms/flow/w346/t1/outdata/out

 Symmetries : space group I-4 2 m (#121); Bravais tI (body-center tetrag.)
     intxc =       0      iscf =       7    lmnmax =      18     lnmax =       6
     mgfft =      80  mpssoang =       3    mqgrid =    3001     natom =       8
  nloc_mem =       1    nspden =       1   nspinor =       1    nsppol =       1
      nsym =       8    n1xccc =    2501    ntypat =       4    occopt =       1
   xclevel =       2
-    mband =          57        mffmem =           1         mkmem =           1
-   mkqmem =           1        mk1mem =           1           mpw =       14675
      nfft =      512000          nkpt =           1
  Rough estimation (10% accuracy) of disk space for files :

------------- Echo of variables that govern the present computation ------------
-
- outvars: echo of selected default values
-   iomode0 =  0 , fftalg0 =512 , wfoptalg0 =  0
-
- outvars: echo of global parameters not present in the input file
-  max_nthreads =    0
-
 -outvars: echo values of preprocessed input variables --------
            acell      1.0000000000E+00  1.0000000000E+00  1.0000000000E+00 Bohr
              amu      6.53900000E+01  6.35460000E+01  7.26100000E+01
                       3.20660000E+01
             ecut      4.60000000E+01 Hartree
-          fftalg         512
           irdden           1
           irdwfk           1
           istwfk        1
              ixc     -116133
           kptopt           0
P           mkmem           1
P          mkqmem           1
P          mk1mem           1
            natom           8
            nband          57
           nbdbuf           4
            ngfft          80      80      80
             nkpt           1
            nstep        2000
             nsym           8
           ntypat           4
              occ      2.000000  2.000000  2.000000  2.000000  2.000000  2.000000
                       2.000000  2.000000  2.000000  2.000000  2.000000  2.000000
                       2.000000  2.000000  2.000000  2.000000  2.000000  2.000000
                       2.000000  2.000000  2.000000  2.000000  2.000000  2.000000
                       2.000000  2.000000  2.000000  2.000000  2.000000  2.000000
                       2.000000  2.000000  2.000000  2.000000  2.000000  2.000000
                       2.000000  2.000000  2.000000  2.000000  2.000000  2.000000
                       2.000000  2.000000  2.000000  2.000000  2.000000  2.000000
                       0.000000  0.000000  0.000000  0.000000  0.000000  0.000000
                       0.000000  0.000000  0.000000
        optdriver           1
            prtwf          -1
            rfdir           1       1       1
           rfelfd           2
            rprim      9.0658488072E+00  0.0000000000E+00 -8.1189340260E+00
                      -1.8101343850E+00  8.8833005186E+00 -8.1189340260E+00
                       0.0000000000E+00  0.0000000000E+00  1.2169909791E+01
          spgroup         121
           symrel      1  0  0   0  1  0   0  0  1       0  0  1  -1 -1 -1   1  0  0
                       0  1  0   1  0  0  -1 -1 -1      -1 -1 -1   0  0  1   0  1  0
                       0  1  0   1  0  0   0  0  1       0  0  1  -1 -1 -1   0  1  0
                       1  0  0   0  1  0  -1 -1 -1      -1 -1 -1   0  0  1   1  0  0
           tolwfr      1.00000000E-20
            typat      1  2  2  3  4  4  4  4
           useylm           1
           xangst      0.0000000000E+00  0.0000000000E+00  0.0000000000E+00
                       3.3586099587E+00  1.1752100429E+00 -1.0763353987E+00
                       4.8094874555E-01  3.5256301286E+00 -1.0763353987E+00
                       1.9197793521E+00  2.3504200857E+00 -4.2963548446E+00
                       1.0097816491E+00  4.1040720374E+00 -5.4041785340E+00
                       4.8742909784E-01  5.9676813414E-01  2.2048550724E+00
                       3.8198149461E+00  1.8088891740E+00 -5.4041785340E+00
                       2.3620917154E+00  2.8919509975E+00 -2.1418784910E+00
            xcart      0.0000000000E+00  0.0000000000E+00  0.0000000000E+00
                       6.3468530092E+00  2.2208251297E+00 -2.0339791306E+00
                       9.0886141305E-01  6.6624753889E+00 -2.0339791307E+00
                       3.6278572111E+00  4.4416502593E+00 -8.1189340260E+00
                       1.9082107709E+00  7.7555721802E+00 -1.0212417402E+01
                       9.2110750411E-01  1.1277283384E+00  4.1665722495E+00
                       7.2184041265E+00  3.4183051437E+00 -1.0212417402E+01
                       4.4637064429E+00  5.4649953749E+00 -4.0475637579E+00
             xred      0.0000000000E+00  0.0000000000E+00  0.0000000000E+00
                       7.5000000000E-01  2.5000000000E-01  5.0000000000E-01
                       2.5000000000E-01  7.5000000000E-01  5.0000000000E-01
                       5.0000000000E-01  5.0000000000E-01  0.0000000000E+00
                       3.8480125000E-01  8.7305075000E-01  0.0000000000E+00
                       1.2694925000E-01  1.2694925000E-01  5.1175050000E-01
                       8.7305075000E-01  3.8480125000E-01  0.0000000000E+00
                       6.1519875000E-01  6.1519875000E-01  4.8824950000E-01
            znucl       30.00000   29.00000   32.00000   16.00000

 chkinp: Checking input parameters for consistency.

== DATASET  1 ==================================================================
-   mpi_nproc: 1, omp_nthreads: -1 (-1 if OMP is not activated)

--- !DatasetInfo
iteration_state: {dtset: 1, }
dimensions: {natom: 8, nkpt: 1, mband: 57, nsppol: 1, nspinor: 1, nspden: 1, mpw: 14675, }
cutoff_energies: {ecut:  46.0, pawecutdg:  -1.0, }
electrons: {nelect:   9.60000000E+01, charge:   0.00000000E+00, occopt:   1.00000000E+00, tsmear:   1.00000000E-02, }
meta: {optdriver: 1, rfelfd: 2, }
...

 Real(R)+Recip(G) space primitive vectors, cartesian coordinates (Bohr,Bohr^-1):
 R(1)=  9.0658488  0.0000000 -8.1189340  G(1)=  0.1103041  0.0224765  0.0000000
 R(2)= -1.8101344  8.8833005 -8.1189340  G(2)=  0.0000000  0.1125708  0.0000000
 R(3)=  0.0000000  0.0000000 12.1699098  G(3)=  0.0735874  0.0900943  0.0821699
 Unit cell volume ucvol=  9.8009954E+02 bohr^3
 Angles (23,13,12)=  1.31846081E+02  1.31846081E+02  7.04722339E+01 degrees

 getcut: wavevector=  0.0000  0.0000  0.0000  ngfft=  80  80  80
         ecut(hartree)=     46.000   => boxcut(ratio)=   2.15337

--- Pseudopotential description ------------------------------------------------
- pspini: atom type   1  psp file is /scratch/users/j/a/jabreu/pseudos/PBEsol/Zn.psp8
- pspatm: opening atomic psp file    /scratch/users/j/a/jabreu/pseudos/PBEsol/Zn.psp8
- Zn    ONCVPSP-3.3.0  r_core=   1.35823   1.66358   1.85211
- 30.00000  20.00000    180112                znucl, zion, pspdat
    8 -116133    2    4       600   0.00000   pspcod,pspxc,lmax,lloc,mmax,r2well
    5.99000000000000    2.50000000000000    0.00000000000000   rchrg,fchrg,qchrg
     nproj     2     2     2
     extension_switch     1
  pspatm : epsatm=   26.57343589
         --- l  ekb(1:nproj) -->
             0    2.830835   -1.519107
             1   -4.626739   -1.324150
             2   -6.948510   -2.555500
 pspatm: atomic psp has been read  and splines computed

- pspini: atom type   2  psp file is /scratch/users/j/a/jabreu/pseudos/PBEsol/Cu.psp8
- pspatm: opening atomic psp file    /scratch/users/j/a/jabreu/pseudos/PBEsol/Cu.psp8
- Cu    ONCVPSP-3.3.0  r_core=   1.26204   1.45626   1.76249
- 29.00000  19.00000    180112                znucl, zion, pspdat
    8 -116133    2    4       600   0.00000   pspcod,pspxc,lmax,lloc,mmax,r2well
    5.99000000000000    3.50000000000000    0.00000000000000   rchrg,fchrg,qchrg
     nproj     2     2     2
     extension_switch     1
  pspatm : epsatm=   21.63488701
         --- l  ekb(1:nproj) -->
             0    5.008230   -0.401634
             1   -3.496700   -0.765945
             2   -6.895851   -2.521180
 pspatm: atomic psp has been read  and splines computed

[...]

- pspini: atom type   4  psp file is /scratch/users/j/a/jabreu/pseudos/PBEsol/S.psp8
- pspatm: opening atomic psp file    /scratch/users/j/a/jabreu/pseudos/PBEsol/S.psp8
- S     ONCVPSP-3.3.0  r_core=   1.45376   1.45376   1.61851
- 16.00000   6.00000    180112                znucl, zion, pspdat
    8 -116133    2    4       600   0.00000   pspcod,pspxc,lmax,lloc,mmax,r2well
    5.99000000000000    6.00000000000000    0.00000000000000   rchrg,fchrg,qchrg
     nproj     2     2     2
     extension_switch     1
  pspatm : epsatm=    8.71840985
         --- l  ekb(1:nproj) -->
             0    6.834532    0.579453
             1    3.282851    0.896984
             2   -3.496974   -0.974265
 pspatm: atomic psp has been read  and splines computed

   1.30160990E+04                                ecore*ucvol(ha*bohr**3)

-inwffil : will read wavefunctions from disk file /scratch/users/j/a/jabreu/flow_simple_8atoms/flow/w346/t1/indata/in_WFK

 ==>  initialize data related to q vector <==

 The list of irreducible perturbations for this q vector is:
    1)    idir= 1    ipert=   9
    2)    idir= 2    ipert=   9
    3)    idir= 3    ipert=   9

 Perturbation wavevector (in red.coord.)   0.000000  0.000000  0.000000
 Perturbation : derivative vs k along direction   1

 dfpt_looppert : COMMENT -
  In a d/dk calculation, iscf is set to -3 automatically.
 The set of symmetries contains only one element for this perturbation.
 symkpt : not enough symmetry to change the number of k points.

[...]

 Initialisation of the first-order wave-functions :
  ireadwf=   0

--- !BeginCycle
iteration_state: {dtset: 1, }
solver: {iscf: 7, nstep: 2000, nline: 4, wfoptalg: 0, }
tolerances: {tolwfr: 1.00E-20, }
...

     iter   2DEtotal(Ha)        deltaE(Ha) residm    vres2
-ETOT  1  -74.554908476355     -7.455E+01 1.176E-01 0.000E+00
 ETOT  2  -74.734601095147     -1.797E-01 7.311E-03 0.000E+00
 ETOT  3  -74.740531804649     -5.931E-03 3.931E-04 0.000E+00
 ETOT  4  -74.740905239874     -3.734E-04 3.563E-05 0.000E+00
 ETOT  5  -74.740933896544     -2.866E-05 2.639E-06 0.000E+00
 ETOT  6  -74.740936293709     -2.397E-06 2.804E-07 0.000E+00
 ETOT  7  -74.740936505520     -2.118E-07 2.248E-08 0.000E+00
 ETOT  8  -74.740936524958     -1.944E-08 2.474E-09 0.000E+00
 ETOT  9  -74.740936526786     -1.829E-09 2.034E-10 0.000E+00
 ETOT 10  -74.740936526962     -1.753E-10 2.275E-11 0.000E+00
 ETOT 11  -74.740936526979     -1.693E-11 1.884E-12 0.000E+00
 ETOT 12  -74.740936526980     -1.592E-12 2.131E-13 0.000E+00
[...]
 Expectation of eigenvalue derivatives (hartree) for nkpt=   1  k points:
  (in case of degenerate eigenvalues, averaged derivative)
 kpt#   1, nband= 57, wtk=  1.00000, kpt=  0.0000  0.0000  0.0000 (reduced coord)
   0.00000    0.00000    0.00000   -0.00000    0.00000    0.00000   -0.00000   -0.00000
  -0.00000   -0.00000    0.00000   -0.00000    0.00000    0.00000   -0.00000    0.00000
   0.00000   -0.00000   -0.00000    0.00000    0.00000    0.00000    0.00000   -0.00000
  -0.00000   -0.00000   -0.00000   -0.00000    0.00000    0.00000   -0.00000   -0.00000
   0.00000    0.00000    0.00000    0.00000    0.00000    0.00000    0.00000   -0.00000
   0.00000    0.00000   -0.00000    0.00000    0.00000   -0.00000   -0.00000   -0.00000
   0.00000   -0.00000    0.00000    0.00000    0.00000    0.00000   -0.00000   -0.00000
  -0.00000

 Eight components of 2nd-order total energy (hartree) are
 1,2,3: 0th-order hamiltonian combined with 1st-order wavefunctions
     kin0=   8.36191739E+01 eigvalue=   1.57627521E+00  local=  -3.17545072E+01
 4,5,6: 1st-order hamiltonian combined with 1st and 0th-order wfs
     kin1=  -1.18987075E+02  Hartree=   0.00000000E+00     xc=   0.00000000E+00
 7,8,9: eventually, occupation + non-local contributions
    edocc=   2.15660246E+01     enl0=  -2.66030000E-01   enl1=  -3.04947985E+01
 1-9 gives the relaxation energy (to be shifted if some occ is /=2.0)
   erelax=  -7.47409365E+01
  No Ewald or frozen-wf contrib.: the relaxation energy is the total one
 2DEtotal=   -0.7474093653E+02 Ha. Also 2DEtotal=   -0.203380431389E+04 eV
    (  non-var. 2DEtotal :   -7.4740936527E+01 Ha)

 Perturbation wavevector (in red.coord.)   0.000000  0.000000  0.000000
 Perturbation : derivative vs k along direction   2
 The set of symmetries contains only one element for this perturbation.
 symkpt : not enough symmetry to change the number of k points.

[...]

 Perturbation wavevector (in red.coord.)   0.000000  0.000000  0.000000
 Perturbation : derivative vs k along direction   3
 The set of symmetries contains only one element for this perturbation.
 symkpt : not enough symmetry to change the number of k points.

-inwffil : will read wavefunctions from disk file /scratch/users/j/a/jabreu/flow_simple_8atoms/flow/w346/t1/indata/in_WFK

 Initialisation of the first-order wave-functions :
  ireadwf=   0

--- !BeginCycle
iteration_state: {dtset: 1, }
solver: {iscf: 7, nstep: 2000, nline: 4, wfoptalg: 0, }
tolerances: {tolwfr: 1.00E-20, }
...

     iter   2DEtotal(Ha)        deltaE(Ha) residm    vres2
-ETOT  1  -120.59081038155     -1.206E+02 1.283E-01 0.000E+00
 ETOT  2  -120.83448585798     -2.437E-01 4.308E-03 0.000E+00
 ETOT  3  -120.84194041002     -7.455E-03 3.813E-04 0.000E+00
 ETOT  4  -120.84237963159     -4.392E-04 1.750E-05 0.000E+00
 ETOT  5  -120.84241362410     -3.399E-05 2.233E-06 0.000E+00
 ETOT  6  -120.84241656857     -2.944E-06 1.409E-07 0.000E+00
 ETOT  7  -120.84241684178     -2.732E-07 1.550E-08 0.000E+00
 ETOT  8  -120.84241686809     -2.631E-08 1.358E-09 0.000E+00
 ETOT  9  -120.84241687068     -2.590E-09 1.342E-10 0.000E+00
 ETOT 10  -120.84241687094     -2.580E-10 1.361E-11 0.000E+00
 ETOT 11  -120.84241687097     -2.602E-11 1.355E-12 0.000E+00
 ETOT 12  -120.84241687097     -2.757E-12 1.386E-13 0.000E+00
 ETOT 13  -120.84241687097     -2.132E-13 1.385E-14 0.000E+00
 ETOT 14  -120.84241687097     -1.563E-13 1.426E-15 0.000E+00
 ETOT 15  -120.84241687097      1.137E-13 1.427E-16 0.000E+00
 ETOT 16  -120.84241687097     -2.558E-13 1.476E-17 0.000E+00
 ETOT 17  -120.84241687097     -5.684E-14 1.477E-18 0.000E+00
 ETOT 18  -120.84241687097      1.847E-13 1.534E-19 0.000E+00
 ETOT 19  -120.84241687097     -1.279E-13 1.536E-20 0.000E+00
 ETOT 20  -120.84241687097      1.421E-14 8.865E-21 0.000E+00

 At SCF step   20   max residual=  8.87E-21 < tolwfr=  1.00E-20 =>converged.

 ----iterations are completed or convergence reached----

 dfpt_looppert: DFPT cycle converged with prtwf=-1. Will skip output of the 1st-order WFK file.
 dfpt_looppert : ek2=    1.5374958827E+02
          f-sum rule ratio=    1.2551804743E+00
 prteigrs : about to open file /scratch/users/j/a/jabreu/flow_simple_8atoms/flow/w346/t1/tmpdata/tmp_1WF1_EIG
 Expectation of eigenvalue derivatives (hartree) for nkpt=   1  k points:
  (in case of degenerate eigenvalues, averaged derivative)
 kpt#   1, nband= 57, wtk=  1.00000, kpt=  0.0000  0.0000  0.0000 (reduced coord)
   0.00000    0.00000    0.00000   -0.00000    0.00000    0.00000   -0.00000   -0.00000
  -0.00000   -0.00000    0.00000   -0.00000    0.00000    0.00000   -0.00000    0.00000
   0.00000   -0.00000   -0.00000   -0.00000   -0.00000    0.00000    0.00000    0.00000
   0.00000    0.00000   -0.00000    0.00000    0.00000    0.00000   -0.00000   -0.00000
   0.00000    0.00000    0.00000    0.00000   -0.00000   -0.00000   -0.00000    0.00000
  -0.00000   -0.00000   -0.00000    0.00000    0.00000   -0.00000    0.00000    0.00000
   0.00000   -0.00000   -0.00000   -0.00000    0.00000    0.00000   -0.00000    0.00000
   0.00000

 Eight components of 2nd-order total energy (hartree) are
 1,2,3: 0th-order hamiltonian combined with 1st-order wavefunctions
     kin0=   1.33193920E+02 eigvalue=   2.46587469E+00  local=  -5.03391173E+01
 4,5,6: 1st-order hamiltonian combined with 1st and 0th-order wfs
     kin1=  -1.92983481E+02  Hartree=   0.00000000E+00     xc=   0.00000000E+00
 7,8,9: eventually, occupation + non-local contributions
    edocc=   3.60532956E+01     enl0=  -5.31555613E-01   enl1=  -4.87013526E+01
 1-9 gives the relaxation energy (to be shifted if some occ is /=2.0)
   erelax=  -1.20842417E+02
  No Ewald or frozen-wf contrib.: the relaxation energy is the total one
 2DEtotal=   -0.1208424169E+03 Ha. Also 2DEtotal=   -0.328828939205E+04 eV
    (  non-var. 2DEtotal :   -1.2084241687E+02 Ha)

 CALCULATION OF EFFECTIVE MASSES
 NOTE : Additional infos (eff. mass eigenvalues, eigenvectors and, if degenerate, average mass) are available in stdout.

 COMMENTS:
 - At k-point ( 0.000, 0.000, 0.000), bands    47 through    48
   are DEGENERATE (effective mass tensor is therefore not defined).
   See Section IIIB Eqs. (67)-(70) and Appendix E of PRB 93 205147 (2016).
 - Angular average effective mass for Frohlich model is to be averaged over degenerate bands. See later.
 - Associated theta integrals calculated with ntheta=   1000 points.

 K-point ( 0.000, 0.000, 0.000) | band =    47
 Transport equivalent effective mass tensor:
             -0.1706682747             -0.0890173920              0.1627157268
             -0.0890173920             -0.2069461079              0.1992157664
              0.1627157268              0.1992157664             -0.4621088986
 Transport equivalent effective mass tensor eigenvalues:
             -0.6438022264             -0.0979605276             -0.0979605272
 Angular average effective mass 1/(<1/m>)=  -0.1355625043
 Angular average effective mass for Frohlich model (<m**0.5>)**2=  -0.1570850294
 Effective masses along directions: (cart. coord. / red. coord. -> eff. mass)
    1:   1.000000  0.000000  0.000000 /   0.980644 -0.195800  0.000000 ->  -0.1137717401
    2:   0.000000  1.000000  0.000000 /   0.000000  1.000000  0.000000 ->  -0.1235411965
    3:   0.000000  0.000000  1.000000 /  -0.485250 -0.485250  0.727368 ->  -0.2152895522
    4:   0.577350  0.577350  0.577350 /   0.077290 -0.085359  0.993348 ->  -0.0927634841
    5:   0.000000  0.707107  0.707107 /  -0.554212  0.052177  0.830739 ->  -0.1050499273
    6:   0.707107  0.000000  0.707107 /   0.060179 -0.631019  0.773430 ->  -0.1109960974
    7:   0.707107  0.707107  0.000000 /   0.788426  0.615129  0.000000 ->  -0.1294641549

 K-point ( 0.000, 0.000, 0.000) | band =    48
 Transport equivalent effective mass tensor:
             -3.8473231853              0.0746293030             -0.1364156090
              0.0746293030             -3.8169090336             -0.1670160581
             -0.1364156090             -0.1670160581             -3.6029887788
 Transport equivalent effective mass tensor eigenvalues:
             -3.9082790164             -3.9082790116             -3.4506629698
 Angular average effective mass 1/(<1/m>)=  -0.9464977683
 Angular average effective mass for Frohlich model (<m**0.5>)**2=  -1.0767452825
 Effective masses along directions: (cart. coord. / red. coord. -> eff. mass)
    1:   1.000000  0.000000  0.000000 /   0.980644 -0.195800  0.000000 ->  -0.8115341969
    2:   0.000000  1.000000  0.000000 /   0.000000  1.000000  0.000000 ->  -0.7144167853
    3:   0.000000  0.000000  1.000000 /  -0.485250 -0.485250  0.727368 ->  -0.8781839753
    4:   0.577350  0.577350  0.577350 /   0.077290 -0.085359  0.993348 ->  -3.3454578079
    5:   0.000000  0.707107  0.707107 /  -0.554212  0.052177  0.830739 ->  -0.9836361066
    6:   0.707107  0.000000  0.707107 /   0.060179 -0.631019  0.773430 ->  -0.7939121221
    7:   0.707107  0.707107  0.000000 /   0.788426  0.615129  0.000000 ->  -1.3525478408

 Angular average effective mass for Frohlich model, averaged over degenerate bands.
 Value of     (<<m**0.5>>)**2 =     5.140911E-01
 Absolute Value of <<m**0.5>> =     7.170015E-01

 K-point ( 0.000, 0.000, 0.000) | band =    49
 Effective mass tensor:
              0.0974955593              0.0043224100             -0.0079009733
              0.0043224100              0.0992570991             -0.0096733025
             -0.0079009733             -0.0096733025              0.1116470159
 Effective mass tensor eigenvalues:
              0.0939650954              0.0939650958              0.1204694831
 Angular average effective mass 1/(<1/m>)=   0.1014015157
 Angular average effective mass for Frohlich model (<m**0.5>)**2=   0.1018006096
 Effective masses along directions: (cart. coord. / red. coord. -> eff. mass)
    1:   1.000000  0.000000  0.000000 /   0.980644 -0.195800  0.000000 ->   0.0968019619
    2:   0.000000  1.000000  0.000000 /   0.000000  1.000000  0.000000 ->   0.0982824640
    3:   0.000000  0.000000  1.000000 /  -0.485250 -0.485250  0.727368 ->   0.1101293404
    4:   0.577350  0.577350  0.577350 /   0.077290 -0.085359  0.993348 ->   0.0939652661
    5:   0.000000  0.707107  0.707107 /  -0.554212  0.052177  0.830739 ->   0.0954013561
    6:   0.707107  0.000000  0.707107 /   0.060179 -0.631019  0.773430 ->   0.0961236123
    7:   0.707107  0.707107  0.000000 /   0.788426  0.615129  0.000000 ->   0.1013097190

 END OF EFFECTIVE MASSES SECTION

 ---- first-order wavefunction calculations are completed ----

 Total localisation tensor (bohr^2) in cartesian coordinates
  WARNING : still subject to testing - especially symmetries.
      direction              matrix element
   alpha     beta       real part   imaginary part
     1        1       6.9885547324    0.0000000000
     1        2      -1.3148558488    0.0000000000
     1        3      -4.8169502844    0.0000000000
     2        1      -1.3148558488    0.0000000000
     2        2       6.4527030369    0.0000000000
     2        3      -5.8974780980    0.0000000000
     3        1      -4.8169502844    0.0000000000
     3        2      -5.8974780980    0.0000000000
     3        3      32.1137686604    0.0000000000

 respfn : d/dk was computed, but no 2DTE, so no DDB output.

== END DATASET(S) ==============================================================

 -outvars: echo values of variables after computation  --------
            acell      1.0000000000E+00  1.0000000000E+00  1.0000000000E+00 Bohr
              amu      6.53900000E+01  6.35460000E+01  7.26100000E+01
                       3.20660000E+01
             ecut      4.60000000E+01 Hartree
           etotal     -1.2084241687E+02
            fcart      0.0000000000E+00  0.0000000000E+00  0.0000000000E+00
                       0.0000000000E+00  0.0000000000E+00  0.0000000000E+00
                       0.0000000000E+00  0.0000000000E+00  0.0000000000E+00
                       0.0000000000E+00  0.0000000000E+00  0.0000000000E+00
                       0.0000000000E+00  0.0000000000E+00  0.0000000000E+00
                       0.0000000000E+00  0.0000000000E+00  0.0000000000E+00
                       0.0000000000E+00  0.0000000000E+00  0.0000000000E+00
                       0.0000000000E+00  0.0000000000E+00  0.0000000000E+00
-          fftalg         512
           irdden           1
           irdwfk           1
           istwfk        1
              ixc     -116133
           kptopt           0
P           mkmem           1
P          mkqmem           1
P          mk1mem           1
            natom           8
            nband          57
           nbdbuf           4
            ngfft          80      80      80
             nkpt           1
            nstep        2000
             nsym           8
           ntypat           4
              occ      2.000000  2.000000  2.000000  2.000000  2.000000  2.000000
                       2.000000  2.000000  2.000000  2.000000  2.000000  2.000000
                       2.000000  2.000000  2.000000  2.000000  2.000000  2.000000
                       2.000000  2.000000  2.000000  2.000000  2.000000  2.000000
                       2.000000  2.000000  2.000000  2.000000  2.000000  2.000000
                       2.000000  2.000000  2.000000  2.000000  2.000000  2.000000
                       2.000000  2.000000  2.000000  2.000000  2.000000  2.000000
                       2.000000  2.000000  2.000000  2.000000  2.000000  2.000000
                       0.000000  0.000000  0.000000  0.000000  0.000000  0.000000
                       0.000000  0.000000  0.000000
        optdriver           1
            prtwf          -1
            rfdir           1       1       1
           rfelfd           2
            rprim      9.0658488072E+00  0.0000000000E+00 -8.1189340260E+00
                      -1.8101343850E+00  8.8833005186E+00 -8.1189340260E+00
                       0.0000000000E+00  0.0000000000E+00  1.2169909791E+01
          spgroup         121
           strten      0.0000000000E+00  0.0000000000E+00  0.0000000000E+00
                       0.0000000000E+00  0.0000000000E+00  0.0000000000E+00
           symrel      1  0  0   0  1  0   0  0  1       0  0  1  -1 -1 -1   1  0  0
                       0  1  0   1  0  0  -1 -1 -1      -1 -1 -1   0  0  1   0  1  0
                       0  1  0   1  0  0   0  0  1       0  0  1  -1 -1 -1   0  1  0
                       1  0  0   0  1  0  -1 -1 -1      -1 -1 -1   0  0  1   1  0  0
           tolwfr      1.00000000E-20
            typat      1  2  2  3  4  4  4  4
           useylm           1
           xangst      0.0000000000E+00  0.0000000000E+00  0.0000000000E+00
                       3.3586099587E+00  1.1752100429E+00 -1.0763353987E+00
                       4.8094874555E-01  3.5256301286E+00 -1.0763353987E+00
                       1.9197793521E+00  2.3504200857E+00 -4.2963548446E+00
                       1.0097816491E+00  4.1040720374E+00 -5.4041785340E+00
                       4.8742909784E-01  5.9676813414E-01  2.2048550724E+00
                       3.8198149461E+00  1.8088891740E+00 -5.4041785340E+00
                       2.3620917154E+00  2.8919509975E+00 -2.1418784910E+00
            xcart      0.0000000000E+00  0.0000000000E+00  0.0000000000E+00
                       6.3468530092E+00  2.2208251297E+00 -2.0339791306E+00
                       9.0886141305E-01  6.6624753889E+00 -2.0339791307E+00
                       3.6278572111E+00  4.4416502593E+00 -8.1189340260E+00
                       1.9082107709E+00  7.7555721802E+00 -1.0212417402E+01
                       9.2110750411E-01  1.1277283384E+00  4.1665722495E+00
                       7.2184041265E+00  3.4183051437E+00 -1.0212417402E+01
                       4.4637064429E+00  5.4649953749E+00 -4.0475637579E+00
             xred      0.0000000000E+00  0.0000000000E+00  0.0000000000E+00
                       7.5000000000E-01  2.5000000000E-01  5.0000000000E-01
                       2.5000000000E-01  7.5000000000E-01  5.0000000000E-01
                       5.0000000000E-01  5.0000000000E-01  0.0000000000E+00
                       3.8480125000E-01  8.7305075000E-01  0.0000000000E+00
                       1.2694925000E-01  1.2694925000E-01  5.1175050000E-01
                       8.7305075000E-01  3.8480125000E-01  0.0000000000E+00
                       6.1519875000E-01  6.1519875000E-01  4.8824950000E-01
            znucl       30.00000   29.00000   32.00000   16.00000

- Timing analysis has been suppressed with timopt=0

 Suggested references for the acknowledgment of ABINIT usage.

 Calculation completed.
.Delivered   6 WARNINGs and   5 COMMENTs to log file.