.Version 9.5.2 of ABINIT

 ABINIT is a project of the Universite Catholique de Louvain,
 Corning Inc. and other collaborators, see ~abinit/doc/developers/contributors.txt .
 acknowledgments of the ABINIT effort.

.Starting date : Wed 26 May 2021.
- ( at 02h06 )

- input  file    -> /scratch/users/j/a/jabreu/flow_simple_11atoms/flow/w211/t1/run.abi
- output file    -> /scratch/users/j/a/jabreu/flow_simple_11atoms/flow/w211/t1/run.abo
- root for input  files -> /scratch/users/j/a/jabreu/flow_simple_11atoms/flow/w211/t1/indata/in
- root for output files -> /scratch/users/j/a/jabreu/flow_simple_11atoms/flow/w211/t1/outdata/out

 Symmetries : space group P-3 m 1 (#164); Bravais hP (primitive hexag.)
     intxc =       0      iscf =       7    lmnmax =      18     lnmax =       6
     mgfft =      90  mpssoang =       3    mqgrid =    4005     natom =      12
  nloc_mem =       1    nspden =       1   nspinor =       1    nsppol =       1
      nsym =      12    n1xccc =    2501    ntypat =       4    occopt =       1
   xclevel =       2
-    mband =          36        mffmem =           1         mkmem =           2
-   mkqmem =           2        mk1mem =           2           mpw =       12552
      nfft =      262440          nkpt =           2
  Rough estimation (10% accuracy) of disk space for files :

------------- Echo of variables that govern the present computation ------------
-
- outvars: echo of selected default values
-   iomode0 =  0 , fftalg0 =512 , wfoptalg0 =  0
-
- outvars: echo of global parameters not present in the input file
-  max_nthreads =    0
-
 -outvars: echo values of preprocessed input variables --------
            acell      1.0000000000E+00  1.0000000000E+00  1.0000000000E+00 Bohr
              amu      1.37327000E+02  2.43050000E+01  5.58470000E+01
                       1.00794000E+00
             ecut      4.70000000E+01 Hartree
-          fftalg         512
           irdden           1
           irdwfk           1
           istwfk        1    1
              ixc     -116133
              kpt      5.00000000E-01  0.00000000E+00  5.00000000E-01
                       5.00000000E-01  0.00000000E+00  0.00000000E+00
           kptopt           0
P           mkmem           2
P          mkqmem           2
P          mk1mem           2
            natom          12
            nband          36
           nbdbuf           4
            ngfft          54      54      90
             nkpt           2
            nstep        2000
             nsym          12
           ntypat           4
              occ      2.000000  2.000000  2.000000  2.000000  2.000000  2.000000
                       2.000000  2.000000  2.000000  2.000000  2.000000  2.000000
                       2.000000  2.000000  2.000000  2.000000  2.000000  2.000000
                       2.000000  2.000000  2.000000  2.000000  2.000000  2.000000
                       2.000000  2.000000  2.000000  0.000000  0.000000  0.000000
                       0.000000  0.000000  0.000000  0.000000  0.000000  0.000000
        optdriver           1
            prtwf          -1
            rfdir           1       1       1
           rfelfd           2
            rprim      8.5160101704E+00  0.0000000000E+00  0.0000000000E+00
                      -4.2580050852E+00  7.3750811465E+00  0.0000000000E+00
                       0.0000000000E+00  0.0000000000E+00  1.2976275033E+01
          spgroup         164
           symrel      1  0  0   0  1  0   0  0  1      -1  0  0   0 -1  0   0  0 -1
                      -1  0  0   1  1  0   0  0  1       1  0  0  -1 -1  0   0  0 -1
                       0  1  0  -1 -1  0   0  0  1       0 -1  0   1  1  0   0  0 -1
                       0 -1  0  -1  0  0   0  0  1       0  1  0   1  0  0   0  0 -1
                      -1 -1  0   1  0  0   0  0  1       1  1  0  -1  0  0   0  0 -1
                       1  1  0   0 -1  0   0  0  1      -1 -1  0   0  1  0   0  0 -1
           tolwfr      1.00000000E-20
            typat      1  2  2  3  4  4  4  4  4  4  4  4
           useylm           1
              wtk        0.50000    0.50000
           xangst      0.0000000000E+00  0.0000000000E+00  3.4333745000E+00
                       0.0000000000E+00  2.6018165695E+00  6.0895772149E+00
                       2.2532392451E+00  1.3009082847E+00  7.7717178507E-01
                       0.0000000000E+00  0.0000000000E+00 -3.8118114220E-16
                      -1.1766167482E+00  3.2811365658E+00  9.4768002949E-01
                       1.1766167482E+00  3.2811365658E+00  9.4768002949E-01
                       0.0000000000E+00  1.2431765769E+00  9.4768002949E-01
                       3.4298559933E+00  6.2158828844E-01  5.9190689705E+00
                       1.0766224970E+00  6.2158828844E-01  5.9190689705E+00
                       2.2532392451E+00  2.6595482773E+00  5.9190689705E+00
                       0.0000000000E+00  2.6018165695E+00  4.1656926806E+00
                       2.2532392451E+00  1.3009082847E+00  2.7010563194E+00
            xcart      0.0000000000E+00  0.0000000000E+00  6.4881375166E+00
                       0.0000000000E+00  4.9167207643E+00  1.1507633201E+01
                       4.2580050852E+00  2.4583603822E+00  1.4686418320E+00
                       0.0000000000E+00  0.0000000000E+00 -7.2032796579E-16
                      -2.2234834174E+00  6.2004495139E+00  1.7908557173E+00
                       2.2234834174E+00  6.2004495139E+00  1.7908557173E+00
                       0.0000000000E+00  2.3492632651E+00  1.7908557173E+00
                       6.4814885026E+00  1.1746316326E+00  1.1185419316E+01
                       2.0345216678E+00  1.1746316326E+00  1.1185419316E+01
                       4.2580050852E+00  5.0258178814E+00  1.1185419316E+01
                       0.0000000000E+00  4.9167207643E+00  7.8720183201E+00
                       4.2580050852E+00  2.4583603822E+00  5.1042567131E+00
             xred      0.0000000000E+00  0.0000000000E+00  5.0000000000E-01
                       3.3333333333E-01  6.6666666667E-01  8.8682100000E-01
                       6.6666666667E-01  3.3333333333E-01  1.1317900000E-01
                       0.0000000000E+00  0.0000000000E+00 -5.5511151231E-17
                       1.5927033333E-01  8.4072966667E-01  1.3801000000E-01
                       6.8145933333E-01  8.4072966667E-01  1.3801000000E-01
                       1.5927033333E-01  3.1854066667E-01  1.3801000000E-01
                       8.4072966667E-01  1.5927033333E-01  8.6199000000E-01
                       3.1854066667E-01  1.5927033333E-01  8.6199000000E-01
                       8.4072966667E-01  6.8145933333E-01  8.6199000000E-01
                       3.3333333333E-01  6.6666666667E-01  6.0664700000E-01
                       6.6666666667E-01  3.3333333333E-01  3.9335300000E-01
            znucl       56.00000   12.00000   26.00000    1.00000

 chkinp: Checking input parameters for consistency.

== DATASET  1 ==================================================================
-   mpi_nproc: 1, omp_nthreads: -1 (-1 if OMP is not activated)

--- !DatasetInfo
iteration_state: {dtset: 1, }
dimensions: {natom: 12, nkpt: 2, mband: 36, nsppol: 1, nspinor: 1, nspden: 1, mpw: 12552, }
cutoff_energies: {ecut:  47.0, pawecutdg:  -1.0, }
electrons: {nelect:   5.40000000E+01, charge:   0.00000000E+00, occopt:   1.00000000E+00, tsmear:   1.00000000E-02, }
meta: {optdriver: 1, rfelfd: 2, }
...

 Real(R)+Recip(G) space primitive vectors, cartesian coordinates (Bohr,Bohr^-1):
 R(1)=  8.5160102  0.0000000  0.0000000  G(1)=  0.1174259  0.0677959  0.0000000
 R(2)= -4.2580051  7.3750811  0.0000000  G(2)=  0.0000000  0.1355917  0.0000000
 R(3)=  0.0000000  0.0000000 12.9762750  G(3)=  0.0000000  0.0000000  0.0770637
 Unit cell volume ucvol=  8.1499138E+02 bohr^3
 Angles (23,13,12)=  9.00000000E+01  9.00000000E+01  1.20000000E+02 degrees

 getcut: wavevector=  0.0000  0.0000  0.0000  ngfft=  54  54  90
         ecut(hartree)=     47.000   => boxcut(ratio)=   2.05515

--- Pseudopotential description ------------------------------------------------
- pspini: atom type   1  psp file is /scratch/users/j/a/jabreu/pseudos/PBEsol/Ba.psp8
- pspatm: opening atomic psp file    /scratch/users/j/a/jabreu/pseudos/PBEsol/Ba.psp8
- Ba    ONCVPSP-3.3.0  r_core=   2.15444   1.91218   2.15444
- 56.00000  10.00000    180112                znucl, zion, pspdat
    8 -116133    2    4       600   0.00000   pspcod,pspxc,lmax,lloc,mmax,r2well
    5.99000000000000    5.00000000000000    0.00000000000000   rchrg,fchrg,qchrg
     nproj     2     2     2
     extension_switch     1
  pspatm : epsatm=   26.37418029
         --- l  ekb(1:nproj) -->
             0    6.652372    0.677024
             1    5.027722    0.408462
             2    2.543237    0.416854
 pspatm: atomic psp has been read  and splines computed

- pspini: atom type   2  psp file is /scratch/users/j/a/jabreu/pseudos/PBEsol/Mg.psp8
- pspatm: opening atomic psp file    /scratch/users/j/a/jabreu/pseudos/PBEsol/Mg.psp8
- Mg    ONCVPSP-3.3.0  r_core=   1.16056   1.56380
- 12.00000  10.00000    180112                znucl, zion, pspdat
    8 -116133    1    4       400   0.00000   pspcod,pspxc,lmax,lloc,mmax,r2well
    3.99000000000000    0.00000000000000    0.00000000000000   rchrg,fchrg,qchrg
     nproj     2     2
     extension_switch     1
  pspatm : epsatm=    9.18164846
         --- l  ekb(1:nproj) -->
             0    2.230603   -0.826587
             1   -6.503151   -2.501445
 pspatm: atomic psp has been read  and splines computed

[...]

- pspini: atom type   4  psp file is /scratch/users/j/a/jabreu/pseudos/PBEsol/H.psp8
- pspatm: opening atomic psp file    /scratch/users/j/a/jabreu/pseudos/PBEsol/H.psp8
- H     ONCVPSP-3.3.0  r_core=   1.00957   0.70586
-  1.00000   1.00000    180112                znucl, zion, pspdat
    8 -116133    1    4       300   0.00000   pspcod,pspxc,lmax,lloc,mmax,r2well
    2.99000000000000    0.00000000000000    0.00000000000000   rchrg,fchrg,qchrg
     nproj     2     1
     extension_switch     1
  pspatm : epsatm=    0.35627032
         --- l  ekb(1:nproj) -->
             0   -1.674911   -0.523609
             1   -0.494138
 pspatm: atomic psp has been read  and splines computed

   3.38232065E+03                                ecore*ucvol(ha*bohr**3)

 ==>  initialize data related to q vector <==

 The list of irreducible perturbations for this q vector is:
    1)    idir= 1    ipert=  13
    2)    idir= 2    ipert=  13
    3)    idir= 3    ipert=  13

 Perturbation wavevector (in red.coord.)   0.000000  0.000000  0.000000
 Perturbation : derivative vs k along direction   1

 dfpt_looppert : COMMENT -
  In a d/dk calculation, iscf is set to -3 automatically.
 The set of symmetries contains only one element for this perturbation.
 symkpt : not enough symmetry to change the number of k points.

 Initialisation of the first-order wave-functions :
  ireadwf=   0

--- !BeginCycle
iteration_state: {dtset: 1, }
solver: {iscf: 7, nstep: 2000, nline: 4, wfoptalg: 0, }
tolerances: {tolwfr: 1.00E-20, }
...

     iter   2DEtotal(Ha)        deltaE(Ha) residm    vres2
[...]
 ETOT 12  -41.970985946553      7.105E-15 8.765E-14 0.000E+00
 ETOT 13  -41.970985946553      2.842E-14 2.846E-14 0.000E+00
 ETOT 14  -41.970985946553     -2.132E-14 1.460E-15 0.000E+00
 ETOT 15  -41.970985946553      2.132E-14 4.814E-16 0.000E+00
 ETOT 16  -41.970985946553     -2.132E-14 2.437E-17 0.000E+00
 ETOT 17  -41.970985946553      7.105E-15 8.156E-18 0.000E+00
 ETOT 18  -41.970985946553      0.000E+00 4.084E-19 0.000E+00
 ETOT 19  -41.970985946553      0.000E+00 1.386E-19 0.000E+00
 ETOT 20  -41.970985946553      0.000E+00 9.670E-21 0.000E+00

 At SCF step   20   max residual=  9.67E-21 < tolwfr=  1.00E-20 =>converged.

 ----iterations are completed or convergence reached----

 dfpt_looppert: DFPT cycle converged with prtwf=-1. Will skip output of the 1st-order WFK file.
 dfpt_looppert : ek2=    7.8388054509E+01
          f-sum rule ratio=    9.5375539119E-01
 prteigrs : about to open file /scratch/users/j/a/jabreu/flow_simple_11atoms/flow/w211/t1/tmpdata/tmp_1WF1_EIG
 Expectation of eigenvalue derivatives (hartree) for nkpt=   2  k points:
  (in case of degenerate eigenvalues, averaged derivative)
 kpt#   1, nband= 36, wtk=  0.50000, kpt=  0.5000  0.0000  0.5000 (reduced coord)
   0.00000   -0.00000   -0.00000    0.00000   -0.00000    0.00000   -0.00000    0.00000
  -0.00000   -0.00000   -0.00000   -0.00000    0.00000    0.00000   -0.00000    0.00000
   0.00000    0.00000    0.00000   -0.00000    0.00000   -0.00000    0.00000   -0.00000
   0.00000    0.00000    0.00000   -0.00000    0.00000   -0.00000   -0.00000    0.00000
   0.00000   -0.00000    0.00000    0.00000
 prteigrs : prtvol=0 or 1, do not print more k-points.

 Eight components of 2nd-order total energy (hartree) are
 1,2,3: 0th-order hamiltonian combined with 1st-order wavefunctions
     kin0=   4.96656709E+01 eigvalue=   4.17899123E+00  local=  -2.27672397E+01
 4,5,6: 1st-order hamiltonian combined with 1st and 0th-order wfs
     kin1=  -7.47630296E+01  Hartree=   0.00000000E+00     xc=   0.00000000E+00
 7,8,9: eventually, occupation + non-local contributions
    edocc=   1.04683968E+01     enl0=   4.25166822E-01   enl1=  -9.17894230E+00
 1-9 gives the relaxation energy (to be shifted if some occ is /=2.0)
   erelax=  -4.19709859E+01
  No Ewald or frozen-wf contrib.: the relaxation energy is the total one
 2DEtotal=   -0.4197098595E+02 Ha. Also 2DEtotal=   -0.114208860957E+04 eV
    (  non-var. 2DEtotal :   -4.1970985946E+01 Ha)

 Perturbation wavevector (in red.coord.)   0.000000  0.000000  0.000000
 Perturbation : derivative vs k along direction   2
 The set of symmetries contains only one element for this perturbation.
 symkpt : not enough symmetry to change the number of k points.

[...]

 Perturbation wavevector (in red.coord.)   0.000000  0.000000  0.000000
 Perturbation : derivative vs k along direction   3
 The set of symmetries contains only one element for this perturbation.
 symkpt : not enough symmetry to change the number of k points.

 Initialisation of the first-order wave-functions :
  ireadwf=   0

--- !BeginCycle
iteration_state: {dtset: 1, }
solver: {iscf: 7, nstep: 2000, nline: 4, wfoptalg: 0, }
tolerances: {tolwfr: 1.00E-20, }
...

     iter   2DEtotal(Ha)        deltaE(Ha) residm    vres2
-ETOT  1  -13.997641451448     -1.400E+01 4.111E-02 0.000E+00
 ETOT  2  -14.012323175150     -1.468E-02 3.816E-03 0.000E+00
 ETOT  3  -14.012581304614     -2.581E-04 2.013E-04 0.000E+00
 ETOT  4  -14.012588947078     -7.642E-06 3.449E-05 0.000E+00
 ETOT  5  -14.012589208795     -2.617E-07 4.705E-06 0.000E+00
 ETOT  6  -14.012589218356     -9.562E-09 5.000E-07 0.000E+00
 ETOT  7  -14.012589218723     -3.668E-10 7.293E-08 0.000E+00
 ETOT  8  -14.012589218738     -1.446E-11 8.167E-09 0.000E+00
 ETOT  9  -14.012589218738     -5.862E-13 1.409E-09 0.000E+00
 ETOT 10  -14.012589218738     -2.309E-14 1.690E-10 0.000E+00
 ETOT 11  -14.012589218738     -8.882E-15 2.912E-11 0.000E+00
 ETOT 12  -14.012589218738      1.776E-15 3.621E-12 0.000E+00
 ETOT 13  -14.012589218738     -7.105E-15 6.165E-13 0.000E+00
 ETOT 14  -14.012589218738      1.776E-15 7.906E-14 0.000E+00
 ETOT 15  -14.012589218738      3.553E-15 1.330E-14 0.000E+00
 ETOT 16  -14.012589218738     -5.329E-15 1.747E-15 0.000E+00
 ETOT 17  -14.012589218738      3.553E-15 2.917E-16 0.000E+00
 ETOT 18  -14.012589218738     -3.553E-15 3.898E-17 0.000E+00
 ETOT 19  -14.012589218738      3.553E-15 6.493E-18 0.000E+00
 ETOT 20  -14.012589218738     -1.776E-15 8.766E-19 0.000E+00
 ETOT 21  -14.012589218738     -1.776E-15 1.464E-19 0.000E+00
 ETOT 22  -14.012589218738      3.553E-15 1.986E-20 0.000E+00
 ETOT 23  -14.012589218738      0.000E+00 9.996E-21 0.000E+00

 At SCF step   23   max residual=  1.00E-20 < tolwfr=  1.00E-20 =>converged.

 ----iterations are completed or convergence reached----

 dfpt_looppert: DFPT cycle converged with prtwf=-1. Will skip output of the 1st-order WFK file.
 dfpt_looppert : ek2=    2.5321148980E+01
          f-sum rule ratio=    9.9798515998E-01
 prteigrs : about to open file /scratch/users/j/a/jabreu/flow_simple_11atoms/flow/w211/t1/tmpdata/tmp_1WF1_EIG
 Expectation of eigenvalue derivatives (hartree) for nkpt=   2  k points:
  (in case of degenerate eigenvalues, averaged derivative)
 kpt#   1, nband= 36, wtk=  0.50000, kpt=  0.5000  0.0000  0.5000 (reduced coord)
  -0.00000   -0.00000    0.00000   -0.00000   -0.00000    0.00000   -0.00000    0.00000
  -0.00000    0.00000    0.00000    0.00000    0.00000    0.00000    0.00000   -0.00000
  -0.00000    0.00000    0.00000    0.00000   -0.00000    0.00000    0.00000    0.00000
  -0.00000    0.00000    0.00000    0.00000   -0.00000    0.00000    0.00000    0.00000
   0.00000   -0.00000   -0.00000    0.00000
 prteigrs : prtvol=0 or 1, do not print more k-points.

 Eight components of 2nd-order total energy (hartree) are
 1,2,3: 0th-order hamiltonian combined with 1st-order wavefunctions
     kin0=   1.50952011E+01 eigvalue=   1.46546516E+00  local=  -6.95335878E+00
 4,5,6: 1st-order hamiltonian combined with 1st and 0th-order wfs
     kin1=  -2.52701309E+01  Hartree=   0.00000000E+00     xc=   0.00000000E+00
 7,8,9: eventually, occupation + non-local contributions
    edocc=   4.11331738E+00     enl0=   2.91964328E-01   enl1=  -2.75504752E+00
 1-9 gives the relaxation energy (to be shifted if some occ is /=2.0)
   erelax=  -1.40125892E+01
  No Ewald or frozen-wf contrib.: the relaxation energy is the total one
 2DEtotal=   -0.1401258922E+02 Ha. Also 2DEtotal=   -0.381301944104E+03 eV
    (  non-var. 2DEtotal :   -1.4012589219E+01 Ha)

 CALCULATION OF EFFECTIVE MASSES
 NOTE : Additional infos (eff. mass eigenvalues, eigenvectors and, if degenerate, average mass) are available in stdout.

 K-point ( 0.500, 0.000, 0.500) | band =    27
 Effective mass tensor:
             -6.2778213972              2.9149625096             -0.5189260376
              2.9149625096             -9.6437302445             -0.2996020917
             -0.5189260376             -0.2996020917             -2.1868640870
 Effective mass tensor eigenvalues:
            -11.3266846170             -4.7357317881             -2.0459993236
 Angular average effective mass 1/(<1/m>)=  -3.8061096207
 Angular average effective mass for Frohlich model (<m**0.5>)**2=  -4.3505751772
 Effective masses along directions: (cart. coord. / red. coord. -> eff. mass)
    1:   1.000000  0.000000  0.000000 /   0.894427 -0.447214  0.000000 ->  -5.2261387753
    2:   0.000000  1.000000  0.000000 /   0.000000  1.000000  0.000000 ->  -8.1539458400
    3:   0.000000  0.000000  1.000000 /   0.000000  0.000000  1.000000 ->  -2.1087234915
    4:   0.577350  0.577350  0.577350 /   0.537931  0.196896  0.819672 ->  -4.0636451600
    5:   0.000000  0.707107  0.707107 /   0.000000  0.494121  0.869393 ->  -3.7381868474
    6:   0.707107  0.000000  0.707107 /   0.529122 -0.264561  0.806249 ->  -3.5813205050
    7:   0.707107  0.707107  0.000000 /   0.939071  0.343724  0.000000 ->  -4.6190669247

 K-point ( 0.500, 0.000, 0.000) | band =    28
 Effective mass tensor:
              0.7629976145             -0.0821828349             -0.1218205759
             -0.0821828349              0.8578942345             -0.0703331642
             -0.1218205759             -0.0703331642              0.7302870084
 Effective mass tensor eigenvalues:
              0.5820590055              0.8637773496              0.9053425023
 Angular average effective mass 1/(<1/m>)=   0.7537122263
 Angular average effective mass for Frohlich model (<m**0.5>)**2=   0.7631952749
 Effective masses along directions: (cart. coord. / red. coord. -> eff. mass)
    1:   1.000000  0.000000  0.000000 /   0.894427 -0.447214  0.000000 ->   0.7323135949
    2:   0.000000  1.000000  0.000000 /   0.000000  1.000000  0.000000 ->   0.8392444588
    3:   0.000000  0.000000  1.000000 /   0.000000  0.000000  1.000000 ->   0.7026341194
    4:   0.577350  0.577350  0.577350 /   0.537931  0.196896  0.819672 ->   0.5945262133
    5:   0.000000  0.707107  0.707107 /   0.000000  0.494121  0.869393 ->   0.6909544677
    6:   0.707107  0.000000  0.707107 /   0.529122 -0.264561  0.806249 ->   0.6109949867
    7:   0.707107  0.707107  0.000000 /   0.939071  0.343724  0.000000 ->   0.6996828781

 END OF EFFECTIVE MASSES SECTION

 ---- first-order wavefunction calculations are completed ----

 Total localisation tensor (bohr^2) in cartesian coordinates
  WARNING : still subject to testing - especially symmetries.
      direction              matrix element
   alpha     beta       real part   imaginary part
     1        1       1.1859719177    0.0000000000
     1        2      -0.4646156842    0.0000000000
     1        3       0.0000000000    0.0000000000
     2        1      -0.4646156842    0.0000000000
     2        2       0.8047379711    0.0000000000
     2        3       0.0000000000    0.0000000000
     3        1       0.0000000000    0.0000000000
     3        2       0.0000000000    0.0000000000
     3        3       0.7645296628    0.0000000000

 respfn : d/dk was computed, but no 2DTE, so no DDB output.

== END DATASET(S) ==============================================================

 -outvars: echo values of variables after computation  --------
            acell      1.0000000000E+00  1.0000000000E+00  1.0000000000E+00 Bohr
              amu      1.37327000E+02  2.43050000E+01  5.58470000E+01
                       1.00794000E+00
             ecut      4.70000000E+01 Hartree
           etotal     -1.4012589219E+01
            fcart      0.0000000000E+00  0.0000000000E+00  0.0000000000E+00
                       0.0000000000E+00  0.0000000000E+00  0.0000000000E+00
                       0.0000000000E+00  0.0000000000E+00  0.0000000000E+00
                       0.0000000000E+00  0.0000000000E+00  0.0000000000E+00
                       0.0000000000E+00  0.0000000000E+00  0.0000000000E+00
                       0.0000000000E+00  0.0000000000E+00  0.0000000000E+00
                       0.0000000000E+00  0.0000000000E+00  0.0000000000E+00
                       0.0000000000E+00  0.0000000000E+00  0.0000000000E+00
                       0.0000000000E+00  0.0000000000E+00  0.0000000000E+00
                       0.0000000000E+00  0.0000000000E+00  0.0000000000E+00
                       0.0000000000E+00  0.0000000000E+00  0.0000000000E+00
                       0.0000000000E+00  0.0000000000E+00  0.0000000000E+00
-          fftalg         512
           irdden           1
           irdwfk           1
           istwfk        1    1
              ixc     -116133
              kpt      5.00000000E-01  0.00000000E+00  5.00000000E-01
                       5.00000000E-01  0.00000000E+00  0.00000000E+00
           kptopt           0
P           mkmem           2
P          mkqmem           2
P          mk1mem           2
            natom          12
            nband          36
           nbdbuf           4
            ngfft          54      54      90
             nkpt           2
            nstep        2000
             nsym          12
           ntypat           4
              occ      2.000000  2.000000  2.000000  2.000000  2.000000  2.000000
                       2.000000  2.000000  2.000000  2.000000  2.000000  2.000000
                       2.000000  2.000000  2.000000  2.000000  2.000000  2.000000
                       2.000000  2.000000  2.000000  2.000000  2.000000  2.000000
                       2.000000  2.000000  2.000000  0.000000  0.000000  0.000000
                       0.000000  0.000000  0.000000  0.000000  0.000000  0.000000
        optdriver           1
            prtwf          -1
            rfdir           1       1       1
           rfelfd           2
            rprim      8.5160101704E+00  0.0000000000E+00  0.0000000000E+00
                      -4.2580050852E+00  7.3750811465E+00  0.0000000000E+00
                       0.0000000000E+00  0.0000000000E+00  1.2976275033E+01
          spgroup         164
           strten      0.0000000000E+00  0.0000000000E+00  0.0000000000E+00
                       0.0000000000E+00  0.0000000000E+00  0.0000000000E+00
           symrel      1  0  0   0  1  0   0  0  1      -1  0  0   0 -1  0   0  0 -1
                      -1  0  0   1  1  0   0  0  1       1  0  0  -1 -1  0   0  0 -1
                       0  1  0  -1 -1  0   0  0  1       0 -1  0   1  1  0   0  0 -1
                       0 -1  0  -1  0  0   0  0  1       0  1  0   1  0  0   0  0 -1
                      -1 -1  0   1  0  0   0  0  1       1  1  0  -1  0  0   0  0 -1
                       1  1  0   0 -1  0   0  0  1      -1 -1  0   0  1  0   0  0 -1
           tolwfr      1.00000000E-20
            typat      1  2  2  3  4  4  4  4  4  4  4  4
           useylm           1
              wtk        0.50000    0.50000
           xangst      0.0000000000E+00  0.0000000000E+00  3.4333745000E+00
                       0.0000000000E+00  2.6018165695E+00  6.0895772149E+00
                       2.2532392451E+00  1.3009082847E+00  7.7717178507E-01
                       0.0000000000E+00  0.0000000000E+00 -3.8118114220E-16
                      -1.1766167482E+00  3.2811365658E+00  9.4768002949E-01
                       1.1766167482E+00  3.2811365658E+00  9.4768002949E-01
                       0.0000000000E+00  1.2431765769E+00  9.4768002949E-01
                       3.4298559933E+00  6.2158828844E-01  5.9190689705E+00
                       1.0766224970E+00  6.2158828844E-01  5.9190689705E+00
                       2.2532392451E+00  2.6595482773E+00  5.9190689705E+00
                       0.0000000000E+00  2.6018165695E+00  4.1656926806E+00
                       2.2532392451E+00  1.3009082847E+00  2.7010563194E+00
            xcart      0.0000000000E+00  0.0000000000E+00  6.4881375166E+00
                       0.0000000000E+00  4.9167207643E+00  1.1507633201E+01
                       4.2580050852E+00  2.4583603822E+00  1.4686418320E+00
                       0.0000000000E+00  0.0000000000E+00 -7.2032796579E-16
                      -2.2234834174E+00  6.2004495139E+00  1.7908557173E+00
                       2.2234834174E+00  6.2004495139E+00  1.7908557173E+00
                       0.0000000000E+00  2.3492632651E+00  1.7908557173E+00
                       6.4814885026E+00  1.1746316326E+00  1.1185419316E+01
                       2.0345216678E+00  1.1746316326E+00  1.1185419316E+01
                       4.2580050852E+00  5.0258178814E+00  1.1185419316E+01
                       0.0000000000E+00  4.9167207643E+00  7.8720183201E+00
                       4.2580050852E+00  2.4583603822E+00  5.1042567131E+00
             xred      0.0000000000E+00  0.0000000000E+00  5.0000000000E-01
                       3.3333333333E-01  6.6666666667E-01  8.8682100000E-01
                       6.6666666667E-01  3.3333333333E-01  1.1317900000E-01
                       0.0000000000E+00  0.0000000000E+00 -5.5511151231E-17
                       1.5927033333E-01  8.4072966667E-01  1.3801000000E-01
                       6.8145933333E-01  8.4072966667E-01  1.3801000000E-01
                       1.5927033333E-01  3.1854066667E-01  1.3801000000E-01
                       8.4072966667E-01  1.5927033333E-01  8.6199000000E-01
                       3.1854066667E-01  1.5927033333E-01  8.6199000000E-01
                       8.4072966667E-01  6.8145933333E-01  8.6199000000E-01
                       3.3333333333E-01  6.6666666667E-01  6.0664700000E-01
                       6.6666666667E-01  3.3333333333E-01  3.9335300000E-01
            znucl       56.00000   12.00000   26.00000    1.00000

- Timing analysis has been suppressed with timopt=0

 Suggested references for the acknowledgment of ABINIT usage.

 Calculation completed.
.Delivered   2 WARNINGs and   5 COMMENTs to log file.