.Version 9.5.2 of ABINIT

 ABINIT is a project of the Universite Catholique de Louvain,
 Corning Inc. and other collaborators, see ~abinit/doc/developers/contributors.txt .
 acknowledgments of the ABINIT effort.

.Starting date : Wed 26 May 2021.
- ( at 02h14 )

- input  file    -> /scratch/users/j/a/jabreu/flow_simple_11atoms/flow/w221/t1/run.abi
- output file    -> /scratch/users/j/a/jabreu/flow_simple_11atoms/flow/w221/t1/run.abo
- root for input  files -> /scratch/users/j/a/jabreu/flow_simple_11atoms/flow/w221/t1/indata/in
- root for output files -> /scratch/users/j/a/jabreu/flow_simple_11atoms/flow/w221/t1/outdata/out

 Symmetries : space group Ib a m (# 72); Bravais oI (body-center ortho.)
     intxc =       0      iscf =       7    lmnmax =      18     lnmax =       6
     mgfft =      90  mpssoang =       3    mqgrid =    3001     natom =      12
  nloc_mem =       1    nspden =       1   nspinor =       1    nsppol =       1
      nsym =       8    n1xccc =    2501    ntypat =       4    occopt =       1
   xclevel =       2
-    mband =          43        mffmem =           1         mkmem =           2
-   mkqmem =           2        mk1mem =           2           mpw =       19602
      nfft =      729000          nkpt =           2
  Rough estimation (10% accuracy) of disk space for files :

------------- Echo of variables that govern the present computation ------------
-
- outvars: echo of selected default values
-   iomode0 =  0 , fftalg0 =512 , wfoptalg0 =  0
-
- outvars: echo of global parameters not present in the input file
-  max_nthreads =    0
-
 -outvars: echo values of preprocessed input variables --------
            acell      1.0000000000E+00  1.0000000000E+00  1.0000000000E+00 Bohr
              amu      3.90983000E+01  6.94100000E+00  2.69815390E+01
                       3.09737620E+01
             ecut      3.70000000E+01 Hartree
-          fftalg         512
           irdden           1
           irdwfk           1
              ixc     -116133
              kpt      2.31413933E-01 -2.31413933E-01  2.31413933E-01
                       3.24535332E-01  6.75464668E-01 -3.24535332E-01
           kptopt           0
P           mkmem           2
P          mkqmem           2
P          mk1mem           2
            natom          12
            nband          43
           nbdbuf           4
            ngfft          90      90      90
             nkpt           2
            nstep        2000
             nsym           8
           ntypat           4
              occ      2.000000  2.000000  2.000000  2.000000  2.000000  2.000000
                       2.000000  2.000000  2.000000  2.000000  2.000000  2.000000
                       2.000000  2.000000  2.000000  2.000000  2.000000  2.000000
                       2.000000  2.000000  2.000000  2.000000  2.000000  2.000000
                       2.000000  2.000000  2.000000  2.000000  2.000000  2.000000
                       2.000000  2.000000  2.000000  2.000000  0.000000  0.000000
                       0.000000  0.000000  0.000000  0.000000  0.000000  0.000000
                       0.000000
        optdriver           1
            prtwf          -1
            rfdir           1       1       1
           rfelfd           2
            rprim      1.0739128451E+01  0.0000000000E+00 -1.1926187095E+01
                      -1.5645473858E+00  1.0571555663E+01 -1.1973187582E+01
                       0.0000000000E+00  0.0000000000E+00  1.6048763769E+01
          spgroup          72
           symrel      1  0  0   0  1  0   0  0  1      -1  0  0   0 -1  0   0  0 -1
                       0  0  1  -1 -1 -1   1  0  0       0  0 -1   1  1  1  -1  0  0
                      -1 -1 -1   0  0  1   0  1  0       1  1  1   0  0 -1   0 -1  0
                       0  1  0   1  0  0  -1 -1 -1       0 -1  0  -1  0  0   1  1  1
            tnons      0.0000000  0.0000000  0.0000000     0.0000000  0.0000000  0.0000000
                      -0.0000000  0.5000000  0.5000000     0.0000000  0.5000000  0.5000000
                       0.0000000 -0.0000000  0.0000000     0.0000000  0.0000000  0.0000000
                       0.0000000  0.5000000  0.5000000    -0.0000000  0.5000000  0.5000000
           tolwfr      1.00000000E-20
            typat      1  1  1  1  2  2  3  3  4  4  4  4
           useylm           1
              wtk        0.50000    0.50000
           xangst      2.3912092188E+00  9.7199262676E-01 -1.6032859477E+00
                       2.4637699795E+00  4.6222336894E+00 -2.5510784182E+00
                       2.9014982069E-01  1.8251205313E+00  3.8698801186E+00
                       4.5648293776E+00  3.7691057848E+00 -8.0242444845E+00
                       2.2205088946E+00  4.1956697371E+00 -5.7843266818E+00
                       2.6344703037E+00  1.3985565790E+00  1.6299623159E+00
                      -6.2094211374E-01  4.1956697371E+00  1.6175265227E+00
                      -2.0698070458E-01  1.3985565790E+00  5.3917550757E-01
                       4.8522375110E+00  5.0176294097E-01  5.6118215894E-01
                       1.2876183949E+00  3.2988760990E+00  4.3004694531E-01
                       3.5673608034E+00  2.2953502171E+00 -4.5844113113E+00
                       2.7416872332E-03  5.0924633752E+00 -4.7155465249E+00
            xcart      4.5187305499E+00  1.8367998678E+00 -3.0297713539E+00
                       4.6558505157E+00  8.7347557951E+00 -4.8208395540E+00
                       5.4830369861E-01  3.4489779637E+00  7.3130135912E+00
                       8.6262773670E+00  7.1225776992E+00 -1.5163624499E+01
                       4.1961536863E+00  7.9286667472E+00 -1.0930793292E+01
                       4.9784273792E+00  2.6428889157E+00  3.0801823839E+00
                      -1.1734105393E+00  7.9286667472E+00  3.0566821406E+00
                      -3.9113684645E-01  2.6428889157E+00  1.0188940469E+00
                       9.1694000276E+00  9.4819454207E-01  1.0604805911E+00
                       2.4332461299E+00  6.2339723735E+00  8.1267095092E-01
                       6.7413349357E+00  4.3375832894E+00 -8.6632818588E+00
                       5.1810380128E-03  9.6233611208E+00 -8.9110914990E+00
             xred      4.4608550000E-01  1.7374925000E-01  2.7233625000E-01
                       5.5391450000E-01  8.2625075000E-01  7.2766375000E-01
                       9.8587000000E-02  3.2625075000E-01  7.7233625000E-01
                       9.0141300000E-01  6.7374925000E-01  2.2766375000E-01
                       5.0000000000E-01  7.5000000000E-01  2.5000000000E-01
                       5.0000000000E-01  2.5000000000E-01  7.5000000000E-01
                       1.3877787808E-17  7.5000000000E-01  7.5000000000E-01
                       1.3877787808E-17  2.5000000000E-01  2.5000000000E-01
                       8.6689800000E-01  8.9693000000E-02  7.7720500000E-01
                       3.1248800000E-01  5.8969300000E-01  7.2279500000E-01
                       6.8751200000E-01  4.1030700000E-01  2.7720500000E-01
                       1.3310200000E-01  9.1030700000E-01  2.2279500000E-01
            znucl       19.00000    3.00000   13.00000   15.00000

 chkinp: Checking input parameters for consistency.

== DATASET  1 ==================================================================
-   mpi_nproc: 1, omp_nthreads: -1 (-1 if OMP is not activated)

--- !DatasetInfo
iteration_state: {dtset: 1, }
dimensions: {natom: 12, nkpt: 2, mband: 43, nsppol: 1, nspinor: 1, nspden: 1, mpw: 19602, }
cutoff_energies: {ecut:  37.0, pawecutdg:  -1.0, }
electrons: {nelect:   6.80000000E+01, charge:   0.00000000E+00, occopt:   1.00000000E+00, tsmear:   1.00000000E-02, }
meta: {optdriver: 1, rfelfd: 2, }
...

 Real(R)+Recip(G) space primitive vectors, cartesian coordinates (Bohr,Bohr^-1):
 R(1)= 10.7391285  0.0000000-11.9261871  G(1)=  0.0931174  0.0137810  0.0000000
 R(2)= -1.5645474 10.5715557-11.9731876  G(2)=  0.0000000  0.0945935  0.0000000
 R(3)=  0.0000000  0.0000000 16.0487638  G(3)=  0.0691976  0.0808125  0.0623101
 Unit cell volume ucvol=  1.8220048E+03 bohr^3
 Angles (23,13,12)=  1.38249405E+02  1.37998033E+02  6.07138053E+01 degrees

 getcut: wavevector=  0.0000  0.0000  0.0000  ngfft=  90  90  90
         ecut(hartree)=     37.000   => boxcut(ratio)=   2.04840

--- Pseudopotential description ------------------------------------------------
- pspini: atom type   1  psp file is /scratch/users/j/a/jabreu/pseudos/PBEsol/K.psp8
- pspatm: opening atomic psp file    /scratch/users/j/a/jabreu/pseudos/PBEsol/K.psp8
- K     ONCVPSP-3.3.0  r_core=   1.36296   1.46408   1.61068
- 19.00000   9.00000    180112                znucl, zion, pspdat
    8 -116133    2    4       400   0.00000   pspcod,pspxc,lmax,lloc,mmax,r2well
    3.99000000000000    5.00000000000000    0.00000000000000   rchrg,fchrg,qchrg
     nproj     2     2     2
     extension_switch     1
  pspatm : epsatm=    8.32487830
         --- l  ekb(1:nproj) -->
             0   10.921326    0.816676
             1    4.431000    0.560368
             2   -3.384038   -1.043186
 pspatm: atomic psp has been read  and splines computed

- pspini: atom type   2  psp file is /scratch/users/j/a/jabreu/pseudos/PBEsol/Li.psp8
- pspatm: opening atomic psp file    /scratch/users/j/a/jabreu/pseudos/PBEsol/Li.psp8
- Li    ONCVPSP-3.3.0  r_core=   1.40824   1.10935
-  3.00000   3.00000    180112                znucl, zion, pspdat
    8 -116133    1    4       400   0.00000   pspcod,pspxc,lmax,lloc,mmax,r2well
    3.99000000000000    0.00000000000000    0.00000000000000   rchrg,fchrg,qchrg
     nproj     2     2
     extension_switch     1
  pspatm : epsatm=    2.60859637
         --- l  ekb(1:nproj) -->
             0   -4.855856   -1.482423
             1   -2.171544   -0.427615
 pspatm: atomic psp has been read  and splines computed

[...]

- pspini: atom type   4  psp file is /scratch/users/j/a/jabreu/pseudos/PBEsol/P.psp8
- pspatm: opening atomic psp file    /scratch/users/j/a/jabreu/pseudos/PBEsol/P.psp8
- P     ONCVPSP-3.3.0  r_core=   1.46089   1.55067   1.70594
- 15.00000   5.00000    180112                znucl, zion, pspdat
    8 -116133    2    4       600   0.00000   pspcod,pspxc,lmax,lloc,mmax,r2well
    5.99000000000000    5.00000000000000    0.00000000000000   rchrg,fchrg,qchrg
     nproj     2     2     2
     extension_switch     1
  pspatm : epsatm=    7.31221086
         --- l  ekb(1:nproj) -->
             0    6.742364    1.063650
             1    3.449117    0.910422
             2   -3.077645   -0.799176
 pspatm: atomic psp has been read  and splines computed

   4.70123004E+03                                ecore*ucvol(ha*bohr**3)

 ==>  initialize data related to q vector <==

 The list of irreducible perturbations for this q vector is:
    1)    idir= 1    ipert=  13
    2)    idir= 2    ipert=  13
    3)    idir= 3    ipert=  13

 Perturbation wavevector (in red.coord.)   0.000000  0.000000  0.000000
 Perturbation : derivative vs k along direction   1

 dfpt_looppert : COMMENT -
  In a d/dk calculation, iscf is set to -3 automatically.
 The set of symmetries contains only one element for this perturbation.
[...]
   0.00000   -0.00000    0.00201   -0.00201    0.00065   -0.00064    0.00419   -0.00331
   0.00809   -0.00288   -0.00830    0.00095   -0.00779    0.00548    0.00423   -0.00403
   0.00179   -0.00019    0.00964   -0.00661    0.00003   -0.00302    0.00209    0.02138
  -0.01192   -0.00670   -0.01575    0.01258    0.00358   -0.04875    0.05929   -0.01256
  -0.00696   -0.00108   -0.08469   -0.00229   -0.02276    0.04056    0.01021    0.08633
   0.16738    0.11930    0.03254
 prteigrs : prtvol=0 or 1, do not print more k-points.

 Eight components of 2nd-order total energy (hartree) are
 1,2,3: 0th-order hamiltonian combined with 1st-order wavefunctions
     kin0=   3.12507514E+01 eigvalue=   1.92060006E+00  local=  -1.94853943E+01
 4,5,6: 1st-order hamiltonian combined with 1st and 0th-order wfs
     kin1=  -4.62190857E+01  Hartree=   0.00000000E+00     xc=   0.00000000E+00
 7,8,9: eventually, occupation + non-local contributions
    edocc=   5.92850942E+00     enl0=   1.93109342E+00   enl1=   3.12796574E+00
 1-9 gives the relaxation energy (to be shifted if some occ is /=2.0)
   erelax=  -2.15455600E+01
  No Ewald or frozen-wf contrib.: the relaxation energy is the total one
 2DEtotal=   -0.2154555997E+02 Ha. Also 2DEtotal=   -0.586284502804E+03 eV
    (  non-var. 2DEtotal :   -2.1545559969E+01 Ha)

 Perturbation wavevector (in red.coord.)   0.000000  0.000000  0.000000
 Perturbation : derivative vs k along direction   2
 The set of symmetries contains only one element for this perturbation.
 symkpt : not enough symmetry to change the number of k points.

[...]

 Perturbation wavevector (in red.coord.)   0.000000  0.000000  0.000000
 Perturbation : derivative vs k along direction   3
 The set of symmetries contains only one element for this perturbation.
 symkpt : not enough symmetry to change the number of k points.

 Initialisation of the first-order wave-functions :
  ireadwf=   0

--- !BeginCycle
iteration_state: {dtset: 1, }
solver: {iscf: 7, nstep: 2000, nline: 4, wfoptalg: 0, }
tolerances: {tolwfr: 1.00E-20, }
...

     iter   2DEtotal(Ha)        deltaE(Ha) residm    vres2
-ETOT  1  -36.471842925006     -3.647E+01 1.710E-01 0.000E+00
 ETOT  2  -36.682296975975     -2.105E-01 4.026E-02 0.000E+00
 ETOT  3  -36.688286064282     -5.989E-03 3.930E-03 0.000E+00
 ETOT  4  -36.688539630709     -2.536E-04 1.449E-03 0.000E+00
 ETOT  5  -36.688553081474     -1.345E-05 2.261E-04 0.000E+00
 ETOT  6  -36.688553862093     -7.806E-07 8.242E-05 0.000E+00
 ETOT  7  -36.688553910118     -4.802E-08 1.506E-05 0.000E+00
 ETOT  8  -36.688553913159     -3.041E-09 5.569E-06 0.000E+00
 ETOT  9  -36.688553913356     -1.969E-10 1.041E-06 0.000E+00
 ETOT 10  -36.688553913369     -1.292E-11 3.759E-07 0.000E+00
 ETOT 11  -36.688553913370     -9.663E-13 7.380E-08 0.000E+00
 ETOT 12  -36.688553913370      7.105E-15 2.642E-08 0.000E+00
 ETOT 13  -36.688553913370      0.000E+00 5.294E-09 0.000E+00
 ETOT 14  -36.688553913370     -3.553E-14 1.873E-09 0.000E+00
 ETOT 15  -36.688553913370      2.842E-14 3.834E-10 0.000E+00
 ETOT 16  -36.688553913370     -2.132E-14 1.351E-10 0.000E+00
 ETOT 17  -36.688553913370      2.132E-14 2.797E-11 0.000E+00
 ETOT 18  -36.688553913370      1.421E-14 9.843E-12 0.000E+00
 ETOT 19  -36.688553913370     -1.421E-14 2.093E-12 0.000E+00
 ETOT 20  -36.688553913370     -7.105E-15 7.547E-13 0.000E+00
 ETOT 21  -36.688553913370      7.105E-15 1.959E-13 0.000E+00
 ETOT 22  -36.688553913370      0.000E+00 6.612E-14 0.000E+00
 ETOT 23  -36.688553913370      7.105E-15 1.775E-14 0.000E+00
 ETOT 24  -36.688553913370     -1.421E-14 5.932E-15 0.000E+00
 ETOT 25  -36.688553913370     -7.105E-15 1.592E-15 0.000E+00
 ETOT 26  -36.688553913370      0.000E+00 5.384E-16 0.000E+00
 ETOT 27  -36.688553913370      1.421E-14 1.441E-16 0.000E+00
 ETOT 28  -36.688553913370      1.421E-14 4.939E-17 0.000E+00
 ETOT 29  -36.688553913370     -2.132E-14 1.318E-17 0.000E+00
 ETOT 30  -36.688553913370      2.842E-14 4.584E-18 0.000E+00
 ETOT 31  -36.688553913370     -2.842E-14 1.220E-18 0.000E+00
 ETOT 32  -36.688553913370      0.000E+00 4.314E-19 0.000E+00
 ETOT 33  -36.688553913370      2.132E-14 1.142E-19 0.000E+00
 ETOT 34  -36.688553913370     -1.421E-14 4.115E-20 0.000E+00
 ETOT 35  -36.688553913370      7.105E-15 9.893E-21 0.000E+00

 At SCF step   35   max residual=  9.89E-21 < tolwfr=  1.00E-20 =>converged.

 ----iterations are completed or convergence reached----

 dfpt_looppert: DFPT cycle converged with prtwf=-1. Will skip output of the 1st-order WFK file.
 dfpt_looppert : ek2=    8.1617881724E+01
          f-sum rule ratio=    9.6438835390E-01
 prteigrs : about to open file /scratch/users/j/a/jabreu/flow_simple_11atoms/flow/w221/t1/tmpdata/tmp_1WF1_EIG
 Expectation of eigenvalue derivatives (hartree) for nkpt=   2  k points:
  (in case of degenerate eigenvalues, averaged derivative)
 kpt#   1, nband= 43, wtk=  0.50000, kpt=  0.2314 -0.2314  0.2314 (reduced coord)
   0.00000   -0.00000    0.00201   -0.00201    0.00065   -0.00064    0.00419   -0.00331
   0.00809   -0.00288   -0.00830    0.00095   -0.00779    0.00548    0.00423   -0.00403
   0.00179   -0.00019    0.00964   -0.00661    0.00003   -0.00302    0.00209    0.02138
  -0.01192   -0.00670   -0.01575    0.01258    0.00358   -0.04875    0.05929   -0.01256
  -0.00696   -0.00108   -0.08469   -0.00229   -0.02276    0.04056    0.01021    0.08633
   0.16738    0.11930    0.03254
 prteigrs : prtvol=0 or 1, do not print more k-points.

 Eight components of 2nd-order total energy (hartree) are
 1,2,3: 0th-order hamiltonian combined with 1st-order wavefunctions
     kin0=   5.22763584E+01 eigvalue=   3.51423660E+00  local=  -3.25457913E+01
 4,5,6: 1st-order hamiltonian combined with 1st and 0th-order wfs
     kin1=  -7.87113346E+01  Hartree=   0.00000000E+00     xc=   0.00000000E+00
 7,8,9: eventually, occupation + non-local contributions
    edocc=   1.03001417E+01     enl0=   3.14360859E+00   enl1=   5.33422678E+00
 1-9 gives the relaxation energy (to be shifted if some occ is /=2.0)
   erelax=  -3.66885539E+01
  No Ewald or frozen-wf contrib.: the relaxation energy is the total one
 2DEtotal=   -0.3668855391E+02 Ha. Also 2DEtotal=   -0.998346323805E+03 eV
    (  non-var. 2DEtotal :   -3.6688553913E+01 Ha)

 CALCULATION OF EFFECTIVE MASSES
 NOTE : Additional infos (eff. mass eigenvalues, eigenvectors and, if degenerate, average mass) are available in stdout.

 K-point ( 0.231,-0.231, 0.231) | band =    34
 Effective mass tensor:
             -3.7074823133             -0.7661477318              0.9323556018
             -0.7661477318             -1.8422172353              1.9957806596
              0.9323556018              1.9957806596             -5.7783108866
 Effective mass tensor eigenvalues:
             -7.0190328306             -3.3495661606             -0.9594114439
 Angular average effective mass 1/(<1/m>)=  -2.0224879364
 Angular average effective mass for Frohlich model (<m**0.5>)**2=  -2.4734521769
 Effective masses along directions: (cart. coord. / red. coord. -> eff. mass)
    1:   1.000000  0.000000  0.000000 /   0.989554 -0.144165  0.000000 ->  -3.3859576374
    2:   0.000000  1.000000  0.000000 /   0.000000  1.000000  0.000000 ->  -1.0974399057
    3:   0.000000  0.000000  1.000000 /  -0.511729 -0.513746  0.688621 ->  -3.6130753032
    4:   0.577350  0.577350  0.577350 /  -0.072542 -0.181266  0.980755 ->  -1.6083786933
    5:   0.000000  0.707107  0.707107 /  -0.595001 -0.069928  0.800677 ->  -1.1231416768
    6:   0.707107  0.000000  0.707107 /  -0.056447 -0.643748  0.763153 ->  -3.3965833062
    7:   0.707107  0.707107  0.000000 /   0.766192  0.642612  0.000000 ->  -2.0428848733

 K-point ( 0.325, 0.675,-0.325) | band =    35
 Effective mass tensor:
              0.5934921429              0.0240698380              0.0053563592
              0.0240698380              0.4446354240             -0.0627008597
              0.0053563592             -0.0627008597              0.5815952825
 Effective mass tensor eigenvalues:
              0.4169005698              0.5955483617              0.6072739179
 Angular average effective mass 1/(<1/m>)=   0.5240649221
 Angular average effective mass for Frohlich model (<m**0.5>)**2=   0.5290575728
 Effective masses along directions: (cart. coord. / red. coord. -> eff. mass)
    1:   1.000000  0.000000  0.000000 /   0.989554 -0.144165  0.000000 ->   0.5920554565
    2:   0.000000  1.000000  0.000000 /   0.000000  1.000000  0.000000 ->   0.4368520748
    3:   0.000000  0.000000  1.000000 /  -0.511729 -0.513746  0.688621 ->   0.5726241319
    4:   0.577350  0.577350  0.577350 /  -0.072542 -0.181266  0.980755 ->   0.5018362004
    5:   0.000000  0.707107  0.707107 /  -0.595001 -0.069928  0.800677 ->   0.4414259534
    6:   0.707107  0.000000  0.707107 /  -0.056447 -0.643748  0.763153 ->   0.5910572887
    7:   0.707107  0.707107  0.000000 /   0.766192  0.642612  0.000000 ->   0.5279845186

 END OF EFFECTIVE MASSES SECTION

 ---- first-order wavefunction calculations are completed ----

 Total localisation tensor (bohr^2) in cartesian coordinates
  WARNING : still subject to testing - especially symmetries.
      direction              matrix element
   alpha     beta       real part   imaginary part
     1        1       1.2427734287    0.0000000000
     1        2      -0.1827132688    0.0000000000
     1        3      -1.1431762913    0.0000000000
     2        1      -0.1827132688    0.0000000000
     2        2       1.2345829274    0.0000000000
     2        3      -1.3982703631    0.0000000000
     3        1      -1.1431762913    0.0000000000
     3        2      -1.3982703631    0.0000000000
     3        3       7.7807304382    0.0000000000

 respfn : d/dk was computed, but no 2DTE, so no DDB output.

== END DATASET(S) ==============================================================

 -outvars: echo values of variables after computation  --------
            acell      1.0000000000E+00  1.0000000000E+00  1.0000000000E+00 Bohr
              amu      3.90983000E+01  6.94100000E+00  2.69815390E+01
                       3.09737620E+01
             ecut      3.70000000E+01 Hartree
           etotal     -3.6688553913E+01
            fcart      0.0000000000E+00  0.0000000000E+00  0.0000000000E+00
                       0.0000000000E+00  0.0000000000E+00  0.0000000000E+00
                       0.0000000000E+00  0.0000000000E+00  0.0000000000E+00
                       0.0000000000E+00  0.0000000000E+00  0.0000000000E+00
                       0.0000000000E+00  0.0000000000E+00  0.0000000000E+00
                       0.0000000000E+00  0.0000000000E+00  0.0000000000E+00
                       0.0000000000E+00  0.0000000000E+00  0.0000000000E+00
                       0.0000000000E+00  0.0000000000E+00  0.0000000000E+00
                       0.0000000000E+00  0.0000000000E+00  0.0000000000E+00
                       0.0000000000E+00  0.0000000000E+00  0.0000000000E+00
                       0.0000000000E+00  0.0000000000E+00  0.0000000000E+00
                       0.0000000000E+00  0.0000000000E+00  0.0000000000E+00
-          fftalg         512
           irdden           1
           irdwfk           1
              ixc     -116133
              kpt      2.31413933E-01 -2.31413933E-01  2.31413933E-01
                       3.24535332E-01  6.75464668E-01 -3.24535332E-01
           kptopt           0
P           mkmem           2
P          mkqmem           2
P          mk1mem           2
            natom          12
            nband          43
           nbdbuf           4
            ngfft          90      90      90
             nkpt           2
            nstep        2000
             nsym           8
           ntypat           4
              occ      2.000000  2.000000  2.000000  2.000000  2.000000  2.000000
                       2.000000  2.000000  2.000000  2.000000  2.000000  2.000000
                       2.000000  2.000000  2.000000  2.000000  2.000000  2.000000
                       2.000000  2.000000  2.000000  2.000000  2.000000  2.000000
                       2.000000  2.000000  2.000000  2.000000  2.000000  2.000000
                       2.000000  2.000000  2.000000  2.000000  0.000000  0.000000
                       0.000000  0.000000  0.000000  0.000000  0.000000  0.000000
                       0.000000
        optdriver           1
            prtwf          -1
            rfdir           1       1       1
           rfelfd           2
            rprim      1.0739128451E+01  0.0000000000E+00 -1.1926187095E+01
                      -1.5645473858E+00  1.0571555663E+01 -1.1973187582E+01
                       0.0000000000E+00  0.0000000000E+00  1.6048763769E+01
          spgroup          72
           strten      0.0000000000E+00  0.0000000000E+00  0.0000000000E+00
                       0.0000000000E+00  0.0000000000E+00  0.0000000000E+00
           symrel      1  0  0   0  1  0   0  0  1      -1  0  0   0 -1  0   0  0 -1
                       0  0  1  -1 -1 -1   1  0  0       0  0 -1   1  1  1  -1  0  0
                      -1 -1 -1   0  0  1   0  1  0       1  1  1   0  0 -1   0 -1  0
                       0  1  0   1  0  0  -1 -1 -1       0 -1  0  -1  0  0   1  1  1
            tnons      0.0000000  0.0000000  0.0000000     0.0000000  0.0000000  0.0000000
                      -0.0000000  0.5000000  0.5000000     0.0000000  0.5000000  0.5000000
                       0.0000000 -0.0000000  0.0000000     0.0000000  0.0000000  0.0000000
                       0.0000000  0.5000000  0.5000000    -0.0000000  0.5000000  0.5000000
           tolwfr      1.00000000E-20
            typat      1  1  1  1  2  2  3  3  4  4  4  4
           useylm           1
              wtk        0.50000    0.50000
           xangst      2.3912092188E+00  9.7199262676E-01 -1.6032859477E+00
                       2.4637699795E+00  4.6222336894E+00 -2.5510784182E+00
                       2.9014982069E-01  1.8251205313E+00  3.8698801186E+00
                       4.5648293776E+00  3.7691057848E+00 -8.0242444845E+00
                       2.2205088946E+00  4.1956697371E+00 -5.7843266818E+00
                       2.6344703037E+00  1.3985565790E+00  1.6299623159E+00
                      -6.2094211374E-01  4.1956697371E+00  1.6175265227E+00
                      -2.0698070458E-01  1.3985565790E+00  5.3917550757E-01
                       4.8522375110E+00  5.0176294097E-01  5.6118215894E-01
                       1.2876183949E+00  3.2988760990E+00  4.3004694531E-01
                       3.5673608034E+00  2.2953502171E+00 -4.5844113113E+00
                       2.7416872332E-03  5.0924633752E+00 -4.7155465249E+00
            xcart      4.5187305499E+00  1.8367998678E+00 -3.0297713539E+00
                       4.6558505157E+00  8.7347557951E+00 -4.8208395540E+00
                       5.4830369861E-01  3.4489779637E+00  7.3130135912E+00
                       8.6262773670E+00  7.1225776992E+00 -1.5163624499E+01
                       4.1961536863E+00  7.9286667472E+00 -1.0930793292E+01
                       4.9784273792E+00  2.6428889157E+00  3.0801823839E+00
                      -1.1734105393E+00  7.9286667472E+00  3.0566821406E+00
                      -3.9113684645E-01  2.6428889157E+00  1.0188940469E+00
                       9.1694000276E+00  9.4819454207E-01  1.0604805911E+00
                       2.4332461299E+00  6.2339723735E+00  8.1267095092E-01
                       6.7413349357E+00  4.3375832894E+00 -8.6632818588E+00
                       5.1810380128E-03  9.6233611208E+00 -8.9110914990E+00
             xred      4.4608550000E-01  1.7374925000E-01  2.7233625000E-01
                       5.5391450000E-01  8.2625075000E-01  7.2766375000E-01
                       9.8587000000E-02  3.2625075000E-01  7.7233625000E-01
                       9.0141300000E-01  6.7374925000E-01  2.2766375000E-01
                       5.0000000000E-01  7.5000000000E-01  2.5000000000E-01
                       5.0000000000E-01  2.5000000000E-01  7.5000000000E-01
                       1.3877787808E-17  7.5000000000E-01  7.5000000000E-01
                       1.3877787808E-17  2.5000000000E-01  2.5000000000E-01
                       8.6689800000E-01  8.9693000000E-02  7.7720500000E-01
                       3.1248800000E-01  5.8969300000E-01  7.2279500000E-01
                       6.8751200000E-01  4.1030700000E-01  2.7720500000E-01
                       1.3310200000E-01  9.1030700000E-01  2.2279500000E-01
            znucl       19.00000    3.00000   13.00000   15.00000

- Timing analysis has been suppressed with timopt=0

 Suggested references for the acknowledgment of ABINIT usage.

 Calculation completed.
.Delivered   2 WARNINGs and   5 COMMENTs to log file.