.Version 9.5.1 of ABINIT

 ABINIT is a project of the Universite Catholique de Louvain,
 Corning Inc. and other collaborators, see ~abinit/doc/developers/contributors.txt .
 acknowledgments of the ABINIT effort.

.Starting date : Tue 27 Apr 2021.
- ( at 18h28 )

- input  file    -> /scratch/users/j/a/jabreu/flow_simple_4atoms/flow/w169/t1/run.abi
- output file    -> /scratch/users/j/a/jabreu/flow_simple_4atoms/flow/w169/t1/run.abo
- root for input  files -> /scratch/users/j/a/jabreu/flow_simple_4atoms/flow/w169/t1/indata/in
- root for output files -> /scratch/users/j/a/jabreu/flow_simple_4atoms/flow/w169/t1/outdata/out

 Symmetries : space group P6_3 m c (#186); Bravais hP (primitive hexag.)
     intxc =       0      iscf =       7    lmnmax =      18     lnmax =       6
     mgfft =      60  mpssoang =       3    mqgrid =    3001     natom =       4
  nloc_mem =       1    nspden =       1   nspinor =       1    nsppol =       1
      nsym =      12    n1xccc =    2501    ntypat =       2    occopt =       1
   xclevel =       2
-    mband =          17        mffmem =           1         mkmem =           1
-   mkqmem =           1        mk1mem =           1           mpw =        3693
      nfft =       77760          nkpt =           1
  Rough estimation (10% accuracy) of disk space for files :

------------- Echo of variables that govern the present computation ------------
-
- outvars: echo of selected default values
-   iomode0 =  0 , fftalg0 =512 , wfoptalg0 =  0
-
- outvars: echo of global parameters not present in the input file
-  max_nthreads =    0
-
 -outvars: echo values of preprocessed input variables --------
            acell      1.0000000000E+00  1.0000000000E+00  1.0000000000E+00 Bohr
              amu      2.69815390E+01  1.40067400E+01
             ecut      4.20000000E+01 Hartree
-          fftalg         512
           irdden           1
           irdwfk           1
           istwfk        1
              ixc     -116133
           kptopt           0
P           mkmem           1
P          mkqmem           1
P          mk1mem           1
            natom           4
            nband          17
           nbdbuf           4
            ngfft          36      36      60
             nkpt           1
            nstep         100
             nsym          12
           ntypat           2
              occ      2.000000  2.000000  2.000000  2.000000  2.000000  2.000000
                       2.000000  2.000000  0.000000  0.000000  0.000000  0.000000
                       0.000000  0.000000  0.000000  0.000000  0.000000
        optdriver           1
            prtwf          -1
            rfdir           1       1       1
           rfelfd           2
            rprim      5.8831392128E+00  0.0000000000E+00  0.0000000000E+00
                      -2.9415696064E+00  5.0949480123E+00  0.0000000000E+00
                       0.0000000000E+00  0.0000000000E+00  9.4165857247E+00
          spgroup         186
           symrel      1  0  0   0  1  0   0  0  1       0  1  0   1  0  0   0  0  1
                       1  1  0  -1  0  0   0  0  1      -1  0  0   1  1  0   0  0  1
                       0  1  0  -1 -1  0   0  0  1      -1 -1  0   0  1  0   0  0  1
                      -1  0  0   0 -1  0   0  0  1       0 -1  0  -1  0  0   0  0  1
                      -1 -1  0   1  0  0   0  0  1       1  0  0  -1 -1  0   0  0  1
                       0 -1  0   1  1  0   0  0  1       1  1  0   0 -1  0   0  0  1
            tnons      0.0000000  0.0000000  0.0000000     0.0000000  0.0000000  0.5000000
                       0.0000000  0.0000000  0.5000000     0.0000000  0.0000000  0.0000000
                       0.0000000  0.0000000  0.0000000     0.0000000  0.0000000  0.5000000
                       0.0000000  0.0000000  0.5000000     0.0000000  0.0000000  0.0000000
                       0.0000000  0.0000000  0.0000000     0.0000000  0.0000000  0.5000000
                       0.0000000  0.0000000  0.5000000     0.0000000  0.0000000  0.0000000
           tolwfr      1.00000000E-20
            typat      1  1  2  2
           useylm           1
           xangst      1.5566115932E+00  8.9871012235E-01  2.4866677907E+00
                       0.0000000000E+00  1.7974202447E+00  4.9781890648E+00
                       1.5566115932E+00  8.9871012235E-01  4.3899309259E+00
                       0.0000000000E+00  1.7974202447E+00  1.8984096518E+00
            xcart      2.9415696064E+00  1.6983160041E+00  4.6991211079E+00
                       0.0000000000E+00  3.3966320082E+00  9.4074139702E+00
                       2.9415696064E+00  1.6983160041E+00  8.2957671922E+00
                       0.0000000000E+00  3.3966320082E+00  3.5874743299E+00
             xred      6.6666666667E-01  3.3333333333E-01  4.9902600000E-01
                       3.3333333333E-01  6.6666666667E-01  9.9902600000E-01
                       6.6666666667E-01  3.3333333333E-01  8.8097400000E-01
                       3.3333333333E-01  6.6666666667E-01  3.8097400000E-01
            znucl       13.00000    7.00000

 chkinp: Checking input parameters for consistency.

== DATASET  1 ==================================================================
-   mpi_nproc: 1, omp_nthreads: -1 (-1 if OMP is not activated)

--- !DatasetInfo
iteration_state: {dtset: 1, }
dimensions: {natom: 4, nkpt: 1, mband: 17, nsppol: 1, nspinor: 1, nspden: 1, mpw: 3693, }
cutoff_energies: {ecut:  42.0, pawecutdg:  -1.0, }
electrons: {nelect:   1.60000000E+01, charge:   0.00000000E+00, occopt:   1.00000000E+00, tsmear:   1.00000000E-02, }
meta: {optdriver: 1, rfelfd: 2, }
...

 Real(R)+Recip(G) space primitive vectors, cartesian coordinates (Bohr,Bohr^-1):
 R(1)=  5.8831392  0.0000000  0.0000000  G(1)=  0.1699773  0.0981364  0.0000000
 R(2)= -2.9415696  5.0949480  0.0000000  G(2)=  0.0000000  0.1962729  0.0000000
 R(3)=  0.0000000  0.0000000  9.4165857  G(3)=  0.0000000  0.0000000  0.1061956
 Unit cell volume ucvol=  2.8225546E+02 bohr^3
 Angles (23,13,12)=  9.00000000E+01  9.00000000E+01  1.20000000E+02 degrees

 getcut: wavevector=  0.0000  0.0000  0.0000  ngfft=  36  36  60
         ecut(hartree)=     42.000   => boxcut(ratio)=   2.09751

--- Pseudopotential description ------------------------------------------------
- pspini: atom type   1  psp file is /scratch/users/j/a/jabreu/pseudos/PBEsol/Al.psp8
- pspatm: opening atomic psp file    /scratch/users/j/a/jabreu/pseudos/PBEsol/Al.psp8
- Al    ONCVPSP-3.3.0  r_core=   1.76802   1.76802   1.70587
- 13.00000   3.00000    180112                znucl, zion, pspdat
    8 -116133    2    4       600   0.00000   pspcod,pspxc,lmax,lloc,mmax,r2well
    5.99000000000000    5.00000000000000    0.00000000000000   rchrg,fchrg,qchrg
     nproj     2     2     2
     extension_switch     1
  pspatm : epsatm=    0.68509324
         --- l  ekb(1:nproj) -->
             0    5.834965    0.726662
             1    6.225605    0.924840
             2   -2.432733   -0.548689
 pspatm: atomic psp has been read  and splines computed

- pspini: atom type   2  psp file is /scratch/users/j/a/jabreu/pseudos/PBEsol/N.psp8
- pspatm: opening atomic psp file    /scratch/users/j/a/jabreu/pseudos/PBEsol/N.psp8
- N     ONCVPSP-3.3.0  r_core=   1.20551   1.35824
-  7.00000   5.00000    180112                znucl, zion, pspdat
    8 -116133    1    4       600   0.00000   pspcod,pspxc,lmax,lloc,mmax,r2well
    5.99000000000000    4.00000000000000    0.00000000000000   rchrg,fchrg,qchrg
     nproj     2     2
     extension_switch     1
  pspatm : epsatm=    5.26508895
         --- l  ekb(1:nproj) -->
             0    7.464189    0.625868
             1   -4.309714   -1.012941
 pspatm: atomic psp has been read  and splines computed

   1.90405830E+02                                ecore*ucvol(ha*bohr**3)

-inwffil : will read wavefunctions from disk file /scratch/users/j/a/jabreu/flow_simple_4atoms/flow/w169/t1/indata/in_WFK

 ==>  initialize data related to q vector <==

 The list of irreducible perturbations for this q vector is:
    1)    idir= 1    ipert=   5
    2)    idir= 2    ipert=   5
    3)    idir= 3    ipert=   5

 Perturbation wavevector (in red.coord.)   0.000000  0.000000  0.000000
 Perturbation : derivative vs k along direction   1

 dfpt_looppert : COMMENT -
  In a d/dk calculation, iscf is set to -3 automatically.
 The set of symmetries contains only one element for this perturbation.
 symkpt : not enough symmetry to change the number of k points.

[...]

 Initialisation of the first-order wave-functions :
  ireadwf=   0

--- !BeginCycle
iteration_state: {dtset: 1, }
solver: {iscf: 7, nstep: 100, nline: 4, wfoptalg: 0, }
tolerances: {tolwfr: 1.00E-20, }
...

     iter   2DEtotal(Ha)        deltaE(Ha) residm    vres2
-ETOT  1  -43.105617043356     -4.311E+01 4.927E-01 0.000E+00
 ETOT  2  -43.120056067443     -1.444E-02 5.212E-04 0.000E+00
 ETOT  3  -43.120060635884     -4.568E-06 3.752E-05 0.000E+00
 ETOT  4  -43.120060638182     -2.299E-09 3.885E-08 0.000E+00
 ETOT  5  -43.120060638184     -1.528E-12 4.552E-09 0.000E+00
 ETOT  6  -43.120060638184     -1.421E-14 2.903E-11 0.000E+00
 ETOT  7  -43.120060638184      0.000E+00 7.865E-13 0.000E+00
 ETOT  8  -43.120060638184      9.948E-14 6.182E-15 0.000E+00
 ETOT  9  -43.120060638184      1.421E-14 1.847E-16 0.000E+00
 ETOT 10  -43.120060638184     -7.105E-15 1.481E-18 0.000E+00
 ETOT 11  -43.120060638184      0.000E+00 4.614E-20 0.000E+00
 ETOT 12  -43.120060638184      1.421E-14 8.511E-21 0.000E+00

 At SCF step   12   max residual=  8.51E-21 < tolwfr=  1.00E-20 =>converged.

 ----iterations are completed or convergence reached----

 dfpt_looppert: DFPT cycle converged with prtwf=-1. Will skip output of the 1st-order WFK file.
 dfpt_looppert : ek2=    4.8666509799E+01
          f-sum rule ratio=    1.9360720330E+00
 prteigrs : about to open file /scratch/users/j/a/jabreu/flow_simple_4atoms/flow/w169/t1/tmpdata/tmp_1WF1_EIG
 Expectation of eigenvalue derivatives (hartree) for nkpt=   1  k points:
  (in case of degenerate eigenvalues, averaged derivative)
 kpt#   1, nband= 17, wtk=  1.00000, kpt=  0.0000  0.0000  0.0000 (reduced coord)
  -0.00000   -0.00000    0.00000    0.00000    0.00000    0.00000    0.00000   -0.00000
   0.00000   -0.00000   -0.00000   -0.00000   -0.00000   -0.00000    0.00000    0.00000
   0.00228

 Eight components of 2nd-order total energy (hartree) are
 1,2,3: 0th-order hamiltonian combined with 1st-order wavefunctions
     kin0=   1.70342762E+01 eigvalue=  -1.01182762E+00  local=  -5.36156265E+00
 4,5,6: 1st-order hamiltonian combined with 1st and 0th-order wfs
     kin1=  -9.42218686E+01  Hartree=   0.00000000E+00     xc=   0.00000000E+00
 7,8,9: eventually, occupation + non-local contributions
    edocc=   3.29191576E+01     enl0=  -4.59982883E-01   enl1=   7.98174729E+00
 1-9 gives the relaxation energy (to be shifted if some occ is /=2.0)
   erelax=  -4.31200606E+01
  No Ewald or frozen-wf contrib.: the relaxation energy is the total one
 2DEtotal=   -0.4312006064E+02 Ha. Also 2DEtotal=   -0.117335652209E+04 eV
    (  non-var. 2DEtotal :   -4.3120060638E+01 Ha)

 Perturbation wavevector (in red.coord.)   0.000000  0.000000  0.000000
 Perturbation : derivative vs k along direction   2
 The set of symmetries contains only one element for this perturbation.
 symkpt : not enough symmetry to change the number of k points.

[...]

 Perturbation wavevector (in red.coord.)   0.000000  0.000000  0.000000
 Perturbation : derivative vs k along direction   3
 The set of symmetries contains only one element for this perturbation.
 symkpt : not enough symmetry to change the number of k points.

-inwffil : will read wavefunctions from disk file /scratch/users/j/a/jabreu/flow_simple_4atoms/flow/w169/t1/indata/in_WFK

 Initialisation of the first-order wave-functions :
  ireadwf=   0

--- !BeginCycle
iteration_state: {dtset: 1, }
solver: {iscf: 7, nstep: 100, nline: 4, wfoptalg: 0, }
tolerances: {tolwfr: 1.00E-20, }
...

     iter   2DEtotal(Ha)        deltaE(Ha) residm    vres2
-ETOT  1  -9.5802750190002     -9.580E+00 5.678E-02 0.000E+00
 ETOT  2  -9.5825742538045     -2.299E-03 2.772E-04 0.000E+00
 ETOT  3  -9.5825757438418     -1.490E-06 1.558E-06 0.000E+00
 ETOT  4  -9.5825757451858     -1.344E-09 1.014E-08 0.000E+00
 ETOT  5  -9.5825757451870     -1.199E-12 1.542E-10 0.000E+00
 ETOT  6  -9.5825757451870      0.000E+00 5.346E-13 0.000E+00
 ETOT  7  -9.5825757451870      8.882E-15 4.082E-14 0.000E+00
 ETOT  8  -9.5825757451870     -1.243E-14 1.449E-16 0.000E+00
 ETOT  9  -9.5825757451870      1.776E-15 1.402E-17 0.000E+00
 ETOT 10  -9.5825757451870      0.000E+00 5.431E-20 0.000E+00
 ETOT 11  -9.5825757451870      0.000E+00 8.716E-21 0.000E+00

 At SCF step   11   max residual=  8.72E-21 < tolwfr=  1.00E-20 =>converged.

 ----iterations are completed or convergence reached----

 dfpt_looppert: DFPT cycle converged with prtwf=-1. Will skip output of the 1st-order WFK file.
 dfpt_looppert : ek2=    1.4246979069E+01
          f-sum rule ratio=    1.4230323822E+00
 prteigrs : about to open file /scratch/users/j/a/jabreu/flow_simple_4atoms/flow/w169/t1/tmpdata/tmp_1WF1_EIG
 Expectation of eigenvalue derivatives (hartree) for nkpt=   1  k points:
  (in case of degenerate eigenvalues, averaged derivative)
 kpt#   1, nband= 17, wtk=  1.00000, kpt=  0.0000  0.0000  0.0000 (reduced coord)
  -0.00000   -0.00000   -0.00000    0.00000    0.00000   -0.00000   -0.00000    0.00000
  -0.00000   -0.00000    0.00000    0.00000    0.00000   -0.00000    0.00000    0.00000
  -0.00001

 Eight components of 2nd-order total energy (hartree) are
 1,2,3: 0th-order hamiltonian combined with 1st-order wavefunctions
     kin0=   7.12521864E+00 eigvalue=  -7.12388636E-01  local=  -2.30439647E+00
 4,5,6: 1st-order hamiltonian combined with 1st and 0th-order wfs
     kin1=  -2.02739126E+01  Hartree=   0.00000000E+00     xc=   0.00000000E+00
 7,8,9: eventually, occupation + non-local contributions
    edocc=   5.44517565E+00     enl0=   2.89665663E-02   enl1=   1.10876107E+00
 1-9 gives the relaxation energy (to be shifted if some occ is /=2.0)
   erelax=  -9.58257575E+00
  No Ewald or frozen-wf contrib.: the relaxation energy is the total one
 2DEtotal=   -0.9582575745E+01 Ha. Also 2DEtotal=   -0.260755146970E+03 eV
    (  non-var. 2DEtotal :   -9.5825757451E+00 Ha)

 CALCULATION OF EFFECTIVE MASSES
 NOTE : Additional infos (eff. mass eigenvalues, eigenvectors and, if degenerate, average mass) are available in stdout.

 K-point ( 0.000, 0.000, 0.000) | band =     8
 Effective mass tensor:
             -4.4148722580             -0.0005144917              0.0001431138
             -0.0005144917             -4.4172970435              0.0002012992
              0.0001431138              0.0002012992             -0.2413757091
 Effective mass tensor eigenvalues:
             -4.4174017043             -4.4147676118             -0.2413756945
 Angular average effective mass 1/(<1/m>)=  -0.6527686260
 Angular average effective mass for Frohlich model (<m**0.5>)**2=  -1.1611578174
 Effective masses along directions: (cart. coord. / red. coord. -> eff. mass)
    1:   1.000000  0.000000  0.000000 /   0.894427 -0.447214  0.000000 ->  -4.4148721132
    2:   0.000000  1.000000  0.000000 /   0.000000  1.000000  0.000000 ->  -4.4172968157
    3:   0.000000  0.000000  1.000000 /   0.000000  0.000000  1.000000 ->  -0.2413756953
    4:   0.577350  0.577350  0.577350 /   0.520163  0.190393  0.832575 ->  -0.6526843585
    5:   0.000000  0.707107  0.707107 /   0.000000  0.475871  0.879515 ->  -0.4576994673
    6:   0.707107  0.000000  0.707107 /   0.512185 -0.256093  0.819807 ->  -0.4576978621
    7:   0.707107  0.707107  0.000000 /   0.939071  0.343724  0.000000 ->  -4.4165985638

 K-point ( 0.000, 0.000, 0.000) | band =     9
 Effective mass tensor:
              0.3003317296             -0.0000001316             -0.0000006936
             -0.0000001316              0.3003336919             -0.0000012863
             -0.0000006936             -0.0000012863              0.2880224757
 Effective mass tensor eigenvalues:
              0.2880224756              0.3003317209              0.3003337009
 Angular average effective mass 1/(<1/m>)=   0.2961140201
 Angular average effective mass for Frohlich model (<m**0.5>)**2=   0.2961488510
 Effective masses along directions: (cart. coord. / red. coord. -> eff. mass)
    1:   1.000000  0.000000  0.000000 /   0.894427 -0.447214  0.000000 ->   0.3003317296
    2:   0.000000  1.000000  0.000000 /   0.000000  1.000000  0.000000 ->   0.3003336919
    3:   0.000000  0.000000  1.000000 /   0.000000  0.000000  1.000000 ->   0.2880224757
    4:   0.577350  0.577350  0.577350 /   0.520163  0.190393  0.832575 ->   0.2961125968
    5:   0.000000  0.707107  0.707107 /   0.000000  0.475871  0.879515 ->   0.2940479934
    6:   0.707107  0.000000  0.707107 /   0.512185 -0.256093  0.819807 ->   0.2940476453
    7:   0.707107  0.707107  0.000000 /   0.939071  0.343724  0.000000 ->   0.3003325792

 END OF EFFECTIVE MASSES SECTION

 ---- first-order wavefunction calculations are completed ----

 Total localisation tensor (bohr^2) in cartesian coordinates
  WARNING : still subject to testing - especially symmetries.
      direction              matrix element
   alpha     beta       real part   imaginary part
     1        1       4.2908564085    0.0000000000
     1        2      -1.4863896151    0.0000000000
     1        3       0.0000000000    0.0000000000
     2        1      -1.4863896151    0.0000000000
     2        2       2.5745023332    0.0000000000
     2        3       0.0000000000    0.0000000000
     3        1       0.0000000000    0.0000000000
     3        2       0.0000000000    0.0000000000
     3        3       1.9342501660    0.0000000000

 respfn : d/dk was computed, but no 2DTE, so no DDB output.

== END DATASET(S) ==============================================================

 -outvars: echo values of variables after computation  --------
            acell      1.0000000000E+00  1.0000000000E+00  1.0000000000E+00 Bohr
              amu      2.69815390E+01  1.40067400E+01
             ecut      4.20000000E+01 Hartree
           etotal     -9.5825757452E+00
            fcart      0.0000000000E+00  0.0000000000E+00  0.0000000000E+00
                       0.0000000000E+00  0.0000000000E+00  0.0000000000E+00
                       0.0000000000E+00  0.0000000000E+00  0.0000000000E+00
                       0.0000000000E+00  0.0000000000E+00  0.0000000000E+00
-          fftalg         512
           irdden           1
           irdwfk           1
           istwfk        1
              ixc     -116133
           kptopt           0
P           mkmem           1
P          mkqmem           1
P          mk1mem           1
            natom           4
            nband          17
           nbdbuf           4
            ngfft          36      36      60
             nkpt           1
            nstep         100
             nsym          12
           ntypat           2
              occ      2.000000  2.000000  2.000000  2.000000  2.000000  2.000000
                       2.000000  2.000000  0.000000  0.000000  0.000000  0.000000
                       0.000000  0.000000  0.000000  0.000000  0.000000
        optdriver           1
            prtwf          -1
            rfdir           1       1       1
           rfelfd           2
            rprim      5.8831392128E+00  0.0000000000E+00  0.0000000000E+00
                      -2.9415696064E+00  5.0949480123E+00  0.0000000000E+00
                       0.0000000000E+00  0.0000000000E+00  9.4165857247E+00
          spgroup         186
           strten      0.0000000000E+00  0.0000000000E+00  0.0000000000E+00
                       0.0000000000E+00  0.0000000000E+00  0.0000000000E+00
           symrel      1  0  0   0  1  0   0  0  1       0  1  0   1  0  0   0  0  1
                       1  1  0  -1  0  0   0  0  1      -1  0  0   1  1  0   0  0  1
                       0  1  0  -1 -1  0   0  0  1      -1 -1  0   0  1  0   0  0  1
                      -1  0  0   0 -1  0   0  0  1       0 -1  0  -1  0  0   0  0  1
                      -1 -1  0   1  0  0   0  0  1       1  0  0  -1 -1  0   0  0  1
                       0 -1  0   1  1  0   0  0  1       1  1  0   0 -1  0   0  0  1
            tnons      0.0000000  0.0000000  0.0000000     0.0000000  0.0000000  0.5000000
                       0.0000000  0.0000000  0.5000000     0.0000000  0.0000000  0.0000000
                       0.0000000  0.0000000  0.0000000     0.0000000  0.0000000  0.5000000
                       0.0000000  0.0000000  0.5000000     0.0000000  0.0000000  0.0000000
                       0.0000000  0.0000000  0.0000000     0.0000000  0.0000000  0.5000000
                       0.0000000  0.0000000  0.5000000     0.0000000  0.0000000  0.0000000
           tolwfr      1.00000000E-20
            typat      1  1  2  2
           useylm           1
           xangst      1.5566115932E+00  8.9871012235E-01  2.4866677907E+00
                       0.0000000000E+00  1.7974202447E+00  4.9781890648E+00
                       1.5566115932E+00  8.9871012235E-01  4.3899309259E+00
                       0.0000000000E+00  1.7974202447E+00  1.8984096518E+00
            xcart      2.9415696064E+00  1.6983160041E+00  4.6991211079E+00
                       0.0000000000E+00  3.3966320082E+00  9.4074139702E+00
                       2.9415696064E+00  1.6983160041E+00  8.2957671922E+00
                       0.0000000000E+00  3.3966320082E+00  3.5874743299E+00
             xred      6.6666666667E-01  3.3333333333E-01  4.9902600000E-01
                       3.3333333333E-01  6.6666666667E-01  9.9902600000E-01
                       6.6666666667E-01  3.3333333333E-01  8.8097400000E-01
                       3.3333333333E-01  6.6666666667E-01  3.8097400000E-01
            znucl       13.00000    7.00000

- Timing analysis has been suppressed with timopt=0

 Suggested references for the acknowledgment of ABINIT usage.

 Calculation completed.
.Delivered   6 WARNINGs and   5 COMMENTs to log file.