.Version 9.5.1 of ABINIT

 ABINIT is a project of the Universite Catholique de Louvain,
 Corning Inc. and other collaborators, see ~abinit/doc/developers/contributors.txt .
 acknowledgments of the ABINIT effort.

.Starting date : Tue 18 May 2021.
- ( at 19h40 )

- input  file    -> /scratch/users/j/a/jabreu/flow_simple_8atoms/flow/w402/t1/run.abi
- output file    -> /scratch/users/j/a/jabreu/flow_simple_8atoms/flow/w402/t1/run.abo
- root for input  files -> /scratch/users/j/a/jabreu/flow_simple_8atoms/flow/w402/t1/indata/in
- root for output files -> /scratch/users/j/a/jabreu/flow_simple_8atoms/flow/w402/t1/outdata/out

 Symmetries : space group P4/n m m (#129); Bravais tP (primitive tetrag.)
     intxc =       0      iscf =       7    lmnmax =      32     lnmax =       8
     mgfft =     108  mpssoang =       4    mqgrid =    5140     natom =       8
  nloc_mem =       1    nspden =       1   nspinor =       1    nsppol =       1
      nsym =      16    n1xccc =    2501    ntypat =       4    occopt =       1
   xclevel =       2
-    mband =          51        mffmem =           1         mkmem =           1
-   mkqmem =           1        mk1mem =           1           mpw =       15595
      nfft =      270000          nkpt =           1
  Rough estimation (10% accuracy) of disk space for files :

------------- Echo of variables that govern the present computation ------------
-
- outvars: echo of selected default values
-   iomode0 =  0 , fftalg0 =512 , wfoptalg0 =  0
-
- outvars: echo of global parameters not present in the input file
-  max_nthreads =    0
-
 -outvars: echo values of preprocessed input variables --------
            acell      1.0000000000E+00  1.0000000000E+00  1.0000000000E+00 Bohr
              amu      1.38905500E+02  6.35460000E+01  3.20660000E+01
                       1.59994000E+01
             ecut      5.20000000E+01 Hartree
-          fftalg         512
           irdden           1
           irdwfk           1
           istwfk        1
              ixc     -116133
           kptopt           0
P           mkmem           1
P          mkqmem           1
P          mk1mem           1
            natom           8
            nband          51
           nbdbuf           4
            ngfft          50      50     108
             nkpt           1
            nstep        2000
             nsym          16
           ntypat           4
              occ      2.000000  2.000000  2.000000  2.000000  2.000000  2.000000
                       2.000000  2.000000  2.000000  2.000000  2.000000  2.000000
                       2.000000  2.000000  2.000000  2.000000  2.000000  2.000000
                       2.000000  2.000000  2.000000  2.000000  2.000000  2.000000
                       2.000000  2.000000  2.000000  2.000000  2.000000  2.000000
                       2.000000  2.000000  2.000000  2.000000  2.000000  2.000000
                       2.000000  2.000000  2.000000  2.000000  2.000000  2.000000
                       0.000000  0.000000  0.000000  0.000000  0.000000  0.000000
                       0.000000  0.000000  0.000000
        optdriver           1
            prtwf          -1
            rfdir           1       1       1
           rfelfd           2
            rprim      7.4314259552E+00  0.0000000000E+00  0.0000000000E+00
                       0.0000000000E+00  7.4314259552E+00  0.0000000000E+00
                       0.0000000000E+00  0.0000000000E+00  1.5833491801E+01
          spgroup         129
           symrel      1  0  0   0  1  0   0  0  1      -1  0  0   0 -1  0   0  0 -1
                      -1  0  0   0  1  0   0  0 -1       1  0  0   0 -1  0   0  0  1
                      -1  0  0   0 -1  0   0  0  1       1  0  0   0  1  0   0  0 -1
                       1  0  0   0 -1  0   0  0 -1      -1  0  0   0  1  0   0  0  1
                       0  1  0   1  0  0   0  0  1       0 -1  0  -1  0  0   0  0 -1
                       0 -1  0   1  0  0   0  0 -1       0  1  0  -1  0  0   0  0  1
                       0 -1  0  -1  0  0   0  0  1       0  1  0   1  0  0   0  0 -1
                       0  1  0  -1  0  0   0  0 -1       0 -1  0   1  0  0   0  0  1
            tnons      0.0000000  0.0000000  0.0000000     0.5000000  0.5000000 -0.0000000
                       0.5000000  0.5000000 -0.0000000     0.0000000 -0.0000000  0.0000000
                       0.0000000 -0.0000000  0.0000000     0.5000000  0.5000000 -0.0000000
                       0.5000000  0.5000000 -0.0000000     0.0000000  0.0000000  0.0000000
                       0.5000000  0.5000000  0.0000000    -0.0000000  0.0000000 -0.0000000
                       0.0000000  0.0000000 -0.0000000     0.5000000  0.5000000  0.0000000
                       0.5000000  0.5000000  0.0000000     0.0000000  0.0000000 -0.0000000
                      -0.0000000  0.0000000 -0.0000000     0.5000000  0.5000000  0.0000000
           tolwfr      1.00000000E-20
            typat      1  1  2  2  3  3  4  4
           useylm           1
           xangst      0.0000000000E+00  1.9662706214E+00  7.1154210341E+00
                       1.9662706214E+00  0.0000000000E+00  1.2633019593E+00
                       1.9662706214E+00  1.9662706214E+00  4.1893614967E+00
                       0.0000000000E+00  0.0000000000E+00  4.1893614967E+00
                       1.9662706214E+00  0.0000000000E+00  5.5251226525E+00
                       0.0000000000E+00  1.9662706214E+00  2.8536003409E+00
                       0.0000000000E+00  0.0000000000E+00  0.0000000000E+00
                       1.9662706214E+00  1.9662706214E+00  0.0000000000E+00
            xcart      0.0000000000E+00  3.7157129776E+00  1.3446197075E+01
                       3.7157129776E+00  0.0000000000E+00  2.3872947263E+00
                       3.7157129776E+00  3.7157129776E+00  7.9167459004E+00
                       0.0000000000E+00  0.0000000000E+00  7.9167459004E+00
                       3.7157129776E+00  0.0000000000E+00  1.0440968664E+01
                       0.0000000000E+00  3.7157129776E+00  5.3925231370E+00
                       0.0000000000E+00  0.0000000000E+00  0.0000000000E+00
                       3.7157129776E+00  3.7157129776E+00  0.0000000000E+00
             xred      0.0000000000E+00  5.0000000000E-01  8.4922500000E-01
                       5.0000000000E-01  0.0000000000E+00  1.5077500000E-01
                       5.0000000000E-01  5.0000000000E-01  5.0000000000E-01
                       0.0000000000E+00  0.0000000000E+00  5.0000000000E-01
                       5.0000000000E-01  0.0000000000E+00  6.5942300000E-01
                       0.0000000000E+00  5.0000000000E-01  3.4057700000E-01
                       0.0000000000E+00  0.0000000000E+00  0.0000000000E+00
                       5.0000000000E-01  5.0000000000E-01  0.0000000000E+00
            znucl       57.00000   29.00000   16.00000    8.00000

 chkinp: Checking input parameters for consistency.

== DATASET  1 ==================================================================
-   mpi_nproc: 1, omp_nthreads: -1 (-1 if OMP is not activated)

--- !DatasetInfo
iteration_state: {dtset: 1, }
dimensions: {natom: 8, nkpt: 1, mband: 51, nsppol: 1, nspinor: 1, nspden: 1, mpw: 15595, }
cutoff_energies: {ecut:  52.0, pawecutdg:  -1.0, }
electrons: {nelect:   8.40000000E+01, charge:   0.00000000E+00, occopt:   1.00000000E+00, tsmear:   1.00000000E-02, }
meta: {optdriver: 1, rfelfd: 2, }
...

 Real(R)+Recip(G) space primitive vectors, cartesian coordinates (Bohr,Bohr^-1):
 R(1)=  7.4314260  0.0000000  0.0000000  G(1)=  0.1345637  0.0000000  0.0000000
 R(2)=  0.0000000  7.4314260  0.0000000  G(2)=  0.0000000  0.1345637  0.0000000
 R(3)=  0.0000000  0.0000000 15.8334918  G(3)=  0.0000000  0.0000000  0.0631573
 Unit cell volume ucvol=  8.7442187E+02 bohr^3
 Angles (23,13,12)=  9.00000000E+01  9.00000000E+01  9.00000000E+01 degrees

 getcut: wavevector=  0.0000  0.0000  0.0000  ngfft=  50  50 108
         ecut(hartree)=     52.000   => boxcut(ratio)=   2.07267

--- Pseudopotential description ------------------------------------------------
- pspini: atom type   1  psp file is /scratch/users/j/a/jabreu/pseudos/PBEsol/La.psp8
- pspatm: opening atomic psp file    /scratch/users/j/a/jabreu/pseudos/PBEsol/La.psp8
- La    ONCVPSP-3.3.0  r_core=   2.11664   1.60878   1.85636   1.66739
- 57.00000  11.00000    180112                znucl, zion, pspdat
    8 -116133    3    4       600   0.00000   pspcod,pspxc,lmax,lloc,mmax,r2well
    5.99000000000000    5.00000000000000    0.00000000000000   rchrg,fchrg,qchrg
     nproj     2     2     2     2
     extension_switch     1
  pspatm : epsatm=   29.08531775
         --- l  ekb(1:nproj) -->
             0    6.695600    0.639047
             1    6.383649    1.151322
             2    3.612966    0.847811
             3  -13.718437   -4.858923
 pspatm: atomic psp has been read  and splines computed

- pspini: atom type   2  psp file is /scratch/users/j/a/jabreu/pseudos/PBEsol/Cu.psp8
- pspatm: opening atomic psp file    /scratch/users/j/a/jabreu/pseudos/PBEsol/Cu.psp8
- Cu    ONCVPSP-3.3.0  r_core=   1.26204   1.45626   1.76249
- 29.00000  19.00000    180112                znucl, zion, pspdat
    8 -116133    2    4       600   0.00000   pspcod,pspxc,lmax,lloc,mmax,r2well
    5.99000000000000    3.50000000000000    0.00000000000000   rchrg,fchrg,qchrg
     nproj     2     2     2
     extension_switch     1
  pspatm : epsatm=   21.63488701
         --- l  ekb(1:nproj) -->
             0    5.008230   -0.401634
             1   -3.496700   -0.765945
             2   -6.895851   -2.521180
 pspatm: atomic psp has been read  and splines computed

[...]

- pspini: atom type   4  psp file is /scratch/users/j/a/jabreu/pseudos/PBEsol/O.psp8
- pspatm: opening atomic psp file    /scratch/users/j/a/jabreu/pseudos/PBEsol/O.psp8
- O     ONCVPSP-3.3.0  r_core=   1.35509   1.45563   1.26150
-  8.00000   6.00000    180112                znucl, zion, pspdat
    8 -116133    2    4       600   0.00000   pspcod,pspxc,lmax,lloc,mmax,r2well
    5.99000000000000    4.00000000000000    0.00000000000000   rchrg,fchrg,qchrg
     nproj     2     2     1
     extension_switch     1
  pspatm : epsatm=    6.22910522
         --- l  ekb(1:nproj) -->
             0    6.050032    0.820363
             1   -4.739617   -1.153841
             2   -1.335834
 pspatm: atomic psp has been read  and splines computed

   1.10321769E+04                                ecore*ucvol(ha*bohr**3)

-inwffil : will read wavefunctions from disk file /scratch/users/j/a/jabreu/flow_simple_8atoms/flow/w402/t1/indata/in_WFK

 ==>  initialize data related to q vector <==

 The list of irreducible perturbations for this q vector is:
    1)    idir= 1    ipert=   9
    2)    idir= 2    ipert=   9
    3)    idir= 3    ipert=   9

 Perturbation wavevector (in red.coord.)   0.000000  0.000000  0.000000
 Perturbation : derivative vs k along direction   1

 dfpt_looppert : COMMENT -
  In a d/dk calculation, iscf is set to -3 automatically.
 The set of symmetries contains only one element for this perturbation.
[...]
 ETOT 31  -14.979661951020     -7.045E-12 1.545E-05 0.000E+00
 ETOT 32  -14.979661951024     -3.594E-12 1.666E-05 0.000E+00
 ETOT 33  -14.979661951026     -1.828E-12 1.344E-05 0.000E+00
 ETOT 34  -14.979661951027     -9.202E-13 1.455E-05 0.000E+00
 ETOT 35  -14.979661951027     -4.867E-13 1.170E-05 0.000E+00
 ETOT 36  -14.979661951027     -2.309E-13 1.272E-05 0.000E+00
 ETOT 37  -14.979661951028     -8.527E-14 1.020E-05 0.000E+00
 ETOT 38  -14.979661951028     -6.750E-14 1.112E-05 0.000E+00
 ETOT 39  -14.979661951028     -3.375E-14 8.898E-06 0.000E+00
 ETOT 40  -14.979661951028     -1.776E-15 9.726E-06 0.000E+00
 ETOT 41  -14.979661951028     -3.553E-14 7.766E-06 0.000E+00
 ETOT 42  -14.979661951028      1.066E-14 8.510E-06 0.000E+00
 ETOT 43  -14.979661951028     -1.954E-14 6.782E-06 0.000E+00
 ETOT 44  -14.979661951028     -8.882E-15 7.449E-06 0.000E+00
 ETOT 45  -14.979661951028     -1.421E-14 5.926E-06 0.000E+00
 ETOT 46  -14.979661951028      3.553E-14 6.522E-06 0.000E+00
 ETOT 47  -14.979661951028      3.553E-15 5.180E-06 0.000E+00
 ETOT 48  -14.979661951028     -1.776E-14 5.712E-06 0.000E+00
 ETOT 49  -14.979661951028      2.132E-14 4.529E-06 0.000E+00
 ETOT 50  -14.979661951028     -3.553E-14 5.002E-06 0.000E+00
 ETOT 51  -14.979661951028      4.974E-14 3.962E-06 0.000E+00
 ETOT 52  -14.979661951028     -3.375E-14 4.382E-06 0.000E+00
 ETOT 53  -14.979661951028     -8.882E-15 3.466E-06 0.000E+00
 ETOT 54  -14.979661951028      1.599E-14 3.839E-06 0.000E+00
 ETOT 55  -14.979661951028      1.243E-14 3.033E-06 0.000E+00
 ETOT 56  -14.979661951028     -2.487E-14 3.364E-06 0.000E+00
 ETOT 57  -14.979661951028      7.105E-15 2.655E-06 0.000E+00
 ETOT 58  -14.979661951028      7.105E-15 2.947E-06 0.000E+00
 ETOT 59  -14.979661951028     -1.599E-14 2.324E-06 0.000E+00
 ETOT 60  -14.979661951028     -5.329E-15 2.583E-06 0.000E+00
 ETOT 61  -14.979661951028      1.243E-14 2.035E-06 0.000E+00
[...]
 ETOT  561  -14.979661951028     -1.776E-15 2.663E-20 0.000E+00
 ETOT  562  -14.979661951028      0.000E+00 2.976E-20 0.000E+00
 ETOT  563  -14.979661951028      0.000E+00 2.348E-20 0.000E+00
 ETOT  564  -14.979661951028      8.882E-15 2.624E-20 0.000E+00
 ETOT  565  -14.979661951028     -1.776E-15 2.071E-20 0.000E+00
 ETOT  566  -14.979661951028      0.000E+00 2.314E-20 0.000E+00
 ETOT  567  -14.979661951028      5.329E-15 1.826E-20 0.000E+00
 ETOT  568  -14.979661951028     -1.243E-14 2.040E-20 0.000E+00
 ETOT  569  -14.979661951028      1.066E-14 1.610E-20 0.000E+00
 ETOT  570  -14.979661951028     -3.553E-15 1.799E-20 0.000E+00
 ETOT  571  -14.979661951028      0.000E+00 1.419E-20 0.000E+00
 ETOT  572  -14.979661951028      0.000E+00 1.586E-20 0.000E+00
 ETOT  573  -14.979661951028     -3.553E-15 1.252E-20 0.000E+00
 ETOT  574  -14.979661951028      0.000E+00 1.399E-20 0.000E+00
 ETOT  575  -14.979661951028      5.329E-15 9.920E-21 0.000E+00

 At SCF step  575   max residual=  9.92E-21 < tolwfr=  1.00E-20 =>converged.

 ----iterations are completed or convergence reached----

 dfpt_looppert: DFPT cycle converged with prtwf=-1. Will skip output of the 1st-order WFK file.
 dfpt_looppert : ek2=    2.6455478159E+01
          f-sum rule ratio=    1.0427262786E+00
 prteigrs : about to open file /scratch/users/j/a/jabreu/flow_simple_8atoms/flow/w402/t1/tmpdata/tmp_1WF1_EIG
 Expectation of eigenvalue derivatives (hartree) for nkpt=   1  k points:
  (in case of degenerate eigenvalues, averaged derivative)
 kpt#   1, nband= 51, wtk=  1.00000, kpt=  0.0000  0.0000  0.0000 (reduced coord)
   0.00000    0.00000    0.00000    0.00000    0.00000    0.00000    0.00000    0.00000
   0.00000    0.00000   -0.00000    0.00000   -0.00000   -0.00000   -0.00000   -0.00000
  -0.00000   -0.00000   -0.00000    0.00000    0.00000   -0.00000   -0.00000   -0.00000
   0.00000    0.00000    0.00000    0.00000   -0.00000   -0.00000    0.00000   -0.00000
  -0.00000    0.00000   -0.00000    0.00000   -0.00000   -0.00000    0.00000    0.00000
   0.00000    0.00000    0.00000   -0.00000    0.00000    0.00000   -0.00000    0.00000
   0.00000    0.00000    0.00000

 Eight components of 2nd-order total energy (hartree) are
 1,2,3: 0th-order hamiltonian combined with 1st-order wavefunctions
     kin0=   3.57904595E+01 eigvalue=  -2.50700936E+00  local=  -1.60118043E+01
 4,5,6: 1st-order hamiltonian combined with 1st and 0th-order wfs
     kin1=  -2.75858223E+01  Hartree=   0.00000000E+00     xc=   0.00000000E+00
 7,8,9: eventually, occupation + non-local contributions
    edocc=   1.72332718E+00     enl0=  -4.01531103E+00   enl1=  -2.37350161E+00
 1-9 gives the relaxation energy (to be shifted if some occ is /=2.0)
   erelax=  -1.49796620E+01
  No Ewald or frozen-wf contrib.: the relaxation energy is the total one
 2DEtotal=   -0.1497966195E+02 Ha. Also 2DEtotal=   -0.407617331442E+03 eV
    (  non-var. 2DEtotal :   -1.4979661951E+01 Ha)

 CALCULATION OF EFFECTIVE MASSES
 NOTE : Additional infos (eff. mass eigenvalues, eigenvectors and, if degenerate, average mass) are available in stdout.

 COMMENTS:
 - At k-point ( 0.000, 0.000, 0.000), bands    41 through    42
   are DEGENERATE (effective mass tensor is therefore not defined).
   See Section IIIB Eqs. (67)-(70) and Appendix E of PRB 93 205147 (2016).
 - Angular average effective mass for Frohlich model is to be averaged over degenerate bands. See later.
 - Associated theta integrals calculated with ntheta=   1000 points.

 K-point ( 0.000, 0.000, 0.000) | band =    41
 Transport equivalent effective mass tensor:
             -0.4088520891              0.0000000287             -0.0000040522
              0.0000000287             -0.4088517591             -0.0000015319
             -0.0000040522             -0.0000015319             -2.4805671915
 Transport equivalent effective mass tensor eigenvalues:
             -2.4805671915             -0.4088520915             -0.4088517566
 Angular average effective mass 1/(<1/m>)=  -0.4984055653
 Angular average effective mass for Frohlich model (<m**0.5>)**2=  -0.5736001223
 Effective masses along directions: (cart. coord. / red. coord. -> eff. mass)
    1:   1.000000  0.000000  0.000000 /   1.000000  0.000000  0.000000 ->  -0.3089842148
    2:   0.000000  1.000000  0.000000 /   0.000000  1.000000  0.000000 ->  -0.3089839729
    3:   0.000000  0.000000  1.000000 /   0.000000  0.000000  1.000000 ->  -2.0291331163
    4:   0.577350  0.577350  0.577350 /   0.391046  0.391046  0.833167 ->  -0.6482992942
    5:   0.000000  0.707107  0.707107 /   0.000000  0.424878  0.905251 ->  -0.5363035339
    6:   0.707107  0.000000  0.707107 /   0.424878  0.000000  0.905251 ->  -0.5363047630
    7:   0.707107  0.707107  0.000000 /   0.707107  0.707107  0.000000 ->  -0.4837128591

 K-point ( 0.000, 0.000, 0.000) | band =    42
 Transport equivalent effective mass tensor:
             -2.1670252015              0.0000001009             -0.0000050640
              0.0000001009             -2.1670250044             -0.0000019144
             -0.0000050640             -0.0000019144             -6.0108811972
 Transport equivalent effective mass tensor eigenvalues:
             -6.0108811973             -2.1670252440             -2.1670249619
 Angular average effective mass 1/(<1/m>)=  -1.2586985943
 Angular average effective mass for Frohlich model (<m**0.5>)**2=  -1.3947907348
 Effective masses along directions: (cart. coord. / red. coord. -> eff. mass)
    1:   1.000000  0.000000  0.000000 /   1.000000  0.000000  0.000000 ->  -2.1183279625
    2:   0.000000  1.000000  0.000000 /   0.000000  1.000000  0.000000 ->  -2.1183279620
    3:   0.000000  0.000000  1.000000 /   0.000000  0.000000  1.000000 ->  -2.0291331576
    4:   0.577350  0.577350  0.577350 /   0.391046  0.391046  0.833167 ->  -0.7946802579
    5:   0.000000  0.707107  0.707107 /   0.000000  0.424878  0.905251 ->  -2.0727714338
    6:   0.707107  0.000000  0.707107 /   0.424878  0.000000  0.905251 ->  -2.0727714510
    7:   0.707107  0.707107  0.000000 /   0.707107  0.707107  0.000000 ->  -0.6093321790

 Angular average effective mass for Frohlich model, averaged over degenerate bands.
 Value of     (<<m**0.5>>)**2 =     9.393259E-01
 Absolute Value of <<m**0.5>> =     9.691883E-01

 K-point ( 0.000, 0.000, 0.000) | band =    43
 Effective mass tensor:
              0.4280437563              0.0000000002              0.0000000010
              0.0000000002              0.4280437556              0.0000000001
              0.0000000010              0.0000000001              7.1056131639
 Effective mass tensor eigenvalues:
              0.4280437555              0.4280437563              7.1056131639
 Angular average effective mass 1/(<1/m>)=   0.6232920076
 Angular average effective mass for Frohlich model (<m**0.5>)**2=   0.7970313879
 Effective masses along directions: (cart. coord. / red. coord. -> eff. mass)
    1:   1.000000  0.000000  0.000000 /   1.000000  0.000000  0.000000 ->   0.4280437563
    2:   0.000000  1.000000  0.000000 /   0.000000  1.000000  0.000000 ->   0.4280437556
    3:   0.000000  0.000000  1.000000 /   0.000000  0.000000  1.000000 ->   7.1056131639
    4:   0.577350  0.577350  0.577350 /   0.391046  0.391046  0.833167 ->   0.6232920081
    5:   0.000000  0.707107  0.707107 /   0.000000  0.424878  0.905251 ->   0.8074467360
    6:   0.707107  0.000000  0.707107 /   0.424878  0.000000  0.905251 ->   0.8074467373
    7:   0.707107  0.707107  0.000000 /   0.707107  0.707107  0.000000 ->   0.4280437562

 END OF EFFECTIVE MASSES SECTION

 ---- first-order wavefunction calculations are completed ----

 Total localisation tensor (bohr^2) in cartesian coordinates
  WARNING : still subject to testing - especially symmetries.
      direction              matrix element
   alpha     beta       real part   imaginary part
     1        1       1.4449021395    0.0000000000
     1        2       0.0000000000    0.0000000000
     1        3       0.0000000000    0.0000000000
     2        1       0.0000000000    0.0000000000
     2        2       1.4449006352    0.0000000000
     2        3       0.0000000000    0.0000000000
     3        1       0.0000000000    0.0000000000
     3        2       0.0000000000    0.0000000000
     3        3       0.9717185699    0.0000000000

 respfn : d/dk was computed, but no 2DTE, so no DDB output.

== END DATASET(S) ==============================================================

 -outvars: echo values of variables after computation  --------
            acell      1.0000000000E+00  1.0000000000E+00  1.0000000000E+00 Bohr
              amu      1.38905500E+02  6.35460000E+01  3.20660000E+01
                       1.59994000E+01
             ecut      5.20000000E+01 Hartree
           etotal     -1.4979661951E+01
            fcart      0.0000000000E+00  0.0000000000E+00  0.0000000000E+00
                       0.0000000000E+00  0.0000000000E+00  0.0000000000E+00
                       0.0000000000E+00  0.0000000000E+00  0.0000000000E+00
                       0.0000000000E+00  0.0000000000E+00  0.0000000000E+00
                       0.0000000000E+00  0.0000000000E+00  0.0000000000E+00
                       0.0000000000E+00  0.0000000000E+00  0.0000000000E+00
                       0.0000000000E+00  0.0000000000E+00  0.0000000000E+00
                       0.0000000000E+00  0.0000000000E+00  0.0000000000E+00
-          fftalg         512
           irdden           1
           irdwfk           1
           istwfk        1
              ixc     -116133
           kptopt           0
P           mkmem           1
P          mkqmem           1
P          mk1mem           1
            natom           8
            nband          51
           nbdbuf           4
            ngfft          50      50     108
             nkpt           1
            nstep        2000
             nsym          16
           ntypat           4
              occ      2.000000  2.000000  2.000000  2.000000  2.000000  2.000000
                       2.000000  2.000000  2.000000  2.000000  2.000000  2.000000
                       2.000000  2.000000  2.000000  2.000000  2.000000  2.000000
                       2.000000  2.000000  2.000000  2.000000  2.000000  2.000000
                       2.000000  2.000000  2.000000  2.000000  2.000000  2.000000
                       2.000000  2.000000  2.000000  2.000000  2.000000  2.000000
                       2.000000  2.000000  2.000000  2.000000  2.000000  2.000000
                       0.000000  0.000000  0.000000  0.000000  0.000000  0.000000
                       0.000000  0.000000  0.000000
        optdriver           1
            prtwf          -1
            rfdir           1       1       1
           rfelfd           2
            rprim      7.4314259552E+00  0.0000000000E+00  0.0000000000E+00
                       0.0000000000E+00  7.4314259552E+00  0.0000000000E+00
                       0.0000000000E+00  0.0000000000E+00  1.5833491801E+01
          spgroup         129
           strten      0.0000000000E+00  0.0000000000E+00  0.0000000000E+00
                       0.0000000000E+00  0.0000000000E+00  0.0000000000E+00
           symrel      1  0  0   0  1  0   0  0  1      -1  0  0   0 -1  0   0  0 -1
                      -1  0  0   0  1  0   0  0 -1       1  0  0   0 -1  0   0  0  1
                      -1  0  0   0 -1  0   0  0  1       1  0  0   0  1  0   0  0 -1
                       1  0  0   0 -1  0   0  0 -1      -1  0  0   0  1  0   0  0  1
                       0  1  0   1  0  0   0  0  1       0 -1  0  -1  0  0   0  0 -1
                       0 -1  0   1  0  0   0  0 -1       0  1  0  -1  0  0   0  0  1
                       0 -1  0  -1  0  0   0  0  1       0  1  0   1  0  0   0  0 -1
                       0  1  0  -1  0  0   0  0 -1       0 -1  0   1  0  0   0  0  1
            tnons      0.0000000  0.0000000  0.0000000     0.5000000  0.5000000 -0.0000000
                       0.5000000  0.5000000 -0.0000000     0.0000000 -0.0000000  0.0000000
                       0.0000000 -0.0000000  0.0000000     0.5000000  0.5000000 -0.0000000
                       0.5000000  0.5000000 -0.0000000     0.0000000  0.0000000  0.0000000
                       0.5000000  0.5000000  0.0000000    -0.0000000  0.0000000 -0.0000000
                       0.0000000  0.0000000 -0.0000000     0.5000000  0.5000000  0.0000000
                       0.5000000  0.5000000  0.0000000     0.0000000  0.0000000 -0.0000000
                      -0.0000000  0.0000000 -0.0000000     0.5000000  0.5000000  0.0000000
           tolwfr      1.00000000E-20
            typat      1  1  2  2  3  3  4  4
           useylm           1
           xangst      0.0000000000E+00  1.9662706214E+00  7.1154210341E+00
                       1.9662706214E+00  0.0000000000E+00  1.2633019593E+00
                       1.9662706214E+00  1.9662706214E+00  4.1893614967E+00
                       0.0000000000E+00  0.0000000000E+00  4.1893614967E+00
                       1.9662706214E+00  0.0000000000E+00  5.5251226525E+00
                       0.0000000000E+00  1.9662706214E+00  2.8536003409E+00
                       0.0000000000E+00  0.0000000000E+00  0.0000000000E+00
                       1.9662706214E+00  1.9662706214E+00  0.0000000000E+00
            xcart      0.0000000000E+00  3.7157129776E+00  1.3446197075E+01
                       3.7157129776E+00  0.0000000000E+00  2.3872947263E+00
                       3.7157129776E+00  3.7157129776E+00  7.9167459004E+00
                       0.0000000000E+00  0.0000000000E+00  7.9167459004E+00
                       3.7157129776E+00  0.0000000000E+00  1.0440968664E+01
                       0.0000000000E+00  3.7157129776E+00  5.3925231370E+00
                       0.0000000000E+00  0.0000000000E+00  0.0000000000E+00
                       3.7157129776E+00  3.7157129776E+00  0.0000000000E+00
             xred      0.0000000000E+00  5.0000000000E-01  8.4922500000E-01
                       5.0000000000E-01  0.0000000000E+00  1.5077500000E-01
                       5.0000000000E-01  5.0000000000E-01  5.0000000000E-01
                       0.0000000000E+00  0.0000000000E+00  5.0000000000E-01
                       5.0000000000E-01  0.0000000000E+00  6.5942300000E-01
                       0.0000000000E+00  5.0000000000E-01  3.4057700000E-01
                       0.0000000000E+00  0.0000000000E+00  0.0000000000E+00
                       5.0000000000E-01  5.0000000000E-01  0.0000000000E+00
            znucl       57.00000   29.00000   16.00000    8.00000

- Timing analysis has been suppressed with timopt=0

 Suggested references for the acknowledgment of ABINIT usage.

 Calculation completed.
.Delivered   6 WARNINGs and   5 COMMENTs to log file.