.Version 9.5.1 of ABINIT

 ABINIT is a project of the Universite Catholique de Louvain,
 Corning Inc. and other collaborators, see ~abinit/doc/developers/contributors.txt .
 acknowledgments of the ABINIT effort.

.Starting date : Wed 19 May 2021.
- ( at 13h12 )

- input  file    -> /scratch/users/j/a/jabreu/flow_simple_9atoms/flow/w164/t1/run.abi
- output file    -> /scratch/users/j/a/jabreu/flow_simple_9atoms/flow/w164/t1/run.abo
- root for input  files -> /scratch/users/j/a/jabreu/flow_simple_9atoms/flow/w164/t1/indata/in
- root for output files -> /scratch/users/j/a/jabreu/flow_simple_9atoms/flow/w164/t1/outdata/out

 Symmetries : space group P-3 m 1 (#164); Bravais hP (primitive hexag.)
     intxc =       0      iscf =       7    lmnmax =      18     lnmax =       6
     mgfft =      64  mpssoang =       3    mqgrid =    3001     natom =       9
  nloc_mem =       1    nspden =       1   nspinor =       1    nsppol =       1
      nsym =      12    n1xccc =    2501    ntypat =       3    occopt =       1
   xclevel =       2
-    mband =          27        mffmem =           1         mkmem =           2
-   mkqmem =           2        mk1mem =           2           mpw =       10770
      nfft =      204800          nkpt =           2
  Rough estimation (10% accuracy) of disk space for files :

------------- Echo of variables that govern the present computation ------------
-
- outvars: echo of selected default values
-   iomode0 =  0 , fftalg0 =512 , wfoptalg0 =  0
-
- outvars: echo of global parameters not present in the input file
-  max_nthreads =    0
-
 -outvars: echo values of preprocessed input variables --------
            acell      1.0000000000E+00  1.0000000000E+00  1.0000000000E+00 Bohr
              amu      1.37327000E+02  2.43050000E+01  1.00794000E+00
             ecut      4.20000000E+01 Hartree
-          fftalg         512
           irdden           1
           irdwfk           1
              ixc     -116133
              kpt      3.25000000E-01  0.00000000E+00  0.00000000E+00
                       3.33333333E-01  3.33333333E-01  0.00000000E+00
           kptopt           0
P           mkmem           2
P          mkqmem           2
P          mk1mem           2
            natom           9
            nband          27
           nbdbuf           4
            ngfft          64      64      50
             nkpt           2
            nstep        2000
             nsym          12
           ntypat           3
              occ      2.000000  2.000000  2.000000  2.000000  2.000000  2.000000
                       2.000000  2.000000  2.000000  2.000000  2.000000  2.000000
                       2.000000  2.000000  2.000000  2.000000  2.000000  2.000000
                       0.000000  0.000000  0.000000  0.000000  0.000000  0.000000
                       0.000000  0.000000  0.000000
        optdriver           1
            prtwf          -1
            rfdir           1       1       1
           rfelfd           2
            rprim      1.0636002919E+01  0.0000000000E+00  0.0000000000E+00
                      -5.3180014597E+00  9.2110487229E+00  0.0000000000E+00
                       0.0000000000E+00  0.0000000000E+00  8.4402134445E+00
          spgroup         164
           symrel      1  0  0   0  1  0   0  0  1      -1  0  0   0 -1  0   0  0 -1
                      -1  0  0   1  1  0   0  0  1       1  0  0  -1 -1  0   0  0 -1
                       0  1  0  -1 -1  0   0  0  1       0 -1  0   1  1  0   0  0 -1
                       0 -1  0  -1  0  0   0  0  1       0  1  0   1  0  0   0  0 -1
                      -1 -1  0   1  0  0   0  0  1       1  1  0  -1  0  0   0  0 -1
                       1  1  0   0 -1  0   0  0  1      -1 -1  0   0  1  0   0  0 -1
           tolwfr      1.00000000E-20
            typat      1  1  2  3  3  3  3  3  3
           useylm           1
              wtk        0.50000    0.50000
           xangst      2.8141651677E+00  1.6247590171E+00  3.2748888407E+00
                      -1.7639946751E-11  3.2495180342E+00  1.1914797498E+00
                       0.0000000000E+00  0.0000000000E+00  0.0000000000E+00
                       1.4633490022E+00  8.4486494035E-01  1.0156790157E+00
                       4.1649813332E+00  8.4486494035E-01  1.0156790157E+00
                       2.8141651677E+00  3.1845471707E+00  1.0156790157E+00
                       1.3508161655E+00  4.0294121110E+00  3.4506895748E+00
                      -1.3508161655E+00  4.0294121110E+00  3.4506895748E+00
                      -9.1722412065E-12  1.6897298807E+00  3.4506895748E+00
            xcart      5.3180014596E+00  3.0703495743E+00  6.1886430246E+00
                      -3.3334668359E-11  6.1406991486E+00  2.2515704199E+00
                       0.0000000000E+00  0.0000000000E+00  0.0000000000E+00
                       2.7653288510E+00  1.5965633565E+00  1.9193551786E+00
                       7.8706740683E+00  1.5965633565E+00  1.9193551786E+00
                       5.3180014596E+00  6.0179220098E+00  1.9193551786E+00
                       2.5526726086E+00  7.6144853664E+00  6.5208582659E+00
                      -2.5526726087E+00  7.6144853664E+00  6.5208582659E+00
                      -1.7333023905E-11  3.1931267131E+00  6.5208582659E+00
             xred      6.6666666667E-01  3.3333333333E-01  7.3323300000E-01
                       3.3333333333E-01  6.6666666667E-01  2.6676700000E-01
                       0.0000000000E+00  0.0000000000E+00  0.0000000000E+00
                       3.4666266667E-01  1.7333133333E-01  2.2740600000E-01
                       8.2666866667E-01  1.7333133333E-01  2.2740600000E-01
                       8.2666866667E-01  6.5333733333E-01  2.2740600000E-01
                       6.5333733333E-01  8.2666866667E-01  7.7259400000E-01
                       1.7333133333E-01  8.2666866667E-01  7.7259400000E-01
                       1.7333133333E-01  3.4666266667E-01  7.7259400000E-01
            znucl       56.00000   12.00000    1.00000

 chkinp: Checking input parameters for consistency.

== DATASET  1 ==================================================================
-   mpi_nproc: 1, omp_nthreads: -1 (-1 if OMP is not activated)

--- !DatasetInfo
iteration_state: {dtset: 1, }
dimensions: {natom: 9, nkpt: 2, mband: 27, nsppol: 1, nspinor: 1, nspden: 1, mpw: 10770, }
cutoff_energies: {ecut:  42.0, pawecutdg:  -1.0, }
electrons: {nelect:   3.60000000E+01, charge:   0.00000000E+00, occopt:   1.00000000E+00, tsmear:   1.00000000E-02, }
meta: {optdriver: 1, rfelfd: 2, }
...

 Real(R)+Recip(G) space primitive vectors, cartesian coordinates (Bohr,Bohr^-1):
 R(1)= 10.6360029  0.0000000  0.0000000  G(1)=  0.0940203  0.0542826  0.0000000
 R(2)= -5.3180015  9.2110487  0.0000000  G(2)=  0.0000000  0.1085653  0.0000000
 R(3)=  0.0000000  0.0000000  8.4402134  G(3)=  0.0000000  0.0000000  0.1184804
 Unit cell volume ucvol=  8.2687709E+02 bohr^3
 Angles (23,13,12)=  9.00000000E+01  9.00000000E+01  1.20000000E+02 degrees

 getcut: wavevector=  0.0000  0.0000  0.0000  ngfft=  64  64  50
         ecut(hartree)=     42.000   => boxcut(ratio)=   2.03061

--- Pseudopotential description ------------------------------------------------
- pspini: atom type   1  psp file is /scratch/users/j/a/jabreu/pseudos/PBEsol/Ba.psp8
- pspatm: opening atomic psp file    /scratch/users/j/a/jabreu/pseudos/PBEsol/Ba.psp8
- Ba    ONCVPSP-3.3.0  r_core=   2.15444   1.91218   2.15444
- 56.00000  10.00000    180112                znucl, zion, pspdat
    8 -116133    2    4       600   0.00000   pspcod,pspxc,lmax,lloc,mmax,r2well
    5.99000000000000    5.00000000000000    0.00000000000000   rchrg,fchrg,qchrg
     nproj     2     2     2
     extension_switch     1
  pspatm : epsatm=   26.37418029
         --- l  ekb(1:nproj) -->
             0    6.652372    0.677024
             1    5.027722    0.408462
             2    2.543237    0.416854
 pspatm: atomic psp has been read  and splines computed

- pspini: atom type   2  psp file is /scratch/users/j/a/jabreu/pseudos/PBEsol/Mg.psp8
- pspatm: opening atomic psp file    /scratch/users/j/a/jabreu/pseudos/PBEsol/Mg.psp8
- Mg    ONCVPSP-3.3.0  r_core=   1.16056   1.56380
- 12.00000  10.00000    180112                znucl, zion, pspdat
    8 -116133    1    4       400   0.00000   pspcod,pspxc,lmax,lloc,mmax,r2well
    3.99000000000000    0.00000000000000    0.00000000000000   rchrg,fchrg,qchrg
     nproj     2     2
     extension_switch     1
  pspatm : epsatm=    9.18164846
         --- l  ekb(1:nproj) -->
             0    2.230603   -0.826587
             1   -6.503151   -2.501445
 pspatm: atomic psp has been read  and splines computed

- pspini: atom type   3  psp file is /scratch/users/j/a/jabreu/pseudos/PBEsol/H.psp8
- pspatm: opening atomic psp file    /scratch/users/j/a/jabreu/pseudos/PBEsol/H.psp8
- H     ONCVPSP-3.3.0  r_core=   1.00957   0.70586
-  1.00000   1.00000    180112                znucl, zion, pspdat
    8 -116133    1    4       300   0.00000   pspcod,pspxc,lmax,lloc,mmax,r2well
    2.99000000000000    0.00000000000000    0.00000000000000   rchrg,fchrg,qchrg
     nproj     2     1
     extension_switch     1
  pspatm : epsatm=    0.35627032
         --- l  ekb(1:nproj) -->
             0   -1.674911   -0.523609
             1   -0.494138
 pspatm: atomic psp has been read  and splines computed

   2.30643471E+03                                ecore*ucvol(ha*bohr**3)

-inwffil : will read wavefunctions from disk file /scratch/users/j/a/jabreu/flow_simple_9atoms/flow/w164/t1/indata/in_WFK

 ==>  initialize data related to q vector <==

 The list of irreducible perturbations for this q vector is:
    1)    idir= 1    ipert=  10
    2)    idir= 2    ipert=  10
    3)    idir= 3    ipert=  10

 Perturbation wavevector (in red.coord.)   0.000000  0.000000  0.000000
 Perturbation : derivative vs k along direction   1

 dfpt_looppert : COMMENT -
  In a d/dk calculation, iscf is set to -3 automatically.
 The set of symmetries contains only one element for this perturbation.
 symkpt : not enough symmetry to change the number of k points.

[...]

 Initialisation of the first-order wave-functions :
  ireadwf=   0

--- !BeginCycle
iteration_state: {dtset: 1, }
solver: {iscf: 7, nstep: 2000, nline: 4, wfoptalg: 0, }
tolerances: {tolwfr: 1.00E-20, }
...

     iter   2DEtotal(Ha)        deltaE(Ha) residm    vres2
-ETOT  1  -19.098007534102     -1.910E+01 1.402E-02 0.000E+00
 ETOT  2  -19.100590991764     -2.583E-03 1.743E-04 0.000E+00
 ETOT  3  -19.100591796564     -8.048E-07 1.803E-06 0.000E+00
 ETOT  4  -19.100591797141     -5.772E-10 3.799E-08 0.000E+00
 ETOT  5  -19.100591797142     -6.146E-13 7.251E-10 0.000E+00
 ETOT  6  -19.100591797142      7.105E-15 1.509E-11 0.000E+00
 ETOT  7  -19.100591797142     -2.132E-14 3.130E-13 0.000E+00
 ETOT  8  -19.100591797142     -3.553E-15 6.493E-15 0.000E+00
 ETOT  9  -19.100591797142      0.000E+00 1.403E-16 0.000E+00
 ETOT 10  -19.100591797142      7.105E-15 2.873E-18 0.000E+00
 ETOT 11  -19.100591797142     -7.105E-15 6.366E-20 0.000E+00
 ETOT 12  -19.100591797142      7.105E-15 9.449E-21 0.000E+00

 At SCF step   12   max residual=  9.45E-21 < tolwfr=  1.00E-20 =>converged.

 ----iterations are completed or convergence reached----

 dfpt_looppert: DFPT cycle converged with prtwf=-1. Will skip output of the 1st-order WFK file.
 dfpt_looppert : ek2=    3.3502257633E+01
          f-sum rule ratio=    1.0077309000E+00
 prteigrs : about to open file /scratch/users/j/a/jabreu/flow_simple_9atoms/flow/w164/t1/tmpdata/tmp_1WF1_EIG
 Expectation of eigenvalue derivatives (hartree) for nkpt=   2  k points:
  (in case of degenerate eigenvalues, averaged derivative)
 kpt#   1, nband= 27, wtk=  0.50000, kpt=  0.3250  0.0000  0.0000 (reduced coord)
   0.00000    0.00000   -0.00000   -0.00000    0.00793   -0.00773   -0.01492   -0.00955
   0.01683   -0.00869   -0.02122    0.01241    0.16129   -0.09984    0.01839    0.09526
  -0.03487   -0.00052   -0.04570   -0.03247    0.01724   -0.20999   -0.19864    0.08565
   0.01624   -0.16708    0.14427
 prteigrs : prtvol=0 or 1, do not print more k-points.

 Eight components of 2nd-order total energy (hartree) are
 1,2,3: 0th-order hamiltonian combined with 1st-order wavefunctions
     kin0=   1.47412785E+01 eigvalue=   1.83639388E+00  local=  -7.72345356E+00
 4,5,6: 1st-order hamiltonian combined with 1st and 0th-order wfs
     kin1=  -3.37612602E+01  Hartree=   0.00000000E+00     xc=   0.00000000E+00
 7,8,9: eventually, occupation + non-local contributions
    edocc=   8.89351804E+00     enl0=   1.35285496E+00   enl1=  -4.43992336E+00
 1-9 gives the relaxation energy (to be shifted if some occ is /=2.0)
   erelax=  -1.91005918E+01
  No Ewald or frozen-wf contrib.: the relaxation energy is the total one
 2DEtotal=   -0.1910059180E+02 Ha. Also 2DEtotal=   -0.519753535345E+03 eV
    (  non-var. 2DEtotal :   -1.9100591797E+01 Ha)

 Perturbation wavevector (in red.coord.)   0.000000  0.000000  0.000000
 Perturbation : derivative vs k along direction   2
 The set of symmetries contains only one element for this perturbation.
 symkpt : not enough symmetry to change the number of k points.

[...]

 Perturbation wavevector (in red.coord.)   0.000000  0.000000  0.000000
 Perturbation : derivative vs k along direction   3
 The set of symmetries contains only one element for this perturbation.
 symkpt : not enough symmetry to change the number of k points.

-inwffil : will read wavefunctions from disk file /scratch/users/j/a/jabreu/flow_simple_9atoms/flow/w164/t1/indata/in_WFK

 Initialisation of the first-order wave-functions :
  ireadwf=   0

--- !BeginCycle
iteration_state: {dtset: 1, }
solver: {iscf: 7, nstep: 2000, nline: 4, wfoptalg: 0, }
tolerances: {tolwfr: 1.00E-20, }
...

     iter   2DEtotal(Ha)        deltaE(Ha) residm    vres2
-ETOT  1  -26.000076358117     -2.600E+01 8.628E-03 0.000E+00
 ETOT  2  -26.003713323728     -3.637E-03 6.136E-05 0.000E+00
 ETOT  3  -26.003714383025     -1.059E-06 5.315E-07 0.000E+00
 ETOT  4  -26.003714383607     -5.817E-10 1.236E-08 0.000E+00
 ETOT  5  -26.003714383608     -5.080E-13 1.991E-10 0.000E+00
 ETOT  6  -26.003714383608     -1.066E-14 4.909E-12 0.000E+00
 ETOT  7  -26.003714383608      3.553E-15 8.329E-14 0.000E+00
 ETOT  8  -26.003714383608     -7.105E-15 2.152E-15 0.000E+00
 ETOT  9  -26.003714383608      3.553E-15 3.711E-17 0.000E+00
 ETOT 10  -26.003714383608      0.000E+00 9.855E-19 0.000E+00
 ETOT 11  -26.003714383608     -3.553E-15 1.706E-20 0.000E+00
 ETOT 12  -26.003714383608      0.000E+00 8.910E-21 0.000E+00

 At SCF step   12   max residual=  8.91E-21 < tolwfr=  1.00E-20 =>converged.

 ----iterations are completed or convergence reached----

 dfpt_looppert: DFPT cycle converged with prtwf=-1. Will skip output of the 1st-order WFK file.
 dfpt_looppert : ek2=    3.9901146427E+01
          f-sum rule ratio=    1.1815287620E+00
 prteigrs : about to open file /scratch/users/j/a/jabreu/flow_simple_9atoms/flow/w164/t1/tmpdata/tmp_1WF1_EIG
 Expectation of eigenvalue derivatives (hartree) for nkpt=   2  k points:
  (in case of degenerate eigenvalues, averaged derivative)
 kpt#   1, nband= 27, wtk=  0.50000, kpt=  0.3250  0.0000  0.0000 (reduced coord)
  -0.00000    0.00000    0.00000   -0.00000    0.00001   -0.00001   -0.00067    0.00199
   0.00627   -0.01334    0.00453    0.00102    0.00387    0.00656   -0.00067   -0.02271
  -0.02523    0.03815    0.04117    0.01206   -0.03074   -0.01215    0.05468   -0.11863
   0.08787   -0.00674   -0.07405
 prteigrs : prtvol=0 or 1, do not print more k-points.

 Eight components of 2nd-order total energy (hartree) are
 1,2,3: 0th-order hamiltonian combined with 1st-order wavefunctions
     kin0=   1.72147364E+01 eigvalue=   2.30992733E+00  local=  -9.14099417E+00
 4,5,6: 1st-order hamiltonian combined with 1st and 0th-order wfs
     kin1=  -4.71443521E+01  Hartree=   0.00000000E+00     xc=   0.00000000E+00
 7,8,9: eventually, occupation + non-local contributions
    edocc=   1.38440885E+01     enl0=   1.77595623E+00   enl1=  -4.86307663E+00
 1-9 gives the relaxation energy (to be shifted if some occ is /=2.0)
   erelax=  -2.60037144E+01
  No Ewald or frozen-wf contrib.: the relaxation energy is the total one
 2DEtotal=   -0.2600371438E+02 Ha. Also 2DEtotal=   -0.707597053878E+03 eV
    (  non-var. 2DEtotal :   -2.6003714383E+01 Ha)

 CALCULATION OF EFFECTIVE MASSES
 NOTE : Additional infos (eff. mass eigenvalues, eigenvectors and, if degenerate, average mass) are available in stdout.

 K-point ( 0.325, 0.000, 0.000) | band =    18
 Effective mass tensor:
             -1.9333589128             -0.7463948552              0.0336193418
             -0.7463948552             -1.0715072519              0.0194140645
              0.0336193418              0.0194140645             -0.4669454995
 Effective mass tensor eigenvalues:
             -2.3650869255             -0.6405732613             -0.4661514774
 Angular average effective mass 1/(<1/m>)=  -0.7265427409
 Angular average effective mass for Frohlich model (<m**0.5>)**2=  -0.8098337377
 Effective masses along directions: (cart. coord. / red. coord. -> eff. mass)
    1:   1.000000  0.000000  0.000000 /   0.894427 -0.447214  0.000000 ->  -1.4125666553
    2:   0.000000  1.000000  0.000000 /   0.000000  1.000000  0.000000 ->  -0.7832643704
    3:   0.000000  0.000000  1.000000 /   0.000000  0.000000  1.000000 ->  -0.4663080293
    4:   0.577350  0.577350  0.577350 /   0.752988  0.275613  0.597534 ->  -0.9258702418
    5:   0.000000  0.707107  0.707107 /   0.000000  0.737284  0.675583 ->  -0.5786290467
    6:   0.707107  0.000000  0.707107 /   0.729379 -0.364689  0.578799 ->  -0.6864792700
    7:   0.707107  0.707107  0.000000 /   0.939071  0.343724  0.000000 ->  -2.0010464413

 K-point ( 0.333, 0.333, 0.000) | band =    19
 Effective mass tensor:
              0.7788524169             -0.0000000000              0.0000000003
             -0.0000000000              0.7788524169              0.0000000002
              0.0000000003              0.0000000002              0.1720742825
 Effective mass tensor eigenvalues:
              0.1720742825              0.7788524169              0.7788524169
 Angular average effective mass 1/(<1/m>)=   0.3580240969
 Angular average effective mass for Frohlich model (<m**0.5>)**2=   0.4252913598
 Effective masses along directions: (cart. coord. / red. coord. -> eff. mass)
    1:   1.000000  0.000000  0.000000 /   0.894427 -0.447214  0.000000 ->   0.7788524169
    2:   0.000000  1.000000  0.000000 /   0.000000  1.000000  0.000000 ->   0.7788524169
    3:   0.000000  0.000000  1.000000 /   0.000000  0.000000  1.000000 ->   0.1720742825
    4:   0.577350  0.577350  0.577350 /   0.752988  0.275613  0.597534 ->   0.3580240972
    5:   0.000000  0.707107  0.707107 /   0.000000  0.737284  0.675583 ->   0.2818733998
    6:   0.707107  0.000000  0.707107 /   0.729379 -0.364689  0.578799 ->   0.2818733998
    7:   0.707107  0.707107  0.000000 /   0.939071  0.343724  0.000000 ->   0.7788524169

 END OF EFFECTIVE MASSES SECTION

 ---- first-order wavefunction calculations are completed ----

 Total localisation tensor (bohr^2) in cartesian coordinates
  WARNING : still subject to testing - especially symmetries.
      direction              matrix element
   alpha     beta       real part   imaginary part
     1        1       1.8614435706    0.0000000000
     1        2      -0.6506452227    0.0000000000
     1        3       0.0000000000    0.0000000000
     2        1      -0.6506452227    0.0000000000
     2        2       1.1269505835    0.0000000000
     2        3       0.0000000000    0.0000000000
     3        1       0.0000000000    0.0000000000
     3        2       0.0000000000    0.0000000000
     3        3       1.9663497831    0.0000000000

 respfn : d/dk was computed, but no 2DTE, so no DDB output.

== END DATASET(S) ==============================================================

 -outvars: echo values of variables after computation  --------
            acell      1.0000000000E+00  1.0000000000E+00  1.0000000000E+00 Bohr
              amu      1.37327000E+02  2.43050000E+01  1.00794000E+00
             ecut      4.20000000E+01 Hartree
           etotal     -2.6003714384E+01
            fcart      0.0000000000E+00  0.0000000000E+00  0.0000000000E+00
                       0.0000000000E+00  0.0000000000E+00  0.0000000000E+00
                       0.0000000000E+00  0.0000000000E+00  0.0000000000E+00
                       0.0000000000E+00  0.0000000000E+00  0.0000000000E+00
                       0.0000000000E+00  0.0000000000E+00  0.0000000000E+00
                       0.0000000000E+00  0.0000000000E+00  0.0000000000E+00
                       0.0000000000E+00  0.0000000000E+00  0.0000000000E+00
                       0.0000000000E+00  0.0000000000E+00  0.0000000000E+00
                       0.0000000000E+00  0.0000000000E+00  0.0000000000E+00
-          fftalg         512
           irdden           1
           irdwfk           1
              ixc     -116133
              kpt      3.25000000E-01  0.00000000E+00  0.00000000E+00
                       3.33333333E-01  3.33333333E-01  0.00000000E+00
           kptopt           0
P           mkmem           2
P          mkqmem           2
P          mk1mem           2
            natom           9
            nband          27
           nbdbuf           4
            ngfft          64      64      50
             nkpt           2
            nstep        2000
             nsym          12
           ntypat           3
              occ      2.000000  2.000000  2.000000  2.000000  2.000000  2.000000
                       2.000000  2.000000  2.000000  2.000000  2.000000  2.000000
                       2.000000  2.000000  2.000000  2.000000  2.000000  2.000000
                       0.000000  0.000000  0.000000  0.000000  0.000000  0.000000
                       0.000000  0.000000  0.000000
        optdriver           1
            prtwf          -1
            rfdir           1       1       1
           rfelfd           2
            rprim      1.0636002919E+01  0.0000000000E+00  0.0000000000E+00
                      -5.3180014597E+00  9.2110487229E+00  0.0000000000E+00
                       0.0000000000E+00  0.0000000000E+00  8.4402134445E+00
          spgroup         164
           strten      0.0000000000E+00  0.0000000000E+00  0.0000000000E+00
                       0.0000000000E+00  0.0000000000E+00  0.0000000000E+00
           symrel      1  0  0   0  1  0   0  0  1      -1  0  0   0 -1  0   0  0 -1
                      -1  0  0   1  1  0   0  0  1       1  0  0  -1 -1  0   0  0 -1
                       0  1  0  -1 -1  0   0  0  1       0 -1  0   1  1  0   0  0 -1
                       0 -1  0  -1  0  0   0  0  1       0  1  0   1  0  0   0  0 -1
                      -1 -1  0   1  0  0   0  0  1       1  1  0  -1  0  0   0  0 -1
                       1  1  0   0 -1  0   0  0  1      -1 -1  0   0  1  0   0  0 -1
           tolwfr      1.00000000E-20
            typat      1  1  2  3  3  3  3  3  3
           useylm           1
              wtk        0.50000    0.50000
           xangst      2.8141651677E+00  1.6247590171E+00  3.2748888407E+00
                      -1.7639946751E-11  3.2495180342E+00  1.1914797498E+00
                       0.0000000000E+00  0.0000000000E+00  0.0000000000E+00
                       1.4633490022E+00  8.4486494035E-01  1.0156790157E+00
                       4.1649813332E+00  8.4486494035E-01  1.0156790157E+00
                       2.8141651677E+00  3.1845471707E+00  1.0156790157E+00
                       1.3508161655E+00  4.0294121110E+00  3.4506895748E+00
                      -1.3508161655E+00  4.0294121110E+00  3.4506895748E+00
                      -9.1722412065E-12  1.6897298807E+00  3.4506895748E+00
            xcart      5.3180014596E+00  3.0703495743E+00  6.1886430246E+00
                      -3.3334668359E-11  6.1406991486E+00  2.2515704199E+00
                       0.0000000000E+00  0.0000000000E+00  0.0000000000E+00
                       2.7653288510E+00  1.5965633565E+00  1.9193551786E+00
                       7.8706740683E+00  1.5965633565E+00  1.9193551786E+00
                       5.3180014596E+00  6.0179220098E+00  1.9193551786E+00
                       2.5526726086E+00  7.6144853664E+00  6.5208582659E+00
                      -2.5526726087E+00  7.6144853664E+00  6.5208582659E+00
                      -1.7333023905E-11  3.1931267131E+00  6.5208582659E+00
             xred      6.6666666667E-01  3.3333333333E-01  7.3323300000E-01
                       3.3333333333E-01  6.6666666667E-01  2.6676700000E-01
                       0.0000000000E+00  0.0000000000E+00  0.0000000000E+00
                       3.4666266667E-01  1.7333133333E-01  2.2740600000E-01
                       8.2666866667E-01  1.7333133333E-01  2.2740600000E-01
                       8.2666866667E-01  6.5333733333E-01  2.2740600000E-01
                       6.5333733333E-01  8.2666866667E-01  7.7259400000E-01
                       1.7333133333E-01  8.2666866667E-01  7.7259400000E-01
                       1.7333133333E-01  3.4666266667E-01  7.7259400000E-01
            znucl       56.00000   12.00000    1.00000

- Timing analysis has been suppressed with timopt=0

 Suggested references for the acknowledgment of ABINIT usage.

 Calculation completed.
.Delivered  14 WARNINGs and   9 COMMENTs to log file.