.Version 9.5.2 of ABINIT

 ABINIT is a project of the Universite Catholique de Louvain,
 Corning Inc. and other collaborators, see ~abinit/doc/developers/contributors.txt .
 acknowledgments of the ABINIT effort.

.Starting date : Mon 24 May 2021.
- ( at 11h59 )

- input  file    -> /scratch/users/j/a/jabreu/flow_simple_10atoms/flow/w372/t1/run.abi
- output file    -> /scratch/users/j/a/jabreu/flow_simple_10atoms/flow/w372/t1/run.abo
- root for input  files -> /scratch/users/j/a/jabreu/flow_simple_10atoms/flow/w372/t1/indata/in
- root for output files -> /scratch/users/j/a/jabreu/flow_simple_10atoms/flow/w372/t1/outdata/out

 Symmetries : space group R-3 (#148); Bravais hR (rhombohedral)
     intxc =       0      iscf =       7    lmnmax =      18     lnmax =       6
     mgfft =      90  mpssoang =       3    mqgrid =    3263     natom =      10
  nloc_mem =       1    nspden =       1   nspinor =       1    nsppol =       1
      nsym =       6    n1xccc =    2501    ntypat =       3    occopt =       1
   xclevel =       2
-    mband =          49        mffmem =           1         mkmem =           2
-   mkqmem =           2        mk1mem =           2           mpw =       24804
      nfft =      729000          nkpt =           2
  Rough estimation (10% accuracy) of disk space for files :

------------- Echo of variables that govern the present computation ------------
-
- outvars: echo of selected default values
-   iomode0 =  0 , fftalg0 =512 , wfoptalg0 =  0
-
- outvars: echo of global parameters not present in the input file
-  max_nthreads =    0
-
 -outvars: echo values of preprocessed input variables --------
            acell      1.0000000000E+00  1.0000000000E+00  1.0000000000E+00 Bohr
              amu      2.29897680E+01  8.89058500E+01  3.54527000E+01
             ecut      4.40000000E+01 Hartree
-          fftalg         512
           irdden           1
           irdwfk           1
           istwfk        1    1
              ixc     -116133
              kpt      0.00000000E+00  0.00000000E+00  0.00000000E+00
                       5.00000000E-01  0.00000000E+00  0.00000000E+00
           kptopt           0
P           mkmem           2
P          mkqmem           2
P          mk1mem           2
            natom          10
            nband          49
           nbdbuf           4
            ngfft          90      90      90
             nkpt           2
            nstep        2000
             nsym           6
           ntypat           3
              occ      2.000000  2.000000  2.000000  2.000000  2.000000  2.000000
                       2.000000  2.000000  2.000000  2.000000  2.000000  2.000000
                       2.000000  2.000000  2.000000  2.000000  2.000000  2.000000
                       2.000000  2.000000  2.000000  2.000000  2.000000  2.000000
                       2.000000  2.000000  2.000000  2.000000  2.000000  2.000000
                       2.000000  2.000000  2.000000  2.000000  2.000000  2.000000
                       2.000000  2.000000  2.000000  2.000000  0.000000  0.000000
                       0.000000  0.000000  0.000000  0.000000  0.000000  0.000000
                       0.000000
        optdriver           1
            prtwf          -1
            rfdir           1       1       1
           rfelfd           2
            rprim      1.1680091915E+01  0.0000000000E+00  7.6187625049E+00
                       4.1266824878E+00  1.0926803686E+01  7.6187625049E+00
                       0.0000000000E+00  0.0000000000E+00  1.3945253287E+01
          spgroup         148
           symrel      1  0  0   0  1  0   0  0  1      -1  0  0   0 -1  0   0  0 -1
                       0  0  1   1  0  0   0  1  0       0  0 -1  -1  0  0   0 -1  0
                       0  1  0   0  0  1   1  0  0       0 -1  0   0  0 -1  -1  0  0
           tolwfr      1.00000000E-20
            typat      1  1  1  2  3  3  3  3  3  3
           useylm           1
              wtk        0.50000    0.50000
           xangst      1.6668275334E+00  1.1522336418E+00  3.0773298287E+00
                       4.1822923777E+00  2.8911077367E+00  7.7214305791E+00
                       6.6977572220E+00  4.6299818315E+00  1.2365531330E+01
                       0.0000000000E+00  0.0000000000E+00  0.0000000000E+00
                       3.9903814827E+00  4.5065951355E+00  5.4406481080E+00
                       5.0557054620E+00  6.3131963202E-01  6.3146237997E+00
                       1.4833527203E+00  2.1408074568E+00  7.6843870327E+00
                       6.8812320350E+00  3.6414080165E+00  7.7584741256E+00
                       3.3088792934E+00  5.1508958413E+00  9.1282373585E+00
                       4.3742032726E+00  1.2756203378E+00  1.0002213050E+01
            xcart      3.1498475488E+00  2.1774060241E+00  5.8153105969E+00
                       7.9033872014E+00  5.4634018429E+00  1.4591389149E+01
                       1.2656926854E+01  8.7493976618E+00  2.3367467700E+01
                       0.0000000000E+00  0.0000000000E+00  0.0000000000E+00
                       7.5407281681E+00  8.5162305979E+00  1.0281334909E+01
                       9.5538987317E+00  1.1930212068E+00  1.1932909614E+01
                       2.8031303998E+00  4.0455397967E+00  1.4521386991E+01
                       1.3003644003E+01  6.8812638892E+00  1.4661391306E+01
                       6.2528756712E+00  9.7337824791E+00  1.7249868684E+01
                       8.2660462348E+00  2.4105730880E+00  1.8901443388E+01
             xred      1.9927200000E-01  1.9927200000E-01  1.9927200000E-01
                       5.0000000000E-01  5.0000000000E-01  5.0000000000E-01
                       8.0072800000E-01  8.0072800000E-01  8.0072800000E-01
                       0.0000000000E+00  0.0000000000E+00  0.0000000000E+00
                       3.7024000000E-01  7.7938900000E-01  1.0918300000E-01
                       7.7938900000E-01  1.0918300000E-01  3.7024000000E-01
                       1.0918300000E-01  3.7024000000E-01  7.7938900000E-01
                       8.9081700000E-01  6.2976000000E-01  2.2061100000E-01
                       2.2061100000E-01  8.9081700000E-01  6.2976000000E-01
                       6.2976000000E-01  2.2061100000E-01  8.9081700000E-01
            znucl       11.00000   39.00000   17.00000

 chkinp: Checking input parameters for consistency.

== DATASET  1 ==================================================================
-   mpi_nproc: 1, omp_nthreads: -1 (-1 if OMP is not activated)

--- !DatasetInfo
iteration_state: {dtset: 1, }
dimensions: {natom: 10, nkpt: 2, mband: 49, nsppol: 1, nspinor: 1, nspden: 1, mpw: 24804, }
cutoff_energies: {ecut:  44.0, pawecutdg:  -1.0, }
electrons: {nelect:   8.00000000E+01, charge:   0.00000000E+00, occopt:   1.00000000E+00, tsmear:   1.00000000E-02, }
meta: {optdriver: 1, rfelfd: 2, }
...

 Real(R)+Recip(G) space primitive vectors, cartesian coordinates (Bohr,Bohr^-1):
 R(1)= 11.6800919  0.0000000  7.6187625  G(1)=  0.0856158 -0.0323342  0.0000000
 R(2)=  4.1266825 10.9268037  7.6187625  G(2)=  0.0000000  0.0915181  0.0000000
 R(3)=  0.0000000  0.0000000 13.9452533  G(3)= -0.0467748 -0.0323342  0.0717090
 Unit cell volume ucvol=  1.7797779E+03 bohr^3
 Angles (23,13,12)=  5.68841454E+01  5.68841454E+01  5.68841454E+01 degrees

 getcut: wavevector=  0.0000  0.0000  0.0000  ngfft=  90  90  90
         ecut(hartree)=     44.000   => boxcut(ratio)=   2.16154

--- Pseudopotential description ------------------------------------------------
- pspini: atom type   1  psp file is /scratch/users/j/a/jabreu/pseudos/PBEsol/Na.psp8
- pspatm: opening atomic psp file    /scratch/users/j/a/jabreu/pseudos/PBEsol/Na.psp8
- Na    ONCVPSP-3.3.0  r_core=   1.20708   1.55069
- 11.00000   9.00000    180112                znucl, zion, pspdat
    8 -116133    1    4       400   0.00000   pspcod,pspxc,lmax,lloc,mmax,r2well
    3.99000000000000    0.00000000000000    0.00000000000000   rchrg,fchrg,qchrg
     nproj     2     2
     extension_switch     1
  pspatm : epsatm=    9.32878306
         --- l  ekb(1:nproj) -->
             0    2.657905   -0.678300
             1   -6.761319   -2.404728
 pspatm: atomic psp has been read  and splines computed

- pspini: atom type   2  psp file is /scratch/users/j/a/jabreu/pseudos/PBEsol/Y.psp8
- pspatm: opening atomic psp file    /scratch/users/j/a/jabreu/pseudos/PBEsol/Y.psp8
- Y     ONCVPSP-3.3.0  r_core=   1.60520   1.51226   1.56736
- 39.00000  11.00000    180112                znucl, zion, pspdat
    8 -116133    2    4       600   0.00000   pspcod,pspxc,lmax,lloc,mmax,r2well
    5.99000000000000    4.00000000000000    0.00000000000000   rchrg,fchrg,qchrg
     nproj     2     2     2
     extension_switch     1
  pspatm : epsatm=   18.54790046
         --- l  ekb(1:nproj) -->
             0   10.130768    0.866504
             1    5.598307    0.427135
             2    1.217602    0.315447
 pspatm: atomic psp has been read  and splines computed

- pspini: atom type   3  psp file is /scratch/users/j/a/jabreu/pseudos/PBEsol/Cl.psp8
- pspatm: opening atomic psp file    /scratch/users/j/a/jabreu/pseudos/PBEsol/Cl.psp8
- Cl    ONCVPSP-3.3.0  r_core=   1.56009   1.35202   1.75774
- 17.00000   7.00000    180112                znucl, zion, pspdat
    8 -116133    2    4       600   0.00000   pspcod,pspxc,lmax,lloc,mmax,r2well
    5.99000000000000    8.00000000000000    0.00000000000000   rchrg,fchrg,qchrg
     nproj     2     2     2
     extension_switch     1
  pspatm : epsatm=    8.95520722
         --- l  ekb(1:nproj) -->
             0    8.193503    0.707970
             1    3.869736    1.114731
             2   -2.915303   -0.810552
 pspatm: atomic psp has been read  and splines computed

   8.02123944E+03                                ecore*ucvol(ha*bohr**3)

 ==>  initialize data related to q vector <==

 The list of irreducible perturbations for this q vector is:
    1)    idir= 1    ipert=  11
    2)    idir= 2    ipert=  11
    3)    idir= 3    ipert=  11

 Perturbation wavevector (in red.coord.)   0.000000  0.000000  0.000000
 Perturbation : derivative vs k along direction   1

 dfpt_looppert : COMMENT -
  In a d/dk calculation, iscf is set to -3 automatically.
 The set of symmetries contains only one element for this perturbation.
 symkpt : not enough symmetry to change the number of k points.

 Initialisation of the first-order wave-functions :
  ireadwf=   0

--- !BeginCycle
iteration_state: {dtset: 1, }
solver: {iscf: 7, nstep: 2000, nline: 4, wfoptalg: 0, }
tolerances: {tolwfr: 1.00E-20, }
...

     iter   2DEtotal(Ha)        deltaE(Ha) residm    vres2
-ETOT  1  -27.102257873282     -2.710E+01 3.645E-02 0.000E+00
 ETOT  2  -27.131758416872     -2.950E-02 7.748E-04 0.000E+00
 ETOT  3  -27.131843186564     -8.477E-05 1.670E-05 0.000E+00
 ETOT  4  -27.131843508855     -3.223E-07 1.609E-06 0.000E+00
 ETOT  5  -27.131843510226     -1.371E-09 6.096E-08 0.000E+00
 ETOT  6  -27.131843510233     -6.345E-12 5.599E-09 0.000E+00
 ETOT  7  -27.131843510233     -1.066E-14 2.406E-10 0.000E+00
 ETOT  8  -27.131843510233     -7.105E-15 2.193E-11 0.000E+00
 ETOT  9  -27.131843510233     -1.776E-14 1.008E-12 0.000E+00
 ETOT 10  -27.131843510233      3.553E-15 9.096E-14 0.000E+00
 ETOT 11  -27.131843510233     -3.553E-15 4.342E-15 0.000E+00
 ETOT 12  -27.131843510233      0.000E+00 3.894E-16 0.000E+00
 ETOT 13  -27.131843510233      7.105E-15 1.898E-17 0.000E+00
 ETOT 14  -27.131843510233     -7.105E-15 1.700E-18 0.000E+00
 ETOT 15  -27.131843510233      0.000E+00 8.397E-20 0.000E+00
 ETOT 16  -27.131843510233     -3.553E-15 9.881E-21 0.000E+00

 At SCF step   16   max residual=  9.88E-21 < tolwfr=  1.00E-20 =>converged.

 ----iterations are completed or convergence reached----

 dfpt_looppert: DFPT cycle converged with prtwf=-1. Will skip output of the 1st-order WFK file.
 dfpt_looppert : ek2=    5.2904600398E+01
          f-sum rule ratio=    1.0046281613E+00
 prteigrs : about to open file /scratch/users/j/a/jabreu/flow_simple_10atoms/flow/w372/t1/tmpdata/tmp_1WF1_EIG
 Expectation of eigenvalue derivatives (hartree) for nkpt=   2  k points:
  (in case of degenerate eigenvalues, averaged derivative)
 kpt#   1, nband= 49, wtk=  0.50000, kpt=  0.0000  0.0000  0.0000 (reduced coord)
   0.00000   -0.00000   -0.00000   -0.00000    0.00000    0.00000   -0.00000   -0.00000
  -0.00000   -0.00000    0.00000    0.00000   -0.00000    0.00000    0.00000    0.00000
  -0.00000   -0.00000   -0.00000    0.00000   -0.00000   -0.00000   -0.00000    0.00000
   0.00000    0.00000    0.00000    0.00000    0.00000    0.00000    0.00000   -0.00000
   0.00000   -0.00000   -0.00000    0.00000    0.00000   -0.00000   -0.00000    0.00000
  -0.00000    0.00000    0.00000   -0.00000    0.00000   -0.00000   -0.00000    0.00015
   0.00192
 prteigrs : prtvol=0 or 1, do not print more k-points.

 Eight components of 2nd-order total energy (hartree) are
 1,2,3: 0th-order hamiltonian combined with 1st-order wavefunctions
     kin0=   3.40045582E+01 eigvalue=   3.77262659E+00  local=  -1.70296991E+01
 4,5,6: 1st-order hamiltonian combined with 1st and 0th-order wfs
     kin1=  -5.31494514E+01  Hartree=   0.00000000E+00     xc=   0.00000000E+00
 7,8,9: eventually, occupation + non-local contributions
    edocc=   5.48029892E+00     enl0=   9.04058828E-01   enl1=  -1.11423560E+00
 1-9 gives the relaxation energy (to be shifted if some occ is /=2.0)
   erelax=  -2.71318435E+01
  No Ewald or frozen-wf contrib.: the relaxation energy is the total one
 2DEtotal=   -0.2713184351E+02 Ha. Also 2DEtotal=   -0.738295008586E+03 eV
    (  non-var. 2DEtotal :   -2.7131843510E+01 Ha)

 Perturbation wavevector (in red.coord.)   0.000000  0.000000  0.000000
 Perturbation : derivative vs k along direction   2
 The set of symmetries contains only one element for this perturbation.
 symkpt : not enough symmetry to change the number of k points.

[...]

 Perturbation wavevector (in red.coord.)   0.000000  0.000000  0.000000
 Perturbation : derivative vs k along direction   3
 The set of symmetries contains only one element for this perturbation.
 symkpt : not enough symmetry to change the number of k points.

 Initialisation of the first-order wave-functions :
  ireadwf=   0

--- !BeginCycle
iteration_state: {dtset: 1, }
solver: {iscf: 7, nstep: 2000, nline: 4, wfoptalg: 0, }
tolerances: {tolwfr: 1.00E-20, }
...

     iter   2DEtotal(Ha)        deltaE(Ha) residm    vres2
-ETOT  1  -27.274719317150     -2.727E+01 2.949E-02 0.000E+00
 ETOT  2  -27.303897580977     -2.918E-02 7.462E-04 0.000E+00
 ETOT  3  -27.303980767710     -8.319E-05 1.140E-05 0.000E+00
 ETOT  4  -27.303981081297     -3.136E-07 7.764E-07 0.000E+00
 ETOT  5  -27.303981082622     -1.325E-09 3.952E-08 0.000E+00
 ETOT  6  -27.303981082628     -6.064E-12 2.565E-09 0.000E+00
 ETOT  7  -27.303981082629     -7.105E-14 1.495E-10 0.000E+00
 ETOT  8  -27.303981082629      1.421E-14 9.625E-12 0.000E+00
 ETOT  9  -27.303981082628      1.421E-14 6.160E-13 0.000E+00
 ETOT 10  -27.303981082628      7.105E-15 3.912E-14 0.000E+00
 ETOT 11  -27.303981082628      0.000E+00 2.649E-15 0.000E+00
 ETOT 12  -27.303981082629     -1.421E-14 1.663E-16 0.000E+00
 ETOT 13  -27.303981082628      3.553E-15 1.161E-17 0.000E+00
 ETOT 14  -27.303981082628      3.553E-15 7.244E-19 0.000E+00
 ETOT 15  -27.303981082628      7.105E-15 5.141E-20 0.000E+00
 ETOT 16  -27.303981082628     -1.066E-14 9.983E-21 0.000E+00

 At SCF step   16   max residual=  9.98E-21 < tolwfr=  1.00E-20 =>converged.

 ----iterations are completed or convergence reached----

 dfpt_looppert: DFPT cycle converged with prtwf=-1. Will skip output of the 1st-order WFK file.
 dfpt_looppert : ek2=    5.2904600398E+01
          f-sum rule ratio=    1.0115795194E+00
 prteigrs : about to open file /scratch/users/j/a/jabreu/flow_simple_10atoms/flow/w372/t1/tmpdata/tmp_1WF1_EIG
 Expectation of eigenvalue derivatives (hartree) for nkpt=   2  k points:
  (in case of degenerate eigenvalues, averaged derivative)
 kpt#   1, nband= 49, wtk=  0.50000, kpt=  0.0000  0.0000  0.0000 (reduced coord)
   0.00000    0.00000    0.00000    0.00000   -0.00000   -0.00000   -0.00000   -0.00000
  -0.00000   -0.00000    0.00000    0.00000   -0.00000   -0.00000   -0.00000   -0.00000
   0.00000    0.00000    0.00000    0.00000    0.00000    0.00000   -0.00000   -0.00000
   0.00000    0.00000   -0.00000   -0.00000    0.00000   -0.00000   -0.00000    0.00000
   0.00000    0.00000    0.00000   -0.00000   -0.00000    0.00000    0.00000   -0.00000
   0.00000    0.00000    0.00000    0.00000   -0.00000    0.00000    0.00000    0.00008
   0.00005
 prteigrs : prtvol=0 or 1, do not print more k-points.

 Eight components of 2nd-order total energy (hartree) are
 1,2,3: 0th-order hamiltonian combined with 1st-order wavefunctions
     kin0=   3.39277028E+01 eigvalue=   3.75997445E+00  local=  -1.69785119E+01
 4,5,6: 1st-order hamiltonian combined with 1st and 0th-order wfs
     kin1=  -5.35172102E+01  Hartree=   0.00000000E+00     xc=   0.00000000E+00
 7,8,9: eventually, occupation + non-local contributions
    edocc=   5.68243352E+00     enl0=   9.12382257E-01   enl1=  -1.09075192E+00
 1-9 gives the relaxation energy (to be shifted if some occ is /=2.0)
   erelax=  -2.73039811E+01
  No Ewald or frozen-wf contrib.: the relaxation energy is the total one
 2DEtotal=   -0.2730398108E+02 Ha. Also 2DEtotal=   -0.742979110146E+03 eV
    (  non-var. 2DEtotal :   -2.7303981082E+01 Ha)

 CALCULATION OF EFFECTIVE MASSES
 NOTE : Additional infos (eff. mass eigenvalues, eigenvectors and, if degenerate, average mass) are available in stdout.

 K-point ( 0.000, 0.000, 0.000) | band =    40
 Effective mass tensor:
             -2.4402975156              0.3386964764              0.9045750339
              0.3386964764             -2.6961248775              0.6253094110
              0.9045750339              0.6253094110             -1.2602094499
 Effective mass tensor eigenvalues:
             -2.9302571646             -2.9302570386             -0.5361176398
 Angular average effective mass 1/(<1/m>)=  -1.1774882037
 Angular average effective mass for Frohlich model (<m**0.5>)**2=  -1.4629328252
 Effective masses along directions: (cart. coord. / red. coord. -> eff. mass)
    1:   1.000000  0.000000  0.000000 /   0.942881  0.333129  0.000000 ->  -1.5310372589
    2:   0.000000  1.000000  0.000000 /   0.000000  1.000000  0.000000 ->  -2.0395493588
    3:   0.000000  0.000000  1.000000 /   0.432326  0.432326  0.791321 ->  -0.7120783386
    4:   0.577350  0.577350  0.577350 /   0.586988  0.689592  0.424155 ->  -0.6089274057
    5:   0.000000  0.707107  0.707107 /   0.311958  0.759367  0.571003 ->  -0.7432930678
    6:   0.707107  0.000000  0.707107 /   0.726903  0.442399  0.525257 ->  -0.6232256248
    7:   0.707107  0.707107  0.000000 /   0.613019  0.790068  0.000000 ->  -1.2701215079

 K-point ( 0.500, 0.000, 0.000) | band =    41
 Effective mass tensor:
              3.8507030438              0.7687466711              0.3363549012
              0.7687466711              4.3139047537             -1.0804607282
              0.3363549012             -1.0804607282              2.0161597590
 Effective mass tensor eigenvalues:
              1.4342326731              3.6885661808              5.0579687026
 Angular average effective mass 1/(<1/m>)=   2.5727822501
 Angular average effective mass for Frohlich model (<m**0.5>)**2=   2.8239594390
 Effective masses along directions: (cart. coord. / red. coord. -> eff. mass)
    1:   1.000000  0.000000  0.000000 /   0.942881  0.333129  0.000000 ->   3.5534572820
    2:   0.000000  1.000000  0.000000 /   0.000000  1.000000  0.000000 ->   3.4975475642
    3:   0.000000  0.000000  1.000000 /   0.432326  0.432326  0.791321 ->   1.6702239064
    4:   0.577350  0.577350  0.577350 /   0.586988  0.689592  0.424155 ->   2.5363372924
    5:   0.000000  0.707107  0.707107 /   0.311958  0.759367  0.571003 ->   1.6461737370
    6:   0.707107  0.000000  0.707107 /   0.726903  0.442399  0.525257 ->   2.8184817944
    7:   0.707107  0.707107  0.000000 /   0.613019  0.790068  0.000000 ->   4.7134201966

 END OF EFFECTIVE MASSES SECTION

 ---- first-order wavefunction calculations are completed ----

 Total localisation tensor (bohr^2) in cartesian coordinates
  WARNING : still subject to testing - especially symmetries.
      direction              matrix element
   alpha     beta       real part   imaginary part
     1        1       0.9496989954    0.0000000000
     1        2       0.2853744205    0.0000000000
     1        3       0.7481531721    0.0000000000
     2        1       0.2853744205    0.0000000000
     2        2       0.7556264092    0.0000000000
     2        3       0.5268638771    0.0000000000
     3        1       0.7481531721    0.0000000000
     3        2       0.5268638771    0.0000000000
     3        3       1.9524146509    0.0000000000

 respfn : d/dk was computed, but no 2DTE, so no DDB output.

== END DATASET(S) ==============================================================

 -outvars: echo values of variables after computation  --------
            acell      1.0000000000E+00  1.0000000000E+00  1.0000000000E+00 Bohr
              amu      2.29897680E+01  8.89058500E+01  3.54527000E+01
             ecut      4.40000000E+01 Hartree
           etotal     -2.7303981083E+01
            fcart      0.0000000000E+00  0.0000000000E+00  0.0000000000E+00
                       0.0000000000E+00  0.0000000000E+00  0.0000000000E+00
                       0.0000000000E+00  0.0000000000E+00  0.0000000000E+00
                       0.0000000000E+00  0.0000000000E+00  0.0000000000E+00
                       0.0000000000E+00  0.0000000000E+00  0.0000000000E+00
                       0.0000000000E+00  0.0000000000E+00  0.0000000000E+00
                       0.0000000000E+00  0.0000000000E+00  0.0000000000E+00
                       0.0000000000E+00  0.0000000000E+00  0.0000000000E+00
                       0.0000000000E+00  0.0000000000E+00  0.0000000000E+00
                       0.0000000000E+00  0.0000000000E+00  0.0000000000E+00
-          fftalg         512
           irdden           1
           irdwfk           1
           istwfk        1    1
              ixc     -116133
              kpt      0.00000000E+00  0.00000000E+00  0.00000000E+00
                       5.00000000E-01  0.00000000E+00  0.00000000E+00
           kptopt           0
P           mkmem           2
P          mkqmem           2
P          mk1mem           2
            natom          10
            nband          49
           nbdbuf           4
            ngfft          90      90      90
             nkpt           2
            nstep        2000
             nsym           6
           ntypat           3
              occ      2.000000  2.000000  2.000000  2.000000  2.000000  2.000000
                       2.000000  2.000000  2.000000  2.000000  2.000000  2.000000
                       2.000000  2.000000  2.000000  2.000000  2.000000  2.000000
                       2.000000  2.000000  2.000000  2.000000  2.000000  2.000000
                       2.000000  2.000000  2.000000  2.000000  2.000000  2.000000
                       2.000000  2.000000  2.000000  2.000000  2.000000  2.000000
                       2.000000  2.000000  2.000000  2.000000  0.000000  0.000000
                       0.000000  0.000000  0.000000  0.000000  0.000000  0.000000
                       0.000000
        optdriver           1
            prtwf          -1
            rfdir           1       1       1
           rfelfd           2
            rprim      1.1680091915E+01  0.0000000000E+00  7.6187625049E+00
                       4.1266824878E+00  1.0926803686E+01  7.6187625049E+00
                       0.0000000000E+00  0.0000000000E+00  1.3945253287E+01
          spgroup         148
           strten      0.0000000000E+00  0.0000000000E+00  0.0000000000E+00
                       0.0000000000E+00  0.0000000000E+00  0.0000000000E+00
           symrel      1  0  0   0  1  0   0  0  1      -1  0  0   0 -1  0   0  0 -1
                       0  0  1   1  0  0   0  1  0       0  0 -1  -1  0  0   0 -1  0
                       0  1  0   0  0  1   1  0  0       0 -1  0   0  0 -1  -1  0  0
           tolwfr      1.00000000E-20
            typat      1  1  1  2  3  3  3  3  3  3
           useylm           1
              wtk        0.50000    0.50000
           xangst      1.6668275334E+00  1.1522336418E+00  3.0773298287E+00
                       4.1822923777E+00  2.8911077367E+00  7.7214305791E+00
                       6.6977572220E+00  4.6299818315E+00  1.2365531330E+01
                       0.0000000000E+00  0.0000000000E+00  0.0000000000E+00
                       3.9903814827E+00  4.5065951355E+00  5.4406481080E+00
                       5.0557054620E+00  6.3131963202E-01  6.3146237997E+00
                       1.4833527203E+00  2.1408074568E+00  7.6843870327E+00
                       6.8812320350E+00  3.6414080165E+00  7.7584741256E+00
                       3.3088792934E+00  5.1508958413E+00  9.1282373585E+00
                       4.3742032726E+00  1.2756203378E+00  1.0002213050E+01
            xcart      3.1498475488E+00  2.1774060241E+00  5.8153105969E+00
                       7.9033872014E+00  5.4634018429E+00  1.4591389149E+01
                       1.2656926854E+01  8.7493976618E+00  2.3367467700E+01
                       0.0000000000E+00  0.0000000000E+00  0.0000000000E+00
                       7.5407281681E+00  8.5162305979E+00  1.0281334909E+01
                       9.5538987317E+00  1.1930212068E+00  1.1932909614E+01
                       2.8031303998E+00  4.0455397967E+00  1.4521386991E+01
                       1.3003644003E+01  6.8812638892E+00  1.4661391306E+01
                       6.2528756712E+00  9.7337824791E+00  1.7249868684E+01
                       8.2660462348E+00  2.4105730880E+00  1.8901443388E+01
             xred      1.9927200000E-01  1.9927200000E-01  1.9927200000E-01
                       5.0000000000E-01  5.0000000000E-01  5.0000000000E-01
                       8.0072800000E-01  8.0072800000E-01  8.0072800000E-01
                       0.0000000000E+00  0.0000000000E+00  0.0000000000E+00
                       3.7024000000E-01  7.7938900000E-01  1.0918300000E-01
                       7.7938900000E-01  1.0918300000E-01  3.7024000000E-01
                       1.0918300000E-01  3.7024000000E-01  7.7938900000E-01
                       8.9081700000E-01  6.2976000000E-01  2.2061100000E-01
                       2.2061100000E-01  8.9081700000E-01  6.2976000000E-01
                       6.2976000000E-01  2.2061100000E-01  8.9081700000E-01
            znucl       11.00000   39.00000   17.00000

- Timing analysis has been suppressed with timopt=0

 Suggested references for the acknowledgment of ABINIT usage.

 Calculation completed.
.Delivered   2 WARNINGs and   5 COMMENTs to log file.