.Version 9.5.1 of ABINIT

 ABINIT is a project of the Universite Catholique de Louvain,
 Corning Inc. and other collaborators, see ~abinit/doc/developers/contributors.txt .
 acknowledgments of the ABINIT effort.

.Starting date : Wed 19 May 2021.
- ( at 01h20 )

- input  file    -> /scratch/users/j/a/jabreu/flow_simple_8atoms/flow/w409/t1/run.abi
- output file    -> /scratch/users/j/a/jabreu/flow_simple_8atoms/flow/w409/t1/run.abo
- root for input  files -> /scratch/users/j/a/jabreu/flow_simple_8atoms/flow/w409/t1/indata/in
- root for output files -> /scratch/users/j/a/jabreu/flow_simple_8atoms/flow/w409/t1/outdata/out

 Symmetries : space group R-3 c (#167); Bravais hR (rhombohedral)
     intxc =       0      iscf =       7    lmnmax =      18     lnmax =       6
     mgfft =      64  mpssoang =       3    mqgrid =    3001     natom =       8
  nloc_mem =       1    nspden =       1   nspinor =       1    nsppol =       1
      nsym =      12    n1xccc =    2501    ntypat =       2    occopt =       1
   xclevel =       2
-    mband =          43        mffmem =           1         mkmem =           2
-   mkqmem =           2        mk1mem =           2           mpw =       10704
      nfft =      262144          nkpt =           2
  Rough estimation (10% accuracy) of disk space for files :

------------- Echo of variables that govern the present computation ------------
-
- outvars: echo of selected default values
-   iomode0 =  0 , fftalg0 =512 , wfoptalg0 =  0
-
- outvars: echo of global parameters not present in the input file
-  max_nthreads =    0
-
 -outvars: echo values of preprocessed input variables --------
            acell      1.0000000000E+00  1.0000000000E+00  1.0000000000E+00 Bohr
              amu      1.14820000E+02  1.89984032E+01
             ecut      4.20000000E+01 Hartree
-          fftalg         512
           irdden           1
           irdwfk           1
           istwfk        1    1
              ixc     -116133
              kpt      5.00000000E-01  5.00000000E-01  0.00000000E+00
                       0.00000000E+00  0.00000000E+00  0.00000000E+00
           kptopt           0
P           mkmem           2
P          mkqmem           2
P          mk1mem           2
            natom           8
            nband          43
           nbdbuf           4
            ngfft          64      64      64
             nkpt           2
            nstep        2000
             nsym          12
           ntypat           2
              occ      2.000000  2.000000  2.000000  2.000000  2.000000  2.000000
                       2.000000  2.000000  2.000000  2.000000  2.000000  2.000000
                       2.000000  2.000000  2.000000  2.000000  2.000000  2.000000
                       2.000000  2.000000  2.000000  2.000000  2.000000  2.000000
                       2.000000  2.000000  2.000000  2.000000  2.000000  2.000000
                       2.000000  2.000000  2.000000  2.000000  0.000000  0.000000
                       0.000000  0.000000  0.000000  0.000000  0.000000  0.000000
                       0.000000
        optdriver           1
            prtwf          -1
            rfdir           1       1       1
           rfelfd           2
            rprim      9.0032556028E+00  0.0000000000E+00  6.0901759045E+00
                       3.2330211201E+00  8.4027487102E+00  6.0901759045E+00
                       0.0000000000E+00  0.0000000000E+00  1.0869629892E+01
          spgroup         167
           symrel      1  0  0   0  1  0   0  0  1      -1  0  0   0 -1  0   0  0 -1
                       0  1  0   1  0  0   0  0  1       0 -1  0  -1  0  0   0  0 -1
                       0  0  1   1  0  0   0  1  0       0  0 -1  -1  0  0   0 -1  0
                       1  0  0   0  0  1   0  1  0      -1  0  0   0  0 -1   0 -1  0
                       0  1  0   0  0  1   1  0  0       0 -1  0   0  0 -1  -1  0  0
                       0  0  1   0  1  0   1  0  0       0  0 -1   0 -1  0  -1  0  0
            tnons      0.0000000  0.0000000  0.0000000    -0.0000000  0.0000000 -0.0000000
                       0.5000000  0.5000000  0.5000000     0.5000000  0.5000000  0.5000000
                      -0.0000000  0.0000000 -0.0000000     0.0000000 -0.0000000 -0.0000000
                       0.5000000  0.5000000  0.5000000     0.5000000  0.5000000  0.5000000
                       0.0000000  0.0000000 -0.0000000    -0.0000000  0.0000000 -0.0000000
                       0.5000000  0.5000000  0.5000000     0.5000000  0.5000000  0.5000000
           tolwfr      1.00000000E-20
            typat      1  1  2  2  2  2  2  2
           useylm           1
              wtk        0.50000    0.50000
           xangst      3.2375793799E+00  2.2232715535E+00  6.0987624874E+00
                       0.0000000000E+00  0.0000000000E+00  0.0000000000E+00
                       3.0682301269E+00  3.3349073302E+00  4.3454319290E+00
                       3.7876391458E+00  5.5723633562E-01  4.9761128433E+00
                       5.2370795828E+00  2.7805078891E+00  6.2721635287E+00
                       2.6875196139E+00  3.8893067713E+00  7.2214121314E+00
                       3.4069286328E+00  1.1116357767E+00  7.8520930458E+00
                       1.2380791769E+00  1.6660352179E+00  5.9253614461E+00
            xcart      6.1181383614E+00  4.2013743551E+00  1.1524990851E+01
                       0.0000000000E+00  0.0000000000E+00  0.0000000000E+00
                       5.7981146526E+00  6.3020615326E+00  8.2116762749E+00
                       7.1576006758E+00  1.0530240656E+00  9.4034904803E+00
                       9.8966461477E+00  5.2543984207E+00  1.1852671330E+01
                       5.0786760471E+00  7.3497246446E+00  1.3646491221E+01
                       6.4381620703E+00  2.1006871775E+00  1.4838305426E+01
                       2.3396305752E+00  3.1483502895E+00  1.1197310372E+01
             xred      5.0000000000E-01  5.0000000000E-01  5.0000000000E-01
                       0.0000000000E+00  0.0000000000E+00  0.0000000000E+00
                       3.7468100000E-01  7.5000000000E-01  1.2531900000E-01
                       7.5000000000E-01  1.2531900000E-01  3.7468100000E-01
                       8.7468100000E-01  6.2531900000E-01  2.5000000000E-01
                       2.5000000000E-01  8.7468100000E-01  6.2531900000E-01
                       6.2531900000E-01  2.5000000000E-01  8.7468100000E-01
                       1.2531900000E-01  3.7468100000E-01  7.5000000000E-01
            znucl       49.00000    9.00000

 chkinp: Checking input parameters for consistency.

== DATASET  1 ==================================================================
-   mpi_nproc: 1, omp_nthreads: -1 (-1 if OMP is not activated)

--- !DatasetInfo
iteration_state: {dtset: 1, }
dimensions: {natom: 8, nkpt: 2, mband: 43, nsppol: 1, nspinor: 1, nspden: 1, mpw: 10704, }
cutoff_energies: {ecut:  42.0, pawecutdg:  -1.0, }
electrons: {nelect:   6.80000000E+01, charge:   0.00000000E+00, occopt:   1.00000000E+00, tsmear:   1.00000000E-02, }
meta: {optdriver: 1, rfelfd: 2, }
...

 Real(R)+Recip(G) space primitive vectors, cartesian coordinates (Bohr,Bohr^-1):
 R(1)=  9.0032556  0.0000000  6.0901759  G(1)=  0.1110709 -0.0427354  0.0000000
 R(2)=  3.2330211  8.4027487  6.0901759  G(2)=  0.0000000  0.1190087  0.0000000
 R(3)=  0.0000000  0.0000000 10.8696299  G(3)= -0.0622322 -0.0427354  0.0919995
 Unit cell volume ucvol=  8.2231027E+02 bohr^3
 Angles (23,13,12)=  5.59239474E+01  5.59239474E+01  5.59239474E+01 degrees

 getcut: wavevector=  0.0000  0.0000  0.0000  ngfft=  64  64  64
         ecut(hartree)=     42.000   => boxcut(ratio)=   2.01826

--- Pseudopotential description ------------------------------------------------
- pspini: atom type   1  psp file is /scratch/users/j/a/jabreu/pseudos/PBEsol/In.psp8
- pspatm: opening atomic psp file    /scratch/users/j/a/jabreu/pseudos/PBEsol/In.psp8
- In    ONCVPSP-3.3.0  r_core=   2.10853   2.37566   1.87143
- 49.00000  13.00000    180112                znucl, zion, pspdat
    8 -116133    2    4       600   0.00000   pspcod,pspxc,lmax,lloc,mmax,r2well
    5.99000000000000    5.00000000000000    0.00000000000000   rchrg,fchrg,qchrg
     nproj     2     2     2
     extension_switch     1
  pspatm : epsatm=   25.17984752
         --- l  ekb(1:nproj) -->
             0   12.999887    1.931740
             1    5.981707    1.012544
             2   -4.048011   -1.239028
 pspatm: atomic psp has been read  and splines computed

- pspini: atom type   2  psp file is /scratch/users/j/a/jabreu/pseudos/PBEsol/F.psp8
- pspatm: opening atomic psp file    /scratch/users/j/a/jabreu/pseudos/PBEsol/F.psp8
- F     ONCVPSP-3.3.0  r_core=   1.30942   1.45782   1.60379
-  9.00000   7.00000    180112                znucl, zion, pspdat
    8 -116133    2    4       600   0.00000   pspcod,pspxc,lmax,lloc,mmax,r2well
    5.99000000000000    2.50000000000000    0.00000000000000   rchrg,fchrg,qchrg
     nproj     2     2     1
     extension_switch     1
  pspatm : epsatm=    4.89824824
         --- l  ekb(1:nproj) -->
             0    6.506434    1.065875
             1   -3.978753   -1.295852
             2   -2.394754
 pspatm: atomic psp has been read  and splines computed

   5.42294454E+03                                ecore*ucvol(ha*bohr**3)

-inwffil : will read wavefunctions from disk file /scratch/users/j/a/jabreu/flow_simple_8atoms/flow/w409/t1/indata/in_WFK

 ==>  initialize data related to q vector <==

 The list of irreducible perturbations for this q vector is:
    1)    idir= 1    ipert=   9
    2)    idir= 2    ipert=   9
    3)    idir= 3    ipert=   9

 Perturbation wavevector (in red.coord.)   0.000000  0.000000  0.000000
 Perturbation : derivative vs k along direction   1

 dfpt_looppert : COMMENT -
  In a d/dk calculation, iscf is set to -3 automatically.
 The set of symmetries contains only one element for this perturbation.
 symkpt : not enough symmetry to change the number of k points.

[...]

 Initialisation of the first-order wave-functions :
  ireadwf=   0

--- !BeginCycle
iteration_state: {dtset: 1, }
solver: {iscf: 7, nstep: 2000, nline: 4, wfoptalg: 0, }
tolerances: {tolwfr: 1.00E-20, }
...

     iter   2DEtotal(Ha)        deltaE(Ha) residm    vres2
-ETOT  1  -58.022647916076     -5.802E+01 2.039E-01 0.000E+00
 ETOT  2  -58.063859430102     -4.121E-02 8.695E-04 0.000E+00
 ETOT  3  -58.064053548948     -1.941E-04 5.270E-05 0.000E+00
 ETOT  4  -58.064055732914     -2.184E-06 2.045E-06 0.000E+00
 ETOT  5  -58.064055770591     -3.768E-08 2.721E-07 0.000E+00
 ETOT  6  -58.064055771385     -7.941E-10 1.256E-08 0.000E+00
 ETOT  7  -58.064055771404     -1.901E-11 5.076E-09 0.000E+00
 ETOT  8  -58.064055771405     -5.400E-13 1.831E-10 0.000E+00
 ETOT  9  -58.064055771405      1.421E-14 1.022E-10 0.000E+00
 ETOT 10  -58.064055771405      1.421E-14 3.672E-12 0.000E+00
 ETOT 11  -58.064055771405     -1.421E-14 2.092E-12 0.000E+00
 ETOT 12  -58.064055771405      7.105E-15 7.446E-14 0.000E+00
 ETOT 13  -58.064055771405     -7.105E-15 4.313E-14 0.000E+00
 ETOT 14  -58.064055771405      2.842E-14 1.520E-15 0.000E+00
 ETOT 15  -58.064055771405     -2.842E-14 8.938E-16 0.000E+00
 ETOT 16  -58.064055771405      7.105E-15 3.122E-17 0.000E+00
 ETOT 17  -58.064055771405     -2.132E-14 1.859E-17 0.000E+00
 ETOT 18  -58.064055771405      0.000E+00 6.443E-19 0.000E+00
 ETOT 19  -58.064055771405      0.000E+00 3.882E-19 0.000E+00
 ETOT 20  -58.064055771405     -1.421E-14 1.336E-20 0.000E+00
 ETOT 21  -58.064055771405      3.553E-14 9.894E-21 0.000E+00

 At SCF step   21   max residual=  9.89E-21 < tolwfr=  1.00E-20 =>converged.

 ----iterations are completed or convergence reached----

 dfpt_looppert: DFPT cycle converged with prtwf=-1. Will skip output of the 1st-order WFK file.
 dfpt_looppert : ek2=    7.6042413661E+01
          f-sum rule ratio=    1.0120722053E+00
 prteigrs : about to open file /scratch/users/j/a/jabreu/flow_simple_8atoms/flow/w409/t1/tmpdata/tmp_1WF1_EIG
 Expectation of eigenvalue derivatives (hartree) for nkpt=   2  k points:
  (in case of degenerate eigenvalues, averaged derivative)
 kpt#   1, nband= 43, wtk=  0.50000, kpt=  0.5000  0.5000  0.0000 (reduced coord)
   0.00000    0.00000    0.00000    0.00000    0.00000   -0.00000    0.00000   -0.00000
  -0.00000   -0.00000    0.00000   -0.00000    0.00000   -0.00000    0.00000   -0.00000
  -0.00000    0.00000    0.00000   -0.00000   -0.00000    0.00000   -0.00000    0.00000
   0.00000   -0.00000   -0.00000   -0.00000   -0.00000    0.00000   -0.00000   -0.00000
   0.00000    0.00000    0.00000   -0.00000    0.00000   -0.00000    0.00000    0.00000
   0.00117   -0.05614    0.03957
 prteigrs : prtvol=0 or 1, do not print more k-points.

 Eight components of 2nd-order total energy (hartree) are
 1,2,3: 0th-order hamiltonian combined with 1st-order wavefunctions
     kin0=   7.46065397E+01 eigvalue=   6.04158699E+00  local=  -3.55889489E+01
 4,5,6: 1st-order hamiltonian combined with 1st and 0th-order wfs
     kin1=  -7.69604133E+01  Hartree=   0.00000000E+00     xc=   0.00000000E+00
 7,8,9: eventually, occupation + non-local contributions
    edocc=   6.13919436E+00     enl0=   6.86568359E+00   enl1=  -3.91676983E+01
 1-9 gives the relaxation energy (to be shifted if some occ is /=2.0)
   erelax=  -5.80640558E+01
  No Ewald or frozen-wf contrib.: the relaxation energy is the total one
 2DEtotal=   -0.5806405577E+02 Ha. Also 2DEtotal=   -0.158000331006E+04 eV
    (  non-var. 2DEtotal :   -5.8064055771E+01 Ha)

 Perturbation wavevector (in red.coord.)   0.000000  0.000000  0.000000
 Perturbation : derivative vs k along direction   2
 The set of symmetries contains only one element for this perturbation.
 symkpt : not enough symmetry to change the number of k points.

[...]

 Perturbation wavevector (in red.coord.)   0.000000  0.000000  0.000000
 Perturbation : derivative vs k along direction   3
 The set of symmetries contains only one element for this perturbation.
 symkpt : not enough symmetry to change the number of k points.

-inwffil : will read wavefunctions from disk file /scratch/users/j/a/jabreu/flow_simple_8atoms/flow/w409/t1/indata/in_WFK

 Initialisation of the first-order wave-functions :
  ireadwf=   0

--- !BeginCycle
iteration_state: {dtset: 1, }
solver: {iscf: 7, nstep: 2000, nline: 4, wfoptalg: 0, }
tolerances: {tolwfr: 1.00E-20, }
...

     iter   2DEtotal(Ha)        deltaE(Ha) residm    vres2
-ETOT  1  -58.209667704671     -5.821E+01 1.879E-01 0.000E+00
 ETOT  2  -58.251451038158     -4.178E-02 8.654E-04 0.000E+00
 ETOT  3  -58.251634161039     -1.831E-04 7.237E-05 0.000E+00
 ETOT  4  -58.251636026589     -1.866E-06 2.103E-06 0.000E+00
 ETOT  5  -58.251636056398     -2.981E-08 3.426E-07 0.000E+00
 ETOT  6  -58.251636056991     -5.929E-10 8.382E-09 0.000E+00
 ETOT  7  -58.251636057004     -1.317E-11 1.694E-09 0.000E+00
 ETOT  8  -58.251636057005     -3.126E-13 4.292E-11 0.000E+00
 ETOT  9  -58.251636057005      2.842E-14 1.583E-11 0.000E+00
 ETOT 10  -58.251636057005      0.000E+00 4.378E-13 0.000E+00
 ETOT 11  -58.251636057005      0.000E+00 2.423E-13 0.000E+00
 ETOT 12  -58.251636057005     -2.132E-14 6.696E-15 0.000E+00
 ETOT 13  -58.251636057005      2.132E-14 3.764E-15 0.000E+00
 ETOT 14  -58.251636057005     -7.105E-15 1.039E-16 0.000E+00
 ETOT 15  -58.251636057005      0.000E+00 5.899E-17 0.000E+00
 ETOT 16  -58.251636057005      0.000E+00 1.629E-18 0.000E+00
 ETOT 17  -58.251636057005      7.105E-15 9.300E-19 0.000E+00
 ETOT 18  -58.251636057005     -7.105E-15 2.572E-20 0.000E+00
 ETOT 19  -58.251636057005     -7.105E-15 1.472E-20 0.000E+00
 ETOT 20  -58.251636057005      0.000E+00 9.849E-21 0.000E+00

 At SCF step   20   max residual=  9.85E-21 < tolwfr=  1.00E-20 =>converged.

 ----iterations are completed or convergence reached----

 dfpt_looppert: DFPT cycle converged with prtwf=-1. Will skip output of the 1st-order WFK file.
 dfpt_looppert : ek2=    7.6042413661E+01
          f-sum rule ratio=    1.0168788395E+00
 prteigrs : about to open file /scratch/users/j/a/jabreu/flow_simple_8atoms/flow/w409/t1/tmpdata/tmp_1WF1_EIG
 Expectation of eigenvalue derivatives (hartree) for nkpt=   2  k points:
  (in case of degenerate eigenvalues, averaged derivative)
 kpt#   1, nband= 43, wtk=  0.50000, kpt=  0.5000  0.5000  0.0000 (reduced coord)
  -0.00000    0.00000   -0.00000    0.00000    0.00000    0.00000   -0.00000    0.00000
  -0.00000    0.00000   -0.00000    0.00000    0.00000    0.00000   -0.00000    0.00000
  -0.00000   -0.00000   -0.00000    0.00000    0.00000    0.00000    0.00000    0.00000
  -0.00000    0.00000    0.00000    0.00000    0.00000    0.00000    0.00000    0.00000
   0.00000   -0.00000   -0.00000    0.00000   -0.00000   -0.00000    0.00000   -0.00000
   0.01173    0.00487    0.00094
 prteigrs : prtvol=0 or 1, do not print more k-points.

 Eight components of 2nd-order total energy (hartree) are
 1,2,3: 0th-order hamiltonian combined with 1st-order wavefunctions
     kin0=   7.50109585E+01 eigvalue=   6.10046567E+00  local=  -3.58163679E+01
 4,5,6: 1st-order hamiltonian combined with 1st and 0th-order wfs
     kin1=  -7.73259214E+01  Hartree=   0.00000000E+00     xc=   0.00000000E+00
 7,8,9: eventually, occupation + non-local contributions
    edocc=   6.07749224E+00     enl0=   6.87908759E+00   enl1=  -3.91773508E+01
 1-9 gives the relaxation energy (to be shifted if some occ is /=2.0)
   erelax=  -5.82516361E+01
  No Ewald or frozen-wf contrib.: the relaxation energy is the total one
 2DEtotal=   -0.5825163606E+02 Ha. Also 2DEtotal=   -0.158510762922E+04 eV
    (  non-var. 2DEtotal :   -5.8251636057E+01 Ha)

 CALCULATION OF EFFECTIVE MASSES
 NOTE : Additional infos (eff. mass eigenvalues, eigenvectors and, if degenerate, average mass) are available in stdout.

 K-point ( 0.500, 0.500, 0.000) | band =    34
 Effective mass tensor:
             -3.0043639746              0.8191833016             -0.1758772371
              0.8191833016             -3.6320547807             -0.1205828525
             -0.1758772371             -0.1205828525             -3.8712497341
 Effective mass tensor eigenvalues:
             -4.1954555176             -3.9023653693             -2.4098476026
 Angular average effective mass 1/(<1/m>)=  -3.2982546462
 Angular average effective mass for Frohlich model (<m**0.5>)**2=  -3.3631352508
 Effective masses along directions: (cart. coord. / red. coord. -> eff. mass)
    1:   1.000000  0.000000  0.000000 /   0.941159  0.337965  0.000000 ->  -2.8089395395
    2:   0.000000  1.000000  0.000000 /   0.000000  1.000000  0.000000 ->  -3.4013355687
    3:   0.000000  0.000000  1.000000 /   0.439144  0.439144  0.783776 ->  -3.8526206210
    4:   0.577350  0.577350  0.577350 /   0.587436  0.689893  0.423045 ->  -2.9751684891
    5:   0.000000  0.707107  0.707107 /   0.318650  0.758299  0.568721 ->  -3.7886093976
    6:   0.707107  0.000000  0.707107 /   0.725442  0.448105  0.522432 ->  -3.4591233325
    7:   0.707107  0.707107  0.000000 /   0.611957  0.790891  0.000000 ->  -2.4635430265

 K-point ( 0.000, 0.000, 0.000) | band =    35
 Effective mass tensor:
              0.5058797725             -0.0079026622             -0.0217424222
             -0.0079026622              0.5119719883             -0.0148339860
             -0.0217424222             -0.0148339860              0.4761975537
 Effective mass tensor eigenvalues:
              0.4593459447              0.5172933480              0.5174100217
 Angular average effective mass 1/(<1/m>)=   0.4964544268
 Angular average effective mass for Frohlich model (<m**0.5>)**2=   0.4969321465
 Effective masses along directions: (cart. coord. / red. coord. -> eff. mass)
    1:   1.000000  0.000000  0.000000 /   0.941159  0.337965  0.000000 ->   0.5047431297
    2:   0.000000  1.000000  0.000000 /   0.000000  1.000000  0.000000 ->   0.5113640899
    3:   0.000000  0.000000  1.000000 /   0.439144  0.439144  0.783776 ->   0.4748132577
    4:   0.577350  0.577350  0.577350 /   0.587436  0.689893  0.423045 ->   0.4674956180
    5:   0.000000  0.707107  0.707107 /   0.318650  0.758299  0.568721 ->   0.4777244044
    6:   0.707107  0.000000  0.707107 /   0.725442  0.448105  0.522432 ->   0.4683528417
    7:   0.707107  0.707107  0.000000 /   0.611957  0.790891  0.000000 ->   0.4995972947

 END OF EFFECTIVE MASSES SECTION

 ---- first-order wavefunction calculations are completed ----

 Total localisation tensor (bohr^2) in cartesian coordinates
  WARNING : still subject to testing - especially symmetries.
      direction              matrix element
   alpha     beta       real part   imaginary part
     1        1       0.6922784881    0.0000000000
     1        2       0.2055053913    0.0000000000
     1        3       0.5637468211    0.0000000000
     2        1       0.2055053913    0.0000000000
     2        2       0.5341165732    0.0000000000
     2        3       0.3871190246    0.0000000000
     3        1       0.5637468211    0.0000000000
     3        2       0.3871190246    0.0000000000
     3        3       1.4666620829    0.0000000000

 respfn : d/dk was computed, but no 2DTE, so no DDB output.

== END DATASET(S) ==============================================================

 -outvars: echo values of variables after computation  --------
            acell      1.0000000000E+00  1.0000000000E+00  1.0000000000E+00 Bohr
              amu      1.14820000E+02  1.89984032E+01
             ecut      4.20000000E+01 Hartree
           etotal     -5.8251636057E+01
            fcart      0.0000000000E+00  0.0000000000E+00  0.0000000000E+00
                       0.0000000000E+00  0.0000000000E+00  0.0000000000E+00
                       0.0000000000E+00  0.0000000000E+00  0.0000000000E+00
                       0.0000000000E+00  0.0000000000E+00  0.0000000000E+00
                       0.0000000000E+00  0.0000000000E+00  0.0000000000E+00
                       0.0000000000E+00  0.0000000000E+00  0.0000000000E+00
                       0.0000000000E+00  0.0000000000E+00  0.0000000000E+00
                       0.0000000000E+00  0.0000000000E+00  0.0000000000E+00
-          fftalg         512
           irdden           1
           irdwfk           1
           istwfk        1    1
              ixc     -116133
              kpt      5.00000000E-01  5.00000000E-01  0.00000000E+00
                       0.00000000E+00  0.00000000E+00  0.00000000E+00
           kptopt           0
P           mkmem           2
P          mkqmem           2
P          mk1mem           2
            natom           8
            nband          43
           nbdbuf           4
            ngfft          64      64      64
             nkpt           2
            nstep        2000
             nsym          12
           ntypat           2
              occ      2.000000  2.000000  2.000000  2.000000  2.000000  2.000000
                       2.000000  2.000000  2.000000  2.000000  2.000000  2.000000
                       2.000000  2.000000  2.000000  2.000000  2.000000  2.000000
                       2.000000  2.000000  2.000000  2.000000  2.000000  2.000000
                       2.000000  2.000000  2.000000  2.000000  2.000000  2.000000
                       2.000000  2.000000  2.000000  2.000000  0.000000  0.000000
                       0.000000  0.000000  0.000000  0.000000  0.000000  0.000000
                       0.000000
        optdriver           1
            prtwf          -1
            rfdir           1       1       1
           rfelfd           2
            rprim      9.0032556028E+00  0.0000000000E+00  6.0901759045E+00
                       3.2330211201E+00  8.4027487102E+00  6.0901759045E+00
                       0.0000000000E+00  0.0000000000E+00  1.0869629892E+01
          spgroup         167
           strten      0.0000000000E+00  0.0000000000E+00  0.0000000000E+00
                       0.0000000000E+00  0.0000000000E+00  0.0000000000E+00
           symrel      1  0  0   0  1  0   0  0  1      -1  0  0   0 -1  0   0  0 -1
                       0  1  0   1  0  0   0  0  1       0 -1  0  -1  0  0   0  0 -1
                       0  0  1   1  0  0   0  1  0       0  0 -1  -1  0  0   0 -1  0
                       1  0  0   0  0  1   0  1  0      -1  0  0   0  0 -1   0 -1  0
                       0  1  0   0  0  1   1  0  0       0 -1  0   0  0 -1  -1  0  0
                       0  0  1   0  1  0   1  0  0       0  0 -1   0 -1  0  -1  0  0
            tnons      0.0000000  0.0000000  0.0000000    -0.0000000  0.0000000 -0.0000000
                       0.5000000  0.5000000  0.5000000     0.5000000  0.5000000  0.5000000
                      -0.0000000  0.0000000 -0.0000000     0.0000000 -0.0000000 -0.0000000
                       0.5000000  0.5000000  0.5000000     0.5000000  0.5000000  0.5000000
                       0.0000000  0.0000000 -0.0000000    -0.0000000  0.0000000 -0.0000000
                       0.5000000  0.5000000  0.5000000     0.5000000  0.5000000  0.5000000
           tolwfr      1.00000000E-20
            typat      1  1  2  2  2  2  2  2
           useylm           1
              wtk        0.50000    0.50000
           xangst      3.2375793799E+00  2.2232715535E+00  6.0987624874E+00
                       0.0000000000E+00  0.0000000000E+00  0.0000000000E+00
                       3.0682301269E+00  3.3349073302E+00  4.3454319290E+00
                       3.7876391458E+00  5.5723633562E-01  4.9761128433E+00
                       5.2370795828E+00  2.7805078891E+00  6.2721635287E+00
                       2.6875196139E+00  3.8893067713E+00  7.2214121314E+00
                       3.4069286328E+00  1.1116357767E+00  7.8520930458E+00
                       1.2380791769E+00  1.6660352179E+00  5.9253614461E+00
            xcart      6.1181383614E+00  4.2013743551E+00  1.1524990851E+01
                       0.0000000000E+00  0.0000000000E+00  0.0000000000E+00
                       5.7981146526E+00  6.3020615326E+00  8.2116762749E+00
                       7.1576006758E+00  1.0530240656E+00  9.4034904803E+00
                       9.8966461477E+00  5.2543984207E+00  1.1852671330E+01
                       5.0786760471E+00  7.3497246446E+00  1.3646491221E+01
                       6.4381620703E+00  2.1006871775E+00  1.4838305426E+01
                       2.3396305752E+00  3.1483502895E+00  1.1197310372E+01
             xred      5.0000000000E-01  5.0000000000E-01  5.0000000000E-01
                       0.0000000000E+00  0.0000000000E+00  0.0000000000E+00
                       3.7468100000E-01  7.5000000000E-01  1.2531900000E-01
                       7.5000000000E-01  1.2531900000E-01  3.7468100000E-01
                       8.7468100000E-01  6.2531900000E-01  2.5000000000E-01
                       2.5000000000E-01  8.7468100000E-01  6.2531900000E-01
                       6.2531900000E-01  2.5000000000E-01  8.7468100000E-01
                       1.2531900000E-01  3.7468100000E-01  7.5000000000E-01
            znucl       49.00000    9.00000

- Timing analysis has been suppressed with timopt=0

 Suggested references for the acknowledgment of ABINIT usage.

 Calculation completed.
.Delivered  14 WARNINGs and   9 COMMENTs to log file.