.Version 9.7.2 of ABINIT

 ABINIT is a project of the Universite Catholique de Louvain,
 Corning Inc. and other collaborators, see ~abinit/doc/developers/contributors.txt .
 acknowledgments of the ABINIT effort.

.Starting date : Wed  1 Dec 2021.
- ( at 21h16 )

- input  file    -> /scratch/users/j/a/jabreu/flow_simple_remain_atoms/flow/w161/t1/run.abi
- output file    -> /scratch/users/j/a/jabreu/flow_simple_remain_atoms/flow/w161/t1/run.abo
- root for input  files -> /scratch/users/j/a/jabreu/flow_simple_remain_atoms/flow/w161/t1/indata/in
- root for output files -> /scratch/users/j/a/jabreu/flow_simple_remain_atoms/flow/w161/t1/outdata/out

 Symmetries : space group Fd d 2 (# 43); Bravais oF (face-center ortho.)
     intxc =       0      iscf =       7    lmnmax =      18     lnmax =       6
     mgfft =      80  mpssoang =       3    mqgrid =    3001     natom =       8
  nloc_mem =       1    nspden =       1   nspinor =       1    nsppol =       1
      nsym =       4    n1xccc =    2501    ntypat =       3    occopt =       1
   xclevel =       2
-    mband =          45        mffmem =           1         mkmem =           2
-   mkqmem =           2        mk1mem =           2           mpw =       17378
      nfft =      512000          nkpt =           2
  Rough estimation (10% accuracy) of disk space for files :

------------- Echo of variables that govern the present computation ------------
-
- outvars: echo of selected default values
-   iomode0 =  0 , fftalg0 =512 , wfoptalg0 =  0
-
- outvars: echo of global parameters not present in the input file
-  max_nthreads =    0
-
 -outvars: echo values of preprocessed input variables --------
            acell      1.0000000000E+00  1.0000000000E+00  1.0000000000E+00 Bohr
              amu      2.29897680E+01  2.08980370E+02  3.20660000E+01
             ecut      4.40000000E+01 Hartree
-          fftalg         512
           irdden           1
           irdwfk           1
              ixc     -116133
              kpt      4.58333333E-01  0.00000000E+00  4.58333333E-01
                       3.91489747E-02  5.00000000E-01  5.39148975E-01
           kptopt           0
P           mkmem           2
P          mkqmem           2
P          mk1mem           2
            natom           8
            nband          45
           nbdbuf           4
            ngfft          80      80      80
             nkpt           2
            nstep        2000
             nsym           4
           ntypat           3
              occ      2.000000  2.000000  2.000000  2.000000  2.000000  2.000000
                       2.000000  2.000000  2.000000  2.000000  2.000000  2.000000
                       2.000000  2.000000  2.000000  2.000000  2.000000  2.000000
                       2.000000  2.000000  2.000000  2.000000  2.000000  2.000000
                       2.000000  2.000000  2.000000  2.000000  2.000000  2.000000
                       2.000000  2.000000  2.000000  2.000000  2.000000  2.000000
                       0.000000  0.000000  0.000000  0.000000  0.000000  0.000000
                       0.000000  0.000000  0.000000
        optdriver           1
            prtwf          -1
            rfdir           1       1       1
           rfelfd           2
            rprim      1.2206376606E+01  0.0000000000E+00  5.3288999987E+00
                       7.5575055912E+00  9.5853919489E+00  5.3243512053E+00
                       0.0000000000E+00  0.0000000000E+00  1.0653251206E+01
          spgroup          43
           symrel      1  0  0   0  1  0   0  0  1       0 -1  1   0 -1  0   1 -1  0
                       1  0  0   1  0 -1   1 -1  0       0 -1  1  -1  0  1   0  0  1
            tnons      0.0000000  0.0000000  0.0000000     0.0000000 -0.0000000 -0.0000000
                       0.2500000  0.2500000  0.2500000     0.2500000  0.2500000  0.2500000
           tolwfr      1.00000000E-20
            typat      1  1  2  2  3  3  3  3
           useylm           1
              wtk        0.50000    0.50000
           xangst      7.2292919536E+00  5.0716202439E+00  7.0470550891E+00
                       4.6146429506E+00  3.8035275052E+00  4.2283262217E+00
                       5.8628612098E+00  1.2298572064E+00  7.0899372495E+00
                       2.0181739136E+00  2.4979499451E+00  1.4512759554E+00
                       8.3676141189E+00  2.4952666609E+00  6.9933904333E+00
                       3.2961119107E+00  9.2276572409E-02  7.0443538315E+00
                       4.5006778901E+00  3.8092339225E+00  7.0431502724E+00
                       5.9330098463E+00  1.3144947882E+00  4.1746615658E+00
            xcart      1.3661381927E+01  9.5839733109E+00  1.3317004162E+01
                       8.7204113777E+00  7.1876253237E+00  7.9903785594E+00
                       1.1079202042E+01  2.3240933027E+00  1.3398039701E+01
                       3.8137959853E+00  4.7204412899E+00  2.7425140990E+00
                       1.5812499070E+01  4.7153706176E+00  1.3215592659E+01
                       6.2287488146E+00  1.7437745033E-01  1.3311899525E+01
                       8.5050486246E+00  7.1984088896E+00  1.3309625128E+01
                       1.1211763753E+01  2.4840351528E+00  7.8889670569E+00
             xred      5.0014800000E-01  9.9985200000E-01  5.0014800000E-01
                       2.5014800000E-01  7.4985200000E-01  2.5014800000E-01
                       7.5753800000E-01  2.4246200000E-01  7.5753800000E-01
                       7.5380000000E-03  4.9246200000E-01  7.5380000000E-03
                       9.9085200000E-01  4.9193300000E-01  4.9902300000E-01
                       4.9902300000E-01  1.8192000000E-02  9.9085200000E-01
                       2.3180800000E-01  7.5097700000E-01  7.5806700000E-01
                       7.5806700000E-01  2.5914800000E-01  2.3180800000E-01
            znucl       11.00000   83.00000   16.00000

 chkinp: Checking input parameters for consistency.

== DATASET  1 ==================================================================
-   mpi_nproc: 1, omp_nthreads: -1 (-1 if OMP is not activated)

--- !DatasetInfo
iteration_state: {dtset: 1, }
dimensions: {natom: 8, nkpt: 2, mband: 45, nsppol: 1, nspinor: 1, nspden: 1, mpw: 17378, }
cutoff_energies: {ecut:  44.0, pawecutdg:  -1.0, }
electrons: {nelect:   7.20000000E+01, charge:   0.00000000E+00, occopt:   1.00000000E+00, tsmear:   1.00000000E-02, }
meta: {optdriver: 1, rfelfd: 2, }
...

 Real(R)+Recip(G) space primitive vectors, cartesian coordinates (Bohr,Bohr^-1):
 R(1)= 12.2063766  0.0000000  5.3289000  G(1)=  0.0819244 -0.0645925  0.0000000
 R(2)=  7.5575056  9.5853919  5.3243512  G(2)=  0.0000000  0.1043254  0.0000000
 R(3)=  0.0000000  0.0000000 10.6532512  G(3)= -0.0409797 -0.0198304  0.0938681
 Unit cell volume ucvol=  1.2464613E+03 bohr^3
 Angles (23,13,12)=  6.64334473E+01  6.64155112E+01  4.71510414E+01 degrees

 getcut: wavevector=  0.0000  0.0000  0.0000  ngfft=  80  80  80
         ecut(hartree)=     44.000   => boxcut(ratio)=   2.01166

--- Pseudopotential description ------------------------------------------------
- pspini: atom type   1  psp file is /scratch/users/j/a/jabreu/pseudos/PBEsol/Na.psp8
- pspatm: opening atomic psp file    /scratch/users/j/a/jabreu/pseudos/PBEsol/Na.psp8
- Na    ONCVPSP-3.3.0  r_core=   1.20708   1.55069
- 11.00000   9.00000    180112                znucl, zion, pspdat
    8 -116133    1    4       400   0.00000   pspcod,pspxc,lmax,lloc,mmax,r2well
    3.99000000000000    0.00000000000000    0.00000000000000   rchrg,fchrg,qchrg
     nproj     2     2
     extension_switch     1
  pspatm : epsatm=    9.32878306
         --- l  ekb(1:nproj) -->
             0    2.657905   -0.678300
             1   -6.761319   -2.404728
 pspatm: atomic psp has been read  and splines computed

- pspini: atom type   2  psp file is /scratch/users/j/a/jabreu/pseudos/PBEsol/Bi.psp8
- pspatm: opening atomic psp file    /scratch/users/j/a/jabreu/pseudos/PBEsol/Bi.psp8
- Bi    ONCVPSP-3.3.0  r_core=   2.42776   2.51622   2.10397
- 83.00000  15.00000    180112                znucl, zion, pspdat
    8 -116133    2    4       600   0.00000   pspcod,pspxc,lmax,lloc,mmax,r2well
    5.99000000000000    6.00000000000000    0.00000000000000   rchrg,fchrg,qchrg
     nproj     2     2     2
     extension_switch     1
  pspatm : epsatm=   42.90078186
         --- l  ekb(1:nproj) -->
             0    6.017688    0.961606
             1    4.379371    0.528498
             2   -3.458170   -0.753782
 pspatm: atomic psp has been read  and splines computed

- pspini: atom type   3  psp file is /scratch/users/j/a/jabreu/pseudos/PBEsol/S.psp8
- pspatm: opening atomic psp file    /scratch/users/j/a/jabreu/pseudos/PBEsol/S.psp8
- S     ONCVPSP-3.3.0  r_core=   1.45376   1.45376   1.61851
- 16.00000   6.00000    180112                znucl, zion, pspdat
    8 -116133    2    4       600   0.00000   pspcod,pspxc,lmax,lloc,mmax,r2well
    5.99000000000000    6.00000000000000    0.00000000000000   rchrg,fchrg,qchrg
     nproj     2     2     2
     extension_switch     1
  pspatm : epsatm=    8.71840985
         --- l  ekb(1:nproj) -->
             0    6.834532    0.579453
             1    3.282851    0.896984
             2   -3.496974   -0.974265
 pspatm: atomic psp has been read  and splines computed

   1.00319594E+04                                ecore*ucvol(ha*bohr**3)

 ==>  initialize data related to q vector <==

 The list of irreducible perturbations for this q vector is:
    1)    idir= 1    ipert=   9
    2)    idir= 2    ipert=   9
    3)    idir= 3    ipert=   9

 Perturbation wavevector (in red.coord.)   0.000000  0.000000  0.000000
 Perturbation : derivative vs k along direction   1

 dfpt_looppert : COMMENT -
  In a d/dk calculation, iscf is set to -3 automatically.
 The set of symmetries contains only one element for this perturbation.
 symkpt : not enough symmetry to change the number of k points.

 Initialisation of the first-order wave-functions :
  ireadwf=   0

--- !BeginCycle
iteration_state: {dtset: 1, }
solver: {iscf: 7, nstep: 2000, nline: 4, wfoptalg: 0, }
tolerances: {tolwfr: 1.00E-20, }
...

     iter   2DEtotal(Ha)        deltaE(Ha) residm    vres2
-ETOT  1  -62.176814363819     -6.218E+01 1.635E-02 0.000E+00
 ETOT  2  -62.223606911621     -4.679E-02 3.208E-04 0.000E+00
 ETOT  3  -62.223801973635     -1.951E-04 2.621E-06 0.000E+00
 ETOT  4  -62.223803372638     -1.399E-06 6.773E-08 0.000E+00
 ETOT  5  -62.223803383868     -1.123E-08 6.770E-10 0.000E+00
 ETOT  6  -62.223803383963     -9.462E-11 2.540E-11 0.000E+00
 ETOT  7  -62.223803383964     -8.953E-13 2.430E-13 0.000E+00
 ETOT  8  -62.223803383964      7.105E-15 1.052E-14 0.000E+00
 ETOT  9  -62.223803383964     -2.132E-14 9.659E-17 0.000E+00
 ETOT 10  -62.223803383964      2.842E-14 4.384E-18 0.000E+00
 ETOT 11  -62.223803383964      0.000E+00 3.967E-20 0.000E+00
 ETOT 12  -62.223803383964      0.000E+00 9.976E-21 0.000E+00

 At SCF step   12   max residual=  9.98E-21 < tolwfr=  1.00E-20 =>converged.

 ----iterations are completed or convergence reached----

 dfpt_looppert: DFPT cycle converged with prtwf=-1. Will skip output of the 1st-order WFK file.
 dfpt_looppert : ek2=    6.1873185518E+01
          f-sum rule ratio=    1.4083628143E+00
 prteigrs : about to open file /scratch/users/j/a/jabreu/flow_simple_remain_atoms/flow/w161/t1/tmpdata/tmp_1WF1_EIG
 Expectation of eigenvalue derivatives (hartree) for nkpt=   2  k points:
  (in case of degenerate eigenvalues, averaged derivative)
 kpt#   1, nband= 45, wtk=  0.50000, kpt=  0.4583  0.0000  0.4583 (reduced coord)
   0.00001   -0.00001    0.00031   -0.00013    0.00028   -0.00028    0.00078   -0.00078
   0.00062    0.00071   -0.00056   -0.00061    0.00019   -0.00024   -0.00002   -0.00008
   0.00005   -0.00006    0.08971   -0.09271   -0.00380   -0.00677    0.07220   -0.09074
   0.09263   -0.09721   -0.01285   -0.01383    0.13464    0.00244    0.08852    0.00980
   0.03442    0.00485    0.10655   -0.03050   -0.05937    0.00270   -0.13101   -0.19871
   0.02941   -0.05098    0.02234   -0.05940    0.05560
 prteigrs : prtvol=0 or 1, do not print more k-points.

 Eight components of 2nd-order total energy (hartree) are
 1,2,3: 0th-order hamiltonian combined with 1st-order wavefunctions
     kin0=   5.49816253E+01 eigvalue=   6.03869727E+00  local=  -2.72119824E+01
 4,5,6: 1st-order hamiltonian combined with 1st and 0th-order wfs
     kin1=  -8.71398937E+01  Hartree=   0.00000000E+00     xc=   0.00000000E+00
 7,8,9: eventually, occupation + non-local contributions
    edocc=   2.35395575E+01     enl0=   4.87590566E+00   enl1=  -3.73077131E+01
 1-9 gives the relaxation energy (to be shifted if some occ is /=2.0)
   erelax=  -6.22238034E+01
  No Ewald or frozen-wf contrib.: the relaxation energy is the total one
 2DEtotal=   -0.6222380338E+02 Ha. Also 2DEtotal=   -0.169319579911E+04 eV
    (  non-var. 2DEtotal :   -6.2223803384E+01 Ha)

 Perturbation wavevector (in red.coord.)   0.000000  0.000000  0.000000
 Perturbation : derivative vs k along direction   2
 The set of symmetries contains only one element for this perturbation.
 symkpt : not enough symmetry to change the number of k points.

[...]

 Perturbation wavevector (in red.coord.)   0.000000  0.000000  0.000000
 Perturbation : derivative vs k along direction   3
 The set of symmetries contains only one element for this perturbation.
 symkpt : not enough symmetry to change the number of k points.

 Initialisation of the first-order wave-functions :
  ireadwf=   0

--- !BeginCycle
iteration_state: {dtset: 1, }
solver: {iscf: 7, nstep: 2000, nline: 4, wfoptalg: 0, }
tolerances: {tolwfr: 1.00E-20, }
...

     iter   2DEtotal(Ha)        deltaE(Ha) residm    vres2
-ETOT  1  -62.176485496189     -6.218E+01 2.031E-02 0.000E+00
 ETOT  2  -62.223273695023     -4.679E-02 3.703E-04 0.000E+00
 ETOT  3  -62.223467425462     -1.937E-04 4.170E-06 0.000E+00
 ETOT  4  -62.223468814596     -1.389E-06 6.820E-08 0.000E+00
 ETOT  5  -62.223468825759     -1.116E-08 1.095E-09 0.000E+00
 ETOT  6  -62.223468825854     -9.448E-11 2.531E-11 0.000E+00
 ETOT  7  -62.223468825855     -8.384E-13 3.510E-13 0.000E+00
 ETOT  8  -62.223468825855     -5.684E-14 1.047E-14 0.000E+00
 ETOT  9  -62.223468825855     -3.553E-14 1.337E-16 0.000E+00
 ETOT 10  -62.223468825855      3.553E-14 4.366E-18 0.000E+00
 ETOT 11  -62.223468825855     -1.421E-14 5.749E-20 0.000E+00
 ETOT 12  -62.223468825855      0.000E+00 9.999E-21 0.000E+00

 At SCF step   12   max residual=  1.00E-20 < tolwfr=  1.00E-20 =>converged.

 ----iterations are completed or convergence reached----

 dfpt_looppert: DFPT cycle converged with prtwf=-1. Will skip output of the 1st-order WFK file.
 dfpt_looppert : ek2=    6.1873185555E+01
          f-sum rule ratio=    1.4083449641E+00
 prteigrs : about to open file /scratch/users/j/a/jabreu/flow_simple_remain_atoms/flow/w161/t1/tmpdata/tmp_1WF1_EIG
 Expectation of eigenvalue derivatives (hartree) for nkpt=   2  k points:
  (in case of degenerate eigenvalues, averaged derivative)
 kpt#   1, nband= 45, wtk=  0.50000, kpt=  0.4583  0.0000  0.4583 (reduced coord)
   0.00001   -0.00001    0.00031   -0.00013    0.00028   -0.00028    0.00078   -0.00078
   0.00062    0.00071   -0.00056   -0.00061    0.00019   -0.00024   -0.00002   -0.00008
   0.00005   -0.00006    0.08971   -0.09271   -0.00380   -0.00677    0.07220   -0.09074
   0.09263   -0.09721   -0.01285   -0.01383    0.13464    0.00244    0.08852    0.00980
   0.03442    0.00485    0.10655   -0.03050   -0.05937    0.00270   -0.13101   -0.19871
   0.02941   -0.05098    0.02254   -0.05714    0.05548
 prteigrs : prtvol=0 or 1, do not print more k-points.

 Eight components of 2nd-order total energy (hartree) are
 1,2,3: 0th-order hamiltonian combined with 1st-order wavefunctions
     kin0=   5.47591845E+01 eigvalue=   6.08216055E+00  local=  -2.71336209E+01
 4,5,6: 1st-order hamiltonian combined with 1st and 0th-order wfs
     kin1=  -8.71387893E+01  Hartree=   0.00000000E+00     xc=   0.00000000E+00
 7,8,9: eventually, occupation + non-local contributions
    edocc=   2.36134935E+01     enl0=   4.90225123E+00   enl1=  -3.73081484E+01
 1-9 gives the relaxation energy (to be shifted if some occ is /=2.0)
   erelax=  -6.22234688E+01
  No Ewald or frozen-wf contrib.: the relaxation energy is the total one
 2DEtotal=   -0.6222346883E+02 Ha. Also 2DEtotal=   -0.169318669532E+04 eV
    (  non-var. 2DEtotal :   -6.2223468826E+01 Ha)

 CALCULATION OF EFFECTIVE MASSES
 NOTE : Additional infos (eff. mass eigenvalues, eigenvectors and, if degenerate, average mass) are available in stdout.

--- !WARNING
src_file: m_efmas.F90
src_line: 0
message: |
    Effective masses calculations require given k-point(s) to be band extrema for given bands, but max abs gradient of band(s) was found to be greater than 1e-5. Abinit will continue anyway.
...

[...]

--- !WARNING
src_file: m_efmas.F90
src_line: 0
message: |
    Effective masses calculations require given k-point(s) to be band extrema for given bands, but max abs gradient of band(s) was found to be greater than 1e-5. Abinit will continue anyway.
...

 K-point ( 0.458, 0.000, 0.458) | band =    36
 Effective mass tensor:
             -1.1558844792             -0.5098327907              0.0065480135
             -0.5098327907             -0.3519600458             -0.0135093300
              0.0065480135             -0.0135093300             -0.1046837785
 Effective mass tensor eigenvalues:
             -1.4031549620             -0.1196992812             -0.0896740603
 Angular average effective mass 1/(<1/m>)=  -0.1483793595
 Angular average effective mass for Frohlich model (<m**0.5>)**2=  -0.1872419353
 Effective masses along directions: (cart. coord. / red. coord. -> eff. mass)
    1:   1.000000  0.000000  0.000000 /   0.850228  0.526414  0.000000 ->  -0.4108164214
    2:   0.000000  1.000000  0.000000 /   0.000000  1.000000  0.000000 ->  -0.1245156982
    3:   0.000000  0.000000  1.000000 /   0.408423  0.408074  0.816497 ->  -0.1025309520
    4:   0.577350  0.577350  0.577350 /   0.576321  0.738417  0.350134 ->  -0.2537363563
    5:   0.000000  0.707107  0.707107 /   0.279238  0.781280  0.558237 ->  -0.1309979548
    6:   0.707107  0.000000  0.707107 /   0.723808  0.531727  0.439737 ->  -0.1491651732
    7:   0.707107  0.707107  0.000000 /   0.580025  0.814599  0.000000 ->  -0.5941114132

 COMMENTS:
 - At k-point ( 0.039, 0.500, 0.539), bands    37 through    38
   are DEGENERATE (effective mass tensor is therefore not defined).
   See Section IIIB Eqs. (67)-(70) and Appendix E of PRB 93 205147 (2016).
 - Angular average effective mass for Frohlich model is to be averaged over degenerate bands. See later.
 - Associated theta integrals calculated with ntheta=   1000 points.

 K-point ( 0.039, 0.500, 0.539) | band =    37
 Transport equivalent effective mass tensor:
              8.0435301133              3.5060626726              0.0342043981
              3.5060626726              2.5149639684             -0.0703708649
              0.0342043981             -0.0703708649              0.8145915314
 Transport equivalent effective mass tensor eigenvalues:
              9.7439683505              0.8928018166              0.7363154459
 Angular average effective mass 1/(<1/m>)=   0.3363737861
 Angular average effective mass for Frohlich model (<m**0.5>)**2=   0.4755091446
 Effective masses along directions: (cart. coord. / red. coord. -> eff. mass)
    1:   1.000000  0.000000  0.000000 /   0.850228  0.526414  0.000000 ->   1.3197687066
    2:   0.000000  1.000000  0.000000 /   0.000000  1.000000  0.000000 ->   0.7647730293
    3:   0.000000  0.000000  1.000000 /   0.408423  0.408074  0.816497 ->   0.6775334305
    4:   0.577350  0.577350  0.577350 /   0.576321  0.738417  0.350134 ->   0.4304607834
    5:   0.000000  0.707107  0.707107 /   0.279238  0.781280  0.558237 ->   0.1203935140
    6:   0.707107  0.000000  0.707107 /   0.723808  0.531727  0.439737 ->   0.4780375130
    7:   0.707107  0.707107  0.000000 /   0.580025  0.814599  0.000000 ->   1.4619550097

 K-point ( 0.039, 0.500, 0.539) | band =    38
 Transport equivalent effective mass tensor:
              1.6878518060              0.7763654488              0.0027917720
              0.7763654488              0.4636159012             -0.0057603193
              0.0027917720             -0.0057603193              0.0870902841
 Transport equivalent effective mass tensor eigenvalues:
              2.0643853077              0.0934875355              0.0806851480
 Angular average effective mass 1/(<1/m>)=   0.1071939290
 Angular average effective mass for Frohlich model (<m**0.5>)**2=   0.1430814379
 Effective masses along directions: (cart. coord. / red. coord. -> eff. mass)
    1:   1.000000  0.000000  0.000000 /   0.850228  0.526414  0.000000 ->   0.2756661562
    2:   0.000000  1.000000  0.000000 /   0.000000  1.000000  0.000000 ->   0.0747922442
    3:   0.000000  0.000000  1.000000 /   0.408423  0.408074  0.816497 ->   0.0611017816
    4:   0.577350  0.577350  0.577350 /   0.576321  0.738417  0.350134 ->   0.1602436915
    5:   0.000000  0.707107  0.707107 /   0.279238  0.781280  0.558237 ->   0.1026639708
    6:   0.707107  0.000000  0.707107 /   0.723808  0.531727  0.439737 ->   0.1226207835
    7:   0.707107  0.707107  0.000000 /   0.580025  0.814599  0.000000 ->   0.4309789696

 Angular average effective mass for Frohlich model, averaged over degenerate bands.
 Value of     (<<m**0.5>>)**2 =     2.850667E-01
 Absolute Value of <<m**0.5>> =     5.339164E-01

 END OF EFFECTIVE MASSES SECTION

 ---- first-order wavefunction calculations are completed ----

 Total localisation tensor (bohr^2) in cartesian coordinates
  WARNING : still subject to testing - especially symmetries.
      direction              matrix element
   alpha     beta       real part   imaginary part
     1        1      12.5535496614    0.0000000000
     1        2       4.4121764891    0.0000000000
     1        3       6.4125735395    0.0000000000
     2        1       4.4121764891    0.0000000000
     2        2       5.5960846453    0.0000000000
     2        3       3.1084300136    0.0000000000
     3        1       6.4125735395    0.0000000000
     3        2       3.1084300136    0.0000000000
     3        3      10.3685398249    0.0000000000

 respfn : d/dk was computed, but no 2DTE, so no DDB output.

== END DATASET(S) ==============================================================

 -outvars: echo values of variables after computation  --------
            acell      1.0000000000E+00  1.0000000000E+00  1.0000000000E+00 Bohr
              amu      2.29897680E+01  2.08980370E+02  3.20660000E+01
             ecut      4.40000000E+01 Hartree
           etotal     -6.2223468826E+01
            fcart      0.0000000000E+00  0.0000000000E+00  0.0000000000E+00
                       0.0000000000E+00  0.0000000000E+00  0.0000000000E+00
                       0.0000000000E+00  0.0000000000E+00  0.0000000000E+00
                       0.0000000000E+00  0.0000000000E+00  0.0000000000E+00
                       0.0000000000E+00  0.0000000000E+00  0.0000000000E+00
                       0.0000000000E+00  0.0000000000E+00  0.0000000000E+00
                       0.0000000000E+00  0.0000000000E+00  0.0000000000E+00
                       0.0000000000E+00  0.0000000000E+00  0.0000000000E+00
-          fftalg         512
           irdden           1
           irdwfk           1
              ixc     -116133
              kpt      4.58333333E-01  0.00000000E+00  4.58333333E-01
                       3.91489747E-02  5.00000000E-01  5.39148975E-01
           kptopt           0
P           mkmem           2
P          mkqmem           2
P          mk1mem           2
            natom           8
            nband          45
           nbdbuf           4
            ngfft          80      80      80
             nkpt           2
            nstep        2000
             nsym           4
           ntypat           3
              occ      2.000000  2.000000  2.000000  2.000000  2.000000  2.000000
                       2.000000  2.000000  2.000000  2.000000  2.000000  2.000000
                       2.000000  2.000000  2.000000  2.000000  2.000000  2.000000
                       2.000000  2.000000  2.000000  2.000000  2.000000  2.000000
                       2.000000  2.000000  2.000000  2.000000  2.000000  2.000000
                       2.000000  2.000000  2.000000  2.000000  2.000000  2.000000
                       0.000000  0.000000  0.000000  0.000000  0.000000  0.000000
                       0.000000  0.000000  0.000000
        optdriver           1
            prtwf          -1
            rfdir           1       1       1
           rfelfd           2
            rprim      1.2206376606E+01  0.0000000000E+00  5.3288999987E+00
                       7.5575055912E+00  9.5853919489E+00  5.3243512053E+00
                       0.0000000000E+00  0.0000000000E+00  1.0653251206E+01
          spgroup          43
           strten      0.0000000000E+00  0.0000000000E+00  0.0000000000E+00
                       0.0000000000E+00  0.0000000000E+00  0.0000000000E+00
           symrel      1  0  0   0  1  0   0  0  1       0 -1  1   0 -1  0   1 -1  0
                       1  0  0   1  0 -1   1 -1  0       0 -1  1  -1  0  1   0  0  1
            tnons      0.0000000  0.0000000  0.0000000     0.0000000 -0.0000000 -0.0000000
                       0.2500000  0.2500000  0.2500000     0.2500000  0.2500000  0.2500000
           tolwfr      1.00000000E-20
            typat      1  1  2  2  3  3  3  3
           useylm           1
              wtk        0.50000    0.50000
           xangst      7.2292919536E+00  5.0716202439E+00  7.0470550891E+00
                       4.6146429506E+00  3.8035275052E+00  4.2283262217E+00
                       5.8628612098E+00  1.2298572064E+00  7.0899372495E+00
                       2.0181739136E+00  2.4979499451E+00  1.4512759554E+00
                       8.3676141189E+00  2.4952666609E+00  6.9933904333E+00
                       3.2961119107E+00  9.2276572409E-02  7.0443538315E+00
                       4.5006778901E+00  3.8092339225E+00  7.0431502724E+00
                       5.9330098463E+00  1.3144947882E+00  4.1746615658E+00
            xcart      1.3661381927E+01  9.5839733109E+00  1.3317004162E+01
                       8.7204113777E+00  7.1876253237E+00  7.9903785594E+00
                       1.1079202042E+01  2.3240933027E+00  1.3398039701E+01
                       3.8137959853E+00  4.7204412899E+00  2.7425140990E+00
                       1.5812499070E+01  4.7153706176E+00  1.3215592659E+01
                       6.2287488146E+00  1.7437745033E-01  1.3311899525E+01
                       8.5050486246E+00  7.1984088896E+00  1.3309625128E+01
                       1.1211763753E+01  2.4840351528E+00  7.8889670569E+00
             xred      5.0014800000E-01  9.9985200000E-01  5.0014800000E-01
                       2.5014800000E-01  7.4985200000E-01  2.5014800000E-01
                       7.5753800000E-01  2.4246200000E-01  7.5753800000E-01
                       7.5380000000E-03  4.9246200000E-01  7.5380000000E-03
                       9.9085200000E-01  4.9193300000E-01  4.9902300000E-01
                       4.9902300000E-01  1.8192000000E-02  9.9085200000E-01
                       2.3180800000E-01  7.5097700000E-01  7.5806700000E-01
                       7.5806700000E-01  2.5914800000E-01  2.3180800000E-01
            znucl       11.00000   83.00000   16.00000

- Timing analysis has been suppressed with timopt=0

 Suggested references for the acknowledgment of ABINIT usage.

 Calculation completed.
.Delivered   8 WARNINGs and   5 COMMENTs to log file.