.Version 9.5.2 of ABINIT

 ABINIT is a project of the Universite Catholique de Louvain,
 Corning Inc. and other collaborators, see ~abinit/doc/developers/contributors.txt .
 acknowledgments of the ABINIT effort.

.Starting date : Mon 24 May 2021.
- ( at 11h28 )

- input  file    -> /scratch/users/j/a/jabreu/flow_simple_10atoms/flow/w331/t1/run.abi
- output file    -> /scratch/users/j/a/jabreu/flow_simple_10atoms/flow/w331/t1/run.abo
- root for input  files -> /scratch/users/j/a/jabreu/flow_simple_10atoms/flow/w331/t1/indata/in
- root for output files -> /scratch/users/j/a/jabreu/flow_simple_10atoms/flow/w331/t1/outdata/out

 Symmetries : space group Fm -3 m (#225); Bravais cF (face-center cubic)
     intxc =       0      iscf =       7    lmnmax =      18     lnmax =       6
     mgfft =      72  mpssoang =       3    mqgrid =    3001     natom =      10
  nloc_mem =       1    nspden =       1   nspinor =       1    nsppol =       1
      nsym =      48    n1xccc =    2501    ntypat =       4    occopt =       1
   xclevel =       2
-    mband =          49        mffmem =           1         mkmem =           1
-   mkqmem =           1        mk1mem =           1           mpw =       14211
      nfft =      373248          nkpt =           1
  Rough estimation (10% accuracy) of disk space for files :

------------- Echo of variables that govern the present computation ------------
-
- outvars: echo of selected default values
-   iomode0 =  0 , fftalg0 =512 , wfoptalg0 =  0
-
- outvars: echo of global parameters not present in the input file
-  max_nthreads =    0
-
 -outvars: echo values of preprocessed input variables --------
            acell      1.0000000000E+00  1.0000000000E+00  1.0000000000E+00 Bohr
              amu      3.90983000E+01  2.29897680E+01  4.49559100E+01
                       1.89984032E+01
             ecut      4.40000000E+01 Hartree
-          fftalg         512
           irdden           1
           irdwfk           1
           istwfk        1
              ixc     -116133
           kptopt           0
P           mkmem           1
P          mkqmem           1
P          mk1mem           1
            natom          10
            nband          49
           nbdbuf           4
            ngfft          72      72      72
             nkpt           1
            nstep        2000
             nsym          48
           ntypat           4
              occ      2.000000  2.000000  2.000000  2.000000  2.000000  2.000000
                       2.000000  2.000000  2.000000  2.000000  2.000000  2.000000
                       2.000000  2.000000  2.000000  2.000000  2.000000  2.000000
                       2.000000  2.000000  2.000000  2.000000  2.000000  2.000000
                       2.000000  2.000000  2.000000  2.000000  2.000000  2.000000
                       2.000000  2.000000  2.000000  2.000000  2.000000  2.000000
                       2.000000  2.000000  2.000000  2.000000  0.000000  0.000000
                       0.000000  0.000000  0.000000  0.000000  0.000000  0.000000
                       0.000000
        optdriver           1
            prtwf          -1
            rfdir           1       1       1
           rfelfd           2
            rprim      9.7829064701E+00  0.0000000000E+00  5.6481636840E+00
                       3.2609688234E+00  9.2234126729E+00  5.6481636840E+00
                       0.0000000000E+00  0.0000000000E+00  1.1296327368E+01
          spgroup         225
           symrel      1  0  0   0  1  0   0  0  1      -1  0  0   0 -1  0   0  0 -1
                       0 -1  1   0 -1  0   1 -1  0       0  1 -1   0  1  0  -1  1  0
                      -1  0  0  -1  0  1  -1  1  0       1  0  0   1  0 -1   1 -1  0
                       0  1 -1   1  0 -1   0  0 -1       0 -1  1  -1  0  1   0  0  1
                      -1  0  0  -1  1  0  -1  0  1       1  0  0   1 -1  0   1  0 -1
                       0 -1  1   1 -1  0   0 -1  0       0  1 -1  -1  1  0   0  1  0
                       1  0  0   0  0  1   0  1  0      -1  0  0   0  0 -1   0 -1  0
                       0  1 -1   0  0 -1   1  0 -1       0 -1  1   0  0  1  -1  0  1
                      -1  0  1  -1  1  0  -1  0  0       1  0 -1   1 -1  0   1  0  0
                       0 -1  0   1 -1  0   0 -1  1       0  1  0  -1  1  0   0  1 -1
                       1  0 -1   0  0 -1   0  1 -1      -1  0  1   0  0  1   0 -1  1
                       0  1  0   0  0  1   1  0  0       0 -1  0   0  0 -1  -1  0  0
                       1  0 -1   0  1 -1   0  0 -1      -1  0  1   0 -1  1   0  0  1
                       0 -1  0   0 -1  1   1 -1  0       0  1  0   0  1 -1  -1  1  0
                      -1  0  1  -1  0  0  -1  1  0       1  0 -1   1  0  0   1 -1  0
                       0  1  0   1  0  0   0  0  1       0 -1  0  -1  0  0   0  0 -1
                       0  0 -1   0  1 -1   1  0 -1       0  0  1   0 -1  1  -1  0  1
                       1 -1  0   0 -1  1   0 -1  0      -1  1  0   0  1 -1   0  1  0
                       0  0  1   1  0  0   0  1  0       0  0 -1  -1  0  0   0 -1  0
                      -1  1  0  -1  0  0  -1  0  1       1 -1  0   1  0  0   1  0 -1
                       0  0  1   0  1  0   1  0  0       0  0 -1   0 -1  0  -1  0  0
                       1 -1  0   0 -1  0   0 -1  1      -1  1  0   0  1  0   0  1 -1
                       0  0 -1   1  0 -1   0  1 -1       0  0  1  -1  0  1   0 -1  1
                      -1  1  0  -1  0  1  -1  0  0       1 -1  0   1  0 -1   1  0  0
           tolwfr      1.00000000E-20
            typat      1  1  2  3  4  4  4  4  4  4
           useylm           1
           xangst      5.1768911378E+00  3.6606148289E+00  8.9666384758E+00
                       1.7256303793E+00  1.2202049430E+00  2.9888794919E+00
                       0.0000000000E+00  0.0000000000E+00  0.0000000000E+00
                       3.4512607585E+00  2.4404098860E+00  5.9777589839E+00
                       4.2679636531E+00  1.2854175760E+00  7.3923298921E+00
                       5.0846665478E+00  3.5954021960E+00  5.9777589839E+00
                       1.8178549692E+00  1.2854175760E+00  5.9777589839E+00
                       4.2679636531E+00  1.2854175760E+00  4.5631880757E+00
                       2.6345578639E+00  3.5954021960E+00  4.5631880757E+00
                       2.6345578639E+00  3.5954021960E+00  7.3923298921E+00
            xcart      9.7829064701E+00  6.9175595047E+00  1.6944491052E+01
                       3.2609688234E+00  2.3058531682E+00  5.6481636840E+00
                       0.0000000000E+00  0.0000000000E+00  0.0000000000E+00
                       6.5219376468E+00  4.6117063365E+00  1.1296327368E+01
                       8.0652824495E+00  2.4290871849E+00  1.3969478980E+01
                       9.6086272523E+00  6.7943254880E+00  1.1296327368E+01
                       3.4352480412E+00  2.4290871849E+00  1.1296327368E+01
                       8.0652824495E+00  2.4290871849E+00  8.6231757559E+00
                       4.9785928440E+00  6.7943254880E+00  8.6231757559E+00
                       4.9785928440E+00  6.7943254880E+00  1.3969478980E+01
             xred      7.5000000000E-01  7.5000000000E-01  7.5000000000E-01
                       2.5000000000E-01  2.5000000000E-01  2.5000000000E-01
                       0.0000000000E+00  0.0000000000E+00  0.0000000000E+00
                       5.0000000000E-01  5.0000000000E-01  5.0000000000E-01
                       7.3663900000E-01  2.6336100000E-01  7.3663900000E-01
                       7.3663900000E-01  7.3663900000E-01  2.6336100000E-01
                       2.6336100000E-01  2.6336100000E-01  7.3663900000E-01
                       7.3663900000E-01  2.6336100000E-01  2.6336100000E-01
                       2.6336100000E-01  7.3663900000E-01  2.6336100000E-01
                       2.6336100000E-01  7.3663900000E-01  7.3663900000E-01
            znucl       19.00000   11.00000   21.00000    9.00000

 chkinp: Checking input parameters for consistency.

== DATASET  1 ==================================================================
-   mpi_nproc: 1, omp_nthreads: -1 (-1 if OMP is not activated)

--- !DatasetInfo
iteration_state: {dtset: 1, }
dimensions: {natom: 10, nkpt: 1, mband: 49, nsppol: 1, nspinor: 1, nspden: 1, mpw: 14211, }
cutoff_energies: {ecut:  44.0, pawecutdg:  -1.0, }
electrons: {nelect:   8.00000000E+01, charge:   0.00000000E+00, occopt:   1.00000000E+00, tsmear:   1.00000000E-02, }
meta: {optdriver: 1, rfelfd: 2, }
...

 Real(R)+Recip(G) space primitive vectors, cartesian coordinates (Bohr,Bohr^-1):
 R(1)=  9.7829065  0.0000000  5.6481637  G(1)=  0.1022191 -0.0361399  0.0000000
 R(2)=  3.2609688  9.2234127  5.6481637  G(2)=  0.0000000  0.1084197  0.0000000
 R(3)=  0.0000000  0.0000000 11.2963274  G(3)= -0.0511096 -0.0361399  0.0885243
 Unit cell volume ucvol=  1.0192878E+03 bohr^3
 Angles (23,13,12)=  6.00000000E+01  6.00000000E+01  6.00000000E+01 degrees

 getcut: wavevector=  0.0000  0.0000  0.0000  ngfft=  72  72  72
         ecut(hartree)=     44.000   => boxcut(ratio)=   2.13454

--- Pseudopotential description ------------------------------------------------
- pspini: atom type   1  psp file is /scratch/users/j/a/jabreu/pseudos/PBEsol/K.psp8
- pspatm: opening atomic psp file    /scratch/users/j/a/jabreu/pseudos/PBEsol/K.psp8
- K     ONCVPSP-3.3.0  r_core=   1.36296   1.46408   1.61068
- 19.00000   9.00000    180112                znucl, zion, pspdat
    8 -116133    2    4       400   0.00000   pspcod,pspxc,lmax,lloc,mmax,r2well
    3.99000000000000    5.00000000000000    0.00000000000000   rchrg,fchrg,qchrg
     nproj     2     2     2
     extension_switch     1
  pspatm : epsatm=    8.32487830
         --- l  ekb(1:nproj) -->
             0   10.921326    0.816676
             1    4.431000    0.560368
             2   -3.384038   -1.043186
 pspatm: atomic psp has been read  and splines computed

- pspini: atom type   2  psp file is /scratch/users/j/a/jabreu/pseudos/PBEsol/Na.psp8
- pspatm: opening atomic psp file    /scratch/users/j/a/jabreu/pseudos/PBEsol/Na.psp8
- Na    ONCVPSP-3.3.0  r_core=   1.20708   1.55069
- 11.00000   9.00000    180112                znucl, zion, pspdat
    8 -116133    1    4       400   0.00000   pspcod,pspxc,lmax,lloc,mmax,r2well
    3.99000000000000    0.00000000000000    0.00000000000000   rchrg,fchrg,qchrg
     nproj     2     2
     extension_switch     1
  pspatm : epsatm=    9.32878306
         --- l  ekb(1:nproj) -->
             0    2.657905   -0.678300
             1   -6.761319   -2.404728
 pspatm: atomic psp has been read  and splines computed

[...]

- pspini: atom type   4  psp file is /scratch/users/j/a/jabreu/pseudos/PBEsol/F.psp8
- pspatm: opening atomic psp file    /scratch/users/j/a/jabreu/pseudos/PBEsol/F.psp8
- F     ONCVPSP-3.3.0  r_core=   1.30942   1.45782   1.60379
-  9.00000   7.00000    180112                znucl, zion, pspdat
    8 -116133    2    4       600   0.00000   pspcod,pspxc,lmax,lloc,mmax,r2well
    5.99000000000000    2.50000000000000    0.00000000000000   rchrg,fchrg,qchrg
     nproj     2     2     1
     extension_switch     1
[...]
 ETOT 21  -39.055844496189      1.421E-14 3.443E-11 0.000E+00
 ETOT 22  -39.055844496189     -7.105E-15 3.144E-11 0.000E+00
 ETOT 23  -39.055844496189      0.000E+00 6.180E-12 0.000E+00
 ETOT 24  -39.055844496189      0.000E+00 5.689E-12 0.000E+00
 ETOT 25  -39.055844496189     -7.105E-15 1.114E-12 0.000E+00
 ETOT 26  -39.055844496189      7.105E-15 1.032E-12 0.000E+00
 ETOT 27  -39.055844496189      0.000E+00 2.018E-13 0.000E+00
 ETOT 28  -39.055844496189      0.000E+00 1.875E-13 0.000E+00
 ETOT 29  -39.055844496189     -7.105E-15 3.667E-14 0.000E+00
 ETOT 30  -39.055844496189      7.105E-15 3.413E-14 0.000E+00
 ETOT 31  -39.055844496189      0.000E+00 6.682E-15 0.000E+00
 ETOT 32  -39.055844496189      0.000E+00 6.218E-15 0.000E+00
 ETOT 33  -39.055844496189      0.000E+00 1.220E-15 0.000E+00
 ETOT 34  -39.055844496189     -2.842E-14 1.134E-15 0.000E+00
 ETOT 35  -39.055844496189      2.842E-14 2.232E-16 0.000E+00
 ETOT 36  -39.055844496189     -2.842E-14 2.070E-16 0.000E+00
 ETOT 37  -39.055844496189      2.842E-14 4.087E-17 0.000E+00
 ETOT 38  -39.055844496189      0.000E+00 3.781E-17 0.000E+00
 ETOT 39  -39.055844496189      0.000E+00 7.491E-18 0.000E+00
 ETOT 40  -39.055844496189      7.105E-15 6.911E-18 0.000E+00
 ETOT 41  -39.055844496189     -1.421E-14 1.374E-18 0.000E+00
 ETOT 42  -39.055844496189      7.105E-15 1.264E-18 0.000E+00
 ETOT 43  -39.055844496189     -1.421E-14 2.520E-19 0.000E+00
 ETOT 44  -39.055844496189      0.000E+00 2.312E-19 0.000E+00
 ETOT 45  -39.055844496189     -1.421E-14 4.625E-20 0.000E+00
 ETOT 46  -39.055844496189      2.842E-14 4.230E-20 0.000E+00
 ETOT 47  -39.055844496189      0.000E+00 9.923E-21 0.000E+00

 At SCF step   47   max residual=  9.92E-21 < tolwfr=  1.00E-20 =>converged.

 ----iterations are completed or convergence reached----

 dfpt_looppert: DFPT cycle converged with prtwf=-1. Will skip output of the 1st-order WFK file.
 dfpt_looppert : ek2=    7.4249996739E+01
          f-sum rule ratio=    1.0460729604E+00
 prteigrs : about to open file /scratch/users/j/a/jabreu/flow_simple_10atoms/flow/w331/t1/tmpdata/tmp_1WF1_EIG
 Expectation of eigenvalue derivatives (hartree) for nkpt=   1  k points:
  (in case of degenerate eigenvalues, averaged derivative)
 kpt#   1, nband= 49, wtk=  1.00000, kpt=  0.0000  0.0000  0.0000 (reduced coord)
   0.00000   -0.00000    0.00000    0.00000   -0.00000   -0.00000   -0.00000   -0.00000
  -0.00000   -0.00000   -0.00000   -0.00000   -0.00000   -0.00000   -0.00000   -0.00000
  -0.00000   -0.00000   -0.00000   -0.00000   -0.00000   -0.00000    0.00000   -0.00000
  -0.00000   -0.00000   -0.00000   -0.00000    0.00000    0.00000    0.00000    0.00000
   0.00000    0.00000   -0.00000   -0.00000   -0.00000   -0.00000   -0.00000   -0.00000
  -0.00000    0.00000    0.00000    0.00000   -0.00000   -0.00000    0.00048   -0.00183
  -0.00000

 Eight components of 2nd-order total energy (hartree) are
 1,2,3: 0th-order hamiltonian combined with 1st-order wavefunctions
     kin0=   5.22092994E+01 eigvalue=   4.09507209E+00  local=  -2.36018141E+01
 4,5,6: 1st-order hamiltonian combined with 1st and 0th-order wfs
     kin1=  -7.76709139E+01  Hartree=   0.00000000E+00     xc=   0.00000000E+00
 7,8,9: eventually, occupation + non-local contributions
    edocc=   6.19990577E+00     enl0=   1.53381390E-01   enl1=  -4.40775092E-01
 1-9 gives the relaxation energy (to be shifted if some occ is /=2.0)
   erelax=  -3.90558445E+01
  No Ewald or frozen-wf contrib.: the relaxation energy is the total one
 2DEtotal=   -0.3905584450E+02 Ha. Also 2DEtotal=   -0.106276357656E+04 eV
    (  non-var. 2DEtotal :   -3.9055844496E+01 Ha)

 CALCULATION OF EFFECTIVE MASSES
 NOTE : Additional infos (eff. mass eigenvalues, eigenvectors and, if degenerate, average mass) are available in stdout.

 COMMENTS:
 - At k-point ( 0.000, 0.000, 0.000), bands    38 through    40
   are DEGENERATE (effective mass tensor is therefore not defined).
   See Section IIIB Eqs. (67)-(70) and Appendix E of PRB 93 205147 (2016).
 - Angular average effective mass for Frohlich model is to be averaged over degenerate bands. See later.
 - Associated theta integrals calculated with ntheta=   1000 points.

 K-point ( 0.000, 0.000, 0.000) | band =    38
 Transport equivalent effective mass tensor:
             -2.7709211392              0.0002208970              0.0012593058
              0.0002208970             -2.7714836410              0.0001050405
              0.0012593058              0.0001050405             -2.7712577563
 Transport equivalent effective mass tensor eigenvalues:
             -2.7723650864             -2.7715111859             -2.7697862643
 Angular average effective mass 1/(<1/m>)=  -2.6338766112
 Angular average effective mass for Frohlich model (<m**0.5>)**2=  -2.6391839968
 Effective masses along directions: (cart. coord. / red. coord. -> eff. mass)
    1:   1.000000  0.000000  0.000000 /   0.948683  0.316228  0.000000 ->  -2.8005042458
    2:   0.000000  1.000000  0.000000 /   0.000000  1.000000  0.000000 ->  -3.1589780857
    3:   0.000000  0.000000  1.000000 /   0.408248  0.408248  0.816497 ->  -2.5142689209
    4:   0.577350  0.577350  0.577350 /   0.585539  0.688047  0.428644 ->  -2.7059927573
    5:   0.000000  0.707107  0.707107 /   0.289489  0.762222  0.578977 ->  -2.5307063100
    6:   0.707107  0.000000  0.707107 /   0.731423  0.422287  0.535439 ->  -2.6029245163
    7:   0.707107  0.707107  0.000000 /   0.616798  0.787122  0.000000 ->  -2.5362016229

[...]

 K-point ( 0.000, 0.000, 0.000) | band =    40
 Transport equivalent effective mass tensor:
           -116.7404381609              0.0051838197              0.0230007362
              0.0051838197           -116.7476058021             -0.0092407590
              0.0230007362             -0.0092407590           -116.7460657701
 Transport equivalent effective mass tensor eigenvalues:
           -116.7710228343           -116.7432050530           -116.7198818458
 Angular average effective mass 1/(<1/m>)=  -9.6299195017
 Angular average effective mass for Frohlich model (<m**0.5>)**2= -11.9605004921
 Effective masses along directions: (cart. coord. / red. coord. -> eff. mass)
    1:   1.000000  0.000000  0.000000 /   0.948683  0.316228  0.000000 ->  -8.2601775673
    2:   0.000000  1.000000  0.000000 /   0.000000  1.000000  0.000000 ->  -5.5956105373
    3:   0.000000  0.000000  1.000000 /   0.408248  0.408248  0.816497 ->  -7.2450357930
    4:   0.577350  0.577350  0.577350 /   0.585539  0.688047  0.428644 ->  -7.9877740947
    5:   0.000000  0.707107  0.707107 /   0.289489  0.762222  0.578977 -> -13.8176779798
    6:   0.707107  0.000000  0.707107 /   0.731423  0.422287  0.535439 ->  -7.7602740961
    7:   0.707107  0.707107  0.000000 /   0.616798  0.787122  0.000000 -> -39.3053629042

 Angular average effective mass for Frohlich model, averaged over degenerate bands.
 Value of     (<<m**0.5>>)**2 =     5.192773E+00
 Absolute Value of <<m**0.5>> =     2.278766E+00

 K-point ( 0.000, 0.000, 0.000) | band =    41
 Effective mass tensor:
              0.5574973905             -0.0000004450             -0.0000020826
             -0.0000004450              0.5574980457              0.0000007852
             -0.0000020826              0.0000007852              0.5574978434
 Effective mass tensor eigenvalues:
              0.5574955062              0.5574976804              0.5575000929
 Angular average effective mass 1/(<1/m>)=   0.5574977598
 Angular average effective mass for Frohlich model (<m**0.5>)**2=   0.5574977598
 Effective masses along directions: (cart. coord. / red. coord. -> eff. mass)
    1:   1.000000  0.000000  0.000000 /   0.948683  0.316228  0.000000 ->   0.5574973905
    2:   0.000000  1.000000  0.000000 /   0.000000  1.000000  0.000000 ->   0.5574980457
    3:   0.000000  0.000000  1.000000 /   0.408248  0.408248  0.816497 ->   0.5574978434
    4:   0.577350  0.577350  0.577350 /   0.585539  0.688047  0.428644 ->   0.5574965982
    5:   0.000000  0.707107  0.707107 /   0.289489  0.762222  0.578977 ->   0.5574987297
    6:   0.707107  0.000000  0.707107 /   0.731423  0.422287  0.535439 ->   0.5574955343
    7:   0.707107  0.707107  0.000000 /   0.616798  0.787122  0.000000 ->   0.5574972731

 END OF EFFECTIVE MASSES SECTION

 ---- first-order wavefunction calculations are completed ----

 Total localisation tensor (bohr^2) in cartesian coordinates
  WARNING : still subject to testing - especially symmetries.
      direction              matrix element
   alpha     beta       real part   imaginary part
     1        1       0.6124128568    0.0000000000
     1        2       0.1732135539    0.0000000000
     1        3       0.4242908650    0.0000000000
     2        1       0.1732135539    0.0000000000
     2        2       0.4899219144    0.0000000000
     2        3       0.3000146760    0.0000000000
     3        1       0.4242908650    0.0000000000
     3        2       0.3000146760    0.0000000000
     3        3       1.1023311504    0.0000000000

 respfn : d/dk was computed, but no 2DTE, so no DDB output.

== END DATASET(S) ==============================================================

 -outvars: echo values of variables after computation  --------
            acell      1.0000000000E+00  1.0000000000E+00  1.0000000000E+00 Bohr
              amu      3.90983000E+01  2.29897680E+01  4.49559100E+01
                       1.89984032E+01
             ecut      4.40000000E+01 Hartree
           etotal     -3.9055844496E+01
            fcart      0.0000000000E+00  0.0000000000E+00  0.0000000000E+00
                       0.0000000000E+00  0.0000000000E+00  0.0000000000E+00
                       0.0000000000E+00  0.0000000000E+00  0.0000000000E+00
                       0.0000000000E+00  0.0000000000E+00  0.0000000000E+00
                       0.0000000000E+00  0.0000000000E+00  0.0000000000E+00
                       0.0000000000E+00  0.0000000000E+00  0.0000000000E+00
                       0.0000000000E+00  0.0000000000E+00  0.0000000000E+00
                       0.0000000000E+00  0.0000000000E+00  0.0000000000E+00
                       0.0000000000E+00  0.0000000000E+00  0.0000000000E+00
                       0.0000000000E+00  0.0000000000E+00  0.0000000000E+00
-          fftalg         512
           irdden           1
           irdwfk           1
           istwfk        1
              ixc     -116133
           kptopt           0
P           mkmem           1
P          mkqmem           1
P          mk1mem           1
            natom          10
            nband          49
           nbdbuf           4
            ngfft          72      72      72
             nkpt           1
            nstep        2000
             nsym          48
           ntypat           4
              occ      2.000000  2.000000  2.000000  2.000000  2.000000  2.000000
                       2.000000  2.000000  2.000000  2.000000  2.000000  2.000000
                       2.000000  2.000000  2.000000  2.000000  2.000000  2.000000
                       2.000000  2.000000  2.000000  2.000000  2.000000  2.000000
                       2.000000  2.000000  2.000000  2.000000  2.000000  2.000000
                       2.000000  2.000000  2.000000  2.000000  2.000000  2.000000
                       2.000000  2.000000  2.000000  2.000000  0.000000  0.000000
                       0.000000  0.000000  0.000000  0.000000  0.000000  0.000000
                       0.000000
        optdriver           1
            prtwf          -1
            rfdir           1       1       1
           rfelfd           2
            rprim      9.7829064701E+00  0.0000000000E+00  5.6481636840E+00
                       3.2609688234E+00  9.2234126729E+00  5.6481636840E+00
                       0.0000000000E+00  0.0000000000E+00  1.1296327368E+01
          spgroup         225
           strten      0.0000000000E+00  0.0000000000E+00  0.0000000000E+00
                       0.0000000000E+00  0.0000000000E+00  0.0000000000E+00
           symrel      1  0  0   0  1  0   0  0  1      -1  0  0   0 -1  0   0  0 -1
                       0 -1  1   0 -1  0   1 -1  0       0  1 -1   0  1  0  -1  1  0
                      -1  0  0  -1  0  1  -1  1  0       1  0  0   1  0 -1   1 -1  0
                       0  1 -1   1  0 -1   0  0 -1       0 -1  1  -1  0  1   0  0  1
                      -1  0  0  -1  1  0  -1  0  1       1  0  0   1 -1  0   1  0 -1
                       0 -1  1   1 -1  0   0 -1  0       0  1 -1  -1  1  0   0  1  0
                       1  0  0   0  0  1   0  1  0      -1  0  0   0  0 -1   0 -1  0
                       0  1 -1   0  0 -1   1  0 -1       0 -1  1   0  0  1  -1  0  1
                      -1  0  1  -1  1  0  -1  0  0       1  0 -1   1 -1  0   1  0  0
                       0 -1  0   1 -1  0   0 -1  1       0  1  0  -1  1  0   0  1 -1
                       1  0 -1   0  0 -1   0  1 -1      -1  0  1   0  0  1   0 -1  1
                       0  1  0   0  0  1   1  0  0       0 -1  0   0  0 -1  -1  0  0
                       1  0 -1   0  1 -1   0  0 -1      -1  0  1   0 -1  1   0  0  1
                       0 -1  0   0 -1  1   1 -1  0       0  1  0   0  1 -1  -1  1  0
                      -1  0  1  -1  0  0  -1  1  0       1  0 -1   1  0  0   1 -1  0
                       0  1  0   1  0  0   0  0  1       0 -1  0  -1  0  0   0  0 -1
                       0  0 -1   0  1 -1   1  0 -1       0  0  1   0 -1  1  -1  0  1
                       1 -1  0   0 -1  1   0 -1  0      -1  1  0   0  1 -1   0  1  0
                       0  0  1   1  0  0   0  1  0       0  0 -1  -1  0  0   0 -1  0
                      -1  1  0  -1  0  0  -1  0  1       1 -1  0   1  0  0   1  0 -1
                       0  0  1   0  1  0   1  0  0       0  0 -1   0 -1  0  -1  0  0
                       1 -1  0   0 -1  0   0 -1  1      -1  1  0   0  1  0   0  1 -1
                       0  0 -1   1  0 -1   0  1 -1       0  0  1  -1  0  1   0 -1  1
                      -1  1  0  -1  0  1  -1  0  0       1 -1  0   1  0 -1   1  0  0
           tolwfr      1.00000000E-20
            typat      1  1  2  3  4  4  4  4  4  4
           useylm           1
           xangst      5.1768911378E+00  3.6606148289E+00  8.9666384758E+00
                       1.7256303793E+00  1.2202049430E+00  2.9888794919E+00
                       0.0000000000E+00  0.0000000000E+00  0.0000000000E+00
                       3.4512607585E+00  2.4404098860E+00  5.9777589839E+00
                       4.2679636531E+00  1.2854175760E+00  7.3923298921E+00
                       5.0846665478E+00  3.5954021960E+00  5.9777589839E+00
                       1.8178549692E+00  1.2854175760E+00  5.9777589839E+00
                       4.2679636531E+00  1.2854175760E+00  4.5631880757E+00
                       2.6345578639E+00  3.5954021960E+00  4.5631880757E+00
                       2.6345578639E+00  3.5954021960E+00  7.3923298921E+00
            xcart      9.7829064701E+00  6.9175595047E+00  1.6944491052E+01
                       3.2609688234E+00  2.3058531682E+00  5.6481636840E+00
                       0.0000000000E+00  0.0000000000E+00  0.0000000000E+00
                       6.5219376468E+00  4.6117063365E+00  1.1296327368E+01
                       8.0652824495E+00  2.4290871849E+00  1.3969478980E+01
                       9.6086272523E+00  6.7943254880E+00  1.1296327368E+01
                       3.4352480412E+00  2.4290871849E+00  1.1296327368E+01
                       8.0652824495E+00  2.4290871849E+00  8.6231757559E+00
                       4.9785928440E+00  6.7943254880E+00  8.6231757559E+00
                       4.9785928440E+00  6.7943254880E+00  1.3969478980E+01
             xred      7.5000000000E-01  7.5000000000E-01  7.5000000000E-01
                       2.5000000000E-01  2.5000000000E-01  2.5000000000E-01
                       0.0000000000E+00  0.0000000000E+00  0.0000000000E+00
                       5.0000000000E-01  5.0000000000E-01  5.0000000000E-01
                       7.3663900000E-01  2.6336100000E-01  7.3663900000E-01
                       7.3663900000E-01  7.3663900000E-01  2.6336100000E-01
                       2.6336100000E-01  2.6336100000E-01  7.3663900000E-01
                       7.3663900000E-01  2.6336100000E-01  2.6336100000E-01
                       2.6336100000E-01  7.3663900000E-01  2.6336100000E-01
                       2.6336100000E-01  7.3663900000E-01  7.3663900000E-01
            znucl       19.00000   11.00000   21.00000    9.00000

- Timing analysis has been suppressed with timopt=0

 Suggested references for the acknowledgment of ABINIT usage.

 Calculation completed.
.Delivered   2 WARNINGs and   5 COMMENTs to log file.