.Version 9.5.1 of ABINIT

 ABINIT is a project of the Universite Catholique de Louvain,
 Corning Inc. and other collaborators, see ~abinit/doc/developers/contributors.txt .
 acknowledgments of the ABINIT effort.

.Starting date : Wed 19 May 2021.
- ( at 07h52 )

- input  file    -> /scratch/users/j/a/jabreu/flow_simple_9atoms/flow/w128/t1/run.abi
- output file    -> /scratch/users/j/a/jabreu/flow_simple_9atoms/flow/w128/t1/run.abo
- root for input  files -> /scratch/users/j/a/jabreu/flow_simple_9atoms/flow/w128/t1/indata/in
- root for output files -> /scratch/users/j/a/jabreu/flow_simple_9atoms/flow/w128/t1/outdata/out

 Symmetries : space group P3_2 2 1 (#154); Bravais hP (primitive hexag.)
     intxc =       0      iscf =       7    lmnmax =      18     lnmax =       6
     mgfft =      64  mpssoang =       3    mqgrid =    3071     natom =       9
  nloc_mem =       1    nspden =       1   nspinor =       1    nsppol =       1
      nsym =       6    n1xccc =    2501    ntypat =       2    occopt =       1
   xclevel =       2
-    mband =          33        mffmem =           1         mkmem =           2
-   mkqmem =           2        mk1mem =           2           mpw =       10896
      nfft =      230400          nkpt =           2
  Rough estimation (10% accuracy) of disk space for files :

------------- Echo of variables that govern the present computation ------------
-
- outvars: echo of selected default values
-   iomode0 =  0 , fftalg0 =512 , wfoptalg0 =  0
-
- outvars: echo of global parameters not present in the input file
-  max_nthreads =    0
-
 -outvars: echo values of preprocessed input variables --------
            acell      1.0000000000E+00  1.0000000000E+00  1.0000000000E+00 Bohr
              amu      2.80855000E+01  1.59994000E+01
             ecut      4.40000000E+01 Hartree
-          fftalg         512
           irdden           1
           irdwfk           1
           istwfk        0    1
              ixc     -116133
              kpt      3.33333333E-01  3.33333333E-01  0.00000000E+00
                       0.00000000E+00  0.00000000E+00  0.00000000E+00
           kptopt           0
P           mkmem           2
P          mkqmem           2
P          mk1mem           2
            natom           9
            nband          33
           nbdbuf           4
            ngfft          60      60      64
             nkpt           2
            nstep        2000
             nsym           6
           ntypat           2
              occ      2.000000  2.000000  2.000000  2.000000  2.000000  2.000000
                       2.000000  2.000000  2.000000  2.000000  2.000000  2.000000
                       2.000000  2.000000  2.000000  2.000000  2.000000  2.000000
                       2.000000  2.000000  2.000000  2.000000  2.000000  2.000000
                       0.000000  0.000000  0.000000  0.000000  0.000000  0.000000
                       0.000000  0.000000  0.000000
        optdriver           1
            prtwf          -1
            rfdir           1       1       1
           rfelfd           2
            rprim      9.3539663614E+00  0.0000000000E+00  0.0000000000E+00
                      -4.6769831807E+00  8.1007724951E+00  0.0000000000E+00
                       0.0000000000E+00  0.0000000000E+00  1.0281804390E+01
          spgroup         154
           symrel      1  0  0   0  1  0   0  0  1       1  0  0  -1 -1  0   0  0 -1
                       0  1  0  -1 -1  0   0  0  1       0  1  0   1  0  0   0  0 -1
                      -1 -1  0   1  0  0   0  0  1      -1 -1  0   0  1  0   0  0 -1
            tnons      0.0000000  0.0000000  0.0000000     0.0000000 -0.0000000  0.3333333
                      -0.0000000  0.0000000 -0.3333333    -0.0000000  0.0000000  0.0000000
                       0.0000000  0.0000000  0.3333333     0.0000000  0.0000000 -0.3333333
           tolwfr      1.00000000E-20
            typat      1  1  1  2  2  2  2  2  2
           useylm           1
              wtk        0.50000    0.50000
           xangst      2.6177824363E+00 -1.5864140284E-16  3.6272643641E+00
                      -1.3088912181E+00  2.2670660914E+00  1.8136321821E+00
                       1.1660616860E+00  2.0196780850E+00 -2.0135362067E-16
                      -7.9537808977E-01  3.6535677700E+00  2.4678582782E+00
                       1.0868186440E+00  3.1487779227E+00  4.2814904603E+00
                      -2.9144055419E-01  1.7711426600E+00  6.5422609614E-01
                       1.6795748144E+00  6.3317640640E-01  4.7866704501E+00
                       2.1835123500E+00  2.5156015163E+00  1.1594060859E+00
                       3.5617715481E+00  1.1379662536E+00  2.9730382680E+00
            xcart      4.9468918801E+00 -2.9978880471E-16  6.8545362598E+00
                      -2.4734459400E+00  4.2841340379E+00  3.4272681299E+00
                       2.2035372407E+00  3.8166384572E+00 -3.8050319894E-16
                      -1.5030467618E+00  6.9042424932E+00  4.6635762806E+00
                       2.0537895932E+00  5.9503279273E+00  8.0908444105E+00
                      -5.5074283143E-01  3.3469745697E+00  1.2363081507E+00
                       3.1739364189E+00  1.1965300019E+00  9.0454962390E+00
                       4.1262403493E+00  4.7537979254E+00  2.1909599792E+00
                       6.7307727739E+00  2.1504445678E+00  5.6182281091E+00
             xred      5.2885500000E-01 -3.7007434154E-17  6.6666666667E-01
                      -5.5511151231E-17  5.2885500000E-01  3.3333333333E-01
                       4.7114500000E-01  4.7114500000E-01 -3.7007434154E-17
                       2.6546166667E-01  8.5229433333E-01  4.5357566667E-01
                       5.8683266667E-01  7.3453833333E-01  7.8690900000E-01
                       1.4770566667E-01  4.1316733333E-01  1.2024233333E-01
                       4.1316733333E-01  1.4770566667E-01  8.7975766667E-01
                       7.3453833333E-01  5.8683266667E-01  2.1309100000E-01
                       8.5229433333E-01  2.6546166667E-01  5.4642433333E-01
            znucl       14.00000    8.00000

 chkinp: Checking input parameters for consistency.

== DATASET  1 ==================================================================
-   mpi_nproc: 1, omp_nthreads: -1 (-1 if OMP is not activated)

--- !DatasetInfo
iteration_state: {dtset: 1, }
dimensions: {natom: 9, nkpt: 2, mband: 33, nsppol: 1, nspinor: 1, nspden: 1, mpw: 10896, }
cutoff_energies: {ecut:  44.0, pawecutdg:  -1.0, }
electrons: {nelect:   4.80000000E+01, charge:   0.00000000E+00, occopt:   1.00000000E+00, tsmear:   1.00000000E-02, }
meta: {optdriver: 1, rfelfd: 2, }
...

 Real(R)+Recip(G) space primitive vectors, cartesian coordinates (Bohr,Bohr^-1):
 R(1)=  9.3539664  0.0000000  0.0000000  G(1)=  0.1069065  0.0617225  0.0000000
 R(2)= -4.6769832  8.1007725  0.0000000  G(2)=  0.0000000  0.1234450  0.0000000
 R(3)=  0.0000000  0.0000000 10.2818044  G(3)=  0.0000000  0.0000000  0.0972592
 Unit cell volume ucvol=  7.7909708E+02 bohr^3
 Angles (23,13,12)=  9.00000000E+01  9.00000000E+01  1.20000000E+02 degrees

 getcut: wavevector=  0.0000  0.0000  0.0000  ngfft=  60  60  64
         ecut(hartree)=     44.000   => boxcut(ratio)=   2.08458

--- Pseudopotential description ------------------------------------------------
- pspini: atom type   1  psp file is /scratch/users/j/a/jabreu/pseudos/PBEsol/Si.psp8
- pspatm: opening atomic psp file    /scratch/users/j/a/jabreu/pseudos/PBEsol/Si.psp8
- Si    ONCVPSP-3.3.0  r_core=   1.60303   1.72197   1.91712
- 14.00000   4.00000    180112                znucl, zion, pspdat
    8 -116133    2    4       600   0.00000   pspcod,pspxc,lmax,lloc,mmax,r2well
    5.99000000000000    4.00000000000000    0.00000000000000   rchrg,fchrg,qchrg
     nproj     2     2     2
     extension_switch     1
  pspatm : epsatm=    7.86468782
         --- l  ekb(1:nproj) -->
             0    5.384426    0.843824
             1    2.663259    0.615854
             2   -2.267219   -0.458043
 pspatm: atomic psp has been read  and splines computed

- pspini: atom type   2  psp file is /scratch/users/j/a/jabreu/pseudos/PBEsol/O.psp8
- pspatm: opening atomic psp file    /scratch/users/j/a/jabreu/pseudos/PBEsol/O.psp8
- O     ONCVPSP-3.3.0  r_core=   1.35509   1.45563   1.26150
-  8.00000   6.00000    180112                znucl, zion, pspdat
    8 -116133    2    4       600   0.00000   pspcod,pspxc,lmax,lloc,mmax,r2well
    5.99000000000000    4.00000000000000    0.00000000000000   rchrg,fchrg,qchrg
     nproj     2     2     1
     extension_switch     1
  pspatm : epsatm=    6.22910522
         --- l  ekb(1:nproj) -->
             0    6.050032    0.820363
             1   -4.739617   -1.153841
             2   -1.335834
 pspatm: atomic psp has been read  and splines computed

   2.92649735E+03                                ecore*ucvol(ha*bohr**3)

-inwffil : will read wavefunctions from disk file /scratch/users/j/a/jabreu/flow_simple_9atoms/flow/w128/t1/indata/in_WFK

 ==>  initialize data related to q vector <==

 The list of irreducible perturbations for this q vector is:
    1)    idir= 1    ipert=  10
    2)    idir= 2    ipert=  10
    3)    idir= 3    ipert=  10

 Perturbation wavevector (in red.coord.)   0.000000  0.000000  0.000000
 Perturbation : derivative vs k along direction   1

 dfpt_looppert : COMMENT -
  In a d/dk calculation, iscf is set to -3 automatically.
 The set of symmetries contains only one element for this perturbation.
 symkpt : not enough symmetry to change the number of k points.

[...]

 Initialisation of the first-order wave-functions :
  ireadwf=   0

--- !BeginCycle
iteration_state: {dtset: 1, }
solver: {iscf: 7, nstep: 2000, nline: 4, wfoptalg: 0, }
tolerances: {tolwfr: 1.00E-20, }
...

     iter   2DEtotal(Ha)        deltaE(Ha) residm    vres2
-ETOT  1  -29.304340079789     -2.930E+01 8.259E-02 0.000E+00
 ETOT  2  -29.336134547974     -3.179E-02 1.513E-02 0.000E+00
 ETOT  3  -29.336248333440     -1.138E-04 6.041E-04 0.000E+00
 ETOT  4  -29.336249144283     -8.108E-07 1.854E-04 0.000E+00
 ETOT  5  -29.336249151694     -7.411E-09 1.309E-05 0.000E+00
 ETOT  6  -29.336249151773     -7.843E-11 3.988E-06 0.000E+00
 ETOT  7  -29.336249151774     -8.953E-13 3.053E-07 0.000E+00
 ETOT  8  -29.336249151774      3.553E-15 9.304E-08 0.000E+00
 ETOT  9  -29.336249151774     -1.066E-14 7.365E-09 0.000E+00
 ETOT 10  -29.336249151774      1.776E-14 2.245E-09 0.000E+00
 ETOT 11  -29.336249151774     -3.553E-15 1.802E-10 0.000E+00
 ETOT 12  -29.336249151774      3.553E-15 5.506E-11 0.000E+00
 ETOT 13  -29.336249151774      0.000E+00 4.442E-12 0.000E+00
 ETOT 14  -29.336249151774      0.000E+00 1.363E-12 0.000E+00
 ETOT 15  -29.336249151774     -3.553E-15 1.099E-13 0.000E+00
 ETOT 16  -29.336249151774     -1.066E-14 3.396E-14 0.000E+00
 ETOT 17  -29.336249151774      7.105E-15 2.725E-15 0.000E+00
 ETOT 18  -29.336249151774      0.000E+00 8.496E-16 0.000E+00
 ETOT 19  -29.336249151774      0.000E+00 6.776E-17 0.000E+00
 ETOT 20  -29.336249151774     -7.105E-15 2.132E-17 0.000E+00
 ETOT 21  -29.336249151774      1.421E-14 1.689E-18 0.000E+00
 ETOT 22  -29.336249151774      0.000E+00 5.367E-19 0.000E+00
 ETOT 23  -29.336249151774     -1.066E-14 4.218E-20 0.000E+00
 ETOT 24  -29.336249151774     -3.553E-15 1.353E-20 0.000E+00
 ETOT 25  -29.336249151774      1.421E-14 9.985E-21 0.000E+00

 At SCF step   25   max residual=  9.98E-21 < tolwfr=  1.00E-20 =>converged.

 ----iterations are completed or convergence reached----

 dfpt_looppert: DFPT cycle converged with prtwf=-1. Will skip output of the 1st-order WFK file.
 dfpt_looppert : ek2=    5.7753472097E+01
          f-sum rule ratio=    1.0104260170E+00
 prteigrs : about to open file /scratch/users/j/a/jabreu/flow_simple_9atoms/flow/w128/t1/tmpdata/tmp_1WF1_EIG
 Expectation of eigenvalue derivatives (hartree) for nkpt=   2  k points:
  (in case of degenerate eigenvalues, averaged derivative)
 kpt#   1, nband= 33, wtk=  0.50000, kpt=  0.3333  0.3333  0.0000 (reduced coord)
  -0.00000   -0.00000    0.00000    0.00000   -0.00000   -0.00000   -0.00000    0.11854
  -0.11854   -0.00000   -0.00000   -0.00000   -0.01729    0.01729   -0.00000    0.01180
  -0.01180   -0.00000    0.00000    0.00000    0.00000    0.03635   -0.03635   -0.00000
   0.11893   -0.11893   -0.00000   -0.00000    0.04722   -0.04722    0.03748   -0.03748
  -0.00001
 prteigrs : prtvol=0 or 1, do not print more k-points.

 Eight components of 2nd-order total energy (hartree) are
 1,2,3: 0th-order hamiltonian combined with 1st-order wavefunctions
     kin0=   3.83756609E+01 eigvalue=   1.96182317E+00  local=  -1.59641580E+01
 4,5,6: 1st-order hamiltonian combined with 1st and 0th-order wfs
     kin1=  -5.83556108E+01  Hartree=   0.00000000E+00     xc=   0.00000000E+00
 7,8,9: eventually, occupation + non-local contributions
    edocc=   6.82406388E+00     enl0=  -1.86114081E+00   enl1=  -3.16887521E-01
 1-9 gives the relaxation energy (to be shifted if some occ is /=2.0)
   erelax=  -2.93362492E+01
  No Ewald or frozen-wf contrib.: the relaxation energy is the total one
 2DEtotal=   -0.2933624915E+02 Ha. Also 2DEtotal=   -0.798279936682E+03 eV
    (  non-var. 2DEtotal :   -2.9336249152E+01 Ha)

 Perturbation wavevector (in red.coord.)   0.000000  0.000000  0.000000
 Perturbation : derivative vs k along direction   2
 The set of symmetries contains only one element for this perturbation.
 symkpt : not enough symmetry to change the number of k points.

[...]

 Perturbation wavevector (in red.coord.)   0.000000  0.000000  0.000000
 Perturbation : derivative vs k along direction   3
 The set of symmetries contains only one element for this perturbation.
 symkpt : not enough symmetry to change the number of k points.

-inwffil : will read wavefunctions from disk file /scratch/users/j/a/jabreu/flow_simple_9atoms/flow/w128/t1/indata/in_WFK

 Initialisation of the first-order wave-functions :
  ireadwf=   0

--- !BeginCycle
iteration_state: {dtset: 1, }
solver: {iscf: 7, nstep: 2000, nline: 4, wfoptalg: 0, }
tolerances: {tolwfr: 1.00E-20, }
...

     iter   2DEtotal(Ha)        deltaE(Ha) residm    vres2
-ETOT  1  -18.081535601637     -1.808E+01 4.679E-02 0.000E+00
 ETOT  2  -18.100170040486     -1.863E-02 3.841E-03 0.000E+00
 ETOT  3  -18.100226227924     -5.619E-05 7.528E-05 0.000E+00
 ETOT  4  -18.100226568747     -3.408E-07 1.502E-05 0.000E+00
 ETOT  5  -18.100226571577     -2.830E-09 9.979E-07 0.000E+00
 ETOT  6  -18.100226571605     -2.758E-11 2.572E-07 0.000E+00
 ETOT  7  -18.100226571605     -3.055E-13 2.029E-08 0.000E+00
 ETOT  8  -18.100226571605      1.066E-14 5.156E-09 0.000E+00
 ETOT  9  -18.100226571605     -1.421E-14 4.250E-10 0.000E+00
 ETOT 10  -18.100226571605     -3.553E-15 1.067E-10 0.000E+00
 ETOT 11  -18.100226571605     -3.553E-15 8.978E-12 0.000E+00
 ETOT 12  -18.100226571605      0.000E+00 2.231E-12 0.000E+00
 ETOT 13  -18.100226571605      7.105E-15 1.915E-13 0.000E+00
 ETOT 14  -18.100226571605      0.000E+00 4.470E-14 0.000E+00
 ETOT 15  -18.100226571605      0.000E+00 4.355E-15 0.000E+00
 ETOT 16  -18.100226571605     -3.553E-15 9.654E-16 0.000E+00
 ETOT 17  -18.100226571605      0.000E+00 1.029E-16 0.000E+00
 ETOT 18  -18.100226571605      0.000E+00 2.276E-17 0.000E+00
 ETOT 19  -18.100226571605      3.553E-15 2.425E-18 0.000E+00
 ETOT 20  -18.100226571605      0.000E+00 5.383E-19 0.000E+00
 ETOT 21  -18.100226571605      0.000E+00 5.718E-20 0.000E+00
 ETOT 22  -18.100226571605      0.000E+00 1.274E-20 0.000E+00
 ETOT 23  -18.100226571605      3.553E-15 9.713E-21 0.000E+00

 At SCF step   23   max residual=  9.71E-21 < tolwfr=  1.00E-20 =>converged.

 ----iterations are completed or convergence reached----

 dfpt_looppert: DFPT cycle converged with prtwf=-1. Will skip output of the 1st-order WFK file.
 dfpt_looppert : ek2=    3.5850258817E+01
          f-sum rule ratio=    1.0046774062E+00
 prteigrs : about to open file /scratch/users/j/a/jabreu/flow_simple_9atoms/flow/w128/t1/tmpdata/tmp_1WF1_EIG
 Expectation of eigenvalue derivatives (hartree) for nkpt=   2  k points:
  (in case of degenerate eigenvalues, averaged derivative)
 kpt#   1, nband= 33, wtk=  0.50000, kpt=  0.3333  0.3333  0.0000 (reduced coord)
  -0.00000   -0.00000    0.00000   -0.00000    0.00000    0.00000    0.00000    0.00000
  -0.00000    0.00000    0.00000    0.00000    0.00000   -0.00000   -0.00000   -0.00000
   0.00000    0.00000   -0.00000    0.00000    0.00000    0.00000   -0.00000    0.00000
  -0.00000    0.00000   -0.00000   -0.00000   -0.00000    0.00000   -0.00000    0.00000
  -0.00088
 prteigrs : prtvol=0 or 1, do not print more k-points.

 Eight components of 2nd-order total energy (hartree) are
 1,2,3: 0th-order hamiltonian combined with 1st-order wavefunctions
     kin0=   2.40365875E+01 eigvalue=   1.19857493E+00  local=  -9.97841073E+00
 4,5,6: 1st-order hamiltonian combined with 1st and 0th-order wfs
     kin1=  -3.60179450E+01  Hartree=   0.00000000E+00     xc=   0.00000000E+00
 7,8,9: eventually, occupation + non-local contributions
    edocc=   4.00971694E+00     enl0=  -1.16624206E+00   enl1=  -1.82508105E-01
 1-9 gives the relaxation energy (to be shifted if some occ is /=2.0)
   erelax=  -1.81002266E+01
  No Ewald or frozen-wf contrib.: the relaxation energy is the total one
 2DEtotal=   -0.1810022657E+02 Ha. Also 2DEtotal=   -0.492532213193E+03 eV
    (  non-var. 2DEtotal :   -1.8100226572E+01 Ha)

 CALCULATION OF EFFECTIVE MASSES
 NOTE : Additional infos (eff. mass eigenvalues, eigenvectors and, if degenerate, average mass) are available in stdout.

 K-point ( 0.333, 0.333, 0.000) | band =    24
 Effective mass tensor:
             -8.6475295312              0.0000107491              0.0000003435
              0.0000107491             -8.6475171519             -0.0000001129
              0.0000003435             -0.0000001129             -1.4869251777
 Effective mass tensor eigenvalues:
             -8.6475357454             -8.6475109377             -1.4869251777
 Angular average effective mass 1/(<1/m>)=  -3.3192857875
 Angular average effective mass for Frohlich model (<m**0.5>)**2=  -4.1890975390
 Effective masses along directions: (cart. coord. / red. coord. -> eff. mass)
    1:   1.000000  0.000000  0.000000 /   0.894427 -0.447214  0.000000 ->  -8.6475295312
    2:   0.000000  1.000000  0.000000 /   0.000000  1.000000  0.000000 ->  -8.6475171519
    3:   0.000000  0.000000  1.000000 /   0.000000  0.000000  1.000000 ->  -1.4869251777
    4:   0.577350  0.577350  0.577350 /   0.653414  0.239166  0.718227 ->  -3.3192846000
    5:   0.000000  0.707107  0.707107 /   0.000000  0.618870  0.785493 ->  -2.5375271468
    6:   0.707107  0.000000  0.707107 /   0.637807 -0.318904  0.701072 ->  -2.5375274512
    7:   0.707107  0.707107  0.000000 /   0.939071  0.343724  0.000000 ->  -8.6475125924

 K-point ( 0.000, 0.000, 0.000) | band =    25
 Effective mass tensor:
              0.5083167283             -0.0000000354             -0.0000001046
             -0.0000000354              0.5083167286              0.0000000329
             -0.0000001046              0.0000000329              0.4947243602
 Effective mass tensor eigenvalues:
              0.4947243602              0.5083166930              0.5083167638
 Angular average effective mass 1/(<1/m>)=   0.5037037043
 Angular average effective mass for Frohlich model (<m**0.5>)**2=   0.5037284898
 Effective masses along directions: (cart. coord. / red. coord. -> eff. mass)
    1:   1.000000  0.000000  0.000000 /   0.894427 -0.447214  0.000000 ->   0.5083167283
    2:   0.000000  1.000000  0.000000 /   0.000000  1.000000  0.000000 ->   0.5083167286
    3:   0.000000  0.000000  1.000000 /   0.000000  0.000000  1.000000 ->   0.4947243602
    4:   0.577350  0.577350  0.577350 /   0.653414  0.239166  0.718227 ->   0.5037036329
    5:   0.000000  0.707107  0.707107 /   0.000000  0.618870  0.785493 ->   0.5014284811
    6:   0.707107  0.000000  0.707107 /   0.637807 -0.318904  0.701072 ->   0.5014283435
    7:   0.707107  0.707107  0.000000 /   0.939071  0.343724  0.000000 ->   0.5083166930

 END OF EFFECTIVE MASSES SECTION

 ---- first-order wavefunction calculations are completed ----

 Total localisation tensor (bohr^2) in cartesian coordinates
  WARNING : still subject to testing - especially symmetries.
      direction              matrix element
   alpha     beta       real part   imaginary part
     1        1       1.0165527730    0.0000000000
     1        2      -0.3521455790    0.0000000000
     1        3       0.0000000000    0.0000000000
     2        1      -0.3521455790    0.0000000000
     2        2       0.6099340344    0.0000000000
     2        3       0.0000000000    0.0000000000
     3        1       0.0000000000    0.0000000000
     3        2       0.0000000000    0.0000000000
     3        3       0.6044341866    0.0000000000

 respfn : d/dk was computed, but no 2DTE, so no DDB output.

== END DATASET(S) ==============================================================

 -outvars: echo values of variables after computation  --------
            acell      1.0000000000E+00  1.0000000000E+00  1.0000000000E+00 Bohr
              amu      2.80855000E+01  1.59994000E+01
             ecut      4.40000000E+01 Hartree
           etotal     -1.8100226572E+01
            fcart      0.0000000000E+00  0.0000000000E+00  0.0000000000E+00
                       0.0000000000E+00  0.0000000000E+00  0.0000000000E+00
                       0.0000000000E+00  0.0000000000E+00  0.0000000000E+00
                       0.0000000000E+00  0.0000000000E+00  0.0000000000E+00
                       0.0000000000E+00  0.0000000000E+00  0.0000000000E+00
                       0.0000000000E+00  0.0000000000E+00  0.0000000000E+00
                       0.0000000000E+00  0.0000000000E+00  0.0000000000E+00
                       0.0000000000E+00  0.0000000000E+00  0.0000000000E+00
                       0.0000000000E+00  0.0000000000E+00  0.0000000000E+00
-          fftalg         512
           irdden           1
           irdwfk           1
           istwfk        0    1
              ixc     -116133
              kpt      3.33333333E-01  3.33333333E-01  0.00000000E+00
                       0.00000000E+00  0.00000000E+00  0.00000000E+00
           kptopt           0
P           mkmem           2
P          mkqmem           2
P          mk1mem           2
            natom           9
            nband          33
           nbdbuf           4
            ngfft          60      60      64
             nkpt           2
            nstep        2000
             nsym           6
           ntypat           2
              occ      2.000000  2.000000  2.000000  2.000000  2.000000  2.000000
                       2.000000  2.000000  2.000000  2.000000  2.000000  2.000000
                       2.000000  2.000000  2.000000  2.000000  2.000000  2.000000
                       2.000000  2.000000  2.000000  2.000000  2.000000  2.000000
                       0.000000  0.000000  0.000000  0.000000  0.000000  0.000000
                       0.000000  0.000000  0.000000
        optdriver           1
            prtwf          -1
            rfdir           1       1       1
           rfelfd           2
            rprim      9.3539663614E+00  0.0000000000E+00  0.0000000000E+00
                      -4.6769831807E+00  8.1007724951E+00  0.0000000000E+00
                       0.0000000000E+00  0.0000000000E+00  1.0281804390E+01
          spgroup         154
           strten      0.0000000000E+00  0.0000000000E+00  0.0000000000E+00
                       0.0000000000E+00  0.0000000000E+00  0.0000000000E+00
           symrel      1  0  0   0  1  0   0  0  1       1  0  0  -1 -1  0   0  0 -1
                       0  1  0  -1 -1  0   0  0  1       0  1  0   1  0  0   0  0 -1
                      -1 -1  0   1  0  0   0  0  1      -1 -1  0   0  1  0   0  0 -1
            tnons      0.0000000  0.0000000  0.0000000     0.0000000 -0.0000000  0.3333333
                      -0.0000000  0.0000000 -0.3333333    -0.0000000  0.0000000  0.0000000
                       0.0000000  0.0000000  0.3333333     0.0000000  0.0000000 -0.3333333
           tolwfr      1.00000000E-20
            typat      1  1  1  2  2  2  2  2  2
           useylm           1
              wtk        0.50000    0.50000
           xangst      2.6177824363E+00 -1.5864140284E-16  3.6272643641E+00
                      -1.3088912181E+00  2.2670660914E+00  1.8136321821E+00
                       1.1660616860E+00  2.0196780850E+00 -2.0135362067E-16
                      -7.9537808977E-01  3.6535677700E+00  2.4678582782E+00
                       1.0868186440E+00  3.1487779227E+00  4.2814904603E+00
                      -2.9144055419E-01  1.7711426600E+00  6.5422609614E-01
                       1.6795748144E+00  6.3317640640E-01  4.7866704501E+00
                       2.1835123500E+00  2.5156015163E+00  1.1594060859E+00
                       3.5617715481E+00  1.1379662536E+00  2.9730382680E+00
            xcart      4.9468918801E+00 -2.9978880471E-16  6.8545362598E+00
                      -2.4734459400E+00  4.2841340379E+00  3.4272681299E+00
                       2.2035372407E+00  3.8166384572E+00 -3.8050319894E-16
                      -1.5030467618E+00  6.9042424932E+00  4.6635762806E+00
                       2.0537895932E+00  5.9503279273E+00  8.0908444105E+00
                      -5.5074283143E-01  3.3469745697E+00  1.2363081507E+00
                       3.1739364189E+00  1.1965300019E+00  9.0454962390E+00
                       4.1262403493E+00  4.7537979254E+00  2.1909599792E+00
                       6.7307727739E+00  2.1504445678E+00  5.6182281091E+00
             xred      5.2885500000E-01 -3.7007434154E-17  6.6666666667E-01
                      -5.5511151231E-17  5.2885500000E-01  3.3333333333E-01
                       4.7114500000E-01  4.7114500000E-01 -3.7007434154E-17
                       2.6546166667E-01  8.5229433333E-01  4.5357566667E-01
                       5.8683266667E-01  7.3453833333E-01  7.8690900000E-01
                       1.4770566667E-01  4.1316733333E-01  1.2024233333E-01
                       4.1316733333E-01  1.4770566667E-01  8.7975766667E-01
                       7.3453833333E-01  5.8683266667E-01  2.1309100000E-01
                       8.5229433333E-01  2.6546166667E-01  5.4642433333E-01
            znucl       14.00000    8.00000

- Timing analysis has been suppressed with timopt=0

 Suggested references for the acknowledgment of ABINIT usage.

 Calculation completed.
.Delivered  14 WARNINGs and   9 COMMENTs to log file.