.Version 9.5.1 of ABINIT

 ABINIT is a project of the Universite Catholique de Louvain,
 Corning Inc. and other collaborators, see ~abinit/doc/developers/contributors.txt .
 acknowledgments of the ABINIT effort.

.Starting date : Sat  1 May 2021.
- ( at 05h07 )

- input  file    -> /scratch/users/j/a/jabreu/flow_simple_6atoms/flow/w150/t1/run.abi
- output file    -> /scratch/users/j/a/jabreu/flow_simple_6atoms/flow/w150/t1/run.abo
- root for input  files -> /scratch/users/j/a/jabreu/flow_simple_6atoms/flow/w150/t1/indata/in
- root for output files -> /scratch/users/j/a/jabreu/flow_simple_6atoms/flow/w150/t1/outdata/out

 Symmetries : space group P4_2/m n m (#136); Bravais tP (primitive tetrag.)
     intxc =       0      iscf =       7    lmnmax =      18     lnmax =       6
     mgfft =      48  mpssoang =       3    mqgrid =    3001     natom =       6
  nloc_mem =       1    nspden =       1   nspinor =       1    nsppol =       1
      nsym =      16    n1xccc =    2501    ntypat =       2    occopt =       1
   xclevel =       2
-    mband =          25        mffmem =           1         mkmem =           1
-   mkqmem =           1        mk1mem =           1           mpw =        4427
      nfft =       73728          nkpt =           1
  Rough estimation (10% accuracy) of disk space for files :

------------- Echo of variables that govern the present computation ------------
-
- outvars: echo of selected default values
-   iomode0 =  0 , fftalg0 =512 , wfoptalg0 =  0
-
- outvars: echo of global parameters not present in the input file
-  max_nthreads =    0
-
 -outvars: echo values of preprocessed input variables --------
            acell      1.0000000000E+00  1.0000000000E+00  1.0000000000E+00 Bohr
              amu      2.80855000E+01  1.59994000E+01
             ecut      4.40000000E+01 Hartree
-          fftalg         512
           irdden           1
           irdwfk           1
           istwfk        1
              ixc     -116133
           kptopt           0
P           mkmem           1
P          mkqmem           1
P          mk1mem           1
            natom           6
            nband          25
           nbdbuf           4
            ngfft          48      48      32
             nkpt           1
            nstep        1000
             nsym          16
           ntypat           2
              occ      2.000000  2.000000  2.000000  2.000000  2.000000  2.000000
                       2.000000  2.000000  2.000000  2.000000  2.000000  2.000000
                       2.000000  2.000000  2.000000  2.000000  0.000000  0.000000
                       0.000000  0.000000  0.000000  0.000000  0.000000  0.000000
                       0.000000
        optdriver           1
            prtwf          -1
            rfdir           1       1       1
           rfelfd           2
            rprim      7.9131891807E+00  0.0000000000E+00  0.0000000000E+00
                       0.0000000000E+00  7.9131891807E+00  0.0000000000E+00
                       0.0000000000E+00  0.0000000000E+00  5.0565902024E+00
          spgroup         136
           symrel      1  0  0   0  1  0   0  0  1      -1  0  0   0 -1  0   0  0 -1
                      -1  0  0   0  1  0   0  0 -1       1  0  0   0 -1  0   0  0  1
                      -1  0  0   0 -1  0   0  0  1       1  0  0   0  1  0   0  0 -1
                       1  0  0   0 -1  0   0  0 -1      -1  0  0   0  1  0   0  0  1
                       0  1  0   1  0  0   0  0  1       0 -1  0  -1  0  0   0  0 -1
                       0 -1  0   1  0  0   0  0 -1       0  1  0  -1  0  0   0  0  1
                       0 -1  0  -1  0  0   0  0  1       0  1  0   1  0  0   0  0 -1
                       0  1  0  -1  0  0   0  0 -1       0 -1  0   1  0  0   0  0  1
            tnons      0.0000000  0.0000000  0.0000000     0.0000000  0.0000000 -0.0000000
                       0.5000000  0.5000000  0.5000000     0.5000000  0.5000000  0.5000000
                       0.0000000  0.0000000  0.0000000     0.0000000  0.0000000 -0.0000000
                       0.5000000  0.5000000  0.5000000     0.5000000  0.5000000  0.5000000
                       0.0000000  0.0000000  0.0000000     0.0000000  0.0000000 -0.0000000
                       0.5000000  0.5000000  0.5000000     0.5000000  0.5000000  0.5000000
                       0.0000000  0.0000000  0.0000000     0.0000000  0.0000000 -0.0000000
                       0.5000000  0.5000000  0.5000000     0.5000000  0.5000000  0.5000000
           tolwfr      1.00000000E-20
            typat      1  1  2  2  2  2
           useylm           1
           xangst      2.0937396808E+00  2.0937396808E+00  1.3379161441E+00
                       0.0000000000E+00  0.0000000000E+00  0.0000000000E+00
                       2.9060436773E+00  2.9060436773E+00  0.0000000000E+00
                       8.1230399650E-01  3.3751753652E+00  1.3379161441E+00
                       1.2814356843E+00  1.2814356843E+00  0.0000000000E+00
                       3.3751753652E+00  8.1230399650E-01  1.3379161441E+00
            xcart      3.9565945903E+00  3.9565945903E+00  2.5282951012E+00
                       0.0000000000E+00  0.0000000000E+00  0.0000000000E+00
                       5.4916266804E+00  5.4916266804E+00  0.0000000000E+00
                       1.5350320900E+00  6.3781570907E+00  2.5282951012E+00
                       2.4215625003E+00  2.4215625003E+00  0.0000000000E+00
                       6.3781570907E+00  1.5350320900E+00  2.5282951012E+00
             xred      5.0000000000E-01  5.0000000000E-01  5.0000000000E-01
                       0.0000000000E+00  0.0000000000E+00  0.0000000000E+00
                       6.9398400000E-01  6.9398400000E-01  0.0000000000E+00
                       1.9398400000E-01  8.0601600000E-01  5.0000000000E-01
                       3.0601600000E-01  3.0601600000E-01  0.0000000000E+00
                       8.0601600000E-01  1.9398400000E-01  5.0000000000E-01
            znucl       14.00000    8.00000

 chkinp: Checking input parameters for consistency.

== DATASET  1 ==================================================================
-   mpi_nproc: 1, omp_nthreads: -1 (-1 if OMP is not activated)

--- !DatasetInfo
iteration_state: {dtset: 1, }
dimensions: {natom: 6, nkpt: 1, mband: 25, nsppol: 1, nspinor: 1, nspden: 1, mpw: 4427, }
cutoff_energies: {ecut:  44.0, pawecutdg:  -1.0, }
electrons: {nelect:   3.20000000E+01, charge:   0.00000000E+00, occopt:   1.00000000E+00, tsmear:   1.00000000E-02, }
meta: {optdriver: 1, rfelfd: 2, }
...

 Real(R)+Recip(G) space primitive vectors, cartesian coordinates (Bohr,Bohr^-1):
 R(1)=  7.9131892  0.0000000  0.0000000  G(1)=  0.1263713  0.0000000  0.0000000
 R(2)=  0.0000000  7.9131892  0.0000000  G(2)=  0.0000000  0.1263713  0.0000000
 R(3)=  0.0000000  0.0000000  5.0565902  G(3)=  0.0000000  0.0000000  0.1977617
 Unit cell volume ucvol=  3.1663641E+02 bohr^3
 Angles (23,13,12)=  9.00000000E+01  9.00000000E+01  9.00000000E+01 degrees

 getcut: wavevector=  0.0000  0.0000  0.0000  ngfft=  48  48  32
         ecut(hartree)=     44.000   => boxcut(ratio)=   2.03141

--- Pseudopotential description ------------------------------------------------
- pspini: atom type   1  psp file is /scratch/users/j/a/jabreu/pseudos/PBEsol/Si.psp8
- pspatm: opening atomic psp file    /scratch/users/j/a/jabreu/pseudos/PBEsol/Si.psp8
- Si    ONCVPSP-3.3.0  r_core=   1.60303   1.72197   1.91712
- 14.00000   4.00000    180112                znucl, zion, pspdat
    8 -116133    2    4       600   0.00000   pspcod,pspxc,lmax,lloc,mmax,r2well
    5.99000000000000    4.00000000000000    0.00000000000000   rchrg,fchrg,qchrg
     nproj     2     2     2
     extension_switch     1
  pspatm : epsatm=    7.86468782
         --- l  ekb(1:nproj) -->
             0    5.384426    0.843824
             1    2.663259    0.615854
             2   -2.267219   -0.458043
 pspatm: atomic psp has been read  and splines computed

- pspini: atom type   2  psp file is /scratch/users/j/a/jabreu/pseudos/PBEsol/O.psp8
- pspatm: opening atomic psp file    /scratch/users/j/a/jabreu/pseudos/PBEsol/O.psp8
- O     ONCVPSP-3.3.0  r_core=   1.35509   1.45563   1.26150
-  8.00000   6.00000    180112                znucl, zion, pspdat
    8 -116133    2    4       600   0.00000   pspcod,pspxc,lmax,lloc,mmax,r2well
    5.99000000000000    4.00000000000000    0.00000000000000   rchrg,fchrg,qchrg
     nproj     2     2     1
     extension_switch     1
  pspatm : epsatm=    6.22910522
         --- l  ekb(1:nproj) -->
             0    6.050032    0.820363
             1   -4.739617   -1.153841
             2   -1.335834
 pspatm: atomic psp has been read  and splines computed

   1.30066549E+03                                ecore*ucvol(ha*bohr**3)

-inwffil : will read wavefunctions from disk file /scratch/users/j/a/jabreu/flow_simple_6atoms/flow/w150/t1/indata/in_WFK

 ==>  initialize data related to q vector <==

 The list of irreducible perturbations for this q vector is:
    1)    idir= 1    ipert=   7
    2)    idir= 2    ipert=   7
    3)    idir= 3    ipert=   7

 Perturbation wavevector (in red.coord.)   0.000000  0.000000  0.000000
 Perturbation : derivative vs k along direction   1

 dfpt_looppert : COMMENT -
  In a d/dk calculation, iscf is set to -3 automatically.
 The set of symmetries contains only one element for this perturbation.
 symkpt : not enough symmetry to change the number of k points.

[...]

 Initialisation of the first-order wave-functions :
  ireadwf=   0

--- !BeginCycle
iteration_state: {dtset: 1, }
solver: {iscf: 7, nstep: 1000, nline: 4, wfoptalg: 0, }
tolerances: {tolwfr: 1.00E-20, }
...

     iter   2DEtotal(Ha)        deltaE(Ha) residm    vres2
-ETOT  1  -22.764181809900     -2.276E+01 1.692E-02 0.000E+00
 ETOT  2  -22.776710873798     -1.253E-02 1.233E-04 0.000E+00
 ETOT  3  -22.776720640739     -9.767E-06 1.734E-06 0.000E+00
 ETOT  4  -22.776720667762     -2.702E-08 5.231E-08 0.000E+00
 ETOT  5  -22.776720667861     -9.906E-11 8.589E-10 0.000E+00
 ETOT  6  -22.776720667861     -3.944E-13 2.735E-11 0.000E+00
 ETOT  7  -22.776720667861      7.105E-15 4.422E-13 0.000E+00
 ETOT  8  -22.776720667861     -3.553E-15 1.476E-14 0.000E+00
 ETOT  9  -22.776720667861     -2.487E-14 2.385E-16 0.000E+00
 ETOT 10  -22.776720667861      3.553E-15 8.294E-18 0.000E+00
 ETOT 11  -22.776720667861      3.553E-15 1.340E-19 0.000E+00
 ETOT 12  -22.776720667861      7.105E-15 9.315E-21 0.000E+00

 At SCF step   12   max residual=  9.32E-21 < tolwfr=  1.00E-20 =>converged.

 ----iterations are completed or convergence reached----

 dfpt_looppert: DFPT cycle converged with prtwf=-1. Will skip output of the 1st-order WFK file.
 dfpt_looppert : ek2=    4.0349356568E+01
          f-sum rule ratio=    1.1645232991E+00
 prteigrs : about to open file /scratch/users/j/a/jabreu/flow_simple_6atoms/flow/w150/t1/tmpdata/tmp_1WF1_EIG
 Expectation of eigenvalue derivatives (hartree) for nkpt=   1  k points:
  (in case of degenerate eigenvalues, averaged derivative)
 kpt#   1, nband= 25, wtk=  1.00000, kpt=  0.0000  0.0000  0.0000 (reduced coord)
   0.00000   -0.00000   -0.00000    0.00000    0.00000    0.00000    0.00000    0.00000
   0.00000    0.00000   -0.00000   -0.00000    0.00000    0.00000    0.00000   -0.00000
   0.00000    0.00000    0.00000    0.00000    0.00000   -0.00000    0.00000   -0.00004
   0.00006

 Eight components of 2nd-order total energy (hartree) are
 1,2,3: 0th-order hamiltonian combined with 1st-order wavefunctions
     kin0=   2.62604781E+01 eigvalue=  -1.77744637E+00  local=  -8.36907565E+00
 4,5,6: 1st-order hamiltonian combined with 1st and 0th-order wfs
     kin1=  -4.69877658E+01  Hartree=   0.00000000E+00     xc=   0.00000000E+00
 7,8,9: eventually, occupation + non-local contributions
    edocc=   7.74394233E+00     enl0=  -1.08117774E+00   enl1=   1.43432449E+00
 1-9 gives the relaxation energy (to be shifted if some occ is /=2.0)
   erelax=  -2.27767207E+01
  No Ewald or frozen-wf contrib.: the relaxation energy is the total one
 2DEtotal=   -0.2277672067E+02 Ha. Also 2DEtotal=   -0.619786089165E+03 eV
    (  non-var. 2DEtotal :   -2.2776720668E+01 Ha)

 Perturbation wavevector (in red.coord.)   0.000000  0.000000  0.000000
 Perturbation : derivative vs k along direction   2
 The set of symmetries contains only one element for this perturbation.
 symkpt : not enough symmetry to change the number of k points.

[...]

 Perturbation wavevector (in red.coord.)   0.000000  0.000000  0.000000
 Perturbation : derivative vs k along direction   3
 The set of symmetries contains only one element for this perturbation.
 symkpt : not enough symmetry to change the number of k points.

-inwffil : will read wavefunctions from disk file /scratch/users/j/a/jabreu/flow_simple_6atoms/flow/w150/t1/indata/in_WFK

 Initialisation of the first-order wave-functions :
  ireadwf=   0

--- !BeginCycle
iteration_state: {dtset: 1, }
solver: {iscf: 7, nstep: 1000, nline: 4, wfoptalg: 0, }
tolerances: {tolwfr: 1.00E-20, }
...

     iter   2DEtotal(Ha)        deltaE(Ha) residm    vres2
-ETOT  1  -75.967302983633     -7.597E+01 2.591E-02 0.000E+00
 ETOT  2  -75.984047937760     -1.674E-02 2.070E-04 0.000E+00
 ETOT  3  -75.984056220082     -8.282E-06 9.424E-09 0.000E+00
 ETOT  4  -75.984056226062     -5.980E-09 3.252E-11 0.000E+00
 ETOT  5  -75.984056226069     -6.594E-12 1.620E-14 0.000E+00
 ETOT  6  -75.984056226069     -5.684E-14 1.041E-16 0.000E+00
 ETOT  7  -75.984056226069     -8.527E-14 2.459E-18 0.000E+00
 ETOT  8  -75.984056226069     -2.842E-14 9.837E-21 0.000E+00

 At SCF step    8   max residual=  9.84E-21 < tolwfr=  1.00E-20 =>converged.

 ----iterations are completed or convergence reached----

 dfpt_looppert: DFPT cycle converged with prtwf=-1. Will skip output of the 1st-order WFK file.
 dfpt_looppert : ek2=    9.8815299892E+01
          f-sum rule ratio=    1.6439619245E+00
 prteigrs : about to open file /scratch/users/j/a/jabreu/flow_simple_6atoms/flow/w150/t1/tmpdata/tmp_1WF1_EIG
 Expectation of eigenvalue derivatives (hartree) for nkpt=   1  k points:
  (in case of degenerate eigenvalues, averaged derivative)
 kpt#   1, nband= 25, wtk=  1.00000, kpt=  0.0000  0.0000  0.0000 (reduced coord)
  -0.00000   -0.00000   -0.00000    0.00000   -0.00000   -0.00000   -0.00000    0.00000
   0.00000    0.00000    0.00000    0.00000    0.00000   -0.00000   -0.00000    0.00000
  -0.00000    0.00000    0.00000    0.00000    0.00000   -0.00000    0.00000    0.00000
   0.00037

 Eight components of 2nd-order total energy (hartree) are
 1,2,3: 0th-order hamiltonian combined with 1st-order wavefunctions
     kin0=   6.17437213E+01 eigvalue=  -4.19046069E+00  local=  -1.92282954E+01
 4,5,6: 1st-order hamiltonian combined with 1st and 0th-order wfs
     kin1=  -1.62448591E+02  Hartree=   0.00000000E+00     xc=   0.00000000E+00
 7,8,9: eventually, occupation + non-local contributions
    edocc=   4.13884029E+01     enl0=  -3.72931192E+00   enl1=   1.04804781E+01
 1-9 gives the relaxation energy (to be shifted if some occ is /=2.0)
   erelax=  -7.59840562E+01
  No Ewald or frozen-wf contrib.: the relaxation energy is the total one
 2DEtotal=   -0.7598405623E+02 Ha. Also 2DEtotal=   -0.206763132121E+04 eV
    (  non-var. 2DEtotal :   -7.5984056226E+01 Ha)

 CALCULATION OF EFFECTIVE MASSES
 NOTE : Additional infos (eff. mass eigenvalues, eigenvectors and, if degenerate, average mass) are available in stdout.

 K-point ( 0.000, 0.000, 0.000) | band =    16
 Effective mass tensor:
             -1.0705560305             -0.0000027349             -0.0000007640
             -0.0000027349             -1.0705481984             -0.0000002829
             -0.0000007640             -0.0000002829             -1.7695194918
 Effective mass tensor eigenvalues:
             -1.7695194918             -1.0705568910             -1.0705473379
 Angular average effective mass 1/(<1/m>)=  -1.2328834336
 Angular average effective mass for Frohlich model (<m**0.5>)**2=  -1.2517913766
 Effective masses along directions: (cart. coord. / red. coord. -> eff. mass)
    1:   1.000000  0.000000  0.000000 /   1.000000  0.000000  0.000000 ->  -1.0705560305
    2:   0.000000  1.000000  0.000000 /   0.000000  1.000000  0.000000 ->  -1.0705481984
    3:   0.000000  0.000000  1.000000 /   0.000000  0.000000  1.000000 ->  -1.7695194918
    4:   0.577350  0.577350  0.577350 /   0.644380  0.644380  0.411764 ->  -1.2328864117
    5:   0.000000  0.707107  0.707107 /   0.000000  0.842651  0.538460 ->  -1.3340219234
    6:   0.707107  0.000000  0.707107 /   0.842651  0.000000  0.538460 ->  -1.3340284562
    7:   0.707107  0.707107  0.000000 /   0.707107  0.707107  0.000000 ->  -1.0705548493

 K-point ( 0.000, 0.000, 0.000) | band =    17
 Effective mass tensor:
              0.4851832206              0.0000000451             -0.0000000061
              0.0000000451              0.4851831563             -0.0000000088
             -0.0000000061             -0.0000000088              0.3817943895
 Effective mass tensor eigenvalues:
              0.3817943895              0.4851831330              0.4851832439
 Angular average effective mass 1/(<1/m>)=   0.4450137192
 Angular average effective mass for Frohlich model (<m**0.5>)**2=   0.4467880175
 Effective masses along directions: (cart. coord. / red. coord. -> eff. mass)
    1:   1.000000  0.000000  0.000000 /   1.000000  0.000000  0.000000 ->   0.4851832206
    2:   0.000000  1.000000  0.000000 /   0.000000  1.000000  0.000000 ->   0.4851831563
    3:   0.000000  0.000000  1.000000 /   0.000000  0.000000  1.000000 ->   0.3817943895
    4:   0.577350  0.577350  0.577350 /   0.644380  0.644380  0.411764 ->   0.4450137338
    5:   0.000000  0.707107  0.707107 /   0.000000  0.842651  0.538460 ->   0.4273241079
    6:   0.707107  0.000000  0.707107 /   0.842651  0.000000  0.538460 ->   0.4273241355
    7:   0.707107  0.707107  0.000000 /   0.707107  0.707107  0.000000 ->   0.4851832336

 END OF EFFECTIVE MASSES SECTION

 ---- first-order wavefunction calculations are completed ----

 Total localisation tensor (bohr^2) in cartesian coordinates
  WARNING : still subject to testing - especially symmetries.
      direction              matrix element
   alpha     beta       real part   imaginary part
     1        1       0.7837850257    0.0000000000
     1        2       0.0000000000    0.0000000000
     1        3       0.0000000000    0.0000000000
     2        1       0.0000000000    0.0000000000
     2        2       0.7837859025    0.0000000000
     2        3       0.0000000000    0.0000000000
     3        1       0.0000000000    0.0000000000
     3        2       0.0000000000    0.0000000000
     3        3       1.2940356866    0.0000000000

 respfn : d/dk was computed, but no 2DTE, so no DDB output.

== END DATASET(S) ==============================================================

 -outvars: echo values of variables after computation  --------
            acell      1.0000000000E+00  1.0000000000E+00  1.0000000000E+00 Bohr
              amu      2.80855000E+01  1.59994000E+01
             ecut      4.40000000E+01 Hartree
           etotal     -7.5984056226E+01
            fcart      0.0000000000E+00  0.0000000000E+00  0.0000000000E+00
                       0.0000000000E+00  0.0000000000E+00  0.0000000000E+00
                       0.0000000000E+00  0.0000000000E+00  0.0000000000E+00
                       0.0000000000E+00  0.0000000000E+00  0.0000000000E+00
                       0.0000000000E+00  0.0000000000E+00  0.0000000000E+00
                       0.0000000000E+00  0.0000000000E+00  0.0000000000E+00
-          fftalg         512
           irdden           1
           irdwfk           1
           istwfk        1
              ixc     -116133
           kptopt           0
P           mkmem           1
P          mkqmem           1
P          mk1mem           1
            natom           6
            nband          25
           nbdbuf           4
            ngfft          48      48      32
             nkpt           1
            nstep        1000
             nsym          16
           ntypat           2
              occ      2.000000  2.000000  2.000000  2.000000  2.000000  2.000000
                       2.000000  2.000000  2.000000  2.000000  2.000000  2.000000
                       2.000000  2.000000  2.000000  2.000000  0.000000  0.000000
                       0.000000  0.000000  0.000000  0.000000  0.000000  0.000000
                       0.000000
        optdriver           1
            prtwf          -1
            rfdir           1       1       1
           rfelfd           2
            rprim      7.9131891807E+00  0.0000000000E+00  0.0000000000E+00
                       0.0000000000E+00  7.9131891807E+00  0.0000000000E+00
                       0.0000000000E+00  0.0000000000E+00  5.0565902024E+00
          spgroup         136
           strten      0.0000000000E+00  0.0000000000E+00  0.0000000000E+00
                       0.0000000000E+00  0.0000000000E+00  0.0000000000E+00
           symrel      1  0  0   0  1  0   0  0  1      -1  0  0   0 -1  0   0  0 -1
                      -1  0  0   0  1  0   0  0 -1       1  0  0   0 -1  0   0  0  1
                      -1  0  0   0 -1  0   0  0  1       1  0  0   0  1  0   0  0 -1
                       1  0  0   0 -1  0   0  0 -1      -1  0  0   0  1  0   0  0  1
                       0  1  0   1  0  0   0  0  1       0 -1  0  -1  0  0   0  0 -1
                       0 -1  0   1  0  0   0  0 -1       0  1  0  -1  0  0   0  0  1
                       0 -1  0  -1  0  0   0  0  1       0  1  0   1  0  0   0  0 -1
                       0  1  0  -1  0  0   0  0 -1       0 -1  0   1  0  0   0  0  1
            tnons      0.0000000  0.0000000  0.0000000     0.0000000  0.0000000 -0.0000000
                       0.5000000  0.5000000  0.5000000     0.5000000  0.5000000  0.5000000
                       0.0000000  0.0000000  0.0000000     0.0000000  0.0000000 -0.0000000
                       0.5000000  0.5000000  0.5000000     0.5000000  0.5000000  0.5000000
                       0.0000000  0.0000000  0.0000000     0.0000000  0.0000000 -0.0000000
                       0.5000000  0.5000000  0.5000000     0.5000000  0.5000000  0.5000000
                       0.0000000  0.0000000  0.0000000     0.0000000  0.0000000 -0.0000000
                       0.5000000  0.5000000  0.5000000     0.5000000  0.5000000  0.5000000
           tolwfr      1.00000000E-20
            typat      1  1  2  2  2  2
           useylm           1
           xangst      2.0937396808E+00  2.0937396808E+00  1.3379161441E+00
                       0.0000000000E+00  0.0000000000E+00  0.0000000000E+00
                       2.9060436773E+00  2.9060436773E+00  0.0000000000E+00
                       8.1230399650E-01  3.3751753652E+00  1.3379161441E+00
                       1.2814356843E+00  1.2814356843E+00  0.0000000000E+00
                       3.3751753652E+00  8.1230399650E-01  1.3379161441E+00
            xcart      3.9565945903E+00  3.9565945903E+00  2.5282951012E+00
                       0.0000000000E+00  0.0000000000E+00  0.0000000000E+00
                       5.4916266804E+00  5.4916266804E+00  0.0000000000E+00
                       1.5350320900E+00  6.3781570907E+00  2.5282951012E+00
                       2.4215625003E+00  2.4215625003E+00  0.0000000000E+00
                       6.3781570907E+00  1.5350320900E+00  2.5282951012E+00
             xred      5.0000000000E-01  5.0000000000E-01  5.0000000000E-01
                       0.0000000000E+00  0.0000000000E+00  0.0000000000E+00
                       6.9398400000E-01  6.9398400000E-01  0.0000000000E+00
                       1.9398400000E-01  8.0601600000E-01  5.0000000000E-01
                       3.0601600000E-01  3.0601600000E-01  0.0000000000E+00
                       8.0601600000E-01  1.9398400000E-01  5.0000000000E-01
            znucl       14.00000    8.00000

- Timing analysis has been suppressed with timopt=0

 Suggested references for the acknowledgment of ABINIT usage.

 Calculation completed.
.Delivered   6 WARNINGs and   5 COMMENTs to log file.