.Version 9.5.2 of ABINIT

 ABINIT is a project of the Universite Catholique de Louvain,
 Corning Inc. and other collaborators, see ~abinit/doc/developers/contributors.txt .
 acknowledgments of the ABINIT effort.

.Starting date : Mon 24 May 2021.
- ( at 18h23 )

- input  file    -> /scratch/users/j/a/jabreu/flow_simple_10atoms/flow/w407/t1/run.abi
- output file    -> /scratch/users/j/a/jabreu/flow_simple_10atoms/flow/w407/t1/run.abo
- root for input  files -> /scratch/users/j/a/jabreu/flow_simple_10atoms/flow/w407/t1/indata/in
- root for output files -> /scratch/users/j/a/jabreu/flow_simple_10atoms/flow/w407/t1/outdata/out

 Symmetries : space group P-3 m 1 (#164); Bravais hP (primitive hexag.)
     intxc =       0      iscf =       7    lmnmax =      32     lnmax =       8
     mgfft =      72  mpssoang =       4    mqgrid =    3001     natom =      10
  nloc_mem =       1    nspden =       1   nspinor =       1    nsppol =       1
      nsym =      12    n1xccc =    2501    ntypat =       4    occopt =       1
   xclevel =       2
-    mband =          47        mffmem =           1         mkmem =           2
-   mkqmem =           2        mk1mem =           2           mpw =       14715
      nfft =      311040          nkpt =           2
  Rough estimation (10% accuracy) of disk space for files :

------------- Echo of variables that govern the present computation ------------
-
- outvars: echo of selected default values
-   iomode0 =  0 , fftalg0 =512 , wfoptalg0 =  0
-
- outvars: echo of global parameters not present in the input file
-  max_nthreads =    0
-
 -outvars: echo values of preprocessed input variables --------
            acell      1.0000000000E+00  1.0000000000E+00  1.0000000000E+00 Bohr
              amu      1.32905430E+02  6.94100000E+00  6.97230000E+01
                       1.89984032E+01
             ecut      4.20000000E+01 Hartree
-          fftalg         512
           irdden           1
           irdwfk           1
           istwfk        0    1
              ixc     -116133
              kpt      1.38888889E-01  0.00000000E+00  0.00000000E+00
                       0.00000000E+00  0.00000000E+00  0.00000000E+00
           kptopt           0
P           mkmem           2
P          mkqmem           2
P          mk1mem           2
            natom          10
            nband          47
           nbdbuf           4
            ngfft          72      72      60
             nkpt           2
            nstep        2000
             nsym          12
           ntypat           4
              occ      2.000000  2.000000  2.000000  2.000000  2.000000  2.000000
                       2.000000  2.000000  2.000000  2.000000  2.000000  2.000000
                       2.000000  2.000000  2.000000  2.000000  2.000000  2.000000
                       2.000000  2.000000  2.000000  2.000000  2.000000  2.000000
                       2.000000  2.000000  2.000000  2.000000  2.000000  2.000000
                       2.000000  2.000000  2.000000  2.000000  2.000000  2.000000
                       2.000000  2.000000  0.000000  0.000000  0.000000  0.000000
                       0.000000  0.000000  0.000000  0.000000  0.000000
        optdriver           1
            prtwf          -1
            rfdir           1       1       1
           rfelfd           2
            rprim      1.1694207087E+01  0.0000000000E+00  0.0000000000E+00
                      -5.8471035435E+00  1.0127480414E+01  0.0000000000E+00
                       0.0000000000E+00  0.0000000000E+00  9.5764859211E+00
          spgroup         164
           symrel      1  0  0   0  1  0   0  0  1      -1  0  0   0 -1  0   0  0 -1
                      -1  0  0   1  1  0   0  0  1       1  0  0  -1 -1  0   0  0 -1
                       0  1  0  -1 -1  0   0  0  1       0 -1  0   1  1  0   0  0 -1
                       0 -1  0  -1  0  0   0  0  1       0  1  0   1  0  0   0  0 -1
                      -1 -1  0   1  0  0   0  0  1       1  1  0  -1  0  0   0  0 -1
                       1  1  0   0 -1  0   0  0  1      -1 -1  0   0  1  0   0  0 -1
           tolwfr      1.00000000E-20
            typat      1  1  2  3  4  4  4  4  4  4
           useylm           1
              wtk        0.50000    0.50000
           xangst      3.0941539315E+00  1.7864106052E+00  3.7080155582E+00
                      -4.7000377687E-16  3.5728212105E+00  1.3596425296E+00
                       0.0000000000E+00  0.0000000000E+00  2.5338290439E+00
                       0.0000000000E+00  0.0000000000E+00 -2.8131153450E-16
                       3.0941539315E+00  3.8560709032E+00  1.1716121440E+00
                       1.3017755362E+00  7.5158045625E-01  1.1716121440E+00
                       4.8865323268E+00  7.5158045625E-01  1.1716121440E+00
                       1.7923783953E+00  4.6076513595E+00  3.8960459439E+00
                      -1.7923783953E+00  4.6076513595E+00  3.8960459439E+00
                       0.0000000000E+00  1.5031609125E+00  3.8960459439E+00
            xcart      5.8471035435E+00  3.3758268048E+00  7.0071339014E+00
                      -8.8817841970E-16  6.7516536096E+00  2.5693520197E+00
                       0.0000000000E+00  0.0000000000E+00  4.7882429605E+00
                       0.0000000000E+00  0.0000000000E+00 -5.3160175823E-16
                       5.8471035435E+00  7.2869179561E+00  2.2140260860E+00
                       2.4599992499E+00  1.4202812291E+00  2.2140260860E+00
                       9.2342078371E+00  1.4202812291E+00  2.2140260860E+00
                       3.3871042936E+00  8.7071991853E+00  7.3624598351E+00
                      -3.3871042936E+00  8.7071991853E+00  7.3624598351E+00
                       0.0000000000E+00  2.8405624583E+00  7.3624598351E+00
             xred      6.6666666667E-01  3.3333333333E-01  7.3170200000E-01
                       3.3333333333E-01  6.6666666667E-01  2.6829800000E-01
                       0.0000000000E+00  0.0000000000E+00  5.0000000000E-01
                       0.0000000000E+00  0.0000000000E+00 -5.5511151231E-17
                       8.5975966667E-01  7.1951933333E-01  2.3119400000E-01
                       2.8048066667E-01  1.4024033333E-01  2.3119400000E-01
                       8.5975966667E-01  1.4024033333E-01  2.3119400000E-01
                       7.1951933333E-01  8.5975966667E-01  7.6880600000E-01
                       1.4024033333E-01  8.5975966667E-01  7.6880600000E-01
                       1.4024033333E-01  2.8048066667E-01  7.6880600000E-01
            znucl       55.00000    3.00000   31.00000    9.00000

 chkinp: Checking input parameters for consistency.

== DATASET  1 ==================================================================
-   mpi_nproc: 1, omp_nthreads: -1 (-1 if OMP is not activated)

--- !DatasetInfo
iteration_state: {dtset: 1, }
dimensions: {natom: 10, nkpt: 2, mband: 47, nsppol: 1, nspinor: 1, nspden: 1, mpw: 14715, }
cutoff_energies: {ecut:  42.0, pawecutdg:  -1.0, }
electrons: {nelect:   7.60000000E+01, charge:   0.00000000E+00, occopt:   1.00000000E+00, tsmear:   1.00000000E-02, }
meta: {optdriver: 1, rfelfd: 2, }
...

 Real(R)+Recip(G) space primitive vectors, cartesian coordinates (Bohr,Bohr^-1):
 R(1)= 11.6942071  0.0000000  0.0000000  G(1)=  0.0855124  0.0493706  0.0000000
 R(2)= -5.8471035 10.1274804  0.0000000  G(2)=  0.0000000  0.0987412  0.0000000
 R(3)=  0.0000000  0.0000000  9.5764859  G(3)=  0.0000000  0.0000000  0.1044224
 Unit cell volume ucvol=  1.1341706E+03 bohr^3
 Angles (23,13,12)=  9.00000000E+01  9.00000000E+01  1.20000000E+02 degrees

 getcut: wavevector=  0.0000  0.0000  0.0000  ngfft=  72  72  60
         ecut(hartree)=     42.000   => boxcut(ratio)=   2.11043

--- Pseudopotential description ------------------------------------------------
- pspini: atom type   1  psp file is /scratch/users/j/a/jabreu/pseudos/PBEsol/Cs.psp8
- pspatm: opening atomic psp file    /scratch/users/j/a/jabreu/pseudos/PBEsol/Cs.psp8
- Cs    ONCVPSP-3.3.0  r_core=   2.27353   1.85623   2.01788   1.90105
- 55.00000   9.00000    180112                znucl, zion, pspdat
    8 -116133    3    4       600   0.00000   pspcod,pspxc,lmax,lloc,mmax,r2well
    5.99000000000000    5.00000000000000    0.00000000000000   rchrg,fchrg,qchrg
     nproj     2     2     2     2
     extension_switch     1
  pspatm : epsatm=   22.12462445
         --- l  ekb(1:nproj) -->
             0    6.214110    0.767882
             1    6.311966    0.793598
             2    3.769790    0.913105
             3   -9.247129   -2.432478
 pspatm: atomic psp has been read  and splines computed

- pspini: atom type   2  psp file is /scratch/users/j/a/jabreu/pseudos/PBEsol/Li.psp8
- pspatm: opening atomic psp file    /scratch/users/j/a/jabreu/pseudos/PBEsol/Li.psp8
- Li    ONCVPSP-3.3.0  r_core=   1.40824   1.10935
-  3.00000   3.00000    180112                znucl, zion, pspdat
    8 -116133    1    4       400   0.00000   pspcod,pspxc,lmax,lloc,mmax,r2well
    3.99000000000000    0.00000000000000    0.00000000000000   rchrg,fchrg,qchrg
     nproj     2     2
     extension_switch     1
  pspatm : epsatm=    2.60859637
         --- l  ekb(1:nproj) -->
             0   -4.855856   -1.482423
             1   -2.171544   -0.427615
 pspatm: atomic psp has been read  and splines computed

[...]

- pspini: atom type   4  psp file is /scratch/users/j/a/jabreu/pseudos/PBEsol/F.psp8
- pspatm: opening atomic psp file    /scratch/users/j/a/jabreu/pseudos/PBEsol/F.psp8
- F     ONCVPSP-3.3.0  r_core=   1.30942   1.45782   1.60379
-  9.00000   7.00000    180112                znucl, zion, pspdat
    8 -116133    2    4       600   0.00000   pspcod,pspxc,lmax,lloc,mmax,r2well
    5.99000000000000    2.50000000000000    0.00000000000000   rchrg,fchrg,qchrg
     nproj     2     2     1
     extension_switch     1
  pspatm : epsatm=    4.89824824
         --- l  ekb(1:nproj) -->
             0    6.506434    1.065875
             1   -3.978753   -1.295852
             2   -2.394754
 pspatm: atomic psp has been read  and splines computed

   7.65753392E+03                                ecore*ucvol(ha*bohr**3)

 ==>  initialize data related to q vector <==

 The list of irreducible perturbations for this q vector is:
    1)    idir= 1    ipert=  11
    2)    idir= 2    ipert=  11
    3)    idir= 3    ipert=  11

 Perturbation wavevector (in red.coord.)   0.000000  0.000000  0.000000
 Perturbation : derivative vs k along direction   1

 dfpt_looppert : COMMENT -
  In a d/dk calculation, iscf is set to -3 automatically.
 The set of symmetries contains only one element for this perturbation.
 symkpt : not enough symmetry to change the number of k points.

 Initialisation of the first-order wave-functions :
  ireadwf=   0

--- !BeginCycle
iteration_state: {dtset: 1, }
solver: {iscf: 7, nstep: 2000, nline: 4, wfoptalg: 0, }
tolerances: {tolwfr: 1.00E-20, }
...

     iter   2DEtotal(Ha)        deltaE(Ha) residm    vres2
-ETOT  1  -40.196228822632     -4.020E+01 4.309E-02 0.000E+00
 ETOT  2  -40.241374906072     -4.515E-02 2.131E-03 0.000E+00
 ETOT  3  -40.241988620338     -6.137E-04 2.050E-04 0.000E+00
[...]
 ETOT 23  -40.242017642373      0.000E+00 2.682E-17 0.000E+00
 ETOT 24  -40.242017642373     -1.421E-14 5.688E-18 0.000E+00
 ETOT 25  -40.242017642373      1.421E-14 1.460E-18 0.000E+00
 ETOT 26  -40.242017642373     -7.105E-15 3.073E-19 0.000E+00
 ETOT 27  -40.242017642373      2.132E-14 7.957E-20 0.000E+00
 ETOT 28  -40.242017642373      0.000E+00 1.663E-20 0.000E+00
 ETOT 29  -40.242017642373      0.000E+00 9.825E-21 0.000E+00

 At SCF step   29   max residual=  9.83E-21 < tolwfr=  1.00E-20 =>converged.

 ----iterations are completed or convergence reached----

 dfpt_looppert: DFPT cycle converged with prtwf=-1. Will skip output of the 1st-order WFK file.
 dfpt_looppert : ek2=    5.8506012649E+01
          f-sum rule ratio=    1.0471596342E+00
 prteigrs : about to open file /scratch/users/j/a/jabreu/flow_simple_10atoms/flow/w407/t1/tmpdata/tmp_1WF1_EIG
 Expectation of eigenvalue derivatives (hartree) for nkpt=   2  k points:
  (in case of degenerate eigenvalues, averaged derivative)
 kpt#   1, nband= 47, wtk=  0.50000, kpt=  0.1389  0.0000  0.0000 (reduced coord)
   0.00000    0.00393    0.00129   -0.00373   -0.00030   -0.00116    0.00014    0.00004
  -0.00283    0.00001    0.00013    0.00027   -0.00035    0.00003    0.01501    0.01232
   0.03688    0.00959    0.01278   -0.00150   -0.01153    0.01405   -0.00386    0.00559
  -0.00879   -0.00940   -0.00492   -0.04518   -0.02588   -0.00997   -0.00132   -0.00402
   0.00126   -0.04316   -0.00500   -0.01913   -0.00226   -0.00014    0.09395    0.05227
  -0.10836    0.00463    0.03579    0.04494    0.01828    0.08899    0.15892
 prteigrs : prtvol=0 or 1, do not print more k-points.

 Eight components of 2nd-order total energy (hartree) are
 1,2,3: 0th-order hamiltonian combined with 1st-order wavefunctions
     kin0=   4.86549784E+01 eigvalue=   2.89118164E+00  local=  -2.09540531E+01
 4,5,6: 1st-order hamiltonian combined with 1st and 0th-order wfs
     kin1=  -6.12651348E+01  Hartree=   0.00000000E+00     xc=   0.00000000E+00
 7,8,9: eventually, occupation + non-local contributions
    edocc=   6.33737246E+00     enl0=   3.31253823E+00   enl1=  -1.92189005E+01
 1-9 gives the relaxation energy (to be shifted if some occ is /=2.0)
   erelax=  -4.02420176E+01
  No Ewald or frozen-wf contrib.: the relaxation energy is the total one
 2DEtotal=   -0.4024201764E+02 Ha. Also 2DEtotal=   -0.109504098937E+04 eV
    (  non-var. 2DEtotal :   -4.0242017642E+01 Ha)

 Perturbation wavevector (in red.coord.)   0.000000  0.000000  0.000000
 Perturbation : derivative vs k along direction   2
 The set of symmetries contains only one element for this perturbation.
 symkpt : not enough symmetry to change the number of k points.

[...]

 Perturbation wavevector (in red.coord.)   0.000000  0.000000  0.000000
 Perturbation : derivative vs k along direction   3
 The set of symmetries contains only one element for this perturbation.
 symkpt : not enough symmetry to change the number of k points.

 Initialisation of the first-order wave-functions :
  ireadwf=   0

--- !BeginCycle
iteration_state: {dtset: 1, }
solver: {iscf: 7, nstep: 2000, nline: 4, wfoptalg: 0, }
tolerances: {tolwfr: 1.00E-20, }
...

     iter   2DEtotal(Ha)        deltaE(Ha) residm    vres2
-ETOT  1  -43.739770051281     -4.374E+01 2.230E-02 0.000E+00
 ETOT  2  -43.778202026036     -3.843E-02 1.694E-03 0.000E+00
 ETOT  3  -43.778602103025     -4.001E-04 1.956E-04 0.000E+00
 ETOT  4  -43.778622145607     -2.004E-05 3.231E-05 0.000E+00
 ETOT  5  -43.778623634662     -1.489E-06 7.411E-06 0.000E+00
 ETOT  6  -43.778623766267     -1.316E-07 1.446E-06 0.000E+00
 ETOT  7  -43.778623778848     -1.258E-08 3.777E-07 0.000E+00
 ETOT  8  -43.778623780115     -1.267E-09 7.247E-08 0.000E+00
 ETOT  9  -43.778623780247     -1.321E-10 1.985E-08 0.000E+00
 ETOT 10  -43.778623780261     -1.410E-11 3.724E-09 0.000E+00
 ETOT 11  -43.778623780263     -1.542E-12 1.032E-09 0.000E+00
 ETOT 12  -43.778623780263     -1.847E-13 1.916E-10 0.000E+00
 ETOT 13  -43.778623780263     -7.105E-15 5.307E-11 0.000E+00
 ETOT 14  -43.778623780263      2.132E-14 9.835E-12 0.000E+00
 ETOT 15  -43.778623780263     -4.263E-14 2.708E-12 0.000E+00
 ETOT 16  -43.778623780263      2.842E-14 5.034E-13 0.000E+00
 ETOT 17  -43.778623780263      0.000E+00 1.376E-13 0.000E+00
 ETOT 18  -43.778623780263     -7.105E-15 2.571E-14 0.000E+00
 ETOT 19  -43.778623780263      1.421E-14 6.979E-15 0.000E+00
 ETOT 20  -43.778623780263     -7.105E-15 1.312E-15 0.000E+00
 ETOT 21  -43.778623780263      1.421E-14 3.535E-16 0.000E+00
 ETOT 22  -43.778623780263      0.000E+00 6.691E-17 0.000E+00
 ETOT 23  -43.778623780263     -7.105E-15 1.789E-17 0.000E+00
 ETOT 24  -43.778623780263      0.000E+00 3.411E-18 0.000E+00
 ETOT 25  -43.778623780263      7.105E-15 9.057E-19 0.000E+00
 ETOT 26  -43.778623780263      0.000E+00 1.739E-19 0.000E+00
 ETOT 27  -43.778623780263      0.000E+00 4.585E-20 0.000E+00
 ETOT 28  -43.778623780263      0.000E+00 9.897E-21 0.000E+00

 At SCF step   28   max residual=  9.90E-21 < tolwfr=  1.00E-20 =>converged.

 ----iterations are completed or convergence reached----

 dfpt_looppert: DFPT cycle converged with prtwf=-1. Will skip output of the 1st-order WFK file.
 dfpt_looppert : ek2=    6.5432117582E+01
          f-sum rule ratio=    1.0074238381E+00
 prteigrs : about to open file /scratch/users/j/a/jabreu/flow_simple_10atoms/flow/w407/t1/tmpdata/tmp_1WF1_EIG
 Expectation of eigenvalue derivatives (hartree) for nkpt=   2  k points:
  (in case of degenerate eigenvalues, averaged derivative)
 kpt#   1, nband= 47, wtk=  0.50000, kpt=  0.1389  0.0000  0.0000 (reduced coord)
   0.00000   -0.00000    0.00000    0.00005   -0.00005   -0.00005    0.00005    0.00003
  -0.00003    0.00000    0.00000    0.00000    0.00006   -0.00006   -0.00092    0.00172
  -0.00067    0.00063    0.00316   -0.00023   -0.00437   -0.00035   -0.00713    0.00881
  -0.00091   -0.00188    0.00291    0.00208   -0.00172   -0.00031   -0.00077    0.00437
  -0.00464   -0.00498    0.00593    0.00447   -0.00528    0.00005   -0.00040   -0.00068
   0.02932   -0.04951   -0.02046    0.07803   -0.02128   -0.03124    0.01593
 prteigrs : prtvol=0 or 1, do not print more k-points.

 Eight components of 2nd-order total energy (hartree) are
 1,2,3: 0th-order hamiltonian combined with 1st-order wavefunctions
     kin0=   5.40683060E+01 eigvalue=   3.34192358E+00  local=  -2.30519749E+01
 4,5,6: 1st-order hamiltonian combined with 1st and 0th-order wfs
     kin1=  -6.59178750E+01  Hartree=   0.00000000E+00     xc=   0.00000000E+00
 7,8,9: eventually, occupation + non-local contributions
    edocc=   6.03112820E+00     enl0=   3.38924088E+00   enl1=  -2.16393725E+01
 1-9 gives the relaxation energy (to be shifted if some occ is /=2.0)
   erelax=  -4.37786238E+01
  No Ewald or frozen-wf contrib.: the relaxation energy is the total one
 2DEtotal=   -0.4377862378E+02 Ha. Also 2DEtotal=   -0.119127693655E+04 eV
    (  non-var. 2DEtotal :   -4.3778623780E+01 Ha)

 CALCULATION OF EFFECTIVE MASSES
 NOTE : Additional infos (eff. mass eigenvalues, eigenvectors and, if degenerate, average mass) are available in stdout.

 K-point ( 0.139, 0.000, 0.000) | band =    38
 Effective mass tensor:
            -29.4790931109             14.8016787115             -0.2985858873
             14.8016787115            -46.5731637324             -0.1707102197
             -0.2985858873             -0.1707102197             -6.5050347999
 Effective mass tensor eigenvalues:
            -55.1182759387            -20.9421746361             -6.4968410684
 Angular average effective mass 1/(<1/m>)= -13.6478841031
 Angular average effective mass for Frohlich model (<m**0.5>)**2= -16.8600800107
 Effective masses along directions: (cart. coord. / red. coord. -> eff. mass)
    1:   1.000000  0.000000  0.000000 /   0.894427 -0.447214  0.000000 -> -24.7557481903
    2:   0.000000  1.000000  0.000000 /   0.000000  1.000000  0.000000 -> -39.1253160522
    3:   0.000000  0.000000  1.000000 /   0.000000  0.000000  1.000000 ->  -6.4993839769
    4:   0.577350  0.577350  0.577350 /   0.744408  0.272472  0.609602 -> -12.5731770554
    5:   0.000000  0.707107  0.707107 /   0.000000  0.726596  0.687065 -> -11.3058946048
    6:   0.707107  0.000000  0.707107 /   0.721573 -0.360786  0.590902 -> -10.5333636538
    7:   0.707107  0.707107  0.000000 /   0.939071  0.343724  0.000000 -> -21.8231666625

 K-point ( 0.000, 0.000, 0.000) | band =    39
 Effective mass tensor:
              0.5220930515             -0.0000000001             -0.0000000001
             -0.0000000001              0.5220930514              0.0000000001
             -0.0000000001              0.0000000001              0.5007498621
 Effective mass tensor eigenvalues:
              0.5007498621              0.5220930514              0.5220930516
 Angular average effective mass 1/(<1/m>)=   0.5147793315
 Angular average effective mass for Frohlich model (<m**0.5>)**2=   0.5148395549
 Effective masses along directions: (cart. coord. / red. coord. -> eff. mass)
    1:   1.000000  0.000000  0.000000 /   0.894427 -0.447214  0.000000 ->   0.5220930515
    2:   0.000000  1.000000  0.000000 /   0.000000  1.000000  0.000000 ->   0.5220930514
    3:   0.000000  0.000000  1.000000 /   0.000000  0.000000  1.000000 ->   0.5007498621
    4:   0.577350  0.577350  0.577350 /   0.744408  0.272472  0.609602 ->   0.5147793314
    5:   0.000000  0.707107  0.707107 /   0.000000  0.726596  0.687065 ->   0.5111987776
    6:   0.707107  0.000000  0.707107 /   0.721573 -0.360786  0.590902 ->   0.5111987775
    7:   0.707107  0.707107  0.000000 /   0.939071  0.343724  0.000000 ->   0.5220930514

 END OF EFFECTIVE MASSES SECTION

 ---- first-order wavefunction calculations are completed ----

 Total localisation tensor (bohr^2) in cartesian coordinates
  WARNING : still subject to testing - especially symmetries.
      direction              matrix element
   alpha     beta       real part   imaginary part
     1        1       1.0437267776    0.0000000000
     1        2      -0.3657939479    0.0000000000
     1        3       0.0000000000    0.0000000000
     2        1      -0.3657939479    0.0000000000
     2        2       0.6335737028    0.0000000000
     2        3       0.0000000000    0.0000000000
     3        1       0.0000000000    0.0000000000
     3        2       0.0000000000    0.0000000000
     3        3       0.5717569301    0.0000000000

 respfn : d/dk was computed, but no 2DTE, so no DDB output.

== END DATASET(S) ==============================================================

 -outvars: echo values of variables after computation  --------
            acell      1.0000000000E+00  1.0000000000E+00  1.0000000000E+00 Bohr
              amu      1.32905430E+02  6.94100000E+00  6.97230000E+01
                       1.89984032E+01
             ecut      4.20000000E+01 Hartree
           etotal     -4.3778623780E+01
            fcart      0.0000000000E+00  0.0000000000E+00  0.0000000000E+00
                       0.0000000000E+00  0.0000000000E+00  0.0000000000E+00
                       0.0000000000E+00  0.0000000000E+00  0.0000000000E+00
                       0.0000000000E+00  0.0000000000E+00  0.0000000000E+00
                       0.0000000000E+00  0.0000000000E+00  0.0000000000E+00
                       0.0000000000E+00  0.0000000000E+00  0.0000000000E+00
                       0.0000000000E+00  0.0000000000E+00  0.0000000000E+00
                       0.0000000000E+00  0.0000000000E+00  0.0000000000E+00
                       0.0000000000E+00  0.0000000000E+00  0.0000000000E+00
                       0.0000000000E+00  0.0000000000E+00  0.0000000000E+00
-          fftalg         512
           irdden           1
           irdwfk           1
           istwfk        0    1
              ixc     -116133
              kpt      1.38888889E-01  0.00000000E+00  0.00000000E+00
                       0.00000000E+00  0.00000000E+00  0.00000000E+00
           kptopt           0
P           mkmem           2
P          mkqmem           2
P          mk1mem           2
            natom          10
            nband          47
           nbdbuf           4
            ngfft          72      72      60
             nkpt           2
            nstep        2000
             nsym          12
           ntypat           4
              occ      2.000000  2.000000  2.000000  2.000000  2.000000  2.000000
                       2.000000  2.000000  2.000000  2.000000  2.000000  2.000000
                       2.000000  2.000000  2.000000  2.000000  2.000000  2.000000
                       2.000000  2.000000  2.000000  2.000000  2.000000  2.000000
                       2.000000  2.000000  2.000000  2.000000  2.000000  2.000000
                       2.000000  2.000000  2.000000  2.000000  2.000000  2.000000
                       2.000000  2.000000  0.000000  0.000000  0.000000  0.000000
                       0.000000  0.000000  0.000000  0.000000  0.000000
        optdriver           1
            prtwf          -1
            rfdir           1       1       1
           rfelfd           2
            rprim      1.1694207087E+01  0.0000000000E+00  0.0000000000E+00
                      -5.8471035435E+00  1.0127480414E+01  0.0000000000E+00
                       0.0000000000E+00  0.0000000000E+00  9.5764859211E+00
          spgroup         164
           strten      0.0000000000E+00  0.0000000000E+00  0.0000000000E+00
                       0.0000000000E+00  0.0000000000E+00  0.0000000000E+00
           symrel      1  0  0   0  1  0   0  0  1      -1  0  0   0 -1  0   0  0 -1
                      -1  0  0   1  1  0   0  0  1       1  0  0  -1 -1  0   0  0 -1
                       0  1  0  -1 -1  0   0  0  1       0 -1  0   1  1  0   0  0 -1
                       0 -1  0  -1  0  0   0  0  1       0  1  0   1  0  0   0  0 -1
                      -1 -1  0   1  0  0   0  0  1       1  1  0  -1  0  0   0  0 -1
                       1  1  0   0 -1  0   0  0  1      -1 -1  0   0  1  0   0  0 -1
           tolwfr      1.00000000E-20
            typat      1  1  2  3  4  4  4  4  4  4
           useylm           1
              wtk        0.50000    0.50000
           xangst      3.0941539315E+00  1.7864106052E+00  3.7080155582E+00
                      -4.7000377687E-16  3.5728212105E+00  1.3596425296E+00
                       0.0000000000E+00  0.0000000000E+00  2.5338290439E+00
                       0.0000000000E+00  0.0000000000E+00 -2.8131153450E-16
                       3.0941539315E+00  3.8560709032E+00  1.1716121440E+00
                       1.3017755362E+00  7.5158045625E-01  1.1716121440E+00
                       4.8865323268E+00  7.5158045625E-01  1.1716121440E+00
                       1.7923783953E+00  4.6076513595E+00  3.8960459439E+00
                      -1.7923783953E+00  4.6076513595E+00  3.8960459439E+00
                       0.0000000000E+00  1.5031609125E+00  3.8960459439E+00
            xcart      5.8471035435E+00  3.3758268048E+00  7.0071339014E+00
                      -8.8817841970E-16  6.7516536096E+00  2.5693520197E+00
                       0.0000000000E+00  0.0000000000E+00  4.7882429605E+00
                       0.0000000000E+00  0.0000000000E+00 -5.3160175823E-16
                       5.8471035435E+00  7.2869179561E+00  2.2140260860E+00
                       2.4599992499E+00  1.4202812291E+00  2.2140260860E+00
                       9.2342078371E+00  1.4202812291E+00  2.2140260860E+00
                       3.3871042936E+00  8.7071991853E+00  7.3624598351E+00
                      -3.3871042936E+00  8.7071991853E+00  7.3624598351E+00
                       0.0000000000E+00  2.8405624583E+00  7.3624598351E+00
             xred      6.6666666667E-01  3.3333333333E-01  7.3170200000E-01
                       3.3333333333E-01  6.6666666667E-01  2.6829800000E-01
                       0.0000000000E+00  0.0000000000E+00  5.0000000000E-01
                       0.0000000000E+00  0.0000000000E+00 -5.5511151231E-17
                       8.5975966667E-01  7.1951933333E-01  2.3119400000E-01
                       2.8048066667E-01  1.4024033333E-01  2.3119400000E-01
                       8.5975966667E-01  1.4024033333E-01  2.3119400000E-01
                       7.1951933333E-01  8.5975966667E-01  7.6880600000E-01
                       1.4024033333E-01  8.5975966667E-01  7.6880600000E-01
                       1.4024033333E-01  2.8048066667E-01  7.6880600000E-01
            znucl       55.00000    3.00000   31.00000    9.00000

- Timing analysis has been suppressed with timopt=0

 Suggested references for the acknowledgment of ABINIT usage.

 Calculation completed.
.Delivered   2 WARNINGs and   5 COMMENTs to log file.