.Version 9.5.2 of ABINIT

 ABINIT is a project of the Universite Catholique de Louvain,
 Corning Inc. and other collaborators, see ~abinit/doc/developers/contributors.txt .
 acknowledgments of the ABINIT effort.

.Starting date : Wed 26 May 2021.
- ( at 02h49 )

- input  file    -> /scratch/users/j/a/jabreu/flow_simple_11atoms/flow/w264/t1/run.abi
- output file    -> /scratch/users/j/a/jabreu/flow_simple_11atoms/flow/w264/t1/run.abo
- root for input  files -> /scratch/users/j/a/jabreu/flow_simple_11atoms/flow/w264/t1/indata/in
- root for output files -> /scratch/users/j/a/jabreu/flow_simple_11atoms/flow/w264/t1/outdata/out

 Symmetries : space group C2/c (# 15); Bravais mC (1-face-center monocl.)
     intxc =       0      iscf =       7    lmnmax =      18     lnmax =       6
     mgfft =      90  mpssoang =       3    mqgrid =    3603     natom =      12
  nloc_mem =       1    nspden =       1   nspinor =       1    nsppol =       1
      nsym =       4    n1xccc =    2501    ntypat =       4    occopt =       1
   xclevel =       2
-    mband =          37        mffmem =           1         mkmem =           1
-   mkqmem =           1        mk1mem =           1           mpw =       15922
      nfft =      324000          nkpt =           1
  Rough estimation (10% accuracy) of disk space for files :

------------- Echo of variables that govern the present computation ------------
-
- outvars: echo of selected default values
-   iomode0 =  0 , fftalg0 =512 , wfoptalg0 =  0
-
- outvars: echo of global parameters not present in the input file
-  max_nthreads =    0
-
 -outvars: echo values of preprocessed input variables --------
            acell      1.0000000000E+00  1.0000000000E+00  1.0000000000E+00 Bohr
              amu      3.90983000E+01  3.09737620E+01  1.00794000E+00
                       1.59994000E+01
             ecut      4.40000000E+01 Hartree
-          fftalg         512
           irdden           1
           irdwfk           1
              ixc     -116133
              kpt      5.00000000E-01 -5.00000000E-01  0.00000000E+00
           kptopt           0
P           mkmem           1
P          mkqmem           1
P          mk1mem           1
            natom          12
            nband          37
           nbdbuf           4
            ngfft          60      60      90
             nkpt           1
            nstep        2000
             nsym           4
           ntypat           4
              occ      2.000000  2.000000  2.000000  2.000000  2.000000  2.000000
                       2.000000  2.000000  2.000000  2.000000  2.000000  2.000000
                       2.000000  2.000000  2.000000  2.000000  2.000000  2.000000
                       2.000000  2.000000  2.000000  2.000000  2.000000  2.000000
                       2.000000  2.000000  2.000000  2.000000  0.000000  0.000000
                       0.000000  0.000000  0.000000  0.000000  0.000000  0.000000
                       0.000000
        optdriver           1
            prtwf          -1
            rfdir           1       1       1
           rfelfd           2
            rprim      9.2462558466E+00  0.0000000000E+00  3.0550591789E+00
                      -1.0177948088E+00  9.1900675138E+00  3.0550591789E+00
                       0.0000000000E+00  0.0000000000E+00  1.3465122181E+01
          spgroup          15
           symrel      1  0  0   0  1  0   0  0  1      -1  0  0   0 -1  0   0  0 -1
                       0 -1  0  -1  0  0   0  0 -1       0  1  0   1  0  0   0  0  1
            tnons      0.0000000  0.0000000  0.0000000    -0.0000000 -0.0000000 -0.0000000
                      -0.0000000 -0.0000000  0.5000000     0.0000000  0.0000000  0.5000000
           tolwfr      1.00000000E-20
            typat      1  1  2  2  3  3  3  3  4  4  4  4
           useylm           1
           xangst      1.3917021328E+00  3.1348556317E+00  3.3980266306E+00
                       2.9626119102E+00  1.7283186420E+00  6.9607445150E+00
                       3.8925610379E+00  8.9567512186E-01  3.3980266306E+00
                       4.6175300509E-01  3.9674991518E+00  6.9607445150E+00
                       3.4448818287E+00  4.5107254446E+00  5.7136136881E+00
                       2.5019999302E-01  9.4270201709E-01  1.0824395731E+00
                       9.0943221428E-01  3.5244882914E-01  4.6451574575E+00
                       4.1041140500E+00  3.9204722566E+00  9.2763315725E+00
                       3.8537179565E+00  2.0206586371E+00  4.4097547632E+00
                       2.7701381983E+00  8.1044799271E-01  2.3862984980E+00
                       5.0059608650E-01  2.8425156366E+00  5.9490163824E+00
                       1.5841758447E+00  4.0527262810E+00  7.9724726476E+00
            xcart      2.6299358896E+00  5.9240186101E+00  6.4213397240E+00
                       5.5985251482E+00  3.2660489037E+00  1.3153900814E+01
                       7.3558743171E+00  1.6925806844E+00  6.4213397240E+00
                       8.7258672066E-01  7.4974868294E+00  1.3153900814E+01
                       6.5098832164E+00  8.5240357509E+00  1.0797165100E+01
                       4.7280946526E-01  1.7814486372E+00  2.0455143485E+00
                       1.7185778214E+00  6.6603176293E-01  8.7780754388E+00
                       7.7556515725E+00  7.4086188766E+00  1.7529726190E+01
                       7.2824715311E+00  3.8184914321E+00  8.3332288156E+00
                       5.2348025449E+00  1.5315247512E+00  4.5094506325E+00
                       9.4598950668E-01  5.3715760817E+00  1.1242011723E+01
                       2.9936584929E+00  7.6585427626E+00  1.5065789906E+01
             xred      3.5538900000E-01  6.4461100000E-01  2.5000000000E-01
                       6.4461100000E-01  3.5538900000E-01  7.5000000000E-01
                       8.1582500000E-01  1.8417500000E-01  2.5000000000E-01
                       1.8417500000E-01  8.1582500000E-01  7.5000000000E-01
                       8.0615500000E-01  9.2752700000E-01  4.0851200000E-01
                       7.2473000000E-02  1.9384500000E-01  9.1488000000E-02
                       1.9384500000E-01  7.2473000000E-02  5.9148800000E-01
                       9.2752700000E-01  8.0615500000E-01  9.0851200000E-01
                       8.3335000000E-01  4.1550200000E-01  3.3552700000E-01
                       5.8449800000E-01  1.6665000000E-01  1.6447300000E-01
                       1.6665000000E-01  5.8449800000E-01  6.6447300000E-01
                       4.1550200000E-01  8.3335000000E-01  8.3552700000E-01
            znucl       19.00000   15.00000    1.00000    8.00000

 chkinp: Checking input parameters for consistency.

== DATASET  1 ==================================================================
-   mpi_nproc: 1, omp_nthreads: -1 (-1 if OMP is not activated)

--- !DatasetInfo
iteration_state: {dtset: 1, }
dimensions: {natom: 12, nkpt: 1, mband: 37, nsppol: 1, nspinor: 1, nspden: 1, mpw: 15922, }
cutoff_energies: {ecut:  44.0, pawecutdg:  -1.0, }
electrons: {nelect:   5.60000000E+01, charge:   0.00000000E+00, occopt:   1.00000000E+00, tsmear:   1.00000000E-02, }
meta: {optdriver: 1, rfelfd: 2, }
...

 Real(R)+Recip(G) space primitive vectors, cartesian coordinates (Bohr,Bohr^-1):
 R(1)=  9.2462558  0.0000000  3.0550592  G(1)=  0.1081519  0.0119778  0.0000000
 R(2)= -1.0177948  9.1900675  3.0550592  G(2)=  0.0000000  0.1088131  0.0000000
 R(3)=  0.0000000  0.0000000 13.4651222  G(3)= -0.0245382 -0.0274059  0.0742659
 Unit cell volume ucvol=  1.1441815E+03 bohr^3
 Angles (23,13,12)=  7.17159072E+01  7.17159072E+01  9.00467691E+01 degrees

 getcut: wavevector=  0.0000  0.0000  0.0000  ngfft=  60  60  90
         ecut(hartree)=     44.000   => boxcut(ratio)=   2.06345

--- Pseudopotential description ------------------------------------------------
- pspini: atom type   1  psp file is /scratch/users/j/a/jabreu/pseudos/PBEsol/K.psp8
- pspatm: opening atomic psp file    /scratch/users/j/a/jabreu/pseudos/PBEsol/K.psp8
- K     ONCVPSP-3.3.0  r_core=   1.36296   1.46408   1.61068
- 19.00000   9.00000    180112                znucl, zion, pspdat
    8 -116133    2    4       400   0.00000   pspcod,pspxc,lmax,lloc,mmax,r2well
    3.99000000000000    5.00000000000000    0.00000000000000   rchrg,fchrg,qchrg
     nproj     2     2     2
     extension_switch     1
  pspatm : epsatm=    8.32487830
         --- l  ekb(1:nproj) -->
             0   10.921326    0.816676
             1    4.431000    0.560368
             2   -3.384038   -1.043186
 pspatm: atomic psp has been read  and splines computed

- pspini: atom type   2  psp file is /scratch/users/j/a/jabreu/pseudos/PBEsol/P.psp8
- pspatm: opening atomic psp file    /scratch/users/j/a/jabreu/pseudos/PBEsol/P.psp8
- P     ONCVPSP-3.3.0  r_core=   1.46089   1.55067   1.70594
- 15.00000   5.00000    180112                znucl, zion, pspdat
    8 -116133    2    4       600   0.00000   pspcod,pspxc,lmax,lloc,mmax,r2well
    5.99000000000000    5.00000000000000    0.00000000000000   rchrg,fchrg,qchrg
     nproj     2     2     2
     extension_switch     1
  pspatm : epsatm=    7.31221086
         --- l  ekb(1:nproj) -->
             0    6.742364    1.063650
             1    3.449117    0.910422
             2   -3.077645   -0.799176
 pspatm: atomic psp has been read  and splines computed

[...]

- pspini: atom type   4  psp file is /scratch/users/j/a/jabreu/pseudos/PBEsol/O.psp8
- pspatm: opening atomic psp file    /scratch/users/j/a/jabreu/pseudos/PBEsol/O.psp8
- O     ONCVPSP-3.3.0  r_core=   1.35509   1.45563   1.26150
-  8.00000   6.00000    180112                znucl, zion, pspdat
    8 -116133    2    4       600   0.00000   pspcod,pspxc,lmax,lloc,mmax,r2well
    5.99000000000000    4.00000000000000    0.00000000000000   rchrg,fchrg,qchrg
     nproj     2     2     1
     extension_switch     1
  pspatm : epsatm=    6.22910522
         --- l  ekb(1:nproj) -->
             0    6.050032    0.820363
             1   -4.739617   -1.153841
             2   -1.335834
 pspatm: atomic psp has been read  and splines computed

   3.22647811E+03                                ecore*ucvol(ha*bohr**3)

 ==>  initialize data related to q vector <==

 The list of irreducible perturbations for this q vector is:
    1)    idir= 1    ipert=  13
    2)    idir= 2    ipert=  13
    3)    idir= 3    ipert=  13

 Perturbation wavevector (in red.coord.)   0.000000  0.000000  0.000000
 Perturbation : derivative vs k along direction   1

 dfpt_looppert : COMMENT -
  In a d/dk calculation, iscf is set to -3 automatically.
 The set of symmetries contains only one element for this perturbation.
 symkpt : not enough symmetry to change the number of k points.

 Initialisation of the first-order wave-functions :
  ireadwf=   0

--- !BeginCycle
iteration_state: {dtset: 1, }
solver: {iscf: 7, nstep: 2000, nline: 4, wfoptalg: 0, }
tolerances: {tolwfr: 1.00E-20, }
...

     iter   2DEtotal(Ha)        deltaE(Ha) residm    vres2
-ETOT  1  -26.276073078095     -2.628E+01 6.473E-02 0.000E+00
 ETOT  2  -26.335708481166     -5.964E-02 5.415E-03 0.000E+00
[...]
 ETOT 13  -26.336342141989     -1.421E-14 2.942E-12 0.000E+00
 ETOT 14  -26.336342141989      7.105E-15 6.704E-13 0.000E+00
 ETOT 15  -26.336342141989      0.000E+00 8.456E-14 0.000E+00
 ETOT 16  -26.336342141989      7.105E-15 2.011E-14 0.000E+00
 ETOT 17  -26.336342141989     -3.553E-15 2.474E-15 0.000E+00
 ETOT 18  -26.336342141989     -1.776E-14 6.079E-16 0.000E+00
 ETOT 19  -26.336342141989      3.553E-15 7.319E-17 0.000E+00
 ETOT 20  -26.336342141989     -3.553E-15 1.846E-17 0.000E+00
 ETOT 21  -26.336342141989      7.105E-15 2.181E-18 0.000E+00
 ETOT 22  -26.336342141989      7.105E-15 5.622E-19 0.000E+00
 ETOT 23  -26.336342141989     -7.105E-15 6.536E-20 0.000E+00
 ETOT 24  -26.336342141989     -7.105E-15 1.716E-20 0.000E+00
 ETOT 25  -26.336342141989      1.066E-14 9.377E-21 0.000E+00

 At SCF step   25   max residual=  9.38E-21 < tolwfr=  1.00E-20 =>converged.

 ----iterations are completed or convergence reached----

 dfpt_looppert: DFPT cycle converged with prtwf=-1. Will skip output of the 1st-order WFK file.
 dfpt_looppert : ek2=    5.2352853217E+01
          f-sum rule ratio=    1.0451479274E+00
 prteigrs : about to open file /scratch/users/j/a/jabreu/flow_simple_11atoms/flow/w264/t1/tmpdata/tmp_1WF1_EIG
 Expectation of eigenvalue derivatives (hartree) for nkpt=   1  k points:
  (in case of degenerate eigenvalues, averaged derivative)
 kpt#   1, nband= 37, wtk=  1.00000, kpt=  0.5000 -0.5000  0.0000 (reduced coord)
   0.00000    0.00000    0.00000   -0.00000   -0.00000   -0.00000    0.00000    0.00000
  -0.00000   -0.00000   -0.00000    0.00000   -0.00000   -0.00000    0.00000   -0.00000
  -0.00000   -0.00000    0.00000   -0.00000   -0.00000   -0.00000   -0.00000    0.00000
  -0.00000   -0.00000   -0.00000   -0.00000   -0.00000   -0.00000   -0.00000    0.00000
  -0.00000    0.00000   -0.00000   -0.00014    0.00562

 Eight components of 2nd-order total energy (hartree) are
 1,2,3: 0th-order hamiltonian combined with 1st-order wavefunctions
     kin0=   3.41238458E+01 eigvalue=   3.01405771E+00  local=  -1.71354682E+01
 4,5,6: 1st-order hamiltonian combined with 1st and 0th-order wfs
     kin1=  -5.47164760E+01  Hartree=   0.00000000E+00     xc=   0.00000000E+00
 7,8,9: eventually, occupation + non-local contributions
    edocc=   6.81943913E+00     enl0=  -4.85532282E-01   enl1=   2.04379175E+00
 1-9 gives the relaxation energy (to be shifted if some occ is /=2.0)
   erelax=  -2.63363421E+01
  No Ewald or frozen-wf contrib.: the relaxation energy is the total one
 2DEtotal=   -0.2633634214E+02 Ha. Also 2DEtotal=   -0.716648315494E+03 eV
    (  non-var. 2DEtotal :   -2.6336342142E+01 Ha)

 Perturbation wavevector (in red.coord.)   0.000000  0.000000  0.000000
 Perturbation : derivative vs k along direction   2
 The set of symmetries contains only one element for this perturbation.
 symkpt : not enough symmetry to change the number of k points.

[...]

 Perturbation wavevector (in red.coord.)   0.000000  0.000000  0.000000
 Perturbation : derivative vs k along direction   3
 The set of symmetries contains only one element for this perturbation.
 symkpt : not enough symmetry to change the number of k points.

 Initialisation of the first-order wave-functions :
  ireadwf=   0

--- !BeginCycle
iteration_state: {dtset: 1, }
solver: {iscf: 7, nstep: 2000, nline: 4, wfoptalg: 0, }
tolerances: {tolwfr: 1.00E-20, }
...

     iter   2DEtotal(Ha)        deltaE(Ha) residm    vres2
-ETOT  1  -14.743530428842     -1.474E+01 5.244E-02 0.000E+00
 ETOT  2  -14.778714311588     -3.518E-02 2.454E-03 0.000E+00
 ETOT  3  -14.779045435324     -3.311E-04 4.011E-04 0.000E+00
 ETOT  4  -14.779050322141     -4.887E-06 3.098E-05 0.000E+00
 ETOT  5  -14.779050414131     -9.199E-08 8.280E-06 0.000E+00
 ETOT  6  -14.779050416110     -1.979E-09 6.167E-07 0.000E+00
 ETOT  7  -14.779050416156     -4.662E-11 1.895E-07 0.000E+00
 ETOT  8  -14.779050416157     -1.178E-12 1.380E-08 0.000E+00
 ETOT  9  -14.779050416158     -4.796E-14 4.520E-09 0.000E+00
 ETOT 10  -14.779050416157      1.954E-14 3.270E-10 0.000E+00
 ETOT 11  -14.779050416157      5.329E-15 1.094E-10 0.000E+00
 ETOT 12  -14.779050416157     -5.329E-15 7.916E-12 0.000E+00
 ETOT 13  -14.779050416157     -3.553E-15 2.666E-12 0.000E+00
 ETOT 14  -14.779050416157      1.776E-15 1.933E-13 0.000E+00
 ETOT 15  -14.779050416157      0.000E+00 6.529E-14 0.000E+00
 ETOT 16  -14.779050416157      0.000E+00 4.745E-15 0.000E+00
 ETOT 17  -14.779050416157     -1.776E-15 1.605E-15 0.000E+00
 ETOT 18  -14.779050416158     -3.553E-15 1.169E-16 0.000E+00
 ETOT 19  -14.779050416157      1.066E-14 3.958E-17 0.000E+00
 ETOT 20  -14.779050416157     -3.553E-15 2.886E-18 0.000E+00
 ETOT 21  -14.779050416157     -5.329E-15 9.781E-19 0.000E+00
 ETOT 22  -14.779050416157      3.553E-15 7.145E-20 0.000E+00
 ETOT 23  -14.779050416157      0.000E+00 2.421E-20 0.000E+00
 ETOT 24  -14.779050416157     -3.553E-15 9.720E-21 0.000E+00

 At SCF step   24   max residual=  9.72E-21 < tolwfr=  1.00E-20 =>converged.

 ----iterations are completed or convergence reached----

 dfpt_looppert: DFPT cycle converged with prtwf=-1. Will skip output of the 1st-order WFK file.
 dfpt_looppert : ek2=    3.0370247025E+01
          f-sum rule ratio=    1.0075607435E+00
 prteigrs : about to open file /scratch/users/j/a/jabreu/flow_simple_11atoms/flow/w264/t1/tmpdata/tmp_1WF1_EIG
 Expectation of eigenvalue derivatives (hartree) for nkpt=   1  k points:
  (in case of degenerate eigenvalues, averaged derivative)
 kpt#   1, nband= 37, wtk=  1.00000, kpt=  0.5000 -0.5000  0.0000 (reduced coord)
  -0.00000   -0.00000   -0.00000    0.00000   -0.00000    0.00000    0.00000    0.00000
   0.00000    0.00000   -0.00000   -0.00000    0.00000    0.00000   -0.00000    0.00000
   0.00000    0.00000    0.00000    0.00000   -0.00000   -0.00000    0.00000   -0.00000
   0.00000   -0.00000   -0.00000   -0.00000    0.00000   -0.00000    0.00000   -0.00000
   0.00000    0.00000   -0.00000    0.00030    0.00002

 Eight components of 2nd-order total energy (hartree) are
 1,2,3: 0th-order hamiltonian combined with 1st-order wavefunctions
     kin0=   2.09859331E+01 eigvalue=   1.90745979E+00  local=  -1.05700565E+01
 4,5,6: 1st-order hamiltonian combined with 1st and 0th-order wfs
     kin1=  -3.05998687E+01  Hartree=   0.00000000E+00     xc=   0.00000000E+00
 7,8,9: eventually, occupation + non-local contributions
    edocc=   2.78479577E+00     enl0=  -3.29081708E-01   enl1=   1.04176784E+00
 1-9 gives the relaxation energy (to be shifted if some occ is /=2.0)
   erelax=  -1.47790504E+01
  No Ewald or frozen-wf contrib.: the relaxation energy is the total one
 2DEtotal=   -0.1477905042E+02 Ha. Also 2DEtotal=   -0.402158413960E+03 eV
    (  non-var. 2DEtotal :   -1.4779050416E+01 Ha)

 CALCULATION OF EFFECTIVE MASSES
 NOTE : Additional infos (eff. mass eigenvalues, eigenvectors and, if degenerate, average mass) are available in stdout.

 K-point ( 0.500,-0.500, 0.000) | band =    28
 Effective mass tensor:
            -14.6350786151             10.2340800295             -0.8964290879
             10.2340800295            -12.3688309236             -1.0018236315
             -0.8964290879             -1.0018236315             -2.9869032269
 Effective mass tensor eigenvalues:
            -23.7985738210             -4.4448832366             -1.7473557080
 Angular average effective mass 1/(<1/m>)=  -3.5744479868
 Angular average effective mass for Frohlich model (<m**0.5>)**2=  -4.5718894065
 Effective masses along directions: (cart. coord. / red. coord. -> eff. mass)
    1:   1.000000  0.000000  0.000000 /   0.993996 -0.109416  0.000000 ->  -5.1428547993
    2:   0.000000  1.000000  0.000000 /   0.000000  1.000000  0.000000 ->  -4.3075895579
    3:   0.000000  0.000000  1.000000 /   0.216038  0.216038  0.952184 ->  -2.4230822475
    4:   0.577350  0.577350  0.577350 /   0.574373  0.524227  0.628714 ->  -4.3418910165
    5:   0.000000  0.707107  0.707107 /   0.165541  0.663514  0.729620 ->  -5.1688200095
    6:   0.707107  0.000000  0.707107 /   0.670312  0.111013  0.733729 ->  -5.3158661449
    7:   0.707107  0.707107  0.000000 /   0.749282  0.662251  0.000000 ->  -2.6073378733

 K-point ( 0.500,-0.500, 0.000) | band =    29
 Effective mass tensor:
              4.3118163453             -2.9867922532              0.3037885528
             -2.9867922532              3.6502399081              0.3392818068
              0.3037885528              0.3392818068              1.0721644871
 Effective mass tensor eigenvalues:
              0.5661252997              1.4820134362              6.9860820047
 Angular average effective mass 1/(<1/m>)=   1.1608591374
 Angular average effective mass for Frohlich model (<m**0.5>)**2=   1.4714295968
 Effective masses along directions: (cart. coord. / red. coord. -> eff. mass)
    1:   1.000000  0.000000  0.000000 /   0.993996 -0.109416  0.000000 ->   1.5430537566
    2:   0.000000  1.000000  0.000000 /   0.000000  1.000000  0.000000 ->   1.2937016851
    3:   0.000000  0.000000  1.000000 /   0.216038  0.216038  0.952184 ->   0.8596592602
    4:   0.577350  0.577350  0.577350 /   0.574373  0.524227  0.628714 ->   1.3766389274
    5:   0.000000  0.707107  0.707107 /   0.165541  0.663514  0.729620 ->   1.7739181842
    6:   0.707107  0.000000  0.707107 /   0.670312  0.111013  0.733729 ->   1.8396513170
    7:   0.707107  0.707107  0.000000 /   0.749282  0.662251  0.000000 ->   0.7846511904

 END OF EFFECTIVE MASSES SECTION

 ---- first-order wavefunction calculations are completed ----

 Total localisation tensor (bohr^2) in cartesian coordinates
  WARNING : still subject to testing - especially symmetries.
      direction              matrix element
   alpha     beta       real part   imaginary part
     1        1       0.7571225522    0.0000000000
     1        2      -0.0818437778    0.0000000000
     1        3       0.2199589102    0.0000000000
     2        1      -0.0818437778    0.0000000000
     2        2       0.7389994887    0.0000000000
     2        3       0.2456660049    0.0000000000
     3        1       0.2199589102    0.0000000000
     3        2       0.2456660049    0.0000000000
     3        3       1.0037885918    0.0000000000

 respfn : d/dk was computed, but no 2DTE, so no DDB output.

== END DATASET(S) ==============================================================

 -outvars: echo values of variables after computation  --------
            acell      1.0000000000E+00  1.0000000000E+00  1.0000000000E+00 Bohr
              amu      3.90983000E+01  3.09737620E+01  1.00794000E+00
                       1.59994000E+01
             ecut      4.40000000E+01 Hartree
           etotal     -1.4779050416E+01
            fcart      0.0000000000E+00  0.0000000000E+00  0.0000000000E+00
                       0.0000000000E+00  0.0000000000E+00  0.0000000000E+00
                       0.0000000000E+00  0.0000000000E+00  0.0000000000E+00
                       0.0000000000E+00  0.0000000000E+00  0.0000000000E+00
                       0.0000000000E+00  0.0000000000E+00  0.0000000000E+00
                       0.0000000000E+00  0.0000000000E+00  0.0000000000E+00
                       0.0000000000E+00  0.0000000000E+00  0.0000000000E+00
                       0.0000000000E+00  0.0000000000E+00  0.0000000000E+00
                       0.0000000000E+00  0.0000000000E+00  0.0000000000E+00
                       0.0000000000E+00  0.0000000000E+00  0.0000000000E+00
                       0.0000000000E+00  0.0000000000E+00  0.0000000000E+00
                       0.0000000000E+00  0.0000000000E+00  0.0000000000E+00
-          fftalg         512
           irdden           1
           irdwfk           1
              ixc     -116133
              kpt      5.00000000E-01 -5.00000000E-01  0.00000000E+00
           kptopt           0
P           mkmem           1
P          mkqmem           1
P          mk1mem           1
            natom          12
            nband          37
           nbdbuf           4
            ngfft          60      60      90
             nkpt           1
            nstep        2000
             nsym           4
           ntypat           4
              occ      2.000000  2.000000  2.000000  2.000000  2.000000  2.000000
                       2.000000  2.000000  2.000000  2.000000  2.000000  2.000000
                       2.000000  2.000000  2.000000  2.000000  2.000000  2.000000
                       2.000000  2.000000  2.000000  2.000000  2.000000  2.000000
                       2.000000  2.000000  2.000000  2.000000  0.000000  0.000000
                       0.000000  0.000000  0.000000  0.000000  0.000000  0.000000
                       0.000000
        optdriver           1
            prtwf          -1
            rfdir           1       1       1
           rfelfd           2
            rprim      9.2462558466E+00  0.0000000000E+00  3.0550591789E+00
                      -1.0177948088E+00  9.1900675138E+00  3.0550591789E+00
                       0.0000000000E+00  0.0000000000E+00  1.3465122181E+01
          spgroup          15
           strten      0.0000000000E+00  0.0000000000E+00  0.0000000000E+00
                       0.0000000000E+00  0.0000000000E+00  0.0000000000E+00
           symrel      1  0  0   0  1  0   0  0  1      -1  0  0   0 -1  0   0  0 -1
                       0 -1  0  -1  0  0   0  0 -1       0  1  0   1  0  0   0  0  1
            tnons      0.0000000  0.0000000  0.0000000    -0.0000000 -0.0000000 -0.0000000
                      -0.0000000 -0.0000000  0.5000000     0.0000000  0.0000000  0.5000000
           tolwfr      1.00000000E-20
            typat      1  1  2  2  3  3  3  3  4  4  4  4
           useylm           1
           xangst      1.3917021328E+00  3.1348556317E+00  3.3980266306E+00
                       2.9626119102E+00  1.7283186420E+00  6.9607445150E+00
                       3.8925610379E+00  8.9567512186E-01  3.3980266306E+00
                       4.6175300509E-01  3.9674991518E+00  6.9607445150E+00
                       3.4448818287E+00  4.5107254446E+00  5.7136136881E+00
                       2.5019999302E-01  9.4270201709E-01  1.0824395731E+00
                       9.0943221428E-01  3.5244882914E-01  4.6451574575E+00
                       4.1041140500E+00  3.9204722566E+00  9.2763315725E+00
                       3.8537179565E+00  2.0206586371E+00  4.4097547632E+00
                       2.7701381983E+00  8.1044799271E-01  2.3862984980E+00
                       5.0059608650E-01  2.8425156366E+00  5.9490163824E+00
                       1.5841758447E+00  4.0527262810E+00  7.9724726476E+00
            xcart      2.6299358896E+00  5.9240186101E+00  6.4213397240E+00
                       5.5985251482E+00  3.2660489037E+00  1.3153900814E+01
                       7.3558743171E+00  1.6925806844E+00  6.4213397240E+00
                       8.7258672066E-01  7.4974868294E+00  1.3153900814E+01
                       6.5098832164E+00  8.5240357509E+00  1.0797165100E+01
                       4.7280946526E-01  1.7814486372E+00  2.0455143485E+00
                       1.7185778214E+00  6.6603176293E-01  8.7780754388E+00
                       7.7556515725E+00  7.4086188766E+00  1.7529726190E+01
                       7.2824715311E+00  3.8184914321E+00  8.3332288156E+00
                       5.2348025449E+00  1.5315247512E+00  4.5094506325E+00
                       9.4598950668E-01  5.3715760817E+00  1.1242011723E+01
                       2.9936584929E+00  7.6585427626E+00  1.5065789906E+01
             xred      3.5538900000E-01  6.4461100000E-01  2.5000000000E-01
                       6.4461100000E-01  3.5538900000E-01  7.5000000000E-01
                       8.1582500000E-01  1.8417500000E-01  2.5000000000E-01
                       1.8417500000E-01  8.1582500000E-01  7.5000000000E-01
                       8.0615500000E-01  9.2752700000E-01  4.0851200000E-01
                       7.2473000000E-02  1.9384500000E-01  9.1488000000E-02
                       1.9384500000E-01  7.2473000000E-02  5.9148800000E-01
                       9.2752700000E-01  8.0615500000E-01  9.0851200000E-01
                       8.3335000000E-01  4.1550200000E-01  3.3552700000E-01
                       5.8449800000E-01  1.6665000000E-01  1.6447300000E-01
                       1.6665000000E-01  5.8449800000E-01  6.6447300000E-01
                       4.1550200000E-01  8.3335000000E-01  8.3552700000E-01
            znucl       19.00000   15.00000    1.00000    8.00000

- Timing analysis has been suppressed with timopt=0

 Suggested references for the acknowledgment of ABINIT usage.

 Calculation completed.
.Delivered   2 WARNINGs and   5 COMMENTs to log file.