.Version 9.5.1 of ABINIT

 ABINIT is a project of the Universite Catholique de Louvain,
 Corning Inc. and other collaborators, see ~abinit/doc/developers/contributors.txt .
 acknowledgments of the ABINIT effort.

.Starting date : Tue  4 May 2021.
- ( at 19h29 )

- input  file    -> /scratch/users/j/a/jabreu/flow_simple_6atoms/flow/w197/t1/run.abi
- output file    -> /scratch/users/j/a/jabreu/flow_simple_6atoms/flow/w197/t1/run.abo
- root for input  files -> /scratch/users/j/a/jabreu/flow_simple_6atoms/flow/w197/t1/indata/in
- root for output files -> /scratch/users/j/a/jabreu/flow_simple_6atoms/flow/w197/t1/outdata/out

 Symmetries : space group P2_1/m (# 11); Bravais mP (primitive monocl.)
     intxc =       0      iscf =       7    lmnmax =      18     lnmax =       6
     mgfft =      75  mpssoang =       3    mqgrid =    3539     natom =       6
  nloc_mem =       1    nspden =       1   nspinor =       1    nsppol =       1
      nsym =       4    n1xccc =    2501    ntypat =       3    occopt =       1
   xclevel =       2
-    mband =          25        mffmem =           1         mkmem =           1
-   mkqmem =           1        mk1mem =           1           mpw =       11983
      nfft =      202500          nkpt =           1
  Rough estimation (10% accuracy) of disk space for files :

------------- Echo of variables that govern the present computation ------------
-
- outvars: echo of selected default values
-   iomode0 =  0 , fftalg0 =512 , wfoptalg0 =  0
-
- outvars: echo of global parameters not present in the input file
-  max_nthreads =    0
-
 -outvars: echo values of preprocessed input variables --------
            acell      1.0000000000E+00  1.0000000000E+00  1.0000000000E+00 Bohr
              amu      8.54678000E+01  1.00794000E+00  3.20660000E+01
             ecut      3.90000000E+01 Hartree
-          fftalg         512
           irdden           1
           irdwfk           1
           istwfk        1
              ixc     -116133
           kptopt           0
P           mkmem           1
P          mkqmem           1
P          mk1mem           1
            natom           6
            nband          25
           nbdbuf           4
            ngfft          54      50      75
             nkpt           1
            nstep        1000
             nsym           4
           ntypat           3
              occ      2.000000  2.000000  2.000000  2.000000  2.000000  2.000000
                       2.000000  2.000000  2.000000  2.000000  2.000000  2.000000
                       2.000000  2.000000  2.000000  2.000000  0.000000  0.000000
                       0.000000  0.000000  0.000000  0.000000  0.000000  0.000000
                       0.000000
        optdriver           1
            prtwf          -1
            rfdir           1       1       1
           rfelfd           2
            rprim      9.5128719005E+00  0.0000000000E+00  0.0000000000E+00
                       0.0000000000E+00  8.4290126363E+00  1.8162979844E+00
                       0.0000000000E+00  0.0000000000E+00  1.2875938173E+01
          spgroup          11
           symrel      1  0  0   0  1  0   0  0  1      -1  0  0   0 -1  0   0  0 -1
                       1  0  0   0 -1  0   0  0 -1      -1  0  0   0  1  0   0  0  1
            tnons      0.0000000  0.0000000  0.0000000     0.0000000  0.0000000  0.0000000
                       0.5000000  0.0000000  0.0000000     0.5000000  0.0000000  0.0000000
           tolwfr      1.00000000E-20
            typat      1  1  2  2  3  3
           useylm           1
           xangst      1.2584987495E+00  1.2099705513E+00  2.0537665600E+00
                       3.7754962485E+00  3.2504708267E+00  5.7210299576E+00
                       1.2584987495E+00  4.3580430253E+00  7.1219439906E+00
                       3.7754962485E+00  1.0239835272E-01  6.5285252692E-01
                       1.2584987495E+00  1.0343451325E+00  5.4193217385E+00
                       3.7754962485E+00  3.4260962456E+00  2.3554747790E+00
            xcart      2.3782179751E+00  2.2865129708E+00  3.8810563392E+00
                       7.1346539254E+00  6.1424996655E+00  1.0811179818E+01
                       2.3782179751E+00  8.2355077932E+00  1.3458523676E+01
                       7.1346539254E+00  1.9350484309E-01  1.2337124810E+00
                       2.3782179751E+00  1.9546290273E+00  1.0241033912E+01
                       7.1346539254E+00  6.4743836090E+00  4.4512022453E+00
             xred      2.5000000000E-01  2.7126700000E-01  2.6315400000E-01
                       7.5000000000E-01  7.2873300000E-01  7.3684600000E-01
                       2.5000000000E-01  9.7704300000E-01  9.0742300000E-01
                       7.5000000000E-01  2.2957000000E-02  9.2577000000E-02
                       2.5000000000E-01  2.3189300000E-01  7.6265100000E-01
                       7.5000000000E-01  7.6810700000E-01  2.3734900000E-01
            znucl       37.00000    1.00000   16.00000

 chkinp: Checking input parameters for consistency.

== DATASET  1 ==================================================================
-   mpi_nproc: 1, omp_nthreads: -1 (-1 if OMP is not activated)

--- !DatasetInfo
iteration_state: {dtset: 1, }
dimensions: {natom: 6, nkpt: 1, mband: 25, nsppol: 1, nspinor: 1, nspden: 1, mpw: 11983, }
cutoff_energies: {ecut:  39.0, pawecutdg:  -1.0, }
electrons: {nelect:   3.20000000E+01, charge:   0.00000000E+00, occopt:   1.00000000E+00, tsmear:   1.00000000E-02, }
meta: {optdriver: 1, rfelfd: 2, }
...

 Real(R)+Recip(G) space primitive vectors, cartesian coordinates (Bohr,Bohr^-1):
 R(1)=  9.5128719  0.0000000  0.0000000  G(1)=  0.1051207  0.0000000  0.0000000
 R(2)=  0.0000000  8.4290126  1.8162980  G(2)=  0.0000000  0.1186379  0.0000000
 R(3)=  0.0000000  0.0000000 12.8759382  G(3)=  0.0000000 -0.0167352  0.0776642
 Unit cell volume ucvol=  1.0324457E+03 bohr^3
 Angles (23,13,12)=  7.78397424E+01  9.00000000E+01  9.00000000E+01 degrees

 getcut: wavevector=  0.0000  0.0000  0.0000  ngfft=  54  50  75
         ecut(hartree)=     39.000   => boxcut(ratio)=   2.01922

--- Pseudopotential description ------------------------------------------------
- pspini: atom type   1  psp file is /scratch/users/j/a/jabreu/pseudos/PBEsol/Rb.psp8
- pspatm: opening atomic psp file    /scratch/users/j/a/jabreu/pseudos/PBEsol/Rb.psp8
- Rb    ONCVPSP-3.3.0  r_core=   1.71227   1.75361   1.90633
- 37.00000   9.00000    180112                znucl, zion, pspdat
    8 -116133    2    4       600   0.00000   pspcod,pspxc,lmax,lloc,mmax,r2well
    5.99000000000000    7.00000000000000    0.00000000000000   rchrg,fchrg,qchrg
     nproj     2     2     2
     extension_switch     1
  pspatm : epsatm=   34.48400912
         --- l  ekb(1:nproj) -->
             0    8.196957   -0.477221
             1    3.231347   -0.378736
             2   -1.047201    0.996637
 pspatm: atomic psp has been read  and splines computed

- pspini: atom type   2  psp file is /scratch/users/j/a/jabreu/pseudos/PBEsol/H.psp8
- pspatm: opening atomic psp file    /scratch/users/j/a/jabreu/pseudos/PBEsol/H.psp8
- H     ONCVPSP-3.3.0  r_core=   1.00957   0.70586
-  1.00000   1.00000    180112                znucl, zion, pspdat
    8 -116133    1    4       300   0.00000   pspcod,pspxc,lmax,lloc,mmax,r2well
    2.99000000000000    0.00000000000000    0.00000000000000   rchrg,fchrg,qchrg
     nproj     2     1
     extension_switch     1
  pspatm : epsatm=    0.35627032
         --- l  ekb(1:nproj) -->
             0   -1.674911   -0.523609
             1   -0.494138
 pspatm: atomic psp has been read  and splines computed

- pspini: atom type   3  psp file is /scratch/users/j/a/jabreu/pseudos/PBEsol/S.psp8
- pspatm: opening atomic psp file    /scratch/users/j/a/jabreu/pseudos/PBEsol/S.psp8
- S     ONCVPSP-3.3.0  r_core=   1.45376   1.45376   1.61851
- 16.00000   6.00000    180112                znucl, zion, pspdat
    8 -116133    2    4       600   0.00000   pspcod,pspxc,lmax,lloc,mmax,r2well
    5.99000000000000    6.00000000000000    0.00000000000000   rchrg,fchrg,qchrg
     nproj     2     2     2
     extension_switch     1
  pspatm : epsatm=    8.71840985
         --- l  ekb(1:nproj) -->
             0    6.834532    0.579453
             1    3.282851    0.896984
             2   -3.496974   -0.974265
 pspatm: atomic psp has been read  and splines computed

   2.78775611E+03                                ecore*ucvol(ha*bohr**3)

-inwffil : will read wavefunctions from disk file /scratch/users/j/a/jabreu/flow_simple_6atoms/flow/w197/t1/indata/in_WFK

 ==>  initialize data related to q vector <==

 The list of irreducible perturbations for this q vector is:
    1)    idir= 1    ipert=   7
    2)    idir= 2    ipert=   7
    3)    idir= 3    ipert=   7

 Perturbation wavevector (in red.coord.)   0.000000  0.000000  0.000000
 Perturbation : derivative vs k along direction   1

 dfpt_looppert : COMMENT -
  In a d/dk calculation, iscf is set to -3 automatically.
 The set of symmetries contains only one element for this perturbation.
 symkpt : not enough symmetry to change the number of k points.

[...]

 Initialisation of the first-order wave-functions :
  ireadwf=   0

--- !BeginCycle
iteration_state: {dtset: 1, }
solver: {iscf: 7, nstep: 1000, nline: 4, wfoptalg: 0, }
tolerances: {tolwfr: 1.00E-20, }
...

     iter   2DEtotal(Ha)        deltaE(Ha) residm    vres2
-ETOT  1  -16.993918833393     -1.699E+01 2.276E-02 0.000E+00
 ETOT  2  -17.004524681231     -1.061E-02 8.509E-04 0.000E+00
 ETOT  3  -17.004575439918     -5.076E-05 2.396E-05 0.000E+00
 ETOT  4  -17.004575772704     -3.328E-07 1.772E-06 0.000E+00
 ETOT  5  -17.004575775192     -2.488E-09 8.350E-08 0.000E+00
 ETOT  6  -17.004575775212     -1.992E-11 6.556E-09 0.000E+00
 ETOT  7  -17.004575775212     -1.457E-13 3.672E-10 0.000E+00
 ETOT  8  -17.004575775212     -3.553E-14 2.850E-11 0.000E+00
 ETOT  9  -17.004575775212      1.421E-14 1.625E-12 0.000E+00
 ETOT 10  -17.004575775212     -7.105E-15 1.286E-13 0.000E+00
 ETOT 11  -17.004575775212      3.553E-15 7.316E-15 0.000E+00
 ETOT 12  -17.004575775212      0.000E+00 5.911E-16 0.000E+00
 ETOT 13  -17.004575775212      0.000E+00 3.331E-17 0.000E+00
 ETOT 14  -17.004575775212      3.553E-15 2.744E-18 0.000E+00
 ETOT 15  -17.004575775212     -3.553E-15 1.528E-19 0.000E+00
 ETOT 16  -17.004575775212      0.000E+00 1.282E-20 0.000E+00
 ETOT 17  -17.004575775212      3.553E-15 9.804E-21 0.000E+00

 At SCF step   17   max residual=  9.80E-21 < tolwfr=  1.00E-20 =>converged.

 ----iterations are completed or convergence reached----

 dfpt_looppert: DFPT cycle converged with prtwf=-1. Will skip output of the 1st-order WFK file.
 dfpt_looppert : ek2=    2.7920064257E+01
          f-sum rule ratio=    1.2409665970E+00
 prteigrs : about to open file /scratch/users/j/a/jabreu/flow_simple_6atoms/flow/w197/t1/tmpdata/tmp_1WF1_EIG
 Expectation of eigenvalue derivatives (hartree) for nkpt=   1  k points:
  (in case of degenerate eigenvalues, averaged derivative)
 kpt#   1, nband= 25, wtk=  1.00000, kpt=  0.0000  0.0000  0.0000 (reduced coord)
   0.00000    0.00000   -0.00000   -0.00000   -0.00000   -0.00000   -0.00000   -0.00000
  -0.00000   -0.00000   -0.00000   -0.00000   -0.00000   -0.00000   -0.00000   -0.00000
  -0.00000   -0.00000    0.00000    0.00000   -0.00000   -0.00000    0.00000    0.00000
  -0.00043

 Eight components of 2nd-order total energy (hartree) are
 1,2,3: 0th-order hamiltonian combined with 1st-order wavefunctions
     kin0=   1.38488735E+01 eigvalue=   1.97034328E+00  local=  -7.65223756E+00
 4,5,6: 1st-order hamiltonian combined with 1st and 0th-order wfs
     kin1=  -3.46478671E+01  Hartree=   0.00000000E+00     xc=   0.00000000E+00
 7,8,9: eventually, occupation + non-local contributions
    edocc=   8.75260689E+00     enl0=   8.49896664E-02   enl1=   6.38715578E-01
 1-9 gives the relaxation energy (to be shifted if some occ is /=2.0)
   erelax=  -1.70045758E+01
  No Ewald or frozen-wf contrib.: the relaxation energy is the total one
 2DEtotal=   -0.1700457578E+02 Ha. Also 2DEtotal=   -0.462718038796E+03 eV
    (  non-var. 2DEtotal :   -1.7004575775E+01 Ha)

 Perturbation wavevector (in red.coord.)   0.000000  0.000000  0.000000
 Perturbation : derivative vs k along direction   2
 The set of symmetries contains only one element for this perturbation.
 symkpt : not enough symmetry to change the number of k points.

[...]

 Perturbation wavevector (in red.coord.)   0.000000  0.000000  0.000000
 Perturbation : derivative vs k along direction   3
 The set of symmetries contains only one element for this perturbation.
 symkpt : not enough symmetry to change the number of k points.

-inwffil : will read wavefunctions from disk file /scratch/users/j/a/jabreu/flow_simple_6atoms/flow/w197/t1/indata/in_WFK

 Initialisation of the first-order wave-functions :
  ireadwf=   0

--- !BeginCycle
iteration_state: {dtset: 1, }
solver: {iscf: 7, nstep: 1000, nline: 4, wfoptalg: 0, }
tolerances: {tolwfr: 1.00E-20, }
...

     iter   2DEtotal(Ha)        deltaE(Ha) residm    vres2
-ETOT  1  -9.0135774836403     -9.014E+00 4.209E-02 0.000E+00
 ETOT  2  -9.0210663430508     -7.489E-03 3.570E-04 0.000E+00
 ETOT  3  -9.0211113268062     -4.498E-05 6.773E-06 0.000E+00
 ETOT  4  -9.0211116995332     -3.727E-07 4.335E-07 0.000E+00
 ETOT  5  -9.0211117029345     -3.401E-09 1.132E-08 0.000E+00
 ETOT  6  -9.0211117029673     -3.283E-11 9.493E-10 0.000E+00
 ETOT  7  -9.0211117029676     -3.091E-13 2.665E-11 0.000E+00
 ETOT  8  -9.0211117029676     -7.105E-15 2.451E-12 0.000E+00
 ETOT  9  -9.0211117029676      5.329E-15 7.007E-14 0.000E+00
 ETOT 10  -9.0211117029676     -3.553E-15 6.832E-15 0.000E+00
 ETOT 11  -9.0211117029676      0.000E+00 1.960E-16 0.000E+00
 ETOT 12  -9.0211117029676     -3.553E-15 1.972E-17 0.000E+00
 ETOT 13  -9.0211117029676      1.776E-15 5.700E-19 0.000E+00
 ETOT 14  -9.0211117029676      0.000E+00 5.813E-20 0.000E+00
 ETOT 15  -9.0211117029676      0.000E+00 9.995E-21 0.000E+00

 At SCF step   15   max residual=  1.00E-20 < tolwfr=  1.00E-20 =>converged.

 ----iterations are completed or convergence reached----

 dfpt_looppert: DFPT cycle converged with prtwf=-1. Will skip output of the 1st-order WFK file.
 dfpt_looppert : ek2=    1.5947518268E+01
          f-sum rule ratio=    1.1505957866E+00
 prteigrs : about to open file /scratch/users/j/a/jabreu/flow_simple_6atoms/flow/w197/t1/tmpdata/tmp_1WF1_EIG
 Expectation of eigenvalue derivatives (hartree) for nkpt=   1  k points:
  (in case of degenerate eigenvalues, averaged derivative)
 kpt#   1, nband= 25, wtk=  1.00000, kpt=  0.0000  0.0000  0.0000 (reduced coord)
   0.00000    0.00000    0.00000   -0.00000   -0.00000    0.00000    0.00000    0.00000
  -0.00000    0.00000    0.00000   -0.00000   -0.00000    0.00000   -0.00000    0.00000
   0.00000   -0.00000   -0.00000   -0.00000   -0.00000   -0.00000    0.00000    0.00000
   0.00046

 Eight components of 2nd-order total energy (hartree) are
 1,2,3: 0th-order hamiltonian combined with 1st-order wavefunctions
     kin0=   8.81278109E+00 eigvalue=   1.33423209E+00  local=  -5.22673548E+00
 4,5,6: 1st-order hamiltonian combined with 1st and 0th-order wfs
     kin1=  -1.83491473E+01  Hartree=   0.00000000E+00     xc=   0.00000000E+00
 7,8,9: eventually, occupation + non-local contributions
    edocc=   3.93969286E+00     enl0=   1.61141141E-01   enl1=   3.06923921E-01
 1-9 gives the relaxation energy (to be shifted if some occ is /=2.0)
   erelax=  -9.02111170E+00
  No Ewald or frozen-wf contrib.: the relaxation energy is the total one
 2DEtotal=   -0.9021111703E+01 Ha. Also 2DEtotal=   -0.245476933393E+03 eV
    (  non-var. 2DEtotal :   -9.0211117029E+00 Ha)

 CALCULATION OF EFFECTIVE MASSES
 NOTE : Additional infos (eff. mass eigenvalues, eigenvectors and, if degenerate, average mass) are available in stdout.

 K-point ( 0.000, 0.000, 0.000) | band =    16
 Effective mass tensor:
             -0.4662983623             -0.0000005873             -0.0000015637
             -0.0000005873             -1.6251567074             -0.2502227315
             -0.0000015637             -0.2502227315             -3.5684300611
 Effective mass tensor eigenvalues:
             -3.6001324332             -1.5934543353             -0.4662983623
 Angular average effective mass 1/(<1/m>)=  -0.9836437631
 Angular average effective mass for Frohlich model (<m**0.5>)**2=  -1.2082937335
 Effective masses along directions: (cart. coord. / red. coord. -> eff. mass)
    1:   1.000000  0.000000  0.000000 /   1.000000  0.000000  0.000000 ->  -0.4662983623
    2:   0.000000  1.000000  0.000000 /   0.000000  1.000000  0.000000 ->  -1.6076107799
    3:   0.000000  0.000000  1.000000 /   0.000000  0.139679  0.990197 ->  -3.5299036746
    4:   0.577350  0.577350  0.577350 /   0.500504  0.539040  0.677446 ->  -1.0126086704
    5:   0.000000  0.707107  0.707107 /   0.000000  0.622638  0.782510 ->  -2.4446937605
    6:   0.707107  0.000000  0.707107 /   0.590436  0.112732  0.799172 ->  -0.8237769266
    7:   0.707107  0.707107  0.000000 /   0.748458  0.663182  0.000000 ->  -0.7229117263

 K-point ( 0.000, 0.000, 0.000) | band =    17
 Effective mass tensor:
              0.3363587643              0.0000043202             -0.0000033001
              0.0000043202              0.4218791841             -0.0575575143
             -0.0000033001             -0.0575575143              0.3783042154
 Effective mass tensor eigenvalues:
              0.3363587641              0.3385485285              0.4616348713
 Angular average effective mass 1/(<1/m>)=   0.3706899649
 Angular average effective mass for Frohlich model (<m**0.5>)**2=   0.3729832022
 Effective masses along directions: (cart. coord. / red. coord. -> eff. mass)
    1:   1.000000  0.000000  0.000000 /   1.000000  0.000000  0.000000 ->   0.3363587643
    2:   0.000000  1.000000  0.000000 /   0.000000  1.000000  0.000000 ->   0.4131220322
    3:   0.000000  0.000000  1.000000 /   0.000000  0.139679  0.990197 ->   0.3704515704
    4:   0.577350  0.577350  0.577350 /   0.500504  0.539040  0.677446 ->   0.3397673014
    5:   0.000000  0.707107  0.707107 /   0.000000  0.622638  0.782510 ->   0.3414969402
    6:   0.707107  0.000000  0.707107 /   0.590436  0.112732  0.799172 ->   0.3525802343
    7:   0.707107  0.707107  0.000000 /   0.748458  0.663182  0.000000 ->   0.3708130554

 END OF EFFECTIVE MASSES SECTION

 ---- first-order wavefunction calculations are completed ----

 Total localisation tensor (bohr^2) in cartesian coordinates
  WARNING : still subject to testing - especially symmetries.
      direction              matrix element
   alpha     beta       real part   imaginary part
     1        1       1.8028702897    0.0000000000
     1        2       0.0000000000    0.0000000000
     1        3       0.0000000000    0.0000000000
     2        1       0.0000000000    0.0000000000
     2        2       1.5997650456    0.0000000000
     2        3       0.3447200939    0.0000000000
     3        1       0.0000000000    0.0000000000
     3        2       0.3447200939    0.0000000000
     3        3       1.5679973876    0.0000000000

 respfn : d/dk was computed, but no 2DTE, so no DDB output.

== END DATASET(S) ==============================================================

 -outvars: echo values of variables after computation  --------
            acell      1.0000000000E+00  1.0000000000E+00  1.0000000000E+00 Bohr
              amu      8.54678000E+01  1.00794000E+00  3.20660000E+01
             ecut      3.90000000E+01 Hartree
           etotal     -9.0211117030E+00
            fcart      0.0000000000E+00  0.0000000000E+00  0.0000000000E+00
                       0.0000000000E+00  0.0000000000E+00  0.0000000000E+00
                       0.0000000000E+00  0.0000000000E+00  0.0000000000E+00
                       0.0000000000E+00  0.0000000000E+00  0.0000000000E+00
                       0.0000000000E+00  0.0000000000E+00  0.0000000000E+00
                       0.0000000000E+00  0.0000000000E+00  0.0000000000E+00
-          fftalg         512
           irdden           1
           irdwfk           1
           istwfk        1
              ixc     -116133
           kptopt           0
P           mkmem           1
P          mkqmem           1
P          mk1mem           1
            natom           6
            nband          25
           nbdbuf           4
            ngfft          54      50      75
             nkpt           1
            nstep        1000
             nsym           4
           ntypat           3
              occ      2.000000  2.000000  2.000000  2.000000  2.000000  2.000000
                       2.000000  2.000000  2.000000  2.000000  2.000000  2.000000
                       2.000000  2.000000  2.000000  2.000000  0.000000  0.000000
                       0.000000  0.000000  0.000000  0.000000  0.000000  0.000000
                       0.000000
        optdriver           1
            prtwf          -1
            rfdir           1       1       1
           rfelfd           2
            rprim      9.5128719005E+00  0.0000000000E+00  0.0000000000E+00
                       0.0000000000E+00  8.4290126363E+00  1.8162979844E+00
                       0.0000000000E+00  0.0000000000E+00  1.2875938173E+01
          spgroup          11
           strten      0.0000000000E+00  0.0000000000E+00  0.0000000000E+00
                       0.0000000000E+00  0.0000000000E+00  0.0000000000E+00
           symrel      1  0  0   0  1  0   0  0  1      -1  0  0   0 -1  0   0  0 -1
                       1  0  0   0 -1  0   0  0 -1      -1  0  0   0  1  0   0  0  1
            tnons      0.0000000  0.0000000  0.0000000     0.0000000  0.0000000  0.0000000
                       0.5000000  0.0000000  0.0000000     0.5000000  0.0000000  0.0000000
           tolwfr      1.00000000E-20
            typat      1  1  2  2  3  3
           useylm           1
           xangst      1.2584987495E+00  1.2099705513E+00  2.0537665600E+00
                       3.7754962485E+00  3.2504708267E+00  5.7210299576E+00
                       1.2584987495E+00  4.3580430253E+00  7.1219439906E+00
                       3.7754962485E+00  1.0239835272E-01  6.5285252692E-01
                       1.2584987495E+00  1.0343451325E+00  5.4193217385E+00
                       3.7754962485E+00  3.4260962456E+00  2.3554747790E+00
            xcart      2.3782179751E+00  2.2865129708E+00  3.8810563392E+00
                       7.1346539254E+00  6.1424996655E+00  1.0811179818E+01
                       2.3782179751E+00  8.2355077932E+00  1.3458523676E+01
                       7.1346539254E+00  1.9350484309E-01  1.2337124810E+00
                       2.3782179751E+00  1.9546290273E+00  1.0241033912E+01
                       7.1346539254E+00  6.4743836090E+00  4.4512022453E+00
             xred      2.5000000000E-01  2.7126700000E-01  2.6315400000E-01
                       7.5000000000E-01  7.2873300000E-01  7.3684600000E-01
                       2.5000000000E-01  9.7704300000E-01  9.0742300000E-01
                       7.5000000000E-01  2.2957000000E-02  9.2577000000E-02
                       2.5000000000E-01  2.3189300000E-01  7.6265100000E-01
                       7.5000000000E-01  7.6810700000E-01  2.3734900000E-01
            znucl       37.00000    1.00000   16.00000

- Timing analysis has been suppressed with timopt=0

 Suggested references for the acknowledgment of ABINIT usage.

 Calculation completed.
.Delivered   6 WARNINGs and   5 COMMENTs to log file.