.Version 9.5.1 of ABINIT

 ABINIT is a project of the Universite Catholique de Louvain,
 Corning Inc. and other collaborators, see ~abinit/doc/developers/contributors.txt .
 acknowledgments of the ABINIT effort.

.Starting date : Wed 19 May 2021.
- ( at 13h43 )

- input  file    -> /scratch/users/j/a/jabreu/flow_simple_9atoms/flow/w176/t1/run.abi
- output file    -> /scratch/users/j/a/jabreu/flow_simple_9atoms/flow/w176/t1/run.abo
- root for input  files -> /scratch/users/j/a/jabreu/flow_simple_9atoms/flow/w176/t1/indata/in
- root for output files -> /scratch/users/j/a/jabreu/flow_simple_9atoms/flow/w176/t1/outdata/out

 Symmetries : space group Fm -3 m (#225); Bravais cF (face-center cubic)
     intxc =       0      iscf =       7    lmnmax =      32     lnmax =       8
     mgfft =      60  mpssoang =       4    mqgrid =    3001     natom =       9
  nloc_mem =       1    nspden =       1   nspinor =       1    nsppol =       1
      nsym =      48    n1xccc =    2501    ntypat =       3    occopt =       1
   xclevel =       2
-    mband =          30        mffmem =           1         mkmem =           2
-   mkqmem =           2        mk1mem =           2           mpw =        8984
      nfft =      216000          nkpt =           2
  Rough estimation (10% accuracy) of disk space for files :

------------- Echo of variables that govern the present computation ------------
-
- outvars: echo of selected default values
-   iomode0 =  0 , fftalg0 =512 , wfoptalg0 =  0
-
- outvars: echo of global parameters not present in the input file
-  max_nthreads =    0
-
 -outvars: echo values of preprocessed input variables --------
            acell      1.0000000000E+00  1.0000000000E+00  1.0000000000E+00 Bohr
              amu      2.29897680E+01  1.00794000E+00  1.95080000E+02
             ecut      4.40000000E+01 Hartree
-          fftalg         512
           irdden           1
           irdwfk           1
           istwfk        0    1
              ixc     -116133
              kpt      2.00892857E-01  2.00892857E-01  4.01785714E-01
                       5.00000000E-01  0.00000000E+00  5.00000000E-01
           kptopt           0
P           mkmem           2
P          mkqmem           2
P          mk1mem           2
            natom           9
            nband          30
           nbdbuf           4
            ngfft          60      60      60
             nkpt           2
            nstep        2000
             nsym          48
           ntypat           3
              occ      2.000000  2.000000  2.000000  2.000000  2.000000  2.000000
                       2.000000  2.000000  2.000000  2.000000  2.000000  2.000000
                       2.000000  2.000000  2.000000  2.000000  2.000000  2.000000
                       2.000000  2.000000  2.000000  0.000000  0.000000  0.000000
                       0.000000  0.000000  0.000000  0.000000  0.000000  0.000000
        optdriver           1
            prtwf          -1
            rfdir           1       1       1
           rfelfd           2
            rprim      8.3864542577E+00  0.0000000000E+00  4.8419216232E+00
                       2.7954847526E+00  7.9068249010E+00  4.8419216232E+00
                       0.0000000000E+00  0.0000000000E+00  9.6838432465E+00
          spgroup         225
           symrel      1  0  0   0  1  0   0  0  1      -1  0  0   0 -1  0   0  0 -1
                       0 -1  1   0 -1  0   1 -1  0       0  1 -1   0  1  0  -1  1  0
                      -1  0  0  -1  0  1  -1  1  0       1  0  0   1  0 -1   1 -1  0
                       0  1 -1   1  0 -1   0  0 -1       0 -1  1  -1  0  1   0  0  1
                      -1  0  0  -1  1  0  -1  0  1       1  0  0   1 -1  0   1  0 -1
                       0 -1  1   1 -1  0   0 -1  0       0  1 -1  -1  1  0   0  1  0
                       1  0  0   0  0  1   0  1  0      -1  0  0   0  0 -1   0 -1  0
                       0  1 -1   0  0 -1   1  0 -1       0 -1  1   0  0  1  -1  0  1
                      -1  0  1  -1  1  0  -1  0  0       1  0 -1   1 -1  0   1  0  0
                       0 -1  0   1 -1  0   0 -1  1       0  1  0  -1  1  0   0  1 -1
                       1  0 -1   0  0 -1   0  1 -1      -1  0  1   0  0  1   0 -1  1
                       0  1  0   0  0  1   1  0  0       0 -1  0   0  0 -1  -1  0  0
                       1  0 -1   0  1 -1   0  0 -1      -1  0  1   0 -1  1   0  0  1
                       0 -1  0   0 -1  1   1 -1  0       0  1  0   0  1 -1  -1  1  0
                      -1  0  1  -1  0  0  -1  1  0       1  0 -1   1  0  0   1 -1  0
                       0  1  0   1  0  0   0  0  1       0 -1  0  -1  0  0   0  0 -1
                       0  0 -1   0  1 -1   1  0 -1       0  0  1   0 -1  1  -1  0  1
                       1 -1  0   0 -1  1   0 -1  0      -1  1  0   0  1 -1   0  1  0
                       0  0  1   1  0  0   0  1  0       0  0 -1  -1  0  0   0 -1  0
                      -1  1  0  -1  0  0  -1  0  1       1 -1  0   1  0  0   1  0 -1
                       0  0  1   0  1  0   1  0  0       0  0 -1   0 -1  0  -1  0  0
                       1 -1  0   0 -1  0   0 -1  1      -1  1  0   0  1  0   0  1 -1
                       0  0 -1   1  0 -1   0  1 -1       0  0  1  -1  0  1   0 -1  1
                      -1  1  0  -1  0  1  -1  0  0       1 -1  0   1  0 -1   1  0  0
           tolwfr      1.00000000E-20
            typat      1  1  2  2  2  2  2  2  3
           useylm           1
              wtk        0.50000    0.50000
           xangst      4.4379204541E+00  3.1380836474E+00  7.6867037064E+00
                       1.4793068180E+00  1.0460278825E+00  2.5622345688E+00
                       2.1500807430E+00  3.2354939480E+00  6.5248891880E+00
                       4.5756794222E+00  3.2354939480E+00  5.1244691376E+00
                       3.7671465291E+00  9.4861758195E-01  6.5248891880E+00
                       3.7671465291E+00  9.4861758195E-01  3.7240490872E+00
                       1.3415478499E+00  9.4861758195E-01  5.1244691376E+00
                       2.1500807430E+00  3.2354939480E+00  3.7240490872E+00
                       0.0000000000E+00  0.0000000000E+00  0.0000000000E+00
            xcart      8.3864542577E+00  5.9301186758E+00  1.4525764870E+01
                       2.7954847526E+00  1.9767062253E+00  4.8419216232E+00
                       4.0630637678E+00  6.1141974663E+00  1.2330253613E+01
                       8.6467809798E+00  6.1141974663E+00  9.6838432464E+00
                       7.1188752425E+00  1.7926274347E+00  1.2330253613E+01
                       7.1188752425E+00  1.7926274347E+00  7.0374328802E+00
                       2.5351580305E+00  1.7926274347E+00  9.6838432465E+00
                       4.0630637678E+00  6.1141974663E+00  7.0374328802E+00
                       0.0000000000E+00  0.0000000000E+00  0.0000000000E+00
             xred      7.5000000000E-01  7.5000000000E-01  7.5000000000E-01
                       2.5000000000E-01  2.5000000000E-01  2.5000000000E-01
                       2.2671900000E-01  7.7328100000E-01  7.7328100000E-01
                       7.7328100000E-01  7.7328100000E-01  2.2671900000E-01
                       7.7328100000E-01  2.2671900000E-01  7.7328100000E-01
                       7.7328100000E-01  2.2671900000E-01  2.2671900000E-01
                       2.2671900000E-01  2.2671900000E-01  7.7328100000E-01
                       2.2671900000E-01  7.7328100000E-01  2.2671900000E-01
                       0.0000000000E+00  0.0000000000E+00  0.0000000000E+00
            znucl       11.00000    1.00000   78.00000

 chkinp: Checking input parameters for consistency.

== DATASET  1 ==================================================================
-   mpi_nproc: 1, omp_nthreads: -1 (-1 if OMP is not activated)

--- !DatasetInfo
iteration_state: {dtset: 1, }
dimensions: {natom: 9, nkpt: 2, mband: 30, nsppol: 1, nspinor: 1, nspden: 1, mpw: 8984, }
cutoff_energies: {ecut:  44.0, pawecutdg:  -1.0, }
electrons: {nelect:   4.20000000E+01, charge:   0.00000000E+00, occopt:   1.00000000E+00, tsmear:   1.00000000E-02, }
meta: {optdriver: 1, rfelfd: 2, }
...

 Real(R)+Recip(G) space primitive vectors, cartesian coordinates (Bohr,Bohr^-1):
 R(1)=  8.3864543  0.0000000  4.8419216  G(1)=  0.1192399 -0.0421577  0.0000000
 R(2)=  2.7954848  7.9068249  4.8419216  G(2)=  0.0000000  0.1264730  0.0000000
 R(3)=  0.0000000  0.0000000  9.6838432  G(3)= -0.0596200 -0.0421577  0.1032648
 Unit cell volume ucvol=  6.4213783E+02 bohr^3
 Angles (23,13,12)=  6.00000000E+01  6.00000000E+01  6.00000000E+01 degrees

 getcut: wavevector=  0.0000  0.0000  0.0000  ngfft=  60  60  60
         ecut(hartree)=     44.000   => boxcut(ratio)=   2.07497

--- Pseudopotential description ------------------------------------------------
- pspini: atom type   1  psp file is /scratch/users/j/a/jabreu/pseudos/PBEsol/Na.psp8
- pspatm: opening atomic psp file    /scratch/users/j/a/jabreu/pseudos/PBEsol/Na.psp8
- Na    ONCVPSP-3.3.0  r_core=   1.20708   1.55069
- 11.00000   9.00000    180112                znucl, zion, pspdat
    8 -116133    1    4       400   0.00000   pspcod,pspxc,lmax,lloc,mmax,r2well
    3.99000000000000    0.00000000000000    0.00000000000000   rchrg,fchrg,qchrg
     nproj     2     2
     extension_switch     1
  pspatm : epsatm=    9.32878306
         --- l  ekb(1:nproj) -->
             0    2.657905   -0.678300
             1   -6.761319   -2.404728
 pspatm: atomic psp has been read  and splines computed

- pspini: atom type   2  psp file is /scratch/users/j/a/jabreu/pseudos/PBEsol/H.psp8
- pspatm: opening atomic psp file    /scratch/users/j/a/jabreu/pseudos/PBEsol/H.psp8
- H     ONCVPSP-3.3.0  r_core=   1.00957   0.70586
-  1.00000   1.00000    180112                znucl, zion, pspdat
    8 -116133    1    4       300   0.00000   pspcod,pspxc,lmax,lloc,mmax,r2well
    2.99000000000000    0.00000000000000    0.00000000000000   rchrg,fchrg,qchrg
     nproj     2     1
     extension_switch     1
  pspatm : epsatm=    0.35627032
         --- l  ekb(1:nproj) -->
             0   -1.674911   -0.523609
             1   -0.494138
 pspatm: atomic psp has been read  and splines computed

- pspini: atom type   3  psp file is /scratch/users/j/a/jabreu/pseudos/PBEsol/Pt.psp8
- pspatm: opening atomic psp file    /scratch/users/j/a/jabreu/pseudos/PBEsol/Pt.psp8
- Pt    ONCVPSP-3.3.0  r_core=   1.45722   1.45722   1.45722   1.91724
- 78.00000  18.00000    180112                znucl, zion, pspdat
    8 -116133    3    4       500   0.00000   pspcod,pspxc,lmax,lloc,mmax,r2well
    4.99000000000000    5.00000000000000    0.00000000000000   rchrg,fchrg,qchrg
     nproj     2     2     2     2
     extension_switch     1
  pspatm : epsatm=   26.54019552
         --- l  ekb(1:nproj) -->
             0   18.149684    1.747248
             1    8.048135    1.208190
             2    2.365973    0.348456
             3    3.491561    0.381218
 pspatm: atomic psp has been read  and splines computed

   1.98808611E+03                                ecore*ucvol(ha*bohr**3)

[...]
 ETOT  9  -30.001294530936      0.000E+00 3.363E-13 0.000E+00
 ETOT 10  -30.001294530936      0.000E+00 8.097E-15 0.000E+00
 ETOT 11  -30.001294530936      0.000E+00 1.355E-15 0.000E+00
 ETOT 12  -30.001294530936      0.000E+00 3.410E-17 0.000E+00
 ETOT 13  -30.001294530936      0.000E+00 5.567E-18 0.000E+00
 ETOT 14  -30.001294530936      0.000E+00 1.454E-19 0.000E+00
 ETOT 15  -30.001294530936      0.000E+00 2.315E-20 0.000E+00
 ETOT 16  -30.001294530936      0.000E+00 9.663E-21 0.000E+00

 At SCF step   16   max residual=  9.66E-21 < tolwfr=  1.00E-20 =>converged.

 ----iterations are completed or convergence reached----

 dfpt_looppert: DFPT cycle converged with prtwf=-1. Will skip output of the 1st-order WFK file.
 dfpt_looppert : ek2=    5.3043818472E+01
          f-sum rule ratio=    1.0166947227E+00
 prteigrs : about to open file /scratch/users/j/a/jabreu/flow_simple_9atoms/flow/w176/t1/tmpdata/tmp_1WF1_EIG
 Expectation of eigenvalue derivatives (hartree) for nkpt=   2  k points:
  (in case of degenerate eigenvalues, averaged derivative)
 kpt#   1, nband= 30, wtk=  0.50000, kpt=  0.2009  0.2009  0.4018 (reduced coord)
  -0.00000    0.00000   -0.00000   -0.00000    0.00000    0.00000    0.00000   -0.00000
   0.00000    0.00000   -0.00000   -0.00000   -0.00000    0.00000   -0.00000    0.00000
  -0.00000    0.00000    0.00000   -0.00000    0.00000    0.00000   -0.00000    0.00000
  -0.00000    0.00000   -0.00000    0.00000   -0.00000    0.00009
 prteigrs : prtvol=0 or 1, do not print more k-points.

 Eight components of 2nd-order total energy (hartree) are
 1,2,3: 0th-order hamiltonian combined with 1st-order wavefunctions
     kin0=   3.19262214E+01 eigvalue=   3.66300777E+00  local=  -1.51845975E+01
 4,5,6: 1st-order hamiltonian combined with 1st and 0th-order wfs
     kin1=  -5.39293703E+01  Hartree=   0.00000000E+00     xc=   0.00000000E+00
 7,8,9: eventually, occupation + non-local contributions
    edocc=   8.50406091E+00     enl0=   1.09260198E+00   enl1=  -6.07321875E+00
 1-9 gives the relaxation energy (to be shifted if some occ is /=2.0)
   erelax=  -3.00012945E+01
  No Ewald or frozen-wf contrib.: the relaxation energy is the total one
 2DEtotal=   -0.3000129453E+02 Ha. Also 2DEtotal=   -0.816376741778E+03 eV
    (  non-var. 2DEtotal :   -3.0001294531E+01 Ha)

 Perturbation wavevector (in red.coord.)   0.000000  0.000000  0.000000
 Perturbation : derivative vs k along direction   2
 The set of symmetries contains only one element for this perturbation.
 symkpt : not enough symmetry to change the number of k points.

[...]

 Perturbation wavevector (in red.coord.)   0.000000  0.000000  0.000000
 Perturbation : derivative vs k along direction   3
 The set of symmetries contains only one element for this perturbation.
 symkpt : not enough symmetry to change the number of k points.

-inwffil : will read wavefunctions from disk file /scratch/users/j/a/jabreu/flow_simple_9atoms/flow/w176/t1/indata/in_WFK

 Initialisation of the first-order wave-functions :
  ireadwf=   0

--- !BeginCycle
iteration_state: {dtset: 1, }
solver: {iscf: 7, nstep: 2000, nline: 4, wfoptalg: 0, }
tolerances: {tolwfr: 1.00E-20, }
...

     iter   2DEtotal(Ha)        deltaE(Ha) residm    vres2
-ETOT  1  -29.509443631703     -2.951E+01 1.035E-01 0.000E+00
 ETOT  2  -29.518786216604     -9.343E-03 8.713E-04 0.000E+00
 ETOT  3  -29.518789220013     -3.003E-06 1.065E-05 0.000E+00
 ETOT  4  -29.518789222384     -2.371E-09 1.653E-07 0.000E+00
 ETOT  5  -29.518789222388     -3.471E-12 2.506E-08 0.000E+00
 ETOT  6  -29.518789222388      2.132E-14 4.913E-10 0.000E+00
 ETOT  7  -29.518789222388     -2.132E-14 8.669E-11 0.000E+00
 ETOT  8  -29.518789222388      3.553E-15 1.958E-12 0.000E+00
 ETOT  9  -29.518789222388      0.000E+00 3.363E-13 0.000E+00
 ETOT 10  -29.518789222388      1.421E-14 8.097E-15 0.000E+00
 ETOT 11  -29.518789222388     -1.421E-14 1.355E-15 0.000E+00
 ETOT 12  -29.518789222388      1.421E-14 3.410E-17 0.000E+00
 ETOT 13  -29.518789222388     -1.421E-14 5.567E-18 0.000E+00
 ETOT 14  -29.518789222388      1.421E-14 1.454E-19 0.000E+00
 ETOT 15  -29.518789222388     -1.421E-14 2.315E-20 0.000E+00
 ETOT 16  -29.518789222388      2.132E-14 9.493E-21 0.000E+00

 At SCF step   16   max residual=  9.49E-21 < tolwfr=  1.00E-20 =>converged.

 ----iterations are completed or convergence reached----

 dfpt_looppert: DFPT cycle converged with prtwf=-1. Will skip output of the 1st-order WFK file.
 dfpt_looppert : ek2=    5.3043818471E+01
          f-sum rule ratio=    9.9917639371E-01
 prteigrs : about to open file /scratch/users/j/a/jabreu/flow_simple_9atoms/flow/w176/t1/tmpdata/tmp_1WF1_EIG
 Expectation of eigenvalue derivatives (hartree) for nkpt=   2  k points:
  (in case of degenerate eigenvalues, averaged derivative)
 kpt#   1, nband= 30, wtk=  0.50000, kpt=  0.2009  0.2009  0.4018 (reduced coord)
   0.00000   -0.00001   -0.00001   -0.00000    0.00012   -0.00011   -0.00052    0.00135
   0.00138   -0.00159   -0.00146    0.00028    0.09053   -0.00357   -0.01812   -0.01470
  -0.06633    0.01026   -0.03824   -0.05599   -0.00032   -0.04689   -0.18577    0.16901
   0.00524   -0.00183    0.09159    0.18155    0.31449    0.08980
 prteigrs : prtvol=0 or 1, do not print more k-points.

 Eight components of 2nd-order total energy (hartree) are
 1,2,3: 0th-order hamiltonian combined with 1st-order wavefunctions
     kin0=   3.24424604E+01 eigvalue=   3.71450766E+00  local=  -1.55127832E+01
 4,5,6: 1st-order hamiltonian combined with 1st and 0th-order wfs
     kin1=  -5.30001312E+01  Hartree=   0.00000000E+00     xc=   0.00000000E+00
 7,8,9: eventually, occupation + non-local contributions
    edocc=   7.80048363E+00     enl0=   1.07412076E+00   enl1=  -6.03744720E+00
 1-9 gives the relaxation energy (to be shifted if some occ is /=2.0)
   erelax=  -2.95187892E+01
  No Ewald or frozen-wf contrib.: the relaxation energy is the total one
 2DEtotal=   -0.2951878922E+02 Ha. Also 2DEtotal=   -0.803247104613E+03 eV
    (  non-var. 2DEtotal :   -2.9518789222E+01 Ha)

 CALCULATION OF EFFECTIVE MASSES
 NOTE : Additional infos (eff. mass eigenvalues, eigenvectors and, if degenerate, average mass) are available in stdout.

 K-point ( 0.201, 0.201, 0.402) | band =    21
 Effective mass tensor:
             -3.8094619557             -2.3508676903              0.0000016122
             -2.3508676903             -2.1471470576              0.0000019373
              0.0000016122              0.0000019373             -1.1236156690
 Effective mass tensor eigenvalues:
             -5.4717763036             -1.1236156690             -0.4848327097
 Angular average effective mass 1/(<1/m>)=  -0.9568440539
 Angular average effective mass for Frohlich model (<m**0.5>)**2=  -1.1886773277
 Effective masses along directions: (cart. coord. / red. coord. -> eff. mass)
    1:   1.000000  0.000000  0.000000 /   0.948683  0.316228  0.000000 ->  -1.2355446836
    2:   0.000000  1.000000  0.000000 /   0.000000  1.000000  0.000000 ->  -0.6963965418
    3:   0.000000  0.000000  1.000000 /   0.408248  0.408248  0.816497 ->  -1.1236156690
    4:   0.577350  0.577350  0.577350 /   0.585539  0.688047  0.428644 ->  -2.2010175055
    5:   0.000000  0.707107  0.707107 /   0.289489  0.762222  0.578977 ->  -0.8598637429
    6:   0.707107  0.000000  0.707107 /   0.731423  0.422287  0.535439 ->  -1.1769254800
    7:   0.707107  0.707107  0.000000 /   0.616798  0.787122  0.000000 ->  -4.2281486563

 K-point ( 0.500, 0.000, 0.500) | band =    22
 Effective mass tensor:
              0.3918685179             -0.0417968733              0.0511905062
             -0.0417968733              0.4214233704             -0.0723943081
              0.0511905062             -0.0723943081              0.4509782230
 Effective mass tensor eigenvalues:
              0.3623136653              0.3623136653              0.5396427806
 Angular average effective mass 1/(<1/m>)=   0.4068813652
 Angular average effective mass for Frohlich model (<m**0.5>)**2=   0.4108833673
 Effective masses along directions: (cart. coord. / red. coord. -> eff. mass)
    1:   1.000000  0.000000  0.000000 /   0.948683  0.316228  0.000000 ->   0.3833063734
    2:   0.000000  1.000000  0.000000 /   0.000000  1.000000  0.000000 ->   0.4068813652
    3:   0.000000  0.000000  1.000000 /   0.408248  0.408248  0.816497 ->   0.4335463307
    4:   0.577350  0.577350  0.577350 /   0.585539  0.688047  0.428644 ->   0.3741768599
    5:   0.000000  0.707107  0.707107 /   0.289489  0.762222  0.578977 ->   0.3633187202
    6:   0.707107  0.000000  0.707107 /   0.731423  0.422287  0.535439 ->   0.4553938225
    7:   0.707107  0.707107  0.000000 /   0.616798  0.787122  0.000000 ->   0.3640239604

 END OF EFFECTIVE MASSES SECTION

 ---- first-order wavefunction calculations are completed ----

 Total localisation tensor (bohr^2) in cartesian coordinates
  WARNING : still subject to testing - especially symmetries.
      direction              matrix element
   alpha     beta       real part   imaginary part
     1        1       0.9063998226    0.0000000000
     1        2       0.2563679132    0.0000000000
     1        3       0.6279719439    0.0000000000
     2        1       0.2563679132    0.0000000000
     2        2       0.7251179596    0.0000000000
     2        3       0.4440422511    0.0000000000
     3        1       0.6279719439    0.0000000000
     3        2       0.4440422511    0.0000000000
     3        3       1.5894585450    0.0000000000

 respfn : d/dk was computed, but no 2DTE, so no DDB output.

== END DATASET(S) ==============================================================

 -outvars: echo values of variables after computation  --------
            acell      1.0000000000E+00  1.0000000000E+00  1.0000000000E+00 Bohr
              amu      2.29897680E+01  1.00794000E+00  1.95080000E+02
             ecut      4.40000000E+01 Hartree
           etotal     -2.9518789222E+01
            fcart      0.0000000000E+00  0.0000000000E+00  0.0000000000E+00
                       0.0000000000E+00  0.0000000000E+00  0.0000000000E+00
                       0.0000000000E+00  0.0000000000E+00  0.0000000000E+00
                       0.0000000000E+00  0.0000000000E+00  0.0000000000E+00
                       0.0000000000E+00  0.0000000000E+00  0.0000000000E+00
                       0.0000000000E+00  0.0000000000E+00  0.0000000000E+00
                       0.0000000000E+00  0.0000000000E+00  0.0000000000E+00
                       0.0000000000E+00  0.0000000000E+00  0.0000000000E+00
                       0.0000000000E+00  0.0000000000E+00  0.0000000000E+00
-          fftalg         512
           irdden           1
           irdwfk           1
           istwfk        0    1
              ixc     -116133
              kpt      2.00892857E-01  2.00892857E-01  4.01785714E-01
                       5.00000000E-01  0.00000000E+00  5.00000000E-01
           kptopt           0
P           mkmem           2
P          mkqmem           2
P          mk1mem           2
            natom           9
            nband          30
           nbdbuf           4
            ngfft          60      60      60
             nkpt           2
            nstep        2000
             nsym          48
           ntypat           3
              occ      2.000000  2.000000  2.000000  2.000000  2.000000  2.000000
                       2.000000  2.000000  2.000000  2.000000  2.000000  2.000000
                       2.000000  2.000000  2.000000  2.000000  2.000000  2.000000
                       2.000000  2.000000  2.000000  0.000000  0.000000  0.000000
                       0.000000  0.000000  0.000000  0.000000  0.000000  0.000000
        optdriver           1
            prtwf          -1
            rfdir           1       1       1
           rfelfd           2
            rprim      8.3864542577E+00  0.0000000000E+00  4.8419216232E+00
                       2.7954847526E+00  7.9068249010E+00  4.8419216232E+00
                       0.0000000000E+00  0.0000000000E+00  9.6838432465E+00
          spgroup         225
           strten      0.0000000000E+00  0.0000000000E+00  0.0000000000E+00
                       0.0000000000E+00  0.0000000000E+00  0.0000000000E+00
           symrel      1  0  0   0  1  0   0  0  1      -1  0  0   0 -1  0   0  0 -1
                       0 -1  1   0 -1  0   1 -1  0       0  1 -1   0  1  0  -1  1  0
                      -1  0  0  -1  0  1  -1  1  0       1  0  0   1  0 -1   1 -1  0
                       0  1 -1   1  0 -1   0  0 -1       0 -1  1  -1  0  1   0  0  1
                      -1  0  0  -1  1  0  -1  0  1       1  0  0   1 -1  0   1  0 -1
                       0 -1  1   1 -1  0   0 -1  0       0  1 -1  -1  1  0   0  1  0
                       1  0  0   0  0  1   0  1  0      -1  0  0   0  0 -1   0 -1  0
                       0  1 -1   0  0 -1   1  0 -1       0 -1  1   0  0  1  -1  0  1
                      -1  0  1  -1  1  0  -1  0  0       1  0 -1   1 -1  0   1  0  0
                       0 -1  0   1 -1  0   0 -1  1       0  1  0  -1  1  0   0  1 -1
                       1  0 -1   0  0 -1   0  1 -1      -1  0  1   0  0  1   0 -1  1
                       0  1  0   0  0  1   1  0  0       0 -1  0   0  0 -1  -1  0  0
                       1  0 -1   0  1 -1   0  0 -1      -1  0  1   0 -1  1   0  0  1
                       0 -1  0   0 -1  1   1 -1  0       0  1  0   0  1 -1  -1  1  0
                      -1  0  1  -1  0  0  -1  1  0       1  0 -1   1  0  0   1 -1  0
                       0  1  0   1  0  0   0  0  1       0 -1  0  -1  0  0   0  0 -1
                       0  0 -1   0  1 -1   1  0 -1       0  0  1   0 -1  1  -1  0  1
                       1 -1  0   0 -1  1   0 -1  0      -1  1  0   0  1 -1   0  1  0
                       0  0  1   1  0  0   0  1  0       0  0 -1  -1  0  0   0 -1  0
                      -1  1  0  -1  0  0  -1  0  1       1 -1  0   1  0  0   1  0 -1
                       0  0  1   0  1  0   1  0  0       0  0 -1   0 -1  0  -1  0  0
                       1 -1  0   0 -1  0   0 -1  1      -1  1  0   0  1  0   0  1 -1
                       0  0 -1   1  0 -1   0  1 -1       0  0  1  -1  0  1   0 -1  1
                      -1  1  0  -1  0  1  -1  0  0       1 -1  0   1  0 -1   1  0  0
           tolwfr      1.00000000E-20
            typat      1  1  2  2  2  2  2  2  3
           useylm           1
              wtk        0.50000    0.50000
           xangst      4.4379204541E+00  3.1380836474E+00  7.6867037064E+00
                       1.4793068180E+00  1.0460278825E+00  2.5622345688E+00
                       2.1500807430E+00  3.2354939480E+00  6.5248891880E+00
                       4.5756794222E+00  3.2354939480E+00  5.1244691376E+00
                       3.7671465291E+00  9.4861758195E-01  6.5248891880E+00
                       3.7671465291E+00  9.4861758195E-01  3.7240490872E+00
                       1.3415478499E+00  9.4861758195E-01  5.1244691376E+00
                       2.1500807430E+00  3.2354939480E+00  3.7240490872E+00
                       0.0000000000E+00  0.0000000000E+00  0.0000000000E+00
            xcart      8.3864542577E+00  5.9301186758E+00  1.4525764870E+01
                       2.7954847526E+00  1.9767062253E+00  4.8419216232E+00
                       4.0630637678E+00  6.1141974663E+00  1.2330253613E+01
                       8.6467809798E+00  6.1141974663E+00  9.6838432464E+00
                       7.1188752425E+00  1.7926274347E+00  1.2330253613E+01
                       7.1188752425E+00  1.7926274347E+00  7.0374328802E+00
                       2.5351580305E+00  1.7926274347E+00  9.6838432465E+00
                       4.0630637678E+00  6.1141974663E+00  7.0374328802E+00
                       0.0000000000E+00  0.0000000000E+00  0.0000000000E+00
             xred      7.5000000000E-01  7.5000000000E-01  7.5000000000E-01
                       2.5000000000E-01  2.5000000000E-01  2.5000000000E-01
                       2.2671900000E-01  7.7328100000E-01  7.7328100000E-01
                       7.7328100000E-01  7.7328100000E-01  2.2671900000E-01
                       7.7328100000E-01  2.2671900000E-01  7.7328100000E-01
                       7.7328100000E-01  2.2671900000E-01  2.2671900000E-01
                       2.2671900000E-01  2.2671900000E-01  7.7328100000E-01
                       2.2671900000E-01  7.7328100000E-01  2.2671900000E-01
                       0.0000000000E+00  0.0000000000E+00  0.0000000000E+00
            znucl       11.00000    1.00000   78.00000

- Timing analysis has been suppressed with timopt=0

 Suggested references for the acknowledgment of ABINIT usage.

 Calculation completed.
.Delivered  14 WARNINGs and   9 COMMENTs to log file.