.Version 9.5.1 of ABINIT

 ABINIT is a project of the Universite Catholique de Louvain,
 Corning Inc. and other collaborators, see ~abinit/doc/developers/contributors.txt .
 acknowledgments of the ABINIT effort.

.Starting date : Wed 19 May 2021.
- ( at 15h34 )

- input  file    -> /scratch/users/j/a/jabreu/flow_simple_9atoms/flow/w194/t1/run.abi
- output file    -> /scratch/users/j/a/jabreu/flow_simple_9atoms/flow/w194/t1/run.abo
- root for input  files -> /scratch/users/j/a/jabreu/flow_simple_9atoms/flow/w194/t1/indata/in
- root for output files -> /scratch/users/j/a/jabreu/flow_simple_9atoms/flow/w194/t1/outdata/out

 Symmetries : space group Fm -3 m (#225); Bravais cF (face-center cubic)
     intxc =       0      iscf =       7    lmnmax =      32     lnmax =       8
     mgfft =      75  mpssoang =       4    mqgrid =    3011     natom =       9
  nloc_mem =       1    nspden =       1   nspinor =       1    nsppol =       1
      nsym =      48    n1xccc =    2501    ntypat =       3    occopt =       1
   xclevel =       2
-    mband =          45        mffmem =           1         mkmem =           2
-   mkqmem =           2        mk1mem =           2           mpw =       18542
      nfft =      421875          nkpt =           2
  Rough estimation (10% accuracy) of disk space for files :

------------- Echo of variables that govern the present computation ------------
-
- outvars: echo of selected default values
-   iomode0 =  0 , fftalg0 =512 , wfoptalg0 =  0
-
- outvars: echo of global parameters not present in the input file
-  max_nthreads =    0
-
 -outvars: echo values of preprocessed input variables --------
            acell      1.0000000000E+00  1.0000000000E+00  1.0000000000E+00 Bohr
              amu      1.32905430E+02  9.12240000E+01  3.54527000E+01
             ecut      3.50000000E+01 Hartree
-          fftalg         512
           irdden           1
           irdwfk           1
           istwfk        1    1
              ixc     -116133
              kpt      0.00000000E+00  0.00000000E+00  0.00000000E+00
                       5.00000000E-01  0.00000000E+00  5.00000000E-01
           kptopt           0
P           mkmem           2
P          mkqmem           2
P          mk1mem           2
            natom           9
            nband          45
           nbdbuf           4
            ngfft          75      75      75
             nkpt           2
            nstep        2000
             nsym          48
           ntypat           3
              occ      2.000000  2.000000  2.000000  2.000000  2.000000  2.000000
                       2.000000  2.000000  2.000000  2.000000  2.000000  2.000000
                       2.000000  2.000000  2.000000  2.000000  2.000000  2.000000
                       2.000000  2.000000  2.000000  2.000000  2.000000  2.000000
                       2.000000  2.000000  2.000000  2.000000  2.000000  2.000000
                       2.000000  2.000000  2.000000  2.000000  2.000000  2.000000
                       0.000000  0.000000  0.000000  0.000000  0.000000  0.000000
                       0.000000  0.000000  0.000000
        optdriver           1
            prtwf          -1
            rfdir           1       1       1
           rfelfd           2
            rprim      1.1990421883E+01  0.0000000000E+00  6.9226733021E+00
                       3.9968072945E+00  1.1304678164E+01  6.9226733021E+00
                       0.0000000000E+00  0.0000000000E+00  1.3845346604E+01
          spgroup         225
           symrel      1  0  0   0  1  0   0  0  1      -1  0  0   0 -1  0   0  0 -1
                       0 -1  1   0 -1  0   1 -1  0       0  1 -1   0  1  0  -1  1  0
                      -1  0  0  -1  0  1  -1  1  0       1  0  0   1  0 -1   1 -1  0
                       0  1 -1   1  0 -1   0  0 -1       0 -1  1  -1  0  1   0  0  1
                      -1  0  0  -1  1  0  -1  0  1       1  0  0   1 -1  0   1  0 -1
                       0 -1  1   1 -1  0   0 -1  0       0  1 -1  -1  1  0   0  1  0
                       1  0  0   0  0  1   0  1  0      -1  0  0   0  0 -1   0 -1  0
                       0  1 -1   0  0 -1   1  0 -1       0 -1  1   0  0  1  -1  0  1
                      -1  0  1  -1  1  0  -1  0  0       1  0 -1   1 -1  0   1  0  0
                       0 -1  0   1 -1  0   0 -1  1       0  1  0  -1  1  0   0  1 -1
                       1  0 -1   0  0 -1   0  1 -1      -1  0  1   0  0  1   0 -1  1
                       0  1  0   0  0  1   1  0  0       0 -1  0   0  0 -1  -1  0  0
                       1  0 -1   0  1 -1   0  0 -1      -1  0  1   0 -1  1   0  0  1
                       0 -1  0   0 -1  1   1 -1  0       0  1  0   0  1 -1  -1  1  0
                      -1  0  1  -1  0  0  -1  1  0       1  0 -1   1  0  0   1 -1  0
                       0  1  0   1  0  0   0  0  1       0 -1  0  -1  0  0   0  0 -1
                       0  0 -1   0  1 -1   1  0 -1       0  0  1   0 -1  1  -1  0  1
                       1 -1  0   0 -1  1   0 -1  0      -1  1  0   0  1 -1   0  1  0
                       0  0  1   1  0  0   0  1  0       0  0 -1  -1  0  0   0 -1  0
                      -1  1  0  -1  0  0  -1  0  1       1 -1  0   1  0  0   1  0 -1
                       0  0  1   0  1  0   1  0  0       0  0 -1   0 -1  0  -1  0  0
                       1 -1  0   0 -1  0   0 -1  1      -1  1  0   0  1  0   0  1 -1
                       0  0 -1   1  0 -1   0  1 -1       0  0  1  -1  0  1   0 -1  1
                      -1  1  0  -1  0  1  -1  0  0       1 -1  0   1  0 -1   1  0  0
           tolwfr      1.00000000E-20
            typat      1  1  2  3  3  3  3  3  3
           useylm           1
              wtk        0.50000    0.50000
           xangst      2.1150193274E+00  1.4955445087E+00  3.6633209340E+00
                       6.3450579821E+00  4.4866335262E+00  1.0989962802E+01
                       0.0000000000E+00  0.0000000000E+00  0.0000000000E+00
                       5.3400304080E+00  1.4213236258E+00  9.2492039806E+00
                       2.0100551482E+00  1.4213236258E+00  7.3266418680E+00
                       6.4500221613E+00  4.5608544090E+00  7.3266418680E+00
                       3.1200469015E+00  4.5608544090E+00  5.4040797553E+00
                       3.1200469015E+00  4.5608544090E+00  9.2492039806E+00
                       5.3400304080E+00  1.4213236258E+00  5.4040797553E+00
            xcart      3.9968072945E+00  2.8261695410E+00  6.9226733021E+00
                       1.1990421883E+01  8.4785086231E+00  2.0768019906E+01
                       0.0000000000E+00  0.0000000000E+00  0.0000000000E+00
                       1.0091195012E+01  2.6859123990E+00  1.7478462471E+01
                       3.7984537421E+00  2.6859123990E+00  1.3845346604E+01
                       1.2188775436E+01  8.6187657651E+00  1.3845346604E+01
                       5.8960341655E+00  8.6187657651E+00  1.0212230738E+01
                       5.8960341655E+00  8.6187657651E+00  1.7478462471E+01
                       1.0091195012E+01  2.6859123990E+00  1.0212230738E+01
             xred      2.5000000000E-01  2.5000000000E-01  2.5000000000E-01
                       7.5000000000E-01  7.5000000000E-01  7.5000000000E-01
                       0.0000000000E+00  0.0000000000E+00  0.0000000000E+00
                       7.6240700000E-01  2.3759300000E-01  7.6240700000E-01
                       2.3759300000E-01  2.3759300000E-01  7.6240700000E-01
                       7.6240700000E-01  7.6240700000E-01  2.3759300000E-01
                       2.3759300000E-01  7.6240700000E-01  2.3759300000E-01
                       2.3759300000E-01  7.6240700000E-01  7.6240700000E-01
                       7.6240700000E-01  2.3759300000E-01  2.3759300000E-01
            znucl       55.00000   40.00000   17.00000

 chkinp: Checking input parameters for consistency.

== DATASET  1 ==================================================================
-   mpi_nproc: 1, omp_nthreads: -1 (-1 if OMP is not activated)

--- !DatasetInfo
iteration_state: {dtset: 1, }
dimensions: {natom: 9, nkpt: 2, mband: 45, nsppol: 1, nspinor: 1, nspden: 1, mpw: 18542, }
cutoff_energies: {ecut:  35.0, pawecutdg:  -1.0, }
electrons: {nelect:   7.20000000E+01, charge:   0.00000000E+00, occopt:   1.00000000E+00, tsmear:   1.00000000E-02, }
meta: {optdriver: 1, rfelfd: 2, }
...

 Real(R)+Recip(G) space primitive vectors, cartesian coordinates (Bohr,Bohr^-1):
 R(1)= 11.9904219  0.0000000  6.9226733  G(1)=  0.0833999 -0.0294863  0.0000000
 R(2)=  3.9968073 11.3046782  6.9226733  G(2)=  0.0000000  0.0884590  0.0000000
 R(3)=  0.0000000  0.0000000 13.8453466  G(3)= -0.0417000 -0.0294863  0.0722264
 Unit cell volume ucvol=  1.8767071E+03 bohr^3
 Angles (23,13,12)=  6.00000000E+01  6.00000000E+01  6.00000000E+01 degrees

 getcut: wavevector=  0.0000  0.0000  0.0000  ngfft=  75  75  75
         ecut(hartree)=     35.000   => boxcut(ratio)=   2.00728

--- Pseudopotential description ------------------------------------------------
- pspini: atom type   1  psp file is /scratch/users/j/a/jabreu/pseudos/PBEsol/Cs.psp8
- pspatm: opening atomic psp file    /scratch/users/j/a/jabreu/pseudos/PBEsol/Cs.psp8
- Cs    ONCVPSP-3.3.0  r_core=   2.27353   1.85623   2.01788   1.90105
- 55.00000   9.00000    180112                znucl, zion, pspdat
    8 -116133    3    4       600   0.00000   pspcod,pspxc,lmax,lloc,mmax,r2well
    5.99000000000000    5.00000000000000    0.00000000000000   rchrg,fchrg,qchrg
     nproj     2     2     2     2
     extension_switch     1
  pspatm : epsatm=   22.12462445
         --- l  ekb(1:nproj) -->
             0    6.214110    0.767882
             1    6.311966    0.793598
             2    3.769790    0.913105
             3   -9.247129   -2.432478
 pspatm: atomic psp has been read  and splines computed

- pspini: atom type   2  psp file is /scratch/users/j/a/jabreu/pseudos/PBEsol/Zr.psp8
- pspatm: opening atomic psp file    /scratch/users/j/a/jabreu/pseudos/PBEsol/Zr.psp8
- Zr    ONCVPSP-3.3.0  r_core=   1.56507   1.56507   1.51006
- 40.00000  12.00000    180112                znucl, zion, pspdat
    8 -116133    2    4       600   0.00000   pspcod,pspxc,lmax,lloc,mmax,r2well
    5.99000000000000    5.00000000000000    0.00000000000000   rchrg,fchrg,qchrg
     nproj     2     2     2
     extension_switch     1
  pspatm : epsatm=   18.88750170
         --- l  ekb(1:nproj) -->
             0   10.584966    0.890424
             1    5.814585    0.741293
             2    1.525459    0.487901
 pspatm: atomic psp has been read  and splines computed

- pspini: atom type   3  psp file is /scratch/users/j/a/jabreu/pseudos/PBEsol/Cl.psp8
- pspatm: opening atomic psp file    /scratch/users/j/a/jabreu/pseudos/PBEsol/Cl.psp8
- Cl    ONCVPSP-3.3.0  r_core=   1.56009   1.35202   1.75774
- 17.00000   7.00000    180112                znucl, zion, pspdat
    8 -116133    2    4       600   0.00000   pspcod,pspxc,lmax,lloc,mmax,r2well
    5.99000000000000    8.00000000000000    0.00000000000000   rchrg,fchrg,qchrg
     nproj     2     2     2
     extension_switch     1
  pspatm : epsatm=    8.95520722
[...]
 Perturbation : derivative vs k along direction   3
 The set of symmetries contains only one element for this perturbation.
 symkpt : not enough symmetry to change the number of k points.

-inwffil : will read wavefunctions from disk file /scratch/users/j/a/jabreu/flow_simple_9atoms/flow/w194/t1/indata/in_WFK

 Initialisation of the first-order wave-functions :
  ireadwf=   0

--- !BeginCycle
iteration_state: {dtset: 1, }
solver: {iscf: 7, nstep: 2000, nline: 4, wfoptalg: 0, }
tolerances: {tolwfr: 1.00E-20, }
...

     iter   2DEtotal(Ha)        deltaE(Ha) residm    vres2
-ETOT  1  -22.846808919870     -2.285E+01 5.556E-02 0.000E+00
 ETOT  2  -22.875034815605     -2.823E-02 6.386E-03 0.000E+00
 ETOT  3  -22.875320853223     -2.860E-04 1.161E-04 0.000E+00
 ETOT  4  -22.875332326253     -1.147E-05 3.706E-05 0.000E+00
 ETOT  5  -22.875332872504     -5.463E-07 1.587E-06 0.000E+00
 ETOT  6  -22.875332901956     -2.945E-08 4.488E-07 0.000E+00
 ETOT  7  -22.875332903637     -1.681E-09 2.560E-08 0.000E+00
 ETOT  8  -22.875332903739     -1.018E-10 6.942E-09 0.000E+00
 ETOT  9  -22.875332903745     -6.427E-12 4.575E-10 0.000E+00
 ETOT 10  -22.875332903745     -4.121E-13 1.184E-10 0.000E+00
 ETOT 11  -22.875332903745     -2.842E-14 9.496E-12 0.000E+00
 ETOT 12  -22.875332903745      0.000E+00 2.351E-12 0.000E+00
 ETOT 13  -22.875332903745      1.776E-14 2.005E-13 0.000E+00
 ETOT 14  -22.875332903745     -2.487E-14 4.829E-14 0.000E+00
 ETOT 15  -22.875332903745      1.066E-14 4.112E-15 0.000E+00
 ETOT 16  -22.875332903745      0.000E+00 1.001E-15 0.000E+00
 ETOT 17  -22.875332903745      0.000E+00 8.498E-17 0.000E+00
 ETOT 18  -22.875332903745      0.000E+00 2.098E-17 0.000E+00
 ETOT 19  -22.875332903745     -7.105E-15 1.765E-18 0.000E+00
 ETOT 20  -22.875332903745      7.105E-15 4.432E-19 0.000E+00
 ETOT 21  -22.875332903745      0.000E+00 3.679E-20 0.000E+00
 ETOT 22  -22.875332903745     -7.105E-15 9.972E-21 0.000E+00

 At SCF step   22   max residual=  9.97E-21 < tolwfr=  1.00E-20 =>converged.

 ----iterations are completed or convergence reached----

 dfpt_looppert: DFPT cycle converged with prtwf=-1. Will skip output of the 1st-order WFK file.
 dfpt_looppert : ek2=    4.4484203946E+01
          f-sum rule ratio=    1.0437685656E+00
 prteigrs : about to open file /scratch/users/j/a/jabreu/flow_simple_9atoms/flow/w194/t1/tmpdata/tmp_1WF1_EIG
 Expectation of eigenvalue derivatives (hartree) for nkpt=   2  k points:
  (in case of degenerate eigenvalues, averaged derivative)
 kpt#   1, nband= 45, wtk=  0.50000, kpt=  0.0000  0.0000  0.0000 (reduced coord)
   0.00000   -0.00000   -0.00000   -0.00000   -0.00000    0.00000   -0.00000   -0.00000
  -0.00000    0.00000    0.00000    0.00000   -0.00000   -0.00000   -0.00000    0.00000
   0.00000    0.00000   -0.00000    0.00000    0.00000    0.00000    0.00000    0.00000
   0.00000    0.00000    0.00000    0.00000    0.00000    0.00000    0.00000    0.00000
   0.00000   -0.00000   -0.00000   -0.00000   -0.00000   -0.00000   -0.00000    0.00000
  -0.00000   -0.00000   -0.00270   -0.00407   -0.00000
 prteigrs : prtvol=0 or 1, do not print more k-points.

 Eight components of 2nd-order total energy (hartree) are
 1,2,3: 0th-order hamiltonian combined with 1st-order wavefunctions
     kin0=   2.96373835E+01 eigvalue=   1.74918064E+00  local=  -1.87852545E+01
 4,5,6: 1st-order hamiltonian combined with 1st and 0th-order wfs
     kin1=  -4.64312137E+01  Hartree=   0.00000000E+00     xc=   0.00000000E+00
 7,8,9: eventually, occupation + non-local contributions
    edocc=   6.22581586E+00     enl0=   4.04820738E+00   enl1=   6.80547937E-01
 1-9 gives the relaxation energy (to be shifted if some occ is /=2.0)
   erelax=  -2.28753329E+01
  No Ewald or frozen-wf contrib.: the relaxation energy is the total one
 2DEtotal=   -0.2287533290E+02 Ha. Also 2DEtotal=   -0.622469464569E+03 eV
    (  non-var. 2DEtotal :   -2.2875332904E+01 Ha)

 CALCULATION OF EFFECTIVE MASSES
 NOTE : Additional infos (eff. mass eigenvalues, eigenvectors and, if degenerate, average mass) are available in stdout.

 COMMENTS:
 - At k-point ( 0.000, 0.000, 0.000), bands    34 through    36
   are DEGENERATE (effective mass tensor is therefore not defined).
   See Section IIIB Eqs. (67)-(70) and Appendix E of PRB 93 205147 (2016).
 - Angular average effective mass for Frohlich model is to be averaged over degenerate bands. See later.
 - Associated theta integrals calculated with ntheta=   1000 points.

 K-point ( 0.000, 0.000, 0.000) | band =    34
 Transport equivalent effective mass tensor:
             -1.4305142874              0.0001150585              0.0001443582
              0.0001150585             -1.4300037453             -0.0000153729
              0.0001443582             -0.0000153729             -1.4302345856
 Transport equivalent effective mass tensor eigenvalues:
             -1.4305966433             -1.4301780293             -1.4299779456
 Angular average effective mass 1/(<1/m>)=  -1.3476261480
 Angular average effective mass for Frohlich model (<m**0.5>)**2=  -1.3507653809
 Effective masses along directions: (cart. coord. / red. coord. -> eff. mass)
    1:   1.000000  0.000000  0.000000 /   0.948683  0.316228  0.000000 ->  -1.4412388469
    2:   0.000000  1.000000  0.000000 /   0.000000  1.000000  0.000000 ->  -1.6428981038
    3:   0.000000  0.000000  1.000000 /   0.408248  0.408248  0.816497 ->  -1.2825470188
    4:   0.577350  0.577350  0.577350 /   0.585539  0.688047  0.428644 ->  -1.3871006773
    5:   0.000000  0.707107  0.707107 /   0.289489  0.762222  0.578977 ->  -1.2911758457
    6:   0.707107  0.000000  0.707107 /   0.731423  0.422287  0.535439 ->  -1.3308321229
    7:   0.707107  0.707107  0.000000 /   0.616798  0.787122  0.000000 ->  -1.2946208036

[...]

 K-point ( 0.000, 0.000, 0.000) | band =    36
 Transport equivalent effective mass tensor:
            -58.9184818621              0.0013481430              0.0043510706
              0.0013481430            -58.9161884571             -0.0022709469
              0.0043510706             -0.0022709469            -58.9175827066
 Transport equivalent effective mass tensor eigenvalues:
            -58.9233080331            -58.9155768610            -58.9133681316
 Angular average effective mass 1/(<1/m>)=  -4.6595410491
 Angular average effective mass for Frohlich model (<m**0.5>)**2=  -5.8280804967
 Effective masses along directions: (cart. coord. / red. coord. -> eff. mass)
    1:   1.000000  0.000000  0.000000 /   0.948683  0.316228  0.000000 ->  -4.0241464954
    2:   0.000000  1.000000  0.000000 /   0.000000  1.000000  0.000000 ->  -2.6677600033
    3:   0.000000  0.000000  1.000000 /   0.408248  0.408248  0.816497 ->  -3.4575162536
    4:   0.577350  0.577350  0.577350 /   0.585539  0.688047  0.428644 ->  -3.8802615965
    5:   0.000000  0.707107  0.707107 /   0.289489  0.762222  0.578977 ->  -6.7703911499
    6:   0.707107  0.000000  0.707107 /   0.731423  0.422287  0.535439 ->  -3.7499898383
    7:   0.707107  0.707107  0.000000 /   0.616798  0.787122  0.000000 -> -19.3787137572

 Angular average effective mass for Frohlich model, averaged over degenerate bands.
 Value of     (<<m**0.5>>)**2 =     2.599763E+00
 Absolute Value of <<m**0.5>> =     1.612378E+00

 K-point ( 0.500, 0.000, 0.500) | band =    37
 Effective mass tensor:
              4.3815447424             -4.2670857304              5.2260913447
             -4.2670857304              7.3988300505             -7.3908093052
              5.2260913447             -7.3908093052             10.4161152642
 Effective mass tensor eigenvalues:
              1.3642595020              1.3642595059             19.4679710492
 Angular average effective mass 1/(<1/m>)=   1.9771140196
 Angular average effective mass for Frohlich model (<m**0.5>)**2=   2.4903486663
 Effective masses along directions: (cart. coord. / red. coord. -> eff. mass)
    1:   1.000000  0.000000  0.000000 /   0.948683  0.316228  0.000000 ->   1.6144837279
    2:   0.000000  1.000000  0.000000 /   0.000000  1.000000  0.000000 ->   1.9771140217
    3:   0.000000  0.000000  1.000000 /   0.408248  0.408248  0.816497 ->   2.5498339630
    4:   0.577350  0.577350  0.577350 /   0.585539  0.688047  0.428644 ->   1.4987280823
    5:   0.000000  0.707107  0.707107 /   0.289489  0.762222  0.578977 ->   1.3750237942
    6:   0.707107  0.000000  0.707107 /   0.731423  0.422287  0.535439 ->   3.2360623735
    7:   0.707107  0.707107  0.000000 /   0.616798  0.787122  0.000000 ->   1.3826428400

 END OF EFFECTIVE MASSES SECTION

 ---- first-order wavefunction calculations are completed ----

 Total localisation tensor (bohr^2) in cartesian coordinates
  WARNING : still subject to testing - especially symmetries.
      direction              matrix element
   alpha     beta       real part   imaginary part
     1        1       1.3787079411    0.0000000000
     1        2       0.3899571321    0.0000000000
     1        3       0.9551967334    0.0000000000
     2        1       0.3899571321    0.0000000000
     2        2       1.1029653300    0.0000000000
     2        3       0.6754255656    0.0000000000
     3        1       0.9551967334    0.0000000000
     3        2       0.6754255656    0.0000000000
     3        3       2.4816624192    0.0000000000

 respfn : d/dk was computed, but no 2DTE, so no DDB output.

== END DATASET(S) ==============================================================

 -outvars: echo values of variables after computation  --------
            acell      1.0000000000E+00  1.0000000000E+00  1.0000000000E+00 Bohr
              amu      1.32905430E+02  9.12240000E+01  3.54527000E+01
             ecut      3.50000000E+01 Hartree
           etotal     -2.2875332904E+01
            fcart      0.0000000000E+00  0.0000000000E+00  0.0000000000E+00
                       0.0000000000E+00  0.0000000000E+00  0.0000000000E+00
                       0.0000000000E+00  0.0000000000E+00  0.0000000000E+00
                       0.0000000000E+00  0.0000000000E+00  0.0000000000E+00
                       0.0000000000E+00  0.0000000000E+00  0.0000000000E+00
                       0.0000000000E+00  0.0000000000E+00  0.0000000000E+00
                       0.0000000000E+00  0.0000000000E+00  0.0000000000E+00
                       0.0000000000E+00  0.0000000000E+00  0.0000000000E+00
                       0.0000000000E+00  0.0000000000E+00  0.0000000000E+00
-          fftalg         512
           irdden           1
           irdwfk           1
           istwfk        1    1
              ixc     -116133
              kpt      0.00000000E+00  0.00000000E+00  0.00000000E+00
                       5.00000000E-01  0.00000000E+00  5.00000000E-01
           kptopt           0
P           mkmem           2
P          mkqmem           2
P          mk1mem           2
            natom           9
            nband          45
           nbdbuf           4
            ngfft          75      75      75
             nkpt           2
            nstep        2000
             nsym          48
           ntypat           3
              occ      2.000000  2.000000  2.000000  2.000000  2.000000  2.000000
                       2.000000  2.000000  2.000000  2.000000  2.000000  2.000000
                       2.000000  2.000000  2.000000  2.000000  2.000000  2.000000
                       2.000000  2.000000  2.000000  2.000000  2.000000  2.000000
                       2.000000  2.000000  2.000000  2.000000  2.000000  2.000000
                       2.000000  2.000000  2.000000  2.000000  2.000000  2.000000
                       0.000000  0.000000  0.000000  0.000000  0.000000  0.000000
                       0.000000  0.000000  0.000000
        optdriver           1
            prtwf          -1
            rfdir           1       1       1
           rfelfd           2
            rprim      1.1990421883E+01  0.0000000000E+00  6.9226733021E+00
                       3.9968072945E+00  1.1304678164E+01  6.9226733021E+00
                       0.0000000000E+00  0.0000000000E+00  1.3845346604E+01
          spgroup         225
           strten      0.0000000000E+00  0.0000000000E+00  0.0000000000E+00
                       0.0000000000E+00  0.0000000000E+00  0.0000000000E+00
           symrel      1  0  0   0  1  0   0  0  1      -1  0  0   0 -1  0   0  0 -1
                       0 -1  1   0 -1  0   1 -1  0       0  1 -1   0  1  0  -1  1  0
                      -1  0  0  -1  0  1  -1  1  0       1  0  0   1  0 -1   1 -1  0
                       0  1 -1   1  0 -1   0  0 -1       0 -1  1  -1  0  1   0  0  1
                      -1  0  0  -1  1  0  -1  0  1       1  0  0   1 -1  0   1  0 -1
                       0 -1  1   1 -1  0   0 -1  0       0  1 -1  -1  1  0   0  1  0
                       1  0  0   0  0  1   0  1  0      -1  0  0   0  0 -1   0 -1  0
                       0  1 -1   0  0 -1   1  0 -1       0 -1  1   0  0  1  -1  0  1
                      -1  0  1  -1  1  0  -1  0  0       1  0 -1   1 -1  0   1  0  0
                       0 -1  0   1 -1  0   0 -1  1       0  1  0  -1  1  0   0  1 -1
                       1  0 -1   0  0 -1   0  1 -1      -1  0  1   0  0  1   0 -1  1
                       0  1  0   0  0  1   1  0  0       0 -1  0   0  0 -1  -1  0  0
                       1  0 -1   0  1 -1   0  0 -1      -1  0  1   0 -1  1   0  0  1
                       0 -1  0   0 -1  1   1 -1  0       0  1  0   0  1 -1  -1  1  0
                      -1  0  1  -1  0  0  -1  1  0       1  0 -1   1  0  0   1 -1  0
                       0  1  0   1  0  0   0  0  1       0 -1  0  -1  0  0   0  0 -1
                       0  0 -1   0  1 -1   1  0 -1       0  0  1   0 -1  1  -1  0  1
                       1 -1  0   0 -1  1   0 -1  0      -1  1  0   0  1 -1   0  1  0
                       0  0  1   1  0  0   0  1  0       0  0 -1  -1  0  0   0 -1  0
                      -1  1  0  -1  0  0  -1  0  1       1 -1  0   1  0  0   1  0 -1
                       0  0  1   0  1  0   1  0  0       0  0 -1   0 -1  0  -1  0  0
                       1 -1  0   0 -1  0   0 -1  1      -1  1  0   0  1  0   0  1 -1
                       0  0 -1   1  0 -1   0  1 -1       0  0  1  -1  0  1   0 -1  1
                      -1  1  0  -1  0  1  -1  0  0       1 -1  0   1  0 -1   1  0  0
           tolwfr      1.00000000E-20
            typat      1  1  2  3  3  3  3  3  3
           useylm           1
              wtk        0.50000    0.50000
           xangst      2.1150193274E+00  1.4955445087E+00  3.6633209340E+00
                       6.3450579821E+00  4.4866335262E+00  1.0989962802E+01
                       0.0000000000E+00  0.0000000000E+00  0.0000000000E+00
                       5.3400304080E+00  1.4213236258E+00  9.2492039806E+00
                       2.0100551482E+00  1.4213236258E+00  7.3266418680E+00
                       6.4500221613E+00  4.5608544090E+00  7.3266418680E+00
                       3.1200469015E+00  4.5608544090E+00  5.4040797553E+00
                       3.1200469015E+00  4.5608544090E+00  9.2492039806E+00
                       5.3400304080E+00  1.4213236258E+00  5.4040797553E+00
            xcart      3.9968072945E+00  2.8261695410E+00  6.9226733021E+00
                       1.1990421883E+01  8.4785086231E+00  2.0768019906E+01
                       0.0000000000E+00  0.0000000000E+00  0.0000000000E+00
                       1.0091195012E+01  2.6859123990E+00  1.7478462471E+01
                       3.7984537421E+00  2.6859123990E+00  1.3845346604E+01
                       1.2188775436E+01  8.6187657651E+00  1.3845346604E+01
                       5.8960341655E+00  8.6187657651E+00  1.0212230738E+01
                       5.8960341655E+00  8.6187657651E+00  1.7478462471E+01
                       1.0091195012E+01  2.6859123990E+00  1.0212230738E+01
             xred      2.5000000000E-01  2.5000000000E-01  2.5000000000E-01
                       7.5000000000E-01  7.5000000000E-01  7.5000000000E-01
                       0.0000000000E+00  0.0000000000E+00  0.0000000000E+00
                       7.6240700000E-01  2.3759300000E-01  7.6240700000E-01
                       2.3759300000E-01  2.3759300000E-01  7.6240700000E-01
                       7.6240700000E-01  7.6240700000E-01  2.3759300000E-01
                       2.3759300000E-01  7.6240700000E-01  2.3759300000E-01
                       2.3759300000E-01  7.6240700000E-01  7.6240700000E-01
                       7.6240700000E-01  2.3759300000E-01  2.3759300000E-01
            znucl       55.00000   40.00000   17.00000

- Timing analysis has been suppressed with timopt=0

 Suggested references for the acknowledgment of ABINIT usage.

 Calculation completed.
.Delivered  14 WARNINGs and  11 COMMENTs to log file.