.Version 9.5.1 of ABINIT

 ABINIT is a project of the Universite Catholique de Louvain,
 Corning Inc. and other collaborators, see ~abinit/doc/developers/contributors.txt .
 acknowledgments of the ABINIT effort.

.Starting date : Tue  4 May 2021.
- ( at 19h32 )

- input  file    -> /scratch/users/j/a/jabreu/flow_simple_6atoms/flow/w211/t1/run.abi
- output file    -> /scratch/users/j/a/jabreu/flow_simple_6atoms/flow/w211/t1/run.abo
- root for input  files -> /scratch/users/j/a/jabreu/flow_simple_6atoms/flow/w211/t1/indata/in
- root for output files -> /scratch/users/j/a/jabreu/flow_simple_6atoms/flow/w211/t1/outdata/out

 Symmetries : space group Cm m m (# 65); Bravais oC (1-face-center ortho.)
     intxc =       0      iscf =       7    lmnmax =      18     lnmax =       6
     mgfft =      54  mpssoang =       3    mqgrid =    3001     natom =       6
  nloc_mem =       1    nspden =       1   nspinor =       1    nsppol =       1
      nsym =       8    n1xccc =    2501    ntypat =       3    occopt =       1
   xclevel =       2
-    mband =          30        mffmem =           1         mkmem =           1
-   mkqmem =           1        mk1mem =           1           mpw =        5835
      nfft =      104976          nkpt =           1
  Rough estimation (10% accuracy) of disk space for files :

------------- Echo of variables that govern the present computation ------------
-
- outvars: echo of selected default values
-   iomode0 =  0 , fftalg0 =512 , wfoptalg0 =  0
-
- outvars: echo of global parameters not present in the input file
-  max_nthreads =    0
-
 -outvars: echo values of preprocessed input variables --------
            acell      1.0000000000E+00  1.0000000000E+00  1.0000000000E+00 Bohr
              amu      2.69815390E+01  1.21753000E+02  1.59994000E+01
             ecut      4.40000000E+01 Hartree
-          fftalg         512
           irdden           1
           irdwfk           1
           istwfk        1
              ixc     -116133
           kptopt           0
P           mkmem           1
P          mkqmem           1
P          mk1mem           1
            natom           6
            nband          30
           nbdbuf           4
            ngfft          54      54      36
             nkpt           1
            nstep        1000
             nsym           8
           ntypat           3
              occ      2.000000  2.000000  2.000000  2.000000  2.000000  2.000000
                       2.000000  2.000000  2.000000  2.000000  2.000000  2.000000
                       2.000000  2.000000  2.000000  2.000000  2.000000  2.000000
                       2.000000  2.000000  2.000000  0.000000  0.000000  0.000000
                       0.000000  0.000000  0.000000  0.000000  0.000000  0.000000
        optdriver           1
            prtwf          -1
            rfdir           1       1       1
           rfelfd           2
            rprim      8.5315306800E+00  0.0000000000E+00  0.0000000000E+00
                      -2.2710919610E-01  8.5285073230E+00  0.0000000000E+00
                       0.0000000000E+00  0.0000000000E+00  5.7314598352E+00
          spgroup          65
           symrel      1  0  0   0  1  0   0  0  1      -1  0  0   0 -1  0   0  0 -1
                       0 -1  0  -1  0  0   0  0 -1       0  1  0   1  0  0   0  0  1
                      -1  0  0   0 -1  0   0  0  1       1  0  0   0  1  0   0  0 -1
                       0  1  0   1  0  0   0  0 -1       0 -1  0  -1  0  0   0  0  1
           tolwfr      1.00000000E-20
            typat      1  2  3  3  3  3
           useylm           1
           xangst      2.1972552899E+00  2.2565458493E+00  1.5164789584E+00
                       0.0000000000E+00  0.0000000000E+00  0.0000000000E+00
                       3.0229618553E+00  3.1045332140E+00  0.0000000000E+00
                       8.1881173435E-01  3.5987709121E+00  1.5164789584E+00
                       3.5756988455E+00  9.1432078650E-01  1.5164789584E+00
                       1.3715487245E+00  1.4085584846E+00  0.0000000000E+00
            xcart      4.1522107419E+00  4.2642536615E+00  2.8657299176E+00
                       0.0000000000E+00  0.0000000000E+00  0.0000000000E+00
                       5.7125700167E+00  5.8667175450E+00  0.0000000000E+00
                       1.5473299323E+00  6.8006914389E+00  2.8657299176E+00
                       6.7570915516E+00  1.7278158841E+00  2.8657299176E+00
                       2.5918514672E+00  2.6617897780E+00  0.0000000000E+00
             xred      5.0000000000E-01  5.0000000000E-01  5.0000000000E-01
                       0.0000000000E+00  0.0000000000E+00  0.0000000000E+00
                       6.8789500000E-01  6.8789500000E-01  0.0000000000E+00
                       2.0259300000E-01  7.9740700000E-01  5.0000000000E-01
                       7.9740700000E-01  2.0259300000E-01  5.0000000000E-01
                       3.1210500000E-01  3.1210500000E-01  0.0000000000E+00
            znucl       13.00000   51.00000    8.00000

 chkinp: Checking input parameters for consistency.

== DATASET  1 ==================================================================
-   mpi_nproc: 1, omp_nthreads: -1 (-1 if OMP is not activated)

--- !DatasetInfo
iteration_state: {dtset: 1, }
dimensions: {natom: 6, nkpt: 1, mband: 30, nsppol: 1, nspinor: 1, nspden: 1, mpw: 5835, }
cutoff_energies: {ecut:  44.0, pawecutdg:  -1.0, }
electrons: {nelect:   4.20000000E+01, charge:   0.00000000E+00, occopt:   1.00000000E+00, tsmear:   1.00000000E-02, }
meta: {optdriver: 1, rfelfd: 2, }
...

 Real(R)+Recip(G) space primitive vectors, cartesian coordinates (Bohr,Bohr^-1):
 R(1)=  8.5315307  0.0000000  0.0000000  G(1)=  0.1172123  0.0031213  0.0000000
 R(2)= -0.2271092  8.5285073  0.0000000  G(2)=  0.0000000  0.1172538  0.0000000
 R(3)=  0.0000000  0.0000000  5.7314598  G(3)=  0.0000000  0.0000000  0.1744756
 Unit cell volume ucvol=  4.1702802E+02 bohr^3
 Angles (23,13,12)=  9.00000000E+01  9.00000000E+01  9.15253928E+01 degrees

 getcut: wavevector=  0.0000  0.0000  0.0000  ngfft=  54  54  36
         ecut(hartree)=     44.000   => boxcut(ratio)=   2.10352

--- Pseudopotential description ------------------------------------------------
- pspini: atom type   1  psp file is /scratch/users/j/a/jabreu/pseudos/PBEsol/Al.psp8
- pspatm: opening atomic psp file    /scratch/users/j/a/jabreu/pseudos/PBEsol/Al.psp8
- Al    ONCVPSP-3.3.0  r_core=   1.76802   1.76802   1.70587
- 13.00000   3.00000    180112                znucl, zion, pspdat
    8 -116133    2    4       600   0.00000   pspcod,pspxc,lmax,lloc,mmax,r2well
    5.99000000000000    5.00000000000000    0.00000000000000   rchrg,fchrg,qchrg
     nproj     2     2     2
     extension_switch     1
  pspatm : epsatm=    0.68509324
         --- l  ekb(1:nproj) -->
             0    5.834965    0.726662
             1    6.225605    0.924840
             2   -2.432733   -0.548689
 pspatm: atomic psp has been read  and splines computed

- pspini: atom type   2  psp file is /scratch/users/j/a/jabreu/pseudos/PBEsol/Sb.psp8
- pspatm: opening atomic psp file    /scratch/users/j/a/jabreu/pseudos/PBEsol/Sb.psp8
- Sb    ONCVPSP-3.3.0  r_core=   1.81962   2.12485   1.81962
- 51.00000  15.00000    180112                znucl, zion, pspdat
    8 -116133    2    4       600   0.00000   pspcod,pspxc,lmax,lloc,mmax,r2well
    5.99000000000000    5.00000000000000    0.00000000000000   rchrg,fchrg,qchrg
     nproj     2     2     2
     extension_switch     1
  pspatm : epsatm=   26.35641246
         --- l  ekb(1:nproj) -->
             0    9.727814    1.485032
             1    5.505335    0.704623
             2   -4.710637   -1.436443
 pspatm: atomic psp has been read  and splines computed

- pspini: atom type   3  psp file is /scratch/users/j/a/jabreu/pseudos/PBEsol/O.psp8
- pspatm: opening atomic psp file    /scratch/users/j/a/jabreu/pseudos/PBEsol/O.psp8
- O     ONCVPSP-3.3.0  r_core=   1.35509   1.45563   1.26150
-  8.00000   6.00000    180112                znucl, zion, pspdat
    8 -116133    2    4       600   0.00000   pspcod,pspxc,lmax,lloc,mmax,r2well
    5.99000000000000    4.00000000000000    0.00000000000000   rchrg,fchrg,qchrg
     nproj     2     2     1
     extension_switch     1
  pspatm : epsatm=    6.22910522
         --- l  ekb(1:nproj) -->
             0    6.050032    0.820363
             1   -4.739617   -1.153841
             2   -1.335834
 pspatm: atomic psp has been read  and splines computed

   2.18223292E+03                                ecore*ucvol(ha*bohr**3)

-inwffil : will read wavefunctions from disk file /scratch/users/j/a/jabreu/flow_simple_6atoms/flow/w211/t1/indata/in_WFK

 ==>  initialize data related to q vector <==

 The list of irreducible perturbations for this q vector is:
    1)    idir= 1    ipert=   7
    2)    idir= 2    ipert=   7
    3)    idir= 3    ipert=   7

 Perturbation wavevector (in red.coord.)   0.000000  0.000000  0.000000
 Perturbation : derivative vs k along direction   1

 dfpt_looppert : COMMENT -
  In a d/dk calculation, iscf is set to -3 automatically.
 The set of symmetries contains only one element for this perturbation.
 symkpt : not enough symmetry to change the number of k points.

[...]

 Initialisation of the first-order wave-functions :
  ireadwf=   0

--- !BeginCycle
iteration_state: {dtset: 1, }
solver: {iscf: 7, nstep: 1000, nline: 4, wfoptalg: 0, }
tolerances: {tolwfr: 1.00E-20, }
...

     iter   2DEtotal(Ha)        deltaE(Ha) residm    vres2
-ETOT  1  -36.670564059464     -3.667E+01 2.249E-02 0.000E+00
 ETOT  2  -36.692513707964     -2.195E-02 4.303E-04 0.000E+00
 ETOT  3  -36.692610874124     -9.717E-05 7.725E-06 0.000E+00
 ETOT  4  -36.692612252502     -1.378E-06 4.410E-07 0.000E+00
 ETOT  5  -36.692612280115     -2.761E-08 9.109E-09 0.000E+00
 ETOT  6  -36.692612280737     -6.216E-10 6.930E-10 0.000E+00
 ETOT  7  -36.692612280752     -1.508E-11 1.697E-11 0.000E+00
 ETOT  8  -36.692612280752     -3.411E-13 1.346E-12 0.000E+00
 ETOT  9  -36.692612280752      0.000E+00 3.556E-14 0.000E+00
 ETOT 10  -36.692612280752     -1.421E-14 2.809E-15 0.000E+00
 ETOT 11  -36.692612280752      3.553E-14 7.385E-17 0.000E+00
 ETOT 12  -36.692612280752     -2.132E-14 5.892E-18 0.000E+00
 ETOT 13  -36.692612280752      1.421E-14 1.538E-19 0.000E+00
 ETOT 14  -36.692612280752     -1.421E-14 1.239E-20 0.000E+00
 ETOT 15  -36.692612280752      0.000E+00 9.532E-21 0.000E+00

 At SCF step   15   max residual=  9.53E-21 < tolwfr=  1.00E-20 =>converged.

 ----iterations are completed or convergence reached----

 dfpt_looppert: DFPT cycle converged with prtwf=-1. Will skip output of the 1st-order WFK file.
 dfpt_looppert : ek2=    4.5592454083E+01
          f-sum rule ratio=    1.2333822239E+00
 prteigrs : about to open file /scratch/users/j/a/jabreu/flow_simple_6atoms/flow/w211/t1/tmpdata/tmp_1WF1_EIG
 Expectation of eigenvalue derivatives (hartree) for nkpt=   1  k points:
  (in case of degenerate eigenvalues, averaged derivative)
 kpt#   1, nband= 30, wtk=  1.00000, kpt=  0.0000  0.0000  0.0000 (reduced coord)
  -0.00000    0.00000   -0.00000    0.00000   -0.00000   -0.00000   -0.00000   -0.00000
   0.00000   -0.00000   -0.00000   -0.00000   -0.00000    0.00000    0.00000    0.00000
   0.00000    0.00000   -0.00000    0.00000   -0.00000   -0.00000   -0.00000    0.00000
   0.00000   -0.00000   -0.00000    0.00000    0.00028   -0.01823

 Eight components of 2nd-order total energy (hartree) are
 1,2,3: 0th-order hamiltonian combined with 1st-order wavefunctions
     kin0=   4.07299047E+01 eigvalue=   1.72444305E+00  local=  -1.75967830E+01
 4,5,6: 1st-order hamiltonian combined with 1st and 0th-order wfs
     kin1=  -5.62329224E+01  Hartree=   0.00000000E+00     xc=   0.00000000E+00
 7,8,9: eventually, occupation + non-local contributions
    edocc=   9.81766130E+00     enl0=   2.01738621E+00   enl1=  -1.71523022E+01
 1-9 gives the relaxation energy (to be shifted if some occ is /=2.0)
   erelax=  -3.66926123E+01
  No Ewald or frozen-wf contrib.: the relaxation energy is the total one
 2DEtotal=   -0.3669261228E+02 Ha. Also 2DEtotal=   -0.998456757598E+03 eV
    (  non-var. 2DEtotal :   -3.6692612281E+01 Ha)

 Perturbation wavevector (in red.coord.)   0.000000  0.000000  0.000000
 Perturbation : derivative vs k along direction   2
 The set of symmetries contains only one element for this perturbation.
 symkpt : not enough symmetry to change the number of k points.

[...]

 Perturbation wavevector (in red.coord.)   0.000000  0.000000  0.000000
 Perturbation : derivative vs k along direction   3
 The set of symmetries contains only one element for this perturbation.
 symkpt : not enough symmetry to change the number of k points.

-inwffil : will read wavefunctions from disk file /scratch/users/j/a/jabreu/flow_simple_6atoms/flow/w211/t1/indata/in_WFK

 Initialisation of the first-order wave-functions :
  ireadwf=   0

--- !BeginCycle
iteration_state: {dtset: 1, }
solver: {iscf: 7, nstep: 1000, nline: 4, wfoptalg: 0, }
tolerances: {tolwfr: 1.00E-20, }
...

     iter   2DEtotal(Ha)        deltaE(Ha) residm    vres2
-ETOT  1  -93.506650469359     -9.351E+01 2.450E-01 0.000E+00
 ETOT  2  -93.528967753321     -2.232E-02 2.613E-03 0.000E+00
 ETOT  3  -93.529005554105     -3.780E-05 3.052E-04 0.000E+00
 ETOT  4  -93.529005879003     -3.249E-07 1.179E-05 0.000E+00
 ETOT  5  -93.529005883701     -4.698E-09 1.679E-06 0.000E+00
 ETOT  6  -93.529005883775     -7.421E-11 7.942E-08 0.000E+00
 ETOT  7  -93.529005883776     -1.165E-12 1.211E-08 0.000E+00
 ETOT  8  -93.529005883777     -8.527E-14 6.009E-10 0.000E+00
 ETOT  9  -93.529005883777      0.000E+00 9.141E-11 0.000E+00
 ETOT 10  -93.529005883777     -5.684E-14 4.850E-12 0.000E+00
 ETOT 11  -93.529005883777      2.842E-14 7.363E-13 0.000E+00
 ETOT 12  -93.529005883776      7.105E-14 4.023E-14 0.000E+00
 ETOT 13  -93.529005883776      1.421E-14 6.475E-15 0.000E+00
 ETOT 14  -93.529005883777     -4.263E-14 3.572E-16 0.000E+00
 ETOT 15  -93.529005883777      0.000E+00 5.913E-17 0.000E+00
 ETOT 16  -93.529005883777      1.421E-14 3.262E-18 0.000E+00
 ETOT 17  -93.529005883777     -2.842E-14 5.436E-19 0.000E+00
 ETOT 18  -93.529005883777      0.000E+00 2.997E-20 0.000E+00
 ETOT 19  -93.529005883777      1.421E-14 9.921E-21 0.000E+00

 At SCF step   19   max residual=  9.92E-21 < tolwfr=  1.00E-20 =>converged.

 ----iterations are completed or convergence reached----

 dfpt_looppert: DFPT cycle converged with prtwf=-1. Will skip output of the 1st-order WFK file.
 dfpt_looppert : ek2=    1.0095050972E+02
          f-sum rule ratio=    1.4866906115E+00
 prteigrs : about to open file /scratch/users/j/a/jabreu/flow_simple_6atoms/flow/w211/t1/tmpdata/tmp_1WF1_EIG
 Expectation of eigenvalue derivatives (hartree) for nkpt=   1  k points:
  (in case of degenerate eigenvalues, averaged derivative)
 kpt#   1, nband= 30, wtk=  1.00000, kpt=  0.0000  0.0000  0.0000 (reduced coord)
   0.00000   -0.00000    0.00000   -0.00000    0.00000   -0.00000   -0.00000   -0.00000
   0.00000    0.00000    0.00000   -0.00000   -0.00000    0.00000    0.00000   -0.00000
  -0.00000    0.00000   -0.00000   -0.00000   -0.00000    0.00000   -0.00000   -0.00000
   0.00000    0.00000    0.00000    0.00000    0.00028    0.00014

 Eight components of 2nd-order total energy (hartree) are
 1,2,3: 0th-order hamiltonian combined with 1st-order wavefunctions
     kin0=   8.93010799E+01 eigvalue=   3.80264286E+00  local=  -3.83945777E+01
 4,5,6: 1st-order hamiltonian combined with 1st and 0th-order wfs
     kin1=  -1.50082175E+02  Hartree=   0.00000000E+00     xc=   0.00000000E+00
 7,8,9: eventually, occupation + non-local contributions
    edocc=   3.49854686E+01     enl0=   3.83439222E+00   enl1=  -3.69758367E+01
 1-9 gives the relaxation energy (to be shifted if some occ is /=2.0)
   erelax=  -9.35290059E+01
  No Ewald or frozen-wf contrib.: the relaxation energy is the total one
 2DEtotal=   -0.9352900588E+02 Ha. Also 2DEtotal=   -0.254505368115E+04 eV
    (  non-var. 2DEtotal :   -9.3529005884E+01 Ha)

 CALCULATION OF EFFECTIVE MASSES
 NOTE : Additional infos (eff. mass eigenvalues, eigenvectors and, if degenerate, average mass) are available in stdout.

 K-point ( 0.000, 0.000, 0.000) | band =    21
 Effective mass tensor:
             -1.1730813053              0.2295453872              0.0000676630
              0.2295453872             -1.1614577396              0.0000950406
              0.0000676630              0.0000950406             -1.6510590074
 Effective mass tensor eigenvalues:
             -1.6510590273             -1.3968884699             -0.9376505551
 Angular average effective mass 1/(<1/m>)=  -1.2562582459
 Angular average effective mass for Frohlich model (<m**0.5>)**2=  -1.2786395172
 Effective masses along directions: (cart. coord. / red. coord. -> eff. mass)
    1:   1.000000  0.000000  0.000000 /   0.999646 -0.026611  0.000000 ->  -1.1277149624
    2:   0.000000  1.000000  0.000000 /   0.000000  1.000000  0.000000 ->  -1.1165409100
    3:   0.000000  0.000000  1.000000 /   0.000000  0.000000  1.000000 ->  -1.6510589930
    4:   0.577350  0.577350  0.577350 /   0.645754  0.628335  0.433816 ->  -1.0953859726
    5:   0.000000  0.707107  0.707107 /   0.000000  0.829988  0.557781 ->  -1.3320788673
    6:   0.707107  0.000000  0.707107 /   0.829877 -0.022091  0.557509 ->  -1.3400212612
    7:   0.707107  0.707107  0.000000 /   0.716707  0.697374  0.000000 ->  -0.9376999459

 K-point ( 0.000, 0.000, 0.000) | band =    22
 Effective mass tensor:
              0.2843515696             -0.0450446688              0.0000027684
             -0.0450446688              0.2819335566             -0.0000023622
              0.0000027684             -0.0000023622              0.2661159951
 Effective mass tensor eigenvalues:
              0.2380816723              0.2661159949              0.3282034542
 Angular average effective mass 1/(<1/m>)=   0.2726060943
 Angular average effective mass for Frohlich model (<m**0.5>)**2=   0.2740181466
 Effective masses along directions: (cart. coord. / red. coord. -> eff. mass)
    1:   1.000000  0.000000  0.000000 /   0.999646 -0.026611  0.000000 ->   0.2771547598
    2:   0.000000  1.000000  0.000000 /   0.000000  1.000000  0.000000 ->   0.2747979456
    3:   0.000000  0.000000  1.000000 /   0.000000  0.000000  1.000000 ->   0.2661159951
    4:   0.577350  0.577350  0.577350 /   0.645754  0.628335  0.433816 ->   0.2467549455
    5:   0.000000  0.707107  0.707107 /   0.000000  0.829988  0.557781 ->   0.2703853723
    6:   0.707107  0.000000  0.707107 /   0.829877 -0.022091  0.557509 ->   0.2715256186
    7:   0.707107  0.707107  0.000000 /   0.716707  0.697374  0.000000 ->   0.2380934405

 END OF EFFECTIVE MASSES SECTION

 ---- first-order wavefunction calculations are completed ----

 Total localisation tensor (bohr^2) in cartesian coordinates
  WARNING : still subject to testing - especially symmetries.
      direction              matrix element
   alpha     beta       real part   imaginary part
     1        1       1.3945290319    0.0000000000
     1        2      -0.0370822947    0.0000000000
     1        3       0.0000000000    0.0000000000
     2        1      -0.0370822947    0.0000000000
     2        2       1.3925311144    0.0000000000
     2        3       0.0000000000    0.0000000000
     3        1       0.0000000000    0.0000000000
     3        2       0.0000000000    0.0000000000
     3        3       1.5542737397    0.0000000000

 respfn : d/dk was computed, but no 2DTE, so no DDB output.

== END DATASET(S) ==============================================================

 -outvars: echo values of variables after computation  --------
            acell      1.0000000000E+00  1.0000000000E+00  1.0000000000E+00 Bohr
              amu      2.69815390E+01  1.21753000E+02  1.59994000E+01
             ecut      4.40000000E+01 Hartree
           etotal     -9.3529005884E+01
            fcart      0.0000000000E+00  0.0000000000E+00  0.0000000000E+00
                       0.0000000000E+00  0.0000000000E+00  0.0000000000E+00
                       0.0000000000E+00  0.0000000000E+00  0.0000000000E+00
                       0.0000000000E+00  0.0000000000E+00  0.0000000000E+00
                       0.0000000000E+00  0.0000000000E+00  0.0000000000E+00
                       0.0000000000E+00  0.0000000000E+00  0.0000000000E+00
-          fftalg         512
           irdden           1
           irdwfk           1
           istwfk        1
              ixc     -116133
           kptopt           0
P           mkmem           1
P          mkqmem           1
P          mk1mem           1
            natom           6
            nband          30
           nbdbuf           4
            ngfft          54      54      36
             nkpt           1
            nstep        1000
             nsym           8
           ntypat           3
              occ      2.000000  2.000000  2.000000  2.000000  2.000000  2.000000
                       2.000000  2.000000  2.000000  2.000000  2.000000  2.000000
                       2.000000  2.000000  2.000000  2.000000  2.000000  2.000000
                       2.000000  2.000000  2.000000  0.000000  0.000000  0.000000
                       0.000000  0.000000  0.000000  0.000000  0.000000  0.000000
        optdriver           1
            prtwf          -1
            rfdir           1       1       1
           rfelfd           2
            rprim      8.5315306800E+00  0.0000000000E+00  0.0000000000E+00
                      -2.2710919610E-01  8.5285073230E+00  0.0000000000E+00
                       0.0000000000E+00  0.0000000000E+00  5.7314598352E+00
          spgroup          65
           strten      0.0000000000E+00  0.0000000000E+00  0.0000000000E+00
                       0.0000000000E+00  0.0000000000E+00  0.0000000000E+00
           symrel      1  0  0   0  1  0   0  0  1      -1  0  0   0 -1  0   0  0 -1
                       0 -1  0  -1  0  0   0  0 -1       0  1  0   1  0  0   0  0  1
                      -1  0  0   0 -1  0   0  0  1       1  0  0   0  1  0   0  0 -1
                       0  1  0   1  0  0   0  0 -1       0 -1  0  -1  0  0   0  0  1
           tolwfr      1.00000000E-20
            typat      1  2  3  3  3  3
           useylm           1
           xangst      2.1972552899E+00  2.2565458493E+00  1.5164789584E+00
                       0.0000000000E+00  0.0000000000E+00  0.0000000000E+00
                       3.0229618553E+00  3.1045332140E+00  0.0000000000E+00
                       8.1881173435E-01  3.5987709121E+00  1.5164789584E+00
                       3.5756988455E+00  9.1432078650E-01  1.5164789584E+00
                       1.3715487245E+00  1.4085584846E+00  0.0000000000E+00
            xcart      4.1522107419E+00  4.2642536615E+00  2.8657299176E+00
                       0.0000000000E+00  0.0000000000E+00  0.0000000000E+00
                       5.7125700167E+00  5.8667175450E+00  0.0000000000E+00
                       1.5473299323E+00  6.8006914389E+00  2.8657299176E+00
                       6.7570915516E+00  1.7278158841E+00  2.8657299176E+00
                       2.5918514672E+00  2.6617897780E+00  0.0000000000E+00
             xred      5.0000000000E-01  5.0000000000E-01  5.0000000000E-01
                       0.0000000000E+00  0.0000000000E+00  0.0000000000E+00
                       6.8789500000E-01  6.8789500000E-01  0.0000000000E+00
                       2.0259300000E-01  7.9740700000E-01  5.0000000000E-01
                       7.9740700000E-01  2.0259300000E-01  5.0000000000E-01
                       3.1210500000E-01  3.1210500000E-01  0.0000000000E+00
            znucl       13.00000   51.00000    8.00000

- Timing analysis has been suppressed with timopt=0

 Suggested references for the acknowledgment of ABINIT usage.

 Calculation completed.
.Delivered   6 WARNINGs and   5 COMMENTs to log file.