.Version 9.5.1 of ABINIT

 ABINIT is a project of the Universite Catholique de Louvain,
 Corning Inc. and other collaborators, see ~abinit/doc/developers/contributors.txt .
 acknowledgments of the ABINIT effort.

.Starting date : Wed 19 May 2021.
- ( at 01h43 )

- input  file    -> /scratch/users/j/a/jabreu/flow_simple_8atoms/flow/w469/t1/run.abi
- output file    -> /scratch/users/j/a/jabreu/flow_simple_8atoms/flow/w469/t1/run.abo
- root for input  files -> /scratch/users/j/a/jabreu/flow_simple_8atoms/flow/w469/t1/indata/in
- root for output files -> /scratch/users/j/a/jabreu/flow_simple_8atoms/flow/w469/t1/outdata/out

 Symmetries : space group P6_3/m m c (#194); Bravais hP (primitive hexag.)
     intxc =       0      iscf =       7    lmnmax =      18     lnmax =       6
     mgfft =      80  mpssoang =       3    mqgrid =    3885     natom =       8
  nloc_mem =       1    nspden =       1   nspinor =       1    nsppol =       1
      nsym =      24    n1xccc =    2501    ntypat =       2    occopt =       1
   xclevel =       2
-    mband =          23        mffmem =           1         mkmem =           2
-   mkqmem =           2        mk1mem =           2           mpw =        8331
      nfft =      162000          nkpt =           2
  Rough estimation (10% accuracy) of disk space for files :

------------- Echo of variables that govern the present computation ------------
-
- outvars: echo of selected default values
-   iomode0 =  0 , fftalg0 =512 , wfoptalg0 =  0
-
- outvars: echo of global parameters not present in the input file
-  max_nthreads =    0
-
 -outvars: echo values of preprocessed input variables --------
            acell      1.0000000000E+00  1.0000000000E+00  1.0000000000E+00 Bohr
              amu      6.94100000E+00  3.09737620E+01
             ecut      3.70000000E+01 Hartree
-          fftalg         512
           irdden           1
           irdwfk           1
           istwfk        1    0
              ixc     -116133
              kpt      0.00000000E+00  0.00000000E+00  0.00000000E+00
                       3.33333333E-01  3.33333333E-01  0.00000000E+00
           kptopt           0
P           mkmem           2
P          mkqmem           2
P          mk1mem           2
            natom           8
            nband          23
           nbdbuf           4
            ngfft          45      45      80
             nkpt           2
            nstep        2000
             nsym          24
           ntypat           2
              occ      2.000000  2.000000  2.000000  2.000000  2.000000  2.000000
                       2.000000  2.000000  2.000000  2.000000  2.000000  2.000000
                       2.000000  2.000000  0.000000  0.000000  0.000000  0.000000
                       0.000000  0.000000  0.000000  0.000000  0.000000
        optdriver           1
            prtwf          -1
            rfdir           1       1       1
           rfelfd           2
            rprim      7.9399161064E+00  0.0000000000E+00  0.0000000000E+00
                      -3.9699580532E+00  6.8761690521E+00  0.0000000000E+00
                       0.0000000000E+00  0.0000000000E+00  1.4187597322E+01
          spgroup         194
           symrel      1  0  0   0  1  0   0  0  1      -1  0  0   0 -1  0   0  0 -1
                       0  1  0   1  0  0   0  0  1       0 -1  0  -1  0  0   0  0 -1
                       1  1  0  -1  0  0   0  0  1      -1 -1  0   1  0  0   0  0 -1
                      -1  0  0   1  1  0   0  0  1       1  0  0  -1 -1  0   0  0 -1
                       0  1  0  -1 -1  0   0  0  1       0 -1  0   1  1  0   0  0 -1
                      -1 -1  0   0  1  0   0  0  1       1  1  0   0 -1  0   0  0 -1
                      -1  0  0   0 -1  0   0  0  1       1  0  0   0  1  0   0  0 -1
                       0 -1  0  -1  0  0   0  0  1       0  1  0   1  0  0   0  0 -1
                      -1 -1  0   1  0  0   0  0  1       1  1  0  -1  0  0   0  0 -1
                       1  0  0  -1 -1  0   0  0  1      -1  0  0   1  1  0   0  0 -1
                       0 -1  0   1  1  0   0  0  1       0  1  0  -1 -1  0   0  0 -1
                       1  1  0   0 -1  0   0  0  1      -1 -1  0   0  1  0   0  0 -1
            tnons      0.0000000  0.0000000  0.0000000    -0.0000000 -0.0000000  0.0000000
                      -0.0000000  0.0000000  0.5000000    -0.0000000 -0.0000000  0.5000000
                      -0.0000000  0.0000000  0.5000000    -0.0000000 -0.0000000  0.5000000
                      -0.0000000  0.0000000  0.0000000    -0.0000000 -0.0000000  0.0000000
                      -0.0000000 -0.0000000  0.0000000    -0.0000000 -0.0000000  0.0000000
                      -0.0000000 -0.0000000  0.5000000     0.0000000 -0.0000000  0.5000000
                      -0.0000000 -0.0000000  0.5000000     0.0000000  0.0000000  0.5000000
                      -0.0000000 -0.0000000  0.0000000    -0.0000000  0.0000000  0.0000000
                      -0.0000000 -0.0000000  0.0000000    -0.0000000  0.0000000  0.0000000
                      -0.0000000 -0.0000000  0.5000000    -0.0000000  0.0000000  0.5000000
                      -0.0000000 -0.0000000  0.5000000    -0.0000000 -0.0000000  0.5000000
                       0.0000000 -0.0000000  0.0000000    -0.0000000 -0.0000000  0.0000000
           tolwfr      1.00000000E-20
            typat      1  1  1  1  1  1  2  2
           useylm           1
              wtk        0.50000    0.50000
           xangst     -1.9436409156E-16 -6.7329696351E-17  1.8769382868E+00
                      -1.9436409156E-16 -6.7329696351E-17  5.6308148604E+00
                      -2.3500188843E-16  2.4258079632E+00  4.3853386753E+00
                       2.1008113208E+00  1.2129039816E+00  6.3146210170E-01
                       2.1008113208E+00  1.2129039816E+00  3.1224144719E+00
                      -2.3500188843E-16  2.4258079632E+00  6.8762910455E+00
                      -2.3500188843E-16  2.4258079632E+00  1.8769382868E+00
                       2.1008113208E+00  1.2129039816E+00  5.6308148604E+00
            xcart     -3.6729490312E-16 -1.2723468671E-16  3.5468993304E+00
                      -3.6729490312E-16 -1.2723468671E-16  1.0640697991E+01
                      -4.4408920985E-16  4.5841127014E+00  8.2870890963E+00
                       3.9699580532E+00  2.2920563507E+00  1.1932904355E+00
                       3.9699580532E+00  2.2920563507E+00  5.9005082252E+00
                      -4.4408920985E-16  4.5841127014E+00  1.2994306886E+01
                      -4.4408920985E-16  4.5841127014E+00  3.5468993304E+00
                       3.9699580532E+00  2.2920563507E+00  1.0640697991E+01
             xred     -5.5511151231E-17 -1.8503717077E-17  2.5000000000E-01
                      -5.5511151231E-17 -1.8503717077E-17  7.5000000000E-01
                       3.3333333333E-01  6.6666666667E-01  5.8410800000E-01
                       6.6666666667E-01  3.3333333333E-01  8.4108000000E-02
                       6.6666666667E-01  3.3333333333E-01  4.1589200000E-01
                       3.3333333333E-01  6.6666666667E-01  9.1589200000E-01
                       3.3333333333E-01  6.6666666667E-01  2.5000000000E-01
                       6.6666666667E-01  3.3333333333E-01  7.5000000000E-01
            znucl        3.00000   15.00000

 chkinp: Checking input parameters for consistency.

== DATASET  1 ==================================================================
-   mpi_nproc: 1, omp_nthreads: -1 (-1 if OMP is not activated)

--- !DatasetInfo
iteration_state: {dtset: 1, }
dimensions: {natom: 8, nkpt: 2, mband: 23, nsppol: 1, nspinor: 1, nspden: 1, mpw: 8331, }
cutoff_energies: {ecut:  37.0, pawecutdg:  -1.0, }
electrons: {nelect:   2.80000000E+01, charge:   0.00000000E+00, occopt:   1.00000000E+00, tsmear:   1.00000000E-02, }
meta: {optdriver: 1, rfelfd: 2, }
...

 Real(R)+Recip(G) space primitive vectors, cartesian coordinates (Bohr,Bohr^-1):
 R(1)=  7.9399161  0.0000000  0.0000000  G(1)=  0.1259459  0.0727149  0.0000000
 R(2)= -3.9699581  6.8761691  0.0000000  G(2)=  0.0000000  0.1454298  0.0000000
 R(3)=  0.0000000  0.0000000 14.1875973  G(3)=  0.0000000  0.0000000  0.0704841
 Unit cell volume ucvol=  7.7458898E+02 bohr^3
 Angles (23,13,12)=  9.00000000E+01  9.00000000E+01  1.20000000E+02 degrees

 getcut: wavevector=  0.0000  0.0000  0.0000  ngfft=  45  45  80
         ecut(hartree)=     37.000   => boxcut(ratio)=   2.02381

--- Pseudopotential description ------------------------------------------------
- pspini: atom type   1  psp file is /scratch/users/j/a/jabreu/pseudos/PBEsol/Li.psp8
- pspatm: opening atomic psp file    /scratch/users/j/a/jabreu/pseudos/PBEsol/Li.psp8
- Li    ONCVPSP-3.3.0  r_core=   1.40824   1.10935
-  3.00000   3.00000    180112                znucl, zion, pspdat
    8 -116133    1    4       400   0.00000   pspcod,pspxc,lmax,lloc,mmax,r2well
    3.99000000000000    0.00000000000000    0.00000000000000   rchrg,fchrg,qchrg
     nproj     2     2
     extension_switch     1
  pspatm : epsatm=    2.60859637
         --- l  ekb(1:nproj) -->
             0   -4.855856   -1.482423
             1   -2.171544   -0.427615
 pspatm: atomic psp has been read  and splines computed

- pspini: atom type   2  psp file is /scratch/users/j/a/jabreu/pseudos/PBEsol/P.psp8
- pspatm: opening atomic psp file    /scratch/users/j/a/jabreu/pseudos/PBEsol/P.psp8
- P     ONCVPSP-3.3.0  r_core=   1.46089   1.55067   1.70594
- 15.00000   5.00000    180112                znucl, zion, pspdat
    8 -116133    2    4       600   0.00000   pspcod,pspxc,lmax,lloc,mmax,r2well
    5.99000000000000    5.00000000000000    0.00000000000000   rchrg,fchrg,qchrg
     nproj     2     2     2
     extension_switch     1
  pspatm : epsatm=    7.31221086
         --- l  ekb(1:nproj) -->
             0    6.742364    1.063650
             1    3.449117    0.910422
             2   -3.077645   -0.799176
 pspatm: atomic psp has been read  and splines computed

   8.47727998E+02                                ecore*ucvol(ha*bohr**3)

-inwffil : will read wavefunctions from disk file /scratch/users/j/a/jabreu/flow_simple_8atoms/flow/w469/t1/indata/in_WFK

 ==>  initialize data related to q vector <==

 The list of irreducible perturbations for this q vector is:
    1)    idir= 1    ipert=   9
    2)    idir= 2    ipert=   9
    3)    idir= 3    ipert=   9

 Perturbation wavevector (in red.coord.)   0.000000  0.000000  0.000000
 Perturbation : derivative vs k along direction   1

 dfpt_looppert : COMMENT -
  In a d/dk calculation, iscf is set to -3 automatically.
 The set of symmetries contains only one element for this perturbation.
 symkpt : not enough symmetry to change the number of k points.

[...]

 Initialisation of the first-order wave-functions :
  ireadwf=   0

--- !BeginCycle
iteration_state: {dtset: 1, }
solver: {iscf: 7, nstep: 2000, nline: 4, wfoptalg: 0, }
tolerances: {tolwfr: 1.00E-20, }
...

     iter   2DEtotal(Ha)        deltaE(Ha) residm    vres2
-ETOT  1  -30.850171419040     -3.085E+01 1.574E-01 0.000E+00
 ETOT  2  -30.854242978088     -4.072E-03 5.934E-04 0.000E+00
[...]
 prteigrs : prtvol=0 or 1, do not print more k-points.

 Eight components of 2nd-order total energy (hartree) are
 1,2,3: 0th-order hamiltonian combined with 1st-order wavefunctions
     kin0=   1.58377349E+01 eigvalue=   4.67033754E+00  local=  -6.16090130E+00
 4,5,6: 1st-order hamiltonian combined with 1st and 0th-order wfs
     kin1=  -6.10883851E+01  Hartree=   0.00000000E+00     xc=   0.00000000E+00
 7,8,9: eventually, occupation + non-local contributions
    edocc=   1.74143686E+01     enl0=  -9.07294933E-01   enl1=  -6.20104445E-01
 1-9 gives the relaxation energy (to be shifted if some occ is /=2.0)
   erelax=  -3.08542448E+01
  No Ewald or frozen-wf contrib.: the relaxation energy is the total one
 2DEtotal=   -0.3085424480E+02 Ha. Also 2DEtotal=   -0.839586698830E+03 eV
    (  non-var. 2DEtotal :   -3.0854244795E+01 Ha)

 Perturbation wavevector (in red.coord.)   0.000000  0.000000  0.000000
 Perturbation : derivative vs k along direction   2
 The set of symmetries contains only one element for this perturbation.
 symkpt : not enough symmetry to change the number of k points.

[...]

 Perturbation wavevector (in red.coord.)   0.000000  0.000000  0.000000
 Perturbation : derivative vs k along direction   3
 The set of symmetries contains only one element for this perturbation.
 symkpt : not enough symmetry to change the number of k points.

-inwffil : will read wavefunctions from disk file /scratch/users/j/a/jabreu/flow_simple_8atoms/flow/w469/t1/indata/in_WFK

 Initialisation of the first-order wave-functions :
  ireadwf=   0

--- !BeginCycle
iteration_state: {dtset: 1, }
solver: {iscf: 7, nstep: 2000, nline: 4, wfoptalg: 0, }
tolerances: {tolwfr: 1.00E-20, }
...

     iter   2DEtotal(Ha)        deltaE(Ha) residm    vres2
-ETOT  1  -6.6226850202018     -6.623E+00 6.273E-03 0.000E+00
 ETOT  2  -6.6239150967267     -1.230E-03 1.098E-04 0.000E+00
 ETOT  3  -6.6239154752383     -3.785E-07 6.865E-06 0.000E+00
 ETOT  4  -6.6239154755119     -2.736E-10 3.755E-07 0.000E+00
 ETOT  5  -6.6239154755121     -1.599E-13 2.720E-08 0.000E+00
 ETOT  6  -6.6239154755121     -1.776E-15 1.471E-09 0.000E+00
 ETOT  7  -6.6239154755121      5.329E-15 1.241E-10 0.000E+00
 ETOT  8  -6.6239154755121      1.776E-15 6.143E-12 0.000E+00
 ETOT  9  -6.6239154755121      0.000E+00 5.879E-13 0.000E+00
 ETOT 10  -6.6239154755121      8.882E-16 2.754E-14 0.000E+00
 ETOT 11  -6.6239154755121     -8.882E-16 2.859E-15 0.000E+00
 ETOT 12  -6.6239154755121      0.000E+00 1.362E-16 0.000E+00
 ETOT 13  -6.6239154755121      0.000E+00 1.455E-17 0.000E+00
 ETOT 14  -6.6239154755121      1.776E-15 7.131E-19 0.000E+00
 ETOT 15  -6.6239154755121     -4.441E-15 7.653E-20 0.000E+00
 ETOT 16  -6.6239154755121      3.553E-15 9.696E-21 0.000E+00

 At SCF step   16   max residual=  9.70E-21 < tolwfr=  1.00E-20 =>converged.

 ----iterations are completed or convergence reached----

 dfpt_looppert: DFPT cycle converged with prtwf=-1. Will skip output of the 1st-order WFK file.
 dfpt_looppert : ek2=    1.0983229448E+01
          f-sum rule ratio=    1.1872131174E+00
 prteigrs : about to open file /scratch/users/j/a/jabreu/flow_simple_8atoms/flow/w469/t1/tmpdata/tmp_1WF1_EIG
 Expectation of eigenvalue derivatives (hartree) for nkpt=   2  k points:
  (in case of degenerate eigenvalues, averaged derivative)
 kpt#   1, nband= 23, wtk=  0.50000, kpt=  0.0000  0.0000  0.0000 (reduced coord)
  -0.00000    0.00000   -0.00000    0.00000   -0.00000    0.00000    0.00000    0.00000
  -0.00000   -0.00000   -0.00000   -0.00000   -0.00000   -0.00000    0.00000   -0.00000
   0.00000    0.00000   -0.00000   -0.00000    0.00000   -0.00000    0.00018
 prteigrs : prtvol=0 or 1, do not print more k-points.

 Eight components of 2nd-order total energy (hartree) are
 1,2,3: 0th-order hamiltonian combined with 1st-order wavefunctions
     kin0=   4.18500475E+00 eigvalue=   1.04124837E+00  local=  -1.59233731E+00
 4,5,6: 1st-order hamiltonian combined with 1st and 0th-order wfs
     kin1=  -1.30394341E+01  Hartree=   0.00000000E+00     xc=   0.00000000E+00
 7,8,9: eventually, occupation + non-local contributions
    edocc=   3.22879593E+00     enl0=  -2.38796270E-01   enl1=  -2.08396878E-01
 1-9 gives the relaxation energy (to be shifted if some occ is /=2.0)
   erelax=  -6.62391548E+00
  No Ewald or frozen-wf contrib.: the relaxation energy is the total one
 2DEtotal=   -0.6623915476E+01 Ha. Also 2DEtotal=   -0.180245906660E+03 eV
    (  non-var. 2DEtotal :   -6.6239154755E+00 Ha)

 CALCULATION OF EFFECTIVE MASSES
 NOTE : Additional infos (eff. mass eigenvalues, eigenvectors and, if degenerate, average mass) are available in stdout.

 COMMENTS:
 - At k-point ( 0.000, 0.000, 0.000), bands    13 through    14
   are DEGENERATE (effective mass tensor is therefore not defined).
   See Section IIIB Eqs. (67)-(70) and Appendix E of PRB 93 205147 (2016).
 - Angular average effective mass for Frohlich model is to be averaged over degenerate bands. See later.
 - Associated theta integrals calculated with ntheta=   1000 points.

 K-point ( 0.000, 0.000, 0.000) | band =    13
 Transport equivalent effective mass tensor:
             -0.2612343927             -0.0000170212              0.0000465052
             -0.0000170212             -0.2620277949              0.0005927015
              0.0000465052              0.0005927015             -2.5828559616
 Transport equivalent effective mass tensor eigenvalues:
             -2.5828561139             -0.2620280081             -0.2612340272
 Angular average effective mass 1/(<1/m>)=  -0.3734809999
 Angular average effective mass for Frohlich model (<m**0.5>)**2=  -0.4525704738
 Effective masses along directions: (cart. coord. / red. coord. -> eff. mass)
    1:   1.000000  0.000000  0.000000 /   0.894427 -0.447214  0.000000 ->  -0.2615938419
    2:   0.000000  1.000000  0.000000 /   0.000000  1.000000  0.000000 ->  -0.2615937972
    3:   0.000000  0.000000  1.000000 /   0.000000  0.000000  1.000000 ->  -2.5670737869
    4:   0.577350  0.577350  0.577350 /   0.480743  0.175964  0.859025 ->  -0.3733983516
    5:   0.000000  0.707107  0.707107 /   0.000000  0.436137  0.899880 ->  -0.4751339578
    6:   0.707107  0.000000  0.707107 /   0.474424 -0.237212  0.847734 ->  -0.4748144342
    7:   0.707107  0.707107  0.000000 /   0.939071  0.343724  0.000000 ->  -0.2615937763

 K-point ( 0.000, 0.000, 0.000) | band =    14
 Transport equivalent effective mass tensor:
             -2.3531921816              0.0001569451              0.0003281513
              0.0001569451             -2.3458836612              0.0004175720
              0.0003281513              0.0004175720             -2.5840556984
 Transport equivalent effective mass tensor eigenvalues:
             -2.5840568962             -2.3531951093             -2.3458795357
 Angular average effective mass 1/(<1/m>)=  -2.4225263215
 Angular average effective mass for Frohlich model (<m**0.5>)**2=  -2.4239674563
 Effective masses along directions: (cart. coord. / red. coord. -> eff. mass)
    1:   1.000000  0.000000  0.000000 /   0.894427 -0.447214  0.000000 ->  -2.3493428905
    2:   0.000000  1.000000  0.000000 /   0.000000  1.000000  0.000000 ->  -2.3493427452
    3:   0.000000  0.000000  1.000000 /   0.000000  0.000000  1.000000 ->  -2.5999505069
    4:   0.577350  0.577350  0.577350 /   0.480743  0.175964  0.859025 ->  -2.4218182632
    5:   0.000000  0.707107  0.707107 /   0.000000  0.436137  0.899880 ->  -2.4536971663
    6:   0.707107  0.000000  0.707107 /   0.474424 -0.237212  0.847734 ->  -2.4672585544
    7:   0.707107  0.707107  0.000000 /   0.939071  0.343724  0.000000 ->  -2.3493430591

 Angular average effective mass for Frohlich model, averaged over degenerate bands.
 Value of     (<<m**0.5>>)**2 =     1.242827E+00
 Absolute Value of <<m**0.5>> =     1.114822E+00

 K-point ( 0.333, 0.333, 0.000) | band =    15
 Effective mass tensor:
              0.3324434498              0.0000000000             -0.0000000000
              0.0000000000              0.3324434498             -0.0000000000
             -0.0000000000             -0.0000000000              0.2225709719
 Effective mass tensor eigenvalues:
              0.2225709719              0.3324434498              0.3324434498
 Angular average effective mass 1/(<1/m>)=   0.2854693349
 Angular average effective mass for Frohlich model (<m**0.5>)**2=   0.2887433914
 Effective masses along directions: (cart. coord. / red. coord. -> eff. mass)
    1:   1.000000  0.000000  0.000000 /   0.894427 -0.447214  0.000000 ->   0.3324434498
    2:   0.000000  1.000000  0.000000 /   0.000000  1.000000  0.000000 ->   0.3324434498
    3:   0.000000  0.000000  1.000000 /   0.000000  0.000000  1.000000 ->   0.2225709719
    4:   0.577350  0.577350  0.577350 /   0.480743  0.175964  0.859025 ->   0.2854693349
    5:   0.000000  0.707107  0.707107 /   0.000000  0.436137  0.899880 ->   0.2666318525
    6:   0.707107  0.000000  0.707107 /   0.474424 -0.237212  0.847734 ->   0.2666318525
    7:   0.707107  0.707107  0.000000 /   0.939071  0.343724  0.000000 ->   0.3324434498

 END OF EFFECTIVE MASSES SECTION

 ---- first-order wavefunction calculations are completed ----

 Total localisation tensor (bohr^2) in cartesian coordinates
  WARNING : still subject to testing - especially symmetries.
      direction              matrix element
   alpha     beta       real part   imaginary part
     1        1       4.5587935568    0.0000000000
     1        2      -1.5790297787    0.0000000000
     1        3       0.0000000000    0.0000000000
     2        1      -1.5790297787    0.0000000000
     2        2       2.7349598034    0.0000000000
     2        3       0.0000000000    0.0000000000
     3        1       0.0000000000    0.0000000000
     3        2       0.0000000000    0.0000000000
     3        3       2.5179839479    0.0000000000

 respfn : d/dk was computed, but no 2DTE, so no DDB output.

== END DATASET(S) ==============================================================

 -outvars: echo values of variables after computation  --------
            acell      1.0000000000E+00  1.0000000000E+00  1.0000000000E+00 Bohr
              amu      6.94100000E+00  3.09737620E+01
             ecut      3.70000000E+01 Hartree
           etotal     -6.6239154755E+00
            fcart      0.0000000000E+00  0.0000000000E+00  0.0000000000E+00
                       0.0000000000E+00  0.0000000000E+00  0.0000000000E+00
                       0.0000000000E+00  0.0000000000E+00  0.0000000000E+00
                       0.0000000000E+00  0.0000000000E+00  0.0000000000E+00
                       0.0000000000E+00  0.0000000000E+00  0.0000000000E+00
                       0.0000000000E+00  0.0000000000E+00  0.0000000000E+00
                       0.0000000000E+00  0.0000000000E+00  0.0000000000E+00
                       0.0000000000E+00  0.0000000000E+00  0.0000000000E+00
-          fftalg         512
           irdden           1
           irdwfk           1
           istwfk        1    0
              ixc     -116133
              kpt      0.00000000E+00  0.00000000E+00  0.00000000E+00
                       3.33333333E-01  3.33333333E-01  0.00000000E+00
           kptopt           0
P           mkmem           2
P          mkqmem           2
P          mk1mem           2
            natom           8
            nband          23
           nbdbuf           4
            ngfft          45      45      80
             nkpt           2
            nstep        2000
             nsym          24
           ntypat           2
              occ      2.000000  2.000000  2.000000  2.000000  2.000000  2.000000
                       2.000000  2.000000  2.000000  2.000000  2.000000  2.000000
                       2.000000  2.000000  0.000000  0.000000  0.000000  0.000000
                       0.000000  0.000000  0.000000  0.000000  0.000000
        optdriver           1
            prtwf          -1
            rfdir           1       1       1
           rfelfd           2
            rprim      7.9399161064E+00  0.0000000000E+00  0.0000000000E+00
                      -3.9699580532E+00  6.8761690521E+00  0.0000000000E+00
                       0.0000000000E+00  0.0000000000E+00  1.4187597322E+01
          spgroup         194
           strten      0.0000000000E+00  0.0000000000E+00  0.0000000000E+00
                       0.0000000000E+00  0.0000000000E+00  0.0000000000E+00
           symrel      1  0  0   0  1  0   0  0  1      -1  0  0   0 -1  0   0  0 -1
                       0  1  0   1  0  0   0  0  1       0 -1  0  -1  0  0   0  0 -1
                       1  1  0  -1  0  0   0  0  1      -1 -1  0   1  0  0   0  0 -1
                      -1  0  0   1  1  0   0  0  1       1  0  0  -1 -1  0   0  0 -1
                       0  1  0  -1 -1  0   0  0  1       0 -1  0   1  1  0   0  0 -1
                      -1 -1  0   0  1  0   0  0  1       1  1  0   0 -1  0   0  0 -1
                      -1  0  0   0 -1  0   0  0  1       1  0  0   0  1  0   0  0 -1
                       0 -1  0  -1  0  0   0  0  1       0  1  0   1  0  0   0  0 -1
                      -1 -1  0   1  0  0   0  0  1       1  1  0  -1  0  0   0  0 -1
                       1  0  0  -1 -1  0   0  0  1      -1  0  0   1  1  0   0  0 -1
                       0 -1  0   1  1  0   0  0  1       0  1  0  -1 -1  0   0  0 -1
                       1  1  0   0 -1  0   0  0  1      -1 -1  0   0  1  0   0  0 -1
            tnons      0.0000000  0.0000000  0.0000000    -0.0000000 -0.0000000  0.0000000
                      -0.0000000  0.0000000  0.5000000    -0.0000000 -0.0000000  0.5000000
                      -0.0000000  0.0000000  0.5000000    -0.0000000 -0.0000000  0.5000000
                      -0.0000000  0.0000000  0.0000000    -0.0000000 -0.0000000  0.0000000
                      -0.0000000 -0.0000000  0.0000000    -0.0000000 -0.0000000  0.0000000
                      -0.0000000 -0.0000000  0.5000000     0.0000000 -0.0000000  0.5000000
                      -0.0000000 -0.0000000  0.5000000     0.0000000  0.0000000  0.5000000
                      -0.0000000 -0.0000000  0.0000000    -0.0000000  0.0000000  0.0000000
                      -0.0000000 -0.0000000  0.0000000    -0.0000000  0.0000000  0.0000000
                      -0.0000000 -0.0000000  0.5000000    -0.0000000  0.0000000  0.5000000
                      -0.0000000 -0.0000000  0.5000000    -0.0000000 -0.0000000  0.5000000
                       0.0000000 -0.0000000  0.0000000    -0.0000000 -0.0000000  0.0000000
           tolwfr      1.00000000E-20
            typat      1  1  1  1  1  1  2  2
           useylm           1
              wtk        0.50000    0.50000
           xangst     -1.9436409156E-16 -6.7329696351E-17  1.8769382868E+00
                      -1.9436409156E-16 -6.7329696351E-17  5.6308148604E+00
                      -2.3500188843E-16  2.4258079632E+00  4.3853386753E+00
                       2.1008113208E+00  1.2129039816E+00  6.3146210170E-01
                       2.1008113208E+00  1.2129039816E+00  3.1224144719E+00
                      -2.3500188843E-16  2.4258079632E+00  6.8762910455E+00
                      -2.3500188843E-16  2.4258079632E+00  1.8769382868E+00
                       2.1008113208E+00  1.2129039816E+00  5.6308148604E+00
            xcart     -3.6729490312E-16 -1.2723468671E-16  3.5468993304E+00
                      -3.6729490312E-16 -1.2723468671E-16  1.0640697991E+01
                      -4.4408920985E-16  4.5841127014E+00  8.2870890963E+00
                       3.9699580532E+00  2.2920563507E+00  1.1932904355E+00
                       3.9699580532E+00  2.2920563507E+00  5.9005082252E+00
                      -4.4408920985E-16  4.5841127014E+00  1.2994306886E+01
                      -4.4408920985E-16  4.5841127014E+00  3.5468993304E+00
                       3.9699580532E+00  2.2920563507E+00  1.0640697991E+01
             xred     -5.5511151231E-17 -1.8503717077E-17  2.5000000000E-01
                      -5.5511151231E-17 -1.8503717077E-17  7.5000000000E-01
                       3.3333333333E-01  6.6666666667E-01  5.8410800000E-01
                       6.6666666667E-01  3.3333333333E-01  8.4108000000E-02
                       6.6666666667E-01  3.3333333333E-01  4.1589200000E-01
                       3.3333333333E-01  6.6666666667E-01  9.1589200000E-01
                       3.3333333333E-01  6.6666666667E-01  2.5000000000E-01
                       6.6666666667E-01  3.3333333333E-01  7.5000000000E-01
            znucl        3.00000   15.00000

- Timing analysis has been suppressed with timopt=0

 Suggested references for the acknowledgment of ABINIT usage.

 Calculation completed.
.Delivered  14 WARNINGs and   9 COMMENTs to log file.