.Version 9.5.1 of ABINIT

 ABINIT is a project of the Universite Catholique de Louvain,
 Corning Inc. and other collaborators, see ~abinit/doc/developers/contributors.txt .
 acknowledgments of the ABINIT effort.

.Starting date : Wed  5 May 2021.
- ( at 19h54 )

- input  file    -> /scratch/users/j/a/jabreu/flow_simple_7atoms/flow/w158/t1/run.abi
- output file    -> /scratch/users/j/a/jabreu/flow_simple_7atoms/flow/w158/t1/run.abo
- root for input  files -> /scratch/users/j/a/jabreu/flow_simple_7atoms/flow/w158/t1/indata/in
- root for output files -> /scratch/users/j/a/jabreu/flow_simple_7atoms/flow/w158/t1/outdata/out

 Symmetries : space group I-4 (# 82); Bravais tI (body-center tetrag.)
     intxc =       0      iscf =       7    lmnmax =      25     lnmax =       7
     mgfft =      64  mpssoang =       4    mqgrid =    3001     natom =       7
  nloc_mem =       1    nspden =       1   nspinor =       1    nsppol =       1
      nsym =       4    n1xccc =    2501    ntypat =       3    occopt =       1
   xclevel =       2
-    mband =          34        mffmem =           1         mkmem =           1
-   mkqmem =           1        mk1mem =           1           mpw =        9501
      nfft =      262144          nkpt =           1
  Rough estimation (10% accuracy) of disk space for files :

------------- Echo of variables that govern the present computation ------------
-
- outvars: echo of selected default values
-   iomode0 =  0 , fftalg0 =512 , wfoptalg0 =  0
-
- outvars: echo of global parameters not present in the input file
-  max_nthreads =    0
-
 -outvars: echo values of preprocessed input variables --------
            acell      1.0000000000E+00  1.0000000000E+00  1.0000000000E+00 Bohr
              amu      2.69815390E+01  2.00590000E+02  3.20660000E+01
             ecut      3.30000000E+01 Hartree
-          fftalg         512
           irdden           1
           irdwfk           1
           istwfk        1
              ixc     -116133
           kptopt           0
P           mkmem           1
P          mkqmem           1
P          mk1mem           1
            natom           7
            nband          34
           nbdbuf           4
            ngfft          64      64      64
             nkpt           1
            nstep        2000
             nsym           4
           ntypat           3
              occ      2.000000  2.000000  2.000000  2.000000  2.000000  2.000000
                       2.000000  2.000000  2.000000  2.000000  2.000000  2.000000
                       2.000000  2.000000  2.000000  2.000000  2.000000  2.000000
                       2.000000  2.000000  2.000000  2.000000  2.000000  2.000000
                       2.000000  0.000000  0.000000  0.000000  0.000000  0.000000
                       0.000000  0.000000  0.000000  0.000000
        optdriver           1
            prtwf          -1
            rfdir           1       1       1
           rfelfd           2
            rprim      9.3956281316E+00  0.0000000000E+00 -7.6771749435E+00
                      -2.1134302075E+00  9.1548479368E+00 -7.6771749435E+00
                       0.0000000000E+00  0.0000000000E+00  1.2133294816E+01
          spgroup          82
           symrel      1  0  0   0  1  0   0  0  1       0  1  0   1  0  0  -1 -1 -1
                       0  0  1  -1 -1 -1   0  1  0      -1 -1 -1   0  0  1   1  0  0
           tolwfr      1.00000000E-20
            typat      1  1  2  3  3  3  3
           useylm           1
           xangst      4.0420374359E-01  3.6334026572E+00 -8.5225446549E-01
                       1.9267865849E+00  2.4222684381E+00 -4.0625860065E+00
                       0.0000000000E+00  0.0000000000E+00  0.0000000000E+00
                       3.8487921347E+00  1.9827236073E+00 -5.1768995727E+00
                       1.0633845599E+00  4.1926414606E+00  1.2403490136E+00
                       5.1935807292E-01  6.4838797098E-01  2.3967136965E+00
                       2.2756115722E+00  2.8653207136E+00 -1.8691809993E+00
            xcart      7.6383437728E-01  6.8661359526E+00 -1.6105275353E+00
                       3.6410989621E+00  4.5774239684E+00 -7.6771749435E+00
                       0.0000000000E+00  0.0000000000E+00  0.0000000000E+00
                       7.2731630771E+00  3.7468046151E+00 -9.7829224099E+00
                       2.0095055922E+00  7.9229441339E+00  2.3439199449E+00
                       9.8144452273E-01  1.2252756930E+00  4.5291325053E+00
                       4.3002826562E+00  5.4146714316E+00 -3.5322401814E+00
             xred      2.5000000000E-01  7.5000000000E-01  5.0000000000E-01
                       5.0000000000E-01  5.0000000000E-01 -5.5511151231E-17
                       0.0000000000E+00  0.0000000000E+00  0.0000000000E+00
                       8.6616100000E-01  4.0927000000E-01  7.2400000000E-04
                       4.0854600000E-01  8.6543700000E-01  9.9927600000E-01
                       1.3456300000E-01  1.3383900000E-01  5.4310900000E-01
                       5.9073000000E-01  5.9145400000E-01  4.5689100000E-01
            znucl       13.00000   80.00000   16.00000

 chkinp: Checking input parameters for consistency.

== DATASET  1 ==================================================================
-   mpi_nproc: 1, omp_nthreads: -1 (-1 if OMP is not activated)

--- !DatasetInfo
iteration_state: {dtset: 1, }
dimensions: {natom: 7, nkpt: 1, mband: 34, nsppol: 1, nspinor: 1, nspden: 1, mpw: 9501, }
cutoff_energies: {ecut:  33.0, pawecutdg:  -1.0, }
electrons: {nelect:   5.00000000E+01, charge:   0.00000000E+00, occopt:   1.00000000E+00, tsmear:   1.00000000E-02, }
meta: {optdriver: 1, rfelfd: 2, }
...

 Real(R)+Recip(G) space primitive vectors, cartesian coordinates (Bohr,Bohr^-1):
 R(1)=  9.3956281  0.0000000 -7.6771749  G(1)=  0.1064325  0.0245703  0.0000000
 R(2)= -2.1134302  9.1548479 -7.6771749  G(2)=  0.0000000  0.1092317  0.0000000
 R(3)=  0.0000000  0.0000000 12.1332948  G(3)=  0.0673437  0.0846614  0.0824178
 Unit cell volume ucvol=  1.0436520E+03 bohr^3
 Angles (23,13,12)=  1.29252285E+02  1.29252285E+02  7.46049744E+01 degrees

 getcut: wavevector=  0.0000  0.0000  0.0000  ngfft=  64  64  64
         ecut(hartree)=     33.000   => boxcut(ratio)=   2.04002

--- Pseudopotential description ------------------------------------------------
- pspini: atom type   1  psp file is /scratch/users/j/a/jabreu/pseudos/PBEsol/Al.psp8
- pspatm: opening atomic psp file    /scratch/users/j/a/jabreu/pseudos/PBEsol/Al.psp8
- Al    ONCVPSP-3.3.0  r_core=   1.76802   1.76802   1.70587
- 13.00000   3.00000    180112                znucl, zion, pspdat
    8 -116133    2    4       600   0.00000   pspcod,pspxc,lmax,lloc,mmax,r2well
    5.99000000000000    5.00000000000000    0.00000000000000   rchrg,fchrg,qchrg
     nproj     2     2     2
     extension_switch     1
  pspatm : epsatm=    0.68509324
         --- l  ekb(1:nproj) -->
             0    5.834965    0.726662
             1    6.225605    0.924840
             2   -2.432733   -0.548689
 pspatm: atomic psp has been read  and splines computed

- pspini: atom type   2  psp file is /scratch/users/j/a/jabreu/pseudos/PBEsol/Hg.psp8
- pspatm: opening atomic psp file    /scratch/users/j/a/jabreu/pseudos/PBEsol/Hg.psp8
- Hg    ONCVPSP-3.3.0  r_core=   1.60079   1.60079   1.45509   1.60079
- 80.00000  20.00000    180112                znucl, zion, pspdat
    8 -116133    3    4       600   0.00000   pspcod,pspxc,lmax,lloc,mmax,r2well
    5.99000000000000    5.00000000000000    0.00000000000000   rchrg,fchrg,qchrg
     nproj     2     2     2     1
     extension_switch     1
  pspatm : epsatm=   30.52477316
         --- l  ekb(1:nproj) -->
             0   15.280580    2.063595
             1   11.999965    1.374025
             2    2.245749    0.205661
             3    0.961656
 pspatm: atomic psp has been read  and splines computed

- pspini: atom type   3  psp file is /scratch/users/j/a/jabreu/pseudos/PBEsol/S.psp8
- pspatm: opening atomic psp file    /scratch/users/j/a/jabreu/pseudos/PBEsol/S.psp8
- S     ONCVPSP-3.3.0  r_core=   1.45376   1.45376   1.61851
- 16.00000   6.00000    180112                znucl, zion, pspdat
    8 -116133    2    4       600   0.00000   pspcod,pspxc,lmax,lloc,mmax,r2well
    5.99000000000000    6.00000000000000    0.00000000000000   rchrg,fchrg,qchrg
     nproj     2     2     2
     extension_switch     1
  pspatm : epsatm=    8.71840985
         --- l  ekb(1:nproj) -->
             0    6.834532    0.579453
             1    3.282851    0.896984
             2   -3.496974   -0.974265
 pspatm: atomic psp has been read  and splines computed

   3.33842995E+03                                ecore*ucvol(ha*bohr**3)

-inwffil : will read wavefunctions from disk file /scratch/users/j/a/jabreu/flow_simple_7atoms/flow/w158/t1/indata/in_WFK

 ==>  initialize data related to q vector <==

 The list of irreducible perturbations for this q vector is:
    1)    idir= 1    ipert=   8
    2)    idir= 2    ipert=   8
    3)    idir= 3    ipert=   8

 Perturbation wavevector (in red.coord.)   0.000000  0.000000  0.000000
 Perturbation : derivative vs k along direction   1

 dfpt_looppert : COMMENT -
  In a d/dk calculation, iscf is set to -3 automatically.
 The set of symmetries contains only one element for this perturbation.
 symkpt : not enough symmetry to change the number of k points.

[...]

 Initialisation of the first-order wave-functions :
  ireadwf=   0

--- !BeginCycle
iteration_state: {dtset: 1, }
solver: {iscf: 7, nstep: 2000, nline: 4, wfoptalg: 0, }
tolerances: {tolwfr: 1.00E-20, }
...

     iter   2DEtotal(Ha)        deltaE(Ha) residm    vres2
-ETOT  1  -26.262061105764     -2.626E+01 1.114E-01 0.000E+00
 ETOT  2  -26.287541855112     -2.548E-02 4.309E-03 0.000E+00
 ETOT  3  -26.287691497635     -1.496E-04 3.620E-04 0.000E+00
 ETOT  4  -26.287692701230     -1.204E-06 2.407E-05 0.000E+00
 ETOT  5  -26.287692712114     -1.088E-08 2.598E-06 0.000E+00
 ETOT  6  -26.287692712218     -1.039E-10 2.114E-07 0.000E+00
 ETOT  7  -26.287692712219     -9.486E-13 2.302E-08 0.000E+00
 ETOT  8  -26.287692712219     -9.237E-14 1.947E-09 0.000E+00
 ETOT  9  -26.287692712219      1.066E-14 2.119E-10 0.000E+00
 ETOT 10  -26.287692712219     -1.066E-14 1.824E-11 0.000E+00
 ETOT 11  -26.287692712219      3.553E-15 1.988E-12 0.000E+00
 ETOT 12  -26.287692712219      0.000E+00 1.727E-13 0.000E+00
 ETOT 13  -26.287692712219     -3.553E-15 1.889E-14 0.000E+00
 ETOT 14  -26.287692712219      3.553E-15 1.649E-15 0.000E+00
 ETOT 15  -26.287692712219     -3.553E-15 1.811E-16 0.000E+00
 ETOT 16  -26.287692712219     -3.553E-15 1.585E-17 0.000E+00
 ETOT 17  -26.287692712219     -3.553E-15 1.747E-18 0.000E+00
 ETOT 18  -26.287692712219      3.553E-15 1.532E-19 0.000E+00
 ETOT 19  -26.287692712219      0.000E+00 1.694E-20 0.000E+00
 ETOT 20  -26.287692712219     -1.066E-14 9.398E-21 0.000E+00

 At SCF step   20   max residual=  9.40E-21 < tolwfr=  1.00E-20 =>converged.

 ----iterations are completed or convergence reached----

 dfpt_looppert: DFPT cycle converged with prtwf=-1. Will skip output of the 1st-order WFK file.
 dfpt_looppert : ek2=    4.7103965116E+01
          f-sum rule ratio=    1.1282527861E+00
 prteigrs : about to open file /scratch/users/j/a/jabreu/flow_simple_7atoms/flow/w158/t1/tmpdata/tmp_1WF1_EIG
 Expectation of eigenvalue derivatives (hartree) for nkpt=   1  k points:
  (in case of degenerate eigenvalues, averaged derivative)
 kpt#   1, nband= 34, wtk=  1.00000, kpt=  0.0000  0.0000  0.0000 (reduced coord)
   0.00000    0.00000    0.00000    0.00000   -0.00000   -0.00000   -0.00000    0.00000
  -0.00000   -0.00000   -0.00000   -0.00000    0.00000    0.00000    0.00000    0.00000
   0.00000    0.00000    0.00000    0.00000   -0.00000   -0.00000    0.00000    0.00000
   0.00000    0.00000   -0.00000    0.00000   -0.00000   -0.00000   -0.00000   -0.00000
  -0.00000    0.00000

 Eight components of 2nd-order total energy (hartree) are
 1,2,3: 0th-order hamiltonian combined with 1st-order wavefunctions
     kin0=   2.69988427E+01 eigvalue=   1.15542171E-01  local=  -1.50064103E+01
 4,5,6: 1st-order hamiltonian combined with 1st and 0th-order wfs
     kin1=  -5.31451799E+01  Hartree=   0.00000000E+00     xc=   0.00000000E+00
 7,8,9: eventually, occupation + non-local contributions
    edocc=   1.20235276E+01     enl0=   2.15619053E+00   enl1=   5.69794456E-01
 1-9 gives the relaxation energy (to be shifted if some occ is /=2.0)
   erelax=  -2.62876927E+01
  No Ewald or frozen-wf contrib.: the relaxation energy is the total one
 2DEtotal=   -0.2628769271E+02 Ha. Also 2DEtotal=   -0.715324497186E+03 eV
    (  non-var. 2DEtotal :   -2.6287692712E+01 Ha)

 Perturbation wavevector (in red.coord.)   0.000000  0.000000  0.000000
 Perturbation : derivative vs k along direction   2
 The set of symmetries contains only one element for this perturbation.
 symkpt : not enough symmetry to change the number of k points.

[...]

 Perturbation wavevector (in red.coord.)   0.000000  0.000000  0.000000
 Perturbation : derivative vs k along direction   3
 The set of symmetries contains only one element for this perturbation.
 symkpt : not enough symmetry to change the number of k points.

-inwffil : will read wavefunctions from disk file /scratch/users/j/a/jabreu/flow_simple_7atoms/flow/w158/t1/indata/in_WFK

 Initialisation of the first-order wave-functions :
  ireadwf=   0

--- !BeginCycle
iteration_state: {dtset: 1, }
solver: {iscf: 7, nstep: 2000, nline: 4, wfoptalg: 0, }
tolerances: {tolwfr: 1.00E-20, }
...

     iter   2DEtotal(Ha)        deltaE(Ha) residm    vres2
-ETOT  1  -41.777885068774     -4.178E+01 1.200E-01 0.000E+00
 ETOT  2  -41.810839034856     -3.295E-02 5.666E-03 0.000E+00
 ETOT  3  -41.811012986089     -1.740E-04 3.575E-04 0.000E+00
 ETOT  4  -41.811014393506     -1.407E-06 2.554E-05 0.000E+00
 ETOT  5  -41.811014406921     -1.342E-08 2.176E-06 0.000E+00
 ETOT  6  -41.811014407061     -1.392E-10 1.742E-07 0.000E+00
 ETOT  7  -41.811014407062     -1.442E-12 1.486E-08 0.000E+00
 ETOT  8  -41.811014407062      6.395E-14 1.323E-09 0.000E+00
 ETOT  9  -41.811014407062     -2.842E-14 1.104E-10 0.000E+00
 ETOT 10  -41.811014407062     -3.553E-14 1.042E-11 0.000E+00
 ETOT 11  -41.811014407062     -2.132E-14 8.674E-13 0.000E+00
 ETOT 12  -41.811014407062      7.105E-15 8.341E-14 0.000E+00
 ETOT 13  -41.811014407062      0.000E+00 7.016E-15 0.000E+00
 ETOT 14  -41.811014407062      0.000E+00 6.745E-16 0.000E+00
 ETOT 15  -41.811014407062      0.000E+00 5.749E-17 0.000E+00
 ETOT 16  -41.811014407062     -1.421E-14 5.496E-18 0.000E+00
 ETOT 17  -41.811014407062      7.105E-15 4.833E-19 0.000E+00
 ETOT 18  -41.811014407062      0.000E+00 4.610E-20 0.000E+00
 ETOT 19  -41.811014407062     -7.105E-15 9.838E-21 0.000E+00

 At SCF step   19   max residual=  9.84E-21 < tolwfr=  1.00E-20 =>converged.

 ----iterations are completed or convergence reached----

 dfpt_looppert: DFPT cycle converged with prtwf=-1. Will skip output of the 1st-order WFK file.
 dfpt_looppert : ek2=    7.3017022837E+01
          f-sum rule ratio=    1.1582821939E+00
 prteigrs : about to open file /scratch/users/j/a/jabreu/flow_simple_7atoms/flow/w158/t1/tmpdata/tmp_1WF1_EIG
 Expectation of eigenvalue derivatives (hartree) for nkpt=   1  k points:
  (in case of degenerate eigenvalues, averaged derivative)
 kpt#   1, nband= 34, wtk=  1.00000, kpt=  0.0000  0.0000  0.0000 (reduced coord)
  -0.00000    0.00000   -0.00000   -0.00000    0.00000   -0.00000   -0.00000    0.00000
  -0.00000   -0.00000    0.00000    0.00000    0.00000   -0.00000    0.00000   -0.00000
  -0.00000   -0.00000    0.00000    0.00000    0.00000    0.00000   -0.00000    0.00000
   0.00000    0.00000   -0.00000   -0.00000   -0.00000   -0.00000    0.00000    0.00000
   0.00000   -0.00000

 Eight components of 2nd-order total energy (hartree) are
 1,2,3: 0th-order hamiltonian combined with 1st-order wavefunctions
     kin0=   4.18662569E+01 eigvalue=   1.30320111E-01  local=  -2.32706153E+01
 4,5,6: 1st-order hamiltonian combined with 1st and 0th-order wfs
     kin1=  -8.45743174E+01  Hartree=   0.00000000E+00     xc=   0.00000000E+00
 7,8,9: eventually, occupation + non-local contributions
    edocc=   1.97937266E+01     enl0=   3.29132607E+00   enl1=   9.52288590E-01
 1-9 gives the relaxation energy (to be shifted if some occ is /=2.0)
   erelax=  -4.18110144E+01
  No Ewald or frozen-wf contrib.: the relaxation energy is the total one
 2DEtotal=   -0.4181101441E+02 Ha. Also 2DEtotal=   -0.113773556261E+04 eV
    (  non-var. 2DEtotal :   -4.1811014407E+01 Ha)

 CALCULATION OF EFFECTIVE MASSES
 NOTE : Additional infos (eff. mass eigenvalues, eigenvectors and, if degenerate, average mass) are available in stdout.

 COMMENTS:
 - At k-point ( 0.000, 0.000, 0.000), bands    24 through    25
   are DEGENERATE (effective mass tensor is therefore not defined).
   See Section IIIB Eqs. (67)-(70) and Appendix E of PRB 93 205147 (2016).
 - Angular average effective mass for Frohlich model is to be averaged over degenerate bands. See later.
 - Associated theta integrals calculated with ntheta=   1000 points.

 K-point ( 0.000, 0.000, 0.000) | band =    24
 Transport equivalent effective mass tensor:
             -0.3303218482             -0.1231880966              0.2066089139
             -0.1231880966             -0.3871986931              0.2597393247
              0.2066089139              0.2597393247             -0.6679624612
 Transport equivalent effective mass tensor eigenvalues:
             -0.9208185549             -0.2323322239             -0.2323322237
 Angular average effective mass 1/(<1/m>)=  -0.3055437887
 Angular average effective mass for Frohlich model (<m**0.5>)**2=  -0.3348824226
 Effective masses along directions: (cart. coord. / red. coord. -> eff. mass)
    1:   1.000000  0.000000  0.000000 /   0.975623 -0.219454  0.000000 ->  -0.2684378838
    2:   0.000000  1.000000  0.000000 /   0.000000  1.000000  0.000000 ->  -0.2955312563
    3:   0.000000  0.000000  1.000000 /  -0.471521 -0.471521  0.745209 ->  -0.4156364534
    4:   0.577350  0.577350  0.577350 /   0.140043 -0.051810  0.988789 ->  -0.2161565854
    5:   0.000000  0.707107  0.707107 /  -0.531883  0.102375  0.840607 ->  -0.2438031526
    6:   0.707107  0.000000  0.707107 /   0.109559 -0.624193  0.773550 ->  -0.2588292480
    7:   0.707107  0.707107  0.000000 /   0.800217  0.599711  0.000000 ->  -0.2995085424

 K-point ( 0.000, 0.000, 0.000) | band =    25
 Transport equivalent effective mass tensor:
             -5.9597271952              0.3483184680             -0.5841936129
              0.3483184680             -5.7989060117             -0.7344216274
             -0.5841936129             -0.7344216274             -5.0050370960
 Transport equivalent effective mass tensor eigenvalues:
             -6.2367961407             -6.2367961389             -4.2900780233
 Angular average effective mass 1/(<1/m>)=  -1.4855451845
 Angular average effective mass for Frohlich model (<m**0.5>)**2=  -1.7126154996
 Effective masses along directions: (cart. coord. / red. coord. -> eff. mass)
    1:   1.000000  0.000000  0.000000 /   0.975623 -0.219454  0.000000 ->  -1.3946443701
    2:   0.000000  1.000000  0.000000 /   0.000000  1.000000  0.000000 ->  -1.1849663538
    3:   0.000000  0.000000  1.000000 /  -0.471521 -0.471521  0.745209 ->  -1.3120882194
    4:   0.577350  0.577350  0.577350 /   0.140043 -0.051810  0.988789 ->  -5.4621169950
    5:   0.000000  0.707107  0.707107 /  -0.531883  0.102375  0.840607 ->  -1.7348891058
    6:   0.707107  0.000000  0.707107 /   0.109559 -0.624193  0.773550 ->  -1.3863060471
    7:   0.707107  0.707107  0.000000 /   0.800217  0.599711  0.000000 ->  -1.8822745225

 Angular average effective mass for Frohlich model, averaged over degenerate bands.
 Value of     (<<m**0.5>>)**2 =     8.905316E-01
 Absolute Value of <<m**0.5>> =     9.436798E-01

 K-point ( 0.000, 0.000, 0.000) | band =    26
 Effective mass tensor:
              0.2307658034              0.0266205445             -0.0446475090
              0.0266205445              0.2430567040             -0.0561288171
             -0.0446475090             -0.0561288171              0.3037288311
 Effective mass tensor eigenvalues:
              0.2095905664              0.2095905665              0.3583702056
 Angular average effective mass 1/(<1/m>)=   0.2432532741
 Angular average effective mass for Frohlich model (<m**0.5>)**2=   0.2474755350
 Effective masses along directions: (cart. coord. / red. coord. -> eff. mass)
    1:   1.000000  0.000000  0.000000 /   0.975623 -0.219454  0.000000 ->   0.2227524767
    2:   0.000000  1.000000  0.000000 /   0.000000  1.000000  0.000000 ->   0.2311790519
    3:   0.000000  0.000000  1.000000 /  -0.471521 -0.471521  0.745209 ->   0.2842616760
    4:   0.577350  0.577350  0.577350 /   0.140043 -0.051810  0.988789 ->   0.2096818566
    5:   0.000000  0.707107  0.707107 /  -0.531883  0.102375  0.840607 ->   0.2141764902
    6:   0.707107  0.000000  0.707107 /   0.109559 -0.624193  0.773550 ->   0.2174855362
    7:   0.707107  0.707107  0.000000 /   0.800217  0.599711  0.000000 ->   0.2467275485

 END OF EFFECTIVE MASSES SECTION

 ---- first-order wavefunction calculations are completed ----

 Total localisation tensor (bohr^2) in cartesian coordinates
  WARNING : still subject to testing - especially symmetries.
      direction              matrix element
   alpha     beta       real part   imaginary part
     1        1       2.1699855800    0.0000000000
     1        2      -0.4526975313    0.0000000000
     1        3      -1.3080760568    0.0000000000
     2        1      -0.4526975313    0.0000000000
     2        2       1.9609718106    0.0000000000
     2        3      -1.6444537094    0.0000000000
     3        1      -1.3080760568    0.0000000000
     3        2      -1.6444537094    0.0000000000
     3        3       8.4296144383    0.0000000000

 respfn : d/dk was computed, but no 2DTE, so no DDB output.

== END DATASET(S) ==============================================================

 -outvars: echo values of variables after computation  --------
            acell      1.0000000000E+00  1.0000000000E+00  1.0000000000E+00 Bohr
              amu      2.69815390E+01  2.00590000E+02  3.20660000E+01
             ecut      3.30000000E+01 Hartree
           etotal     -4.1811014407E+01
            fcart      0.0000000000E+00  0.0000000000E+00  0.0000000000E+00
                       0.0000000000E+00  0.0000000000E+00  0.0000000000E+00
                       0.0000000000E+00  0.0000000000E+00  0.0000000000E+00
                       0.0000000000E+00  0.0000000000E+00  0.0000000000E+00
                       0.0000000000E+00  0.0000000000E+00  0.0000000000E+00
                       0.0000000000E+00  0.0000000000E+00  0.0000000000E+00
                       0.0000000000E+00  0.0000000000E+00  0.0000000000E+00
-          fftalg         512
           irdden           1
           irdwfk           1
           istwfk        1
              ixc     -116133
           kptopt           0
P           mkmem           1
P          mkqmem           1
P          mk1mem           1
            natom           7
            nband          34
           nbdbuf           4
            ngfft          64      64      64
             nkpt           1
            nstep        2000
             nsym           4
           ntypat           3
              occ      2.000000  2.000000  2.000000  2.000000  2.000000  2.000000
                       2.000000  2.000000  2.000000  2.000000  2.000000  2.000000
                       2.000000  2.000000  2.000000  2.000000  2.000000  2.000000
                       2.000000  2.000000  2.000000  2.000000  2.000000  2.000000
                       2.000000  0.000000  0.000000  0.000000  0.000000  0.000000
                       0.000000  0.000000  0.000000  0.000000
        optdriver           1
            prtwf          -1
            rfdir           1       1       1
           rfelfd           2
            rprim      9.3956281316E+00  0.0000000000E+00 -7.6771749435E+00
                      -2.1134302075E+00  9.1548479368E+00 -7.6771749435E+00
                       0.0000000000E+00  0.0000000000E+00  1.2133294816E+01
          spgroup          82
           strten      0.0000000000E+00  0.0000000000E+00  0.0000000000E+00
                       0.0000000000E+00  0.0000000000E+00  0.0000000000E+00
           symrel      1  0  0   0  1  0   0  0  1       0  1  0   1  0  0  -1 -1 -1
                       0  0  1  -1 -1 -1   0  1  0      -1 -1 -1   0  0  1   1  0  0
           tolwfr      1.00000000E-20
            typat      1  1  2  3  3  3  3
           useylm           1
           xangst      4.0420374359E-01  3.6334026572E+00 -8.5225446549E-01
                       1.9267865849E+00  2.4222684381E+00 -4.0625860065E+00
                       0.0000000000E+00  0.0000000000E+00  0.0000000000E+00
                       3.8487921347E+00  1.9827236073E+00 -5.1768995727E+00
                       1.0633845599E+00  4.1926414606E+00  1.2403490136E+00
                       5.1935807292E-01  6.4838797098E-01  2.3967136965E+00
                       2.2756115722E+00  2.8653207136E+00 -1.8691809993E+00
            xcart      7.6383437728E-01  6.8661359526E+00 -1.6105275353E+00
                       3.6410989621E+00  4.5774239684E+00 -7.6771749435E+00
                       0.0000000000E+00  0.0000000000E+00  0.0000000000E+00
                       7.2731630771E+00  3.7468046151E+00 -9.7829224099E+00
                       2.0095055922E+00  7.9229441339E+00  2.3439199449E+00
                       9.8144452273E-01  1.2252756930E+00  4.5291325053E+00
                       4.3002826562E+00  5.4146714316E+00 -3.5322401814E+00
             xred      2.5000000000E-01  7.5000000000E-01  5.0000000000E-01
                       5.0000000000E-01  5.0000000000E-01 -5.5511151231E-17
                       0.0000000000E+00  0.0000000000E+00  0.0000000000E+00
                       8.6616100000E-01  4.0927000000E-01  7.2400000000E-04
                       4.0854600000E-01  8.6543700000E-01  9.9927600000E-01
                       1.3456300000E-01  1.3383900000E-01  5.4310900000E-01
                       5.9073000000E-01  5.9145400000E-01  4.5689100000E-01
            znucl       13.00000   80.00000   16.00000

- Timing analysis has been suppressed with timopt=0

 Suggested references for the acknowledgment of ABINIT usage.

 Calculation completed.
.Delivered   6 WARNINGs and   5 COMMENTs to log file.