.Version 9.5.1 of ABINIT

 ABINIT is a project of the Universite Catholique de Louvain,
 Corning Inc. and other collaborators, see ~abinit/doc/developers/contributors.txt .
 acknowledgments of the ABINIT effort.

.Starting date : Tue 27 Apr 2021.
- ( at 18h39 )

- input  file    -> /scratch/users/j/a/jabreu/flow_simple_4atoms/flow/w225/t1/run.abi
- output file    -> /scratch/users/j/a/jabreu/flow_simple_4atoms/flow/w225/t1/run.abo
- root for input  files -> /scratch/users/j/a/jabreu/flow_simple_4atoms/flow/w225/t1/indata/in
- root for output files -> /scratch/users/j/a/jabreu/flow_simple_4atoms/flow/w225/t1/outdata/out

 Symmetries : space group C2/m (# 12); Bravais mC (1-face-center monocl.)
     intxc =       0      iscf =       7    lmnmax =      18     lnmax =       6
     mgfft =      72  mpssoang =       3    mqgrid =    3052     natom =       4
  nloc_mem =       1    nspden =       1   nspinor =       1    nsppol =       1
      nsym =       4    n1xccc =    2501    ntypat =       3    occopt =       1
   xclevel =       2
-    mband =          29        mffmem =           1         mkmem =           2
-   mkqmem =           2        mk1mem =           2           mpw =        4896
      nfft =      145800          nkpt =           2
  Rough estimation (10% accuracy) of disk space for files :

------------- Echo of variables that govern the present computation ------------
-
- outvars: echo of selected default values
-   iomode0 =  0 , fftalg0 =512 , wfoptalg0 =  0
-
- outvars: echo of global parameters not present in the input file
-  max_nthreads =    0
-
 -outvars: echo values of preprocessed input variables --------
            acell      1.0000000000E+00  1.0000000000E+00  1.0000000000E+00 Bohr
              amu      2.29897680E+01  1.07868200E+02  1.59994000E+01
             ecut      4.40000000E+01 Hartree
-          fftalg         512
           irdden           1
           irdwfk           1
           istwfk        1    0
              ixc     -116133
              kpt      0.00000000E+00  0.00000000E+00  5.00000000E-01
                       1.42091490E-01 -1.42091490E-01  5.00000000E-01
           kptopt           0
P           mkmem           2
P          mkqmem           2
P          mk1mem           2
            natom           4
            nband          29
           nbdbuf           4
            ngfft          45      45      72
             nkpt           2
            nstep         100
             nsym           4
           ntypat           3
              occ      2.000000  2.000000  2.000000  2.000000  2.000000  2.000000
                       2.000000  2.000000  2.000000  2.000000  2.000000  2.000000
                       2.000000  2.000000  2.000000  2.000000  2.000000  2.000000
                       2.000000  2.000000  0.000000  0.000000  0.000000  0.000000
                       0.000000  0.000000  0.000000  0.000000  0.000000
        optdriver           1
            prtwf          -1
            rfdir           1       1       1
           rfelfd           2
            rprim      6.0056221724E+00  0.0000000000E+00  3.0212990326E+00
                       3.3693227168E+00  4.9714346126E+00  3.0212990326E+00
                       0.0000000000E+00  0.0000000000E+00  1.1761344861E+01
          spgroup          12
           symrel      1  0  0   0  1  0   0  0  1      -1  0  0   0 -1  0   0  0 -1
                       0 -1  0  -1  0  0   0  0 -1       0  1  0   1  0  0   0  0  1
           tolwfr      1.00000000E-20
            typat      1  2  3  3
           useylm           1
              wtk        0.50000    0.50000
           xangst      0.0000000000E+00  0.0000000000E+00  0.0000000000E+00
                       0.0000000000E+00  0.0000000000E+00  3.1119178214E+00
                       2.8638802954E+00  1.5186855811E+00  3.4427379606E+00
                       2.0971268717E+00  1.1120843099E+00  5.9787028590E+00
            xcart      0.0000000000E+00  0.0000000000E+00  0.0000000000E+00
                       0.0000000000E+00  0.0000000000E+00  5.8806724305E+00
                       5.4119494357E+00  2.8698998303E+00  6.5058318928E+00
                       3.9629954535E+00  2.1015347823E+00  1.1298111033E+01
             xred      0.0000000000E+00  0.0000000000E+00  0.0000000000E+00
                       0.0000000000E+00  0.0000000000E+00  5.0000000000E-01
                       5.7727800000E-01  5.7727800000E-01  2.5656700000E-01
                       4.2272200000E-01  4.2272200000E-01  7.4343300000E-01
            znucl       11.00000   47.00000    8.00000

 chkinp: Checking input parameters for consistency.

== DATASET  1 ==================================================================
-   mpi_nproc: 1, omp_nthreads: -1 (-1 if OMP is not activated)

--- !DatasetInfo
iteration_state: {dtset: 1, }
dimensions: {natom: 4, nkpt: 2, mband: 29, nsppol: 1, nspinor: 1, nspden: 1, mpw: 4896, }
cutoff_energies: {ecut:  44.0, pawecutdg:  -1.0, }
electrons: {nelect:   4.00000000E+01, charge:   0.00000000E+00, occopt:   1.00000000E+00, tsmear:   1.00000000E-02, }
meta: {optdriver: 1, rfelfd: 2, }
...

 Real(R)+Recip(G) space primitive vectors, cartesian coordinates (Bohr,Bohr^-1):
 R(1)=  6.0056222  0.0000000  3.0212990  G(1)=  0.1665106 -0.1128503  0.0000000
 R(2)=  3.3693227  4.9714346  3.0212990  G(2)=  0.0000000  0.2011492  0.0000000
 R(3)=  0.0000000  0.0000000 11.7613449  G(3)= -0.0427739 -0.0226825  0.0850243
 Unit cell volume ucvol=  3.5115327E+02 bohr^3
 Angles (23,13,12)=  6.32940174E+01  6.32940174E+01  4.94819282E+01 degrees

 getcut: wavevector=  0.0000  0.0000  0.0000  ngfft=  45  45  72
         ecut(hartree)=     44.000   => boxcut(ratio)=   2.05038

--- Pseudopotential description ------------------------------------------------
- pspini: atom type   1  psp file is /scratch/users/j/a/jabreu/pseudos/PBEsol/Na.psp8
- pspatm: opening atomic psp file    /scratch/users/j/a/jabreu/pseudos/PBEsol/Na.psp8
- Na    ONCVPSP-3.3.0  r_core=   1.20708   1.55069
- 11.00000   9.00000    180112                znucl, zion, pspdat
    8 -116133    1    4       400   0.00000   pspcod,pspxc,lmax,lloc,mmax,r2well
    3.99000000000000    0.00000000000000    0.00000000000000   rchrg,fchrg,qchrg
     nproj     2     2
     extension_switch     1
  pspatm : epsatm=    9.32878306
         --- l  ekb(1:nproj) -->
             0    2.657905   -0.678300
             1   -6.761319   -2.404728
 pspatm: atomic psp has been read  and splines computed

- pspini: atom type   2  psp file is /scratch/users/j/a/jabreu/pseudos/PBEsol/Ag.psp8
- pspatm: opening atomic psp file    /scratch/users/j/a/jabreu/pseudos/PBEsol/Ag.psp8
- Ag    ONCVPSP-3.3.0  r_core=   1.41384   1.46535   1.61207
- 47.00000  19.00000    180112                znucl, zion, pspdat
    8 -116133    2    4       600   0.00000   pspcod,pspxc,lmax,lloc,mmax,r2well
    5.99000000000000    7.00000000000000    0.00000000000000   rchrg,fchrg,qchrg
     nproj     2     2     2
     extension_switch     1
  pspatm : epsatm=   27.64581383
         --- l  ekb(1:nproj) -->
             0    9.559407   -0.398585
             1    3.418858   -0.136622
             2   -1.644397   -0.401551
 pspatm: atomic psp has been read  and splines computed

- pspini: atom type   3  psp file is /scratch/users/j/a/jabreu/pseudos/PBEsol/O.psp8
- pspatm: opening atomic psp file    /scratch/users/j/a/jabreu/pseudos/PBEsol/O.psp8
- O     ONCVPSP-3.3.0  r_core=   1.35509   1.45563   1.26150
-  8.00000   6.00000    180112                znucl, zion, pspdat
    8 -116133    2    4       600   0.00000   pspcod,pspxc,lmax,lloc,mmax,r2well
    5.99000000000000    4.00000000000000    0.00000000000000   rchrg,fchrg,qchrg
     nproj     2     2     1
     extension_switch     1
  pspatm : epsatm=    6.22910522
         --- l  ekb(1:nproj) -->
             0    6.050032    0.820363
             1   -4.739617   -1.153841
             2   -1.335834
 pspatm: atomic psp has been read  and splines computed

   1.97731229E+03                                ecore*ucvol(ha*bohr**3)

-inwffil : will read wavefunctions from disk file /scratch/users/j/a/jabreu/flow_simple_4atoms/flow/w225/t1/indata/in_WFK

 ==>  initialize data related to q vector <==

 The list of irreducible perturbations for this q vector is:
    1)    idir= 1    ipert=   5
    2)    idir= 2    ipert=   5
    3)    idir= 3    ipert=   5

 Perturbation wavevector (in red.coord.)   0.000000  0.000000  0.000000
 Perturbation : derivative vs k along direction   1

 dfpt_looppert : COMMENT -
  In a d/dk calculation, iscf is set to -3 automatically.
 The set of symmetries contains only one element for this perturbation.
 symkpt : not enough symmetry to change the number of k points.

[...]

 Initialisation of the first-order wave-functions :
  ireadwf=   0

--- !BeginCycle
iteration_state: {dtset: 1, }
solver: {iscf: 7, nstep: 100, nline: 4, wfoptalg: 0, }
tolerances: {tolwfr: 1.00E-20, }
...

     iter   2DEtotal(Ha)        deltaE(Ha) residm    vres2
-ETOT  1  -69.828975580368     -6.983E+01 3.613E-02 0.000E+00
 ETOT  2  -69.855791011728     -2.682E-02 3.810E-05 0.000E+00
 ETOT  3  -69.855798821807     -7.810E-06 7.521E-08 0.000E+00
 ETOT  4  -69.855798829142     -7.335E-09 5.065E-10 0.000E+00
 ETOT  5  -69.855798829155     -1.369E-11 2.473E-12 0.000E+00
 ETOT  6  -69.855798829155     -8.527E-14 2.065E-14 0.000E+00
 ETOT  7  -69.855798829155      0.000E+00 1.283E-16 0.000E+00
 ETOT  8  -69.855798829155     -1.421E-14 1.132E-18 0.000E+00
 ETOT  9  -69.855798829155      0.000E+00 9.953E-21 0.000E+00

 At SCF step    9   max residual=  9.95E-21 < tolwfr=  1.00E-20 =>converged.

 ----iterations are completed or convergence reached----

 dfpt_looppert: DFPT cycle converged with prtwf=-1. Will skip output of the 1st-order WFK file.
 dfpt_looppert : ek2=    1.2778687814E+02
          f-sum rule ratio=    1.0363594390E+00
 prteigrs : about to open file /scratch/users/j/a/jabreu/flow_simple_4atoms/flow/w225/t1/tmpdata/tmp_1WF1_EIG
 Expectation of eigenvalue derivatives (hartree) for nkpt=   2  k points:
  (in case of degenerate eigenvalues, averaged derivative)
 kpt#   1, nband= 29, wtk=  0.50000, kpt=  0.0000  0.0000  0.5000 (reduced coord)
   0.00000   -0.00000    0.00000   -0.00000   -0.00000   -0.00000    0.00000   -0.00000
  -0.00000   -0.00000   -0.00000   -0.00000   -0.00000    0.00000    0.00000   -0.00000
   0.00000    0.00000   -0.00000    0.00000    0.00000   -0.00000   -0.00000    0.00000
   0.00000    0.00000    0.00000   -0.00000   -0.00018
 prteigrs : prtvol=0 or 1, do not print more k-points.

 Eight components of 2nd-order total energy (hartree) are
 1,2,3: 0th-order hamiltonian combined with 1st-order wavefunctions
     kin0=   8.64950109E+01 eigvalue=   3.09624095E+00  local=  -3.57653256E+01
 4,5,6: 1st-order hamiltonian combined with 1st and 0th-order wfs
     kin1=  -1.32433137E+02  Hartree=   0.00000000E+00     xc=   0.00000000E+00
 7,8,9: eventually, occupation + non-local contributions
    edocc=   1.73372962E+01     enl0=  -1.30742359E+00   enl1=  -7.27846032E+00
 1-9 gives the relaxation energy (to be shifted if some occ is /=2.0)
   erelax=  -6.98557988E+01
  No Ewald or frozen-wf contrib.: the relaxation energy is the total one
 2DEtotal=   -0.6985579883E+02 Ha. Also 2DEtotal=   -0.190087295679E+04 eV
    (  non-var. 2DEtotal :   -6.9855798829E+01 Ha)

 Perturbation wavevector (in red.coord.)   0.000000  0.000000  0.000000
 Perturbation : derivative vs k along direction   2
 The set of symmetries contains only one element for this perturbation.
 symkpt : not enough symmetry to change the number of k points.

[...]

 Perturbation wavevector (in red.coord.)   0.000000  0.000000  0.000000
 Perturbation : derivative vs k along direction   3
 The set of symmetries contains only one element for this perturbation.
 symkpt : not enough symmetry to change the number of k points.

-inwffil : will read wavefunctions from disk file /scratch/users/j/a/jabreu/flow_simple_4atoms/flow/w225/t1/indata/in_WFK

 Initialisation of the first-order wave-functions :
  ireadwf=   0

--- !BeginCycle
iteration_state: {dtset: 1, }
solver: {iscf: 7, nstep: 100, nline: 4, wfoptalg: 0, }
tolerances: {tolwfr: 1.00E-20, }
...

     iter   2DEtotal(Ha)        deltaE(Ha) residm    vres2
-ETOT  1  -16.268979085710     -1.627E+01 1.092E-02 0.000E+00
 ETOT  2  -16.274895741078     -5.917E-03 6.306E-05 0.000E+00
 ETOT  3  -16.274897404608     -1.664E-06 5.148E-08 0.000E+00
 ETOT  4  -16.274897406206     -1.598E-09 4.451E-10 0.000E+00
 ETOT  5  -16.274897406209     -2.942E-12 4.312E-13 0.000E+00
 ETOT  6  -16.274897406209      0.000E+00 4.379E-15 0.000E+00
 ETOT  7  -16.274897406209      3.553E-15 4.573E-18 0.000E+00
 ETOT  8  -16.274897406209     -3.553E-15 4.621E-20 0.000E+00
 ETOT  9  -16.274897406209      0.000E+00 9.767E-21 0.000E+00

 At SCF step    9   max residual=  9.77E-21 < tolwfr=  1.00E-20 =>converged.

 ----iterations are completed or convergence reached----

 dfpt_looppert: DFPT cycle converged with prtwf=-1. Will skip output of the 1st-order WFK file.
 dfpt_looppert : ek2=    3.0234887549E+01
          f-sum rule ratio=    1.0101462028E+00
 prteigrs : about to open file /scratch/users/j/a/jabreu/flow_simple_4atoms/flow/w225/t1/tmpdata/tmp_1WF1_EIG
 Expectation of eigenvalue derivatives (hartree) for nkpt=   2  k points:
  (in case of degenerate eigenvalues, averaged derivative)
 kpt#   1, nband= 29, wtk=  0.50000, kpt=  0.0000  0.0000  0.5000 (reduced coord)
  -0.00000    0.00000   -0.00000    0.00000    0.00000   -0.00000   -0.00000    0.00000
  -0.00000   -0.00000    0.00000   -0.00000   -0.00000    0.00000    0.00000   -0.00000
   0.00000   -0.00000   -0.00000   -0.00000   -0.00000    0.00000    0.00000    0.00000
   0.00000    0.00000    0.00000   -0.00000    0.00039
 prteigrs : prtvol=0 or 1, do not print more k-points.

 Eight components of 2nd-order total energy (hartree) are
 1,2,3: 0th-order hamiltonian combined with 1st-order wavefunctions
     kin0=   2.00485534E+01 eigvalue=   7.63653563E-01  local=  -8.25436225E+00
 4,5,6: 1st-order hamiltonian combined with 1st and 0th-order wfs
     kin1=  -3.05416568E+01  Hartree=   0.00000000E+00     xc=   0.00000000E+00
 7,8,9: eventually, occupation + non-local contributions
    edocc=   3.96374740E+00     enl0=  -2.46694711E-01   enl1=  -2.00813796E+00
 1-9 gives the relaxation energy (to be shifted if some occ is /=2.0)
   erelax=  -1.62748974E+01
  No Ewald or frozen-wf contrib.: the relaxation energy is the total one
 2DEtotal=   -0.1627489741E+02 Ha. Also 2DEtotal=   -0.442862480602E+03 eV
    (  non-var. 2DEtotal :   -1.6274897406E+01 Ha)

 CALCULATION OF EFFECTIVE MASSES
 NOTE : Additional infos (eff. mass eigenvalues, eigenvectors and, if degenerate, average mass) are available in stdout.

 K-point ( 0.000, 0.000, 0.500) | band =    20
 Effective mass tensor:
             -4.1594478969             -1.1689539744              3.0853355567
             -1.1689539744             -2.5747829840              1.6360364842
              3.0853355567              1.6360364842             -5.4429478130
 Effective mass tensor eigenvalues:
             -8.6191139628             -1.9549383571             -1.6031263740
 Angular average effective mass 1/(<1/m>)=  -2.3974540410
 Angular average effective mass for Frohlich model (<m**0.5>)**2=  -2.6942760247
 Effective masses along directions: (cart. coord. / red. coord. -> eff. mass)
    1:   1.000000  0.000000  0.000000 /   0.872124  0.489286  0.000000 ->  -2.3825108476
    2:   0.000000  1.000000  0.000000 /   0.000000  1.000000  0.000000 ->  -2.0588164093
    3:   0.000000  0.000000  1.000000 /   0.241445  0.241445  0.939898 ->  -2.8911243342
    4:   0.577350  0.577350  0.577350 /   0.483262  0.608275  0.629651 ->  -1.6327709317
    5:   0.000000  0.707107  0.707107 /   0.207827  0.549798  0.809030 ->  -1.8719383176
    6:   0.707107  0.000000  0.707107 /   0.559122  0.395832  0.728491 ->  -1.6499028158
    7:   0.707107  0.707107  0.000000 /   0.584322  0.811522  0.000000 ->  -2.4749691020

 K-point ( 0.142,-0.142, 0.500) | band =    21
 Effective mass tensor:
              1.9397251553              0.8161504892              0.7000990516
              0.8161504892              0.8334408041              0.3712420090
              0.7000990516              0.3712420090              0.8921340762
 Effective mass tensor eigenvalues:
              0.4006479471              0.5479628856              2.7166892029
 Angular average effective mass 1/(<1/m>)=   0.6397962068
 Angular average effective mass for Frohlich model (<m**0.5>)**2=   0.7366164154
 Effective masses along directions: (cart. coord. / red. coord. -> eff. mass)
    1:   1.000000  0.000000  0.000000 /   0.872124  0.489286  0.000000 ->   0.9846499989
    2:   0.000000  1.000000  0.000000 /   0.000000  1.000000  0.000000 ->   0.4808477532
    3:   0.000000  0.000000  1.000000 /   0.241445  0.241445  0.939898 ->   0.6274535517
    4:   0.577350  0.577350  0.577350 /   0.483262  0.608275  0.629651 ->   1.7861311675
    5:   0.000000  0.707107  0.707107 /   0.207827  0.549798  0.809030 ->   0.6299822454
    6:   0.707107  0.000000  0.707107 /   0.559122  0.395832  0.728491 ->   1.1985245228
    7:   0.707107  0.707107  0.000000 /   0.584322  0.811522  0.000000 ->   1.3113121329

 END OF EFFECTIVE MASSES SECTION

 ---- first-order wavefunction calculations are completed ----

 Total localisation tensor (bohr^2) in cartesian coordinates
  WARNING : still subject to testing - especially symmetries.
      direction              matrix element
   alpha     beta       real part   imaginary part
     1        1       1.4650703077    0.0000000000
     1        2       0.5175144157    0.0000000000
     1        3       0.8751063325    0.0000000000
     2        1       0.5175144157    0.0000000000
     2        2       0.7635923581    0.0000000000
     2        3       0.4640593777    0.0000000000
     3        1       0.8751063325    0.0000000000
     3        2       0.4640593777    0.0000000000
     3        3       1.5768026959    0.0000000000

 respfn : d/dk was computed, but no 2DTE, so no DDB output.

== END DATASET(S) ==============================================================

 -outvars: echo values of variables after computation  --------
            acell      1.0000000000E+00  1.0000000000E+00  1.0000000000E+00 Bohr
              amu      2.29897680E+01  1.07868200E+02  1.59994000E+01
             ecut      4.40000000E+01 Hartree
           etotal     -1.6274897406E+01
            fcart      0.0000000000E+00  0.0000000000E+00  0.0000000000E+00
                       0.0000000000E+00  0.0000000000E+00  0.0000000000E+00
                       0.0000000000E+00  0.0000000000E+00  0.0000000000E+00
                       0.0000000000E+00  0.0000000000E+00  0.0000000000E+00
-          fftalg         512
           irdden           1
           irdwfk           1
           istwfk        1    0
              ixc     -116133
              kpt      0.00000000E+00  0.00000000E+00  5.00000000E-01
                       1.42091490E-01 -1.42091490E-01  5.00000000E-01
           kptopt           0
P           mkmem           2
P          mkqmem           2
P          mk1mem           2
            natom           4
            nband          29
           nbdbuf           4
            ngfft          45      45      72
             nkpt           2
            nstep         100
             nsym           4
           ntypat           3
              occ      2.000000  2.000000  2.000000  2.000000  2.000000  2.000000
                       2.000000  2.000000  2.000000  2.000000  2.000000  2.000000
                       2.000000  2.000000  2.000000  2.000000  2.000000  2.000000
                       2.000000  2.000000  0.000000  0.000000  0.000000  0.000000
                       0.000000  0.000000  0.000000  0.000000  0.000000
        optdriver           1
            prtwf          -1
            rfdir           1       1       1
           rfelfd           2
            rprim      6.0056221724E+00  0.0000000000E+00  3.0212990326E+00
                       3.3693227168E+00  4.9714346126E+00  3.0212990326E+00
                       0.0000000000E+00  0.0000000000E+00  1.1761344861E+01
          spgroup          12
           strten      0.0000000000E+00  0.0000000000E+00  0.0000000000E+00
                       0.0000000000E+00  0.0000000000E+00  0.0000000000E+00
           symrel      1  0  0   0  1  0   0  0  1      -1  0  0   0 -1  0   0  0 -1
                       0 -1  0  -1  0  0   0  0 -1       0  1  0   1  0  0   0  0  1
           tolwfr      1.00000000E-20
            typat      1  2  3  3
           useylm           1
              wtk        0.50000    0.50000
           xangst      0.0000000000E+00  0.0000000000E+00  0.0000000000E+00
                       0.0000000000E+00  0.0000000000E+00  3.1119178214E+00
                       2.8638802954E+00  1.5186855811E+00  3.4427379606E+00
                       2.0971268717E+00  1.1120843099E+00  5.9787028590E+00
            xcart      0.0000000000E+00  0.0000000000E+00  0.0000000000E+00
                       0.0000000000E+00  0.0000000000E+00  5.8806724305E+00
                       5.4119494357E+00  2.8698998303E+00  6.5058318928E+00
                       3.9629954535E+00  2.1015347823E+00  1.1298111033E+01
             xred      0.0000000000E+00  0.0000000000E+00  0.0000000000E+00
                       0.0000000000E+00  0.0000000000E+00  5.0000000000E-01
                       5.7727800000E-01  5.7727800000E-01  2.5656700000E-01
                       4.2272200000E-01  4.2272200000E-01  7.4343300000E-01
            znucl       11.00000   47.00000    8.00000

- Timing analysis has been suppressed with timopt=0

 Suggested references for the acknowledgment of ABINIT usage.

 Calculation completed.
.Delivered  14 WARNINGs and   9 COMMENTs to log file.