.Version 9.7.2 of ABINIT

 ABINIT is a project of the Universite Catholique de Louvain,
 Corning Inc. and other collaborators, see ~abinit/doc/developers/contributors.txt .
 acknowledgments of the ABINIT effort.

.Starting date : Wed  1 Dec 2021.
- ( at 22h07 )

- input  file    -> /scratch/users/j/a/jabreu/flow_simple_remain_atoms/flow/w283/t1/run.abi
- output file    -> /scratch/users/j/a/jabreu/flow_simple_remain_atoms/flow/w283/t1/run.abo
- root for input  files -> /scratch/users/j/a/jabreu/flow_simple_remain_atoms/flow/w283/t1/indata/in
- root for output files -> /scratch/users/j/a/jabreu/flow_simple_remain_atoms/flow/w283/t1/outdata/out

 Symmetries : space group Im m m (# 71); Bravais oI (body-center ortho.)
     intxc =       0      iscf =       7    lmnmax =      18     lnmax =       6
     mgfft =      60  mpssoang =       3    mqgrid =    3001     natom =       5
  nloc_mem =       1    nspden =       1   nspinor =       1    nsppol =       1
      nsym =       8    n1xccc =    2501    ntypat =       3    occopt =       1
   xclevel =       2
-    mband =          27        mffmem =           1         mkmem =           2
-   mkqmem =           2        mk1mem =           2           mpw =        4806
      nfft =      216000          nkpt =           2
  Rough estimation (10% accuracy) of disk space for files :

------------- Echo of variables that govern the present computation ------------
-
- outvars: echo of selected default values
-   iomode0 =  0 , fftalg0 =512 , wfoptalg0 =  0
-
- outvars: echo of global parameters not present in the input file
-  max_nthreads =    0
-
 -outvars: echo values of preprocessed input variables --------
            acell      1.0000000000E+00  1.0000000000E+00  1.0000000000E+00 Bohr
              amu      6.94100000E+00  1.06420000E+02  1.59994000E+01
             ecut      4.40000000E+01 Hartree
-          fftalg         512
           irdden           1
           irdwfk           1
              ixc     -116133
              kpt      6.28183496E-01  3.71816504E-01 -3.71816504E-01
                       3.53923535E-01  6.46076465E-01 -3.53923535E-01
           kptopt           0
P           mkmem           2
P          mkqmem           2
P          mk1mem           2
            natom           5
            nband          27
           nbdbuf           4
            ngfft          60      60      60
             nkpt           2
            nstep        2000
             nsym           8
           ntypat           3
              occ      2.000000  2.000000  2.000000  2.000000  2.000000  2.000000
                       2.000000  2.000000  2.000000  2.000000  2.000000  2.000000
                       2.000000  2.000000  2.000000  2.000000  2.000000  2.000000
                       0.000000  0.000000  0.000000  0.000000  0.000000  0.000000
                       0.000000  0.000000  0.000000
        optdriver           1
            prtwf          -1
            rfdir           1       1       1
           rfelfd           2
            rprim      6.6192167698E+00  0.0000000000E+00 -7.1042145699E+00
                      -6.4608250130E-01  5.3629167773E+00 -8.0688038978E+00
                       0.0000000000E+00  0.0000000000E+00  9.7099894594E+00
          spgroup          71
           symrel      1  0  0   0  1  0   0  0  1      -1  0  0   0 -1  0   0  0 -1
                       0  0  1  -1 -1 -1   1  0  0       0  0 -1   1  1  1  -1  0  0
                      -1 -1 -1   0  0  1   0  1  0       1  1  1   0  0 -1   0 -1  0
                       0  1  0   1  0  0  -1 -1 -1       0 -1  0  -1  0  0   1  1  1
           tolwfr      1.00000000E-20
            typat      1  1  2  3  3
           useylm           1
              wtk        0.50000    0.50000
           xangst      2.2022186648E+00  1.9772392339E+00 -5.5940990056E+00
                       9.5862785390E-01  8.6069409622E-01 -2.4351165530E+00
                       0.0000000000E+00  0.0000000000E+00  0.0000000000E+00
                       3.0563372743E-01  1.8468589008E+00 -7.7637400793E-01
                       2.8552127913E+00  9.9107442928E-01 -2.1145364331E+00
            xcart      4.1615901613E+00  3.7364406512E+00 -1.0571315081E+01
                       1.8115441072E+00  1.6264761261E+00 -4.6017033869E+00
                       0.0000000000E+00  0.0000000000E+00  0.0000000000E+00
                       5.7756404182E-01  3.4900575287E+00 -1.4671342517E+00
                       5.3955702267E+00  1.8728592486E+00 -3.9958947566E+00
             xred      6.9671800000E-01  6.9671800000E-01 -1.6653345369E-16
                       3.0328200000E-01  3.0328200000E-01 -2.7755575616E-17
                       0.0000000000E+00  0.0000000000E+00  0.0000000000E+00
                       1.5077600000E-01  6.5077600000E-01  5.0000000000E-01
                       8.4922400000E-01  3.4922400000E-01  5.0000000000E-01
            znucl        3.00000   46.00000    8.00000

 chkinp: Checking input parameters for consistency.

== DATASET  1 ==================================================================
-   mpi_nproc: 1, omp_nthreads: -1 (-1 if OMP is not activated)

--- !DatasetInfo
iteration_state: {dtset: 1, }
dimensions: {natom: 5, nkpt: 2, mband: 27, nsppol: 1, nspinor: 1, nspden: 1, mpw: 4806, }
cutoff_energies: {ecut:  44.0, pawecutdg:  -1.0, }
electrons: {nelect:   3.60000000E+01, charge:   0.00000000E+00, occopt:   1.00000000E+00, tsmear:   1.00000000E-02, }
meta: {optdriver: 1, rfelfd: 2, }
...

 Real(R)+Recip(G) space primitive vectors, cartesian coordinates (Bohr,Bohr^-1):
 R(1)=  6.6192168  0.0000000 -7.1042146  G(1)=  0.1510753  0.0182004  0.0000000
 R(2)= -0.6460825  5.3629168 -8.0688039  G(2)=  0.0000000  0.1864657  0.0000000
 R(3)=  0.0000000  0.0000000  9.7099895  G(3)=  0.1105327  0.1682653  0.1029867
 Unit cell volume ucvol=  3.4468820E+02 bohr^3
 Angles (23,13,12)=  1.46199506E+02  1.37024039E+02  5.57628550E+01 degrees

 getcut: wavevector=  0.0000  0.0000  0.0000  ngfft=  60  60  60
         ecut(hartree)=     44.000   => boxcut(ratio)=   2.06941

--- Pseudopotential description ------------------------------------------------
- pspini: atom type   1  psp file is /scratch/users/j/a/jabreu/pseudos/PBEsol/Li.psp8
- pspatm: opening atomic psp file    /scratch/users/j/a/jabreu/pseudos/PBEsol/Li.psp8
- Li    ONCVPSP-3.3.0  r_core=   1.40824   1.10935
-  3.00000   3.00000    180112                znucl, zion, pspdat
    8 -116133    1    4       400   0.00000   pspcod,pspxc,lmax,lloc,mmax,r2well
    3.99000000000000    0.00000000000000    0.00000000000000   rchrg,fchrg,qchrg
     nproj     2     2
     extension_switch     1
  pspatm : epsatm=    2.60859637
         --- l  ekb(1:nproj) -->
             0   -4.855856   -1.482423
             1   -2.171544   -0.427615
 pspatm: atomic psp has been read  and splines computed

- pspini: atom type   2  psp file is /scratch/users/j/a/jabreu/pseudos/PBEsol/Pd.psp8
- pspatm: opening atomic psp file    /scratch/users/j/a/jabreu/pseudos/PBEsol/Pd.psp8
- Pd    ONCVPSP-3.3.0  r_core=   1.41052   1.46191   1.55175
- 46.00000  18.00000    180112                znucl, zion, pspdat
    8 -116133    2    4       600   0.00000   pspcod,pspxc,lmax,lloc,mmax,r2well
    5.99000000000000    7.00000000000000    0.00000000000000   rchrg,fchrg,qchrg
     nproj     2     2     2
     extension_switch     1
  pspatm : epsatm=   26.17262427
         --- l  ekb(1:nproj) -->
             0    7.952303   -2.096627
             1    3.304793   -0.572651
             2   -1.185452   -0.410427
 pspatm: atomic psp has been read  and splines computed

- pspini: atom type   3  psp file is /scratch/users/j/a/jabreu/pseudos/PBEsol/O.psp8
- pspatm: opening atomic psp file    /scratch/users/j/a/jabreu/pseudos/PBEsol/O.psp8
- O     ONCVPSP-3.3.0  r_core=   1.35509   1.45563   1.26150
-  8.00000   6.00000    180112                znucl, zion, pspdat
    8 -116133    2    4       600   0.00000   pspcod,pspxc,lmax,lloc,mmax,r2well
    5.99000000000000    4.00000000000000    0.00000000000000   rchrg,fchrg,qchrg
     nproj     2     2     1
     extension_switch     1
  pspatm : epsatm=    6.22910522
         --- l  ekb(1:nproj) -->
             0    6.050032    0.820363
             1   -4.739617   -1.153841
             2   -1.335834
 pspatm: atomic psp has been read  and splines computed

   1.57852899E+03                                ecore*ucvol(ha*bohr**3)

 ==>  initialize data related to q vector <==

 The list of irreducible perturbations for this q vector is:
    1)    idir= 1    ipert=   6
    2)    idir= 2    ipert=   6
    3)    idir= 3    ipert=   6

 Perturbation wavevector (in red.coord.)   0.000000  0.000000  0.000000
 Perturbation : derivative vs k along direction   1

 dfpt_looppert : COMMENT -
  In a d/dk calculation, iscf is set to -3 automatically.
 The set of symmetries contains only one element for this perturbation.
 symkpt : not enough symmetry to change the number of k points.

 Initialisation of the first-order wave-functions :
  ireadwf=   0

--- !BeginCycle
iteration_state: {dtset: 1, }
solver: {iscf: 7, nstep: 2000, nline: 4, wfoptalg: 0, }
tolerances: {tolwfr: 1.00E-20, }
...

     iter   2DEtotal(Ha)        deltaE(Ha) residm    vres2
-ETOT  1  -32.886922134889     -3.289E+01 9.543E-02 0.000E+00
 ETOT  2  -32.902424328928     -1.550E-02 1.101E-03 0.000E+00
 ETOT  3  -32.902430899339     -6.570E-06 8.845E-06 0.000E+00
 ETOT  4  -32.902430907237     -7.898E-09 1.160E-07 0.000E+00
 ETOT  5  -32.902430907251     -1.411E-11 1.030E-09 0.000E+00
 ETOT  6  -32.902430907251     -3.553E-14 1.498E-11 0.000E+00
 ETOT  7  -32.902430907251      2.842E-14 1.414E-13 0.000E+00
 ETOT  8  -32.902430907251      7.105E-15 2.171E-15 0.000E+00
 ETOT  9  -32.902430907251      0.000E+00 2.520E-17 0.000E+00
 ETOT 10  -32.902430907251      0.000E+00 3.912E-19 0.000E+00
 ETOT 11  -32.902430907251      0.000E+00 9.891E-21 0.000E+00

 At SCF step   11   max residual=  9.89E-21 < tolwfr=  1.00E-20 =>converged.

 ----iterations are completed or convergence reached----

 dfpt_looppert: DFPT cycle converged with prtwf=-1. Will skip output of the 1st-order WFK file.
 dfpt_looppert : ek2=    6.5816817720E+01
          f-sum rule ratio=    9.6809419607E-01
 prteigrs : about to open file /scratch/users/j/a/jabreu/flow_simple_remain_atoms/flow/w283/t1/tmpdata/tmp_1WF1_EIG
 Expectation of eigenvalue derivatives (hartree) for nkpt=   2  k points:
  (in case of degenerate eigenvalues, averaged derivative)
 kpt#   1, nband= 27, wtk=  0.50000, kpt=  0.6282  0.3718 -0.3718 (reduced coord)
   0.00001    0.00006    0.00003   -0.00050    0.00396   -0.00357   -0.01879    0.00912
  -0.04307   -0.00662   -0.07740    0.02872    0.06240    0.03289    0.07205   -0.01573
   0.17700    0.00022   -0.02145   -0.17363    0.25109   -0.41925   -0.22956    0.00948
   0.18374   -0.00589   -0.27916
 prteigrs : prtvol=0 or 1, do not print more k-points.

 Eight components of 2nd-order total energy (hartree) are
 1,2,3: 0th-order hamiltonian combined with 1st-order wavefunctions
     kin0=   4.34907057E+01 eigvalue=   9.22842409E-01  local=  -1.79441394E+01
 4,5,6: 1st-order hamiltonian combined with 1st and 0th-order wfs
     kin1=  -6.37168792E+01  Hartree=   0.00000000E+00     xc=   0.00000000E+00
 7,8,9: eventually, occupation + non-local contributions
    edocc=   7.44415248E+00     enl0=  -1.01113028E+00   enl1=  -2.08798258E+00
 1-9 gives the relaxation energy (to be shifted if some occ is /=2.0)
   erelax=  -3.29024309E+01
  No Ewald or frozen-wf contrib.: the relaxation energy is the total one
 2DEtotal=   -0.3290243091E+02 Ha. Also 2DEtotal=   -0.895320677344E+03 eV
    (  non-var. 2DEtotal :   -3.2902430907E+01 Ha)

 Perturbation wavevector (in red.coord.)   0.000000  0.000000  0.000000
 Perturbation : derivative vs k along direction   2
 The set of symmetries contains only one element for this perturbation.
 symkpt : not enough symmetry to change the number of k points.

[...]

 Perturbation wavevector (in red.coord.)   0.000000  0.000000  0.000000
 Perturbation : derivative vs k along direction   3
 The set of symmetries contains only one element for this perturbation.
 symkpt : not enough symmetry to change the number of k points.

 Initialisation of the first-order wave-functions :
  ireadwf=   0

--- !BeginCycle
iteration_state: {dtset: 1, }
solver: {iscf: 7, nstep: 2000, nline: 4, wfoptalg: 0, }
tolerances: {tolwfr: 1.00E-20, }
...

     iter   2DEtotal(Ha)        deltaE(Ha) residm    vres2
-ETOT  1  -74.521979386497     -7.452E+01 1.122E-01 0.000E+00
 ETOT  2  -74.556711784323     -3.473E-02 1.486E-03 0.000E+00
 ETOT  3  -74.556727937630     -1.615E-05 1.097E-05 0.000E+00
 ETOT  4  -74.556727957336     -1.971E-08 1.668E-07 0.000E+00
 ETOT  5  -74.556727957374     -3.787E-11 1.075E-09 0.000E+00
 ETOT  6  -74.556727957374     -4.263E-14 1.906E-11 0.000E+00
 ETOT  7  -74.556727957374     -8.527E-14 1.224E-13 0.000E+00
 ETOT  8  -74.556727957374      1.421E-14 2.569E-15 0.000E+00
 ETOT  9  -74.556727957374      0.000E+00 1.928E-17 0.000E+00
 ETOT 10  -74.556727957374      0.000E+00 4.171E-19 0.000E+00
 ETOT 11  -74.556727957374     -1.421E-14 9.662E-21 0.000E+00

 At SCF step   11   max residual=  9.66E-21 < tolwfr=  1.00E-20 =>converged.

 ----iterations are completed or convergence reached----

 dfpt_looppert: DFPT cycle converged with prtwf=-1. Will skip output of the 1st-order WFK file.
 dfpt_looppert : ek2=    1.4535404213E+02
          f-sum rule ratio=    1.0009175691E+00
 prteigrs : about to open file /scratch/users/j/a/jabreu/flow_simple_remain_atoms/flow/w283/t1/tmpdata/tmp_1WF1_EIG
 Expectation of eigenvalue derivatives (hartree) for nkpt=   2  k points:
  (in case of degenerate eigenvalues, averaged derivative)
 kpt#   1, nband= 27, wtk=  0.50000, kpt=  0.6282  0.3718 -0.3718 (reduced coord)
   0.00001    0.00006    0.00003   -0.00050    0.00396   -0.00357   -0.01879    0.00912
  -0.04307   -0.00662   -0.07740    0.02872    0.06240    0.03289    0.07205   -0.01573
   0.17700    0.00022   -0.02145   -0.17363    0.25109   -0.41925   -0.22956    0.00948
   0.18374   -0.00589   -0.27895
 prteigrs : prtvol=0 or 1, do not print more k-points.

 Eight components of 2nd-order total energy (hartree) are
 1,2,3: 0th-order hamiltonian combined with 1st-order wavefunctions
     kin0=   9.27897645E+01 eigvalue=   1.74570018E+00  local=  -3.87056245E+01
 4,5,6: 1st-order hamiltonian combined with 1st and 0th-order wfs
     kin1=  -1.45487415E+02  Hartree=   0.00000000E+00     xc=   0.00000000E+00
 7,8,9: eventually, occupation + non-local contributions
    edocc=   2.09728377E+01     enl0=  -2.24594992E+00   enl1=  -3.62604140E+00
 1-9 gives the relaxation energy (to be shifted if some occ is /=2.0)
   erelax=  -7.45567280E+01
  No Ewald or frozen-wf contrib.: the relaxation energy is the total one
 2DEtotal=   -0.7455672796E+02 Ha. Also 2DEtotal=   -0.202879174379E+04 eV
    (  non-var. 2DEtotal :   -7.4556727957E+01 Ha)

 CALCULATION OF EFFECTIVE MASSES
 NOTE : Additional infos (eff. mass eigenvalues, eigenvectors and, if degenerate, average mass) are available in stdout.

 K-point ( 0.628, 0.372,-0.372) | band =    18
 Effective mass tensor:
            -12.0656156312             -0.1024151573             -3.9355116713
             -0.1024151573             -1.3088730400              0.2607774764
             -3.9355116713              0.2607774764             -3.6176562891
 Effective mass tensor eigenvalues:
            -13.6148721778             -2.1605621394             -1.2167106432
 Angular average effective mass 1/(<1/m>)=  -2.2088387839
 Angular average effective mass for Frohlich model (<m**0.5>)**2=  -2.7018462836
 Effective masses along directions: (cart. coord. / red. coord. -> eff. mass)
    1:   1.000000  0.000000  0.000000 /   0.995270 -0.097145  0.000000 ->  -7.6687641126
    2:   0.000000  1.000000  0.000000 /   0.000000  1.000000  0.000000 ->  -1.2709240345
    3:   0.000000  0.000000  1.000000 /  -0.490402 -0.556987  0.670277 ->  -2.2678230817
    4:   0.577350  0.577350  0.577350 /  -0.047162 -0.325949  0.944210 ->  -2.5228416641
    5:   0.000000  0.707107  0.707107 /  -0.576085 -0.219422  0.787388 ->  -1.4023974831
    6:   0.707107  0.000000  0.707107 /  -0.037146 -0.667482  0.743698 ->  -7.0919072244
    7:   0.707107  0.707107  0.000000 /   0.814383  0.580327  0.000000 ->  -2.3832954297

 K-point ( 0.354, 0.646,-0.354) | band =    19
 Effective mass tensor:
              3.6290636213              0.0247950203              1.1458734237
              0.0247950203              0.5348093621             -0.0629848516
              1.1458734237             -0.0629848516              1.1695348550
 Effective mass tensor eigenvalues:
              0.5125531023              0.7406788393              4.0801758967
 Angular average effective mass 1/(<1/m>)=   0.8459717621
 Angular average effective mass for Frohlich model (<m**0.5>)**2=   0.9916970392
 Effective masses along directions: (cart. coord. / red. coord. -> eff. mass)
    1:   1.000000  0.000000  0.000000 /   0.995270 -0.097145  0.000000 ->   2.4922913012
    2:   0.000000  1.000000  0.000000 /   0.000000  1.000000  0.000000 ->   0.5284316608
    3:   0.000000  0.000000  1.000000 /  -0.490402 -0.556987  0.670277 ->   0.7983469992
    4:   0.577350  0.577350  0.577350 /  -0.047162 -0.325949  0.944210 ->   1.0155278186
    5:   0.000000  0.707107  0.707107 /  -0.576085 -0.219422  0.787388 ->   0.5752424660
    6:   0.707107  0.000000  0.707107 /  -0.037146 -0.667482  0.743698 ->   2.3240917310
    7:   0.707107  0.707107  0.000000 /   0.814383  0.580327  0.000000 ->   0.9246414985

 END OF EFFECTIVE MASSES SECTION

 ---- first-order wavefunction calculations are completed ----

 Total localisation tensor (bohr^2) in cartesian coordinates
  WARNING : still subject to testing - especially symmetries.
      direction              matrix element
   alpha     beta       real part   imaginary part
     1        1       0.5197951625    0.0000000000
     1        2      -0.0880282336    0.0000000000
     1        3      -0.4140558414    0.0000000000
     2        1      -0.0880282336    0.0000000000
     2        2       0.7306932011    0.0000000000
     2        3      -1.0993681973    0.0000000000
     3        1      -0.4140558414    0.0000000000
     3        2      -1.0993681973    0.0000000000
     3        3       5.2782646517    0.0000000000

 respfn : d/dk was computed, but no 2DTE, so no DDB output.

== END DATASET(S) ==============================================================

 -outvars: echo values of variables after computation  --------
            acell      1.0000000000E+00  1.0000000000E+00  1.0000000000E+00 Bohr
              amu      6.94100000E+00  1.06420000E+02  1.59994000E+01
             ecut      4.40000000E+01 Hartree
           etotal     -7.4556727957E+01
            fcart      0.0000000000E+00  0.0000000000E+00  0.0000000000E+00
                       0.0000000000E+00  0.0000000000E+00  0.0000000000E+00
                       0.0000000000E+00  0.0000000000E+00  0.0000000000E+00
                       0.0000000000E+00  0.0000000000E+00  0.0000000000E+00
                       0.0000000000E+00  0.0000000000E+00  0.0000000000E+00
-          fftalg         512
           irdden           1
           irdwfk           1
              ixc     -116133
              kpt      6.28183496E-01  3.71816504E-01 -3.71816504E-01
                       3.53923535E-01  6.46076465E-01 -3.53923535E-01
           kptopt           0
P           mkmem           2
P          mkqmem           2
P          mk1mem           2
            natom           5
            nband          27
           nbdbuf           4
            ngfft          60      60      60
             nkpt           2
            nstep        2000
             nsym           8
           ntypat           3
              occ      2.000000  2.000000  2.000000  2.000000  2.000000  2.000000
                       2.000000  2.000000  2.000000  2.000000  2.000000  2.000000
                       2.000000  2.000000  2.000000  2.000000  2.000000  2.000000
                       0.000000  0.000000  0.000000  0.000000  0.000000  0.000000
                       0.000000  0.000000  0.000000
        optdriver           1
            prtwf          -1
            rfdir           1       1       1
           rfelfd           2
            rprim      6.6192167698E+00  0.0000000000E+00 -7.1042145699E+00
                      -6.4608250130E-01  5.3629167773E+00 -8.0688038978E+00
                       0.0000000000E+00  0.0000000000E+00  9.7099894594E+00
          spgroup          71
           strten      0.0000000000E+00  0.0000000000E+00  0.0000000000E+00
                       0.0000000000E+00  0.0000000000E+00  0.0000000000E+00
           symrel      1  0  0   0  1  0   0  0  1      -1  0  0   0 -1  0   0  0 -1
                       0  0  1  -1 -1 -1   1  0  0       0  0 -1   1  1  1  -1  0  0
                      -1 -1 -1   0  0  1   0  1  0       1  1  1   0  0 -1   0 -1  0
                       0  1  0   1  0  0  -1 -1 -1       0 -1  0  -1  0  0   1  1  1
           tolwfr      1.00000000E-20
            typat      1  1  2  3  3
           useylm           1
              wtk        0.50000    0.50000
           xangst      2.2022186648E+00  1.9772392339E+00 -5.5940990056E+00
                       9.5862785390E-01  8.6069409622E-01 -2.4351165530E+00
                       0.0000000000E+00  0.0000000000E+00  0.0000000000E+00
                       3.0563372743E-01  1.8468589008E+00 -7.7637400793E-01
                       2.8552127913E+00  9.9107442928E-01 -2.1145364331E+00
            xcart      4.1615901613E+00  3.7364406512E+00 -1.0571315081E+01
                       1.8115441072E+00  1.6264761261E+00 -4.6017033869E+00
                       0.0000000000E+00  0.0000000000E+00  0.0000000000E+00
                       5.7756404182E-01  3.4900575287E+00 -1.4671342517E+00
                       5.3955702267E+00  1.8728592486E+00 -3.9958947566E+00
             xred      6.9671800000E-01  6.9671800000E-01 -1.6653345369E-16
                       3.0328200000E-01  3.0328200000E-01 -2.7755575616E-17
                       0.0000000000E+00  0.0000000000E+00  0.0000000000E+00
                       1.5077600000E-01  6.5077600000E-01  5.0000000000E-01
                       8.4922400000E-01  3.4922400000E-01  5.0000000000E-01
            znucl        3.00000   46.00000    8.00000

- Timing analysis has been suppressed with timopt=0

 Suggested references for the acknowledgment of ABINIT usage.

 Calculation completed.
.Delivered   2 WARNINGs and   5 COMMENTs to log file.