.Version 9.7.2 of ABINIT

 ABINIT is a project of the Universite Catholique de Louvain,
 Corning Inc. and other collaborators, see ~abinit/doc/developers/contributors.txt .
 acknowledgments of the ABINIT effort.

.Starting date : Wed  1 Dec 2021.
- ( at 21h32 )

- input  file    -> /scratch/users/j/a/jabreu/flow_simple_remain_atoms/flow/w214/t1/run.abi
- output file    -> /scratch/users/j/a/jabreu/flow_simple_remain_atoms/flow/w214/t1/run.abo
- root for input  files -> /scratch/users/j/a/jabreu/flow_simple_remain_atoms/flow/w214/t1/indata/in
- root for output files -> /scratch/users/j/a/jabreu/flow_simple_remain_atoms/flow/w214/t1/outdata/out

 Symmetries : space group P-3 m 1 (#164); Bravais hP (primitive hexag.)
     intxc =       0      iscf =       7    lmnmax =      32     lnmax =       8
     mgfft =      72  mpssoang =       4    mqgrid =    3003     natom =       9
  nloc_mem =       1    nspden =       1   nspinor =       1    nsppol =       1
      nsym =      12    n1xccc =    2501    ntypat =       3    occopt =       1
   xclevel =       2
-    mband =          46        mffmem =           1         mkmem =           2
-   mkqmem =           2        mk1mem =           2           mpw =       15094
      nfft =      311040          nkpt =           2
  Rough estimation (10% accuracy) of disk space for files :

------------- Echo of variables that govern the present computation ------------
-
- outvars: echo of selected default values
-   iomode0 =  0 , fftalg0 =512 , wfoptalg0 =  0
-
- outvars: echo of global parameters not present in the input file
-  max_nthreads =    0
-
 -outvars: echo values of preprocessed input variables --------
            acell      1.0000000000E+00  1.0000000000E+00  1.0000000000E+00 Bohr
              amu      1.32905430E+02  1.18710000E+02  1.89984032E+01
             ecut      4.20000000E+01 Hartree
-          fftalg         512
           irdden           1
           irdwfk           1
           istwfk        0    1
              ixc     -116133
              kpt      0.00000000E+00  0.00000000E+00  1.57894737E-01
                       0.00000000E+00  0.00000000E+00  0.00000000E+00
           kptopt           0
P           mkmem           2
P          mkqmem           2
P          mk1mem           2
            natom           9
            nband          46
           nbdbuf           4
            ngfft          72      72      60
             nkpt           2
            nstep        2000
             nsym          12
           ntypat           3
              occ      2.000000  2.000000  2.000000  2.000000  2.000000  2.000000
                       2.000000  2.000000  2.000000  2.000000  2.000000  2.000000
                       2.000000  2.000000  2.000000  2.000000  2.000000  2.000000
                       2.000000  2.000000  2.000000  2.000000  2.000000  2.000000
                       2.000000  2.000000  2.000000  2.000000  2.000000  2.000000
                       2.000000  2.000000  2.000000  2.000000  2.000000  2.000000
                       2.000000  0.000000  0.000000  0.000000  0.000000  0.000000
                       0.000000  0.000000  0.000000  0.000000
        optdriver           1
            prtwf          -1
            rfdir           1       1       1
           rfelfd           2
            rprim      1.1885923109E+01  0.0000000000E+00  0.0000000000E+00
                      -5.9429615547E+00  1.0293511360E+01  0.0000000000E+00
                       0.0000000000E+00  0.0000000000E+00  9.4897983257E+00
          spgroup         164
           symrel      1  0  0   0  1  0   0  0  1      -1  0  0   0 -1  0   0  0 -1
                      -1  0  0   1  1  0   0  0  1       1  0  0  -1 -1  0   0  0 -1
                       0  1  0  -1 -1  0   0  0  1       0 -1  0   1  1  0   0  0 -1
                       0 -1  0  -1  0  0   0  0  1       0  1  0   1  0  0   0  0 -1
                      -1 -1  0   1  0  0   0  0  1       1  1  0  -1  0  0   0  0 -1
                       1  1  0   0 -1  0   0  0  1      -1 -1  0   0  1  0   0  0 -1
           tolwfr      1.00000000E-20
            typat      1  1  2  3  3  3  3  3  3
           useylm           1
              wtk        0.50000    0.50000
           xangst      3.1448798062E+00  1.8156972027E+00  1.5071280671E+00
                      -1.7639241746E-11  3.6313944054E+00  3.5146569210E+00
                       0.0000000000E+00  0.0000000000E+00  0.0000000000E+00
                       3.1448798062E+00  3.7851440131E+00  3.9224208403E+00
                       4.8504707755E+00  8.3097379749E-01  3.9224208403E+00
                       1.4392888370E+00  8.3097379749E-01  3.9224208403E+00
                      -8.0727848715E-12  1.6619475950E+00  1.0993641478E+00
                      -1.7055909693E+00  4.6161178106E+00  1.0993641478E+00
                       1.7055909692E+00  4.6161178106E+00  1.0993641478E+00
            xcart      5.9429615546E+00  3.4311704534E+00  2.8480592939E+00
                      -3.3333336091E-11  6.8623409067E+00  6.6417390318E+00
                       0.0000000000E+00  0.0000000000E+00  0.0000000000E+00
                       5.9429615546E+00  7.1528855584E+00  7.4123011660E+00
                       9.1660613812E+00  1.5703129009E+00  7.4123011660E+00
                       2.7198617281E+00  1.5703129009E+00  7.4123011660E+00
                      -1.5255352537E-11  3.1406258017E+00  2.0774971597E+00
                      -3.2230998266E+00  8.7231984592E+00  2.0774971597E+00
                       3.2230998265E+00  8.7231984592E+00  2.0774971597E+00
             xred      6.6666666667E-01  3.3333333333E-01  3.0011800000E-01
                       3.3333333333E-01  6.6666666667E-01  6.9988200000E-01
                       0.0000000000E+00  0.0000000000E+00  0.0000000000E+00
                       8.4744633333E-01  6.9489266667E-01  7.8108100000E-01
                       8.4744633333E-01  1.5255366667E-01  7.8108100000E-01
                       3.0510733333E-01  1.5255366667E-01  7.8108100000E-01
                       1.5255366667E-01  3.0510733333E-01  2.1891900000E-01
                       1.5255366667E-01  8.4744633333E-01  2.1891900000E-01
                       6.9489266667E-01  8.4744633333E-01  2.1891900000E-01
            znucl       55.00000   50.00000    9.00000

 chkinp: Checking input parameters for consistency.

== DATASET  1 ==================================================================
-   mpi_nproc: 1, omp_nthreads: -1 (-1 if OMP is not activated)

--- !DatasetInfo
iteration_state: {dtset: 1, }
dimensions: {natom: 9, nkpt: 2, mband: 46, nsppol: 1, nspinor: 1, nspden: 1, mpw: 15094, }
cutoff_energies: {ecut:  42.0, pawecutdg:  -1.0, }
electrons: {nelect:   7.40000000E+01, charge:   0.00000000E+00, occopt:   1.00000000E+00, tsmear:   1.00000000E-02, }
meta: {optdriver: 1, rfelfd: 2, }
...

 Real(R)+Recip(G) space primitive vectors, cartesian coordinates (Bohr,Bohr^-1):
 R(1)= 11.8859231  0.0000000  0.0000000  G(1)=  0.0841331  0.0485743  0.0000000
 R(2)= -5.9429616 10.2935114  0.0000000  G(2)=  0.0000000  0.0971486  0.0000000
 R(3)=  0.0000000  0.0000000  9.4897983  G(3)=  0.0000000  0.0000000  0.1053763
 Unit cell volume ucvol=  1.1610567E+03 bohr^3
 Angles (23,13,12)=  9.00000000E+01  9.00000000E+01  1.20000000E+02 degrees

 getcut: wavevector=  0.0000  0.0000  0.0000  ngfft=  72  72  60
         ecut(hartree)=     42.000   => boxcut(ratio)=   2.07639

--- Pseudopotential description ------------------------------------------------
- pspini: atom type   1  psp file is /scratch/users/j/a/jabreu/pseudos/PBEsol/Cs.psp8
- pspatm: opening atomic psp file    /scratch/users/j/a/jabreu/pseudos/PBEsol/Cs.psp8
- Cs    ONCVPSP-3.3.0  r_core=   2.27353   1.85623   2.01788   1.90105
- 55.00000   9.00000    180112                znucl, zion, pspdat
    8 -116133    3    4       600   0.00000   pspcod,pspxc,lmax,lloc,mmax,r2well
    5.99000000000000    5.00000000000000    0.00000000000000   rchrg,fchrg,qchrg
     nproj     2     2     2     2
     extension_switch     1
  pspatm : epsatm=   22.12462445
         --- l  ekb(1:nproj) -->
             0    6.214110    0.767882
             1    6.311966    0.793598
             2    3.769790    0.913105
             3   -9.247129   -2.432478
 pspatm: atomic psp has been read  and splines computed

- pspini: atom type   2  psp file is /scratch/users/j/a/jabreu/pseudos/PBEsol/Sn.psp8
- pspatm: opening atomic psp file    /scratch/users/j/a/jabreu/pseudos/PBEsol/Sn.psp8
- Sn    ONCVPSP-3.3.0  r_core=   2.27326   2.62311   1.85601
- 50.00000  14.00000    180112                znucl, zion, pspdat
    8 -116133    2    4       600   0.00000   pspcod,pspxc,lmax,lloc,mmax,r2well
    5.99000000000000    6.50000000000000    0.00000000000000   rchrg,fchrg,qchrg
     nproj     2     2     2
     extension_switch     1
  pspatm : epsatm=   32.44586081
         --- l  ekb(1:nproj) -->
             0    5.587869    0.749373
             1    4.197111    0.728791
             2   -5.271877   -1.523486
 pspatm: atomic psp has been read  and splines computed

- pspini: atom type   3  psp file is /scratch/users/j/a/jabreu/pseudos/PBEsol/F.psp8
- pspatm: opening atomic psp file    /scratch/users/j/a/jabreu/pseudos/PBEsol/F.psp8
- F     ONCVPSP-3.3.0  r_core=   1.30942   1.45782   1.60379
-  9.00000   7.00000    180112                znucl, zion, pspdat
    8 -116133    2    4       600   0.00000   pspcod,pspxc,lmax,lloc,mmax,r2well
    5.99000000000000    2.50000000000000    0.00000000000000   rchrg,fchrg,qchrg
     nproj     2     2     1
     extension_switch     1
  pspatm : epsatm=    4.89824824
         --- l  ekb(1:nproj) -->
             0    6.506434    1.065875
             1   -3.978753   -1.295852
             2   -2.394754
 pspatm: atomic psp has been read  and splines computed

   7.85026034E+03                                ecore*ucvol(ha*bohr**3)

 ==>  initialize data related to q vector <==

 The list of irreducible perturbations for this q vector is:
    1)    idir= 1    ipert=  10
    2)    idir= 2    ipert=  10
    3)    idir= 3    ipert=  10

 Perturbation wavevector (in red.coord.)   0.000000  0.000000  0.000000
 Perturbation : derivative vs k along direction   1

 dfpt_looppert : COMMENT -
  In a d/dk calculation, iscf is set to -3 automatically.
 The set of symmetries contains only one element for this perturbation.
 symkpt : not enough symmetry to change the number of k points.

 Initialisation of the first-order wave-functions :
  ireadwf=   0

--- !BeginCycle
iteration_state: {dtset: 1, }
solver: {iscf: 7, nstep: 2000, nline: 4, wfoptalg: 0, }
tolerances: {tolwfr: 1.00E-20, }
...

     iter   2DEtotal(Ha)        deltaE(Ha) residm    vres2
-ETOT  1  -37.769410997274     -3.777E+01 4.053E-02 0.000E+00
 ETOT  2  -37.799002459736     -2.959E-02 7.951E-03 0.000E+00
 ETOT  3  -37.799378442113     -3.760E-04 4.449E-04 0.000E+00
 ETOT  4  -37.799395942550     -1.750E-05 1.319E-04 0.000E+00
 ETOT  5  -37.799397029084     -1.087E-06 1.477E-05 0.000E+00
 ETOT  6  -37.799397111585     -8.250E-08 4.425E-06 0.000E+00
 ETOT  7  -37.799397118610     -7.025E-09 6.470E-07 0.000E+00
[...]
 The set of symmetries contains only one element for this perturbation.
 symkpt : not enough symmetry to change the number of k points.

[...]

 Perturbation wavevector (in red.coord.)   0.000000  0.000000  0.000000
 Perturbation : derivative vs k along direction   3
 The set of symmetries contains only one element for this perturbation.
 symkpt : not enough symmetry to change the number of k points.

 Initialisation of the first-order wave-functions :
  ireadwf=   0

--- !BeginCycle
iteration_state: {dtset: 1, }
solver: {iscf: 7, nstep: 2000, nline: 4, wfoptalg: 0, }
tolerances: {tolwfr: 1.00E-20, }
...

     iter   2DEtotal(Ha)        deltaE(Ha) residm    vres2
-ETOT  1  -43.029802664437     -4.303E+01 4.813E-02 0.000E+00
 ETOT  2  -43.057212401075     -2.741E-02 2.616E-03 0.000E+00
 ETOT  3  -43.057543327386     -3.309E-04 2.422E-04 0.000E+00
 ETOT  4  -43.057554101340     -1.077E-05 4.778E-05 0.000E+00
 ETOT  5  -43.057554537927     -4.366E-07 8.808E-06 0.000E+00
 ETOT  6  -43.057554558756     -2.083E-08 2.425E-06 0.000E+00
 ETOT  7  -43.057554559858     -1.102E-09 6.250E-07 0.000E+00
 ETOT  8  -43.057554559921     -6.336E-11 1.995E-07 0.000E+00
 ETOT  9  -43.057554559925     -3.929E-12 6.089E-08 0.000E+00
 ETOT 10  -43.057554559925     -2.416E-13 2.020E-08 0.000E+00
 ETOT 11  -43.057554559925      0.000E+00 6.535E-09 0.000E+00
 ETOT 12  -43.057554559925      4.263E-14 2.179E-09 0.000E+00
 ETOT 13  -43.057554559925      0.000E+00 7.209E-10 0.000E+00
 ETOT 14  -43.057554559925     -2.842E-14 2.399E-10 0.000E+00
 ETOT 15  -43.057554559925      1.421E-14 8.021E-11 0.000E+00
 ETOT 16  -43.057554559925      0.000E+00 2.662E-11 0.000E+00
 ETOT 17  -43.057554559925      1.421E-14 8.950E-12 0.000E+00
 ETOT 18  -43.057554559925      0.000E+00 2.965E-12 0.000E+00
 ETOT 19  -43.057554559925     -1.421E-14 9.997E-13 0.000E+00
 ETOT 20  -43.057554559925     -7.105E-15 3.309E-13 0.000E+00
 ETOT 21  -43.057554559925      1.421E-14 1.117E-13 0.000E+00
 ETOT 22  -43.057554559925      0.000E+00 3.700E-14 0.000E+00
 ETOT 23  -43.057554559925      0.000E+00 1.249E-14 0.000E+00
 ETOT 24  -43.057554559925     -7.105E-15 4.143E-15 0.000E+00
 ETOT 25  -43.057554559925      0.000E+00 1.398E-15 0.000E+00
 ETOT 26  -43.057554559925      7.105E-15 4.646E-16 0.000E+00
 ETOT 27  -43.057554559925      0.000E+00 1.565E-16 0.000E+00
 ETOT 28  -43.057554559925     -7.105E-15 5.218E-17 0.000E+00
 ETOT 29  -43.057554559925      0.000E+00 1.753E-17 0.000E+00
 ETOT 30  -43.057554559925      0.000E+00 5.867E-18 0.000E+00
 ETOT 31  -43.057554559925      0.000E+00 1.965E-18 0.000E+00
 ETOT 32  -43.057554559925      0.000E+00 6.604E-19 0.000E+00
 ETOT 33  -43.057554559925      0.000E+00 2.205E-19 0.000E+00
 ETOT 34  -43.057554559925      0.000E+00 7.443E-20 0.000E+00
 ETOT 35  -43.057554559925      7.105E-15 2.475E-20 0.000E+00
 ETOT 36  -43.057554559925     -7.105E-15 9.960E-21 0.000E+00

 At SCF step   36   max residual=  9.96E-21 < tolwfr=  1.00E-20 =>converged.

 ----iterations are completed or convergence reached----

 dfpt_looppert: DFPT cycle converged with prtwf=-1. Will skip output of the 1st-order WFK file.
 dfpt_looppert : ek2=    6.4879498770E+01
          f-sum rule ratio=    1.0054391092E+00
 prteigrs : about to open file /scratch/users/j/a/jabreu/flow_simple_remain_atoms/flow/w214/t1/tmpdata/tmp_1WF1_EIG
 Expectation of eigenvalue derivatives (hartree) for nkpt=   2  k points:
  (in case of degenerate eigenvalues, averaged derivative)
 kpt#   1, nband= 46, wtk=  0.50000, kpt=  0.0000  0.0000  0.1579 (reduced coord)
  -0.00143   -0.00143    0.00689    0.00254    0.00254   -0.00695   -0.00002   -0.00002
   0.00031   -0.00110   -0.00110   -0.00099    0.00001    0.00721   -0.00771   -0.00771
  -0.04811   -0.02364   -0.02364    0.01321    0.02669    0.03800    0.03800    0.03297
   0.00094    0.00094    0.00803   -0.02304   -0.02304    0.02861    0.02861   -0.06088
  -0.00360   -0.00360   -0.00898    0.00020    0.00020    0.08283   -0.00767   -0.11024
  -0.11024    0.11489   -0.04309   -0.04309    0.17072    0.17072
 prteigrs : prtvol=0 or 1, do not print more k-points.

 Eight components of 2nd-order total energy (hartree) are
 1,2,3: 0th-order hamiltonian combined with 1st-order wavefunctions
     kin0=   5.45948293E+01 eigvalue=   4.62072278E+00  local=  -2.64756149E+01
 4,5,6: 1st-order hamiltonian combined with 1st and 0th-order wfs
     kin1=  -6.52323855E+01  Hartree=   0.00000000E+00     xc=   0.00000000E+00
 7,8,9: eventually, occupation + non-local contributions
    edocc=   5.51413182E+00     enl0=   4.80348553E+00   enl1=  -2.08827237E+01
 1-9 gives the relaxation energy (to be shifted if some occ is /=2.0)
   erelax=  -4.30575546E+01
  No Ewald or frozen-wf contrib.: the relaxation energy is the total one
 2DEtotal=   -0.4305755456E+02 Ha. Also 2DEtotal=   -0.117165564520E+04 eV
    (  non-var. 2DEtotal :   -4.3057554560E+01 Ha)

 CALCULATION OF EFFECTIVE MASSES
 NOTE : Additional infos (eff. mass eigenvalues, eigenvectors and, if degenerate, average mass) are available in stdout.

--- !WARNING
src_file: m_efmas.F90
src_line: 0
message: |
    Effective masses calculations require given k-point(s) to be band extrema for given bands, but max abs gradient of band(s) was found to be greater than 1e-5. Abinit will continue anyway.
...

[...]

--- !WARNING
src_file: m_efmas.F90
src_line: 0
message: |
    Effective masses calculations require given k-point(s) to be band extrema for given bands, but max abs gradient of band(s) was found to be greater than 1e-5. Abinit will continue anyway.
...

 COMMENTS:
 - At k-point ( 0.000, 0.000, 0.158), bands    36 through    37
   are DEGENERATE (effective mass tensor is therefore not defined).
   See Section IIIB Eqs. (67)-(70) and Appendix E of PRB 93 205147 (2016).
 - Angular average effective mass for Frohlich model is to be averaged over degenerate bands. See later.
 - Associated theta integrals calculated with ntheta=   1000 points.

 K-point ( 0.000, 0.000, 0.158) | band =    36
 Transport equivalent effective mass tensor:
             -4.3194343964             -0.0000037244              0.0000237330
             -0.0000037244             -4.3194468570             -0.0000333757
              0.0000237330             -0.0000333757            -32.4199661332
 Transport equivalent effective mass tensor eigenvalues:
            -32.4199661332             -4.3194478853             -4.3194333680
 Angular average effective mass 1/(<1/m>)=  -5.9884295494
 Angular average effective mass for Frohlich model (<m**0.5>)**2=  -7.0386674316
 Effective masses along directions: (cart. coord. / red. coord. -> eff. mass)
    1:   1.000000  0.000000  0.000000 /   0.894427 -0.447214  0.000000 ->  -4.2604482260
    2:   0.000000  1.000000  0.000000 /   0.000000  1.000000  0.000000 ->  -4.2604620560
    3:   0.000000  0.000000  1.000000 /   0.000000  0.000000  1.000000 -> -32.0735379757
    4:   0.577350  0.577350  0.577350 /   0.751343  0.275011  0.599877 ->  -5.8513041013
    5:   0.000000  0.707107  0.707107 /   0.000000  0.735227  0.677821 ->  -7.8699621709
    6:   0.707107  0.000000  0.707107 /   0.727884 -0.363942  0.581147 ->  -7.5019367577
    7:   0.707107  0.707107  0.000000 /   0.939071  0.343724  0.000000 ->  -4.2604599846

 K-point ( 0.000, 0.000, 0.158) | band =    37
 Transport equivalent effective mass tensor:
            -28.4372228420             -0.0000415015             -0.0000137354
             -0.0000415015            -28.4372250177              0.0000142354
             -0.0000137354              0.0000142354            -37.3206553881
 Transport equivalent effective mass tensor eigenvalues:
            -37.3206553881            -28.4372654456            -28.4371824140
 Angular average effective mass 1/(<1/m>)= -27.9366931717
 Angular average effective mass for Frohlich model (<m**0.5>)**2= -28.1819047053
 Effective masses along directions: (cart. coord. / red. coord. -> eff. mass)
    1:   1.000000  0.000000  0.000000 /   0.894427 -0.447214  0.000000 -> -26.1227418381
    2:   0.000000  1.000000  0.000000 /   0.000000  1.000000  0.000000 -> -26.1227105450
    3:   0.000000  0.000000  1.000000 /   0.000000  0.000000  1.000000 -> -32.0736230603
    4:   0.577350  0.577350  0.577350 /   0.751343  0.275011  0.599877 -> -31.3660119074
    5:   0.000000  0.707107  0.707107 /   0.000000  0.735227  0.677821 -> -24.6237097328
    6:   0.707107  0.000000  0.707107 /   0.727884 -0.363942  0.581147 -> -29.0879281598
    7:   0.707107  0.707107  0.000000 /   0.939071  0.343724  0.000000 -> -26.1227007137

 Angular average effective mass for Frohlich model, averaged over degenerate bands.
 Value of     (<<m**0.5>>)**2 =     1.584721E+01
 Absolute Value of <<m**0.5>> =     3.980856E+00

 K-point ( 0.000, 0.000, 0.000) | band =    38
 Effective mass tensor:
              0.6551553603             -0.0000000001             -0.0000000000
             -0.0000000001              0.6551553602              0.0000000000
             -0.0000000000              0.0000000000              0.6805357620
 Effective mass tensor eigenvalues:
              0.6551553602              0.6551553604              0.6805357620
 Angular average effective mass 1/(<1/m>)=   0.6634025007
 Angular average effective mass for Frohlich model (<m**0.5>)**2=   0.6634659664
 Effective masses along directions: (cart. coord. / red. coord. -> eff. mass)
    1:   1.000000  0.000000  0.000000 /   0.894427 -0.447214  0.000000 ->   0.6551553603
    2:   0.000000  1.000000  0.000000 /   0.000000  1.000000  0.000000 ->   0.6551553602
    3:   0.000000  0.000000  1.000000 /   0.000000  0.000000  1.000000 ->   0.6805357620
    4:   0.577350  0.577350  0.577350 /   0.751343  0.275011  0.599877 ->   0.6634025006
    5:   0.000000  0.707107  0.707107 /   0.000000  0.735227  0.677821 ->   0.6676044257
    6:   0.707107  0.000000  0.707107 /   0.727884 -0.363942  0.581147 ->   0.6676044257
    7:   0.707107  0.707107  0.000000 /   0.939071  0.343724  0.000000 ->   0.6551553602

 END OF EFFECTIVE MASSES SECTION

 ---- first-order wavefunction calculations are completed ----

 Total localisation tensor (bohr^2) in cartesian coordinates
  WARNING : still subject to testing - especially symmetries.
      direction              matrix element
   alpha     beta       real part   imaginary part
     1        1       1.1294993024    0.0000000000
     1        2      -0.3912700104    0.0000000000
     1        3       0.0000000000    0.0000000000
     2        1      -0.3912700104    0.0000000000
     2        2       0.6776995375    0.0000000000
     2        3       0.0000000000    0.0000000000
     3        1       0.0000000000    0.0000000000
     3        2       0.0000000000    0.0000000000
     3        3       0.6019559416    0.0000000000

 respfn : d/dk was computed, but no 2DTE, so no DDB output.

== END DATASET(S) ==============================================================

 -outvars: echo values of variables after computation  --------
            acell      1.0000000000E+00  1.0000000000E+00  1.0000000000E+00 Bohr
              amu      1.32905430E+02  1.18710000E+02  1.89984032E+01
             ecut      4.20000000E+01 Hartree
           etotal     -4.3057554560E+01
            fcart      0.0000000000E+00  0.0000000000E+00  0.0000000000E+00
                       0.0000000000E+00  0.0000000000E+00  0.0000000000E+00
                       0.0000000000E+00  0.0000000000E+00  0.0000000000E+00
                       0.0000000000E+00  0.0000000000E+00  0.0000000000E+00
                       0.0000000000E+00  0.0000000000E+00  0.0000000000E+00
                       0.0000000000E+00  0.0000000000E+00  0.0000000000E+00
                       0.0000000000E+00  0.0000000000E+00  0.0000000000E+00
                       0.0000000000E+00  0.0000000000E+00  0.0000000000E+00
                       0.0000000000E+00  0.0000000000E+00  0.0000000000E+00
-          fftalg         512
           irdden           1
           irdwfk           1
           istwfk        0    1
              ixc     -116133
              kpt      0.00000000E+00  0.00000000E+00  1.57894737E-01
                       0.00000000E+00  0.00000000E+00  0.00000000E+00
           kptopt           0
P           mkmem           2
P          mkqmem           2
P          mk1mem           2
            natom           9
            nband          46
           nbdbuf           4
            ngfft          72      72      60
             nkpt           2
            nstep        2000
             nsym          12
           ntypat           3
              occ      2.000000  2.000000  2.000000  2.000000  2.000000  2.000000
                       2.000000  2.000000  2.000000  2.000000  2.000000  2.000000
                       2.000000  2.000000  2.000000  2.000000  2.000000  2.000000
                       2.000000  2.000000  2.000000  2.000000  2.000000  2.000000
                       2.000000  2.000000  2.000000  2.000000  2.000000  2.000000
                       2.000000  2.000000  2.000000  2.000000  2.000000  2.000000
                       2.000000  0.000000  0.000000  0.000000  0.000000  0.000000
                       0.000000  0.000000  0.000000  0.000000
        optdriver           1
            prtwf          -1
            rfdir           1       1       1
           rfelfd           2
            rprim      1.1885923109E+01  0.0000000000E+00  0.0000000000E+00
                      -5.9429615547E+00  1.0293511360E+01  0.0000000000E+00
                       0.0000000000E+00  0.0000000000E+00  9.4897983257E+00
          spgroup         164
           strten      0.0000000000E+00  0.0000000000E+00  0.0000000000E+00
                       0.0000000000E+00  0.0000000000E+00  0.0000000000E+00
           symrel      1  0  0   0  1  0   0  0  1      -1  0  0   0 -1  0   0  0 -1
                      -1  0  0   1  1  0   0  0  1       1  0  0  -1 -1  0   0  0 -1
                       0  1  0  -1 -1  0   0  0  1       0 -1  0   1  1  0   0  0 -1
                       0 -1  0  -1  0  0   0  0  1       0  1  0   1  0  0   0  0 -1
                      -1 -1  0   1  0  0   0  0  1       1  1  0  -1  0  0   0  0 -1
                       1  1  0   0 -1  0   0  0  1      -1 -1  0   0  1  0   0  0 -1
           tolwfr      1.00000000E-20
            typat      1  1  2  3  3  3  3  3  3
           useylm           1
              wtk        0.50000    0.50000
           xangst      3.1448798062E+00  1.8156972027E+00  1.5071280671E+00
                      -1.7639241746E-11  3.6313944054E+00  3.5146569210E+00
                       0.0000000000E+00  0.0000000000E+00  0.0000000000E+00
                       3.1448798062E+00  3.7851440131E+00  3.9224208403E+00
                       4.8504707755E+00  8.3097379749E-01  3.9224208403E+00
                       1.4392888370E+00  8.3097379749E-01  3.9224208403E+00
                      -8.0727848715E-12  1.6619475950E+00  1.0993641478E+00
                      -1.7055909693E+00  4.6161178106E+00  1.0993641478E+00
                       1.7055909692E+00  4.6161178106E+00  1.0993641478E+00
            xcart      5.9429615546E+00  3.4311704534E+00  2.8480592939E+00
                      -3.3333336091E-11  6.8623409067E+00  6.6417390318E+00
                       0.0000000000E+00  0.0000000000E+00  0.0000000000E+00
                       5.9429615546E+00  7.1528855584E+00  7.4123011660E+00
                       9.1660613812E+00  1.5703129009E+00  7.4123011660E+00
                       2.7198617281E+00  1.5703129009E+00  7.4123011660E+00
                      -1.5255352537E-11  3.1406258017E+00  2.0774971597E+00
                      -3.2230998266E+00  8.7231984592E+00  2.0774971597E+00
                       3.2230998265E+00  8.7231984592E+00  2.0774971597E+00
             xred      6.6666666667E-01  3.3333333333E-01  3.0011800000E-01
                       3.3333333333E-01  6.6666666667E-01  6.9988200000E-01
                       0.0000000000E+00  0.0000000000E+00  0.0000000000E+00
                       8.4744633333E-01  6.9489266667E-01  7.8108100000E-01
                       8.4744633333E-01  1.5255366667E-01  7.8108100000E-01
                       3.0510733333E-01  1.5255366667E-01  7.8108100000E-01
                       1.5255366667E-01  3.0510733333E-01  2.1891900000E-01
                       1.5255366667E-01  8.4744633333E-01  2.1891900000E-01
                       6.9489266667E-01  8.4744633333E-01  2.1891900000E-01
            znucl       55.00000   50.00000    9.00000

- Timing analysis has been suppressed with timopt=0

 Suggested references for the acknowledgment of ABINIT usage.

 Calculation completed.
.Delivered   8 WARNINGs and   5 COMMENTs to log file.