.Version 9.5.1 of ABINIT

 ABINIT is a project of the Universite Catholique de Louvain,
 Corning Inc. and other collaborators, see ~abinit/doc/developers/contributors.txt .
 acknowledgments of the ABINIT effort.

.Starting date : Wed 19 May 2021.
- ( at 03h11 )

- input  file    -> /scratch/users/j/a/jabreu/flow_simple_8atoms/flow/w426/t1/run.abi
- output file    -> /scratch/users/j/a/jabreu/flow_simple_8atoms/flow/w426/t1/run.abo
- root for input  files -> /scratch/users/j/a/jabreu/flow_simple_8atoms/flow/w426/t1/indata/in
- root for output files -> /scratch/users/j/a/jabreu/flow_simple_8atoms/flow/w426/t1/outdata/out

 Symmetries : space group Cm c m (# 63); Bravais oC (1-face-center ortho.)
     intxc =       0      iscf =       7    lmnmax =      18     lnmax =       6
     mgfft =      72  mpssoang =       3    mqgrid =    3431     natom =       8
  nloc_mem =       1    nspden =       1   nspinor =       1    nsppol =       1
      nsym =       8    n1xccc =    2501    ntypat =       3    occopt =       1
   xclevel =       2
-    mband =          61        mffmem =           1         mkmem =           2
-   mkqmem =           2        mk1mem =           2           mpw =       21065
      nfft =      373248          nkpt =           2
  Rough estimation (10% accuracy) of disk space for files :

------------- Echo of variables that govern the present computation ------------
-
- outvars: echo of selected default values
-   iomode0 =  0 , fftalg0 =512 , wfoptalg0 =  0
-
- outvars: echo of global parameters not present in the input file
-  max_nthreads =    0
-
 -outvars: echo values of preprocessed input variables --------
            acell      1.0000000000E+00  1.0000000000E+00  1.0000000000E+00 Bohr
              amu      3.90983000E+01  1.07868200E+02  7.49215900E+01
             ecut      4.30000000E+01 Hartree
-          fftalg         512
           irdden           1
           irdwfk           1
              ixc     -116133
              kpt     -5.00000000E-01  5.00000000E-01  0.00000000E+00
                       2.02483919E-02  2.02483919E-02  0.00000000E+00
           kptopt           0
P           mkmem           2
P          mkqmem           2
P          mk1mem           2
            natom           8
            nband          61
           nbdbuf           4
            ngfft          72      72      72
             nkpt           2
            nstep        2000
             nsym           8
           ntypat           3
              occ      2.000000  2.000000  2.000000  2.000000  2.000000  2.000000
                       2.000000  2.000000  2.000000  2.000000  2.000000  2.000000
                       2.000000  2.000000  2.000000  2.000000  2.000000  2.000000
                       2.000000  2.000000  2.000000  2.000000  2.000000  2.000000
                       2.000000  2.000000  2.000000  2.000000  2.000000  2.000000
                       2.000000  2.000000  2.000000  2.000000  2.000000  2.000000
                       2.000000  2.000000  2.000000  2.000000  2.000000  2.000000
                       2.000000  2.000000  2.000000  2.000000  2.000000  2.000000
                       2.000000  2.000000  2.000000  2.000000  0.000000  0.000000
                       0.000000  0.000000  0.000000  0.000000  0.000000  0.000000
                       0.000000
        optdriver           1
            prtwf          -1
            rfdir           1       1       1
           rfelfd           2
            rprim      1.1955463708E+01  0.0000000000E+00  0.0000000000E+00
                      -2.8055402275E+00  1.1621620219E+01  0.0000000000E+00
                       0.0000000000E+00  0.0000000000E+00  1.1233996604E+01
          spgroup          63
           symrel      1  0  0   0  1  0   0  0  1      -1  0  0   0 -1  0   0  0 -1
                       0 -1  0  -1  0  0   0  0 -1       0  1  0   1  0  0   0  0  1
                      -1  0  0   0 -1  0   0  0  1       1  0  0   0  1  0   0  0 -1
                       0  1  0   1  0  0   0  0 -1       0 -1  0  -1  0  0   0  0  1
            tnons      0.0000000  0.0000000  0.0000000     0.0000000  0.0000000  0.0000000
                       0.0000000  0.0000000  0.0000000     0.0000000  0.0000000  0.0000000
                       0.0000000  0.0000000  0.5000000     0.0000000  0.0000000  0.5000000
                       0.0000000  0.0000000  0.5000000     0.0000000  0.0000000  0.5000000
           tolwfr      1.00000000E-20
            typat      1  1  1  1  2  2  3  3
           useylm           1
              wtk        0.50000    0.50000
           xangst      3.8249144228E-01  3.2497221832E+00  1.4861937410E+00
                       4.4594395239E+00  2.9001743633E+00  4.4585812230E+00
                       3.0692194630E+00  1.1344099170E+00  1.4861937410E+00
                       1.7727115032E+00  5.0154866295E+00  4.4585812230E+00
                       0.0000000000E+00  0.0000000000E+00  2.9723874820E+00
                       0.0000000000E+00  0.0000000000E+00  0.0000000000E+00
                       1.2591393058E+00  1.5992744470E+00  4.4585812230E+00
                       3.5827916603E+00  4.5506220995E+00  1.4861937410E+00
            xcart      7.2280407408E-01  6.1410849342E+00  2.8084991509E+00
                       8.4271194063E+00  5.4805352843E+00  8.4254974527E+00
                       5.7999842267E+00  2.1437240655E+00  2.8084991509E+00
                       3.3499392537E+00  9.4778961530E+00  8.4254974527E+00
                       0.0000000000E+00  0.0000000000E+00  5.6169983018E+00
                       0.0000000000E+00  0.0000000000E+00  0.0000000000E+00
                       2.3794284512E+00  3.0221907162E+00  8.4254974527E+00
                       6.7704950292E+00  8.5994295023E+00  2.8084991509E+00
             xred      1.8446000000E-01  5.2841900000E-01  2.5000000000E-01
                       8.1554000000E-01  4.7158100000E-01  7.5000000000E-01
                       5.2841900000E-01  1.8446000000E-01  2.5000000000E-01
                       4.7158100000E-01  8.1554000000E-01  7.5000000000E-01
                       0.0000000000E+00  0.0000000000E+00  5.0000000000E-01
                       0.0000000000E+00  0.0000000000E+00  0.0000000000E+00
                       2.6004900000E-01  2.6004900000E-01  7.5000000000E-01
                       7.3995100000E-01  7.3995100000E-01  2.5000000000E-01
            znucl       19.00000   47.00000   33.00000

 chkinp: Checking input parameters for consistency.

== DATASET  1 ==================================================================
-   mpi_nproc: 1, omp_nthreads: -1 (-1 if OMP is not activated)

--- !DatasetInfo
iteration_state: {dtset: 1, }
dimensions: {natom: 8, nkpt: 2, mband: 61, nsppol: 1, nspinor: 1, nspden: 1, mpw: 21065, }
cutoff_energies: {ecut:  43.0, pawecutdg:  -1.0, }
electrons: {nelect:   1.04000000E+02, charge:   0.00000000E+00, occopt:   1.00000000E+00, tsmear:   1.00000000E-02, }
meta: {optdriver: 1, rfelfd: 2, }
...

 Real(R)+Recip(G) space primitive vectors, cartesian coordinates (Bohr,Bohr^-1):
 R(1)= 11.9554637  0.0000000  0.0000000  G(1)=  0.0836438  0.0201922  0.0000000
 R(2)= -2.8055402 11.6216202  0.0000000  G(2)=  0.0000000  0.0860465  0.0000000
 R(3)=  0.0000000  0.0000000 11.2339966  G(3)=  0.0000000  0.0000000  0.0890155
 Unit cell volume ucvol=  1.5608724E+03 bohr^3
 Angles (23,13,12)=  9.00000000E+01  9.00000000E+01  1.03571932E+02 degrees

 getcut: wavevector=  0.0000  0.0000  0.0000  ngfft=  72  72  72
         ecut(hartree)=     43.000   => boxcut(ratio)=   2.04034

--- Pseudopotential description ------------------------------------------------
- pspini: atom type   1  psp file is /scratch/users/j/a/jabreu/pseudos/PBEsol/K.psp8
- pspatm: opening atomic psp file    /scratch/users/j/a/jabreu/pseudos/PBEsol/K.psp8
- K     ONCVPSP-3.3.0  r_core=   1.36296   1.46408   1.61068
- 19.00000   9.00000    180112                znucl, zion, pspdat
    8 -116133    2    4       400   0.00000   pspcod,pspxc,lmax,lloc,mmax,r2well
    3.99000000000000    5.00000000000000    0.00000000000000   rchrg,fchrg,qchrg
     nproj     2     2     2
     extension_switch     1
  pspatm : epsatm=    8.32487830
         --- l  ekb(1:nproj) -->
             0   10.921326    0.816676
             1    4.431000    0.560368
             2   -3.384038   -1.043186
 pspatm: atomic psp has been read  and splines computed

- pspini: atom type   2  psp file is /scratch/users/j/a/jabreu/pseudos/PBEsol/Ag.psp8
- pspatm: opening atomic psp file    /scratch/users/j/a/jabreu/pseudos/PBEsol/Ag.psp8
- Ag    ONCVPSP-3.3.0  r_core=   1.41384   1.46535   1.61207
- 47.00000  19.00000    180112                znucl, zion, pspdat
    8 -116133    2    4       600   0.00000   pspcod,pspxc,lmax,lloc,mmax,r2well
    5.99000000000000    7.00000000000000    0.00000000000000   rchrg,fchrg,qchrg
     nproj     2     2     2
     extension_switch     1
  pspatm : epsatm=   27.64581383
         --- l  ekb(1:nproj) -->
             0    9.559407   -0.398585
             1    3.418858   -0.136622
             2   -1.644397   -0.401551
 pspatm: atomic psp has been read  and splines computed

- pspini: atom type   3  psp file is /scratch/users/j/a/jabreu/pseudos/PBEsol/As.psp8
- pspatm: opening atomic psp file    /scratch/users/j/a/jabreu/pseudos/PBEsol/As.psp8
- As    ONCVPSP-3.3.0  r_core=   1.76603   1.70395   1.80867
- 33.00000  15.00000    180112                znucl, zion, pspdat
    8 -116133    2    4       600   0.00000   pspcod,pspxc,lmax,lloc,mmax,r2well
    5.99000000000000    5.00000000000000    0.00000000000000   rchrg,fchrg,qchrg
     nproj     2     2     2
     extension_switch     1
  pspatm : epsatm=   28.79155382
         --- l  ekb(1:nproj) -->
             0    8.270760    0.868950
             1    4.919053    0.756587
             2  -10.048665   -4.076802
 pspatm: atomic psp has been read  and splines computed

   1.52021218E+04                                ecore*ucvol(ha*bohr**3)

-inwffil : will read wavefunctions from disk file /scratch/users/j/a/jabreu/flow_simple_8atoms/flow/w426/t1/indata/in_WFK

 ==>  initialize data related to q vector <==

 The list of irreducible perturbations for this q vector is:
    1)    idir= 1    ipert=   9
    2)    idir= 2    ipert=   9
    3)    idir= 3    ipert=   9

 Perturbation wavevector (in red.coord.)   0.000000  0.000000  0.000000
 Perturbation : derivative vs k along direction   1

 dfpt_looppert : COMMENT -
  In a d/dk calculation, iscf is set to -3 automatically.
 The set of symmetries contains only one element for this perturbation.
 symkpt : not enough symmetry to change the number of k points.

[...]

 Initialisation of the first-order wave-functions :
  ireadwf=   0

--- !BeginCycle
iteration_state: {dtset: 1, }
solver: {iscf: 7, nstep: 2000, nline: 4, wfoptalg: 0, }
tolerances: {tolwfr: 1.00E-20, }
...

     iter   2DEtotal(Ha)        deltaE(Ha) residm    vres2
-ETOT  1  -44.845487736842     -4.485E+01 6.273E-02 0.000E+00
 ETOT  2  -44.961760343078     -1.163E-01 3.218E-03 0.000E+00
 ETOT  3  -44.963909838201     -2.149E-03 1.999E-04 0.000E+00
[...]
 ETOT 17  -44.963994895411      2.842E-14 2.445E-15 0.000E+00
 ETOT 18  -44.963994895411     -3.553E-14 6.852E-16 0.000E+00
 ETOT 19  -44.963994895411      2.132E-14 8.012E-17 0.000E+00
 ETOT 20  -44.963994895411     -7.105E-15 2.257E-17 0.000E+00
 ETOT 21  -44.963994895411      7.105E-15 2.635E-18 0.000E+00
 ETOT 22  -44.963994895411      0.000E+00 7.460E-19 0.000E+00
 ETOT 23  -44.963994895411      0.000E+00 8.693E-20 0.000E+00
 ETOT 24  -44.963994895411      1.421E-14 2.472E-20 0.000E+00
 ETOT 25  -44.963994895411     -7.105E-15 9.898E-21 0.000E+00

 At SCF step   25   max residual=  9.90E-21 < tolwfr=  1.00E-20 =>converged.

 ----iterations are completed or convergence reached----

 dfpt_looppert: DFPT cycle converged with prtwf=-1. Will skip output of the 1st-order WFK file.
 dfpt_looppert : ek2=    6.0798058865E+01
          f-sum rule ratio=    1.0473480258E+00
 prteigrs : about to open file /scratch/users/j/a/jabreu/flow_simple_8atoms/flow/w426/t1/tmpdata/tmp_1WF1_EIG
 Expectation of eigenvalue derivatives (hartree) for nkpt=   2  k points:
  (in case of degenerate eigenvalues, averaged derivative)
 kpt#   1, nband= 61, wtk=  0.50000, kpt= -0.5000  0.5000  0.0000 (reduced coord)
   0.00000    0.00000   -0.00000    0.00000   -0.00000    0.00000   -0.00000   -0.00000
   0.00000   -0.00000   -0.00000   -0.00000   -0.00000    0.00000    0.00000   -0.00000
   0.00000    0.00000    0.00000    0.00000    0.00000    0.00000   -0.00000    0.00000
  -0.00000   -0.00000   -0.00000   -0.00000    0.00000    0.00000    0.00000    0.00000
  -0.00000    0.00000   -0.00000    0.00000    0.00000   -0.00000   -0.00000    0.00000
   0.00000    0.00000    0.00000    0.00000    0.00000    0.00000   -0.00000    0.00000
  -0.00000   -0.00000   -0.00000   -0.00000    0.00000    0.00000    0.00000    0.00000
  -0.00000   -0.00000    0.00000   -0.00000   -0.00000
 prteigrs : prtvol=0 or 1, do not print more k-points.

 Eight components of 2nd-order total energy (hartree) are
 1,2,3: 0th-order hamiltonian combined with 1st-order wavefunctions
     kin0=   6.00122718E+01 eigvalue=   5.36219501E+00  local=  -2.98670729E+01
 4,5,6: 1st-order hamiltonian combined with 1st and 0th-order wfs
     kin1=  -6.36767269E+01  Hartree=   0.00000000E+00     xc=   0.00000000E+00
 7,8,9: eventually, occupation + non-local contributions
    edocc=   6.04269256E+00     enl0=   3.41390843E+00   enl1=  -2.62512629E+01
 1-9 gives the relaxation energy (to be shifted if some occ is /=2.0)
   erelax=  -4.49639949E+01
  No Ewald or frozen-wf contrib.: the relaxation energy is the total one
 2DEtotal=   -0.4496399490E+02 Ha. Also 2DEtotal=   -0.122353252498E+04 eV
    (  non-var. 2DEtotal :   -4.4963994895E+01 Ha)

 Perturbation wavevector (in red.coord.)   0.000000  0.000000  0.000000
 Perturbation : derivative vs k along direction   2
 The set of symmetries contains only one element for this perturbation.
 symkpt : not enough symmetry to change the number of k points.

[...]

 Perturbation wavevector (in red.coord.)   0.000000  0.000000  0.000000
 Perturbation : derivative vs k along direction   3
 The set of symmetries contains only one element for this perturbation.
 symkpt : not enough symmetry to change the number of k points.

-inwffil : will read wavefunctions from disk file /scratch/users/j/a/jabreu/flow_simple_8atoms/flow/w426/t1/indata/in_WFK

 Initialisation of the first-order wave-functions :
  ireadwf=   0

--- !BeginCycle
iteration_state: {dtset: 1, }
solver: {iscf: 7, nstep: 2000, nline: 4, wfoptalg: 0, }
tolerances: {tolwfr: 1.00E-20, }
...

     iter   2DEtotal(Ha)        deltaE(Ha) residm    vres2
-ETOT  1  -50.382494308912     -5.038E+01 7.172E-02 0.000E+00
 ETOT  2  -50.481025707993     -9.853E-02 1.413E-02 0.000E+00
 ETOT  3  -50.482785812998     -1.760E-03 2.998E-04 0.000E+00
 ETOT  4  -50.482852153504     -6.634E-05 9.432E-05 0.000E+00
 ETOT  5  -50.482855269902     -3.116E-06 1.999E-06 0.000E+00
 ETOT  6  -50.482855432417     -1.625E-07 1.051E-06 0.000E+00
 ETOT  7  -50.482855441344     -8.927E-09 4.004E-08 0.000E+00
 ETOT  8  -50.482855441851     -5.067E-10 1.250E-08 0.000E+00
 ETOT  9  -50.482855441880     -2.942E-11 1.076E-09 0.000E+00
 ETOT 10  -50.482855441882     -1.826E-12 2.130E-10 0.000E+00
 ETOT 11  -50.482855441882     -1.492E-13 3.072E-11 0.000E+00
 ETOT 12  -50.482855441882      8.527E-14 6.214E-12 0.000E+00
 ETOT 13  -50.482855441882     -4.263E-14 8.900E-13 0.000E+00
 ETOT 14  -50.482855441882     -2.132E-14 1.825E-13 0.000E+00
 ETOT 15  -50.482855441882      2.132E-14 2.599E-14 0.000E+00
 ETOT 16  -50.482855441882      0.000E+00 5.377E-15 0.000E+00
 ETOT 17  -50.482855441882     -4.263E-14 7.612E-16 0.000E+00
 ETOT 18  -50.482855441882      5.684E-14 1.586E-16 0.000E+00
 ETOT 19  -50.482855441882      0.000E+00 2.234E-17 0.000E+00
 ETOT 20  -50.482855441882      0.000E+00 4.683E-18 0.000E+00
 ETOT 21  -50.482855441882      0.000E+00 6.562E-19 0.000E+00
 ETOT 22  -50.482855441882     -2.842E-14 1.382E-19 0.000E+00
 ETOT 23  -50.482855441882      2.842E-14 1.929E-20 0.000E+00
 ETOT 24  -50.482855441882      0.000E+00 9.891E-21 0.000E+00

 At SCF step   24   max residual=  9.89E-21 < tolwfr=  1.00E-20 =>converged.

 ----iterations are completed or convergence reached----

 dfpt_looppert: DFPT cycle converged with prtwf=-1. Will skip output of the 1st-order WFK file.
 dfpt_looppert : ek2=    6.5066057883E+01
          f-sum rule ratio=    1.1211502157E+00
 prteigrs : about to open file /scratch/users/j/a/jabreu/flow_simple_8atoms/flow/w426/t1/tmpdata/tmp_1WF1_EIG
 Expectation of eigenvalue derivatives (hartree) for nkpt=   2  k points:
  (in case of degenerate eigenvalues, averaged derivative)
 kpt#   1, nband= 61, wtk=  0.50000, kpt= -0.5000  0.5000  0.0000 (reduced coord)
  -0.00000   -0.00000   -0.00000   -0.00000   -0.00000    0.00000   -0.00000   -0.00000
  -0.00000    0.00000   -0.00000    0.00000    0.00000    0.00000    0.00000    0.00000
  -0.00000   -0.00000    0.00000   -0.00000   -0.00000    0.00000    0.00000   -0.00000
   0.00000   -0.00000    0.00000   -0.00000   -0.00000   -0.00000    0.00000   -0.00000
  -0.00000    0.00000    0.00000    0.00000    0.00000    0.00000   -0.00000   -0.00000
   0.00000   -0.00000    0.00000    0.00000    0.00000   -0.00000    0.00000    0.00000
  -0.00000   -0.00000    0.00000    0.00000    0.00000   -0.00000   -0.00000   -0.00000
   0.00000    0.00000   -0.00000   -0.00000   -0.00000
 prteigrs : prtvol=0 or 1, do not print more k-points.

 Eight components of 2nd-order total energy (hartree) are
 1,2,3: 0th-order hamiltonian combined with 1st-order wavefunctions
     kin0=   6.32285276E+01 eigvalue=   5.84855084E+00  local=  -3.11680484E+01
 4,5,6: 1st-order hamiltonian combined with 1st and 0th-order wfs
     kin1=  -7.29488248E+01  Hartree=   0.00000000E+00     xc=   0.00000000E+00
 7,8,9: eventually, occupation + non-local contributions
    edocc=   9.01794018E+00     enl0=   3.55588521E+00   enl1=  -2.80168860E+01
 1-9 gives the relaxation energy (to be shifted if some occ is /=2.0)
   erelax=  -5.04828554E+01
  No Ewald or frozen-wf contrib.: the relaxation energy is the total one
 2DEtotal=   -0.5048285544E+02 Ha. Also 2DEtotal=   -0.137370835778E+04 eV
    (  non-var. 2DEtotal :   -5.0482855442E+01 Ha)

 CALCULATION OF EFFECTIVE MASSES
 NOTE : Additional infos (eff. mass eigenvalues, eigenvectors and, if degenerate, average mass) are available in stdout.

 K-point (-0.500, 0.500, 0.000) | band =    52
 Effective mass tensor:
             -1.6588020842             -0.4695798028             -0.0000000203
             -0.4695798028             -1.8855218058             -0.0000000234
             -0.0000000203             -0.0000000234             -1.9212138882
 Effective mass tensor eigenvalues:
             -2.2552309352             -1.9212138882             -1.2890929548
 Angular average effective mass 1/(<1/m>)=  -1.7244778003
 Angular average effective mass for Frohlich model (<m**0.5>)**2=  -1.7546824354
 Effective masses along directions: (cart. coord. / red. coord. -> eff. mass)
    1:   1.000000  0.000000  0.000000 /   0.973553 -0.228460  0.000000 ->  -1.5418555760
    2:   0.000000  1.000000  0.000000 /   0.000000  1.000000  0.000000 ->  -1.7525914259
    3:   0.000000  0.000000  1.000000 /   0.000000  0.000000  1.000000 ->  -1.9212138882
    4:   0.577350  0.577350  0.577350 /   0.641933  0.473368  0.603195 ->  -2.1177299539
    5:   0.000000  0.707107  0.707107 /   0.000000  0.718996  0.695015 ->  -1.8330329086
    6:   0.707107  0.000000  0.707107 /   0.718325 -0.168566  0.674977 ->  -1.7107565422
    7:   0.707107  0.707107  0.000000 /   0.804837  0.593495  0.000000 ->  -2.2318763753

 K-point ( 0.020, 0.020, 0.000) | band =    53
 Effective mass tensor:
              0.7285339822              0.1878448331             -0.0000025646
              0.1878448331              0.8192306757              0.0000007893
             -0.0000025646              0.0000007893              0.1662154770
 Effective mass tensor eigenvalues:
              0.1662154770              0.5806411483              0.9671235096
 Angular average effective mass 1/(<1/m>)=   0.3419771812
 Angular average effective mass for Frohlich model (<m**0.5>)**2=   0.4067884889
 Effective masses along directions: (cart. coord. / red. coord. -> eff. mass)
    1:   1.000000  0.000000  0.000000 /   0.973553 -0.228460  0.000000 ->   0.6854622536
    2:   0.000000  1.000000  0.000000 /   0.000000  1.000000  0.000000 ->   0.7707968590
    3:   0.000000  0.000000  1.000000 /   0.000000  0.000000  1.000000 ->   0.1662154770
    4:   0.577350  0.577350  0.577350 /   0.641933  0.473368  0.603195 ->   0.3702094855
    5:   0.000000  0.707107  0.707107 /   0.000000  0.718996  0.695015 ->   0.2734622786
    6:   0.707107  0.000000  0.707107 /   0.718325 -0.168566  0.674977 ->   0.2675512033
    7:   0.707107  0.707107  0.000000 /   0.804837  0.593495  0.000000 ->   0.9582180478

 END OF EFFECTIVE MASSES SECTION

 ---- first-order wavefunction calculations are completed ----

 Total localisation tensor (bohr^2) in cartesian coordinates
  WARNING : still subject to testing - especially symmetries.
      direction              matrix element
   alpha     beta       real part   imaginary part
     1        1       1.2792496892    0.0000000000
     1        2      -0.2765843627    0.0000000000
     1        3       0.0000000000    0.0000000000
     2        1      -0.2765843627    0.0000000000
     2        2       1.1457181722    0.0000000000
     2        3       0.0000000000    0.0000000000
     3        1       0.0000000000    0.0000000000
     3        2       0.0000000000    0.0000000000
     3        3       1.7746465320    0.0000000000

 respfn : d/dk was computed, but no 2DTE, so no DDB output.

== END DATASET(S) ==============================================================

 -outvars: echo values of variables after computation  --------
            acell      1.0000000000E+00  1.0000000000E+00  1.0000000000E+00 Bohr
              amu      3.90983000E+01  1.07868200E+02  7.49215900E+01
             ecut      4.30000000E+01 Hartree
           etotal     -5.0482855442E+01
            fcart      0.0000000000E+00  0.0000000000E+00  0.0000000000E+00
                       0.0000000000E+00  0.0000000000E+00  0.0000000000E+00
                       0.0000000000E+00  0.0000000000E+00  0.0000000000E+00
                       0.0000000000E+00  0.0000000000E+00  0.0000000000E+00
                       0.0000000000E+00  0.0000000000E+00  0.0000000000E+00
                       0.0000000000E+00  0.0000000000E+00  0.0000000000E+00
                       0.0000000000E+00  0.0000000000E+00  0.0000000000E+00
                       0.0000000000E+00  0.0000000000E+00  0.0000000000E+00
-          fftalg         512
           irdden           1
           irdwfk           1
              ixc     -116133
              kpt     -5.00000000E-01  5.00000000E-01  0.00000000E+00
                       2.02483919E-02  2.02483919E-02  0.00000000E+00
           kptopt           0
P           mkmem           2
P          mkqmem           2
P          mk1mem           2
            natom           8
            nband          61
           nbdbuf           4
            ngfft          72      72      72
             nkpt           2
            nstep        2000
             nsym           8
           ntypat           3
              occ      2.000000  2.000000  2.000000  2.000000  2.000000  2.000000
                       2.000000  2.000000  2.000000  2.000000  2.000000  2.000000
                       2.000000  2.000000  2.000000  2.000000  2.000000  2.000000
                       2.000000  2.000000  2.000000  2.000000  2.000000  2.000000
                       2.000000  2.000000  2.000000  2.000000  2.000000  2.000000
                       2.000000  2.000000  2.000000  2.000000  2.000000  2.000000
                       2.000000  2.000000  2.000000  2.000000  2.000000  2.000000
                       2.000000  2.000000  2.000000  2.000000  2.000000  2.000000
                       2.000000  2.000000  2.000000  2.000000  0.000000  0.000000
                       0.000000  0.000000  0.000000  0.000000  0.000000  0.000000
                       0.000000
        optdriver           1
            prtwf          -1
            rfdir           1       1       1
           rfelfd           2
            rprim      1.1955463708E+01  0.0000000000E+00  0.0000000000E+00
                      -2.8055402275E+00  1.1621620219E+01  0.0000000000E+00
                       0.0000000000E+00  0.0000000000E+00  1.1233996604E+01
          spgroup          63
           strten      0.0000000000E+00  0.0000000000E+00  0.0000000000E+00
                       0.0000000000E+00  0.0000000000E+00  0.0000000000E+00
           symrel      1  0  0   0  1  0   0  0  1      -1  0  0   0 -1  0   0  0 -1
                       0 -1  0  -1  0  0   0  0 -1       0  1  0   1  0  0   0  0  1
                      -1  0  0   0 -1  0   0  0  1       1  0  0   0  1  0   0  0 -1
                       0  1  0   1  0  0   0  0 -1       0 -1  0  -1  0  0   0  0  1
            tnons      0.0000000  0.0000000  0.0000000     0.0000000  0.0000000  0.0000000
                       0.0000000  0.0000000  0.0000000     0.0000000  0.0000000  0.0000000
                       0.0000000  0.0000000  0.5000000     0.0000000  0.0000000  0.5000000
                       0.0000000  0.0000000  0.5000000     0.0000000  0.0000000  0.5000000
           tolwfr      1.00000000E-20
            typat      1  1  1  1  2  2  3  3
           useylm           1
              wtk        0.50000    0.50000
           xangst      3.8249144228E-01  3.2497221832E+00  1.4861937410E+00
                       4.4594395239E+00  2.9001743633E+00  4.4585812230E+00
                       3.0692194630E+00  1.1344099170E+00  1.4861937410E+00
                       1.7727115032E+00  5.0154866295E+00  4.4585812230E+00
                       0.0000000000E+00  0.0000000000E+00  2.9723874820E+00
                       0.0000000000E+00  0.0000000000E+00  0.0000000000E+00
                       1.2591393058E+00  1.5992744470E+00  4.4585812230E+00
                       3.5827916603E+00  4.5506220995E+00  1.4861937410E+00
            xcart      7.2280407408E-01  6.1410849342E+00  2.8084991509E+00
                       8.4271194063E+00  5.4805352843E+00  8.4254974527E+00
                       5.7999842267E+00  2.1437240655E+00  2.8084991509E+00
                       3.3499392537E+00  9.4778961530E+00  8.4254974527E+00
                       0.0000000000E+00  0.0000000000E+00  5.6169983018E+00
                       0.0000000000E+00  0.0000000000E+00  0.0000000000E+00
                       2.3794284512E+00  3.0221907162E+00  8.4254974527E+00
                       6.7704950292E+00  8.5994295023E+00  2.8084991509E+00
             xred      1.8446000000E-01  5.2841900000E-01  2.5000000000E-01
                       8.1554000000E-01  4.7158100000E-01  7.5000000000E-01
                       5.2841900000E-01  1.8446000000E-01  2.5000000000E-01
                       4.7158100000E-01  8.1554000000E-01  7.5000000000E-01
                       0.0000000000E+00  0.0000000000E+00  5.0000000000E-01
                       0.0000000000E+00  0.0000000000E+00  0.0000000000E+00
                       2.6004900000E-01  2.6004900000E-01  7.5000000000E-01
                       7.3995100000E-01  7.3995100000E-01  2.5000000000E-01
            znucl       19.00000   47.00000   33.00000

- Timing analysis has been suppressed with timopt=0

 Suggested references for the acknowledgment of ABINIT usage.

 Calculation completed.
.Delivered  14 WARNINGs and  11 COMMENTs to log file.