.Version 9.5.1 of ABINIT

 ABINIT is a project of the Universite Catholique de Louvain,
 Corning Inc. and other collaborators, see ~abinit/doc/developers/contributors.txt .
 acknowledgments of the ABINIT effort.

.Starting date : Wed  5 May 2021.
- ( at 20h04 )

- input  file    -> /scratch/users/j/a/jabreu/flow_simple_7atoms/flow/w182/t1/run.abi
- output file    -> /scratch/users/j/a/jabreu/flow_simple_7atoms/flow/w182/t1/run.abo
- root for input  files -> /scratch/users/j/a/jabreu/flow_simple_7atoms/flow/w182/t1/indata/in
- root for output files -> /scratch/users/j/a/jabreu/flow_simple_7atoms/flow/w182/t1/outdata/out

 Symmetries : space group I4/m m m (#139); Bravais tI (body-center tetrag.)
     intxc =       0      iscf =       7    lmnmax =      18     lnmax =       6
     mgfft =     120  mpssoang =       3    mqgrid =    3001     natom =       7
  nloc_mem =       1    nspden =       1   nspinor =       1    nsppol =       1
      nsym =      16    n1xccc =    2501    ntypat =       3    occopt =       1
   xclevel =       2
-    mband =          37        mffmem =           1         mkmem =           1
-   mkqmem =           1        mk1mem =           1           mpw =       25727
      nfft =     1728000          nkpt =           1
  Rough estimation (10% accuracy) of disk space for files :

------------- Echo of variables that govern the present computation ------------
-
- outvars: echo of selected default values
-   iomode0 =  0 , fftalg0 =512 , wfoptalg0 =  0
-
- outvars: echo of global parameters not present in the input file
-  max_nthreads =    0
-
 -outvars: echo values of preprocessed input variables --------
            acell      1.0000000000E+00  1.0000000000E+00  1.0000000000E+00 Bohr
              amu      8.54678000E+01  1.26904470E+02  1.59994000E+01
             ecut      4.40000000E+01 Hartree
-          fftalg         512
           irdden           1
           irdwfk           1
           istwfk        1
              ixc     -116133
           kptopt           0
P           mkmem           1
P          mkqmem           1
P          mk1mem           1
            natom           7
            nband          37
           nbdbuf           4
            ngfft         120     120     120
             nkpt           1
            nstep        2000
             nsym          16
           ntypat           3
              occ      2.000000  2.000000  2.000000  2.000000  2.000000  2.000000
                       2.000000  2.000000  2.000000  2.000000  2.000000  2.000000
                       2.000000  2.000000  2.000000  2.000000  2.000000  2.000000
                       2.000000  2.000000  2.000000  2.000000  2.000000  2.000000
                       2.000000  2.000000  2.000000  2.000000  0.000000  0.000000
                       0.000000  0.000000  0.000000  0.000000  0.000000  0.000000
                       0.000000
        optdriver           1
            prtwf          -1
            rfdir           1       1       1
           rfelfd           2
            rprim      9.9925815656E+00  0.0000000000E+00 -1.5621687351E+01
                      -8.5476494610E-01  9.9559561686E+00 -1.5621687351E+01
                       0.0000000000E+00  0.0000000000E+00  1.8544239052E+01
          spgroup         139
           symrel      1  0  0   0  1  0   0  0  1      -1  0  0   0 -1  0   0  0 -1
                       0  0  1  -1 -1 -1   1  0  0       0  0 -1   1  1  1  -1  0  0
                       0  1  0   1  0  0  -1 -1 -1       0 -1  0  -1  0  0   1  1  1
                      -1 -1 -1   0  0  1   0  1  0       1  1  1   0  0 -1   0 -1  0
                       0  1  0   1  0  0   0  0  1       0 -1  0  -1  0  0   0  0 -1
                       0  0  1  -1 -1 -1   0  1  0       0  0 -1   1  1  1   0 -1  0
                       1  0  0   0  1  0  -1 -1 -1      -1  0  0   0 -1  0   1  1  1
                      -1 -1 -1   0  0  1   1  0  0       1  1  1   0  0 -1  -1  0  0
           tolwfr      1.00000000E-20
            typat      1  1  1  1  2  2  3
           useylm           1
           xangst      2.6439232097E+00  0.0000000000E+00  7.7327387571E-01
                       7.1519338478E-01  7.7922706128E-01 -2.4453385130E+00
                       4.1203309065E+00  4.4892380329E+00 -1.4087943298E+01
                      -2.2616106409E-01  2.6342325471E+00  7.7327387571E-01
                       1.7215627003E+00  1.8757000167E+00 -5.8862451236E+00
                       3.1139615910E+00  3.3927650775E+00 -1.0647036688E+01
                       0.0000000000E+00  0.0000000000E+00  0.0000000000E+00
            xcart      4.9962907828E+00  0.0000000000E+00  1.4612758508E+00
                       1.3515196293E+00  1.4725257412E+00 -4.6210200918E+00
                       7.7862969902E+00  8.4834304274E+00 -2.6622354610E+01
                      -4.2738247305E-01  4.9779780843E+00  1.4612758508E+00
                       3.2532820241E+00  3.5445593390E+00 -1.1123391235E+01
                       5.8845345954E+00  6.4113968296E+00 -2.0119983467E+01
                       0.0000000000E+00  0.0000000000E+00  0.0000000000E+00
             xred      5.0000000000E-01  0.0000000000E+00  5.0000000000E-01
                       1.4790400000E-01  1.4790400000E-01  1.3877787808E-17
                       8.5209600000E-01  8.5209600000E-01  0.0000000000E+00
                       0.0000000000E+00  5.0000000000E-01  5.0000000000E-01
                       3.5602400000E-01  3.5602400000E-01  1.1102230246E-16
                       6.4397600000E-01  6.4397600000E-01  0.0000000000E+00
                       0.0000000000E+00  0.0000000000E+00  0.0000000000E+00
            znucl       37.00000   53.00000    8.00000

 chkinp: Checking input parameters for consistency.

== DATASET  1 ==================================================================
-   mpi_nproc: 1, omp_nthreads: -1 (-1 if OMP is not activated)

--- !DatasetInfo
iteration_state: {dtset: 1, }
dimensions: {natom: 7, nkpt: 1, mband: 37, nsppol: 1, nspinor: 1, nspden: 1, mpw: 25727, }
cutoff_energies: {ecut:  44.0, pawecutdg:  -1.0, }
electrons: {nelect:   5.60000000E+01, charge:   0.00000000E+00, occopt:   1.00000000E+00, tsmear:   1.00000000E-02, }
meta: {optdriver: 1, rfelfd: 2, }
...

 Real(R)+Recip(G) space primitive vectors, cartesian coordinates (Bohr,Bohr^-1):
 R(1)=  9.9925816  0.0000000-15.6216874  G(1)=  0.1000742  0.0085918  0.0000000
 R(2)= -0.8547649  9.9559562-15.6216874  G(2)=  0.0000000  0.1004424  0.0000000
 R(3)=  0.0000000  0.0000000 18.5442391  G(3)=  0.0843026  0.0918505  0.0539251
 Unit cell volume ucvol=  1.8448867E+03 bohr^3
 Angles (23,13,12)=  1.47394545E+02  1.47394545E+02  4.67799469E+01 degrees

 getcut: wavevector=  0.0000  0.0000  0.0000  ngfft= 120 120 120
         ecut(hartree)=     44.000   => boxcut(ratio)=   2.16758

--- Pseudopotential description ------------------------------------------------
- pspini: atom type   1  psp file is /scratch/users/j/a/jabreu/pseudos/PBEsol/Rb.psp8
- pspatm: opening atomic psp file    /scratch/users/j/a/jabreu/pseudos/PBEsol/Rb.psp8
- Rb    ONCVPSP-3.3.0  r_core=   1.71227   1.75361   1.90633
- 37.00000   9.00000    180112                znucl, zion, pspdat
    8 -116133    2    4       600   0.00000   pspcod,pspxc,lmax,lloc,mmax,r2well
    5.99000000000000    7.00000000000000    0.00000000000000   rchrg,fchrg,qchrg
     nproj     2     2     2
     extension_switch     1
  pspatm : epsatm=   34.48400912
         --- l  ekb(1:nproj) -->
             0    8.196957   -0.477221
             1    3.231347   -0.378736
             2   -1.047201    0.996637
 pspatm: atomic psp has been read  and splines computed

- pspini: atom type   2  psp file is /scratch/users/j/a/jabreu/pseudos/PBEsol/I.psp8
- pspatm: opening atomic psp file    /scratch/users/j/a/jabreu/pseudos/PBEsol/I.psp8
- I     ONCVPSP-3.3.0  r_core=   2.02042   2.17032   2.27639
- 53.00000   7.00000    180112                znucl, zion, pspdat
    8 -116133    2    4       600   0.00000   pspcod,pspxc,lmax,lloc,mmax,r2well
    5.99000000000000    4.00000000000000    0.00000000000000   rchrg,fchrg,qchrg
     nproj     2     2     2
     extension_switch     1
  pspatm : epsatm=   18.14229533
         --- l  ekb(1:nproj) -->
             0    6.015861    0.935228
             1    4.063749    0.754139
             2    4.149534    0.722940
 pspatm: atomic psp has been read  and splines computed

- pspini: atom type   3  psp file is /scratch/users/j/a/jabreu/pseudos/PBEsol/O.psp8
- pspatm: opening atomic psp file    /scratch/users/j/a/jabreu/pseudos/PBEsol/O.psp8
- O     ONCVPSP-3.3.0  r_core=   1.35509   1.45563   1.26150
-  8.00000   6.00000    180112                znucl, zion, pspdat
    8 -116133    2    4       600   0.00000   pspcod,pspxc,lmax,lloc,mmax,r2well
    5.99000000000000    4.00000000000000    0.00000000000000   rchrg,fchrg,qchrg
     nproj     2     2     1
     extension_switch     1
  pspatm : epsatm=    6.22910522
         --- l  ekb(1:nproj) -->
             0    6.050032    0.820363
             1   -4.739617   -1.153841
             2   -1.335834
 pspatm: atomic psp has been read  and splines computed

   1.01051850E+04                                ecore*ucvol(ha*bohr**3)

-inwffil : will read wavefunctions from disk file /scratch/users/j/a/jabreu/flow_simple_7atoms/flow/w182/t1/indata/in_WFK

 ==>  initialize data related to q vector <==

 The list of irreducible perturbations for this q vector is:
    1)    idir= 1    ipert=   8
    2)    idir= 2    ipert=   8
    3)    idir= 3    ipert=   8

 Perturbation wavevector (in red.coord.)   0.000000  0.000000  0.000000
 Perturbation : derivative vs k along direction   1

 dfpt_looppert : COMMENT -
  In a d/dk calculation, iscf is set to -3 automatically.
 The set of symmetries contains only one element for this perturbation.
 symkpt : not enough symmetry to change the number of k points.

[...]

 Initialisation of the first-order wave-functions :
  ireadwf=   0

--- !BeginCycle
iteration_state: {dtset: 1, }
solver: {iscf: 7, nstep: 2000, nline: 4, wfoptalg: 0, }
tolerances: {tolwfr: 1.00E-20, }
...

     iter   2DEtotal(Ha)        deltaE(Ha) residm    vres2
-ETOT  1  -27.134433553533     -2.713E+01 5.880E-02 0.000E+00
 ETOT  2  -27.186783855092     -5.235E-02 7.251E-04 0.000E+00
 ETOT  3  -27.188175188922     -1.391E-03 2.511E-05 0.000E+00
 ETOT  4  -27.188234737324     -5.955E-05 1.193E-06 0.000E+00
 ETOT  5  -27.188237588846     -2.852E-06 5.181E-08 0.000E+00
 ETOT  6  -27.188237733885     -1.450E-07 3.009E-09 0.000E+00
 ETOT  7  -27.188237741594     -7.708E-09 1.340E-10 0.000E+00
 ETOT  8  -27.188237742015     -4.217E-10 8.751E-12 0.000E+00
 ETOT  9  -27.188237742039     -2.351E-11 3.933E-13 0.000E+00
 ETOT 10  -27.188237742040     -1.322E-12 2.713E-14 0.000E+00
 ETOT 11  -27.188237742040     -9.237E-14 1.236E-15 0.000E+00
 ETOT 12  -27.188237742040      3.553E-14 8.659E-17 0.000E+00
 ETOT 13  -27.188237742040     -7.105E-15 4.010E-18 0.000E+00
 ETOT 14  -27.188237742040      0.000E+00 2.816E-19 0.000E+00
 ETOT 15  -27.188237742040     -1.421E-14 1.322E-20 0.000E+00
 ETOT 16  -27.188237742040      2.132E-14 9.839E-21 0.000E+00

 At SCF step   16   max residual=  9.84E-21 < tolwfr=  1.00E-20 =>converged.

 ----iterations are completed or convergence reached----

 dfpt_looppert: DFPT cycle converged with prtwf=-1. Will skip output of the 1st-order WFK file.
 dfpt_looppert : ek2=    4.4607902978E+01
          f-sum rule ratio=    1.1627650498E+00
 prteigrs : about to open file /scratch/users/j/a/jabreu/flow_simple_7atoms/flow/w182/t1/tmpdata/tmp_1WF1_EIG
 Expectation of eigenvalue derivatives (hartree) for nkpt=   1  k points:
  (in case of degenerate eigenvalues, averaged derivative)
 kpt#   1, nband= 37, wtk=  1.00000, kpt=  0.0000  0.0000  0.0000 (reduced coord)
  -0.00000   -0.00000   -0.00000   -0.00000    0.00000   -0.00000    0.00000    0.00000
   0.00000    0.00000    0.00000   -0.00000   -0.00000    0.00000    0.00000    0.00000
   0.00000   -0.00000   -0.00000    0.00000   -0.00000   -0.00000   -0.00000   -0.00000
  -0.00000    0.00000   -0.00000   -0.00000   -0.00000   -0.00000    0.00000    0.00000
  -0.00000   -0.00000   -0.00000    0.00000    0.00003

 Eight components of 2nd-order total energy (hartree) are
 1,2,3: 0th-order hamiltonian combined with 1st-order wavefunctions
     kin0=   3.18158986E+01 eigvalue=   3.48579310E+00  local=  -1.79029253E+01
 4,5,6: 1st-order hamiltonian combined with 1st and 0th-order wfs
     kin1=  -5.18685105E+01  Hartree=   0.00000000E+00     xc=   0.00000000E+00
 7,8,9: eventually, occupation + non-local contributions
    edocc=   9.13677724E+00     enl0=   6.52694124E-01   enl1=  -2.50796496E+00
 1-9 gives the relaxation energy (to be shifted if some occ is /=2.0)
   erelax=  -2.71882377E+01
  No Ewald or frozen-wf contrib.: the relaxation energy is the total one
 2DEtotal=   -0.2718823774E+02 Ha. Also 2DEtotal=   -0.739829573676E+03 eV
    (  non-var. 2DEtotal :   -2.7188237742E+01 Ha)

 Perturbation wavevector (in red.coord.)   0.000000  0.000000  0.000000
 Perturbation : derivative vs k along direction   2
 The set of symmetries contains only one element for this perturbation.
 symkpt : not enough symmetry to change the number of k points.

[...]

 Perturbation wavevector (in red.coord.)   0.000000  0.000000  0.000000
 Perturbation : derivative vs k along direction   3
 The set of symmetries contains only one element for this perturbation.
 symkpt : not enough symmetry to change the number of k points.

-inwffil : will read wavefunctions from disk file /scratch/users/j/a/jabreu/flow_simple_7atoms/flow/w182/t1/indata/in_WFK

 Initialisation of the first-order wave-functions :
  ireadwf=   0

--- !BeginCycle
iteration_state: {dtset: 1, }
solver: {iscf: 7, nstep: 2000, nline: 4, wfoptalg: 0, }
tolerances: {tolwfr: 1.00E-20, }
...

     iter   2DEtotal(Ha)        deltaE(Ha) residm    vres2
-ETOT  1  -50.106949970543     -5.011E+01 1.741E-01 0.000E+00
 ETOT  2  -50.173331751561     -6.638E-02 1.742E-03 0.000E+00
 ETOT  3  -50.175300295077     -1.969E-03 8.015E-05 0.000E+00
 ETOT  4  -50.175398229072     -9.793E-05 3.456E-06 0.000E+00
 ETOT  5  -50.175403321649     -5.093E-06 1.904E-07 0.000E+00
 ETOT  6  -50.175403594708     -2.731E-07 9.203E-09 0.000E+00
 ETOT  7  -50.175403609530     -1.482E-08 5.353E-10 0.000E+00
 ETOT  8  -50.175403610347     -8.172E-10 2.650E-11 0.000E+00
 ETOT  9  -50.175403610393     -4.542E-11 1.599E-12 0.000E+00
 ETOT 10  -50.175403610395     -2.480E-12 8.035E-14 0.000E+00
 ETOT 11  -50.175403610395     -2.558E-13 4.938E-15 0.000E+00
 ETOT 12  -50.175403610395      3.553E-14 2.494E-16 0.000E+00
 ETOT 13  -50.175403610395      7.105E-15 1.581E-17 0.000E+00
 ETOT 14  -50.175403610395     -8.527E-14 8.283E-19 0.000E+00
 ETOT 15  -50.175403610395      6.395E-14 5.229E-20 0.000E+00
 ETOT 16  -50.175403610395     -5.684E-14 9.017E-21 0.000E+00

 At SCF step   16   max residual=  9.02E-21 < tolwfr=  1.00E-20 =>converged.

 ----iterations are completed or convergence reached----

 dfpt_looppert: DFPT cycle converged with prtwf=-1. Will skip output of the 1st-order WFK file.
 dfpt_looppert : ek2=    8.1584290201E+01
          f-sum rule ratio=    1.1740548734E+00
 prteigrs : about to open file /scratch/users/j/a/jabreu/flow_simple_7atoms/flow/w182/t1/tmpdata/tmp_1WF1_EIG
 Expectation of eigenvalue derivatives (hartree) for nkpt=   1  k points:
  (in case of degenerate eigenvalues, averaged derivative)
 kpt#   1, nband= 37, wtk=  1.00000, kpt=  0.0000  0.0000  0.0000 (reduced coord)
  -0.00000   -0.00000   -0.00000   -0.00000    0.00000   -0.00000    0.00000    0.00000
   0.00000    0.00000    0.00000   -0.00000   -0.00000    0.00000    0.00000    0.00000
   0.00000   -0.00000   -0.00000    0.00000    0.00000    0.00000   -0.00000   -0.00000
   0.00000    0.00000   -0.00000   -0.00000   -0.00000   -0.00000    0.00000   -0.00000
  -0.00000    0.00000    0.00000   -0.00000    0.00004

 Eight components of 2nd-order total energy (hartree) are
 1,2,3: 0th-order hamiltonian combined with 1st-order wavefunctions
     kin0=   5.82283621E+01 eigvalue=   6.21369019E+00  local=  -3.26957710E+01
 4,5,6: 1st-order hamiltonian combined with 1st and 0th-order wfs
     kin1=  -9.57844335E+01  Hartree=   0.00000000E+00     xc=   0.00000000E+00
 7,8,9: eventually, occupation + non-local contributions
    edocc=   1.72450410E+01     enl0=   1.18408132E+00   enl1=  -4.56637372E+00
 1-9 gives the relaxation energy (to be shifted if some occ is /=2.0)
   erelax=  -5.01754036E+01
  No Ewald or frozen-wf contrib.: the relaxation energy is the total one
 2DEtotal=   -0.5017540361E+02 Ha. Also 2DEtotal=   -0.136534216797E+04 eV
    (  non-var. 2DEtotal :   -5.0175403610E+01 Ha)

 CALCULATION OF EFFECTIVE MASSES
 NOTE : Additional infos (eff. mass eigenvalues, eigenvectors and, if degenerate, average mass) are available in stdout.

 COMMENTS:
 - At k-point ( 0.000, 0.000, 0.000), bands    27 through    28
   are DEGENERATE (effective mass tensor is therefore not defined).
   See Section IIIB Eqs. (67)-(70) and Appendix E of PRB 93 205147 (2016).
 - Angular average effective mass for Frohlich model is to be averaged over degenerate bands. See later.
 - Associated theta integrals calculated with ntheta=   1000 points.

 K-point ( 0.000, 0.000, 0.000) | band =    27
 Transport equivalent effective mass tensor:
             -2.4814955798             -2.0518980682              6.4391485531
             -2.0518980682             -2.8338372507              7.0156881814
              6.4391485531              7.0156881814            -22.6144407319
 Transport equivalent effective mass tensor eigenvalues:
            -26.7333359855             -0.5982194823             -0.5982180945
 Angular average effective mass 1/(<1/m>)=  -0.7901285074
 Angular average effective mass for Frohlich model (<m**0.5>)**2=  -1.1084789480
 Effective masses along directions: (cart. coord. / red. coord. -> eff. mass)
    1:   1.000000  0.000000  0.000000 /   0.996361 -0.085229  0.000000 ->  -0.4923048156
    2:   0.000000  1.000000  0.000000 /   0.000000  1.000000  0.000000 ->  -0.4962975299
    3:   0.000000  0.000000  1.000000 /  -0.541597 -0.541597  0.642920 ->  -3.8117439726
    4:   0.577350  0.577350  0.577350 /  -0.275298 -0.318893  0.906928 ->  -0.7271691643
    5:   0.000000  0.707107  0.707107 /  -0.627369 -0.227536  0.744739 ->  -0.5868731787
    6:   0.707107  0.000000  0.707107 /  -0.221295 -0.647732  0.729022 ->  -0.5855211179
    7:   0.707107  0.707107  0.000000 /   0.739313  0.673362  0.000000 ->  -0.8184080926

 K-point ( 0.000, 0.000, 0.000) | band =    28
 Transport equivalent effective mass tensor:
            -11.1599156446             -6.9214431802             21.7206602493
             -6.9214431802            -12.3484035431             23.6654060068
             21.7206602493             23.6654060068            -79.0732620529
 Transport equivalent effective mass tensor eigenvalues:
            -92.9670804300             -4.8072537145             -4.8072470959
 Angular average effective mass 1/(<1/m>)=  -2.6295382514
 Angular average effective mass for Frohlich model (<m**0.5>)**2=  -3.7616991530
 Effective masses along directions: (cart. coord. / red. coord. -> eff. mass)
    1:   1.000000  0.000000  0.000000 /   0.996361 -0.085229  0.000000 ->  -4.4582865750
    2:   0.000000  1.000000  0.000000 /   0.000000  1.000000  0.000000 ->  -4.7803930741
    3:   0.000000  0.000000  1.000000 /  -0.541597 -0.541597  0.642920 ->  -5.1094216220
    4:   0.577350  0.577350  0.577350 /  -0.275298 -0.318893  0.906928 ->  -1.0532647748
    5:   0.000000  0.707107  0.707107 /  -0.627369 -0.227536  0.744739 ->  -3.7949402632
    6:   0.707107  0.000000  0.707107 /  -0.221295 -0.647732  0.729022 ->  -4.4677230663
    7:   0.707107  0.707107  0.000000 /   0.739313  0.673362  0.000000 ->  -1.1979518534

 Angular average effective mass for Frohlich model, averaged over degenerate bands.
 Value of     (<<m**0.5>>)**2 =     2.238545E+00
 Absolute Value of <<m**0.5>> =     1.496177E+00

 K-point ( 0.000, 0.000, 0.000) | band =    29
 Effective mass tensor:
              0.3148502463              0.0030883629             -0.0096917741
              0.0030883629              0.3153805469             -0.0105595114
             -0.0096917741             -0.0105595114              0.3451530990
 Effective mass tensor eigenvalues:
              0.3120156724              0.3120156725              0.3513525474
 Angular average effective mass 1/(<1/m>)=   0.3241113365
 Angular average effective mass for Frohlich model (<m**0.5>)**2=   0.3244096224
 Effective masses along directions: (cart. coord. / red. coord. -> eff. mass)
    1:   1.000000  0.000000  0.000000 /   0.996361 -0.085229  0.000000 ->   0.3145533650
    2:   0.000000  1.000000  0.000000 /   0.000000  1.000000  0.000000 ->   0.3150327149
    3:   0.000000  0.000000  1.000000 /  -0.541597 -0.541597  0.642920 ->   0.3445075176
    4:   0.577350  0.577350  0.577350 /  -0.275298 -0.318893  0.906928 ->   0.3135060922
    5:   0.000000  0.707107  0.707107 /  -0.627369 -0.227536  0.744739 ->   0.3189990445
    6:   0.707107  0.000000  0.707107 /  -0.221295 -0.647732  0.729022 ->   0.3195593709
    7:   0.707107  0.707107  0.000000 /   0.739313  0.673362  0.000000 ->   0.3176094701

 END OF EFFECTIVE MASSES SECTION

 ---- first-order wavefunction calculations are completed ----

 Total localisation tensor (bohr^2) in cartesian coordinates
  WARNING : still subject to testing - especially symmetries.
      direction              matrix element
   alpha     beta       real part   imaginary part
     1        1       1.6390686275    0.0000000000
     1        2      -0.1386763609    0.0000000000
     1        3      -2.3261954213    0.0000000000
     2        1      -0.1386763609    0.0000000000
     2        2       1.6152461291    0.0000000000
     2        3      -2.5344496899    0.0000000000
     3        1      -2.3261954213    0.0000000000
     3        2      -2.5344496899    0.0000000000
     3        3      18.3600048346    0.0000000000

 respfn : d/dk was computed, but no 2DTE, so no DDB output.

== END DATASET(S) ==============================================================

 -outvars: echo values of variables after computation  --------
            acell      1.0000000000E+00  1.0000000000E+00  1.0000000000E+00 Bohr
              amu      8.54678000E+01  1.26904470E+02  1.59994000E+01
             ecut      4.40000000E+01 Hartree
           etotal     -5.0175403610E+01
            fcart      0.0000000000E+00  0.0000000000E+00  0.0000000000E+00
                       0.0000000000E+00  0.0000000000E+00  0.0000000000E+00
                       0.0000000000E+00  0.0000000000E+00  0.0000000000E+00
                       0.0000000000E+00  0.0000000000E+00  0.0000000000E+00
                       0.0000000000E+00  0.0000000000E+00  0.0000000000E+00
                       0.0000000000E+00  0.0000000000E+00  0.0000000000E+00
                       0.0000000000E+00  0.0000000000E+00  0.0000000000E+00
-          fftalg         512
           irdden           1
           irdwfk           1
           istwfk        1
              ixc     -116133
           kptopt           0
P           mkmem           1
P          mkqmem           1
P          mk1mem           1
            natom           7
            nband          37
           nbdbuf           4
            ngfft         120     120     120
             nkpt           1
            nstep        2000
             nsym          16
           ntypat           3
              occ      2.000000  2.000000  2.000000  2.000000  2.000000  2.000000
                       2.000000  2.000000  2.000000  2.000000  2.000000  2.000000
                       2.000000  2.000000  2.000000  2.000000  2.000000  2.000000
                       2.000000  2.000000  2.000000  2.000000  2.000000  2.000000
                       2.000000  2.000000  2.000000  2.000000  0.000000  0.000000
                       0.000000  0.000000  0.000000  0.000000  0.000000  0.000000
                       0.000000
        optdriver           1
            prtwf          -1
            rfdir           1       1       1
           rfelfd           2
            rprim      9.9925815656E+00  0.0000000000E+00 -1.5621687351E+01
                      -8.5476494610E-01  9.9559561686E+00 -1.5621687351E+01
                       0.0000000000E+00  0.0000000000E+00  1.8544239052E+01
          spgroup         139
           strten      0.0000000000E+00  0.0000000000E+00  0.0000000000E+00
                       0.0000000000E+00  0.0000000000E+00  0.0000000000E+00
           symrel      1  0  0   0  1  0   0  0  1      -1  0  0   0 -1  0   0  0 -1
                       0  0  1  -1 -1 -1   1  0  0       0  0 -1   1  1  1  -1  0  0
                       0  1  0   1  0  0  -1 -1 -1       0 -1  0  -1  0  0   1  1  1
                      -1 -1 -1   0  0  1   0  1  0       1  1  1   0  0 -1   0 -1  0
                       0  1  0   1  0  0   0  0  1       0 -1  0  -1  0  0   0  0 -1
                       0  0  1  -1 -1 -1   0  1  0       0  0 -1   1  1  1   0 -1  0
                       1  0  0   0  1  0  -1 -1 -1      -1  0  0   0 -1  0   1  1  1
                      -1 -1 -1   0  0  1   1  0  0       1  1  1   0  0 -1  -1  0  0
           tolwfr      1.00000000E-20
            typat      1  1  1  1  2  2  3
           useylm           1
           xangst      2.6439232097E+00  0.0000000000E+00  7.7327387571E-01
                       7.1519338478E-01  7.7922706128E-01 -2.4453385130E+00
                       4.1203309065E+00  4.4892380329E+00 -1.4087943298E+01
                      -2.2616106409E-01  2.6342325471E+00  7.7327387571E-01
                       1.7215627003E+00  1.8757000167E+00 -5.8862451236E+00
                       3.1139615910E+00  3.3927650775E+00 -1.0647036688E+01
                       0.0000000000E+00  0.0000000000E+00  0.0000000000E+00
            xcart      4.9962907828E+00  0.0000000000E+00  1.4612758508E+00
                       1.3515196293E+00  1.4725257412E+00 -4.6210200918E+00
                       7.7862969902E+00  8.4834304274E+00 -2.6622354610E+01
                      -4.2738247305E-01  4.9779780843E+00  1.4612758508E+00
                       3.2532820241E+00  3.5445593390E+00 -1.1123391235E+01
                       5.8845345954E+00  6.4113968296E+00 -2.0119983467E+01
                       0.0000000000E+00  0.0000000000E+00  0.0000000000E+00
             xred      5.0000000000E-01  0.0000000000E+00  5.0000000000E-01
                       1.4790400000E-01  1.4790400000E-01  1.3877787808E-17
                       8.5209600000E-01  8.5209600000E-01  0.0000000000E+00
                       0.0000000000E+00  5.0000000000E-01  5.0000000000E-01
                       3.5602400000E-01  3.5602400000E-01  1.1102230246E-16
                       6.4397600000E-01  6.4397600000E-01  0.0000000000E+00
                       0.0000000000E+00  0.0000000000E+00  0.0000000000E+00
            znucl       37.00000   53.00000    8.00000

- Timing analysis has been suppressed with timopt=0

 Suggested references for the acknowledgment of ABINIT usage.

 Calculation completed.
.Delivered   6 WARNINGs and   5 COMMENTs to log file.