.Version 9.7.2 of ABINIT

 ABINIT is a project of the Universite Catholique de Louvain,
 Corning Inc. and other collaborators, see ~abinit/doc/developers/contributors.txt .
 acknowledgments of the ABINIT effort.

.Starting date : Wed  1 Dec 2021.
- ( at 21h20 )

- input  file    -> /scratch/users/j/a/jabreu/flow_simple_remain_atoms/flow/w176/t1/run.abi
- output file    -> /scratch/users/j/a/jabreu/flow_simple_remain_atoms/flow/w176/t1/run.abo
- root for input  files -> /scratch/users/j/a/jabreu/flow_simple_remain_atoms/flow/w176/t1/indata/in
- root for output files -> /scratch/users/j/a/jabreu/flow_simple_remain_atoms/flow/w176/t1/outdata/out

 Symmetries : space group P-3 m 1 (#164); Bravais hP (primitive hexag.)
     intxc =       0      iscf =       7    lmnmax =      18     lnmax =       6
     mgfft =      64  mpssoang =       3    mqgrid =    3001     natom =       9
  nloc_mem =       1    nspden =       1   nspinor =       1    nsppol =       1
      nsym =      12    n1xccc =    2501    ntypat =       3    occopt =       1
   xclevel =       2
-    mband =          46        mffmem =           1         mkmem =           2
-   mkqmem =           2        mk1mem =           2           mpw =       11234
      nfft =      221184          nkpt =           2
  Rough estimation (10% accuracy) of disk space for files :

------------- Echo of variables that govern the present computation ------------
-
- outvars: echo of selected default values
-   iomode0 =  0 , fftalg0 =512 , wfoptalg0 =  0
-
- outvars: echo of global parameters not present in the input file
-  max_nthreads =    0
-
 -outvars: echo values of preprocessed input variables --------
            acell      1.0000000000E+00  1.0000000000E+00  1.0000000000E+00 Bohr
              amu      3.90983000E+01  7.26100000E+01  1.89984032E+01
             ecut      4.20000000E+01 Hartree
-          fftalg         512
           irdden           1
           irdwfk           1
           istwfk        0    1
              ixc     -116133
              kpt      0.00000000E+00  0.00000000E+00  3.09523810E-01
                       0.00000000E+00  0.00000000E+00  0.00000000E+00
           kptopt           0
P           mkmem           2
P          mkqmem           2
P          mk1mem           2
            natom           9
            nband          46
           nbdbuf           4
            ngfft          64      64      54
             nkpt           2
            nstep        2000
             nsym          12
           ntypat           3
              occ      2.000000  2.000000  2.000000  2.000000  2.000000  2.000000
                       2.000000  2.000000  2.000000  2.000000  2.000000  2.000000
                       2.000000  2.000000  2.000000  2.000000  2.000000  2.000000
                       2.000000  2.000000  2.000000  2.000000  2.000000  2.000000
                       2.000000  2.000000  2.000000  2.000000  2.000000  2.000000
                       2.000000  2.000000  2.000000  2.000000  2.000000  2.000000
                       2.000000  0.000000  0.000000  0.000000  0.000000  0.000000
                       0.000000  0.000000  0.000000  0.000000
        optdriver           1
            prtwf          -1
            rfdir           1       1       1
           rfelfd           2
            rprim      1.0636798022E+01  0.0000000000E+00  0.0000000000E+00
                      -5.3183990108E+00  9.2117373016E+00  0.0000000000E+00
                       0.0000000000E+00  0.0000000000E+00  8.8104491538E+00
          spgroup         164
           symrel      1  0  0   0  1  0   0  0  1      -1  0  0   0 -1  0   0  0 -1
                      -1  0  0   1  1  0   0  0  1       1  0  0  -1 -1  0   0  0 -1
                       0  1  0  -1 -1  0   0  0  1       0 -1  0   1  1  0   0  0 -1
                       0 -1  0  -1  0  0   0  0  1       0  1  0   1  0  0   0  0 -1
                      -1 -1  0   1  0  0   0  0  1       1  1  0  -1  0  0   0  0 -1
                       1  1  0   0 -1  0   0  0  1      -1 -1  0   0  1  0   0  0 -1
           tolwfr      1.00000000E-20
            typat      1  1  2  3  3  3  3  3  3
           useylm           1
              wtk        0.50000    0.50000
           xangst      2.8143755427E+00  1.6248804772E+00  1.3725964983E+00
                       0.0000000000E+00  3.2497609544E+00  3.2896923914E+00
                       0.0000000000E+00  0.0000000000E+00  0.0000000000E+00
                       0.0000000000E+00  1.5033459170E+00  1.0175352256E+00
                      -1.5124397879E+00  4.1229684730E+00  1.0175352256E+00
                       1.5124397879E+00  4.1229684730E+00  1.0175352256E+00
                       2.8143755427E+00  3.3712955145E+00  3.6447536640E+00
                       4.3268153306E+00  7.5167295850E-01  3.6447536640E+00
                       1.3019357548E+00  7.5167295850E-01  3.6447536640E+00
            xcart      5.3183990108E+00  3.0705791005E+00  2.5938314727E+00
                       0.0000000000E+00  6.1411582011E+00  6.2166176811E+00
                       0.0000000000E+00  0.0000000000E+00  0.0000000000E+00
                       0.0000000000E+00  2.8409120661E+00  1.9228629069E+00
                      -2.8580969916E+00  7.7912812685E+00  1.9228629069E+00
                       2.8580969916E+00  7.7912812685E+00  1.9228629069E+00
                       5.3183990108E+00  6.3708252355E+00  6.8875862469E+00
                       8.1764960024E+00  1.4204560331E+00  6.8875862469E+00
                       2.4603020192E+00  1.4204560331E+00  6.8875862469E+00
             xred      6.6666666667E-01  3.3333333333E-01  2.9440400000E-01
                       3.3333333333E-01  6.6666666667E-01  7.0559600000E-01
                       0.0000000000E+00  0.0000000000E+00  0.0000000000E+00
                       1.5420066667E-01  3.0840133333E-01  2.1824800000E-01
                       1.5420066667E-01  8.4579933333E-01  2.1824800000E-01
                       6.9159866667E-01  8.4579933333E-01  2.1824800000E-01
                       8.4579933333E-01  6.9159866667E-01  7.8175200000E-01
                       8.4579933333E-01  1.5420066667E-01  7.8175200000E-01
                       3.0840133333E-01  1.5420066667E-01  7.8175200000E-01
            znucl       19.00000   32.00000    9.00000

 chkinp: Checking input parameters for consistency.

== DATASET  1 ==================================================================
-   mpi_nproc: 1, omp_nthreads: -1 (-1 if OMP is not activated)

--- !DatasetInfo
iteration_state: {dtset: 1, }
dimensions: {natom: 9, nkpt: 2, mband: 46, nsppol: 1, nspinor: 1, nspden: 1, mpw: 11234, }
cutoff_energies: {ecut:  42.0, pawecutdg:  -1.0, }
electrons: {nelect:   7.40000000E+01, charge:   0.00000000E+00, occopt:   1.00000000E+00, tsmear:   1.00000000E-02, }
meta: {optdriver: 1, rfelfd: 2, }
...

 Real(R)+Recip(G) space primitive vectors, cartesian coordinates (Bohr,Bohr^-1):
 R(1)= 10.6367980  0.0000000  0.0000000  G(1)=  0.0940133  0.0542786  0.0000000
 R(2)= -5.3183990  9.2117373  0.0000000  G(2)=  0.0000000  0.1085572  0.0000000
 R(3)=  0.0000000  0.0000000  8.8104492  G(3)=  0.0000000  0.0000000  0.1135016
 Unit cell volume ucvol=  8.6327767E+02 bohr^3
 Angles (23,13,12)=  9.00000000E+01  9.00000000E+01  1.20000000E+02 degrees

 getcut: wavevector=  0.0000  0.0000  0.0000  ngfft=  64  64  54
         ecut(hartree)=     42.000   => boxcut(ratio)=   2.06243

--- Pseudopotential description ------------------------------------------------
- pspini: atom type   1  psp file is /scratch/users/j/a/jabreu/pseudos/PBEsol/K.psp8
- pspatm: opening atomic psp file    /scratch/users/j/a/jabreu/pseudos/PBEsol/K.psp8
- K     ONCVPSP-3.3.0  r_core=   1.36296   1.46408   1.61068
- 19.00000   9.00000    180112                znucl, zion, pspdat
    8 -116133    2    4       400   0.00000   pspcod,pspxc,lmax,lloc,mmax,r2well
    3.99000000000000    5.00000000000000    0.00000000000000   rchrg,fchrg,qchrg
     nproj     2     2     2
     extension_switch     1
  pspatm : epsatm=    8.32487830
         --- l  ekb(1:nproj) -->
             0   10.921326    0.816676
             1    4.431000    0.560368
             2   -3.384038   -1.043186
 pspatm: atomic psp has been read  and splines computed

- pspini: atom type   2  psp file is /scratch/users/j/a/jabreu/pseudos/PBEsol/Ge.psp8
- pspatm: opening atomic psp file    /scratch/users/j/a/jabreu/pseudos/PBEsol/Ge.psp8
- Ge    ONCVPSP-3.3.0  r_core=   1.91022   1.82122   1.91022
- 32.00000  14.00000    180112                znucl, zion, pspdat
    8 -116133    2    4       600   0.00000   pspcod,pspxc,lmax,lloc,mmax,r2well
    5.99000000000000    5.00000000000000    0.00000000000000   rchrg,fchrg,qchrg
     nproj     2     2     2
     extension_switch     1
  pspatm : epsatm=   30.86751540
         --- l  ekb(1:nproj) -->
             0    6.339734    0.583066
             1    3.813259    0.738801
             2   -9.332373   -3.602819
 pspatm: atomic psp has been read  and splines computed

- pspini: atom type   3  psp file is /scratch/users/j/a/jabreu/pseudos/PBEsol/F.psp8
- pspatm: opening atomic psp file    /scratch/users/j/a/jabreu/pseudos/PBEsol/F.psp8
- F     ONCVPSP-3.3.0  r_core=   1.30942   1.45782   1.60379
-  9.00000   7.00000    180112                znucl, zion, pspdat
    8 -116133    2    4       600   0.00000   pspcod,pspxc,lmax,lloc,mmax,r2well
    5.99000000000000    2.50000000000000    0.00000000000000   rchrg,fchrg,qchrg
     nproj     2     2     1
     extension_switch     1
  pspatm : epsatm=    4.89824824
         --- l  ekb(1:nproj) -->
             0    6.506434    1.065875
             1   -3.978753   -1.295852
             2   -2.394754
 pspatm: atomic psp has been read  and splines computed

   5.69110035E+03                                ecore*ucvol(ha*bohr**3)

 ==>  initialize data related to q vector <==

 The list of irreducible perturbations for this q vector is:
    1)    idir= 1    ipert=  10
    2)    idir= 2    ipert=  10
    3)    idir= 3    ipert=  10

 Perturbation wavevector (in red.coord.)   0.000000  0.000000  0.000000
 Perturbation : derivative vs k along direction   1

 dfpt_looppert : COMMENT -
  In a d/dk calculation, iscf is set to -3 automatically.
 The set of symmetries contains only one element for this perturbation.
 symkpt : not enough symmetry to change the number of k points.

 Initialisation of the first-order wave-functions :
  ireadwf=   0

--- !BeginCycle
iteration_state: {dtset: 1, }
solver: {iscf: 7, nstep: 2000, nline: 4, wfoptalg: 0, }
tolerances: {tolwfr: 1.00E-20, }
...

     iter   2DEtotal(Ha)        deltaE(Ha) residm    vres2
-ETOT  1  -46.776407107269     -4.678E+01 8.084E-02 0.000E+00
 ETOT  2  -46.835190708107     -5.878E-02 2.707E-02 0.000E+00
 ETOT  3  -46.835617756919     -4.270E-04 3.781E-03 0.000E+00
 ETOT  4  -46.835624098279     -6.341E-06 2.608E-03 0.000E+00
 ETOT  5  -46.835624217957     -1.197E-07 5.654E-04 0.000E+00
 ETOT  6  -46.835624220523     -2.566E-09 4.162E-04 0.000E+00
 ETOT  7  -46.835624220582     -5.913E-11 8.866E-05 0.000E+00
[...]
 Perturbation : derivative vs k along direction   3
 The set of symmetries contains only one element for this perturbation.
 symkpt : not enough symmetry to change the number of k points.

 Initialisation of the first-order wave-functions :
  ireadwf=   0

--- !BeginCycle
iteration_state: {dtset: 1, }
solver: {iscf: 7, nstep: 2000, nline: 4, wfoptalg: 0, }
tolerances: {tolwfr: 1.00E-20, }
...

     iter   2DEtotal(Ha)        deltaE(Ha) residm    vres2
-ETOT  1  -49.508637400918     -4.951E+01 9.033E-02 0.000E+00
 ETOT  2  -49.565576565520     -5.694E-02 5.615E-03 0.000E+00
 ETOT  3  -49.565822846680     -2.463E-04 2.882E-03 0.000E+00
 ETOT  4  -49.565825436332     -2.590E-06 3.259E-04 0.000E+00
 ETOT  5  -49.565825472823     -3.649E-08 1.956E-04 0.000E+00
 ETOT  6  -49.565825473444     -6.209E-10 2.686E-05 0.000E+00
 ETOT  7  -49.565825473456     -1.211E-11 1.789E-05 0.000E+00
 ETOT  8  -49.565825473457     -2.629E-13 2.470E-06 0.000E+00
 ETOT  9  -49.565825473457     -2.842E-14 1.723E-06 0.000E+00
 ETOT 10  -49.565825473457      0.000E+00 2.451E-07 0.000E+00
 ETOT 11  -49.565825473457     -2.842E-14 1.749E-07 0.000E+00
 ETOT 12  -49.565825473457      7.105E-15 2.580E-08 0.000E+00
 ETOT 13  -49.565825473457      7.105E-15 1.857E-08 0.000E+00
 ETOT 14  -49.565825473457     -2.842E-14 2.840E-09 0.000E+00
 ETOT 15  -49.565825473457      2.132E-14 2.040E-09 0.000E+00
 ETOT 16  -49.565825473457      7.105E-15 3.220E-10 0.000E+00
 ETOT 17  -49.565825473457     -1.421E-14 2.293E-10 0.000E+00
 ETOT 18  -49.565825473457      1.421E-14 3.720E-11 0.000E+00
 ETOT 19  -49.565825473457      0.000E+00 2.618E-11 0.000E+00
 ETOT 20  -49.565825473457     -2.842E-14 4.343E-12 0.000E+00
 ETOT 21  -49.565825473457      2.842E-14 3.018E-12 0.000E+00
 ETOT 22  -49.565825473457      0.000E+00 5.099E-13 0.000E+00
 ETOT 23  -49.565825473457     -7.105E-15 3.502E-13 0.000E+00
 ETOT 24  -49.565825473457      7.105E-15 6.005E-14 0.000E+00
 ETOT 25  -49.565825473457     -1.421E-14 4.081E-14 0.000E+00
 ETOT 26  -49.565825473457     -1.421E-14 7.082E-15 0.000E+00
 ETOT 27  -49.565825473457      1.421E-14 4.769E-15 0.000E+00
 ETOT 28  -49.565825473457     -7.105E-15 8.358E-16 0.000E+00
 ETOT 29  -49.565825473457      7.105E-15 5.583E-16 0.000E+00
 ETOT 30  -49.565825473457     -7.105E-15 9.867E-17 0.000E+00
 ETOT 31  -49.565825473457      0.000E+00 6.545E-17 0.000E+00
 ETOT 32  -49.565825473457      7.105E-15 1.165E-17 0.000E+00
 ETOT 33  -49.565825473457     -1.421E-14 7.682E-18 0.000E+00
 ETOT 34  -49.565825473457      2.842E-14 1.376E-18 0.000E+00
 ETOT 35  -49.565825473457     -1.421E-14 9.023E-19 0.000E+00
 ETOT 36  -49.565825473457      7.105E-15 1.625E-19 0.000E+00
 ETOT 37  -49.565825473457      7.105E-15 1.060E-19 0.000E+00
 ETOT 38  -49.565825473457     -1.421E-14 1.919E-20 0.000E+00
 ETOT 39  -49.565825473457      0.000E+00 1.247E-20 0.000E+00
 ETOT 40  -49.565825473457      7.105E-15 9.861E-21 0.000E+00

 At SCF step   40   max residual=  9.86E-21 < tolwfr=  1.00E-20 =>converged.

 ----iterations are completed or convergence reached----

 dfpt_looppert: DFPT cycle converged with prtwf=-1. Will skip output of the 1st-order WFK file.
 dfpt_looppert : ek2=    7.5270595817E+01
          f-sum rule ratio=    1.0015120452E+00
 prteigrs : about to open file /scratch/users/j/a/jabreu/flow_simple_remain_atoms/flow/w176/t1/tmpdata/tmp_1WF1_EIG
 Expectation of eigenvalue derivatives (hartree) for nkpt=   2  k points:
  (in case of degenerate eigenvalues, averaged derivative)
 kpt#   1, nband= 46, wtk=  0.50000, kpt=  0.0000  0.0000  0.3095 (reduced coord)
   0.00270   -0.00152   -0.00060   -0.00060   -0.00001   -0.00001    0.00002    0.00654
   0.00523    0.00523   -0.01107   -0.00461   -0.00461    0.00291    0.00291    0.00640
  -0.00847   -0.00847   -0.01045    0.01182    0.00310    0.00337    0.00337   -0.02086
  -0.02086    0.06823   -0.00034   -0.00034   -0.09897    0.01314    0.01655    0.01655
   0.02037    0.02037   -0.01469   -0.00047   -0.00047    0.10818   -0.01753   -0.04188
  -0.04188   -0.06505   -0.06505    0.05293    0.01733    0.13811
 prteigrs : prtvol=0 or 1, do not print more k-points.

 Eight components of 2nd-order total energy (hartree) are
 1,2,3: 0th-order hamiltonian combined with 1st-order wavefunctions
     kin0=   6.42878165E+01 eigvalue=   5.35233100E+00  local=  -2.67490046E+01
 4,5,6: 1st-order hamiltonian combined with 1st and 0th-order wfs
     kin1=  -7.53844084E+01  Hartree=   0.00000000E+00     xc=   0.00000000E+00
 7,8,9: eventually, occupation + non-local contributions
    edocc=   5.07097195E+00     enl0=   1.60371062E+00   enl1=  -2.37472426E+01
 1-9 gives the relaxation energy (to be shifted if some occ is /=2.0)
   erelax=  -4.95658255E+01
  No Ewald or frozen-wf contrib.: the relaxation energy is the total one
 2DEtotal=   -0.4956582547E+02 Ha. Also 2DEtotal=   -0.134875470330E+04 eV
    (  non-var. 2DEtotal :   -4.9565825473E+01 Ha)

 CALCULATION OF EFFECTIVE MASSES
 NOTE : Additional infos (eff. mass eigenvalues, eigenvectors and, if degenerate, average mass) are available in stdout.

--- !WARNING
src_file: m_efmas.F90
src_line: 0
message: |
    Effective masses calculations require given k-point(s) to be band extrema for given bands, but max abs gradient of band(s) was found to be greater than 1e-5. Abinit will continue anyway.
...

[...]

--- !WARNING
src_file: m_efmas.F90
src_line: 0
message: |
    Effective masses calculations require given k-point(s) to be band extrema for given bands, but max abs gradient of band(s) was found to be greater than 1e-5. Abinit will continue anyway.
...

 COMMENTS:
 - At k-point ( 0.000, 0.000, 0.310), bands    36 through    37
   are DEGENERATE (effective mass tensor is therefore not defined).
   See Section IIIB Eqs. (67)-(70) and Appendix E of PRB 93 205147 (2016).
 - Angular average effective mass for Frohlich model is to be averaged over degenerate bands. See later.
 - Associated theta integrals calculated with ntheta=   1000 points.

 K-point ( 0.000, 0.000, 0.310) | band =    36
 Transport equivalent effective mass tensor:
             -2.7618173837              0.0000032189             -0.0000104558
              0.0000032189             -2.7618015077              0.0000265387
             -0.0000104558              0.0000265387             -7.8649373525
 Transport equivalent effective mass tensor eigenvalues:
             -7.8649373527             -2.7618180115             -2.7618008798
 Angular average effective mass 1/(<1/m>)=  -3.5232244921
 Angular average effective mass for Frohlich model (<m**0.5>)**2=  -3.7325545625
 Effective masses along directions: (cart. coord. / red. coord. -> eff. mass)
    1:   1.000000  0.000000  0.000000 /   0.894427 -0.447214  0.000000 ->  -2.7612767129
    2:   0.000000  1.000000  0.000000 /   0.000000  1.000000  0.000000 ->  -2.7612612087
    3:   0.000000  0.000000  1.000000 /   0.000000  0.000000  1.000000 ->  -7.8634659269
    4:   0.577350  0.577350  0.577350 /   0.741238  0.271312  0.613967 ->  -3.5376173597
    5:   0.000000  0.707107  0.707107 /   0.000000  0.722672  0.691191 ->  -4.0584988646
    6:   0.707107  0.000000  0.707107 /   0.718685 -0.359342  0.595286 ->  -4.0870040409
    7:   0.707107  0.707107  0.000000 /   0.939071  0.343724  0.000000 ->  -2.7612656260

 K-point ( 0.000, 0.000, 0.310) | band =    37
 Transport equivalent effective mass tensor:
            -43.7255842947              0.0000183053             -0.0000043352
              0.0000183053            -43.7256072445             -0.0000035266
             -0.0000043352             -0.0000035266             -7.9051435951
 Transport equivalent effective mass tensor eigenvalues:
            -43.7256173742            -43.7255741650             -7.9051435951
 Angular average effective mass 1/(<1/m>)= -17.3376448846
 Angular average effective mass for Frohlich model (<m**0.5>)**2= -21.6206567956
 Effective masses along directions: (cart. coord. / red. coord. -> eff. mass)
    1:   1.000000  0.000000  0.000000 /   0.894427 -0.447214  0.000000 -> -43.5907455685
    2:   0.000000  1.000000  0.000000 /   0.000000  1.000000  0.000000 -> -43.5907586293
    3:   0.000000  0.000000  1.000000 /   0.000000  0.000000  1.000000 ->  -7.8634741218
    4:   0.577350  0.577350  0.577350 /   0.741238  0.271312  0.613967 -> -16.9971173688
    5:   0.000000  0.707107  0.707107 /   0.000000  0.722672  0.691191 -> -13.6384691326
    6:   0.707107  0.000000  0.707107 /   0.718685 -0.359342  0.595286 -> -13.3266164665
    7:   0.707107  0.707107  0.000000 /   0.939071  0.343724  0.000000 -> -43.5907482581

 Angular average effective mass for Frohlich model, averaged over degenerate bands.
 Value of     (<<m**0.5>>)**2 =     1.082997E+01
 Absolute Value of <<m**0.5>> =     3.290892E+00

 K-point ( 0.000, 0.000, 0.000) | band =    38
 Effective mass tensor:
              0.6358359978             -0.0000000006             -0.0000000001
             -0.0000000006              0.6358359972              0.0000000001
             -0.0000000001              0.0000000001              0.7276836169
 Effective mass tensor eigenvalues:
              0.6358359968              0.6358359981              0.7276836169
 Angular average effective mass 1/(<1/m>)=   0.6637625145
 Angular average effective mass for Frohlich model (<m**0.5>)**2=   0.6645490227
 Effective masses along directions: (cart. coord. / red. coord. -> eff. mass)
    1:   1.000000  0.000000  0.000000 /   0.894427 -0.447214  0.000000 ->   0.6358359978
    2:   0.000000  1.000000  0.000000 /   0.000000  1.000000  0.000000 ->   0.6358359972
    3:   0.000000  0.000000  1.000000 /   0.000000  0.000000  1.000000 ->   0.7276836169
    4:   0.577350  0.577350  0.577350 /   0.741238  0.271312  0.613967 ->   0.6637625141
    5:   0.000000  0.707107  0.707107 /   0.000000  0.722672  0.691191 ->   0.6786663477
    6:   0.707107  0.000000  0.707107 /   0.718685 -0.359342  0.595286 ->   0.6786663478
    7:   0.707107  0.707107  0.000000 /   0.939071  0.343724  0.000000 ->   0.6358359969

 END OF EFFECTIVE MASSES SECTION

 ---- first-order wavefunction calculations are completed ----

 Total localisation tensor (bohr^2) in cartesian coordinates
  WARNING : still subject to testing - especially symmetries.
      direction              matrix element
   alpha     beta       real part   imaginary part
     1        1       0.8447219602    0.0000000000
     1        2      -0.2926197292    0.0000000000
     1        3       0.0000000000    0.0000000000
     2        1      -0.2926197292    0.0000000000
     2        2       0.5068322382    0.0000000000
     2        3       0.0000000000    0.0000000000
     3        1       0.0000000000    0.0000000000
     3        2       0.0000000000    0.0000000000
     3        3       0.4416572752    0.0000000000

 respfn : d/dk was computed, but no 2DTE, so no DDB output.

== END DATASET(S) ==============================================================

 -outvars: echo values of variables after computation  --------
            acell      1.0000000000E+00  1.0000000000E+00  1.0000000000E+00 Bohr
              amu      3.90983000E+01  7.26100000E+01  1.89984032E+01
             ecut      4.20000000E+01 Hartree
           etotal     -4.9565825473E+01
            fcart      0.0000000000E+00  0.0000000000E+00  0.0000000000E+00
                       0.0000000000E+00  0.0000000000E+00  0.0000000000E+00
                       0.0000000000E+00  0.0000000000E+00  0.0000000000E+00
                       0.0000000000E+00  0.0000000000E+00  0.0000000000E+00
                       0.0000000000E+00  0.0000000000E+00  0.0000000000E+00
                       0.0000000000E+00  0.0000000000E+00  0.0000000000E+00
                       0.0000000000E+00  0.0000000000E+00  0.0000000000E+00
                       0.0000000000E+00  0.0000000000E+00  0.0000000000E+00
                       0.0000000000E+00  0.0000000000E+00  0.0000000000E+00
-          fftalg         512
           irdden           1
           irdwfk           1
           istwfk        0    1
              ixc     -116133
              kpt      0.00000000E+00  0.00000000E+00  3.09523810E-01
                       0.00000000E+00  0.00000000E+00  0.00000000E+00
           kptopt           0
P           mkmem           2
P          mkqmem           2
P          mk1mem           2
            natom           9
            nband          46
           nbdbuf           4
            ngfft          64      64      54
             nkpt           2
            nstep        2000
             nsym          12
           ntypat           3
              occ      2.000000  2.000000  2.000000  2.000000  2.000000  2.000000
                       2.000000  2.000000  2.000000  2.000000  2.000000  2.000000
                       2.000000  2.000000  2.000000  2.000000  2.000000  2.000000
                       2.000000  2.000000  2.000000  2.000000  2.000000  2.000000
                       2.000000  2.000000  2.000000  2.000000  2.000000  2.000000
                       2.000000  2.000000  2.000000  2.000000  2.000000  2.000000
                       2.000000  0.000000  0.000000  0.000000  0.000000  0.000000
                       0.000000  0.000000  0.000000  0.000000
        optdriver           1
            prtwf          -1
            rfdir           1       1       1
           rfelfd           2
            rprim      1.0636798022E+01  0.0000000000E+00  0.0000000000E+00
                      -5.3183990108E+00  9.2117373016E+00  0.0000000000E+00
                       0.0000000000E+00  0.0000000000E+00  8.8104491538E+00
          spgroup         164
           strten      0.0000000000E+00  0.0000000000E+00  0.0000000000E+00
                       0.0000000000E+00  0.0000000000E+00  0.0000000000E+00
           symrel      1  0  0   0  1  0   0  0  1      -1  0  0   0 -1  0   0  0 -1
                      -1  0  0   1  1  0   0  0  1       1  0  0  -1 -1  0   0  0 -1
                       0  1  0  -1 -1  0   0  0  1       0 -1  0   1  1  0   0  0 -1
                       0 -1  0  -1  0  0   0  0  1       0  1  0   1  0  0   0  0 -1
                      -1 -1  0   1  0  0   0  0  1       1  1  0  -1  0  0   0  0 -1
                       1  1  0   0 -1  0   0  0  1      -1 -1  0   0  1  0   0  0 -1
           tolwfr      1.00000000E-20
            typat      1  1  2  3  3  3  3  3  3
           useylm           1
              wtk        0.50000    0.50000
           xangst      2.8143755427E+00  1.6248804772E+00  1.3725964983E+00
                       0.0000000000E+00  3.2497609544E+00  3.2896923914E+00
                       0.0000000000E+00  0.0000000000E+00  0.0000000000E+00
                       0.0000000000E+00  1.5033459170E+00  1.0175352256E+00
                      -1.5124397879E+00  4.1229684730E+00  1.0175352256E+00
                       1.5124397879E+00  4.1229684730E+00  1.0175352256E+00
                       2.8143755427E+00  3.3712955145E+00  3.6447536640E+00
                       4.3268153306E+00  7.5167295850E-01  3.6447536640E+00
                       1.3019357548E+00  7.5167295850E-01  3.6447536640E+00
            xcart      5.3183990108E+00  3.0705791005E+00  2.5938314727E+00
                       0.0000000000E+00  6.1411582011E+00  6.2166176811E+00
                       0.0000000000E+00  0.0000000000E+00  0.0000000000E+00
                       0.0000000000E+00  2.8409120661E+00  1.9228629069E+00
                      -2.8580969916E+00  7.7912812685E+00  1.9228629069E+00
                       2.8580969916E+00  7.7912812685E+00  1.9228629069E+00
                       5.3183990108E+00  6.3708252355E+00  6.8875862469E+00
                       8.1764960024E+00  1.4204560331E+00  6.8875862469E+00
                       2.4603020192E+00  1.4204560331E+00  6.8875862469E+00
             xred      6.6666666667E-01  3.3333333333E-01  2.9440400000E-01
                       3.3333333333E-01  6.6666666667E-01  7.0559600000E-01
                       0.0000000000E+00  0.0000000000E+00  0.0000000000E+00
                       1.5420066667E-01  3.0840133333E-01  2.1824800000E-01
                       1.5420066667E-01  8.4579933333E-01  2.1824800000E-01
                       6.9159866667E-01  8.4579933333E-01  2.1824800000E-01
                       8.4579933333E-01  6.9159866667E-01  7.8175200000E-01
                       8.4579933333E-01  1.5420066667E-01  7.8175200000E-01
                       3.0840133333E-01  1.5420066667E-01  7.8175200000E-01
            znucl       19.00000   32.00000    9.00000

- Timing analysis has been suppressed with timopt=0

 Suggested references for the acknowledgment of ABINIT usage.

 Calculation completed.
.Delivered   8 WARNINGs and   5 COMMENTs to log file.