.Version 9.5.1 of ABINIT

 ABINIT is a project of the Universite Catholique de Louvain,
 Corning Inc. and other collaborators, see ~abinit/doc/developers/contributors.txt .
 acknowledgments of the ABINIT effort.

.Starting date : Mon 26 Apr 2021.
- ( at 00h47 )

- input  file    -> /scratch/users/j/a/jabreu/flow_simple/flow/w108/t1/run.abi
- output file    -> /scratch/users/j/a/jabreu/flow_simple/flow/w108/t1/run.abo
- root for input  files -> /scratch/users/j/a/jabreu/flow_simple/flow/w108/t1/indata/in
- root for output files -> /scratch/users/j/a/jabreu/flow_simple/flow/w108/t1/outdata/out

 Symmetries : space group F-4 3 m (#216); Bravais cF (face-center cubic)
     intxc =       0      iscf =       7    lmnmax =      18     lnmax =       6
     mgfft =      40  mpssoang =       3    mqgrid =    3001     natom =       3
  nloc_mem =       1    nspden =       1   nspinor =       1    nsppol =       1
      nsym =      24    n1xccc =    2501    ntypat =       3    occopt =       1
   xclevel =       2
-    mband =          23        mffmem =           1         mkmem =           1
-   mkqmem =           1        mk1mem =           1           mpw =        2445
      nfft =       64000          nkpt =           1
  Rough estimation (10% accuracy) of disk space for files :

------------- Echo of variables that govern the present computation ------------
-
- outvars: echo of selected default values
-   iomode0 =  0 , fftalg0 =512 , wfoptalg0 =  0
-
- outvars: echo of global parameters not present in the input file
-  max_nthreads =    0
-
 -outvars: echo values of preprocessed input variables --------
            acell      1.0000000000E+00  1.0000000000E+00  1.0000000000E+00 Bohr
              amu      6.94100000E+00  6.53900000E+01  1.40067400E+01
             ecut      4.20000000E+01 Hartree
-          fftalg         512
           irdden           1
           irdwfk           1
           istwfk        1
              ixc     -116133
           kptopt           0
P           mkmem           1
P          mkqmem           1
P          mk1mem           1
            natom           3
            nband          23
           nbdbuf           4
            ngfft          40      40      40
             nkpt           1
            nstep         100
             nsym          24
           ntypat           3
              occ      2.000000  2.000000  2.000000  2.000000  2.000000  2.000000
                       2.000000  2.000000  2.000000  2.000000  2.000000  2.000000
                       2.000000  2.000000  0.000000  0.000000  0.000000  0.000000
                       0.000000  0.000000  0.000000  0.000000  0.000000
        optdriver           1
            prtwf          -1
            rfdir           1       1       1
           rfelfd           2
            rprim      5.6138440616E+00  0.0000000000E+00  3.2411543802E+00
                       1.8712813539E+00  5.2927829393E+00  3.2411543802E+00
                       0.0000000000E+00  0.0000000000E+00  6.4823087603E+00
          spgroup         216
           symrel      1  0  0   0  1  0   0  0  1       0 -1  1   0 -1  0   1 -1  0
                      -1  0  0  -1  0  1  -1  1  0       0  1 -1   1  0 -1   0  0 -1
                      -1  0  0  -1  1  0  -1  0  1       0 -1  1   1 -1  0   0 -1  0
                       1  0  0   0  0  1   0  1  0       0  1 -1   0  0 -1   1  0 -1
                      -1  0  1  -1  1  0  -1  0  0       0 -1  0   1 -1  0   0 -1  1
                       1  0 -1   0  0 -1   0  1 -1       0  1  0   0  0  1   1  0  0
                       1  0 -1   0  1 -1   0  0 -1       0 -1  0   0 -1  1   1 -1  0
                      -1  0  1  -1  0  0  -1  1  0       0  1  0   1  0  0   0  0  1
                       0  0 -1   0  1 -1   1  0 -1       1 -1  0   0 -1  1   0 -1  0
                       0  0  1   1  0  0   0  1  0      -1  1  0  -1  0  0  -1  0  1
                       0  0  1   0  1  0   1  0  0       1 -1  0   0 -1  0   0 -1  1
                       0  0 -1   1  0 -1   0  1 -1      -1  1  0  -1  0  1  -1  0  0
           tolwfr      1.00000000E-20
            typat      1  2  3
           useylm           1
           xangst      2.9707183300E+00  2.1006150761E+00  5.1454350825E+00
                       9.9023944333E-01  7.0020502537E-01  1.7151450275E+00
                       1.9804788867E+00  1.4004100507E+00  3.4302900550E+00
            xcart      5.6138440616E+00  3.9695872045E+00  9.7234631405E+00
                       1.8712813539E+00  1.3231957348E+00  3.2411543802E+00
                       3.7425627077E+00  2.6463914696E+00  6.4823087604E+00
             xred      7.5000000000E-01  7.5000000000E-01  7.5000000000E-01
                       2.5000000000E-01  2.5000000000E-01  2.5000000000E-01
                       5.0000000000E-01  5.0000000000E-01  5.0000000000E-01
            znucl        3.00000   30.00000    7.00000

 chkinp: Checking input parameters for consistency.

== DATASET  1 ==================================================================
-   mpi_nproc: 1, omp_nthreads: -1 (-1 if OMP is not activated)

--- !DatasetInfo
iteration_state: {dtset: 1, }
dimensions: {natom: 3, nkpt: 1, mband: 23, nsppol: 1, nspinor: 1, nspden: 1, mpw: 2445, }
cutoff_energies: {ecut:  42.0, pawecutdg:  -1.0, }
electrons: {nelect:   2.80000000E+01, charge:   0.00000000E+00, occopt:   1.00000000E+00, tsmear:   1.00000000E-02, }
meta: {optdriver: 1, rfelfd: 2, }
...

 Real(R)+Recip(G) space primitive vectors, cartesian coordinates (Bohr,Bohr^-1):
 R(1)=  5.6138441  0.0000000  3.2411544  G(1)=  0.1781311 -0.0629788  0.0000000
 R(2)=  1.8712814  5.2927829  3.2411544  G(2)=  0.0000000  0.1889365  0.0000000
 R(3)=  0.0000000  0.0000000  6.4823088  G(3)= -0.0890655 -0.0629788  0.1542660
 Unit cell volume ucvol=  1.9260792E+02 bohr^3
 Angles (23,13,12)=  6.00000000E+01  6.00000000E+01  6.00000000E+01 degrees

 getcut: wavevector=  0.0000  0.0000  0.0000  ngfft=  40  40  40
         ecut(hartree)=     42.000   => boxcut(ratio)=   2.11515

--- Pseudopotential description ------------------------------------------------
- pspini: atom type   1  psp file is /scratch/users/j/a/jabreu/pseudos/PBEsol/Li.psp8
- pspatm: opening atomic psp file    /scratch/users/j/a/jabreu/pseudos/PBEsol/Li.psp8
- Li    ONCVPSP-3.3.0  r_core=   1.40824   1.10935
-  3.00000   3.00000    180112                znucl, zion, pspdat
    8 -116133    1    4       400   0.00000   pspcod,pspxc,lmax,lloc,mmax,r2well
    3.99000000000000    0.00000000000000    0.00000000000000   rchrg,fchrg,qchrg
     nproj     2     2
     extension_switch     1
  pspatm : epsatm=    2.60859637
         --- l  ekb(1:nproj) -->
             0   -4.855856   -1.482423
             1   -2.171544   -0.427615
 pspatm: atomic psp has been read  and splines computed

- pspini: atom type   2  psp file is /scratch/users/j/a/jabreu/pseudos/PBEsol/Zn.psp8
- pspatm: opening atomic psp file    /scratch/users/j/a/jabreu/pseudos/PBEsol/Zn.psp8
- Zn    ONCVPSP-3.3.0  r_core=   1.35823   1.66358   1.85211
- 30.00000  20.00000    180112                znucl, zion, pspdat
    8 -116133    2    4       600   0.00000   pspcod,pspxc,lmax,lloc,mmax,r2well
    5.99000000000000    2.50000000000000    0.00000000000000   rchrg,fchrg,qchrg
     nproj     2     2     2
     extension_switch     1
  pspatm : epsatm=   26.57343589
         --- l  ekb(1:nproj) -->
             0    2.830835   -1.519107
             1   -4.626739   -1.324150
             2   -6.948510   -2.555500
 pspatm: atomic psp has been read  and splines computed

- pspini: atom type   3  psp file is /scratch/users/j/a/jabreu/pseudos/PBEsol/N.psp8
- pspatm: opening atomic psp file    /scratch/users/j/a/jabreu/pseudos/PBEsol/N.psp8
- N     ONCVPSP-3.3.0  r_core=   1.20551   1.35824
-  7.00000   5.00000    180112                znucl, zion, pspdat
    8 -116133    1    4       600   0.00000   pspcod,pspxc,lmax,lloc,mmax,r2well
    5.99000000000000    4.00000000000000    0.00000000000000   rchrg,fchrg,qchrg
     nproj     2     2
     extension_switch     1
  pspatm : epsatm=    5.26508895
         --- l  ekb(1:nproj) -->
             0    7.464189    0.625868
             1   -4.309714   -1.012941
 pspatm: atomic psp has been read  and splines computed

   9.64519394E+02                                ecore*ucvol(ha*bohr**3)

-inwffil : will read wavefunctions from disk file /scratch/users/j/a/jabreu/flow_simple/flow/w108/t1/indata/in_WFK

 ==>  initialize data related to q vector <==

 The list of irreducible perturbations for this q vector is:
    1)    idir= 1    ipert=   4
    2)    idir= 2    ipert=   4
    3)    idir= 3    ipert=   4

 Perturbation wavevector (in red.coord.)   0.000000  0.000000  0.000000
 Perturbation : derivative vs k along direction   1

 dfpt_looppert : COMMENT -
  In a d/dk calculation, iscf is set to -3 automatically.
 The set of symmetries contains only one element for this perturbation.
 symkpt : not enough symmetry to change the number of k points.

[...]

 Initialisation of the first-order wave-functions :
  ireadwf=   0

--- !BeginCycle
iteration_state: {dtset: 1, }
solver: {iscf: 7, nstep: 100, nline: 4, wfoptalg: 0, }
tolerances: {tolwfr: 1.00E-20, }
...

     iter   2DEtotal(Ha)        deltaE(Ha) residm    vres2
-ETOT  1  -78.681747074615     -7.868E+01 4.472E-02 0.000E+00
 ETOT  2  -78.707903044776     -2.616E-02 7.106E-05 0.000E+00
 ETOT  3  -78.707916880458     -1.384E-05 1.222E-06 0.000E+00
 ETOT  4  -78.707916897643     -1.719E-08 1.274E-08 0.000E+00
 ETOT  5  -78.707916897675     -3.260E-11 2.840E-10 0.000E+00
 ETOT  6  -78.707916897676     -1.847E-13 4.645E-12 0.000E+00
 ETOT  7  -78.707916897675      2.416E-13 1.243E-13 0.000E+00
 ETOT  8  -78.707916897675      2.842E-14 2.102E-15 0.000E+00
 ETOT  9  -78.707916897675     -1.421E-14 5.550E-17 0.000E+00
 ETOT 10  -78.707916897675      1.421E-14 9.532E-19 0.000E+00
 ETOT 11  -78.707916897675      0.000E+00 2.509E-20 0.000E+00
 ETOT 12  -78.707916897675      0.000E+00 9.991E-21 0.000E+00

 At SCF step   12   max residual=  9.99E-21 < tolwfr=  1.00E-20 =>converged.

 ----iterations are completed or convergence reached----

 dfpt_looppert: DFPT cycle converged with prtwf=-1. Will skip output of the 1st-order WFK file.
 dfpt_looppert : ek2=    7.8918640722E+01
          f-sum rule ratio=    2.0580543283E+00
 prteigrs : about to open file /scratch/users/j/a/jabreu/flow_simple/flow/w108/t1/tmpdata/tmp_1WF1_EIG
 Expectation of eigenvalue derivatives (hartree) for nkpt=   1  k points:
  (in case of degenerate eigenvalues, averaged derivative)
 kpt#   1, nband= 23, wtk=  1.00000, kpt=  0.0000  0.0000  0.0000 (reduced coord)
  -0.00000    0.00000    0.00000    0.00000    0.00000    0.00000    0.00000    0.00000
   0.00000   -0.00000   -0.00000   -0.00000   -0.00000   -0.00000   -0.00000   -0.00000
  -0.00000   -0.00000   -0.00000   -0.00000   -0.00000    0.00000    0.00000

 Eight components of 2nd-order total energy (hartree) are
 1,2,3: 0th-order hamiltonian combined with 1st-order wavefunctions
     kin0=   5.65449820E+01 eigvalue=   1.28756775E+00  local=  -1.87805489E+01
 4,5,6: 1st-order hamiltonian combined with 1st and 0th-order wfs
     kin1=  -1.62418850E+02  Hartree=   0.00000000E+00     xc=   0.00000000E+00
 7,8,9: eventually, occupation + non-local contributions
    edocc=   4.09973180E+01     enl0=  -1.34140201E+00   enl1=   5.00301633E+00
 1-9 gives the relaxation energy (to be shifted if some occ is /=2.0)
   erelax=  -7.87079169E+01
  No Ewald or frozen-wf contrib.: the relaxation energy is the total one
 2DEtotal=   -0.7870791690E+02 Ha. Also 2DEtotal=   -0.214175133952E+04 eV
    (  non-var. 2DEtotal :   -7.8707916898E+01 Ha)

 Perturbation wavevector (in red.coord.)   0.000000  0.000000  0.000000
 Perturbation : derivative vs k along direction   2
 The set of symmetries contains only one element for this perturbation.
 symkpt : not enough symmetry to change the number of k points.

[...]

 Perturbation wavevector (in red.coord.)   0.000000  0.000000  0.000000
 Perturbation : derivative vs k along direction   3
 The set of symmetries contains only one element for this perturbation.
 symkpt : not enough symmetry to change the number of k points.

-inwffil : will read wavefunctions from disk file /scratch/users/j/a/jabreu/flow_simple/flow/w108/t1/indata/in_WFK

 Initialisation of the first-order wave-functions :
  ireadwf=   0

--- !BeginCycle
iteration_state: {dtset: 1, }
solver: {iscf: 7, nstep: 100, nline: 4, wfoptalg: 0, }
tolerances: {tolwfr: 1.00E-20, }
...

     iter   2DEtotal(Ha)        deltaE(Ha) residm    vres2
-ETOT  1  -78.681926870822     -7.868E+01 1.094E-01 0.000E+00
 ETOT  2  -78.707903266232     -2.598E-02 9.241E-04 0.000E+00
 ETOT  3  -78.707916888185     -1.362E-05 2.787E-05 0.000E+00
 ETOT  4  -78.707916905032     -1.685E-08 1.943E-07 0.000E+00
 ETOT  5  -78.707916905064     -3.203E-11 6.585E-09 0.000E+00
 ETOT  6  -78.707916905064     -8.527E-14 5.010E-11 0.000E+00
 ETOT  7  -78.707916905064      2.416E-13 1.703E-12 0.000E+00
 ETOT  8  -78.707916905064     -1.137E-13 1.311E-14 0.000E+00
 ETOT  9  -78.707916905064      1.421E-14 5.182E-16 0.000E+00
 ETOT 10  -78.707916905064      0.000E+00 3.969E-18 0.000E+00
 ETOT 11  -78.707916905064      2.842E-14 1.763E-19 0.000E+00
 ETOT 12  -78.707916905064     -1.421E-14 8.769E-21 0.000E+00

 At SCF step   12   max residual=  8.77E-21 < tolwfr=  1.00E-20 =>converged.

 ----iterations are completed or convergence reached----

 dfpt_looppert: DFPT cycle converged with prtwf=-1. Will skip output of the 1st-order WFK file.
 dfpt_looppert : ek2=    7.8918640722E+01
          f-sum rule ratio=    2.0580543283E+00
 prteigrs : about to open file /scratch/users/j/a/jabreu/flow_simple/flow/w108/t1/tmpdata/tmp_1WF1_EIG
 Expectation of eigenvalue derivatives (hartree) for nkpt=   1  k points:
  (in case of degenerate eigenvalues, averaged derivative)
 kpt#   1, nband= 23, wtk=  1.00000, kpt=  0.0000  0.0000  0.0000 (reduced coord)
   0.00000   -0.00000   -0.00000   -0.00000    0.00000   -0.00000   -0.00000   -0.00000
  -0.00000   -0.00000   -0.00000    0.00000    0.00000    0.00000    0.00000   -0.00000
  -0.00000   -0.00000    0.00000    0.00000    0.00000    0.00000    0.00000

 Eight components of 2nd-order total energy (hartree) are
 1,2,3: 0th-order hamiltonian combined with 1st-order wavefunctions
     kin0=   5.65449820E+01 eigvalue=   1.28756775E+00  local=  -1.87805489E+01
 4,5,6: 1st-order hamiltonian combined with 1st and 0th-order wfs
     kin1=  -1.62418850E+02  Hartree=   0.00000000E+00     xc=   0.00000000E+00
 7,8,9: eventually, occupation + non-local contributions
    edocc=   4.09973181E+01     enl0=  -1.34140201E+00   enl1=   5.00301631E+00
 1-9 gives the relaxation energy (to be shifted if some occ is /=2.0)
   erelax=  -7.87079169E+01
  No Ewald or frozen-wf contrib.: the relaxation energy is the total one
 2DEtotal=   -0.7870791691E+02 Ha. Also 2DEtotal=   -0.214175133972E+04 eV
    (  non-var. 2DEtotal :   -7.8707916905E+01 Ha)

 CALCULATION OF EFFECTIVE MASSES
 NOTE : Additional infos (eff. mass eigenvalues, eigenvectors and, if degenerate, average mass) are available in stdout.

 COMMENTS:
 - At k-point ( 0.000, 0.000, 0.000), bands    12 through    14
   are DEGENERATE (effective mass tensor is therefore not defined).
   See Section IIIB Eqs. (67)-(70) and Appendix E of PRB 93 205147 (2016).
 - Angular average effective mass for Frohlich model is to be averaged over degenerate bands. See later.
 - Associated theta integrals calculated with ntheta=   1000 points.

 K-point ( 0.000, 0.000, 0.000) | band =    12
 Transport equivalent effective mass tensor:
             -0.1045412567             -0.0000000003              0.0000000007
             -0.0000000003             -0.1045412563             -0.0000000007
              0.0000000007             -0.0000000007             -0.1045412563
 Transport equivalent effective mass tensor eigenvalues:
             -0.1045412573             -0.1045412568             -0.1045412552
 Angular average effective mass 1/(<1/m>)=  -0.1030051204
 Angular average effective mass for Frohlich model (<m**0.5>)**2=  -0.1031103093
 Effective masses along directions: (cart. coord. / red. coord. -> eff. mass)
    1:   1.000000  0.000000  0.000000 /   0.948683  0.316228  0.000000 ->  -0.1007900471
    2:   0.000000  1.000000  0.000000 /   0.000000  1.000000  0.000000 ->  -0.0976538626
    3:   0.000000  0.000000  1.000000 /   0.408248  0.408248  0.816497 ->  -0.1010478106
    4:   0.577350  0.577350  0.577350 /   0.585539  0.688047  0.428644 ->  -0.1007171258
    5:   0.000000  0.707107  0.707107 /   0.289489  0.762222  0.578977 ->  -0.1052911100
    6:   0.707107  0.000000  0.707107 /   0.731423  0.422287  0.535439 ->  -0.1009184073
    7:   0.707107  0.707107  0.000000 /   0.616798  0.787122  0.000000 ->  -0.1111874213

[...]

 K-point ( 0.000, 0.000, 0.000) | band =    14
 Transport equivalent effective mass tensor:
            -11.7810662979              0.0000135745              0.0000000637
              0.0000135745            -11.7810639856              0.0000000367
              0.0000000637              0.0000000367            -11.7810514612
 Transport equivalent effective mass tensor eigenvalues:
            -11.7810787654            -11.7810515653            -11.7810514140
 Angular average effective mass 1/(<1/m>)=  -1.7225677452
 Angular average effective mass for Frohlich model (<m**0.5>)**2=  -1.9929341195
 Effective masses along directions: (cart. coord. / red. coord. -> eff. mass)
    1:   1.000000  0.000000  0.000000 /   0.948683  0.316228  0.000000 ->  -1.8246764200
    2:   0.000000  1.000000  0.000000 /   0.000000  1.000000  0.000000 ->  -1.7441308787
    3:   0.000000  0.000000  1.000000 /   0.408248  0.408248  0.816497 ->  -4.3590704094
    4:   0.577350  0.577350  0.577350 /   0.585539  0.688047  0.428644 ->  -2.1665448591
    5:   0.000000  0.707107  0.707107 /   0.289489  0.762222  0.578977 ->  -1.5271429499
    6:   0.707107  0.000000  0.707107 /   0.731423  0.422287  0.535439 ->  -2.8427373791
    7:   0.707107  0.707107  0.000000 /   0.616798  0.787122  0.000000 ->  -0.8610336818

 Angular average effective mass for Frohlich model, averaged over degenerate bands.
 Value of     (<<m**0.5>>)**2 =     8.081359E-01
 Absolute Value of <<m**0.5>> =     8.989638E-01

 K-point ( 0.000, 0.000, 0.000) | band =    15
 Effective mass tensor:
              0.1083436510              0.0000000000             -0.0000000000
              0.0000000000              0.1083436511             -0.0000000000
             -0.0000000000             -0.0000000000              0.1083436511
 Effective mass tensor eigenvalues:
              0.1083436510              0.1083436511              0.1083436511
 Angular average effective mass 1/(<1/m>)=   0.1083436511
 Angular average effective mass for Frohlich model (<m**0.5>)**2=   0.1083436511
 Effective masses along directions: (cart. coord. / red. coord. -> eff. mass)
    1:   1.000000  0.000000  0.000000 /   0.948683  0.316228  0.000000 ->   0.1083436510
    2:   0.000000  1.000000  0.000000 /   0.000000  1.000000  0.000000 ->   0.1083436511
    3:   0.000000  0.000000  1.000000 /   0.408248  0.408248  0.816497 ->   0.1083436511
    4:   0.577350  0.577350  0.577350 /   0.585539  0.688047  0.428644 ->   0.1083436511
    5:   0.000000  0.707107  0.707107 /   0.289489  0.762222  0.578977 ->   0.1083436511
    6:   0.707107  0.000000  0.707107 /   0.731423  0.422287  0.535439 ->   0.1083436510
    7:   0.707107  0.707107  0.000000 /   0.616798  0.787122  0.000000 ->   0.1083436511

 END OF EFFECTIVE MASSES SECTION

 ---- first-order wavefunction calculations are completed ----

 Total localisation tensor (bohr^2) in cartesian coordinates
  WARNING : still subject to testing - especially symmetries.
      direction              matrix element
   alpha     beta       real part   imaginary part
     1        1      15.3226172439    0.0000000000
     1        2       4.3338906203    0.0000000000
     1        3      10.6158206274    0.0000000000
     2        1       4.3338906203    0.0000000000
     2        2      12.2580937860    0.0000000000
     2        3       7.5065187489    0.0000000000
     3        1      10.6158206274    0.0000000000
     3        2       7.5065187489    0.0000000000
     3        3      27.5807110008    0.0000000000

 respfn : d/dk was computed, but no 2DTE, so no DDB output.

== END DATASET(S) ==============================================================

 -outvars: echo values of variables after computation  --------
            acell      1.0000000000E+00  1.0000000000E+00  1.0000000000E+00 Bohr
              amu      6.94100000E+00  6.53900000E+01  1.40067400E+01
             ecut      4.20000000E+01 Hartree
           etotal     -7.8707916905E+01
            fcart      0.0000000000E+00  0.0000000000E+00  0.0000000000E+00
                       0.0000000000E+00  0.0000000000E+00  0.0000000000E+00
                       0.0000000000E+00  0.0000000000E+00  0.0000000000E+00
-          fftalg         512
           irdden           1
           irdwfk           1
           istwfk        1
              ixc     -116133
           kptopt           0
P           mkmem           1
P          mkqmem           1
P          mk1mem           1
            natom           3
            nband          23
           nbdbuf           4
            ngfft          40      40      40
             nkpt           1
            nstep         100
             nsym          24
           ntypat           3
              occ      2.000000  2.000000  2.000000  2.000000  2.000000  2.000000
                       2.000000  2.000000  2.000000  2.000000  2.000000  2.000000
                       2.000000  2.000000  0.000000  0.000000  0.000000  0.000000
                       0.000000  0.000000  0.000000  0.000000  0.000000
        optdriver           1
            prtwf          -1
            rfdir           1       1       1
           rfelfd           2
            rprim      5.6138440616E+00  0.0000000000E+00  3.2411543802E+00
                       1.8712813539E+00  5.2927829393E+00  3.2411543802E+00
                       0.0000000000E+00  0.0000000000E+00  6.4823087603E+00
          spgroup         216
           strten      0.0000000000E+00  0.0000000000E+00  0.0000000000E+00
                       0.0000000000E+00  0.0000000000E+00  0.0000000000E+00
           symrel      1  0  0   0  1  0   0  0  1       0 -1  1   0 -1  0   1 -1  0
                      -1  0  0  -1  0  1  -1  1  0       0  1 -1   1  0 -1   0  0 -1
                      -1  0  0  -1  1  0  -1  0  1       0 -1  1   1 -1  0   0 -1  0
                       1  0  0   0  0  1   0  1  0       0  1 -1   0  0 -1   1  0 -1
                      -1  0  1  -1  1  0  -1  0  0       0 -1  0   1 -1  0   0 -1  1
                       1  0 -1   0  0 -1   0  1 -1       0  1  0   0  0  1   1  0  0
                       1  0 -1   0  1 -1   0  0 -1       0 -1  0   0 -1  1   1 -1  0
                      -1  0  1  -1  0  0  -1  1  0       0  1  0   1  0  0   0  0  1
                       0  0 -1   0  1 -1   1  0 -1       1 -1  0   0 -1  1   0 -1  0
                       0  0  1   1  0  0   0  1  0      -1  1  0  -1  0  0  -1  0  1
                       0  0  1   0  1  0   1  0  0       1 -1  0   0 -1  0   0 -1  1
                       0  0 -1   1  0 -1   0  1 -1      -1  1  0  -1  0  1  -1  0  0
           tolwfr      1.00000000E-20
            typat      1  2  3
           useylm           1
           xangst      2.9707183300E+00  2.1006150761E+00  5.1454350825E+00
                       9.9023944333E-01  7.0020502537E-01  1.7151450275E+00
                       1.9804788867E+00  1.4004100507E+00  3.4302900550E+00
            xcart      5.6138440616E+00  3.9695872045E+00  9.7234631405E+00
                       1.8712813539E+00  1.3231957348E+00  3.2411543802E+00
                       3.7425627077E+00  2.6463914696E+00  6.4823087604E+00
             xred      7.5000000000E-01  7.5000000000E-01  7.5000000000E-01
                       2.5000000000E-01  2.5000000000E-01  2.5000000000E-01
                       5.0000000000E-01  5.0000000000E-01  5.0000000000E-01
            znucl        3.00000   30.00000    7.00000

- Timing analysis has been suppressed with timopt=0

 Suggested references for the acknowledgment of ABINIT usage.

 Calculation completed.
.Delivered   6 WARNINGs and   5 COMMENTs to log file.