.Version 9.5.1 of ABINIT

 ABINIT is a project of the Universite Catholique de Louvain,
 Corning Inc. and other collaborators, see ~abinit/doc/developers/contributors.txt .
 acknowledgments of the ABINIT effort.

.Starting date : Tue 27 Apr 2021.
- ( at 18h28 )

- input  file    -> /scratch/users/j/a/jabreu/flow_simple_4atoms/flow/w161/t1/run.abi
- output file    -> /scratch/users/j/a/jabreu/flow_simple_4atoms/flow/w161/t1/run.abo
- root for input  files -> /scratch/users/j/a/jabreu/flow_simple_4atoms/flow/w161/t1/indata/in
- root for output files -> /scratch/users/j/a/jabreu/flow_simple_4atoms/flow/w161/t1/outdata/out

 Symmetries : space group R-3 m (#166); Bravais hR (rhombohedral)
     intxc =       0      iscf =       7    lmnmax =      25     lnmax =       7
     mgfft =      75  mpssoang =       4    mqgrid =    3001     natom =       4
  nloc_mem =       1    nspden =       1   nspinor =       1    nsppol =       1
      nsym =      12    n1xccc =    2501    ntypat =       3    occopt =       1
   xclevel =       2
-    mband =          30        mffmem =           1         mkmem =           2
-   mkqmem =           2        mk1mem =           2           mpw =        6376
      nfft =      421875          nkpt =           2
  Rough estimation (10% accuracy) of disk space for files :

------------- Echo of variables that govern the present computation ------------
-
- outvars: echo of selected default values
-   iomode0 =  0 , fftalg0 =512 , wfoptalg0 =  0
-
- outvars: echo of global parameters not present in the input file
-  max_nthreads =    0
-
 -outvars: echo values of preprocessed input variables --------
            acell      1.0000000000E+00  1.0000000000E+00  1.0000000000E+00 Bohr
              amu      4.00780000E+01  2.00590000E+02  1.59994000E+01
             ecut      4.40000000E+01 Hartree
-          fftalg         512
           irdden           1
           irdwfk           1
           istwfk        1    1
              ixc     -116133
              kpt      5.00000000E-01  5.00000000E-01  5.00000000E-01
                       0.00000000E+00  0.00000000E+00  0.00000000E+00
           kptopt           0
P           mkmem           2
P          mkqmem           2
P          mk1mem           2
            natom           4
            nband          30
           nbdbuf           4
            ngfft          75      75      75
             nkpt           2
            nstep         100
             nsym          12
           ntypat           3
              occ      2.000000  2.000000  2.000000  2.000000  2.000000  2.000000
                       2.000000  2.000000  2.000000  2.000000  2.000000  2.000000
                       2.000000  2.000000  2.000000  2.000000  2.000000  2.000000
                       2.000000  2.000000  2.000000  0.000000  0.000000  0.000000
                       0.000000  0.000000  0.000000  0.000000  0.000000  0.000000
        optdriver           1
            prtwf          -1
            rfdir           1       1       1
           rfelfd           2
            rprim      6.4683606529E+00  0.0000000000E+00  1.0477941781E+01
                       2.9736838479E+00  5.7442922897E+00  1.0477941781E+01
                       0.0000000000E+00  0.0000000000E+00  1.2313689678E+01
          spgroup         166
           symrel      1  0  0   0  1  0   0  0  1      -1  0  0   0 -1  0   0  0 -1
                       0  1  0   1  0  0   0  0  1       0 -1  0  -1  0  0   0  0 -1
                       0  0  1   1  0  0   0  1  0       0  0 -1  -1  0  0   0 -1  0
                       1  0  0   0  0  1   0  1  0      -1  0  0   0  0 -1   0 -1  0
                       0  1  0   0  0  1   1  0  0       0 -1  0   0  0 -1  -1  0  0
                       0  0  1   0  1  0   1  0  0       0  0 -1   0 -1  0  -1  0  0
           tolwfr      1.00000000E-20
            typat      1  2  3  3
           useylm           1
              wtk        0.50000    0.50000
           xangst      2.4982573762E+00  1.5198742796E+00  8.8027499491E+00
                       0.0000000000E+00  0.0000000000E+00  0.0000000000E+00
                       4.4693624599E+00  2.7190429272E+00  1.5748049237E+01
                       5.2715229243E-01  3.2070563199E-01  1.8574506613E+00
            xcart      4.7210222504E+00  2.8721461448E+00  1.6634786620E+01
                       0.0000000000E+00  0.0000000000E+00  0.0000000000E+00
                       8.4458710378E+00  5.1382464760E+00  2.9759500185E+01
                       9.9617346301E-01  6.0604581373E-01  3.5100730551E+00
             xred      5.0000000000E-01  5.0000000000E-01  5.0000000000E-01
                       0.0000000000E+00  0.0000000000E+00  0.0000000000E+00
                       8.9449600000E-01  8.9449600000E-01  8.9449600000E-01
                       1.0550400000E-01  1.0550400000E-01  1.0550400000E-01
            znucl       20.00000   80.00000    8.00000

 chkinp: Checking input parameters for consistency.

== DATASET  1 ==================================================================
-   mpi_nproc: 1, omp_nthreads: -1 (-1 if OMP is not activated)

--- !DatasetInfo
iteration_state: {dtset: 1, }
dimensions: {natom: 4, nkpt: 2, mband: 30, nsppol: 1, nspinor: 1, nspden: 1, mpw: 6376, }
cutoff_energies: {ecut:  44.0, pawecutdg:  -1.0, }
electrons: {nelect:   4.20000000E+01, charge:   0.00000000E+00, occopt:   1.00000000E+00, tsmear:   1.00000000E-02, }
meta: {optdriver: 1, rfelfd: 2, }
...

 Real(R)+Recip(G) space primitive vectors, cartesian coordinates (Bohr,Bohr^-1):
 R(1)=  6.4683607  0.0000000 10.4779418  G(1)=  0.1545987 -0.0800321  0.0000000
 R(2)=  2.9736838  5.7442923 10.4779418  G(2)=  0.0000000  0.1740858  0.0000000
 R(3)=  0.0000000  0.0000000 12.3136897  G(3)= -0.1315508 -0.0800321  0.0812104
 Unit cell volume ucvol=  4.5752935E+02 bohr^3
 Angles (23,13,12)=  3.16883290E+01  3.16883290E+01  3.16883290E+01 degrees

 getcut: wavevector=  0.0000  0.0000  0.0000  ngfft=  75  75  75
         ecut(hartree)=     44.000   => boxcut(ratio)=   2.01343

--- Pseudopotential description ------------------------------------------------
- pspini: atom type   1  psp file is /scratch/users/j/a/jabreu/pseudos/PBEsol/Ca.psp8
- pspatm: opening atomic psp file    /scratch/users/j/a/jabreu/pseudos/PBEsol/Ca.psp8
- Ca    ONCVPSP-3.3.0  r_core=   1.45885   1.45885   1.85192
- 20.00000  10.00000    180112                znucl, zion, pspdat
    8 -116133    2    4       400   0.00000   pspcod,pspxc,lmax,lloc,mmax,r2well
    3.99000000000000    6.00000000000000    0.00000000000000   rchrg,fchrg,qchrg
     nproj     2     2     2
     extension_switch     1
  pspatm : epsatm=   12.46045226
         --- l  ekb(1:nproj) -->
             0   10.054847    0.973777
             1    2.998958    0.458102
             2   -3.447298   -1.091650
 pspatm: atomic psp has been read  and splines computed

- pspini: atom type   2  psp file is /scratch/users/j/a/jabreu/pseudos/PBEsol/Hg.psp8
- pspatm: opening atomic psp file    /scratch/users/j/a/jabreu/pseudos/PBEsol/Hg.psp8
- Hg    ONCVPSP-3.3.0  r_core=   1.60079   1.60079   1.45509   1.60079
- 80.00000  20.00000    180112                znucl, zion, pspdat
    8 -116133    3    4       600   0.00000   pspcod,pspxc,lmax,lloc,mmax,r2well
    5.99000000000000    5.00000000000000    0.00000000000000   rchrg,fchrg,qchrg
     nproj     2     2     2     1
     extension_switch     1
  pspatm : epsatm=   30.52477316
         --- l  ekb(1:nproj) -->
             0   15.280580    2.063595
             1   11.999965    1.374025
             2    2.245749    0.205661
             3    0.961656
 pspatm: atomic psp has been read  and splines computed

- pspini: atom type   3  psp file is /scratch/users/j/a/jabreu/pseudos/PBEsol/O.psp8
- pspatm: opening atomic psp file    /scratch/users/j/a/jabreu/pseudos/PBEsol/O.psp8
- O     ONCVPSP-3.3.0  r_core=   1.35509   1.45563   1.26150
-  8.00000   6.00000    180112                znucl, zion, pspdat
    8 -116133    2    4       600   0.00000   pspcod,pspxc,lmax,lloc,mmax,r2well
    5.99000000000000    4.00000000000000    0.00000000000000   rchrg,fchrg,qchrg
     nproj     2     2     1
     extension_switch     1
  pspatm : epsatm=    6.22910522
         --- l  ekb(1:nproj) -->
             0    6.050032    0.820363
             1   -4.739617   -1.153841
             2   -1.335834
 pspatm: atomic psp has been read  and splines computed

   2.32862431E+03                                ecore*ucvol(ha*bohr**3)

-inwffil : will read wavefunctions from disk file /scratch/users/j/a/jabreu/flow_simple_4atoms/flow/w161/t1/indata/in_WFK

 ==>  initialize data related to q vector <==

 The list of irreducible perturbations for this q vector is:
    1)    idir= 1    ipert=   5
    2)    idir= 2    ipert=   5
    3)    idir= 3    ipert=   5

 Perturbation wavevector (in red.coord.)   0.000000  0.000000  0.000000
 Perturbation : derivative vs k along direction   1

 dfpt_looppert : COMMENT -
  In a d/dk calculation, iscf is set to -3 automatically.
 The set of symmetries contains only one element for this perturbation.
 symkpt : not enough symmetry to change the number of k points.

[...]

 Initialisation of the first-order wave-functions :
  ireadwf=   0

--- !BeginCycle
iteration_state: {dtset: 1, }
solver: {iscf: 7, nstep: 100, nline: 4, wfoptalg: 0, }
tolerances: {tolwfr: 1.00E-20, }
...

     iter   2DEtotal(Ha)        deltaE(Ha) residm    vres2
-ETOT  1  -51.448522722358     -5.145E+01 4.924E-02 0.000E+00
 ETOT  2  -51.467024613932     -1.850E-02 6.044E-04 0.000E+00
 ETOT  3  -51.467050430739     -2.582E-05 6.404E-06 0.000E+00
 ETOT  4  -51.467050521175     -9.044E-08 1.187E-07 0.000E+00
 ETOT  5  -51.467050521583     -4.077E-10 2.875E-09 0.000E+00
 ETOT  6  -51.467050521585     -2.025E-12 4.174E-11 0.000E+00
 ETOT  7  -51.467050521585      1.421E-14 1.852E-12 0.000E+00
 ETOT  8  -51.467050521585     -4.974E-14 3.214E-14 0.000E+00
 ETOT  9  -51.467050521585     -7.105E-15 1.432E-15 0.000E+00
 ETOT 10  -51.467050521585      1.421E-14 2.630E-17 0.000E+00
 ETOT 11  -51.467050521585      1.421E-14 1.160E-18 0.000E+00
 ETOT 12  -51.467050521585     -2.132E-14 2.205E-20 0.000E+00
 ETOT 13  -51.467050521585      2.132E-14 9.844E-21 0.000E+00

 At SCF step   13   max residual=  9.84E-21 < tolwfr=  1.00E-20 =>converged.

 ----iterations are completed or convergence reached----

 dfpt_looppert: DFPT cycle converged with prtwf=-1. Will skip output of the 1st-order WFK file.
 dfpt_looppert : ek2=    1.0049997700E+02
          f-sum rule ratio=    1.0203152017E+00
 prteigrs : about to open file /scratch/users/j/a/jabreu/flow_simple_4atoms/flow/w161/t1/tmpdata/tmp_1WF1_EIG
 Expectation of eigenvalue derivatives (hartree) for nkpt=   2  k points:
  (in case of degenerate eigenvalues, averaged derivative)
 kpt#   1, nband= 30, wtk=  0.50000, kpt=  0.5000  0.5000  0.5000 (reduced coord)
   0.00000    0.00000   -0.00000   -0.00000    0.00000    0.00000    0.00000    0.00000
  -0.00000   -0.00000   -0.00000    0.00000    0.00000    0.00000    0.00000   -0.00000
   0.00000    0.00000    0.00000   -0.00000   -0.00000   -0.00000   -0.00000    0.00000
   0.00000   -0.00000   -0.00000   -0.00000   -0.00000   -0.00568
 prteigrs : prtvol=0 or 1, do not print more k-points.

 Eight components of 2nd-order total energy (hartree) are
 1,2,3: 0th-order hamiltonian combined with 1st-order wavefunctions
     kin0=   6.71700654E+01 eigvalue=   1.32728866E+00  local=  -3.30280278E+01
 4,5,6: 1st-order hamiltonian combined with 1st and 0th-order wfs
     kin1=  -1.02541654E+02  Hartree=   0.00000000E+00     xc=   0.00000000E+00
 7,8,9: eventually, occupation + non-local contributions
    edocc=   1.41996066E+01     enl0=   1.79811764E+00   enl1=  -3.92446747E-01
 1-9 gives the relaxation energy (to be shifted if some occ is /=2.0)
   erelax=  -5.14670505E+01
  No Ewald or frozen-wf contrib.: the relaxation energy is the total one
 2DEtotal=   -0.5146705052E+02 Ha. Also 2DEtotal=   -0.140048966788E+04 eV
    (  non-var. 2DEtotal :   -5.1467050522E+01 Ha)

 Perturbation wavevector (in red.coord.)   0.000000  0.000000  0.000000
 Perturbation : derivative vs k along direction   2
 The set of symmetries contains only one element for this perturbation.
 symkpt : not enough symmetry to change the number of k points.

[...]

 Perturbation wavevector (in red.coord.)   0.000000  0.000000  0.000000
 Perturbation : derivative vs k along direction   3
 The set of symmetries contains only one element for this perturbation.
 symkpt : not enough symmetry to change the number of k points.

-inwffil : will read wavefunctions from disk file /scratch/users/j/a/jabreu/flow_simple_4atoms/flow/w161/t1/indata/in_WFK

 Initialisation of the first-order wave-functions :
  ireadwf=   0

--- !BeginCycle
iteration_state: {dtset: 1, }
solver: {iscf: 7, nstep: 100, nline: 4, wfoptalg: 0, }
tolerances: {tolwfr: 1.00E-20, }
...

     iter   2DEtotal(Ha)        deltaE(Ha) residm    vres2
-ETOT  1  -51.449156064277     -5.145E+01 6.057E-02 0.000E+00
 ETOT  2  -51.468391448970     -1.924E-02 6.982E-04 0.000E+00
 ETOT  3  -51.468415833150     -2.438E-05 5.690E-06 0.000E+00
 ETOT  4  -51.468415916066     -8.292E-08 1.632E-07 0.000E+00
 ETOT  5  -51.468415916451     -3.848E-10 2.632E-09 0.000E+00
 ETOT  6  -51.468415916453     -2.068E-12 5.757E-11 0.000E+00
 ETOT  7  -51.468415916453     -2.842E-14 1.689E-12 0.000E+00
 ETOT  8  -51.468415916453      0.000E+00 2.765E-14 0.000E+00
 ETOT  9  -51.468415916453      7.105E-15 1.295E-15 0.000E+00
 ETOT 10  -51.468415916453     -1.421E-14 2.244E-17 0.000E+00
 ETOT 11  -51.468415916453     -7.105E-15 1.039E-18 0.000E+00
 ETOT 12  -51.468415916453      0.000E+00 1.865E-20 0.000E+00
 ETOT 13  -51.468415916453      1.421E-14 9.444E-21 0.000E+00

 At SCF step   13   max residual=  9.44E-21 < tolwfr=  1.00E-20 =>converged.

 ----iterations are completed or convergence reached----

 dfpt_looppert: DFPT cycle converged with prtwf=-1. Will skip output of the 1st-order WFK file.
 dfpt_looppert : ek2=    1.0049997700E+02
          f-sum rule ratio=    1.0203404480E+00
 prteigrs : about to open file /scratch/users/j/a/jabreu/flow_simple_4atoms/flow/w161/t1/tmpdata/tmp_1WF1_EIG
 Expectation of eigenvalue derivatives (hartree) for nkpt=   2  k points:
  (in case of degenerate eigenvalues, averaged derivative)
 kpt#   1, nband= 30, wtk=  0.50000, kpt=  0.5000  0.5000  0.5000 (reduced coord)
  -0.00000   -0.00000    0.00000    0.00000    0.00000    0.00000    0.00000    0.00000
   0.00000    0.00000    0.00000   -0.00000   -0.00000   -0.00000   -0.00000    0.00000
  -0.00000   -0.00000   -0.00000   -0.00000   -0.00000    0.00000   -0.00000    0.00000
   0.00000    0.00000    0.00000   -0.00000   -0.00000    0.00709
 prteigrs : prtvol=0 or 1, do not print more k-points.

 Eight components of 2nd-order total energy (hartree) are
 1,2,3: 0th-order hamiltonian combined with 1st-order wavefunctions
     kin0=   6.67459659E+01 eigvalue=   1.33703065E+00  local=  -3.27444492E+01
 4,5,6: 1st-order hamiltonian combined with 1st and 0th-order wfs
     kin1=  -1.02544192E+02  Hartree=   0.00000000E+00     xc=   0.00000000E+00
 7,8,9: eventually, occupation + non-local contributions
    edocc=   1.43735329E+01     enl0=   1.75633557E+00   enl1=  -3.92640281E-01
 1-9 gives the relaxation energy (to be shifted if some occ is /=2.0)
   erelax=  -5.14684159E+01
  No Ewald or frozen-wf contrib.: the relaxation energy is the total one
 2DEtotal=   -0.5146841592E+02 Ha. Also 2DEtotal=   -0.140052682217E+04 eV
    (  non-var. 2DEtotal :   -5.1468415916E+01 Ha)

 CALCULATION OF EFFECTIVE MASSES
 NOTE : Additional infos (eff. mass eigenvalues, eigenvectors and, if degenerate, average mass) are available in stdout.

 COMMENTS:
 - At k-point ( 0.500, 0.500, 0.500), bands    20 through    21
   are DEGENERATE (effective mass tensor is therefore not defined).
   See Section IIIB Eqs. (67)-(70) and Appendix E of PRB 93 205147 (2016).
 - Angular average effective mass for Frohlich model is to be averaged over degenerate bands. See later.
 - Associated theta integrals calculated with ntheta=   1000 points.

 K-point ( 0.500, 0.500, 0.500) | band =    20
 Transport equivalent effective mass tensor:
             -0.9175645059              0.0032648492              0.0180154867
              0.0032648492             -0.9207254568              0.0108914042
              0.0180154867              0.0108914042             -0.8609532269
 Transport equivalent effective mass tensor eigenvalues:
             -0.9228510036             -0.9226166790             -0.8537755070
 Angular average effective mass 1/(<1/m>)=  -0.8674716124
 Angular average effective mass for Frohlich model (<m**0.5>)**2=  -0.8696963719
 Effective masses along directions: (cart. coord. / red. coord. -> eff. mass)
    1:   1.000000  0.000000  0.000000 /   0.908584  0.417701  0.000000 ->  -0.8945575114
    2:   0.000000  1.000000  0.000000 /   0.000000  1.000000  0.000000 ->  -0.9264222470
    3:   0.000000  0.000000  1.000000 /   0.543840  0.543840  0.639121 ->  -0.8539212665
    4:   0.577350  0.577350  0.577350 /   0.596432  0.675608  0.433385 ->  -0.8005740453
    5:   0.000000  0.707107  0.707107 /   0.457480  0.708283  0.537631 ->  -0.8813770517
    6:   0.707107  0.000000  0.707107 /   0.680717  0.540339  0.494629 ->  -0.8780222816
    7:   0.707107  0.707107  0.000000 /   0.595858  0.803090  0.000000 ->  -0.8496505982

 K-point ( 0.500, 0.500, 0.500) | band =    21
 Transport equivalent effective mass tensor:
             -3.8313336331              0.1308756538              0.7650510956
              0.1308756538             -3.9668925919              0.4653153309
              0.7650510956              0.4653153309             -1.3522862463
 Transport equivalent effective mass tensor eigenvalues:
             -4.0490544437             -4.0464986133             -1.0549594143
 Angular average effective mass 1/(<1/m>)=  -1.7512719016
 Angular average effective mass for Frohlich model (<m**0.5>)**2=  -2.0576949290
 Effective masses along directions: (cart. coord. / red. coord. -> eff. mass)
    1:   1.000000  0.000000  0.000000 /   0.908584  0.417701  0.000000 ->  -2.8671123981
    2:   0.000000  1.000000  0.000000 /   0.000000  1.000000  0.000000 ->  -2.9214531517
    3:   0.000000  0.000000  1.000000 /   0.543840  0.543840  0.639121 ->  -0.8993387676
    4:   0.577350  0.577350  0.577350 /   0.596432  0.675608  0.433385 ->  -1.2912962593
    5:   0.000000  0.707107  0.707107 /   0.457480  0.708283  0.537631 ->  -1.1477706924
    6:   0.707107  0.000000  0.707107 /   0.680717  0.540339  0.494629 ->  -1.0117466538
    7:   0.707107  0.707107  0.000000 /   0.595858  0.803090  0.000000 ->  -3.2169567970

 Angular average effective mass for Frohlich model, averaged over degenerate bands.
 Value of     (<<m**0.5>>)**2 =     1.400722E+00
 Absolute Value of <<m**0.5>> =     1.183521E+00

 K-point ( 0.000, 0.000, 0.000) | band =    22
 Effective mass tensor:
              0.9694365238             -0.0313763217             -0.1819586662
             -0.0313763217              1.0019792758             -0.1106680647
             -0.1819586662             -0.1106680647              0.3799073917
 Effective mass tensor eigenvalues:
              0.3091699643              1.0210476634              1.0211055635
 Angular average effective mass 1/(<1/m>)=   0.5776803124
 Angular average effective mass for Frohlich model (<m**0.5>)**2=   0.6432425987
 Effective masses along directions: (cart. coord. / red. coord. -> eff. mass)
    1:   1.000000  0.000000  0.000000 /   0.908584  0.417701  0.000000 ->   0.8749440647
    2:   0.000000  1.000000  0.000000 /   0.000000  1.000000  0.000000 ->   0.9616711775
    3:   0.000000  0.000000  1.000000 /   0.543840  0.543840  0.639121 ->   0.3321820953
    4:   0.577350  0.577350  0.577350 /   0.596432  0.675608  0.433385 ->   0.4140247456
    5:   0.000000  0.707107  0.707107 /   0.457480  0.708283  0.537631 ->   0.4209334361
    6:   0.707107  0.000000  0.707107 /   0.680717  0.540339  0.494629 ->   0.3769251599
    7:   0.707107  0.707107  0.000000 /   0.595858  0.803090  0.000000 ->   0.8397401108

 END OF EFFECTIVE MASSES SECTION

 ---- first-order wavefunction calculations are completed ----

 Total localisation tensor (bohr^2) in cartesian coordinates
  WARNING : still subject to testing - especially symmetries.
      direction              matrix element
   alpha     beta       real part   imaginary part
     1        1       0.9526093081    0.0000000000
     1        2       0.3210691249    0.0000000000
     1        3       1.8595193230    0.0000000000
     2        1       0.3210691249    0.0000000000
     2        2       0.6202121655    0.0000000000
     2        3       1.1313050649    0.0000000000
     3        1       1.8595193230    0.0000000000
     3        2       1.1313050649    0.0000000000
     3        3       6.9771692869    0.0000000000

 respfn : d/dk was computed, but no 2DTE, so no DDB output.

== END DATASET(S) ==============================================================

 -outvars: echo values of variables after computation  --------
            acell      1.0000000000E+00  1.0000000000E+00  1.0000000000E+00 Bohr
              amu      4.00780000E+01  2.00590000E+02  1.59994000E+01
             ecut      4.40000000E+01 Hartree
           etotal     -5.1468415916E+01
            fcart      0.0000000000E+00  0.0000000000E+00  0.0000000000E+00
                       0.0000000000E+00  0.0000000000E+00  0.0000000000E+00
                       0.0000000000E+00  0.0000000000E+00  0.0000000000E+00
                       0.0000000000E+00  0.0000000000E+00  0.0000000000E+00
-          fftalg         512
           irdden           1
           irdwfk           1
           istwfk        1    1
              ixc     -116133
              kpt      5.00000000E-01  5.00000000E-01  5.00000000E-01
                       0.00000000E+00  0.00000000E+00  0.00000000E+00
           kptopt           0
P           mkmem           2
P          mkqmem           2
P          mk1mem           2
            natom           4
            nband          30
           nbdbuf           4
            ngfft          75      75      75
             nkpt           2
            nstep         100
             nsym          12
           ntypat           3
              occ      2.000000  2.000000  2.000000  2.000000  2.000000  2.000000
                       2.000000  2.000000  2.000000  2.000000  2.000000  2.000000
                       2.000000  2.000000  2.000000  2.000000  2.000000  2.000000
                       2.000000  2.000000  2.000000  0.000000  0.000000  0.000000
                       0.000000  0.000000  0.000000  0.000000  0.000000  0.000000
        optdriver           1
            prtwf          -1
            rfdir           1       1       1
           rfelfd           2
            rprim      6.4683606529E+00  0.0000000000E+00  1.0477941781E+01
                       2.9736838479E+00  5.7442922897E+00  1.0477941781E+01
                       0.0000000000E+00  0.0000000000E+00  1.2313689678E+01
          spgroup         166
           strten      0.0000000000E+00  0.0000000000E+00  0.0000000000E+00
                       0.0000000000E+00  0.0000000000E+00  0.0000000000E+00
           symrel      1  0  0   0  1  0   0  0  1      -1  0  0   0 -1  0   0  0 -1
                       0  1  0   1  0  0   0  0  1       0 -1  0  -1  0  0   0  0 -1
                       0  0  1   1  0  0   0  1  0       0  0 -1  -1  0  0   0 -1  0
                       1  0  0   0  0  1   0  1  0      -1  0  0   0  0 -1   0 -1  0
                       0  1  0   0  0  1   1  0  0       0 -1  0   0  0 -1  -1  0  0
                       0  0  1   0  1  0   1  0  0       0  0 -1   0 -1  0  -1  0  0
           tolwfr      1.00000000E-20
            typat      1  2  3  3
           useylm           1
              wtk        0.50000    0.50000
           xangst      2.4982573762E+00  1.5198742796E+00  8.8027499491E+00
                       0.0000000000E+00  0.0000000000E+00  0.0000000000E+00
                       4.4693624599E+00  2.7190429272E+00  1.5748049237E+01
                       5.2715229243E-01  3.2070563199E-01  1.8574506613E+00
            xcart      4.7210222504E+00  2.8721461448E+00  1.6634786620E+01
                       0.0000000000E+00  0.0000000000E+00  0.0000000000E+00
                       8.4458710378E+00  5.1382464760E+00  2.9759500185E+01
                       9.9617346301E-01  6.0604581373E-01  3.5100730551E+00
             xred      5.0000000000E-01  5.0000000000E-01  5.0000000000E-01
                       0.0000000000E+00  0.0000000000E+00  0.0000000000E+00
                       8.9449600000E-01  8.9449600000E-01  8.9449600000E-01
                       1.0550400000E-01  1.0550400000E-01  1.0550400000E-01
            znucl       20.00000   80.00000    8.00000

- Timing analysis has been suppressed with timopt=0

 Suggested references for the acknowledgment of ABINIT usage.

 Calculation completed.
.Delivered  14 WARNINGs and   9 COMMENTs to log file.