.Version 9.5.1 of ABINIT

 ABINIT is a project of the Universite Catholique de Louvain,
 Corning Inc. and other collaborators, see ~abinit/doc/developers/contributors.txt .
 acknowledgments of the ABINIT effort.

.Starting date : Tue 11 May 2021.
- ( at 21h27 )

- input  file    -> /scratch/users/j/a/jabreu/flow_simple_8atoms/flow/w312/t1/run.abi
- output file    -> /scratch/users/j/a/jabreu/flow_simple_8atoms/flow/w312/t1/run.abo
- root for input  files -> /scratch/users/j/a/jabreu/flow_simple_8atoms/flow/w312/t1/indata/in
- root for output files -> /scratch/users/j/a/jabreu/flow_simple_8atoms/flow/w312/t1/outdata/out

 Symmetries : space group Fd -3 m (#227); Bravais cF (face-center cubic)
     intxc =       0      iscf =       7    lmnmax =      18     lnmax =       6
     mgfft =      72  mpssoang =       3    mqgrid =    3001     natom =       8
  nloc_mem =       1    nspden =       1   nspinor =       1    nsppol =       1
      nsym =      48    n1xccc =    2501    ntypat =       3    occopt =       1
   xclevel =       2
-    mband =          43        mffmem =           1         mkmem =           2
-   mkqmem =           2        mk1mem =           2           mpw =       13762
      nfft =      373248          nkpt =           2
  Rough estimation (10% accuracy) of disk space for files :

------------- Echo of variables that govern the present computation ------------
-
- outvars: echo of selected default values
-   iomode0 =  0 , fftalg0 =512 , wfoptalg0 =  0
-
- outvars: echo of global parameters not present in the input file
-  max_nthreads =    0
-
 -outvars: echo values of preprocessed input variables --------
            acell      1.0000000000E+00  1.0000000000E+00  1.0000000000E+00 Bohr
              amu      8.54678000E+01  6.97230000E+01  1.59994000E+01
             ecut      4.40000000E+01 Hartree
-          fftalg         512
           irdden           1
           irdwfk           1
           istwfk        1    1
              ixc     -116133
              kpt      5.00000000E-01  5.00000000E-01  5.00000000E-01
                       0.00000000E+00  0.00000000E+00  0.00000000E+00
           kptopt           0
P           mkmem           2
P          mkqmem           2
P          mk1mem           2
            natom           8
            nband          43
           nbdbuf           4
            ngfft          72      72      72
             nkpt           2
            nstep        2000
             nsym          48
           ntypat           3
              occ      2.000000  2.000000  2.000000  2.000000  2.000000  2.000000
                       2.000000  2.000000  2.000000  2.000000  2.000000  2.000000
                       2.000000  2.000000  2.000000  2.000000  2.000000  2.000000
                       2.000000  2.000000  2.000000  2.000000  2.000000  2.000000
                       2.000000  2.000000  2.000000  2.000000  2.000000  2.000000
                       2.000000  2.000000  2.000000  2.000000  0.000000  0.000000
                       0.000000  0.000000  0.000000  0.000000  0.000000  0.000000
                       0.000000
        optdriver           1
            prtwf          -1
            rfdir           1       1       1
           rfelfd           2
            rprim      9.6611209690E+00  0.0000000000E+00  5.5778507921E+00
                       3.2203736563E+00  9.1085922014E+00  5.5778507921E+00
                       0.0000000000E+00  0.0000000000E+00  1.1155701584E+01
          spgroup         227
           symrel      1  0  0   0  1  0   0  0  1      -1  0  0   0 -1  0   0  0 -1
                       0 -1  1   0 -1  0   1 -1  0       0  1 -1   0  1  0  -1  1  0
                      -1  0  0  -1  0  1  -1  1  0       1  0  0   1  0 -1   1 -1  0
                       0  1 -1   1  0 -1   0  0 -1       0 -1  1  -1  0  1   0  0  1
                      -1  0  0  -1  1  0  -1  0  1       1  0  0   1 -1  0   1  0 -1
                       0 -1  1   1 -1  0   0 -1  0       0  1 -1  -1  1  0   0  1  0
                       1  0  0   0  0  1   0  1  0      -1  0  0   0  0 -1   0 -1  0
                       0  1 -1   0  0 -1   1  0 -1       0 -1  1   0  0  1  -1  0  1
                      -1  0  1  -1  1  0  -1  0  0       1  0 -1   1 -1  0   1  0  0
                       0 -1  0   1 -1  0   0 -1  1       0  1  0  -1  1  0   0  1 -1
                       1  0 -1   0  0 -1   0  1 -1      -1  0  1   0  0  1   0 -1  1
                       0  1  0   0  0  1   1  0  0       0 -1  0   0  0 -1  -1  0  0
                       1  0 -1   0  1 -1   0  0 -1      -1  0  1   0 -1  1   0  0  1
                       0 -1  0   0 -1  1   1 -1  0       0  1  0   0  1 -1  -1  1  0
                      -1  0  1  -1  0  0  -1  1  0       1  0 -1   1  0  0   1 -1  0
                       0  1  0   1  0  0   0  0  1       0 -1  0  -1  0  0   0  0 -1
                       0  0 -1   0  1 -1   1  0 -1       0  0  1   0 -1  1  -1  0  1
                       1 -1  0   0 -1  1   0 -1  0      -1  1  0   0  1 -1   0  1  0
                       0  0  1   1  0  0   0  1  0       0  0 -1  -1  0  0   0 -1  0
                      -1  1  0  -1  0  0  -1  0  1       1 -1  0   1  0  0   1  0 -1
                       0  0  1   0  1  0   1  0  0       0  0 -1   0 -1  0  -1  0  0
                       1 -1  0   0 -1  0   0 -1  1      -1  1  0   0  1  0   0  1 -1
                       0  0 -1   1  0 -1   0  1 -1       0  0  1  -1  0  1   0 -1  1
                      -1  1  0  -1  0  1  -1  0  0       1 -1  0   1  0 -1   1  0  0
            tnons      0.0000000  0.0000000  0.0000000     0.2500000  0.2500000  0.2500000
                      -0.0000000  0.0000000  0.0000000     0.2500000  0.2500000  0.2500000
                       0.0000000  0.0000000  0.0000000     0.2500000  0.2500000  0.2500000
                      -0.0000000  0.0000000  0.0000000     0.2500000  0.2500000  0.2500000
                       0.0000000  0.0000000  0.0000000     0.2500000  0.2500000  0.2500000
                      -0.0000000  0.0000000  0.0000000     0.2500000  0.2500000  0.2500000
                       0.0000000  0.0000000  0.0000000     0.2500000  0.2500000  0.2500000
                      -0.0000000  0.0000000  0.0000000     0.2500000  0.2500000  0.2500000
                       0.0000000  0.0000000  0.0000000     0.2500000  0.2500000  0.2500000
                      -0.0000000  0.0000000  0.0000000     0.2500000  0.2500000  0.2500000
                       0.0000000  0.0000000  0.0000000     0.2500000  0.2500000  0.2500000
                      -0.0000000  0.0000000  0.0000000     0.2500000  0.2500000  0.2500000
                       0.0000000  0.0000000  0.0000000     0.2500000  0.2500000  0.2500000
                      -0.0000000  0.0000000  0.0000000     0.2500000  0.2500000  0.2500000
                       0.0000000  0.0000000  0.0000000     0.2500000  0.2500000  0.2500000
                      -0.0000000  0.0000000  0.0000000     0.2500000  0.2500000  0.2500000
                      -0.0000000  0.0000000  0.0000000     0.2500000  0.2500000  0.2500000
                       0.0000000  0.0000000  0.0000000     0.2500000  0.2500000  0.2500000
                      -0.0000000  0.0000000  0.0000000     0.2500000  0.2500000  0.2500000
                       0.0000000  0.0000000  0.0000000     0.2500000  0.2500000  0.2500000
                      -0.0000000  0.0000000  0.0000000     0.2500000  0.2500000  0.2500000
                       0.0000000  0.0000000  0.0000000     0.2500000  0.2500000  0.2500000
                      -0.0000000  0.0000000  0.0000000     0.2500000  0.2500000  0.2500000
                       0.0000000  0.0000000  0.0000000     0.2500000  0.2500000  0.2500000
           tolwfr      1.00000000E-20
            typat      1  1  2  2  3  3  3  3
           useylm           1
              wtk        0.50000    0.50000
           xangst      3.4082966841E+00  2.4100296977E+00  5.9033430242E+00
                       5.1124450262E+00  3.6150445465E+00  8.8550145363E+00
                       1.7041483421E+00  1.2050148488E+00  2.9516715121E+00
                       0.0000000000E+00  0.0000000000E+00  0.0000000000E+00
                       3.4082966841E+00  6.0250742442E-01  2.9516715121E+00
                       8.5207417104E-01  6.0250742442E-01  1.4758357560E+00
                       8.5207417104E-01  6.0250742442E-01  4.4275072681E+00
                       1.7041483421E+00  3.0125371221E+00  2.9516715121E+00
            xcart      6.4407473126E+00  4.5542961007E+00  1.1155701584E+01
                       9.6611209690E+00  6.8314441511E+00  1.6733552376E+01
                       3.2203736563E+00  2.2771480504E+00  5.5778507921E+00
                       0.0000000000E+00  0.0000000000E+00  0.0000000000E+00
                       6.4407473127E+00  1.1385740252E+00  5.5778507921E+00
                       1.6101868282E+00  1.1385740252E+00  2.7889253960E+00
                       1.6101868282E+00  1.1385740252E+00  8.3667761882E+00
                       3.2203736563E+00  5.6928701259E+00  5.5778507921E+00
             xred      5.0000000000E-01  5.0000000000E-01  5.0000000000E-01
                       7.5000000000E-01  7.5000000000E-01  7.5000000000E-01
                       2.5000000000E-01  2.5000000000E-01  2.5000000000E-01
                       0.0000000000E+00  0.0000000000E+00  0.0000000000E+00
                       6.2500000000E-01  1.2500000000E-01  1.2500000000E-01
                       1.2500000000E-01  1.2500000000E-01  1.2500000000E-01
                       1.2500000000E-01  1.2500000000E-01  6.2500000000E-01
                       1.2500000000E-01  6.2500000000E-01  1.2500000000E-01
            znucl       37.00000   31.00000    8.00000

 chkinp: Checking input parameters for consistency.

== DATASET  1 ==================================================================
-   mpi_nproc: 1, omp_nthreads: -1 (-1 if OMP is not activated)

--- !DatasetInfo
iteration_state: {dtset: 1, }
dimensions: {natom: 8, nkpt: 2, mband: 43, nsppol: 1, nspinor: 1, nspden: 1, mpw: 13762, }
cutoff_energies: {ecut:  44.0, pawecutdg:  -1.0, }
electrons: {nelect:   6.80000000E+01, charge:   0.00000000E+00, occopt:   1.00000000E+00, tsmear:   1.00000000E-02, }
meta: {optdriver: 1, rfelfd: 2, }
...

 Real(R)+Recip(G) space primitive vectors, cartesian coordinates (Bohr,Bohr^-1):
 R(1)=  9.6611210  0.0000000  5.5778508  G(1)=  0.1035077 -0.0365955  0.0000000
 R(2)=  3.2203737  9.1085922  5.5778508  G(2)=  0.0000000  0.1097864  0.0000000
 R(3)=  0.0000000  0.0000000 11.1557016  G(3)= -0.0517538 -0.0365955  0.0896403
 Unit cell volume ucvol=  9.8169294E+02 bohr^3
 Angles (23,13,12)=  6.00000000E+01  6.00000000E+01  6.00000000E+01 degrees

 getcut: wavevector=  0.0000  0.0000  0.0000  ngfft=  72  72  72
         ecut(hartree)=     44.000   => boxcut(ratio)=   2.16144

--- Pseudopotential description ------------------------------------------------
- pspini: atom type   1  psp file is /scratch/users/j/a/jabreu/pseudos/PBEsol/Rb.psp8
- pspatm: opening atomic psp file    /scratch/users/j/a/jabreu/pseudos/PBEsol/Rb.psp8
[...]
  ireadwf=   0

--- !BeginCycle
iteration_state: {dtset: 1, }
solver: {iscf: 7, nstep: 2000, nline: 4, wfoptalg: 0, }
tolerances: {tolwfr: 1.00E-20, }
...

     iter   2DEtotal(Ha)        deltaE(Ha) residm    vres2
-ETOT  1  -53.713150496387     -5.371E+01 9.811E-02 0.000E+00
 ETOT  2  -53.782639200237     -6.949E-02 1.786E-02 0.000E+00
 ETOT  3  -53.783297137902     -6.579E-04 3.559E-03 0.000E+00
 ETOT  4  -53.783308572708     -1.143E-05 4.743E-04 0.000E+00
 ETOT  5  -53.783308820208     -2.475E-07 1.327E-04 0.000E+00
 ETOT  6  -53.783308826099     -5.890E-09 1.880E-05 0.000E+00
 ETOT  7  -53.783308826250     -1.517E-10 5.638E-06 0.000E+00
 ETOT  8  -53.783308826254     -4.150E-12 8.039E-07 0.000E+00
 ETOT  9  -53.783308826254     -1.137E-13 2.472E-07 0.000E+00
 ETOT 10  -53.783308826254      9.948E-14 3.524E-08 0.000E+00
 ETOT 11  -53.783308826254     -3.553E-14 1.094E-08 0.000E+00
 ETOT 12  -53.783308826254     -2.132E-14 1.559E-09 0.000E+00
 ETOT 13  -53.783308826254     -1.421E-14 4.860E-10 0.000E+00
 ETOT 14  -53.783308826254      7.105E-15 6.926E-11 0.000E+00
 ETOT 15  -53.783308826254      0.000E+00 2.162E-11 0.000E+00
 ETOT 16  -53.783308826254      0.000E+00 3.083E-12 0.000E+00
 ETOT 17  -53.783308826254     -2.132E-14 9.629E-13 0.000E+00
 ETOT 18  -53.783308826254      1.421E-14 1.375E-13 0.000E+00
 ETOT 19  -53.783308826254     -7.105E-15 4.292E-14 0.000E+00
 ETOT 20  -53.783308826254      7.105E-15 6.138E-15 0.000E+00
 ETOT 21  -53.783308826254      0.000E+00 1.915E-15 0.000E+00
 ETOT 22  -53.783308826254      0.000E+00 2.743E-16 0.000E+00
 ETOT 23  -53.783308826254     -1.421E-14 8.549E-17 0.000E+00
 ETOT 24  -53.783308826254      1.421E-14 1.227E-17 0.000E+00
 ETOT 25  -53.783308826254      0.000E+00 3.820E-18 0.000E+00
 ETOT 26  -53.783308826254     -1.421E-14 5.496E-19 0.000E+00
 ETOT 27  -53.783308826254      1.421E-14 1.708E-19 0.000E+00
 ETOT 28  -53.783308826254     -1.421E-14 2.463E-20 0.000E+00
 ETOT 29  -53.783308826254      1.421E-14 9.963E-21 0.000E+00

 At SCF step   29   max residual=  9.96E-21 < tolwfr=  1.00E-20 =>converged.

 ----iterations are completed or convergence reached----

 dfpt_looppert: DFPT cycle converged with prtwf=-1. Will skip output of the 1st-order WFK file.
 dfpt_looppert : ek2=    6.4713684530E+01
          f-sum rule ratio=    1.0734060357E+00
 prteigrs : about to open file /scratch/users/j/a/jabreu/flow_simple_8atoms/flow/w312/t1/tmpdata/tmp_1WF1_EIG
 Expectation of eigenvalue derivatives (hartree) for nkpt=   2  k points:
  (in case of degenerate eigenvalues, averaged derivative)
 kpt#   1, nband= 43, wtk=  0.50000, kpt=  0.5000  0.5000  0.5000 (reduced coord)
   0.00000    0.00000   -0.00000    0.00000    0.00000    0.00000   -0.00000   -0.00000
  -0.00000   -0.00000   -0.00000    0.00000    0.00000   -0.00000    0.00000    0.00000
  -0.00000   -0.00000   -0.00000   -0.00000    0.00000    0.00000    0.00000   -0.00000
   0.00000    0.00000    0.00000   -0.00000   -0.00000    0.00000    0.00000   -0.00000
  -0.00000   -0.00000   -0.00000   -0.00000    0.00000   -0.00000   -0.00000   -0.00000
  -0.00000    0.00000    0.00000
 prteigrs : prtvol=0 or 1, do not print more k-points.

 Eight components of 2nd-order total energy (hartree) are
 1,2,3: 0th-order hamiltonian combined with 1st-order wavefunctions
     kin0=   6.61798651E+01 eigvalue=   4.10660909E+00  local=  -2.77103003E+01
 4,5,6: 1st-order hamiltonian combined with 1st and 0th-order wfs
     kin1=  -6.94640596E+01  Hartree=   0.00000000E+00     xc=   0.00000000E+00
 7,8,9: eventually, occupation + non-local contributions
    edocc=   7.54045196E+00     enl0=   3.66668297E+00   enl1=  -3.81025581E+01
 1-9 gives the relaxation energy (to be shifted if some occ is /=2.0)
   erelax=  -5.37833088E+01
  No Ewald or frozen-wf contrib.: the relaxation energy is the total one
 2DEtotal=   -0.5378330883E+02 Ha. Also 2DEtotal=   -0.146351826173E+04 eV
    (  non-var. 2DEtotal :   -5.3783308826E+01 Ha)

 CALCULATION OF EFFECTIVE MASSES
 NOTE : Additional infos (eff. mass eigenvalues, eigenvectors and, if degenerate, average mass) are available in stdout.

 K-point ( 0.500, 0.500, 0.500) | band =    34
 Effective mass tensor:
            -21.2916934513            -13.7952180353            -33.7912496531
            -13.7952180353            -11.5370027598            -23.8940229544
            -33.7912496531            -23.8940229544            -60.3104821624
 Effective mass tensor eigenvalues:
            -89.5745583113             -1.7823100635             -1.7823099987
 Angular average effective mass 1/(<1/m>)=  -2.6471294140
 Angular average effective mass for Frohlich model (<m**0.5>)**2=  -3.7148198350
 Effective masses along directions: (cart. coord. / red. coord. -> eff. mass)
    1:   1.000000  0.000000  0.000000 /   0.948683  0.316228  0.000000 ->  -2.2785874905
    2:   0.000000  1.000000  0.000000 /   0.000000  1.000000  0.000000 ->  -2.0001240922
    3:   0.000000  0.000000  1.000000 /   0.408248  0.408248  0.816497 ->  -5.1422936319
    4:   0.577350  0.577350  0.577350 /   0.585539  0.688047  0.428644 -> -12.6137289787
    5:   0.000000  0.707107  0.707107 /   0.289489  0.762222  0.578977 ->  -5.0619585897
    6:   0.707107  0.000000  0.707107 /   0.731423  0.422287  0.535439 ->  -9.5230599661
    7:   0.707107  0.707107  0.000000 /   0.616798  0.787122  0.000000 ->  -2.6109023509

 K-point ( 0.000, 0.000, 0.000) | band =    35
 Effective mass tensor:
              0.3114169125              0.0000003304             -0.0000000741
              0.0000003304              0.3114175723              0.0000001956
             -0.0000000741              0.0000001956              0.3114174959
 Effective mass tensor eigenvalues:
              0.3114167471              0.3114174405              0.3114177931
 Angular average effective mass 1/(<1/m>)=   0.3114173269
 Angular average effective mass for Frohlich model (<m**0.5>)**2=   0.3114173269
 Effective masses along directions: (cart. coord. / red. coord. -> eff. mass)
    1:   1.000000  0.000000  0.000000 /   0.948683  0.316228  0.000000 ->   0.3114169125
    2:   0.000000  1.000000  0.000000 /   0.000000  1.000000  0.000000 ->   0.3114175723
    3:   0.000000  0.000000  1.000000 /   0.408248  0.408248  0.816497 ->   0.3114174959
    4:   0.577350  0.577350  0.577350 /   0.585539  0.688047  0.428644 ->   0.3114176282
    5:   0.000000  0.707107  0.707107 /   0.289489  0.762222  0.578977 ->   0.3114177297
    6:   0.707107  0.000000  0.707107 /   0.731423  0.422287  0.535439 ->   0.3114171301
    7:   0.707107  0.707107  0.000000 /   0.616798  0.787122  0.000000 ->   0.3114175728

 END OF EFFECTIVE MASSES SECTION

 ---- first-order wavefunction calculations are completed ----

 Total localisation tensor (bohr^2) in cartesian coordinates
  WARNING : still subject to testing - especially symmetries.
      direction              matrix element
   alpha     beta       real part   imaginary part
     1        1       1.0269782382    0.0000000000
     1        2       0.2904743751    0.0000000000
     1        3       0.7115118294    0.0000000000
     2        1       0.2904743751    0.0000000000
     2        2       0.8215856017    0.0000000000
     2        3       0.5031163761    0.0000000000
     3        1       0.7115118294    0.0000000000
     3        2       0.5031163761    0.0000000000
     3        3       1.8485655675    0.0000000000

 respfn : d/dk was computed, but no 2DTE, so no DDB output.

== END DATASET(S) ==============================================================

 -outvars: echo values of variables after computation  --------
            acell      1.0000000000E+00  1.0000000000E+00  1.0000000000E+00 Bohr
              amu      8.54678000E+01  6.97230000E+01  1.59994000E+01
             ecut      4.40000000E+01 Hartree
           etotal     -5.3783308826E+01
            fcart      0.0000000000E+00  0.0000000000E+00  0.0000000000E+00
                       0.0000000000E+00  0.0000000000E+00  0.0000000000E+00
                       0.0000000000E+00  0.0000000000E+00  0.0000000000E+00
                       0.0000000000E+00  0.0000000000E+00  0.0000000000E+00
                       0.0000000000E+00  0.0000000000E+00  0.0000000000E+00
                       0.0000000000E+00  0.0000000000E+00  0.0000000000E+00
                       0.0000000000E+00  0.0000000000E+00  0.0000000000E+00
                       0.0000000000E+00  0.0000000000E+00  0.0000000000E+00
-          fftalg         512
           irdden           1
           irdwfk           1
           istwfk        1    1
              ixc     -116133
              kpt      5.00000000E-01  5.00000000E-01  5.00000000E-01
                       0.00000000E+00  0.00000000E+00  0.00000000E+00
           kptopt           0
P           mkmem           2
P          mkqmem           2
P          mk1mem           2
            natom           8
            nband          43
           nbdbuf           4
            ngfft          72      72      72
             nkpt           2
            nstep        2000
             nsym          48
           ntypat           3
              occ      2.000000  2.000000  2.000000  2.000000  2.000000  2.000000
                       2.000000  2.000000  2.000000  2.000000  2.000000  2.000000
                       2.000000  2.000000  2.000000  2.000000  2.000000  2.000000
                       2.000000  2.000000  2.000000  2.000000  2.000000  2.000000
                       2.000000  2.000000  2.000000  2.000000  2.000000  2.000000
                       2.000000  2.000000  2.000000  2.000000  0.000000  0.000000
                       0.000000  0.000000  0.000000  0.000000  0.000000  0.000000
                       0.000000
        optdriver           1
            prtwf          -1
            rfdir           1       1       1
           rfelfd           2
            rprim      9.6611209690E+00  0.0000000000E+00  5.5778507921E+00
                       3.2203736563E+00  9.1085922014E+00  5.5778507921E+00
                       0.0000000000E+00  0.0000000000E+00  1.1155701584E+01
          spgroup         227
           strten      0.0000000000E+00  0.0000000000E+00  0.0000000000E+00
                       0.0000000000E+00  0.0000000000E+00  0.0000000000E+00
           symrel      1  0  0   0  1  0   0  0  1      -1  0  0   0 -1  0   0  0 -1
                       0 -1  1   0 -1  0   1 -1  0       0  1 -1   0  1  0  -1  1  0
                      -1  0  0  -1  0  1  -1  1  0       1  0  0   1  0 -1   1 -1  0
                       0  1 -1   1  0 -1   0  0 -1       0 -1  1  -1  0  1   0  0  1
                      -1  0  0  -1  1  0  -1  0  1       1  0  0   1 -1  0   1  0 -1
                       0 -1  1   1 -1  0   0 -1  0       0  1 -1  -1  1  0   0  1  0
                       1  0  0   0  0  1   0  1  0      -1  0  0   0  0 -1   0 -1  0
                       0  1 -1   0  0 -1   1  0 -1       0 -1  1   0  0  1  -1  0  1
                      -1  0  1  -1  1  0  -1  0  0       1  0 -1   1 -1  0   1  0  0
                       0 -1  0   1 -1  0   0 -1  1       0  1  0  -1  1  0   0  1 -1
                       1  0 -1   0  0 -1   0  1 -1      -1  0  1   0  0  1   0 -1  1
                       0  1  0   0  0  1   1  0  0       0 -1  0   0  0 -1  -1  0  0
                       1  0 -1   0  1 -1   0  0 -1      -1  0  1   0 -1  1   0  0  1
                       0 -1  0   0 -1  1   1 -1  0       0  1  0   0  1 -1  -1  1  0
                      -1  0  1  -1  0  0  -1  1  0       1  0 -1   1  0  0   1 -1  0
                       0  1  0   1  0  0   0  0  1       0 -1  0  -1  0  0   0  0 -1
                       0  0 -1   0  1 -1   1  0 -1       0  0  1   0 -1  1  -1  0  1
                       1 -1  0   0 -1  1   0 -1  0      -1  1  0   0  1 -1   0  1  0
                       0  0  1   1  0  0   0  1  0       0  0 -1  -1  0  0   0 -1  0
                      -1  1  0  -1  0  0  -1  0  1       1 -1  0   1  0  0   1  0 -1
                       0  0  1   0  1  0   1  0  0       0  0 -1   0 -1  0  -1  0  0
                       1 -1  0   0 -1  0   0 -1  1      -1  1  0   0  1  0   0  1 -1
                       0  0 -1   1  0 -1   0  1 -1       0  0  1  -1  0  1   0 -1  1
                      -1  1  0  -1  0  1  -1  0  0       1 -1  0   1  0 -1   1  0  0
            tnons      0.0000000  0.0000000  0.0000000     0.2500000  0.2500000  0.2500000
                      -0.0000000  0.0000000  0.0000000     0.2500000  0.2500000  0.2500000
                       0.0000000  0.0000000  0.0000000     0.2500000  0.2500000  0.2500000
                      -0.0000000  0.0000000  0.0000000     0.2500000  0.2500000  0.2500000
                       0.0000000  0.0000000  0.0000000     0.2500000  0.2500000  0.2500000
                      -0.0000000  0.0000000  0.0000000     0.2500000  0.2500000  0.2500000
                       0.0000000  0.0000000  0.0000000     0.2500000  0.2500000  0.2500000
                      -0.0000000  0.0000000  0.0000000     0.2500000  0.2500000  0.2500000
                       0.0000000  0.0000000  0.0000000     0.2500000  0.2500000  0.2500000
                      -0.0000000  0.0000000  0.0000000     0.2500000  0.2500000  0.2500000
                       0.0000000  0.0000000  0.0000000     0.2500000  0.2500000  0.2500000
                      -0.0000000  0.0000000  0.0000000     0.2500000  0.2500000  0.2500000
                       0.0000000  0.0000000  0.0000000     0.2500000  0.2500000  0.2500000
                      -0.0000000  0.0000000  0.0000000     0.2500000  0.2500000  0.2500000
                       0.0000000  0.0000000  0.0000000     0.2500000  0.2500000  0.2500000
                      -0.0000000  0.0000000  0.0000000     0.2500000  0.2500000  0.2500000
                      -0.0000000  0.0000000  0.0000000     0.2500000  0.2500000  0.2500000
                       0.0000000  0.0000000  0.0000000     0.2500000  0.2500000  0.2500000
                      -0.0000000  0.0000000  0.0000000     0.2500000  0.2500000  0.2500000
                       0.0000000  0.0000000  0.0000000     0.2500000  0.2500000  0.2500000
                      -0.0000000  0.0000000  0.0000000     0.2500000  0.2500000  0.2500000
                       0.0000000  0.0000000  0.0000000     0.2500000  0.2500000  0.2500000
                      -0.0000000  0.0000000  0.0000000     0.2500000  0.2500000  0.2500000
                       0.0000000  0.0000000  0.0000000     0.2500000  0.2500000  0.2500000
           tolwfr      1.00000000E-20
            typat      1  1  2  2  3  3  3  3
           useylm           1
              wtk        0.50000    0.50000
           xangst      3.4082966841E+00  2.4100296977E+00  5.9033430242E+00
                       5.1124450262E+00  3.6150445465E+00  8.8550145363E+00
                       1.7041483421E+00  1.2050148488E+00  2.9516715121E+00
                       0.0000000000E+00  0.0000000000E+00  0.0000000000E+00
                       3.4082966841E+00  6.0250742442E-01  2.9516715121E+00
                       8.5207417104E-01  6.0250742442E-01  1.4758357560E+00
                       8.5207417104E-01  6.0250742442E-01  4.4275072681E+00
                       1.7041483421E+00  3.0125371221E+00  2.9516715121E+00
            xcart      6.4407473126E+00  4.5542961007E+00  1.1155701584E+01
                       9.6611209690E+00  6.8314441511E+00  1.6733552376E+01
                       3.2203736563E+00  2.2771480504E+00  5.5778507921E+00
                       0.0000000000E+00  0.0000000000E+00  0.0000000000E+00
                       6.4407473127E+00  1.1385740252E+00  5.5778507921E+00
                       1.6101868282E+00  1.1385740252E+00  2.7889253960E+00
                       1.6101868282E+00  1.1385740252E+00  8.3667761882E+00
                       3.2203736563E+00  5.6928701259E+00  5.5778507921E+00
             xred      5.0000000000E-01  5.0000000000E-01  5.0000000000E-01
                       7.5000000000E-01  7.5000000000E-01  7.5000000000E-01
                       2.5000000000E-01  2.5000000000E-01  2.5000000000E-01
                       0.0000000000E+00  0.0000000000E+00  0.0000000000E+00
                       6.2500000000E-01  1.2500000000E-01  1.2500000000E-01
                       1.2500000000E-01  1.2500000000E-01  1.2500000000E-01
                       1.2500000000E-01  1.2500000000E-01  6.2500000000E-01
                       1.2500000000E-01  6.2500000000E-01  1.2500000000E-01
            znucl       37.00000   31.00000    8.00000

- Timing analysis has been suppressed with timopt=0

 Suggested references for the acknowledgment of ABINIT usage.

 Calculation completed.
.Delivered  14 WARNINGs and   9 COMMENTs to log file.