.Version 9.5.1 of ABINIT

 ABINIT is a project of the Universite Catholique de Louvain,
 Corning Inc. and other collaborators, see ~abinit/doc/developers/contributors.txt .
 acknowledgments of the ABINIT effort.

.Starting date : Tue 27 Apr 2021.
- ( at 18h22 )

- input  file    -> /scratch/users/j/a/jabreu/flow_simple_4atoms/flow/w138/t1/run.abi
- output file    -> /scratch/users/j/a/jabreu/flow_simple_4atoms/flow/w138/t1/run.abo
- root for input  files -> /scratch/users/j/a/jabreu/flow_simple_4atoms/flow/w138/t1/indata/in
- root for output files -> /scratch/users/j/a/jabreu/flow_simple_4atoms/flow/w138/t1/outdata/out

 Symmetries : space group R-3 m (#166); Bravais hR (rhombohedral)
     intxc =       0      iscf =       7    lmnmax =      18     lnmax =       6
     mgfft =      72  mpssoang =       3    mqgrid =    3001     natom =       4
  nloc_mem =       1    nspden =       1   nspinor =       1    nsppol =       1
      nsym =      12    n1xccc =    2501    ntypat =       3    occopt =       1
   xclevel =       2
-    mband =          27        mffmem =           1         mkmem =           2
-   mkqmem =           2        mk1mem =           2           mpw =        4161
      nfft =      373248          nkpt =           2
  Rough estimation (10% accuracy) of disk space for files :

------------- Echo of variables that govern the present computation ------------
-
- outvars: echo of selected default values
-   iomode0 =  0 , fftalg0 =512 , wfoptalg0 =  0
-
- outvars: echo of global parameters not present in the input file
-  max_nthreads =    0
-
 -outvars: echo values of preprocessed input variables --------
            acell      1.0000000000E+00  1.0000000000E+00  1.0000000000E+00 Bohr
              amu      6.94100000E+00  6.35460000E+01  1.89984032E+01
             ecut      4.60000000E+01 Hartree
-          fftalg         512
           irdden           1
           irdwfk           1
           istwfk        1    1
              ixc     -116133
              kpt      5.00000000E-01  5.00000000E-01  5.55111512E-17
                       0.00000000E+00  0.00000000E+00  0.00000000E+00
           kptopt           0
P           mkmem           2
P          mkqmem           2
P          mk1mem           2
            natom           4
            nband          27
           nbdbuf           4
            ngfft          72      72      72
             nkpt           2
            nstep         100
             nsym          12
           ntypat           3
              occ      2.000000  2.000000  2.000000  2.000000  2.000000  2.000000
                       2.000000  2.000000  2.000000  2.000000  2.000000  2.000000
                       2.000000  2.000000  2.000000  2.000000  2.000000  2.000000
                       0.000000  0.000000  0.000000  0.000000  0.000000  0.000000
                       0.000000  0.000000  0.000000
        optdriver           1
            prtwf          -1
            rfdir           1       1       1
           rfelfd           2
            rprim      5.2661839042E+00  0.0000000000E+00  1.0094463142E+01
                       2.4748255419E+00  4.6484332252E+00  1.0094463142E+01
                       0.0000000000E+00  0.0000000000E+00  1.1385555719E+01
          spgroup         166
           symrel      1  0  0   0  1  0   0  0  1      -1  0  0   0 -1  0   0  0 -1
                       0  1  0   1  0  0   0  0  1       0 -1  0  -1  0  0   0  0 -1
                       0  0  1   1  0  0   0  1  0       0  0 -1  -1  0  0   0 -1  0
                       1  0  0   0  0  1   0  1  0      -1  0  0   0  0 -1   0 -1  0
                       0  1  0   0  0  1   1  0  0       0 -1  0   0  0 -1  -1  0  0
                       0  0  1   0  1  0   1  0  0       0  0 -1   0 -1  0  -1  0  0
           tolwfr      1.00000000E-20
            typat      1  2  3  3
           useylm           1
              wtk        0.50000    0.50000
           xangst      2.0481828852E+00  1.2299224592E+00  8.3542481244E+00
                       0.0000000000E+00  0.0000000000E+00  0.0000000000E+00
                       3.6670133849E+00  2.2020211930E+00  1.4957228631E+01
                       4.2935238549E-01  2.5782372544E-01  1.7512676173E+00
            xcart      3.8705047230E+00  2.3242166126E+00  1.5787241001E+01
                       0.0000000000E+00  0.0000000000E+00  0.0000000000E+00
                       6.9296510230E+00  4.1612169936E+00  2.8265065820E+01
                       8.1135842307E-01  4.8721623163E-01  3.3094161821E+00
             xred      5.0000000000E-01  5.0000000000E-01  5.0000000000E-01
                       0.0000000000E+00  0.0000000000E+00  0.0000000000E+00
                       8.9518700000E-01  8.9518700000E-01  8.9518700000E-01
                       1.0481300000E-01  1.0481300000E-01  1.0481300000E-01
            znucl        3.00000   29.00000    9.00000

 chkinp: Checking input parameters for consistency.

== DATASET  1 ==================================================================
-   mpi_nproc: 1, omp_nthreads: -1 (-1 if OMP is not activated)

--- !DatasetInfo
iteration_state: {dtset: 1, }
dimensions: {natom: 4, nkpt: 2, mband: 27, nsppol: 1, nspinor: 1, nspden: 1, mpw: 4161, }
cutoff_energies: {ecut:  46.0, pawecutdg:  -1.0, }
electrons: {nelect:   3.60000000E+01, charge:   0.00000000E+00, occopt:   1.00000000E+00, tsmear:   1.00000000E-02, }
meta: {optdriver: 1, rfelfd: 2, }
...

 Real(R)+Recip(G) space primitive vectors, cartesian coordinates (Bohr,Bohr^-1):
 R(1)=  5.2661839  0.0000000 10.0944631  G(1)=  0.1898908 -0.1010979  0.0000000
 R(2)=  2.4748255  4.6484332 10.0944631  G(2)=  0.0000000  0.2151262  0.0000000
 R(3)=  0.0000000  0.0000000 11.3855557  G(3)= -0.1683577 -0.1010979  0.0878306
 Unit cell volume ucvol=  2.7871276E+02 bohr^3
 Angles (23,13,12)=  2.75506142E+01  2.75506142E+01  2.75506142E+01 degrees

 getcut: wavevector=  0.0000  0.0000  0.0000  ngfft=  72  72  72
         ecut(hartree)=     46.000   => boxcut(ratio)=   2.07129

--- Pseudopotential description ------------------------------------------------
- pspini: atom type   1  psp file is /scratch/users/j/a/jabreu/pseudos/PBEsol/Li.psp8
- pspatm: opening atomic psp file    /scratch/users/j/a/jabreu/pseudos/PBEsol/Li.psp8
- Li    ONCVPSP-3.3.0  r_core=   1.40824   1.10935
-  3.00000   3.00000    180112                znucl, zion, pspdat
    8 -116133    1    4       400   0.00000   pspcod,pspxc,lmax,lloc,mmax,r2well
    3.99000000000000    0.00000000000000    0.00000000000000   rchrg,fchrg,qchrg
     nproj     2     2
     extension_switch     1
  pspatm : epsatm=    2.60859637
         --- l  ekb(1:nproj) -->
             0   -4.855856   -1.482423
             1   -2.171544   -0.427615
 pspatm: atomic psp has been read  and splines computed

- pspini: atom type   2  psp file is /scratch/users/j/a/jabreu/pseudos/PBEsol/Cu.psp8
- pspatm: opening atomic psp file    /scratch/users/j/a/jabreu/pseudos/PBEsol/Cu.psp8
- Cu    ONCVPSP-3.3.0  r_core=   1.26204   1.45626   1.76249
- 29.00000  19.00000    180112                znucl, zion, pspdat
    8 -116133    2    4       600   0.00000   pspcod,pspxc,lmax,lloc,mmax,r2well
    5.99000000000000    3.50000000000000    0.00000000000000   rchrg,fchrg,qchrg
     nproj     2     2     2
     extension_switch     1
  pspatm : epsatm=   21.63488701
         --- l  ekb(1:nproj) -->
             0    5.008230   -0.401634
             1   -3.496700   -0.765945
             2   -6.895851   -2.521180
 pspatm: atomic psp has been read  and splines computed

- pspini: atom type   3  psp file is /scratch/users/j/a/jabreu/pseudos/PBEsol/F.psp8
- pspatm: opening atomic psp file    /scratch/users/j/a/jabreu/pseudos/PBEsol/F.psp8
- F     ONCVPSP-3.3.0  r_core=   1.30942   1.45782   1.60379
-  9.00000   7.00000    180112                znucl, zion, pspdat
    8 -116133    2    4       600   0.00000   pspcod,pspxc,lmax,lloc,mmax,r2well
    5.99000000000000    2.50000000000000    0.00000000000000   rchrg,fchrg,qchrg
     nproj     2     2     1
     extension_switch     1
  pspatm : epsatm=    4.89824824
         --- l  ekb(1:nproj) -->
             0    6.506434    1.065875
             1   -3.978753   -1.295852
             2   -2.394754
 pspatm: atomic psp has been read  and splines computed

   1.22543927E+03                                ecore*ucvol(ha*bohr**3)

-inwffil : will read wavefunctions from disk file /scratch/users/j/a/jabreu/flow_simple_4atoms/flow/w138/t1/indata/in_WFK

 ==>  initialize data related to q vector <==

 The list of irreducible perturbations for this q vector is:
    1)    idir= 1    ipert=   5
    2)    idir= 2    ipert=   5
    3)    idir= 3    ipert=   5

 Perturbation wavevector (in red.coord.)   0.000000  0.000000  0.000000
 Perturbation : derivative vs k along direction   1

 dfpt_looppert : COMMENT -
  In a d/dk calculation, iscf is set to -3 automatically.
 The set of symmetries contains only one element for this perturbation.
 symkpt : not enough symmetry to change the number of k points.

[...]

 Initialisation of the first-order wave-functions :
  ireadwf=   0

--- !BeginCycle
iteration_state: {dtset: 1, }
solver: {iscf: 7, nstep: 100, nline: 4, wfoptalg: 0, }
tolerances: {tolwfr: 1.00E-20, }
...

     iter   2DEtotal(Ha)        deltaE(Ha) residm    vres2
-ETOT  1  -77.228782001209     -7.723E+01 1.026E-01 0.000E+00
 ETOT  2  -77.288280807986     -5.950E-02 1.180E-03 0.000E+00
 ETOT  3  -77.288486100638     -2.053E-04 1.890E-05 0.000E+00
 ETOT  4  -77.288487615698     -1.515E-06 7.681E-07 0.000E+00
 ETOT  5  -77.288487628749     -1.305E-08 1.313E-08 0.000E+00
 ETOT  6  -77.288487628869     -1.206E-10 6.594E-10 0.000E+00
 ETOT  7  -77.288487628871     -1.137E-12 1.145E-11 0.000E+00
 ETOT  8  -77.288487628871     -2.842E-14 6.011E-13 0.000E+00
 ETOT  9  -77.288487628871     -2.842E-14 1.046E-14 0.000E+00
 ETOT 10  -77.288487628871      1.421E-14 5.664E-16 0.000E+00
 ETOT 11  -77.288487628871      1.421E-14 9.814E-18 0.000E+00
 ETOT 12  -77.288487628871     -1.421E-14 5.466E-19 0.000E+00
 ETOT 13  -77.288487628871      0.000E+00 9.658E-21 0.000E+00

 At SCF step   13   max residual=  9.66E-21 < tolwfr=  1.00E-20 =>converged.

 ----iterations are completed or convergence reached----

 dfpt_looppert: DFPT cycle converged with prtwf=-1. Will skip output of the 1st-order WFK file.
 dfpt_looppert : ek2=    1.3154642193E+02
          f-sum rule ratio=    1.0719287749E+00
 prteigrs : about to open file /scratch/users/j/a/jabreu/flow_simple_4atoms/flow/w138/t1/tmpdata/tmp_1WF1_EIG
 Expectation of eigenvalue derivatives (hartree) for nkpt=   2  k points:
  (in case of degenerate eigenvalues, averaged derivative)
 kpt#   1, nband= 27, wtk=  0.50000, kpt=  0.5000  0.5000  0.0000 (reduced coord)
  -0.00000   -0.00000   -0.00000   -0.00000   -0.00000    0.00000    0.00000    0.00000
  -0.00000    0.00000    0.00000   -0.00000    0.00000    0.00000    0.00000    0.00000
   0.00000   -0.00000   -0.00000   -0.00000    0.00000    0.00000    0.00000    0.00000
  -0.00000    0.00000   -0.00026
 prteigrs : prtvol=0 or 1, do not print more k-points.

 Eight components of 2nd-order total energy (hartree) are
 1,2,3: 0th-order hamiltonian combined with 1st-order wavefunctions
     kin0=   9.23967549E+01 eigvalue=   2.12729463E+00  local=  -3.28459859E+01
 4,5,6: 1st-order hamiltonian combined with 1st and 0th-order wfs
     kin1=  -1.41008395E+02  Hartree=   0.00000000E+00     xc=   0.00000000E+00
 7,8,9: eventually, occupation + non-local contributions
    edocc=   1.70736057E+01     enl0=  -1.46318173E+00   enl1=  -1.35685804E+01
 1-9 gives the relaxation energy (to be shifted if some occ is /=2.0)
   erelax=  -7.72884876E+01
  No Ewald or frozen-wf contrib.: the relaxation energy is the total one
 2DEtotal=   -0.7728848763E+02 Ha. Also 2DEtotal=   -0.210312670483E+04 eV
    (  non-var. 2DEtotal :   -7.7288487629E+01 Ha)

 Perturbation wavevector (in red.coord.)   0.000000  0.000000  0.000000
 Perturbation : derivative vs k along direction   2
 The set of symmetries contains only one element for this perturbation.
 symkpt : not enough symmetry to change the number of k points.

[...]

 Perturbation wavevector (in red.coord.)   0.000000  0.000000  0.000000
 Perturbation : derivative vs k along direction   3
 The set of symmetries contains only one element for this perturbation.
 symkpt : not enough symmetry to change the number of k points.

-inwffil : will read wavefunctions from disk file /scratch/users/j/a/jabreu/flow_simple_4atoms/flow/w138/t1/indata/in_WFK

 Initialisation of the first-order wave-functions :
  ireadwf=   0

--- !BeginCycle
iteration_state: {dtset: 1, }
solver: {iscf: 7, nstep: 100, nline: 4, wfoptalg: 0, }
tolerances: {tolwfr: 1.00E-20, }
...

     iter   2DEtotal(Ha)        deltaE(Ha) residm    vres2
-ETOT  1  -76.861136464956     -7.686E+01 2.105E-01 0.000E+00
 ETOT  2  -76.901422321155     -4.029E-02 3.273E-03 0.000E+00
 ETOT  3  -76.901494246119     -7.192E-05 1.619E-04 0.000E+00
 ETOT  4  -76.901494662319     -4.162E-07 2.518E-06 0.000E+00
 ETOT  5  -76.901494665608     -3.289E-09 1.009E-07 0.000E+00
 ETOT  6  -76.901494665639     -3.047E-11 2.019E-09 0.000E+00
 ETOT  7  -76.901494665639     -3.411E-13 8.411E-11 0.000E+00
 ETOT  8  -76.901494665639     -1.421E-14 1.822E-12 0.000E+00
 ETOT  9  -76.901494665639      0.000E+00 7.717E-14 0.000E+00
 ETOT 10  -76.901494665639      4.263E-14 1.724E-15 0.000E+00
 ETOT 11  -76.901494665639      0.000E+00 7.299E-17 0.000E+00
 ETOT 12  -76.901494665639     -2.842E-14 1.663E-18 0.000E+00
 ETOT 13  -76.901494665639      0.000E+00 7.002E-20 0.000E+00
 ETOT 14  -76.901494665639      1.421E-14 9.764E-21 0.000E+00

 At SCF step   14   max residual=  9.76E-21 < tolwfr=  1.00E-20 =>converged.

 ----iterations are completed or convergence reached----

 dfpt_looppert: DFPT cycle converged with prtwf=-1. Will skip output of the 1st-order WFK file.
 dfpt_looppert : ek2=    1.3154642193E+02
          f-sum rule ratio=    1.0625628129E+00
 prteigrs : about to open file /scratch/users/j/a/jabreu/flow_simple_4atoms/flow/w138/t1/tmpdata/tmp_1WF1_EIG
 Expectation of eigenvalue derivatives (hartree) for nkpt=   2  k points:
  (in case of degenerate eigenvalues, averaged derivative)
 kpt#   1, nband= 27, wtk=  0.50000, kpt=  0.5000  0.5000  0.0000 (reduced coord)
   0.00000   -0.00000    0.00000    0.00000    0.00000    0.00000    0.00000   -0.00000
   0.00000   -0.00000    0.00000    0.00000    0.00000    0.00000   -0.00000    0.00000
   0.00000    0.00000    0.00000   -0.00000    0.00000   -0.00000   -0.00000    0.00000
   0.00000   -0.00000    0.00042
 prteigrs : prtvol=0 or 1, do not print more k-points.

 Eight components of 2nd-order total energy (hartree) are
 1,2,3: 0th-order hamiltonian combined with 1st-order wavefunctions
     kin0=   9.22349579E+01 eigvalue=   2.23804179E+00  local=  -3.27704634E+01
 4,5,6: 1st-order hamiltonian combined with 1st and 0th-order wfs
     kin1=  -1.39776336E+02  Hartree=   0.00000000E+00     xc=   0.00000000E+00
 7,8,9: eventually, occupation + non-local contributions
    edocc=   1.63528662E+01     enl0=  -1.15390787E+00   enl1=  -1.40266532E+01
 1-9 gives the relaxation energy (to be shifted if some occ is /=2.0)
   erelax=  -7.69014947E+01
  No Ewald or frozen-wf contrib.: the relaxation energy is the total one
 2DEtotal=   -0.7690149467E+02 Ha. Also 2DEtotal=   -0.209259609075E+04 eV
    (  non-var. 2DEtotal :   -7.6901494666E+01 Ha)

 CALCULATION OF EFFECTIVE MASSES
 NOTE : Additional infos (eff. mass eigenvalues, eigenvectors and, if degenerate, average mass) are available in stdout.

 K-point ( 0.500, 0.500, 0.000) | band =    18
 Effective mass tensor:
             -3.8728848080              5.5383807324             -0.4059890057
              5.5383807324             -9.7701553618             -0.2439824475
             -0.4059890057             -0.2439824475             -4.9598382743
 Effective mass tensor eigenvalues:
            -13.0959213450             -5.0101082715             -0.4968488275
 Angular average effective mass 1/(<1/m>)=  -1.3108217066
 Angular average effective mass for Frohlich model (<m**0.5>)**2=  -2.2220675334
 Effective masses along directions: (cart. coord. / red. coord. -> eff. mass)
    1:   1.000000  0.000000  0.000000 /   0.905042  0.425322  0.000000 ->  -0.6735537816
    2:   0.000000  1.000000  0.000000 /   0.000000  1.000000  0.000000 ->  -1.7117802304
    3:   0.000000  0.000000  1.000000 /   0.552819  0.552819  0.623525 ->  -4.5497729082
    4:   0.577350  0.577350  0.577350 /   0.596995  0.669170  0.442502 ->  -0.8675975763
    5:   0.000000  0.707107  0.707107 /   0.476450  0.695852  0.537388 ->  -3.2891635395
    6:   0.707107  0.000000  0.707107 /   0.671310  0.549319  0.497586 ->  -1.4511703629
    7:   0.707107  0.707107  0.000000 /   0.594476  0.804113  0.000000 ->  -0.5318852122

 K-point ( 0.000, 0.000, 0.000) | band =    19
 Effective mass tensor:
              3.1592259153             -0.0884690778             -0.6009198342
             -0.0884690778              3.2533568334             -0.3608628332
             -0.6009198342             -0.3608628332              0.8554105810
 Effective mass tensor eigenvalues:
              0.6549608228              3.3064852870              3.3065472199
 Angular average effective mass 1/(<1/m>)=   1.4073439218
 Angular average effective mass for Frohlich model (<m**0.5>)**2=   1.7148800930
 Effective masses along directions: (cart. coord. / red. coord. -> eff. mass)
    1:   1.000000  0.000000  0.000000 /   0.905042  0.425322  0.000000 ->   2.6993733964
    2:   0.000000  1.000000  0.000000 /   0.000000  1.000000  0.000000 ->   3.0583972899
    3:   0.000000  0.000000  1.000000 /   0.552819  0.552819  0.623525 ->   0.6972284583
    4:   0.577350  0.577350  0.577350 /   0.596995  0.669170  0.442502 ->   0.9672436742
    5:   0.000000  0.707107  0.707107 /   0.476450  0.695852  0.537388 ->   0.9548890482
    6:   0.707107  0.000000  0.707107 /   0.671310  0.549319  0.497586 ->   0.8475798747
    7:   0.707107  0.707107  0.000000 /   0.594476  0.804113  0.000000 ->   2.5669715371

 END OF EFFECTIVE MASSES SECTION

 ---- first-order wavefunction calculations are completed ----

 Total localisation tensor (bohr^2) in cartesian coordinates
  WARNING : still subject to testing - especially symmetries.
      direction              matrix element
   alpha     beta       real part   imaginary part
     1        1       0.7647594064    0.0000000000
     1        2       0.2598485085    0.0000000000
     1        3       1.7650259633    0.0000000000
     2        1       0.2598485085    0.0000000000
     2        2       0.4880701367    0.0000000000
     2        3       1.0598852919    0.0000000000
     3        1       1.7650259633    0.0000000000
     3        2       1.0598852919    0.0000000000
     3        3       8.1161275110    0.0000000000

 respfn : d/dk was computed, but no 2DTE, so no DDB output.

== END DATASET(S) ==============================================================

 -outvars: echo values of variables after computation  --------
            acell      1.0000000000E+00  1.0000000000E+00  1.0000000000E+00 Bohr
              amu      6.94100000E+00  6.35460000E+01  1.89984032E+01
             ecut      4.60000000E+01 Hartree
           etotal     -7.6901494666E+01
            fcart      0.0000000000E+00  0.0000000000E+00  0.0000000000E+00
                       0.0000000000E+00  0.0000000000E+00  0.0000000000E+00
                       0.0000000000E+00  0.0000000000E+00  0.0000000000E+00
                       0.0000000000E+00  0.0000000000E+00  0.0000000000E+00
-          fftalg         512
           irdden           1
           irdwfk           1
           istwfk        1    1
              ixc     -116133
              kpt      5.00000000E-01  5.00000000E-01  5.55111512E-17
                       0.00000000E+00  0.00000000E+00  0.00000000E+00
           kptopt           0
P           mkmem           2
P          mkqmem           2
P          mk1mem           2
            natom           4
            nband          27
           nbdbuf           4
            ngfft          72      72      72
             nkpt           2
            nstep         100
             nsym          12
           ntypat           3
              occ      2.000000  2.000000  2.000000  2.000000  2.000000  2.000000
                       2.000000  2.000000  2.000000  2.000000  2.000000  2.000000
                       2.000000  2.000000  2.000000  2.000000  2.000000  2.000000
                       0.000000  0.000000  0.000000  0.000000  0.000000  0.000000
                       0.000000  0.000000  0.000000
        optdriver           1
            prtwf          -1
            rfdir           1       1       1
           rfelfd           2
            rprim      5.2661839042E+00  0.0000000000E+00  1.0094463142E+01
                       2.4748255419E+00  4.6484332252E+00  1.0094463142E+01
                       0.0000000000E+00  0.0000000000E+00  1.1385555719E+01
          spgroup         166
           strten      0.0000000000E+00  0.0000000000E+00  0.0000000000E+00
                       0.0000000000E+00  0.0000000000E+00  0.0000000000E+00
           symrel      1  0  0   0  1  0   0  0  1      -1  0  0   0 -1  0   0  0 -1
                       0  1  0   1  0  0   0  0  1       0 -1  0  -1  0  0   0  0 -1
                       0  0  1   1  0  0   0  1  0       0  0 -1  -1  0  0   0 -1  0
                       1  0  0   0  0  1   0  1  0      -1  0  0   0  0 -1   0 -1  0
                       0  1  0   0  0  1   1  0  0       0 -1  0   0  0 -1  -1  0  0
                       0  0  1   0  1  0   1  0  0       0  0 -1   0 -1  0  -1  0  0
           tolwfr      1.00000000E-20
            typat      1  2  3  3
           useylm           1
              wtk        0.50000    0.50000
           xangst      2.0481828852E+00  1.2299224592E+00  8.3542481244E+00
                       0.0000000000E+00  0.0000000000E+00  0.0000000000E+00
                       3.6670133849E+00  2.2020211930E+00  1.4957228631E+01
                       4.2935238549E-01  2.5782372544E-01  1.7512676173E+00
            xcart      3.8705047230E+00  2.3242166126E+00  1.5787241001E+01
                       0.0000000000E+00  0.0000000000E+00  0.0000000000E+00
                       6.9296510230E+00  4.1612169936E+00  2.8265065820E+01
                       8.1135842307E-01  4.8721623163E-01  3.3094161821E+00
             xred      5.0000000000E-01  5.0000000000E-01  5.0000000000E-01
                       0.0000000000E+00  0.0000000000E+00  0.0000000000E+00
                       8.9518700000E-01  8.9518700000E-01  8.9518700000E-01
                       1.0481300000E-01  1.0481300000E-01  1.0481300000E-01
            znucl        3.00000   29.00000    9.00000

- Timing analysis has been suppressed with timopt=0

 Suggested references for the acknowledgment of ABINIT usage.

 Calculation completed.
.Delivered  14 WARNINGs and   9 COMMENTs to log file.