.Version 9.5.1 of ABINIT

 ABINIT is a project of the Universite Catholique de Louvain,
 Corning Inc. and other collaborators, see ~abinit/doc/developers/contributors.txt .
 acknowledgments of the ABINIT effort.

.Starting date : Wed  5 May 2021.
- ( at 20h10 )

- input  file    -> /scratch/users/j/a/jabreu/flow_simple_7atoms/flow/w196/t1/run.abi
- output file    -> /scratch/users/j/a/jabreu/flow_simple_7atoms/flow/w196/t1/run.abo
- root for input  files -> /scratch/users/j/a/jabreu/flow_simple_7atoms/flow/w196/t1/indata/in
- root for output files -> /scratch/users/j/a/jabreu/flow_simple_7atoms/flow/w196/t1/outdata/out

 Symmetries : space group I-4 (# 82); Bravais tI (body-center tetrag.)
     intxc =       0      iscf =       7    lmnmax =      25     lnmax =       7
     mgfft =      80  mpssoang =       4    mqgrid =    3001     natom =       7
  nloc_mem =       1    nspden =       1   nspinor =       1    nsppol =       1
      nsym =       4    n1xccc =    2501    ntypat =       3    occopt =       1
   xclevel =       2
-    mband =          54        mffmem =           1         mkmem =           2
-   mkqmem =           2        mk1mem =           2           mpw =       18123
      nfft =      512000          nkpt =           2
  Rough estimation (10% accuracy) of disk space for files :

------------- Echo of variables that govern the present computation ------------
-
- outvars: echo of selected default values
-   iomode0 =  0 , fftalg0 =512 , wfoptalg0 =  0
-
- outvars: echo of global parameters not present in the input file
-  max_nthreads =    0
-
 -outvars: echo values of preprocessed input variables --------
            acell      1.0000000000E+00  1.0000000000E+00  1.0000000000E+00 Bohr
              amu      2.69815390E+01  2.00590000E+02  1.27600000E+02
             ecut      4.00000000E+01 Hartree
-          fftalg         512
           irdden           1
           irdwfk           1
           istwfk        1    0
              ixc     -116133
              kpt      0.00000000E+00  0.00000000E+00  0.00000000E+00
                       5.00000000E-01  5.00000000E-01 -5.00000000E-01
           kptopt           0
P           mkmem           2
P          mkqmem           2
P          mk1mem           2
            natom           7
            nband          54
           nbdbuf           4
            ngfft          80      80      80
             nkpt           2
            nstep        2000
             nsym           4
           ntypat           3
              occ      2.000000  2.000000  2.000000  2.000000  2.000000  2.000000
                       2.000000  2.000000  2.000000  2.000000  2.000000  2.000000
                       2.000000  2.000000  2.000000  2.000000  2.000000  2.000000
                       2.000000  2.000000  2.000000  2.000000  2.000000  2.000000
                       2.000000  2.000000  2.000000  2.000000  2.000000  2.000000
                       2.000000  2.000000  2.000000  2.000000  2.000000  2.000000
                       2.000000  2.000000  2.000000  2.000000  2.000000  2.000000
                       2.000000  2.000000  2.000000  0.000000  0.000000  0.000000
                       0.000000  0.000000  0.000000  0.000000  0.000000  0.000000
        optdriver           1
            prtwf          -1
            rfdir           1       1       1
           rfelfd           2
            rprim      1.0515006820E+01  0.0000000000E+00 -8.9847223284E+00
                      -2.2334098629E+00  1.0275079017E+01 -8.9847223284E+00
                       0.0000000000E+00  0.0000000000E+00  1.3830784639E+01
          spgroup          82
           symrel      1  0  0   0  1  0   0  0  1       0  1  0   1  0  0  -1 -1 -1
                      -1 -1 -1   0  0  1   1  0  0       0  0  1  -1 -1 -1   0  1  0
           tolwfr      1.00000000E-20
            typat      1  1  2  3  3  3  3
           useylm           1
              wtk        0.50000    0.50000
           xangst      5.0467329164E-01  4.0780032242E+00 -1.0950422777E+00
                       2.1912161802E+00  2.7186688161E+00 -4.7545102817E+00
                       0.0000000000E+00  0.0000000000E+00  0.0000000000E+00
                       1.2751855536E+00  4.8455663503E+00 -6.0074242225E+00
                       4.3329013858E+00  2.1124559655E+00  1.1579090956E+00
                       2.7152123679E+00  3.1620402013E+00 -2.2125723630E+00
                       4.4156541324E-01  7.5461274728E-01  2.6819183792E+00
            xcart      9.5369430778E-01  7.7063092627E+00 -2.0693300088E+00
                       4.1407984784E+00  5.1375395084E+00 -8.9847223284E+00
                       0.0000000000E+00  0.0000000000E+00  0.0000000000E+00
                       2.4097514650E+00  9.1567933609E+00 -1.1352386545E+01
                       8.1879969800E+00  3.9919632425E+00  2.1881310774E+00
                       5.1310077680E+00  5.9753900016E+00 -4.1811558153E+00
                       8.3443770077E-01  1.4260114287E+00  5.0680912474E+00
             xred      2.5000000000E-01  7.5000000000E-01  5.0000000000E-01
                       5.0000000000E-01  5.0000000000E-01  0.0000000000E+00
                       0.0000000000E+00  0.0000000000E+00  0.0000000000E+00
                       4.1845800000E-01  8.9116525000E-01  2.9948750000E-02
                       8.6121650000E-01  3.8850925000E-01  9.7005125000E-01
                       6.1149075000E-01  5.8154200000E-01  4.7270725000E-01
                       1.0883475000E-01  1.3878350000E-01  5.2729275000E-01
            znucl       13.00000   80.00000   52.00000

 chkinp: Checking input parameters for consistency.

== DATASET  1 ==================================================================
-   mpi_nproc: 1, omp_nthreads: -1 (-1 if OMP is not activated)

--- !DatasetInfo
iteration_state: {dtset: 1, }
dimensions: {natom: 7, nkpt: 2, mband: 54, nsppol: 1, nspinor: 1, nspden: 1, mpw: 18123, }
cutoff_energies: {ecut:  40.0, pawecutdg:  -1.0, }
electrons: {nelect:   9.00000000E+01, charge:   0.00000000E+00, occopt:   1.00000000E+00, tsmear:   1.00000000E-02, }
meta: {optdriver: 1, rfelfd: 2, }
...

 Real(R)+Recip(G) space primitive vectors, cartesian coordinates (Bohr,Bohr^-1):
 R(1)= 10.5150068  0.0000000 -8.9847223  G(1)=  0.0951022  0.0206716  0.0000000
 R(2)= -2.2334099 10.2750790 -8.9847223  G(2)=  0.0000000  0.0973229  0.0000000
 R(3)=  0.0000000  0.0000000 13.8307846  G(3)=  0.0617801  0.0766513  0.0723025
 Unit cell volume ucvol=  1.4943129E+03 bohr^3
 Angles (23,13,12)=  1.30512783E+02  1.30512783E+02  7.25883163E+01 degrees

 getcut: wavevector=  0.0000  0.0000  0.0000  ngfft=  80  80  80
         ecut(hartree)=     40.000   => boxcut(ratio)=   2.03165

--- Pseudopotential description ------------------------------------------------
- pspini: atom type   1  psp file is /scratch/users/j/a/jabreu/pseudos/PBEsol/Al.psp8
- pspatm: opening atomic psp file    /scratch/users/j/a/jabreu/pseudos/PBEsol/Al.psp8
- Al    ONCVPSP-3.3.0  r_core=   1.76802   1.76802   1.70587
- 13.00000   3.00000    180112                znucl, zion, pspdat
    8 -116133    2    4       600   0.00000   pspcod,pspxc,lmax,lloc,mmax,r2well
    5.99000000000000    5.00000000000000    0.00000000000000   rchrg,fchrg,qchrg
     nproj     2     2     2
     extension_switch     1
  pspatm : epsatm=    0.68509324
         --- l  ekb(1:nproj) -->
             0    5.834965    0.726662
             1    6.225605    0.924840
             2   -2.432733   -0.548689
 pspatm: atomic psp has been read  and splines computed

- pspini: atom type   2  psp file is /scratch/users/j/a/jabreu/pseudos/PBEsol/Hg.psp8
- pspatm: opening atomic psp file    /scratch/users/j/a/jabreu/pseudos/PBEsol/Hg.psp8
- Hg    ONCVPSP-3.3.0  r_core=   1.60079   1.60079   1.45509   1.60079
- 80.00000  20.00000    180112                znucl, zion, pspdat
    8 -116133    3    4       600   0.00000   pspcod,pspxc,lmax,lloc,mmax,r2well
    5.99000000000000    5.00000000000000    0.00000000000000   rchrg,fchrg,qchrg
     nproj     2     2     2     1
     extension_switch     1
  pspatm : epsatm=   30.52477316
         --- l  ekb(1:nproj) -->
             0   15.280580    2.063595
             1   11.999965    1.374025
             2    2.245749    0.205661
             3    0.961656
 pspatm: atomic psp has been read  and splines computed

- pspini: atom type   3  psp file is /scratch/users/j/a/jabreu/pseudos/PBEsol/Te.psp8
- pspatm: opening atomic psp file    /scratch/users/j/a/jabreu/pseudos/PBEsol/Te.psp8
- Te    ONCVPSP-3.3.0  r_core=   2.26547   1.91704   1.80604
- 52.00000  16.00000    180112                znucl, zion, pspdat
    8 -116133    2    4       600   0.00000   pspcod,pspxc,lmax,lloc,mmax,r2well
    5.99000000000000    5.00000000000000    0.00000000000000   rchrg,fchrg,qchrg
     nproj     2     2     2
     extension_switch     1
  pspatm : epsatm=   36.82679836
         --- l  ekb(1:nproj) -->
             0    6.345999    0.785432
             1    5.709019    1.070069
             2   -6.035173   -1.870937
 pspatm: atomic psp has been read  and splines computed

   1.61281938E+04                                ecore*ucvol(ha*bohr**3)

-inwffil : will read wavefunctions from disk file /scratch/users/j/a/jabreu/flow_simple_7atoms/flow/w196/t1/indata/in_WFK

 ==>  initialize data related to q vector <==

 The list of irreducible perturbations for this q vector is:
    1)    idir= 1    ipert=   8
    2)    idir= 2    ipert=   8
    3)    idir= 3    ipert=   8

 Perturbation wavevector (in red.coord.)   0.000000  0.000000  0.000000
 Perturbation : derivative vs k along direction   1

 dfpt_looppert : COMMENT -
  In a d/dk calculation, iscf is set to -3 automatically.
 The set of symmetries contains only one element for this perturbation.
 symkpt : not enough symmetry to change the number of k points.

[...]

 Initialisation of the first-order wave-functions :
  ireadwf=   0

--- !BeginCycle
iteration_state: {dtset: 1, }
solver: {iscf: 7, nstep: 2000, nline: 4, wfoptalg: 0, }
tolerances: {tolwfr: 1.00E-20, }
...

     iter   2DEtotal(Ha)        deltaE(Ha) residm    vres2
-ETOT  1  -71.085291770199     -7.109E+01 4.323E-02 0.000E+00
 ETOT  2  -71.128320046734     -4.303E-02 1.178E-03 0.000E+00
 ETOT  3  -71.128365865364     -4.582E-05 1.851E-05 0.000E+00
 ETOT  4  -71.128366077465     -2.121E-07 9.757E-07 0.000E+00
 ETOT  5  -71.128366078877     -1.411E-09 1.922E-08 0.000E+00
 ETOT  6  -71.128366078888     -1.103E-11 1.353E-09 0.000E+00
 ETOT  7  -71.128366078888      0.000E+00 3.351E-11 0.000E+00
 ETOT  8  -71.128366078888     -8.527E-14 2.925E-12 0.000E+00
 ETOT  9  -71.128366078888      1.421E-14 9.503E-14 0.000E+00
 ETOT 10  -71.128366078888      1.421E-14 9.092E-15 0.000E+00
 ETOT 11  -71.128366078888     -2.842E-14 3.209E-16 0.000E+00
 ETOT 12  -71.128366078888      4.263E-14 3.174E-17 0.000E+00
 ETOT 13  -71.128366078888     -4.263E-14 1.147E-18 0.000E+00
 ETOT 14  -71.128366078888      0.000E+00 1.146E-19 0.000E+00
 ETOT 15  -71.128366078888      0.000E+00 9.827E-21 0.000E+00

 At SCF step   15   max residual=  9.83E-21 < tolwfr=  1.00E-20 =>converged.

 ----iterations are completed or convergence reached----

 dfpt_looppert: DFPT cycle converged with prtwf=-1. Will skip output of the 1st-order WFK file.
 dfpt_looppert : ek2=    6.7307258422E+01
          f-sum rule ratio=    1.1340534453E+00
 prteigrs : about to open file /scratch/users/j/a/jabreu/flow_simple_7atoms/flow/w196/t1/tmpdata/tmp_1WF1_EIG
 Expectation of eigenvalue derivatives (hartree) for nkpt=   2  k points:
  (in case of degenerate eigenvalues, averaged derivative)
 kpt#   1, nband= 54, wtk=  0.50000, kpt=  0.0000  0.0000  0.0000 (reduced coord)
  -0.00000    0.00000   -0.00000   -0.00000   -0.00000   -0.00000    0.00000    0.00000
   0.00000    0.00000   -0.00000   -0.00000   -0.00000   -0.00000    0.00000    0.00000
   0.00000   -0.00000   -0.00000    0.00000   -0.00000   -0.00000    0.00000    0.00000
   0.00000    0.00000    0.00000    0.00000    0.00000    0.00000   -0.00000   -0.00000
  -0.00000   -0.00000    0.00000   -0.00000    0.00000    0.00000    0.00000    0.00000
  -0.00000   -0.00000   -0.00000    0.00000    0.00000    0.00000    0.00000   -0.00000
   0.00000    0.00000   -0.00000   -0.00000   -0.00000   -0.00000
 prteigrs : prtvol=0 or 1, do not print more k-points.

 Eight components of 2nd-order total energy (hartree) are
 1,2,3: 0th-order hamiltonian combined with 1st-order wavefunctions
     kin0=   7.43534868E+01 eigvalue=   1.21235024E+01  local=  -4.00674976E+01
 4,5,6: 1st-order hamiltonian combined with 1st and 0th-order wfs
     kin1=  -7.63300283E+01  Hartree=   0.00000000E+00     xc=   0.00000000E+00
 7,8,9: eventually, occupation + non-local contributions
    edocc=   1.43148270E+01     enl0=   1.04040475E+01   enl1=  -6.59267039E+01
 1-9 gives the relaxation energy (to be shifted if some occ is /=2.0)
   erelax=  -7.11283661E+01
  No Ewald or frozen-wf contrib.: the relaxation energy is the total one
 2DEtotal=   -0.7112836608E+02 Ha. Also 2DEtotal=   -0.193550127271E+04 eV
    (  non-var. 2DEtotal :   -7.1128366079E+01 Ha)

 Perturbation wavevector (in red.coord.)   0.000000  0.000000  0.000000
 Perturbation : derivative vs k along direction   2
 The set of symmetries contains only one element for this perturbation.
 symkpt : not enough symmetry to change the number of k points.

[...]

 Perturbation wavevector (in red.coord.)   0.000000  0.000000  0.000000
 Perturbation : derivative vs k along direction   3
 The set of symmetries contains only one element for this perturbation.
 symkpt : not enough symmetry to change the number of k points.

-inwffil : will read wavefunctions from disk file /scratch/users/j/a/jabreu/flow_simple_7atoms/flow/w196/t1/indata/in_WFK

 Initialisation of the first-order wave-functions :
  ireadwf=   0

--- !BeginCycle
iteration_state: {dtset: 1, }
solver: {iscf: 7, nstep: 2000, nline: 4, wfoptalg: 0, }
tolerances: {tolwfr: 1.00E-20, }
...

     iter   2DEtotal(Ha)        deltaE(Ha) residm    vres2
-ETOT  1  -113.01520343259     -1.130E+02 9.072E-02 0.000E+00
 ETOT  2  -113.08229989498     -6.710E-02 2.042E-03 0.000E+00
 ETOT  3  -113.08236382329     -6.393E-05 2.200E-05 0.000E+00
 ETOT  4  -113.08236408144     -2.581E-07 6.919E-07 0.000E+00
 ETOT  5  -113.08236408297     -1.530E-09 3.563E-08 0.000E+00
 ETOT  6  -113.08236408298     -1.081E-11 1.284E-09 0.000E+00
 ETOT  7  -113.08236408298     -5.684E-14 9.954E-11 0.000E+00
 ETOT  8  -113.08236408298     -1.421E-14 4.651E-12 0.000E+00
 ETOT  9  -113.08236408298      5.684E-14 3.909E-13 0.000E+00
 ETOT 10  -113.08236408298     -1.421E-14 2.050E-14 0.000E+00
 ETOT 11  -113.08236408298     -4.263E-14 1.733E-15 0.000E+00
 ETOT 12  -113.08236408298      0.000E+00 9.359E-17 0.000E+00
 ETOT 13  -113.08236408298      2.842E-14 7.901E-18 0.000E+00
 ETOT 14  -113.08236408298     -1.421E-14 4.309E-19 0.000E+00
 ETOT 15  -113.08236408298      1.421E-14 3.641E-20 0.000E+00
 ETOT 16  -113.08236408298      0.000E+00 9.914E-21 0.000E+00

 At SCF step   16   max residual=  9.91E-21 < tolwfr=  1.00E-20 =>converged.

 ----iterations are completed or convergence reached----

 dfpt_looppert: DFPT cycle converged with prtwf=-1. Will skip output of the 1st-order WFK file.
 dfpt_looppert : ek2=    1.0602210654E+02
          f-sum rule ratio=    1.1524051285E+00
 prteigrs : about to open file /scratch/users/j/a/jabreu/flow_simple_7atoms/flow/w196/t1/tmpdata/tmp_1WF1_EIG
 Expectation of eigenvalue derivatives (hartree) for nkpt=   2  k points:
  (in case of degenerate eigenvalues, averaged derivative)
 kpt#   1, nband= 54, wtk=  0.50000, kpt=  0.0000  0.0000  0.0000 (reduced coord)
  -0.00000    0.00000   -0.00000   -0.00000    0.00000   -0.00000    0.00000    0.00000
  -0.00000   -0.00000    0.00000    0.00000   -0.00000    0.00000    0.00000    0.00000
  -0.00000    0.00000    0.00000   -0.00000   -0.00000   -0.00000    0.00000    0.00000
  -0.00000   -0.00000   -0.00000    0.00000    0.00000    0.00000    0.00000    0.00000
   0.00000   -0.00000    0.00000   -0.00000    0.00000    0.00000    0.00000    0.00000
  -0.00000   -0.00000   -0.00000   -0.00000   -0.00000    0.00000   -0.00000   -0.00000
   0.00000    0.00000    0.00000   -0.00000   -0.00000   -0.00000
 prteigrs : prtvol=0 or 1, do not print more k-points.

 Eight components of 2nd-order total energy (hartree) are
 1,2,3: 0th-order hamiltonian combined with 1st-order wavefunctions
     kin0=   1.16748077E+02 eigvalue=   1.91436351E+01  local=  -6.28249903E+01
 4,5,6: 1st-order hamiltonian combined with 1st and 0th-order wfs
     kin1=  -1.22180419E+02  Hartree=   0.00000000E+00     xc=   0.00000000E+00
 7,8,9: eventually, occupation + non-local contributions
    edocc=   2.37167055E+01     enl0=   1.62989366E+01   enl1=  -1.03984309E+02
 1-9 gives the relaxation energy (to be shifted if some occ is /=2.0)
   erelax=  -1.13082364E+02
  No Ewald or frozen-wf contrib.: the relaxation energy is the total one
 2DEtotal=   -0.1130823641E+03 Ha. Also 2DEtotal=   -0.307712761686E+04 eV
    (  non-var. 2DEtotal :   -1.1308236408E+02 Ha)

 CALCULATION OF EFFECTIVE MASSES
 NOTE : Additional infos (eff. mass eigenvalues, eigenvectors and, if degenerate, average mass) are available in stdout.

 COMMENTS:
 - At k-point ( 0.000, 0.000, 0.000), bands    44 through    45
   are DEGENERATE (effective mass tensor is therefore not defined).
   See Section IIIB Eqs. (67)-(70) and Appendix E of PRB 93 205147 (2016).
 - Angular average effective mass for Frohlich model is to be averaged over degenerate bands. See later.
 - Associated theta integrals calculated with ntheta=   1000 points.

 K-point ( 0.000, 0.000, 0.000) | band =    44
 Transport equivalent effective mass tensor:
             -0.1578752670             -0.0698236863              0.1221102858
             -0.0698236863             -0.1882292746              0.1515037314
              0.1221102858              0.1515037314             -0.3665535870
 Transport equivalent effective mass tensor eigenvalues:
             -0.5094617898             -0.1015981695             -0.1015981693
 Angular average effective mass 1/(<1/m>)=  -0.1367664532
 Angular average effective mass for Frohlich model (<m**0.5>)**2=  -0.1537956951
 Effective masses along directions: (cart. coord. / red. coord. -> eff. mass)
    1:   1.000000  0.000000  0.000000 /   0.978178 -0.207767  0.000000 ->  -0.1181949282
    2:   0.000000  1.000000  0.000000 /   0.000000  1.000000  0.000000 ->  -0.1298671032
    3:   0.000000  0.000000  1.000000 /  -0.478384 -0.478384  0.736409 ->  -0.1988364056
    4:   0.577350  0.577350  0.577350 /   0.109721 -0.067616  0.991660 ->  -0.0942942213
    5:   0.000000  0.707107  0.707107 /  -0.543103  0.077999  0.836035 ->  -0.1076268472
    6:   0.707107  0.000000  0.707107 /   0.085615 -0.627624  0.773795 ->  -0.1146648213
    7:   0.707107  0.707107  0.000000 /   0.794329  0.607487  0.000000 ->  -0.1316361058

 K-point ( 0.000, 0.000, 0.000) | band =    45
 Transport equivalent effective mass tensor:
             -4.2623619420              0.0838282525             -0.1466019929
              0.0838282525             -4.2259198191             -0.1818908931
             -0.1466019929             -0.1818908931             -4.0118289341
 Transport equivalent effective mass tensor eigenvalues:
             -4.3299265611             -4.3299265579             -3.8402575761
 Angular average effective mass 1/(<1/m>)=  -0.7737535054
 Angular average effective mass for Frohlich model (<m**0.5>)**2=  -0.9095011886
 Effective masses along directions: (cart. coord. / red. coord. -> eff. mass)
    1:   1.000000  0.000000  0.000000 /   0.978178 -0.207767  0.000000 ->  -0.6705920966
    2:   0.000000  1.000000  0.000000 /   0.000000  1.000000  0.000000 ->  -0.5752995418
    3:   0.000000  0.000000  1.000000 /  -0.478384 -0.478384  0.736409 ->  -0.7179145084
    4:   0.577350  0.577350  0.577350 /   0.109721 -0.067616  0.991660 ->  -3.3669493901
    5:   0.000000  0.707107  0.707107 /  -0.543103  0.077999  0.836035 ->  -0.8322910189
    6:   0.707107  0.000000  0.707107 /   0.085615 -0.627624  0.773795 ->  -0.6530254426
    7:   0.707107  0.707107  0.000000 /   0.794329  0.607487  0.000000 ->  -1.0900404066

 Angular average effective mass for Frohlich model, averaged over degenerate bands.
 Value of     (<<m**0.5>>)**2 =     4.528251E-01
 Absolute Value of <<m**0.5>> =     6.729228E-01

 K-point ( 0.500, 0.500,-0.500) | band =    46
 Effective mass tensor:
              0.2728551349             -0.0007318521              0.0012792528
             -0.0007318521              0.2725627270              0.0016110556
              0.0012792528              0.0016110556              0.2706656714
 Effective mass tensor eigenvalues:
              0.2691572620              0.2734425210              0.2734837503
 Angular average effective mass 1/(<1/m>)=   0.2720126171
 Angular average effective mass for Frohlich model (<m**0.5>)**2=   0.2720171979
 Effective masses along directions: (cart. coord. / red. coord. -> eff. mass)
    1:   1.000000  0.000000  0.000000 /   0.978178 -0.207767  0.000000 ->   0.2728470825
    2:   0.000000  1.000000  0.000000 /   0.000000  1.000000  0.000000 ->   0.2725511336
    3:   0.000000  0.000000  1.000000 /  -0.478384 -0.478384  0.736409 ->   0.2706501105
    4:   0.577350  0.577350  0.577350 /   0.109721 -0.067616  0.991660 ->   0.2734667996
    5:   0.000000  0.707107  0.707107 /  -0.543103  0.077999  0.836035 ->   0.2732213592
    6:   0.707107  0.000000  0.707107 /   0.085615 -0.627624  0.773795 ->   0.2730337763
    7:   0.707107  0.707107  0.000000 /   0.794329  0.607487  0.000000 ->   0.2719615666

 END OF EFFECTIVE MASSES SECTION

 ---- first-order wavefunction calculations are completed ----

 Total localisation tensor (bohr^2) in cartesian coordinates
  WARNING : still subject to testing - especially symmetries.
      direction              matrix element
   alpha     beta       real part   imaginary part
     1        1       2.5766221090    0.0000000000
     1        2      -0.5116966095    0.0000000000
     1        3      -1.6591638420    0.0000000000
     2        1      -0.5116966095    0.0000000000
     2        2       2.3541237023    0.0000000000
     2        3      -2.0584900376    0.0000000000
     3        1      -1.6591638420    0.0000000000
     3        2      -2.0584900376    0.0000000000
     3        3      10.7841772545    0.0000000000

 respfn : d/dk was computed, but no 2DTE, so no DDB output.

== END DATASET(S) ==============================================================

 -outvars: echo values of variables after computation  --------
            acell      1.0000000000E+00  1.0000000000E+00  1.0000000000E+00 Bohr
              amu      2.69815390E+01  2.00590000E+02  1.27600000E+02
             ecut      4.00000000E+01 Hartree
           etotal     -1.1308236408E+02
            fcart      0.0000000000E+00  0.0000000000E+00  0.0000000000E+00
                       0.0000000000E+00  0.0000000000E+00  0.0000000000E+00
                       0.0000000000E+00  0.0000000000E+00  0.0000000000E+00
                       0.0000000000E+00  0.0000000000E+00  0.0000000000E+00
                       0.0000000000E+00  0.0000000000E+00  0.0000000000E+00
                       0.0000000000E+00  0.0000000000E+00  0.0000000000E+00
                       0.0000000000E+00  0.0000000000E+00  0.0000000000E+00
-          fftalg         512
           irdden           1
           irdwfk           1
           istwfk        1    0
              ixc     -116133
              kpt      0.00000000E+00  0.00000000E+00  0.00000000E+00
                       5.00000000E-01  5.00000000E-01 -5.00000000E-01
           kptopt           0
P           mkmem           2
P          mkqmem           2
P          mk1mem           2
            natom           7
            nband          54
           nbdbuf           4
            ngfft          80      80      80
             nkpt           2
            nstep        2000
             nsym           4
           ntypat           3
              occ      2.000000  2.000000  2.000000  2.000000  2.000000  2.000000
                       2.000000  2.000000  2.000000  2.000000  2.000000  2.000000
                       2.000000  2.000000  2.000000  2.000000  2.000000  2.000000
                       2.000000  2.000000  2.000000  2.000000  2.000000  2.000000
                       2.000000  2.000000  2.000000  2.000000  2.000000  2.000000
                       2.000000  2.000000  2.000000  2.000000  2.000000  2.000000
                       2.000000  2.000000  2.000000  2.000000  2.000000  2.000000
                       2.000000  2.000000  2.000000  0.000000  0.000000  0.000000
                       0.000000  0.000000  0.000000  0.000000  0.000000  0.000000
        optdriver           1
            prtwf          -1
            rfdir           1       1       1
           rfelfd           2
            rprim      1.0515006820E+01  0.0000000000E+00 -8.9847223284E+00
                      -2.2334098629E+00  1.0275079017E+01 -8.9847223284E+00
                       0.0000000000E+00  0.0000000000E+00  1.3830784639E+01
          spgroup          82
           strten      0.0000000000E+00  0.0000000000E+00  0.0000000000E+00
                       0.0000000000E+00  0.0000000000E+00  0.0000000000E+00
           symrel      1  0  0   0  1  0   0  0  1       0  1  0   1  0  0  -1 -1 -1
                      -1 -1 -1   0  0  1   1  0  0       0  0  1  -1 -1 -1   0  1  0
           tolwfr      1.00000000E-20
            typat      1  1  2  3  3  3  3
           useylm           1
              wtk        0.50000    0.50000
           xangst      5.0467329164E-01  4.0780032242E+00 -1.0950422777E+00
                       2.1912161802E+00  2.7186688161E+00 -4.7545102817E+00
                       0.0000000000E+00  0.0000000000E+00  0.0000000000E+00
                       1.2751855536E+00  4.8455663503E+00 -6.0074242225E+00
                       4.3329013858E+00  2.1124559655E+00  1.1579090956E+00
                       2.7152123679E+00  3.1620402013E+00 -2.2125723630E+00
                       4.4156541324E-01  7.5461274728E-01  2.6819183792E+00
            xcart      9.5369430778E-01  7.7063092627E+00 -2.0693300088E+00
                       4.1407984784E+00  5.1375395084E+00 -8.9847223284E+00
                       0.0000000000E+00  0.0000000000E+00  0.0000000000E+00
                       2.4097514650E+00  9.1567933609E+00 -1.1352386545E+01
                       8.1879969800E+00  3.9919632425E+00  2.1881310774E+00
                       5.1310077680E+00  5.9753900016E+00 -4.1811558153E+00
                       8.3443770077E-01  1.4260114287E+00  5.0680912474E+00
             xred      2.5000000000E-01  7.5000000000E-01  5.0000000000E-01
                       5.0000000000E-01  5.0000000000E-01  0.0000000000E+00
                       0.0000000000E+00  0.0000000000E+00  0.0000000000E+00
                       4.1845800000E-01  8.9116525000E-01  2.9948750000E-02
                       8.6121650000E-01  3.8850925000E-01  9.7005125000E-01
                       6.1149075000E-01  5.8154200000E-01  4.7270725000E-01
                       1.0883475000E-01  1.3878350000E-01  5.2729275000E-01
            znucl       13.00000   80.00000   52.00000

- Timing analysis has been suppressed with timopt=0

 Suggested references for the acknowledgment of ABINIT usage.

 Calculation completed.
.Delivered  14 WARNINGs and   9 COMMENTs to log file.