.Version 9.5.2 of ABINIT

 ABINIT is a project of the Universite Catholique de Louvain,
 Corning Inc. and other collaborators, see ~abinit/doc/developers/contributors.txt .
 acknowledgments of the ABINIT effort.

.Starting date : Mon 24 May 2021.
- ( at 23h10 )

- input  file    -> /scratch/users/j/a/jabreu/flow_simple_10atoms/flow/w479/t1/run.abi
- output file    -> /scratch/users/j/a/jabreu/flow_simple_10atoms/flow/w479/t1/run.abo
- root for input  files -> /scratch/users/j/a/jabreu/flow_simple_10atoms/flow/w479/t1/indata/in
- root for output files -> /scratch/users/j/a/jabreu/flow_simple_10atoms/flow/w479/t1/outdata/out

 Symmetries : space group R3 (#146); Bravais hR (rhombohedral)
     intxc =       0      iscf =       7    lmnmax =      18     lnmax =       6
     mgfft =      75  mpssoang =       3    mqgrid =    3001     natom =      10
  nloc_mem =       1    nspden =       1   nspinor =       1    nsppol =       1
      nsym =       3    n1xccc =    2501    ntypat =       3    occopt =       1
   xclevel =       2
-    mband =          62        mffmem =           1         mkmem =           2
-   mkqmem =           2        mk1mem =           2           mpw =       16920
      nfft =      421875          nkpt =           2
  Rough estimation (10% accuracy) of disk space for files :

------------- Echo of variables that govern the present computation ------------
-
- outvars: echo of selected default values
-   iomode0 =  0 , fftalg0 =512 , wfoptalg0 =  0
-
- outvars: echo of global parameters not present in the input file
-  max_nthreads =    0
-
 -outvars: echo values of preprocessed input variables --------
            acell      1.0000000000E+00  1.0000000000E+00  1.0000000000E+00 Bohr
              amu      1.12411000E+02  2.08980370E+02  1.59994000E+01
             ecut      5.10000000E+01 Hartree
-          fftalg         512
           irdden           1
           irdwfk           1
           istwfk        0    1
              ixc     -116133
              kpt      6.65479385E-01  5.00000000E-01  3.34520615E-01
                       0.00000000E+00  0.00000000E+00  0.00000000E+00
           kptopt           0
P           mkmem           2
P          mkqmem           2
P          mk1mem           2
            natom          10
            nband          62
           nbdbuf           4
            ngfft          75      75      75
             nkpt           2
            nstep        2000
             nsym           3
           ntypat           3
              occ      2.000000  2.000000  2.000000  2.000000  2.000000  2.000000
                       2.000000  2.000000  2.000000  2.000000  2.000000  2.000000
                       2.000000  2.000000  2.000000  2.000000  2.000000  2.000000
                       2.000000  2.000000  2.000000  2.000000  2.000000  2.000000
                       2.000000  2.000000  2.000000  2.000000  2.000000  2.000000
                       2.000000  2.000000  2.000000  2.000000  2.000000  2.000000
                       2.000000  2.000000  2.000000  2.000000  2.000000  2.000000
                       2.000000  2.000000  2.000000  2.000000  2.000000  2.000000
                       2.000000  2.000000  2.000000  2.000000  2.000000  0.000000
                       0.000000  0.000000  0.000000  0.000000  0.000000  0.000000
                       0.000000  0.000000
        optdriver           1
            prtwf          -1
            rfdir           1       1       1
           rfelfd           2
            rprim      9.5900074171E+00  0.0000000000E+00  5.8923235844E+00
                       3.2952995998E+00  9.0060670000E+00  5.8923235844E+00
                       0.0000000000E+00  0.0000000000E+00  1.1255563934E+01
          spgroup         146
           symrel      1  0  0   0  1  0   0  0  1       0  0  1   1  0  0   0  1  0
                       0  1  0   0  0  1   1  0  0
           tolwfr      1.00000000E-20
            typat      1  1  2  2  3  3  3  3  3  3
           useylm           1
              wtk        0.50000    0.50000
           xangst      4.3472257708E+00  3.0384535273E+00  7.7732722504E+00
                       2.5003504869E+00  1.7475970095E+00  4.4708754689E+00
                       5.8742877522E+00  4.1057794746E+00  1.0503811024E+01
                       1.0172753637E+00  7.1101527275E-01  1.8189895747E+00
                       3.0161389370E+00  4.5570821823E+00  6.8692488087E+00
                       5.7481555025E+00  2.4476747588E+00  6.1658955468E+00
                       3.0698205374E+00  1.2665890367E+00  8.1254307812E+00
                       3.5593167155E+00  3.7305723816E+00  3.9959939003E+00
                       9.3036397800E-01  2.0606961265E+00  6.1189727381E+00
                       4.0330577722E+00  1.6562126910E-01  5.1245377965E+00
            xcart      8.2150661445E+00  5.7418450341E+00  1.4689355710E+01
                       4.7249776566E+00  3.3024797386E+00  8.4487302105E+00
                       1.1100795078E+01  7.7587987690E+00  1.9849326187E+01
                       1.9223718392E+00  1.3436241418E+00  3.4373921347E+00
                       5.6996765697E+00  8.6116372897E+00  1.2980998987E+01
                       1.0862439669E+01  4.6254349566E+00  1.1651853947E+01
                       5.8011200928E+00  2.3935064023E+00  1.5354838888E+01
                       6.7261338125E+00  7.0497601202E+00  7.5513341002E+00
                       1.7581331223E+00  3.8941513223E+00  1.1563182690E+01
                       7.6213746676E+00  3.1297884038E-01  9.6839729930E+00
             xred      6.3755300000E-01  6.3755300000E-01  6.3755300000E-01
                       3.6669500000E-01  3.6669500000E-01  3.6669500000E-01
                       8.6150800000E-01  8.6150800000E-01  8.6150800000E-01
                       1.4919100000E-01  1.4919100000E-01  1.4919100000E-01
                       2.6576600000E-01  9.5620400000E-01  5.1359100000E-01
                       9.5620400000E-01  5.1359100000E-01  2.6576600000E-01
                       5.1359100000E-01  2.6576600000E-01  9.5620400000E-01
                       4.3239200000E-01  7.8277900000E-01  3.4752000000E-02
                       3.4752000000E-02  4.3239200000E-01  7.8277900000E-01
                       7.8277900000E-01  3.4752000000E-02  4.3239200000E-01
            znucl       48.00000   83.00000    8.00000

 chkinp: Checking input parameters for consistency.

== DATASET  1 ==================================================================
-   mpi_nproc: 1, omp_nthreads: -1 (-1 if OMP is not activated)

--- !DatasetInfo
iteration_state: {dtset: 1, }
dimensions: {natom: 10, nkpt: 2, mband: 62, nsppol: 1, nspinor: 1, nspden: 1, mpw: 16920, }
cutoff_energies: {ecut:  51.0, pawecutdg:  -1.0, }
electrons: {nelect:   1.06000000E+02, charge:   0.00000000E+00, occopt:   1.00000000E+00, tsmear:   1.00000000E-02, }
meta: {optdriver: 1, rfelfd: 2, }
...

 Real(R)+Recip(G) space primitive vectors, cartesian coordinates (Bohr,Bohr^-1):
 R(1)=  9.5900074  0.0000000  5.8923236  G(1)=  0.1042752 -0.0381541  0.0000000
 R(2)=  3.2952996  9.0060670  5.8923236  G(2)=  0.0000000  0.1110363  0.0000000
 R(3)=  0.0000000  0.0000000 11.2555639  G(3)= -0.0545884 -0.0381541  0.0888449
 Unit cell volume ucvol=  9.7212335E+02 bohr^3
 Angles (23,13,12)=  5.84324669E+01  5.84324669E+01  5.84324669E+01 degrees

 getcut: wavevector=  0.0000  0.0000  0.0000  ngfft=  75  75  75
         ecut(hartree)=     51.000   => boxcut(ratio)=   2.04531

--- Pseudopotential description ------------------------------------------------
- pspini: atom type   1  psp file is /scratch/users/j/a/jabreu/pseudos/PBEsol/Cd.psp8
- pspatm: opening atomic psp file    /scratch/users/j/a/jabreu/pseudos/PBEsol/Cd.psp8
- Cd    ONCVPSP-3.3.0  r_core=   1.25838   1.30423   1.35174
- 48.00000  20.00000    180112                znucl, zion, pspdat
    8 -116133    2    4       600   0.00000   pspcod,pspxc,lmax,lloc,mmax,r2well
    5.99000000000000    6.00000000000000    0.00000000000000   rchrg,fchrg,qchrg
     nproj     2     2     2
     extension_switch     1
  pspatm : epsatm=   23.26728021
         --- l  ekb(1:nproj) -->
             0   63.701523    3.700425
             1    8.703569    1.290373
             2    0.983656   -0.721725
 pspatm: atomic psp has been read  and splines computed

- pspini: atom type   2  psp file is /scratch/users/j/a/jabreu/pseudos/PBEsol/Bi.psp8
- pspatm: opening atomic psp file    /scratch/users/j/a/jabreu/pseudos/PBEsol/Bi.psp8
- Bi    ONCVPSP-3.3.0  r_core=   2.42776   2.51622   2.10397
- 83.00000  15.00000    180112                znucl, zion, pspdat
    8 -116133    2    4       600   0.00000   pspcod,pspxc,lmax,lloc,mmax,r2well
    5.99000000000000    6.00000000000000    0.00000000000000   rchrg,fchrg,qchrg
     nproj     2     2     2
     extension_switch     1
  pspatm : epsatm=   42.90078186
         --- l  ekb(1:nproj) -->
             0    6.017688    0.961606
             1    4.379371    0.528498
             2   -3.458170   -0.753782
 pspatm: atomic psp has been read  and splines computed

- pspini: atom type   3  psp file is /scratch/users/j/a/jabreu/pseudos/PBEsol/O.psp8
- pspatm: opening atomic psp file    /scratch/users/j/a/jabreu/pseudos/PBEsol/O.psp8
- O     ONCVPSP-3.3.0  r_core=   1.35509   1.45563   1.26150
-  8.00000   6.00000    180112                znucl, zion, pspdat
    8 -116133    2    4       600   0.00000   pspcod,pspxc,lmax,lloc,mmax,r2well
    5.99000000000000    4.00000000000000    0.00000000000000   rchrg,fchrg,qchrg
     nproj     2     2     1
     extension_switch     1
  pspatm : epsatm=    6.22910522
         --- l  ekb(1:nproj) -->
             0    6.050032    0.820363
             1   -4.739617   -1.153841
             2   -1.335834
 pspatm: atomic psp has been read  and splines computed

   1.79893401E+04                                ecore*ucvol(ha*bohr**3)

 ==>  initialize data related to q vector <==

 The list of irreducible perturbations for this q vector is:
    1)    idir= 1    ipert=  11
    2)    idir= 2    ipert=  11
    3)    idir= 3    ipert=  11

 Perturbation wavevector (in red.coord.)   0.000000  0.000000  0.000000
 Perturbation : derivative vs k along direction   1

 dfpt_looppert : COMMENT -
  In a d/dk calculation, iscf is set to -3 automatically.
 The set of symmetries contains only one element for this perturbation.
 symkpt : not enough symmetry to change the number of k points.

 Initialisation of the first-order wave-functions :
  ireadwf=   0

--- !BeginCycle
iteration_state: {dtset: 1, }
solver: {iscf: 7, nstep: 2000, nline: 4, wfoptalg: 0, }
tolerances: {tolwfr: 1.00E-20, }
...

     iter   2DEtotal(Ha)        deltaE(Ha) residm    vres2
-ETOT  1  -70.277678961956     -7.028E+01 2.675E-01 0.000E+00
 ETOT  2  -70.596177701015     -3.185E-01 3.589E-02 0.000E+00
 ETOT  3  -70.603285764823     -7.108E-03 3.446E-03 0.000E+00
 ETOT  4  -70.603593962759     -3.082E-04 9.639E-04 0.000E+00
 ETOT  5  -70.603610080795     -1.612E-05 2.161E-04 0.000E+00
 ETOT  6  -70.603611032388     -9.516E-07 7.680E-05 0.000E+00
 ETOT  7  -70.603611092906     -6.052E-08 1.849E-05 0.000E+00
[...]

 ----iterations are completed or convergence reached----

 dfpt_looppert: DFPT cycle converged with prtwf=-1. Will skip output of the 1st-order WFK file.
 dfpt_looppert : ek2=    1.0318706281E+02
          f-sum rule ratio=    9.9083160374E-01
 prteigrs : about to open file /scratch/users/j/a/jabreu/flow_simple_10atoms/flow/w479/t1/tmpdata/tmp_1WF1_EIG
 Expectation of eigenvalue derivatives (hartree) for nkpt=   2  k points:
  (in case of degenerate eigenvalues, averaged derivative)
 kpt#   1, nband= 62, wtk=  0.50000, kpt=  0.6655  0.5000  0.3345 (reduced coord)
   0.00000    0.00000   -0.00000   -0.00000    0.00000    0.00000   -0.00000    0.00000
  -0.00179   -0.00009   -0.00056    0.00002    0.00036   -0.00047    0.00086    0.00229
  -0.00080    0.00095    0.02930   -0.02625    0.00272   -0.01365   -0.01336    0.00845
   0.05380   -0.07288   -0.01141   -0.00048    0.00919   -0.00575   -0.00304    0.00661
   0.02002    0.00499    0.01647    0.02968    0.04522   -0.02691   -0.03454   -0.01801
  -0.06968    0.03316    0.03143    0.01950   -0.00059   -0.00154   -0.01483   -0.00025
  -0.03089    0.03347    0.03112   -0.00061    0.00106    0.01563    0.09592   -0.11133
  -0.08369   -0.00690   -0.00255   -0.05744    0.00837   -0.00495
 prteigrs : prtvol=0 or 1, do not print more k-points.

 Eight components of 2nd-order total energy (hartree) are
 1,2,3: 0th-order hamiltonian combined with 1st-order wavefunctions
     kin0=   1.02953216E+02 eigvalue=   4.13225351E+00  local=  -4.98350882E+01
 4,5,6: 1st-order hamiltonian combined with 1st and 0th-order wfs
     kin1=  -1.02241003E+02  Hartree=   0.00000000E+00     xc=   0.00000000E+00
 7,8,9: eventually, occupation + non-local contributions
    edocc=   8.96033242E+00     enl0=   4.39289773E+00   enl1=  -3.89662193E+01
 1-9 gives the relaxation energy (to be shifted if some occ is /=2.0)
   erelax=  -7.06036111E+01
  No Ewald or frozen-wf contrib.: the relaxation energy is the total one
 2DEtotal=   -0.7060361110E+02 Ha. Also 2DEtotal=   -0.192122196347E+04 eV
    (  non-var. 2DEtotal :   -7.0603611097E+01 Ha)

 Perturbation wavevector (in red.coord.)   0.000000  0.000000  0.000000
 Perturbation : derivative vs k along direction   2
 The set of symmetries contains only one element for this perturbation.
 symkpt : not enough symmetry to change the number of k points.

[...]

 Perturbation wavevector (in red.coord.)   0.000000  0.000000  0.000000
 Perturbation : derivative vs k along direction   3
 The set of symmetries contains only one element for this perturbation.
 symkpt : not enough symmetry to change the number of k points.

 Initialisation of the first-order wave-functions :
  ireadwf=   0

--- !BeginCycle
iteration_state: {dtset: 1, }
solver: {iscf: 7, nstep: 2000, nline: 4, wfoptalg: 0, }
tolerances: {tolwfr: 1.00E-20, }
...

     iter   2DEtotal(Ha)        deltaE(Ha) residm    vres2
-ETOT  1  -70.294751246979     -7.029E+01 2.525E-01 0.000E+00
 ETOT  2  -70.602409910336     -3.077E-01 2.989E-02 0.000E+00
 ETOT  3  -70.608968128371     -6.558E-03 1.699E-03 0.000E+00
 ETOT  4  -70.609253830317     -2.857E-04 7.362E-04 0.000E+00
 ETOT  5  -70.609269191845     -1.536E-05 8.846E-05 0.000E+00
 ETOT  6  -70.609270134376     -9.425E-07 4.885E-05 0.000E+00
 ETOT  7  -70.609270197286     -6.291E-08 6.073E-06 0.000E+00
 ETOT  8  -70.609270201767     -4.481E-09 3.484E-06 0.000E+00
 ETOT  9  -70.609270202101     -3.343E-10 4.291E-07 0.000E+00
 ETOT 10  -70.609270202127     -2.588E-11 2.509E-07 0.000E+00
 ETOT 11  -70.609270202129     -2.046E-12 3.065E-08 0.000E+00
 ETOT 12  -70.609270202130     -1.563E-13 1.813E-08 0.000E+00
 ETOT 13  -70.609270202130     -2.842E-14 2.202E-09 0.000E+00
 ETOT 14  -70.609270202130     -1.421E-14 1.313E-09 0.000E+00
 ETOT 15  -70.609270202130      0.000E+00 1.587E-10 0.000E+00
 ETOT 16  -70.609270202130     -2.842E-14 9.523E-11 0.000E+00
 ETOT 17  -70.609270202130      2.842E-14 1.146E-11 0.000E+00
 ETOT 18  -70.609270202130      0.000E+00 6.913E-12 0.000E+00
 ETOT 19  -70.609270202130      0.000E+00 8.290E-13 0.000E+00
 ETOT 20  -70.609270202130      0.000E+00 5.022E-13 0.000E+00
 ETOT 21  -70.609270202130      1.421E-14 6.005E-14 0.000E+00
 ETOT 22  -70.609270202130     -1.421E-14 3.651E-14 0.000E+00
 ETOT 23  -70.609270202130     -1.421E-14 4.354E-15 0.000E+00
 ETOT 24  -70.609270202130      2.842E-14 2.656E-15 0.000E+00
 ETOT 25  -70.609270202130     -2.842E-14 3.160E-16 0.000E+00
 ETOT 26  -70.609270202130     -1.421E-14 1.933E-16 0.000E+00
 ETOT 27  -70.609270202130      1.421E-14 2.296E-17 0.000E+00
 ETOT 28  -70.609270202130      1.421E-14 1.407E-17 0.000E+00
 ETOT 29  -70.609270202130     -2.842E-14 2.057E-18 0.000E+00
 ETOT 30  -70.609270202130      0.000E+00 1.025E-18 0.000E+00
 ETOT 31  -70.609270202130     -1.421E-14 1.949E-19 0.000E+00
 ETOT 32  -70.609270202130      4.263E-14 8.236E-20 0.000E+00
 ETOT 33  -70.609270202130      0.000E+00 1.849E-20 0.000E+00
 ETOT 34  -70.609270202130     -1.421E-14 9.678E-21 0.000E+00

 At SCF step   34   max residual=  9.68E-21 < tolwfr=  1.00E-20 =>converged.

 ----iterations are completed or convergence reached----

 dfpt_looppert: DFPT cycle converged with prtwf=-1. Will skip output of the 1st-order WFK file.
 dfpt_looppert : ek2=    1.0318706281E+02
          f-sum rule ratio=    9.9055609393E-01
 prteigrs : about to open file /scratch/users/j/a/jabreu/flow_simple_10atoms/flow/w479/t1/tmpdata/tmp_1WF1_EIG
 Expectation of eigenvalue derivatives (hartree) for nkpt=   2  k points:
  (in case of degenerate eigenvalues, averaged derivative)
 kpt#   1, nband= 62, wtk=  0.50000, kpt=  0.6655  0.5000  0.3345 (reduced coord)
  -0.00000   -0.00000    0.00000    0.00000   -0.00000   -0.00000    0.00000   -0.00000
   0.00179    0.00009    0.00057   -0.00003   -0.00035    0.00032   -0.00098   -0.00201
   0.00085   -0.00100   -0.02980    0.02842    0.00085    0.00795    0.01510   -0.00979
  -0.05420    0.07394   -0.00122   -0.00149   -0.00361    0.00630    0.00267   -0.00881
  -0.01144    0.00272   -0.01848   -0.02995   -0.03847    0.04516    0.01865    0.01357
  -0.02345   -0.00076   -0.01241    0.08897   -0.03757   -0.03086    0.03228    0.01169
  -0.04108   -0.00596   -0.02252    0.00201    0.00110   -0.01537   -0.10676    0.13687
   0.05155    0.07019   -0.06445    0.09993   -0.05269    0.00510
 prteigrs : prtvol=0 or 1, do not print more k-points.

 Eight components of 2nd-order total energy (hartree) are
 1,2,3: 0th-order hamiltonian combined with 1st-order wavefunctions
     kin0=   1.02492047E+02 eigvalue=   4.17371816E+00  local=  -4.95270091E+01
 4,5,6: 1st-order hamiltonian combined with 1st and 0th-order wfs
     kin1=  -1.02212574E+02  Hartree=   0.00000000E+00     xc=   0.00000000E+00
 7,8,9: eventually, occupation + non-local contributions
    edocc=   9.10541936E+00     enl0=   4.36509447E+00   enl1=  -3.90059665E+01
 1-9 gives the relaxation energy (to be shifted if some occ is /=2.0)
   erelax=  -7.06092702E+01
  No Ewald or frozen-wf contrib.: the relaxation energy is the total one
 2DEtotal=   -0.7060927020E+02 Ha. Also 2DEtotal=   -0.192137595554E+04 eV
    (  non-var. 2DEtotal :   -7.0609270202E+01 Ha)

 CALCULATION OF EFFECTIVE MASSES
 NOTE : Additional infos (eff. mass eigenvalues, eigenvectors and, if degenerate, average mass) are available in stdout.

--- !WARNING
src_file: m_efmas.F90
src_line: 0
message: |

    Band(s)    53,
    are not band extrema, but saddle points;
    the transport equivalent formalism breaks down in these conditions.
    The associated tensor(s) will therefore not be printed.
...

 K-point ( 0.665, 0.500, 0.335) | band =    53
 Effective mass tensor:
     *** SADDLE POINT: TRANSPORT EQV. EFF. MASS NOT DEFINED (see WARNING above) ***
 Angular average effective mass 1/(<1/m>)=  -2.5005732564
 Angular average effective mass for Frohlich model (<m**0.5>)**2=  -4.8045637716
 Effective masses along directions: (cart. coord. / red. coord. -> eff. mass)
    1:   1.000000  0.000000  0.000000 /   0.945725  0.324968  0.000000 ->  -1.4769603882
    2:   0.000000  1.000000  0.000000 /   0.000000  1.000000  0.000000 ->  -7.9103408744
    3:   0.000000  0.000000  1.000000 /   0.420744  0.420744  0.803709 ->  -2.5237110934
    4:   0.577350  0.577350  0.577350 /   0.586267  0.688937  0.426212 ->  -2.3416122639
    5:   0.000000  0.707107  0.707107 /   0.300939  0.760906  0.574855 ->  -2.4410491338
    6:   0.707107  0.000000  0.707107 /   0.729194  0.432723  0.530120 ->  -3.2408714849
    7:   0.707107  0.707107  0.000000 /   0.614830  0.788660  0.000000 ->  -1.9148730751

 K-point ( 0.000, 0.000, 0.000) | band =    54
 Effective mass tensor:
              3.1568352438             -0.1186687941             -0.3035895058
             -0.1186687941              3.2436756277             -0.2121918587
             -0.3035895058             -0.2121918587              2.7837694215
 Effective mass tensor eigenvalues:
              2.5310435460              3.3266183588              3.3266183883
 Angular average effective mass 1/(<1/m>)=   3.0111258521
 Angular average effective mass for Frohlich model (<m**0.5>)**2=   3.0268291092
 Effective masses along directions: (cart. coord. / red. coord. -> eff. mass)
    1:   1.000000  0.000000  0.000000 /   0.945725  0.324968  0.000000 ->   3.1174958549
    2:   0.000000  1.000000  0.000000 /   0.000000  1.000000  0.000000 ->   3.2210635476
    3:   0.000000  0.000000  1.000000 /   0.420744  0.420744  0.803709 ->   2.7391380710
    4:   0.577350  0.577350  0.577350 /   0.586267  0.688937  0.426212 ->   2.6154979261
    5:   0.000000  0.707107  0.707107 /   0.300939  0.760906  0.574855 ->   2.7550570518
    6:   0.707107  0.000000  0.707107 /   0.729194  0.432723  0.530120 ->   2.6386556847
    7:   0.707107  0.707107  0.000000 /   0.614830  0.788660  0.000000 ->   3.0329926707

 END OF EFFECTIVE MASSES SECTION

 ---- first-order wavefunction calculations are completed ----

 Total localisation tensor (bohr^2) in cartesian coordinates
  WARNING : still subject to testing - especially symmetries.
      direction              matrix element
   alpha     beta       real part   imaginary part
     1        1       0.8879117085    0.0000000000
     1        2       0.2592563025    0.0000000000
     1        3       0.6568900536    0.0000000000
     2        1       0.2592563025    0.0000000000
     2        2       0.7085485129    0.0000000000
     2        3       0.4635760663    0.0000000000
     3        1       0.6568900536    0.0000000000
     3        2       0.4635760663    0.0000000000
     3        3       1.6946890272    0.0000000000

 respfn : d/dk was computed, but no 2DTE, so no DDB output.

== END DATASET(S) ==============================================================

 -outvars: echo values of variables after computation  --------
            acell      1.0000000000E+00  1.0000000000E+00  1.0000000000E+00 Bohr
              amu      1.12411000E+02  2.08980370E+02  1.59994000E+01
             ecut      5.10000000E+01 Hartree
           etotal     -7.0609270202E+01
            fcart      0.0000000000E+00  0.0000000000E+00  0.0000000000E+00
                       0.0000000000E+00  0.0000000000E+00  0.0000000000E+00
                       0.0000000000E+00  0.0000000000E+00  0.0000000000E+00
                       0.0000000000E+00  0.0000000000E+00  0.0000000000E+00
                       0.0000000000E+00  0.0000000000E+00  0.0000000000E+00
                       0.0000000000E+00  0.0000000000E+00  0.0000000000E+00
                       0.0000000000E+00  0.0000000000E+00  0.0000000000E+00
                       0.0000000000E+00  0.0000000000E+00  0.0000000000E+00
                       0.0000000000E+00  0.0000000000E+00  0.0000000000E+00
                       0.0000000000E+00  0.0000000000E+00  0.0000000000E+00
-          fftalg         512
           irdden           1
           irdwfk           1
           istwfk        0    1
              ixc     -116133
              kpt      6.65479385E-01  5.00000000E-01  3.34520615E-01
                       0.00000000E+00  0.00000000E+00  0.00000000E+00
           kptopt           0
P           mkmem           2
P          mkqmem           2
P          mk1mem           2
            natom          10
            nband          62
           nbdbuf           4
            ngfft          75      75      75
             nkpt           2
            nstep        2000
             nsym           3
           ntypat           3
              occ      2.000000  2.000000  2.000000  2.000000  2.000000  2.000000
                       2.000000  2.000000  2.000000  2.000000  2.000000  2.000000
                       2.000000  2.000000  2.000000  2.000000  2.000000  2.000000
                       2.000000  2.000000  2.000000  2.000000  2.000000  2.000000
                       2.000000  2.000000  2.000000  2.000000  2.000000  2.000000
                       2.000000  2.000000  2.000000  2.000000  2.000000  2.000000
                       2.000000  2.000000  2.000000  2.000000  2.000000  2.000000
                       2.000000  2.000000  2.000000  2.000000  2.000000  2.000000
                       2.000000  2.000000  2.000000  2.000000  2.000000  0.000000
                       0.000000  0.000000  0.000000  0.000000  0.000000  0.000000
                       0.000000  0.000000
        optdriver           1
            prtwf          -1
            rfdir           1       1       1
           rfelfd           2
            rprim      9.5900074171E+00  0.0000000000E+00  5.8923235844E+00
                       3.2952995998E+00  9.0060670000E+00  5.8923235844E+00
                       0.0000000000E+00  0.0000000000E+00  1.1255563934E+01
          spgroup         146
           strten      0.0000000000E+00  0.0000000000E+00  0.0000000000E+00
                       0.0000000000E+00  0.0000000000E+00  0.0000000000E+00
           symrel      1  0  0   0  1  0   0  0  1       0  0  1   1  0  0   0  1  0
                       0  1  0   0  0  1   1  0  0
           tolwfr      1.00000000E-20
            typat      1  1  2  2  3  3  3  3  3  3
           useylm           1
              wtk        0.50000    0.50000
           xangst      4.3472257708E+00  3.0384535273E+00  7.7732722504E+00
                       2.5003504869E+00  1.7475970095E+00  4.4708754689E+00
                       5.8742877522E+00  4.1057794746E+00  1.0503811024E+01
                       1.0172753637E+00  7.1101527275E-01  1.8189895747E+00
                       3.0161389370E+00  4.5570821823E+00  6.8692488087E+00
                       5.7481555025E+00  2.4476747588E+00  6.1658955468E+00
                       3.0698205374E+00  1.2665890367E+00  8.1254307812E+00
                       3.5593167155E+00  3.7305723816E+00  3.9959939003E+00
                       9.3036397800E-01  2.0606961265E+00  6.1189727381E+00
                       4.0330577722E+00  1.6562126910E-01  5.1245377965E+00
            xcart      8.2150661445E+00  5.7418450341E+00  1.4689355710E+01
                       4.7249776566E+00  3.3024797386E+00  8.4487302105E+00
                       1.1100795078E+01  7.7587987690E+00  1.9849326187E+01
                       1.9223718392E+00  1.3436241418E+00  3.4373921347E+00
                       5.6996765697E+00  8.6116372897E+00  1.2980998987E+01
                       1.0862439669E+01  4.6254349566E+00  1.1651853947E+01
                       5.8011200928E+00  2.3935064023E+00  1.5354838888E+01
                       6.7261338125E+00  7.0497601202E+00  7.5513341002E+00
                       1.7581331223E+00  3.8941513223E+00  1.1563182690E+01
                       7.6213746676E+00  3.1297884038E-01  9.6839729930E+00
             xred      6.3755300000E-01  6.3755300000E-01  6.3755300000E-01
                       3.6669500000E-01  3.6669500000E-01  3.6669500000E-01
                       8.6150800000E-01  8.6150800000E-01  8.6150800000E-01
                       1.4919100000E-01  1.4919100000E-01  1.4919100000E-01
                       2.6576600000E-01  9.5620400000E-01  5.1359100000E-01
                       9.5620400000E-01  5.1359100000E-01  2.6576600000E-01
                       5.1359100000E-01  2.6576600000E-01  9.5620400000E-01
                       4.3239200000E-01  7.8277900000E-01  3.4752000000E-02
                       3.4752000000E-02  4.3239200000E-01  7.8277900000E-01
                       7.8277900000E-01  3.4752000000E-02  4.3239200000E-01
            znucl       48.00000   83.00000    8.00000

- Timing analysis has been suppressed with timopt=0

 Suggested references for the acknowledgment of ABINIT usage.

 Calculation completed.
.Delivered   3 WARNINGs and   5 COMMENTs to log file.