.Version 9.5.2 of ABINIT

 ABINIT is a project of the Universite Catholique de Louvain,
 Corning Inc. and other collaborators, see ~abinit/doc/developers/contributors.txt .
 acknowledgments of the ABINIT effort.

.Starting date : Mon 31 May 2021.
- ( at 21h54 )

- input  file    -> /scratch/users/j/a/jabreu/flow_simple_11atoms/flow/w316/t1/run.abi
- output file    -> /scratch/users/j/a/jabreu/flow_simple_11atoms/flow/w316/t1/run.abo
- root for input  files -> /scratch/users/j/a/jabreu/flow_simple_11atoms/flow/w316/t1/indata/in
- root for output files -> /scratch/users/j/a/jabreu/flow_simple_11atoms/flow/w316/t1/outdata/out

 Symmetries : space group P-1 (#  2); Bravais aP (primitive triclinic)
     intxc =       0      iscf =       7    lmnmax =      18     lnmax =       6
     mgfft =      80  mpssoang =       3    mqgrid =    3617     natom =      12
  nloc_mem =       1    nspden =       1   nspinor =       1    nsppol =       1
      nsym =       2    n1xccc =    2501    ntypat =       3    occopt =       1
   xclevel =       2
-    mband =          48        mffmem =           1         mkmem =           2
-   mkqmem =           2        mk1mem =           2           mpw =       17666
      nfft =      345600          nkpt =           2
  Rough estimation (10% accuracy) of disk space for files :

------------- Echo of variables that govern the present computation ------------
-
- outvars: echo of selected default values
-   iomode0 =  0 , fftalg0 =512 , wfoptalg0 =  0
-
- outvars: echo of global parameters not present in the input file
-  max_nthreads =    0
-
 -outvars: echo values of preprocessed input variables --------
            acell      1.0000000000E+00  1.0000000000E+00  1.0000000000E+00 Bohr
              amu      3.90983000E+01  3.20660000E+01  1.59994000E+01
             ecut      4.40000000E+01 Hartree
-          fftalg         512
           irdden           1
           irdwfk           1
           istwfk        1    1
              ixc     -116133
              kpt      0.00000000E+00  0.00000000E+00  0.00000000E+00
                       0.00000000E+00  0.00000000E+00  5.00000000E-01
           kptopt           0
P           mkmem           2
P          mkqmem           2
P          mk1mem           2
            natom          12
            nband          48
           nbdbuf           4
            ngfft          60      72      80
             nkpt           2
            nstep        2000
             nsym           2
           ntypat           3
              occ      2.000000  2.000000  2.000000  2.000000  2.000000  2.000000
                       2.000000  2.000000  2.000000  2.000000  2.000000  2.000000
                       2.000000  2.000000  2.000000  2.000000  2.000000  2.000000
                       2.000000  2.000000  2.000000  2.000000  2.000000  2.000000
                       2.000000  2.000000  2.000000  2.000000  2.000000  2.000000
                       2.000000  2.000000  2.000000  2.000000  2.000000  2.000000
                       2.000000  2.000000  2.000000  0.000000  0.000000  0.000000
                       0.000000  0.000000  0.000000  0.000000  0.000000  0.000000
        optdriver           1
            prtwf          -1
            rfdir           1       1       1
           rfelfd           2
            rprim      9.2950196553E+00  0.0000000000E+00 -2.3617935635E+00
                      -1.1024256115E+00  1.0458246886E+01 -2.9130351711E+00
                       0.0000000000E+00  0.0000000000E+00  1.3030756763E+01
          spgroup           2
           symrel      1  0  0   0  1  0   0  0  1      -1  0  0   0 -1  0   0  0 -1
           tolwfr      1.00000000E-20
            typat      1  1  2  2  3  3  3  3  3  3  3  3
           useylm           1
              wtk        0.50000    0.50000
           xangst      1.8923173455E+00  1.0627672166E+00  1.1202789055E+00
                       2.4430167017E+00  4.4714986770E+00  2.9839814388E+00
                       2.9330190315E-01  1.5831487043E+00  4.6068693816E+00
                       4.0420321441E+00  3.9511171893E+00 -5.0260903727E-01
                       1.0764012148E+00  7.0053291109E-01  5.4570705147E+00
                       3.2589328324E+00  4.8337329826E+00 -1.3528101704E+00
                       3.8979557876E+00  1.0571776081E+00  3.0351161864E+00
                       4.3737825962E-01  4.4770882856E+00  1.0691441579E+00
                       4.2944850253E+00  2.5650768991E+00 -1.3867888235E+00
                       4.0849021863E-02  2.9691889946E+00  5.4910491678E+00
                       3.3306040952E+00  3.3260384594E+00  5.9450860862E-01
                       1.0047299520E+00  2.2082274342E+00  3.5097517357E+00
            xcart      3.5759615395E+00  2.0083389824E+00  2.1170203238E+00
                       4.6166325043E+00  8.4499079032E+00  5.6389077050E+00
                       5.5426027121E-01  2.9917174788E+00  8.7057214612E+00
                       7.6383337726E+00  7.4665294068E+00 -9.4979343235E-01
                       2.0341035051E+00  1.3238153490E+00  1.0312368761E+01
                       6.1584905387E+00  9.1344315366E+00 -2.5564407319E+00
                       7.3660689166E+00  1.9977761531E+00  5.7355383738E+00
                       8.2652512717E-01  8.4604707325E+00  2.0203896550E+00
                       8.1154005797E+00  4.8472928490E+00 -2.6206510806E+00
                       7.7193464117E-02  5.6109540366E+00  1.0376579109E+01
                       6.2939295969E+00  6.2853017958E+00  1.1234584539E+00
                       1.8986644469E+00  4.1729450898E+00  6.6324695749E+00
             xred      4.0749400000E-01  1.9203400000E-01  2.7925000000E-01
                       5.9250600000E-01  8.0796600000E-01  7.2075000000E-01
                       9.3558000000E-02  2.8606300000E-01  7.4899700000E-01
                       9.0644200000E-01  7.1393700000E-01  2.5100300000E-01
                       2.3385100000E-01  1.2658100000E-01  8.6206900000E-01
                       7.6614900000E-01  8.7341900000E-01  1.3793100000E-01
                       8.1513100000E-01  1.9102400000E-01  6.3059800000E-01
                       1.8486900000E-01  8.0897600000E-01  3.6940200000E-01
                       9.2806300000E-01  4.6349000000E-01  7.0710000000E-02
                       7.1937000000E-02  5.3651000000E-01  9.2929000000E-01
                       7.4840900000E-01  6.0099000000E-01  3.5621500000E-01
                       2.5159100000E-01  3.9901000000E-01  6.4378500000E-01
            znucl       19.00000   16.00000    8.00000

 chkinp: Checking input parameters for consistency.

== DATASET  1 ==================================================================
-   mpi_nproc: 1, omp_nthreads: -1 (-1 if OMP is not activated)

--- !DatasetInfo
iteration_state: {dtset: 1, }
dimensions: {natom: 12, nkpt: 2, mband: 48, nsppol: 1, nspinor: 1, nspden: 1, mpw: 17666, }
cutoff_energies: {ecut:  44.0, pawecutdg:  -1.0, }
electrons: {nelect:   7.80000000E+01, charge:   0.00000000E+00, occopt:   1.00000000E+00, tsmear:   1.00000000E-02, }
meta: {optdriver: 1, rfelfd: 2, }
...

 Real(R)+Recip(G) space primitive vectors, cartesian coordinates (Bohr,Bohr^-1):
 R(1)=  9.2950197  0.0000000 -2.3617936  G(1)=  0.1075845  0.0113407  0.0000000
 R(2)= -1.1024256 10.4582469 -2.9130352  G(2)=  0.0000000  0.0956183  0.0000000
 R(3)=  0.0000000  0.0000000 13.0307568  G(3)=  0.0194994  0.0234310  0.0767415
 Unit cell volume ucvol=  1.2667148E+03 bohr^3
 Angles (23,13,12)=  1.05482986E+02  1.04256713E+02  9.18437534E+01 degrees

 getcut: wavevector=  0.0000  0.0000  0.0000  ngfft=  60  72  80
         ecut(hartree)=     44.000   => boxcut(ratio)=   2.05611

--- Pseudopotential description ------------------------------------------------
- pspini: atom type   1  psp file is /scratch/users/j/a/jabreu/pseudos/PBEsol/K.psp8
- pspatm: opening atomic psp file    /scratch/users/j/a/jabreu/pseudos/PBEsol/K.psp8
- K     ONCVPSP-3.3.0  r_core=   1.36296   1.46408   1.61068
- 19.00000   9.00000    180112                znucl, zion, pspdat
    8 -116133    2    4       400   0.00000   pspcod,pspxc,lmax,lloc,mmax,r2well
    3.99000000000000    5.00000000000000    0.00000000000000   rchrg,fchrg,qchrg
     nproj     2     2     2
     extension_switch     1
  pspatm : epsatm=    8.32487830
         --- l  ekb(1:nproj) -->
             0   10.921326    0.816676
             1    4.431000    0.560368
             2   -3.384038   -1.043186
 pspatm: atomic psp has been read  and splines computed

- pspini: atom type   2  psp file is /scratch/users/j/a/jabreu/pseudos/PBEsol/S.psp8
- pspatm: opening atomic psp file    /scratch/users/j/a/jabreu/pseudos/PBEsol/S.psp8
- S     ONCVPSP-3.3.0  r_core=   1.45376   1.45376   1.61851
- 16.00000   6.00000    180112                znucl, zion, pspdat
    8 -116133    2    4       600   0.00000   pspcod,pspxc,lmax,lloc,mmax,r2well
    5.99000000000000    6.00000000000000    0.00000000000000   rchrg,fchrg,qchrg
     nproj     2     2     2
     extension_switch     1
  pspatm : epsatm=    8.71840985
         --- l  ekb(1:nproj) -->
             0    6.834532    0.579453
             1    3.282851    0.896984
             2   -3.496974   -0.974265
 pspatm: atomic psp has been read  and splines computed

- pspini: atom type   3  psp file is /scratch/users/j/a/jabreu/pseudos/PBEsol/O.psp8
- pspatm: opening atomic psp file    /scratch/users/j/a/jabreu/pseudos/PBEsol/O.psp8
- O     ONCVPSP-3.3.0  r_core=   1.35509   1.45563   1.26150
-  8.00000   6.00000    180112                znucl, zion, pspdat
    8 -116133    2    4       600   0.00000   pspcod,pspxc,lmax,lloc,mmax,r2well
    5.99000000000000    4.00000000000000    0.00000000000000   rchrg,fchrg,qchrg
     nproj     2     2     1
     extension_switch     1
  pspatm : epsatm=    6.22910522
         --- l  ekb(1:nproj) -->
             0    6.050032    0.820363
             1   -4.739617   -1.153841
             2   -1.335834
 pspatm: atomic psp has been read  and splines computed

   6.54571461E+03                                ecore*ucvol(ha*bohr**3)

 ==>  initialize data related to q vector <==

 The list of irreducible perturbations for this q vector is:
    1)    idir= 1    ipert=  13
    2)    idir= 2    ipert=  13
    3)    idir= 3    ipert=  13

 Perturbation wavevector (in red.coord.)   0.000000  0.000000  0.000000
 Perturbation : derivative vs k along direction   1

 dfpt_looppert : COMMENT -
  In a d/dk calculation, iscf is set to -3 automatically.
 The set of symmetries contains only one element for this perturbation.
 symkpt : not enough symmetry to change the number of k points.

 Initialisation of the first-order wave-functions :
  ireadwf=   0

--- !BeginCycle
iteration_state: {dtset: 1, }
solver: {iscf: 7, nstep: 2000, nline: 4, wfoptalg: 0, }
tolerances: {tolwfr: 1.00E-20, }
...

     iter   2DEtotal(Ha)        deltaE(Ha) residm    vres2
-ETOT  1  -35.362781801502     -3.536E+01 6.489E-02 0.000E+00
 ETOT  2  -35.437821498383     -7.504E-02 2.516E-02 0.000E+00
 ETOT  3  -35.438615180116     -7.937E-04 3.491E-03 0.000E+00
[...]
  (in case of degenerate eigenvalues, averaged derivative)
 kpt#   1, nband= 48, wtk=  0.50000, kpt=  0.0000  0.0000  0.0000 (reduced coord)
  -0.00000    0.00000   -0.00000    0.00000    0.00000   -0.00000    0.00000   -0.00000
   0.00000    0.00000    0.00000    0.00000    0.00000   -0.00000    0.00000    0.00000
  -0.00000   -0.00000    0.00000    0.00000   -0.00000    0.00000    0.00000   -0.00000
  -0.00000   -0.00000   -0.00000   -0.00000    0.00000    0.00000    0.00000    0.00000
  -0.00000   -0.00000    0.00000   -0.00000    0.00000   -0.00000   -0.00000   -0.00000
   0.00000    0.00000    0.00000    0.00000    0.00000   -0.00000    0.00000    0.00128
 prteigrs : prtvol=0 or 1, do not print more k-points.

 Eight components of 2nd-order total energy (hartree) are
 1,2,3: 0th-order hamiltonian combined with 1st-order wavefunctions
     kin0=   5.44549914E+01 eigvalue=   4.32672269E+00  local=  -2.70705590E+01
 4,5,6: 1st-order hamiltonian combined with 1st and 0th-order wfs
     kin1=  -7.24998504E+01  Hartree=   0.00000000E+00     xc=   0.00000000E+00
 7,8,9: eventually, occupation + non-local contributions
    edocc=   5.99869500E+00     enl0=  -2.27122244E+00   enl1=   1.62259505E+00
 1-9 gives the relaxation energy (to be shifted if some occ is /=2.0)
   erelax=  -3.54386277E+01
  No Ewald or frozen-wf contrib.: the relaxation energy is the total one
 2DEtotal=   -0.3543862770E+02 Ha. Also 2DEtotal=   -0.964334101723E+03 eV
    (  non-var. 2DEtotal :   -3.5438627696E+01 Ha)

 Perturbation wavevector (in red.coord.)   0.000000  0.000000  0.000000
 Perturbation : derivative vs k along direction   2
 The set of symmetries contains only one element for this perturbation.
 symkpt : not enough symmetry to change the number of k points.

[...]

 Perturbation wavevector (in red.coord.)   0.000000  0.000000  0.000000
 Perturbation : derivative vs k along direction   3
 The set of symmetries contains only one element for this perturbation.
 symkpt : not enough symmetry to change the number of k points.

 Initialisation of the first-order wave-functions :
  ireadwf=   0

--- !BeginCycle
iteration_state: {dtset: 1, }
solver: {iscf: 7, nstep: 2000, nline: 4, wfoptalg: 0, }
tolerances: {tolwfr: 1.00E-20, }
...

     iter   2DEtotal(Ha)        deltaE(Ha) residm    vres2
-ETOT  1  -20.514033936048     -2.051E+01 7.946E-02 0.000E+00
 ETOT  2  -20.560124231509     -4.609E-02 1.354E-02 0.000E+00
 ETOT  3  -20.560568449264     -4.442E-04 1.980E-03 0.000E+00
 ETOT  4  -20.560574512658     -6.063E-06 5.371E-04 0.000E+00
 ETOT  5  -20.560574612276     -9.962E-08 9.799E-05 0.000E+00
 ETOT  6  -20.560574614076     -1.800E-09 2.814E-05 0.000E+00
 ETOT  7  -20.560574614111     -3.504E-11 5.759E-06 0.000E+00
 ETOT  8  -20.560574614112     -7.283E-13 1.821E-06 0.000E+00
 ETOT  9  -20.560574614112      0.000E+00 3.971E-07 0.000E+00
 ETOT 10  -20.560574614112     -2.132E-14 1.379E-07 0.000E+00
 ETOT 11  -20.560574614112      1.421E-14 3.083E-08 0.000E+00
 ETOT 12  -20.560574614112      3.553E-15 1.226E-08 0.000E+00
 ETOT 13  -20.560574614112      3.553E-15 3.008E-09 0.000E+00
 ETOT 14  -20.560574614112     -7.105E-15 1.277E-09 0.000E+00
 ETOT 15  -20.560574614112     -7.105E-15 3.413E-10 0.000E+00
 ETOT 16  -20.560574614112      7.105E-15 1.524E-10 0.000E+00
 ETOT 17  -20.560574614112     -7.105E-15 4.273E-11 0.000E+00
 ETOT 18  -20.560574614112      7.105E-15 1.961E-11 0.000E+00
 ETOT 19  -20.560574614112     -3.553E-15 5.601E-12 0.000E+00
 ETOT 20  -20.560574614112      0.000E+00 2.609E-12 0.000E+00
 ETOT 21  -20.560574614112      3.553E-15 7.480E-13 0.000E+00
 ETOT 22  -20.560574614112     -3.553E-15 3.517E-13 0.000E+00
 ETOT 23  -20.560574614112      3.553E-15 1.006E-13 0.000E+00
 ETOT 24  -20.560574614112     -3.553E-15 4.768E-14 0.000E+00
 ETOT 25  -20.560574614112      3.553E-15 1.358E-14 0.000E+00
 ETOT 26  -20.560574614112     -3.553E-15 6.479E-15 0.000E+00
 ETOT 27  -20.560574614112      0.000E+00 1.835E-15 0.000E+00
 ETOT 28  -20.560574614112      3.553E-15 8.813E-16 0.000E+00
 ETOT 29  -20.560574614112      3.553E-15 2.483E-16 0.000E+00
 ETOT 30  -20.560574614112     -1.066E-14 1.200E-16 0.000E+00
 ETOT 31  -20.560574614112      3.553E-15 3.363E-17 0.000E+00
 ETOT 32  -20.560574614112      3.553E-15 1.634E-17 0.000E+00
 ETOT 33  -20.560574614112      0.000E+00 4.557E-18 0.000E+00
 ETOT 34  -20.560574614112      3.553E-15 2.226E-18 0.000E+00
 ETOT 35  -20.560574614112      7.105E-15 6.180E-19 0.000E+00
 ETOT 36  -20.560574614112     -3.553E-15 3.034E-19 0.000E+00
 ETOT 37  -20.560574614112      7.105E-15 8.384E-20 0.000E+00
 ETOT 38  -20.560574614112     -3.553E-15 4.137E-20 0.000E+00
 ETOT 39  -20.560574614112      0.000E+00 1.138E-20 0.000E+00
 ETOT 40  -20.560574614112      0.000E+00 9.880E-21 0.000E+00

 At SCF step   40   max residual=  9.88E-21 < tolwfr=  1.00E-20 =>converged.

 ----iterations are completed or convergence reached----

 dfpt_looppert: DFPT cycle converged with prtwf=-1. Will skip output of the 1st-order WFK file.
 dfpt_looppert : ek2=    4.1992643667E+01
          f-sum rule ratio=    1.0001322187E+00
 prteigrs : about to open file /scratch/users/j/a/jabreu/flow_simple_11atoms/flow/w316/t1/tmpdata/tmp_1WF1_EIG
 Expectation of eigenvalue derivatives (hartree) for nkpt=   2  k points:
  (in case of degenerate eigenvalues, averaged derivative)
 kpt#   1, nband= 48, wtk=  0.50000, kpt=  0.0000  0.0000  0.0000 (reduced coord)
  -0.00000    0.00000   -0.00000    0.00000   -0.00000    0.00000    0.00000   -0.00000
   0.00000   -0.00000    0.00000    0.00000   -0.00000    0.00000    0.00000    0.00000
  -0.00000    0.00000    0.00000    0.00000   -0.00000    0.00000   -0.00000   -0.00000
   0.00000   -0.00000    0.00000    0.00000    0.00000   -0.00000   -0.00000   -0.00000
   0.00000   -0.00000    0.00000   -0.00000    0.00000    0.00000   -0.00000    0.00000
  -0.00000   -0.00000   -0.00000   -0.00000    0.00000   -0.00000    0.00000    0.00015
 prteigrs : prtvol=0 or 1, do not print more k-points.

 Eight components of 2nd-order total energy (hartree) are
 1,2,3: 0th-order hamiltonian combined with 1st-order wavefunctions
     kin0=   3.20001107E+01 eigvalue=   2.62791025E+00  local=  -1.58653291E+01
 4,5,6: 1st-order hamiltonian combined with 1st and 0th-order wfs
     kin1=  -4.19981959E+01  Hartree=   0.00000000E+00     xc=   0.00000000E+00
 7,8,9: eventually, occupation + non-local contributions
    edocc=   3.14698522E+00     enl0=  -1.34910242E+00   enl1=   8.77046651E-01
 1-9 gives the relaxation energy (to be shifted if some occ is /=2.0)
   erelax=  -2.05605746E+01
  No Ewald or frozen-wf contrib.: the relaxation energy is the total one
 2DEtotal=   -0.2056057461E+02 Ha. Also 2DEtotal=   -0.559481688207E+03 eV
    (  non-var. 2DEtotal :   -2.0560574614E+01 Ha)

 CALCULATION OF EFFECTIVE MASSES
 NOTE : Additional infos (eff. mass eigenvalues, eigenvectors and, if degenerate, average mass) are available in stdout.

 K-point ( 0.000, 0.000, 0.000) | band =    39
 Effective mass tensor:
             -7.5529744848             -1.8286721796             -2.7257129547
             -1.8286721796            -10.1785313980              1.6515104488
             -2.7257129547              1.6515104488            -19.6306853685
 Effective mass tensor eigenvalues:
            -20.3708351278            -11.1121448962             -5.8792112273
 Angular average effective mass 1/(<1/m>)=  -9.7033284858
 Angular average effective mass for Frohlich model (<m**0.5>)**2= -10.4525121600
 Effective masses along directions: (cart. coord. / red. coord. -> eff. mass)
    1:   1.000000  0.000000  0.000000 /   0.993040 -0.117778  0.000000 ->  -6.7526507993
    2:   0.000000  1.000000  0.000000 /   0.000000  1.000000  0.000000 ->  -9.4492658263
    3:   0.000000  0.000000  1.000000 /  -0.174178 -0.214831  0.960994 -> -18.0982565498
    4:   0.577350  0.577350  0.577350 /   0.430494  0.400042  0.809099 -> -13.1311994577
    5:   0.000000  0.707107  0.707107 /  -0.154956  0.495038  0.854942 -> -10.6769899445
    6:   0.707107  0.000000  0.707107 /   0.453245 -0.262502  0.851858 -> -12.7297939708
    7:   0.707107  0.707107  0.000000 /   0.704798  0.709408  0.000000 -> -10.3516812270

 K-point ( 0.000, 0.000, 0.500) | band =    40
 Effective mass tensor:
            848.2263339751            221.0181109372            304.1687400444
            221.0181109372             70.4544520105             80.0516912337
            304.1687400444             80.0516912337            112.8961552821
 Effective mass tensor eigenvalues:
              3.3639381572             12.0473509189           1016.1656521916
 Angular average effective mass 1/(<1/m>)=   7.8686354001
 Angular average effective mass for Frohlich model (<m**0.5>)**2=  13.5240783494
 Effective masses along directions: (cart. coord. / red. coord. -> eff. mass)
    1:   1.000000  0.000000  0.000000 /   0.993040 -0.117778  0.000000 ->  26.6416446315
    2:   0.000000  1.000000  0.000000 /   0.000000  1.000000  0.000000 ->  12.6991485544
    3:   0.000000  0.000000  1.000000 /  -0.174178 -0.214831  0.960994 ->   3.7738717225
    4:   0.577350  0.577350  0.577350 /   0.430494  0.400042  0.809099 ->  21.7870892583
    5:   0.000000  0.707107  0.707107 /  -0.154956  0.495038  0.854942 ->   6.4321848701
    6:   0.707107  0.000000  0.707107 /   0.453245 -0.262502  0.851858 ->  16.5264064922
    7:   0.707107  0.707107  0.000000 /   0.704798  0.709408  0.000000 ->  22.9879868689

 END OF EFFECTIVE MASSES SECTION

 ---- first-order wavefunction calculations are completed ----

 Total localisation tensor (bohr^2) in cartesian coordinates
  WARNING : still subject to testing - especially symmetries.
      direction              matrix element
   alpha     beta       real part   imaginary part
     1        1       0.6031033123    0.0000000000
     1        2      -0.0623276694    0.0000000000
     1        3      -0.1342138200    0.0000000000
     2        1      -0.0623276694    0.0000000000
     2        2       0.5912763158    0.0000000000
     2        3      -0.1646938270    0.0000000000
     3        1      -0.1342138200    0.0000000000
     3        2      -0.1646938270    0.0000000000
     3        3       0.7747827331    0.0000000000

 respfn : d/dk was computed, but no 2DTE, so no DDB output.

== END DATASET(S) ==============================================================

 -outvars: echo values of variables after computation  --------
            acell      1.0000000000E+00  1.0000000000E+00  1.0000000000E+00 Bohr
              amu      3.90983000E+01  3.20660000E+01  1.59994000E+01
             ecut      4.40000000E+01 Hartree
           etotal     -2.0560574614E+01
            fcart      0.0000000000E+00  0.0000000000E+00  0.0000000000E+00
                       0.0000000000E+00  0.0000000000E+00  0.0000000000E+00
                       0.0000000000E+00  0.0000000000E+00  0.0000000000E+00
                       0.0000000000E+00  0.0000000000E+00  0.0000000000E+00
                       0.0000000000E+00  0.0000000000E+00  0.0000000000E+00
                       0.0000000000E+00  0.0000000000E+00  0.0000000000E+00
                       0.0000000000E+00  0.0000000000E+00  0.0000000000E+00
                       0.0000000000E+00  0.0000000000E+00  0.0000000000E+00
                       0.0000000000E+00  0.0000000000E+00  0.0000000000E+00
                       0.0000000000E+00  0.0000000000E+00  0.0000000000E+00
                       0.0000000000E+00  0.0000000000E+00  0.0000000000E+00
                       0.0000000000E+00  0.0000000000E+00  0.0000000000E+00
-          fftalg         512
           irdden           1
           irdwfk           1
           istwfk        1    1
              ixc     -116133
              kpt      0.00000000E+00  0.00000000E+00  0.00000000E+00
                       0.00000000E+00  0.00000000E+00  5.00000000E-01
           kptopt           0
P           mkmem           2
P          mkqmem           2
P          mk1mem           2
            natom          12
            nband          48
           nbdbuf           4
            ngfft          60      72      80
             nkpt           2
            nstep        2000
             nsym           2
           ntypat           3
              occ      2.000000  2.000000  2.000000  2.000000  2.000000  2.000000
                       2.000000  2.000000  2.000000  2.000000  2.000000  2.000000
                       2.000000  2.000000  2.000000  2.000000  2.000000  2.000000
                       2.000000  2.000000  2.000000  2.000000  2.000000  2.000000
                       2.000000  2.000000  2.000000  2.000000  2.000000  2.000000
                       2.000000  2.000000  2.000000  2.000000  2.000000  2.000000
                       2.000000  2.000000  2.000000  0.000000  0.000000  0.000000
                       0.000000  0.000000  0.000000  0.000000  0.000000  0.000000
        optdriver           1
            prtwf          -1
            rfdir           1       1       1
           rfelfd           2
            rprim      9.2950196553E+00  0.0000000000E+00 -2.3617935635E+00
                      -1.1024256115E+00  1.0458246886E+01 -2.9130351711E+00
                       0.0000000000E+00  0.0000000000E+00  1.3030756763E+01
          spgroup           2
           strten      0.0000000000E+00  0.0000000000E+00  0.0000000000E+00
                       0.0000000000E+00  0.0000000000E+00  0.0000000000E+00
           symrel      1  0  0   0  1  0   0  0  1      -1  0  0   0 -1  0   0  0 -1
           tolwfr      1.00000000E-20
            typat      1  1  2  2  3  3  3  3  3  3  3  3
           useylm           1
              wtk        0.50000    0.50000
           xangst      1.8923173455E+00  1.0627672166E+00  1.1202789055E+00
                       2.4430167017E+00  4.4714986770E+00  2.9839814388E+00
                       2.9330190315E-01  1.5831487043E+00  4.6068693816E+00
                       4.0420321441E+00  3.9511171893E+00 -5.0260903727E-01
                       1.0764012148E+00  7.0053291109E-01  5.4570705147E+00
                       3.2589328324E+00  4.8337329826E+00 -1.3528101704E+00
                       3.8979557876E+00  1.0571776081E+00  3.0351161864E+00
                       4.3737825962E-01  4.4770882856E+00  1.0691441579E+00
                       4.2944850253E+00  2.5650768991E+00 -1.3867888235E+00
                       4.0849021863E-02  2.9691889946E+00  5.4910491678E+00
                       3.3306040952E+00  3.3260384594E+00  5.9450860862E-01
                       1.0047299520E+00  2.2082274342E+00  3.5097517357E+00
            xcart      3.5759615395E+00  2.0083389824E+00  2.1170203238E+00
                       4.6166325043E+00  8.4499079032E+00  5.6389077050E+00
                       5.5426027121E-01  2.9917174788E+00  8.7057214612E+00
                       7.6383337726E+00  7.4665294068E+00 -9.4979343235E-01
                       2.0341035051E+00  1.3238153490E+00  1.0312368761E+01
                       6.1584905387E+00  9.1344315366E+00 -2.5564407319E+00
                       7.3660689166E+00  1.9977761531E+00  5.7355383738E+00
                       8.2652512717E-01  8.4604707325E+00  2.0203896550E+00
                       8.1154005797E+00  4.8472928490E+00 -2.6206510806E+00
                       7.7193464117E-02  5.6109540366E+00  1.0376579109E+01
                       6.2939295969E+00  6.2853017958E+00  1.1234584539E+00
                       1.8986644469E+00  4.1729450898E+00  6.6324695749E+00
             xred      4.0749400000E-01  1.9203400000E-01  2.7925000000E-01
                       5.9250600000E-01  8.0796600000E-01  7.2075000000E-01
                       9.3558000000E-02  2.8606300000E-01  7.4899700000E-01
                       9.0644200000E-01  7.1393700000E-01  2.5100300000E-01
                       2.3385100000E-01  1.2658100000E-01  8.6206900000E-01
                       7.6614900000E-01  8.7341900000E-01  1.3793100000E-01
                       8.1513100000E-01  1.9102400000E-01  6.3059800000E-01
                       1.8486900000E-01  8.0897600000E-01  3.6940200000E-01
                       9.2806300000E-01  4.6349000000E-01  7.0710000000E-02
                       7.1937000000E-02  5.3651000000E-01  9.2929000000E-01
                       7.4840900000E-01  6.0099000000E-01  3.5621500000E-01
                       2.5159100000E-01  3.9901000000E-01  6.4378500000E-01
            znucl       19.00000   16.00000    8.00000

- Timing analysis has been suppressed with timopt=0

 Suggested references for the acknowledgment of ABINIT usage.

 Calculation completed.
.Delivered   2 WARNINGs and   5 COMMENTs to log file.