.Version 9.5.1 of ABINIT

 ABINIT is a project of the Universite Catholique de Louvain,
 Corning Inc. and other collaborators, see ~abinit/doc/developers/contributors.txt .
 acknowledgments of the ABINIT effort.

.Starting date : Tue 11 May 2021.
- ( at 21h49 )

- input  file    -> /scratch/users/j/a/jabreu/flow_simple_8atoms/flow/w362/t1/run.abi
- output file    -> /scratch/users/j/a/jabreu/flow_simple_8atoms/flow/w362/t1/run.abo
- root for input  files -> /scratch/users/j/a/jabreu/flow_simple_8atoms/flow/w362/t1/indata/in
- root for output files -> /scratch/users/j/a/jabreu/flow_simple_8atoms/flow/w362/t1/outdata/out

 Symmetries : space group C2/m (# 12); Bravais mC (1-face-center monocl.)
     intxc =       0      iscf =       7    lmnmax =      18     lnmax =       6
     mgfft =      60  mpssoang =       3    mqgrid =    3001     natom =       8
  nloc_mem =       1    nspden =       1   nspinor =       1    nsppol =       1
      nsym =       4    n1xccc =    2501    ntypat =       2    occopt =       1
   xclevel =       2
-    mband =          34        mffmem =           1         mkmem =           2
-   mkqmem =           2        mk1mem =           2           mpw =        7278
      nfft =      144000          nkpt =           2
  Rough estimation (10% accuracy) of disk space for files :

------------- Echo of variables that govern the present computation ------------
-
- outvars: echo of selected default values
-   iomode0 =  0 , fftalg0 =512 , wfoptalg0 =  0
-
- outvars: echo of global parameters not present in the input file
-  max_nthreads =    0
-
 -outvars: echo values of preprocessed input variables --------
            acell      1.0000000000E+00  1.0000000000E+00  1.0000000000E+00 Bohr
              amu      1.37327000E+02  3.09737620E+01
             ecut      2.40000000E+01 Hartree
-          fftalg         512
           irdden           1
           irdwfk           1
           istwfk        1    0
              ixc     -116133
              kpt      0.00000000E+00  0.00000000E+00  5.00000000E-01
                       8.33333333E-02  8.33333333E-02  0.00000000E+00
           kptopt           0
P           mkmem           2
P          mkqmem           2
P          mk1mem           2
            natom           8
            nband          34
           nbdbuf           4
            ngfft          60      60      40
             nkpt           2
            nstep        2000
             nsym           4
           ntypat           2
              occ      2.000000  2.000000  2.000000  2.000000  2.000000  2.000000
                       2.000000  2.000000  2.000000  2.000000  2.000000  2.000000
                       2.000000  2.000000  2.000000  2.000000  2.000000  2.000000
                       2.000000  2.000000  2.000000  2.000000  2.000000  2.000000
                       2.000000  0.000000  0.000000  0.000000  0.000000  0.000000
                       0.000000  0.000000  0.000000  0.000000
        optdriver           1
            prtwf          -1
            rfdir           1       1       1
           rfelfd           2
            rprim      1.2371799487E+01  0.0000000000E+00  4.2227969487E+00
                       3.9712169626E+00  1.1717118177E+01  4.2227969487E+00
                       0.0000000000E+00  0.0000000000E+00  8.9189679804E+00
          spgroup          12
           symrel      1  0  0   0  1  0   0  0  1      -1  0  0   0 -1  0   0  0 -1
                       0 -1  0  -1  0  0   0  0 -1       0  1  0   1  0  0   0  0  1
           tolwfr      1.00000000E-20
            typat      1  1  2  2  2  2  2  2
           useylm           1
              wtk        0.50000    0.50000
           xangst      7.1580072997E+00  5.1319300634E+00  7.5469617526E+00
                       1.4903445249E+00  1.0685018263E+00  1.6419686303E+00
                       5.1392311816E+00  3.6845694478E+00  5.0773391958E+00
                       3.5091206429E+00  2.5158624418E+00  4.1115911871E+00
                       4.6274811091E+00  1.1189919431E+00  2.8523914089E+00
                       6.1032012711E+00  2.1770088391E+00  6.3365389740E+00
                       4.0208707154E+00  5.0814399465E+00  6.3365389740E+00
                       2.5451505535E+00  4.0234230506E+00  2.8523914089E+00
            xcart      1.3526673454E+01  9.6979423530E+00  1.4261690848E+01
                       2.8163429957E+00  2.0191758241E+00  3.1028710301E+00
                       9.7117394669E+00  6.9628271740E+00  9.5947805637E+00
                       6.6312769824E+00  4.7542910031E+00  7.7697813141E+00
                       8.7446719814E+00  2.1145883174E+00  5.3902385865E+00
                       1.1533378936E+01  4.1139504947E+00  1.1974323291E+01
                       7.5983444679E+00  9.6025298597E+00  1.1974323291E+01
                       4.8096375131E+00  7.6031676824E+00  5.3902385865E+00
             xred      8.2767300000E-01  8.2767300000E-01  8.1528500000E-01
                       1.7232700000E-01  1.7232700000E-01  1.8471500000E-01
                       5.9424400000E-01  5.9424400000E-01  5.1306800000E-01
                       4.0575600000E-01  4.0575600000E-01  4.8693200000E-01
                       6.4889400000E-01  1.8047000000E-01  2.1168400000E-01
                       8.1953000000E-01  3.5110600000E-01  7.8831600000E-01
                       3.5110600000E-01  8.1953000000E-01  7.8831600000E-01
                       1.8047000000E-01  6.4889400000E-01  2.1168400000E-01
            znucl       56.00000   15.00000

 chkinp: Checking input parameters for consistency.

== DATASET  1 ==================================================================
-   mpi_nproc: 1, omp_nthreads: -1 (-1 if OMP is not activated)

--- !DatasetInfo
iteration_state: {dtset: 1, }
dimensions: {natom: 8, nkpt: 2, mband: 34, nsppol: 1, nspinor: 1, nspden: 1, mpw: 7278, }
cutoff_energies: {ecut:  24.0, pawecutdg:  -1.0, }
electrons: {nelect:   5.00000000E+01, charge:   0.00000000E+00, occopt:   1.00000000E+00, tsmear:   1.00000000E-02, }
meta: {optdriver: 1, rfelfd: 2, }
...

 Real(R)+Recip(G) space primitive vectors, cartesian coordinates (Bohr,Bohr^-1):
 R(1)= 12.3717995  0.0000000  4.2227969  G(1)=  0.0808290 -0.0273949  0.0000000
 R(2)=  3.9712170 11.7171182  4.2227969  G(2)=  0.0000000  0.0853452  0.0000000
 R(3)=  0.0000000  0.0000000  8.9189680  G(3)= -0.0382695 -0.0274373  0.1121206
 Unit cell volume ucvol=  1.2929100E+03 bohr^3
 Angles (23,13,12)=  7.11539751E+01  7.11539751E+01  6.69308781E+01 degrees

 getcut: wavevector=  0.0000  0.0000  0.0000  ngfft=  60  60  40
         ecut(hartree)=     24.000   => boxcut(ratio)=   2.03408

--- Pseudopotential description ------------------------------------------------
- pspini: atom type   1  psp file is /scratch/users/j/a/jabreu/pseudos/PBEsol/Ba.psp8
- pspatm: opening atomic psp file    /scratch/users/j/a/jabreu/pseudos/PBEsol/Ba.psp8
- Ba    ONCVPSP-3.3.0  r_core=   2.15444   1.91218   2.15444
- 56.00000  10.00000    180112                znucl, zion, pspdat
    8 -116133    2    4       600   0.00000   pspcod,pspxc,lmax,lloc,mmax,r2well
    5.99000000000000    5.00000000000000    0.00000000000000   rchrg,fchrg,qchrg
     nproj     2     2     2
     extension_switch     1
  pspatm : epsatm=   26.37418029
         --- l  ekb(1:nproj) -->
             0    6.652372    0.677024
             1    5.027722    0.408462
             2    2.543237    0.416854
 pspatm: atomic psp has been read  and splines computed

- pspini: atom type   2  psp file is /scratch/users/j/a/jabreu/pseudos/PBEsol/P.psp8
- pspatm: opening atomic psp file    /scratch/users/j/a/jabreu/pseudos/PBEsol/P.psp8
- P     ONCVPSP-3.3.0  r_core=   1.46089   1.55067   1.70594
- 15.00000   5.00000    180112                znucl, zion, pspdat
    8 -116133    2    4       600   0.00000   pspcod,pspxc,lmax,lloc,mmax,r2well
    5.99000000000000    5.00000000000000    0.00000000000000   rchrg,fchrg,qchrg
     nproj     2     2     2
     extension_switch     1
  pspatm : epsatm=    7.31221086
         --- l  ekb(1:nproj) -->
             0    6.742364    1.063650
             1    3.449117    0.910422
             2   -3.077645   -0.799176
 pspatm: atomic psp has been read  and splines computed

   4.83108129E+03                                ecore*ucvol(ha*bohr**3)

-inwffil : will read wavefunctions from disk file /scratch/users/j/a/jabreu/flow_simple_8atoms/flow/w362/t1/indata/in_WFK

 ==>  initialize data related to q vector <==

 The list of irreducible perturbations for this q vector is:
    1)    idir= 1    ipert=   9
    2)    idir= 2    ipert=   9
    3)    idir= 3    ipert=   9

 Perturbation wavevector (in red.coord.)   0.000000  0.000000  0.000000
 Perturbation : derivative vs k along direction   1

 dfpt_looppert : COMMENT -
  In a d/dk calculation, iscf is set to -3 automatically.
 The set of symmetries contains only one element for this perturbation.
 symkpt : not enough symmetry to change the number of k points.

[...]

 Initialisation of the first-order wave-functions :
  ireadwf=   0

--- !BeginCycle
iteration_state: {dtset: 1, }
solver: {iscf: 7, nstep: 2000, nline: 4, wfoptalg: 0, }
tolerances: {tolwfr: 1.00E-20, }
...

     iter   2DEtotal(Ha)        deltaE(Ha) residm    vres2
-ETOT  1  -18.398464806723     -1.840E+01 4.343E-02 0.000E+00
 ETOT  2  -18.413528830932     -1.506E-02 3.897E-03 0.000E+00
 ETOT  3  -18.413616814767     -8.798E-05 1.945E-04 0.000E+00
 ETOT  4  -18.413617520816     -7.060E-07 3.195E-05 0.000E+00
 ETOT  5  -18.413617527489     -6.674E-09 2.288E-06 0.000E+00
 ETOT  6  -18.413617527558     -6.872E-11 9.133E-07 0.000E+00
 ETOT  7  -18.413617527559     -7.390E-13 6.370E-08 0.000E+00
 ETOT  8  -18.413617527559      3.553E-15 3.089E-08 0.000E+00
 ETOT  9  -18.413617527559     -1.776E-14 2.171E-09 0.000E+00
 ETOT 10  -18.413617527559     -3.553E-15 1.083E-09 0.000E+00
 ETOT 11  -18.413617527559      3.553E-15 7.623E-11 0.000E+00
 ETOT 12  -18.413617527559     -3.553E-15 3.871E-11 0.000E+00
 ETOT 13  -18.413617527559      7.105E-15 2.723E-12 0.000E+00
 ETOT 14  -18.413617527559     -3.553E-15 1.398E-12 0.000E+00
 ETOT 15  -18.413617527559     -3.553E-15 9.822E-14 0.000E+00
 ETOT 16  -18.413617527559      3.553E-15 5.079E-14 0.000E+00
 ETOT 17  -18.413617527559      0.000E+00 3.567E-15 0.000E+00
 ETOT 18  -18.413617527559      0.000E+00 1.854E-15 0.000E+00
 ETOT 19  -18.413617527559      0.000E+00 1.301E-16 0.000E+00
 ETOT 20  -18.413617527559      3.553E-15 6.790E-17 0.000E+00
 ETOT 21  -18.413617527559     -3.553E-15 4.762E-18 0.000E+00
 ETOT 22  -18.413617527559      3.553E-15 2.492E-18 0.000E+00
 ETOT 23  -18.413617527559     -3.553E-15 1.747E-19 0.000E+00
 ETOT 24  -18.413617527559      3.553E-15 9.163E-20 0.000E+00
 ETOT 25  -18.413617527559     -3.553E-15 9.995E-21 0.000E+00

 At SCF step   25   max residual=  9.99E-21 < tolwfr=  1.00E-20 =>converged.

 ----iterations are completed or convergence reached----

 dfpt_looppert: DFPT cycle converged with prtwf=-1. Will skip output of the 1st-order WFK file.
 dfpt_looppert : ek2=    2.8755314135E+01
          f-sum rule ratio=    1.2796474729E+00
 prteigrs : about to open file /scratch/users/j/a/jabreu/flow_simple_8atoms/flow/w362/t1/tmpdata/tmp_1WF1_EIG
 Expectation of eigenvalue derivatives (hartree) for nkpt=   2  k points:
  (in case of degenerate eigenvalues, averaged derivative)
 kpt#   1, nband= 34, wtk=  0.50000, kpt=  0.0000  0.0000  0.5000 (reduced coord)
  -0.00000    0.00000    0.00000    0.00000    0.00000   -0.00000    0.00000    0.00000
   0.00000   -0.00000    0.00000   -0.00000    0.00000   -0.00000    0.00000    0.00000
  -0.00000   -0.00000   -0.00000    0.00000    0.00000   -0.00000   -0.00000   -0.00000
  -0.00000   -0.00000   -0.00000    0.00000   -0.00000   -0.00000    0.00000    0.00000
   0.00000    0.01769
 prteigrs : prtvol=0 or 1, do not print more k-points.

 Eight components of 2nd-order total energy (hartree) are
 1,2,3: 0th-order hamiltonian combined with 1st-order wavefunctions
     kin0=   1.89023375E+01 eigvalue=  -1.74094148E+00  local=  -1.18796084E+01
 4,5,6: 1st-order hamiltonian combined with 1st and 0th-order wfs
     kin1=  -3.67966651E+01  Hartree=   0.00000000E+00     xc=   0.00000000E+00
 7,8,9: eventually, occupation + non-local contributions
    edocc=   1.00639811E+01     enl0=   3.06784872E+00   enl1=  -3.05699889E-02
 1-9 gives the relaxation energy (to be shifted if some occ is /=2.0)
   erelax=  -1.84136175E+01
  No Ewald or frozen-wf contrib.: the relaxation energy is the total one
 2DEtotal=   -0.1841361753E+02 Ha. Also 2DEtotal=   -0.501060014794E+03 eV
    (  non-var. 2DEtotal :   -1.8413617527E+01 Ha)

 Perturbation wavevector (in red.coord.)   0.000000  0.000000  0.000000
 Perturbation : derivative vs k along direction   2
 The set of symmetries contains only one element for this perturbation.
 symkpt : not enough symmetry to change the number of k points.

[...]

 Perturbation wavevector (in red.coord.)   0.000000  0.000000  0.000000
 Perturbation : derivative vs k along direction   3
 The set of symmetries contains only one element for this perturbation.
 symkpt : not enough symmetry to change the number of k points.

-inwffil : will read wavefunctions from disk file /scratch/users/j/a/jabreu/flow_simple_8atoms/flow/w362/t1/indata/in_WFK

 Initialisation of the first-order wave-functions :
  ireadwf=   0

--- !BeginCycle
iteration_state: {dtset: 1, }
solver: {iscf: 7, nstep: 2000, nline: 4, wfoptalg: 0, }
tolerances: {tolwfr: 1.00E-20, }
...

     iter   2DEtotal(Ha)        deltaE(Ha) residm    vres2
-ETOT  1  -31.003916344805     -3.100E+01 9.312E-02 0.000E+00
 ETOT  2  -31.034079944777     -3.016E-02 4.020E-03 0.000E+00
 ETOT  3  -31.034231039723     -1.511E-04 1.483E-04 0.000E+00
 ETOT  4  -31.034232051069     -1.011E-06 1.518E-05 0.000E+00
 ETOT  5  -31.034232058827     -7.757E-09 2.623E-06 0.000E+00
 ETOT  6  -31.034232058891     -6.414E-11 2.106E-07 0.000E+00
 ETOT  7  -31.034232058892     -6.040E-13 3.353E-08 0.000E+00
 ETOT  8  -31.034232058892     -3.553E-15 6.851E-09 0.000E+00
 ETOT  9  -31.034232058892      1.776E-14 1.058E-09 0.000E+00
 ETOT 10  -31.034232058892      7.105E-15 2.307E-10 0.000E+00
 ETOT 11  -31.034232058892      1.421E-14 3.620E-11 0.000E+00
 ETOT 12  -31.034232058892     -7.105E-15 7.938E-12 0.000E+00
 ETOT 13  -31.034232058892      1.066E-14 1.257E-12 0.000E+00
 ETOT 14  -31.034232058892      0.000E+00 2.761E-13 0.000E+00
 ETOT 15  -31.034232058892     -1.421E-14 4.396E-14 0.000E+00
 ETOT 16  -31.034232058892      7.105E-15 9.661E-15 0.000E+00
 ETOT 17  -31.034232058892     -3.553E-15 1.544E-15 0.000E+00
 ETOT 18  -31.034232058892      0.000E+00 3.394E-16 0.000E+00
 ETOT 19  -31.034232058892      1.066E-14 5.443E-17 0.000E+00
 ETOT 20  -31.034232058892     -3.553E-15 1.196E-17 0.000E+00
 ETOT 21  -31.034232058892      0.000E+00 1.924E-18 0.000E+00
 ETOT 22  -31.034232058892      0.000E+00 4.226E-19 0.000E+00
 ETOT 23  -31.034232058892      3.553E-15 6.825E-20 0.000E+00
 ETOT 24  -31.034232058892     -1.421E-14 1.500E-20 0.000E+00
 ETOT 25  -31.034232058892      0.000E+00 9.668E-21 0.000E+00

 At SCF step   25   max residual=  9.67E-21 < tolwfr=  1.00E-20 =>converged.

 ----iterations are completed or convergence reached----

 dfpt_looppert: DFPT cycle converged with prtwf=-1. Will skip output of the 1st-order WFK file.
 dfpt_looppert : ek2=    5.8382213021E+01
          f-sum rule ratio=    1.0503169963E+00
 prteigrs : about to open file /scratch/users/j/a/jabreu/flow_simple_8atoms/flow/w362/t1/tmpdata/tmp_1WF1_EIG
 Expectation of eigenvalue derivatives (hartree) for nkpt=   2  k points:
  (in case of degenerate eigenvalues, averaged derivative)
 kpt#   1, nband= 34, wtk=  0.50000, kpt=  0.0000  0.0000  0.5000 (reduced coord)
   0.00000   -0.00000    0.00000   -0.00000    0.00000    0.00000    0.00000    0.00000
  -0.00000    0.00000    0.00000    0.00000   -0.00000   -0.00000    0.00000   -0.00000
   0.00000    0.00000   -0.00000    0.00000   -0.00000   -0.00000   -0.00000    0.00000
   0.00000   -0.00000    0.00000    0.00000    0.00000   -0.00000   -0.00000   -0.00000
   0.00000   -0.09988
 prteigrs : prtvol=0 or 1, do not print more k-points.

 Eight components of 2nd-order total energy (hartree) are
 1,2,3: 0th-order hamiltonian combined with 1st-order wavefunctions
     kin0=   3.90054342E+01 eigvalue=  -3.44290157E+00  local=  -2.44945047E+01
 4,5,6: 1st-order hamiltonian combined with 1st and 0th-order wfs
     kin1=  -6.13198306E+01  Hartree=   0.00000000E+00     xc=   0.00000000E+00
 7,8,9: eventually, occupation + non-local contributions
    edocc=   1.36273279E+01     enl0=   6.33887626E+00   enl1=  -7.48633502E-01
 1-9 gives the relaxation energy (to be shifted if some occ is /=2.0)
   erelax=  -3.10342321E+01
  No Ewald or frozen-wf contrib.: the relaxation energy is the total one
 2DEtotal=   -0.3103423206E+02 Ha. Also 2DEtotal=   -0.844484401355E+03 eV
    (  non-var. 2DEtotal :   -3.1034232059E+01 Ha)

 CALCULATION OF EFFECTIVE MASSES
 NOTE : Additional infos (eff. mass eigenvalues, eigenvectors and, if degenerate, average mass) are available in stdout.

--- !WARNING
src_file: m_efmas.F90
src_line: 0
message: |

    Band(s)    25,
    are not band extrema, but saddle points;
    the transport equivalent formalism breaks down in these conditions.
    The associated tensor(s) will therefore not be printed.
...

 K-point ( 0.000, 0.000, 0.500) | band =    25
 Effective mass tensor:
     *** SADDLE POINT: TRANSPORT EQV. EFF. MASS NOT DEFINED (see WARNING above) ***
 Angular average effective mass 1/(<1/m>)=  -0.7087705252
 Angular average effective mass for Frohlich model (<m**0.5>)**2=  -1.8211217608
 Effective masses along directions: (cart. coord. / red. coord. -> eff. mass)
    1:   1.000000  0.000000  0.000000 /   0.952150  0.305630  0.000000 ->  -0.5574692797
    2:   0.000000  1.000000  0.000000 /   0.000000  1.000000  0.000000 ->  -0.3303810978
    3:   0.000000  0.000000  1.000000 /   0.393415  0.393415  0.830932 ->   1.7008344165
    4:   0.577350  0.577350  0.577350 /   0.605392  0.726383  0.325375 ->  18.1136436380
    5:   0.000000  0.707107  0.707107 /   0.225248  0.850252  0.475747 ->  -0.9427290926
    6:   0.707107  0.000000  0.707107 /   0.807745  0.398845  0.434132 ->  -2.6208459314
    7:   0.707107  0.707107  0.000000 /   0.619221  0.785217  0.000000 ->  -1.6914062887

 K-point ( 0.083, 0.083, 0.000) | band =    26
 Effective mass tensor:
              1.3026874063              0.7391711396              0.4163016716
              0.7391711396              0.8016417925              0.2984678796
              0.4163016716              0.2984678796              0.7958136480
 Effective mass tensor eigenvalues:
              0.2716931711              0.5854310956              2.0430185800
 Angular average effective mass 1/(<1/m>)=   0.5103570788
 Angular average effective mass for Frohlich model (<m**0.5>)**2=   0.6017626207
 Effective masses along directions: (cart. coord. / red. coord. -> eff. mass)
    1:   1.000000  0.000000  0.000000 /   0.952150  0.305630  0.000000 ->   0.5920438130
    2:   0.000000  1.000000  0.000000 /   0.000000  1.000000  0.000000 ->   0.3763744603
    3:   0.000000  0.000000  1.000000 /   0.393415  0.393415  0.830932 ->   0.6526372873
    4:   0.577350  0.577350  0.577350 /   0.605392  0.726383  0.325375 ->   1.6417462352
    5:   0.000000  0.707107  0.707107 /   0.225248  0.850252  0.475747 ->   0.5419937582
    6:   0.707107  0.000000  0.707107 /   0.807745  0.398845  0.434132 ->   0.7920222890
    7:   0.707107  0.707107  0.000000 /   0.619221  0.785217  0.000000 ->   1.3420125664

 END OF EFFECTIVE MASSES SECTION

 ---- first-order wavefunction calculations are completed ----

 Total localisation tensor (bohr^2) in cartesian coordinates
  WARNING : still subject to testing - especially symmetries.
      direction              matrix element
   alpha     beta       real part   imaginary part
     1        1       4.1413531071    0.0000000000
     1        2       1.1413590945    0.0000000000
     1        3       1.6928495212    0.0000000000
     2        1       1.1413590945    0.0000000000
     2        2       3.3675922314    0.0000000000
     2        3       1.2136651679    0.0000000000
     3        1       1.6928495212    0.0000000000
     3        2       1.2136651679    0.0000000000
     3        3       3.3546614160    0.0000000000

 respfn : d/dk was computed, but no 2DTE, so no DDB output.

== END DATASET(S) ==============================================================

 -outvars: echo values of variables after computation  --------
            acell      1.0000000000E+00  1.0000000000E+00  1.0000000000E+00 Bohr
              amu      1.37327000E+02  3.09737620E+01
             ecut      2.40000000E+01 Hartree
           etotal     -3.1034232059E+01
            fcart      0.0000000000E+00  0.0000000000E+00  0.0000000000E+00
                       0.0000000000E+00  0.0000000000E+00  0.0000000000E+00
                       0.0000000000E+00  0.0000000000E+00  0.0000000000E+00
                       0.0000000000E+00  0.0000000000E+00  0.0000000000E+00
                       0.0000000000E+00  0.0000000000E+00  0.0000000000E+00
                       0.0000000000E+00  0.0000000000E+00  0.0000000000E+00
                       0.0000000000E+00  0.0000000000E+00  0.0000000000E+00
                       0.0000000000E+00  0.0000000000E+00  0.0000000000E+00
-          fftalg         512
           irdden           1
           irdwfk           1
           istwfk        1    0
              ixc     -116133
              kpt      0.00000000E+00  0.00000000E+00  5.00000000E-01
                       8.33333333E-02  8.33333333E-02  0.00000000E+00
           kptopt           0
P           mkmem           2
P          mkqmem           2
P          mk1mem           2
            natom           8
            nband          34
           nbdbuf           4
            ngfft          60      60      40
             nkpt           2
            nstep        2000
             nsym           4
           ntypat           2
              occ      2.000000  2.000000  2.000000  2.000000  2.000000  2.000000
                       2.000000  2.000000  2.000000  2.000000  2.000000  2.000000
                       2.000000  2.000000  2.000000  2.000000  2.000000  2.000000
                       2.000000  2.000000  2.000000  2.000000  2.000000  2.000000
                       2.000000  0.000000  0.000000  0.000000  0.000000  0.000000
                       0.000000  0.000000  0.000000  0.000000
        optdriver           1
            prtwf          -1
            rfdir           1       1       1
           rfelfd           2
            rprim      1.2371799487E+01  0.0000000000E+00  4.2227969487E+00
                       3.9712169626E+00  1.1717118177E+01  4.2227969487E+00
                       0.0000000000E+00  0.0000000000E+00  8.9189679804E+00
          spgroup          12
           strten      0.0000000000E+00  0.0000000000E+00  0.0000000000E+00
                       0.0000000000E+00  0.0000000000E+00  0.0000000000E+00
           symrel      1  0  0   0  1  0   0  0  1      -1  0  0   0 -1  0   0  0 -1
                       0 -1  0  -1  0  0   0  0 -1       0  1  0   1  0  0   0  0  1
           tolwfr      1.00000000E-20
            typat      1  1  2  2  2  2  2  2
           useylm           1
              wtk        0.50000    0.50000
           xangst      7.1580072997E+00  5.1319300634E+00  7.5469617526E+00
                       1.4903445249E+00  1.0685018263E+00  1.6419686303E+00
                       5.1392311816E+00  3.6845694478E+00  5.0773391958E+00
                       3.5091206429E+00  2.5158624418E+00  4.1115911871E+00
                       4.6274811091E+00  1.1189919431E+00  2.8523914089E+00
                       6.1032012711E+00  2.1770088391E+00  6.3365389740E+00
                       4.0208707154E+00  5.0814399465E+00  6.3365389740E+00
                       2.5451505535E+00  4.0234230506E+00  2.8523914089E+00
            xcart      1.3526673454E+01  9.6979423530E+00  1.4261690848E+01
                       2.8163429957E+00  2.0191758241E+00  3.1028710301E+00
                       9.7117394669E+00  6.9628271740E+00  9.5947805637E+00
                       6.6312769824E+00  4.7542910031E+00  7.7697813141E+00
                       8.7446719814E+00  2.1145883174E+00  5.3902385865E+00
                       1.1533378936E+01  4.1139504947E+00  1.1974323291E+01
                       7.5983444679E+00  9.6025298597E+00  1.1974323291E+01
                       4.8096375131E+00  7.6031676824E+00  5.3902385865E+00
             xred      8.2767300000E-01  8.2767300000E-01  8.1528500000E-01
                       1.7232700000E-01  1.7232700000E-01  1.8471500000E-01
                       5.9424400000E-01  5.9424400000E-01  5.1306800000E-01
                       4.0575600000E-01  4.0575600000E-01  4.8693200000E-01
                       6.4889400000E-01  1.8047000000E-01  2.1168400000E-01
                       8.1953000000E-01  3.5110600000E-01  7.8831600000E-01
                       3.5110600000E-01  8.1953000000E-01  7.8831600000E-01
                       1.8047000000E-01  6.4889400000E-01  2.1168400000E-01
            znucl       56.00000   15.00000

- Timing analysis has been suppressed with timopt=0

 Suggested references for the acknowledgment of ABINIT usage.

 Calculation completed.
.Delivered  15 WARNINGs and   9 COMMENTs to log file.