.Version 9.5.1 of ABINIT

 ABINIT is a project of the Universite Catholique de Louvain,
 Corning Inc. and other collaborators, see ~abinit/doc/developers/contributors.txt .
 acknowledgments of the ABINIT effort.

.Starting date : Wed 19 May 2021.
- ( at 01h20 )

- input  file    -> /scratch/users/j/a/jabreu/flow_simple_8atoms/flow/w408/t1/run.abi
- output file    -> /scratch/users/j/a/jabreu/flow_simple_8atoms/flow/w408/t1/run.abo
- root for input  files -> /scratch/users/j/a/jabreu/flow_simple_8atoms/flow/w408/t1/indata/in
- root for output files -> /scratch/users/j/a/jabreu/flow_simple_8atoms/flow/w408/t1/outdata/out

 Symmetries : space group Cm c m (# 63); Bravais oC (1-face-center ortho.)
     intxc =       0      iscf =       7    lmnmax =      25     lnmax =       7
     mgfft =      72  mpssoang =       4    mqgrid =    3294     natom =       8
  nloc_mem =       1    nspden =       1   nspinor =       1    nsppol =       1
      nsym =       8    n1xccc =    2501    ntypat =       3    occopt =       1
   xclevel =       2
-    mband =          61        mffmem =           1         mkmem =           2
-   mkqmem =           2        mk1mem =           2           mpw =       18863
      nfft =      373248          nkpt =           2
  Rough estimation (10% accuracy) of disk space for files :

------------- Echo of variables that govern the present computation ------------
-
- outvars: echo of selected default values
-   iomode0 =  0 , fftalg0 =512 , wfoptalg0 =  0
-
- outvars: echo of global parameters not present in the input file
-  max_nthreads =    0
-
 -outvars: echo values of preprocessed input variables --------
            acell      1.0000000000E+00  1.0000000000E+00  1.0000000000E+00 Bohr
              amu      2.29897680E+01  1.21753000E+02  1.96966540E+02
             ecut      4.40000000E+01 Hartree
-          fftalg         512
           irdden           1
           irdwfk           1
           istwfk        0    1
              ixc     -116133
              kpt      2.56058743E-01  2.56058743E-01  0.00000000E+00
                       0.00000000E+00  0.00000000E+00  0.00000000E+00
           kptopt           0
P           mkmem           2
P          mkqmem           2
P          mk1mem           2
            natom           8
            nband          61
           nbdbuf           4
            ngfft          72      72      72
             nkpt           2
            nstep        2000
             nsym           8
           ntypat           3
              occ      2.000000  2.000000  2.000000  2.000000  2.000000  2.000000
                       2.000000  2.000000  2.000000  2.000000  2.000000  2.000000
                       2.000000  2.000000  2.000000  2.000000  2.000000  2.000000
                       2.000000  2.000000  2.000000  2.000000  2.000000  2.000000
                       2.000000  2.000000  2.000000  2.000000  2.000000  2.000000
                       2.000000  2.000000  2.000000  2.000000  2.000000  2.000000
                       2.000000  2.000000  2.000000  2.000000  2.000000  2.000000
                       2.000000  2.000000  2.000000  2.000000  2.000000  2.000000
                       2.000000  2.000000  2.000000  2.000000  0.000000  0.000000
                       0.000000  0.000000  0.000000  0.000000  0.000000  0.000000
                       0.000000
        optdriver           1
            prtwf          -1
            rfdir           1       1       1
           rfelfd           2
            rprim      1.1278768033E+01  0.0000000000E+00  0.0000000000E+00
                      -2.3550068071E+00  1.1030165514E+01  0.0000000000E+00
                       0.0000000000E+00  0.0000000000E+00  1.0856841927E+01
          spgroup          63
           symrel      1  0  0   0  1  0   0  0  1      -1  0  0   0 -1  0   0  0 -1
                       0 -1  0  -1  0  0   0  0 -1       0  1  0   1  0  0   0  0  1
                      -1  0  0   0 -1  0   0  0  1       1  0  0   0  1  0   0  0 -1
                       0  1  0   1  0  0   0  0 -1       0 -1  0  -1  0  0   0  0  1
            tnons      0.0000000  0.0000000  0.0000000    -0.0000000 -0.0000000  0.0000000
                      -0.0000000 -0.0000000  0.0000000     0.0000000  0.0000000  0.0000000
                      -0.0000000 -0.0000000  0.5000000     0.0000000  0.0000000  0.5000000
                       0.0000000  0.0000000  0.5000000    -0.0000000 -0.0000000  0.5000000
           tolwfr      1.00000000E-20
            typat      1  1  1  1  2  2  3  3
           useylm           1
              wtk        0.50000    0.50000
           xangst      3.8928159613E+00  8.1810161356E-02  4.3088949787E+00
                       8.2943509420E-01  5.7551020358E+00  1.4362983262E+00
                      -7.3281305575E-01  3.8240938844E+00  4.3088949787E+00
                       5.4550641113E+00  2.0128183128E+00  1.4362983262E+00
                       3.7777300107E+00  4.6694422041E+00  1.4362983262E+00
                       9.4452104487E-01  1.1674699931E+00  4.3088949787E+00
                       2.3611255278E+00  2.9184560986E+00  0.0000000000E+00
                       2.3611255278E+00  2.9184560986E+00  2.8725966524E+00
            xcart      7.3563560527E+00  1.5459879985E-01  8.1426314450E+00
                       1.5674051730E+00  1.0875566715E+01  2.7142104817E+00
                      -1.3848159820E+00  7.2264901479E+00  8.1426314450E+00
                       1.0308577208E+01  3.8036753665E+00  2.7142104817E+00
                       7.1388751241E+00  8.8239669590E+00  2.7142104817E+00
                       1.7848861016E+00  2.2061985554E+00  8.1426314450E+00
                       4.4618806128E+00  5.5150827572E+00  0.0000000000E+00
                       4.4618806128E+00  5.5150827572E+00  5.4284209633E+00
             xred      6.5515700000E-01  1.4016000000E-02  7.5000000000E-01
                       3.4484300000E-01  9.8598400000E-01  2.5000000000E-01
                       1.4016000000E-02  6.5515700000E-01  7.5000000000E-01
                       9.8598400000E-01  3.4484300000E-01  2.5000000000E-01
                       7.9998500000E-01  7.9998500000E-01  2.5000000000E-01
                       2.0001500000E-01  2.0001500000E-01  7.5000000000E-01
                       5.0000000000E-01  5.0000000000E-01  0.0000000000E+00
                       5.0000000000E-01  5.0000000000E-01  5.0000000000E-01
            znucl       11.00000   51.00000   79.00000

 chkinp: Checking input parameters for consistency.

== DATASET  1 ==================================================================
-   mpi_nproc: 1, omp_nthreads: -1 (-1 if OMP is not activated)

--- !DatasetInfo
iteration_state: {dtset: 1, }
dimensions: {natom: 8, nkpt: 2, mband: 61, nsppol: 1, nspinor: 1, nspden: 1, mpw: 18863, }
cutoff_energies: {ecut:  44.0, pawecutdg:  -1.0, }
electrons: {nelect:   1.04000000E+02, charge:   0.00000000E+00, occopt:   1.00000000E+00, tsmear:   1.00000000E-02, }
meta: {optdriver: 1, rfelfd: 2, }
...

 Real(R)+Recip(G) space primitive vectors, cartesian coordinates (Bohr,Bohr^-1):
 R(1)= 11.2787680  0.0000000  0.0000000  G(1)=  0.0886622  0.0189299  0.0000000
 R(2)= -2.3550068 11.0301655  0.0000000  G(2)=  0.0000000  0.0906605  0.0000000
 R(3)=  0.0000000  0.0000000 10.8568419  G(3)=  0.0000000  0.0000000  0.0921078
 Unit cell volume ucvol=  1.3506636E+03 bohr^3
 Angles (23,13,12)=  9.00000000E+01  9.00000000E+01  1.02052039E+02 degrees

 getcut: wavevector=  0.0000  0.0000  0.0000  ngfft=  72  72  72
         ecut(hartree)=     44.000   => boxcut(ratio)=   2.13806

--- Pseudopotential description ------------------------------------------------
- pspini: atom type   1  psp file is /scratch/users/j/a/jabreu/pseudos/PBEsol/Na.psp8
- pspatm: opening atomic psp file    /scratch/users/j/a/jabreu/pseudos/PBEsol/Na.psp8
- Na    ONCVPSP-3.3.0  r_core=   1.20708   1.55069
- 11.00000   9.00000    180112                znucl, zion, pspdat
    8 -116133    1    4       400   0.00000   pspcod,pspxc,lmax,lloc,mmax,r2well
    3.99000000000000    0.00000000000000    0.00000000000000   rchrg,fchrg,qchrg
     nproj     2     2
     extension_switch     1
  pspatm : epsatm=    9.32878306
         --- l  ekb(1:nproj) -->
             0    2.657905   -0.678300
             1   -6.761319   -2.404728
 pspatm: atomic psp has been read  and splines computed

- pspini: atom type   2  psp file is /scratch/users/j/a/jabreu/pseudos/PBEsol/Sb.psp8
- pspatm: opening atomic psp file    /scratch/users/j/a/jabreu/pseudos/PBEsol/Sb.psp8
- Sb    ONCVPSP-3.3.0  r_core=   1.81962   2.12485   1.81962
- 51.00000  15.00000    180112                znucl, zion, pspdat
    8 -116133    2    4       600   0.00000   pspcod,pspxc,lmax,lloc,mmax,r2well
    5.99000000000000    5.00000000000000    0.00000000000000   rchrg,fchrg,qchrg
     nproj     2     2     2
     extension_switch     1
  pspatm : epsatm=   26.35641246
         --- l  ekb(1:nproj) -->
             0    9.727814    1.485032
             1    5.505335    0.704623
             2   -4.710637   -1.436443
 pspatm: atomic psp has been read  and splines computed

- pspini: atom type   3  psp file is /scratch/users/j/a/jabreu/pseudos/PBEsol/Au.psp8
- pspatm: opening atomic psp file    /scratch/users/j/a/jabreu/pseudos/PBEsol/Au.psp8
- Au    ONCVPSP-3.3.0  r_core=   1.45604   1.56407   1.56407   1.60183
- 79.00000  19.00000    180112                znucl, zion, pspdat
    8 -116133    3    4       500   0.00000   pspcod,pspxc,lmax,lloc,mmax,r2well
    4.99000000000000    5.00000000000000    0.00000000000000   rchrg,fchrg,qchrg
     nproj     2     2     2     1
     extension_switch     1
  pspatm : epsatm=   32.21965837
         --- l  ekb(1:nproj) -->
             0    9.413866   -0.196587
             1    2.474292   -1.517497
             2    1.503483    0.298081
             3    1.177996
 pspatm: atomic psp has been read  and splines computed

   1.60645965E+04                                ecore*ucvol(ha*bohr**3)

-inwffil : will read wavefunctions from disk file /scratch/users/j/a/jabreu/flow_simple_8atoms/flow/w408/t1/indata/in_WFK

 ==>  initialize data related to q vector <==

 The list of irreducible perturbations for this q vector is:
    1)    idir= 1    ipert=   9
    2)    idir= 2    ipert=   9
    3)    idir= 3    ipert=   9

 Perturbation wavevector (in red.coord.)   0.000000  0.000000  0.000000
 Perturbation : derivative vs k along direction   1

 dfpt_looppert : COMMENT -
  In a d/dk calculation, iscf is set to -3 automatically.
 The set of symmetries contains only one element for this perturbation.
 symkpt : not enough symmetry to change the number of k points.

[...]

 Initialisation of the first-order wave-functions :
  ireadwf=   0

--- !BeginCycle
iteration_state: {dtset: 1, }
solver: {iscf: 7, nstep: 2000, nline: 4, wfoptalg: 0, }
tolerances: {tolwfr: 1.00E-20, }
...

     iter   2DEtotal(Ha)        deltaE(Ha) residm    vres2
-ETOT  1  -50.279656130443     -5.028E+01 5.936E-02 0.000E+00
 ETOT  2  -50.328619697947     -4.896E-02 1.596E-03 0.000E+00
 ETOT  3  -50.329036281419     -4.166E-04 3.351E-05 0.000E+00
 ETOT  4  -50.329050546580     -1.427E-05 4.050E-06 0.000E+00
 ETOT  5  -50.329051136070     -5.895E-07 7.614E-08 0.000E+00
 ETOT  6  -50.329051163137     -2.707E-08 1.372E-08 0.000E+00
 ETOT  7  -50.329051164403     -1.267E-09 2.752E-10 0.000E+00
 ETOT  8  -50.329051164464     -6.006E-11 4.938E-11 0.000E+00
 ETOT  9  -50.329051164466     -2.856E-12 1.012E-12 0.000E+00
 ETOT 10  -50.329051164466     -1.137E-13 1.838E-13 0.000E+00
 ETOT 11  -50.329051164467     -2.842E-14 3.768E-15 0.000E+00
 ETOT 12  -50.329051164467     -1.421E-14 6.932E-16 0.000E+00
 ETOT 13  -50.329051164467      0.000E+00 1.411E-17 0.000E+00
 ETOT 14  -50.329051164467      1.421E-14 2.635E-18 0.000E+00
 ETOT 15  -50.329051164467     -1.421E-14 5.328E-20 0.000E+00
 ETOT 16  -50.329051164467     -1.421E-14 1.006E-20 0.000E+00
 ETOT 17  -50.329051164467      3.553E-14 9.906E-21 0.000E+00

 At SCF step   17   max residual=  9.91E-21 < tolwfr=  1.00E-20 =>converged.

 ----iterations are completed or convergence reached----

 dfpt_looppert: DFPT cycle converged with prtwf=-1. Will skip output of the 1st-order WFK file.
 dfpt_looppert : ek2=    6.7493043582E+01
          f-sum rule ratio=    1.0644369181E+00
 prteigrs : about to open file /scratch/users/j/a/jabreu/flow_simple_8atoms/flow/w408/t1/tmpdata/tmp_1WF1_EIG
 Expectation of eigenvalue derivatives (hartree) for nkpt=   2  k points:
  (in case of degenerate eigenvalues, averaged derivative)
 kpt#   1, nband= 61, wtk=  0.50000, kpt=  0.2561  0.2561  0.0000 (reduced coord)
   0.00000   -0.00000   -0.00000   -0.00000   -0.00000   -0.00000   -0.00000    0.00000
   0.00004   -0.00004   -0.00001    0.00001   -0.00012    0.00001    0.00012   -0.00000
  -0.00001   -0.00001    0.00010   -0.00010   -0.00001    0.00001    0.00058   -0.00052
   0.00004   -0.00016    0.00023   -0.00062    0.00079   -0.00045   -0.00046    0.00042
   0.00009    0.00001    0.01615   -0.00941   -0.00373    0.00028    0.00669    0.00245
   0.00611    0.01202    0.00205   -0.04519    0.00788    0.00013    0.00004    0.02089
  -0.11767   -0.00368    0.06379    0.00273   -0.00839    0.13417   -0.09876    0.07038
   0.05153   -0.16454   -0.25817    0.21303    0.03644
 prteigrs : prtvol=0 or 1, do not print more k-points.

 Eight components of 2nd-order total energy (hartree) are
 1,2,3: 0th-order hamiltonian combined with 1st-order wavefunctions
     kin0=   6.24225362E+01 eigvalue=   6.81435302E+00  local=  -3.23761833E+01
 4,5,6: 1st-order hamiltonian combined with 1st and 0th-order wfs
     kin1=  -7.18420873E+01  Hartree=   0.00000000E+00     xc=   0.00000000E+00
 7,8,9: eventually, occupation + non-local contributions
    edocc=   8.12898407E+00     enl0=   5.33936111E+00   enl1=  -2.88160150E+01
 1-9 gives the relaxation energy (to be shifted if some occ is /=2.0)
   erelax=  -5.03290512E+01
  No Ewald or frozen-wf contrib.: the relaxation energy is the total one
 2DEtotal=   -0.5032905116E+02 Ha. Also 2DEtotal=   -0.136952313055E+04 eV
    (  non-var. 2DEtotal :   -5.0329051164E+01 Ha)

 Perturbation wavevector (in red.coord.)   0.000000  0.000000  0.000000
 Perturbation : derivative vs k along direction   2
 The set of symmetries contains only one element for this perturbation.
 symkpt : not enough symmetry to change the number of k points.

[...]

 Perturbation wavevector (in red.coord.)   0.000000  0.000000  0.000000
 Perturbation : derivative vs k along direction   3
 The set of symmetries contains only one element for this perturbation.
 symkpt : not enough symmetry to change the number of k points.

-inwffil : will read wavefunctions from disk file /scratch/users/j/a/jabreu/flow_simple_8atoms/flow/w408/t1/indata/in_WFK

 Initialisation of the first-order wave-functions :
  ireadwf=   0

--- !BeginCycle
iteration_state: {dtset: 1, }
solver: {iscf: 7, nstep: 2000, nline: 4, wfoptalg: 0, }
tolerances: {tolwfr: 1.00E-20, }
...

     iter   2DEtotal(Ha)        deltaE(Ha) residm    vres2
-ETOT  1  -60.752087207426     -6.075E+01 1.830E-01 0.000E+00
 ETOT  2  -60.799521520186     -4.743E-02 7.435E-04 0.000E+00
 ETOT  3  -60.799765765645     -2.442E-04 1.308E-04 0.000E+00
 ETOT  4  -60.799769778817     -4.013E-06 5.950E-07 0.000E+00
 ETOT  5  -60.799769871631     -9.281E-08 1.554E-07 0.000E+00
 ETOT  6  -60.799769874455     -2.825E-09 9.329E-10 0.000E+00
 ETOT  7  -60.799769874556     -1.004E-10 2.700E-10 0.000E+00
 ETOT  8  -60.799769874560     -4.015E-12 2.689E-12 0.000E+00
 ETOT  9  -60.799769874560     -1.208E-13 7.229E-13 0.000E+00
 ETOT 10  -60.799769874560      0.000E+00 9.096E-15 0.000E+00
 ETOT 11  -60.799769874560      2.132E-14 2.503E-15 0.000E+00
 ETOT 12  -60.799769874560      2.132E-14 3.415E-17 0.000E+00
 ETOT 13  -60.799769874560     -8.527E-14 9.288E-18 0.000E+00
 ETOT 14  -60.799769874560      2.842E-14 1.299E-19 0.000E+00
 ETOT 15  -60.799769874560      2.842E-14 3.508E-20 0.000E+00
 ETOT 16  -60.799769874560     -1.421E-14 9.972E-21 0.000E+00

 At SCF step   16   max residual=  9.97E-21 < tolwfr=  1.00E-20 =>converged.

 ----iterations are completed or convergence reached----

 dfpt_looppert: DFPT cycle converged with prtwf=-1. Will skip output of the 1st-order WFK file.
 dfpt_looppert : ek2=    6.9665224727E+01
          f-sum rule ratio=    1.3085166744E+00
 prteigrs : about to open file /scratch/users/j/a/jabreu/flow_simple_8atoms/flow/w408/t1/tmpdata/tmp_1WF1_EIG
 Expectation of eigenvalue derivatives (hartree) for nkpt=   2  k points:
  (in case of degenerate eigenvalues, averaged derivative)
 kpt#   1, nband= 61, wtk=  0.50000, kpt=  0.2561  0.2561  0.0000 (reduced coord)
  -0.00000   -0.00000    0.00000    0.00000    0.00000    0.00000    0.00000   -0.00000
  -0.00000    0.00000    0.00000    0.00000   -0.00000   -0.00000    0.00000    0.00000
   0.00000    0.00000    0.00000    0.00000   -0.00000   -0.00000   -0.00000    0.00000
   0.00000   -0.00000    0.00000   -0.00000   -0.00000    0.00000    0.00000    0.00000
   0.00000    0.00000    0.00000    0.00000   -0.00000   -0.00000   -0.00000   -0.00000
  -0.00000    0.00000   -0.00000   -0.00000    0.00000    0.00000    0.00000   -0.00000
   0.00000   -0.00000   -0.00000    0.00000   -0.00000   -0.00000    0.00000   -0.00000
  -0.00000    0.00000    0.00002    0.06678    0.02674
 prteigrs : prtvol=0 or 1, do not print more k-points.

 Eight components of 2nd-order total energy (hartree) are
 1,2,3: 0th-order hamiltonian combined with 1st-order wavefunctions
     kin0=   6.57417680E+01 eigvalue=   6.70910470E+00  local=  -3.39283981E+01
 4,5,6: 1st-order hamiltonian combined with 1st and 0th-order wfs
     kin1=  -9.11581082E+01  Hartree=   0.00000000E+00     xc=   0.00000000E+00
 7,8,9: eventually, occupation + non-local contributions
    edocc=   1.68103567E+01     enl0=   5.46693861E+00   enl1=  -3.04414316E+01
 1-9 gives the relaxation energy (to be shifted if some occ is /=2.0)
   erelax=  -6.07997699E+01
  No Ewald or frozen-wf contrib.: the relaxation energy is the total one
 2DEtotal=   -0.6079976987E+02 Ha. Also 2DEtotal=   -0.165444587666E+04 eV
    (  non-var. 2DEtotal :   -6.0799769875E+01 Ha)

 CALCULATION OF EFFECTIVE MASSES
 NOTE : Additional infos (eff. mass eigenvalues, eigenvectors and, if degenerate, average mass) are available in stdout.

 K-point ( 0.256, 0.256, 0.000) | band =    52
 Effective mass tensor:
             -3.3733298521              1.8139569248              0.0000120111
              1.8139569248             -2.5991759224              0.0000152017
              0.0000120111              0.0000152017             -0.0599936847
 Effective mass tensor eigenvalues:
             -4.8410489143             -1.1314568606             -0.0599936843
 Angular average effective mass 1/(<1/m>)=  -0.1689302922
 Angular average effective mass for Frohlich model (<m**0.5>)**2=  -0.3724367580
 Effective masses along directions: (cart. coord. / red. coord. -> eff. mass)
    1:   1.000000  0.000000  0.000000 /   0.978889 -0.204392  0.000000 ->  -2.1073748550
    2:   0.000000  1.000000  0.000000 /   0.000000  1.000000  0.000000 ->  -1.6237481120
    3:   0.000000  0.000000  1.000000 /   0.000000  0.000000  1.000000 ->  -0.0599936843
    4:   0.577350  0.577350  0.577350 /   0.630168  0.484699  0.606594 ->  -0.1628492577
    5:   0.000000  0.707107  0.707107 /   0.000000  0.712684  0.701485 ->  -0.1157091017
    6:   0.707107  0.000000  0.707107 /   0.712438 -0.148757  0.685787 ->  -0.1166636320
    7:   0.707107  0.707107  0.000000 /   0.792652  0.609675  0.000000 ->  -1.1410830337

 K-point ( 0.000, 0.000, 0.000) | band =    53
 Effective mass tensor:
              1.1590692238              0.8504554766             -0.0000001796
              0.8504554766              1.5222366754              0.0000001454
             -0.0000001796              0.0000001454              0.0903284607
 Effective mass tensor eigenvalues:
              0.0903284607              0.4710282218              2.2102776773
 Angular average effective mass 1/(<1/m>)=   0.2198421501
 Angular average effective mass for Frohlich model (<m**0.5>)**2=   0.3296770023
 Effective masses along directions: (cart. coord. / red. coord. -> eff. mass)
    1:   1.000000  0.000000  0.000000 /   0.978889 -0.204392  0.000000 ->   0.6839298914
    2:   0.000000  1.000000  0.000000 /   0.000000  1.000000  0.000000 ->   0.8982234562
    3:   0.000000  0.000000  1.000000 /   0.000000  0.000000  1.000000 ->   0.0903284607
    4:   0.577350  0.577350  0.577350 /   0.630168  0.484699  0.606594 ->   0.2497419740
    5:   0.000000  0.707107  0.707107 /   0.000000  0.712684  0.701485 ->   0.1641495732
    6:   0.707107  0.000000  0.707107 /   0.712438 -0.148757  0.685787 ->   0.1595805651
    7:   0.707107  0.707107  0.000000 /   0.792652  0.609675  0.000000 ->   2.1238444126

 END OF EFFECTIVE MASSES SECTION

 ---- first-order wavefunction calculations are completed ----

 Total localisation tensor (bohr^2) in cartesian coordinates
  WARNING : still subject to testing - especially symmetries.
      direction              matrix element
   alpha     beta       real part   imaginary part
     1        1       1.8382357993    0.0000000000
     1        2      -0.3596734569    0.0000000000
     1        3       0.0000000000    0.0000000000
     2        1      -0.3596734569    0.0000000000
     2        2       1.6846056446    0.0000000000
     2        3       0.0000000000    0.0000000000
     3        1       0.0000000000    0.0000000000
     3        2       0.0000000000    0.0000000000
     3        3       5.8058085917    0.0000000000

 respfn : d/dk was computed, but no 2DTE, so no DDB output.

== END DATASET(S) ==============================================================

 -outvars: echo values of variables after computation  --------
            acell      1.0000000000E+00  1.0000000000E+00  1.0000000000E+00 Bohr
              amu      2.29897680E+01  1.21753000E+02  1.96966540E+02
             ecut      4.40000000E+01 Hartree
           etotal     -6.0799769875E+01
            fcart      0.0000000000E+00  0.0000000000E+00  0.0000000000E+00
                       0.0000000000E+00  0.0000000000E+00  0.0000000000E+00
                       0.0000000000E+00  0.0000000000E+00  0.0000000000E+00
                       0.0000000000E+00  0.0000000000E+00  0.0000000000E+00
                       0.0000000000E+00  0.0000000000E+00  0.0000000000E+00
                       0.0000000000E+00  0.0000000000E+00  0.0000000000E+00
                       0.0000000000E+00  0.0000000000E+00  0.0000000000E+00
                       0.0000000000E+00  0.0000000000E+00  0.0000000000E+00
-          fftalg         512
           irdden           1
           irdwfk           1
           istwfk        0    1
              ixc     -116133
              kpt      2.56058743E-01  2.56058743E-01  0.00000000E+00
                       0.00000000E+00  0.00000000E+00  0.00000000E+00
           kptopt           0
P           mkmem           2
P          mkqmem           2
P          mk1mem           2
            natom           8
            nband          61
           nbdbuf           4
            ngfft          72      72      72
             nkpt           2
            nstep        2000
             nsym           8
           ntypat           3
              occ      2.000000  2.000000  2.000000  2.000000  2.000000  2.000000
                       2.000000  2.000000  2.000000  2.000000  2.000000  2.000000
                       2.000000  2.000000  2.000000  2.000000  2.000000  2.000000
                       2.000000  2.000000  2.000000  2.000000  2.000000  2.000000
                       2.000000  2.000000  2.000000  2.000000  2.000000  2.000000
                       2.000000  2.000000  2.000000  2.000000  2.000000  2.000000
                       2.000000  2.000000  2.000000  2.000000  2.000000  2.000000
                       2.000000  2.000000  2.000000  2.000000  2.000000  2.000000
                       2.000000  2.000000  2.000000  2.000000  0.000000  0.000000
                       0.000000  0.000000  0.000000  0.000000  0.000000  0.000000
                       0.000000
        optdriver           1
            prtwf          -1
            rfdir           1       1       1
           rfelfd           2
            rprim      1.1278768033E+01  0.0000000000E+00  0.0000000000E+00
                      -2.3550068071E+00  1.1030165514E+01  0.0000000000E+00
                       0.0000000000E+00  0.0000000000E+00  1.0856841927E+01
          spgroup          63
           strten      0.0000000000E+00  0.0000000000E+00  0.0000000000E+00
                       0.0000000000E+00  0.0000000000E+00  0.0000000000E+00
           symrel      1  0  0   0  1  0   0  0  1      -1  0  0   0 -1  0   0  0 -1
                       0 -1  0  -1  0  0   0  0 -1       0  1  0   1  0  0   0  0  1
                      -1  0  0   0 -1  0   0  0  1       1  0  0   0  1  0   0  0 -1
                       0  1  0   1  0  0   0  0 -1       0 -1  0  -1  0  0   0  0  1
            tnons      0.0000000  0.0000000  0.0000000    -0.0000000 -0.0000000  0.0000000
                      -0.0000000 -0.0000000  0.0000000     0.0000000  0.0000000  0.0000000
                      -0.0000000 -0.0000000  0.5000000     0.0000000  0.0000000  0.5000000
                       0.0000000  0.0000000  0.5000000    -0.0000000 -0.0000000  0.5000000
           tolwfr      1.00000000E-20
            typat      1  1  1  1  2  2  3  3
           useylm           1
              wtk        0.50000    0.50000
           xangst      3.8928159613E+00  8.1810161356E-02  4.3088949787E+00
                       8.2943509420E-01  5.7551020358E+00  1.4362983262E+00
                      -7.3281305575E-01  3.8240938844E+00  4.3088949787E+00
                       5.4550641113E+00  2.0128183128E+00  1.4362983262E+00
                       3.7777300107E+00  4.6694422041E+00  1.4362983262E+00
                       9.4452104487E-01  1.1674699931E+00  4.3088949787E+00
                       2.3611255278E+00  2.9184560986E+00  0.0000000000E+00
                       2.3611255278E+00  2.9184560986E+00  2.8725966524E+00
            xcart      7.3563560527E+00  1.5459879985E-01  8.1426314450E+00
                       1.5674051730E+00  1.0875566715E+01  2.7142104817E+00
                      -1.3848159820E+00  7.2264901479E+00  8.1426314450E+00
                       1.0308577208E+01  3.8036753665E+00  2.7142104817E+00
                       7.1388751241E+00  8.8239669590E+00  2.7142104817E+00
                       1.7848861016E+00  2.2061985554E+00  8.1426314450E+00
                       4.4618806128E+00  5.5150827572E+00  0.0000000000E+00
                       4.4618806128E+00  5.5150827572E+00  5.4284209633E+00
             xred      6.5515700000E-01  1.4016000000E-02  7.5000000000E-01
                       3.4484300000E-01  9.8598400000E-01  2.5000000000E-01
                       1.4016000000E-02  6.5515700000E-01  7.5000000000E-01
                       9.8598400000E-01  3.4484300000E-01  2.5000000000E-01
                       7.9998500000E-01  7.9998500000E-01  2.5000000000E-01
                       2.0001500000E-01  2.0001500000E-01  7.5000000000E-01
                       5.0000000000E-01  5.0000000000E-01  0.0000000000E+00
                       5.0000000000E-01  5.0000000000E-01  5.0000000000E-01
            znucl       11.00000   51.00000   79.00000

- Timing analysis has been suppressed with timopt=0

 Suggested references for the acknowledgment of ABINIT usage.

 Calculation completed.
.Delivered  14 WARNINGs and   9 COMMENTs to log file.