.Version 9.5.1 of ABINIT

 ABINIT is a project of the Universite Catholique de Louvain,
 Corning Inc. and other collaborators, see ~abinit/doc/developers/contributors.txt .
 acknowledgments of the ABINIT effort.

.Starting date : Tue 11 May 2021.
- ( at 21h38 )

- input  file    -> /scratch/users/j/a/jabreu/flow_simple_8atoms/flow/w338/t1/run.abi
- output file    -> /scratch/users/j/a/jabreu/flow_simple_8atoms/flow/w338/t1/run.abo
- root for input  files -> /scratch/users/j/a/jabreu/flow_simple_8atoms/flow/w338/t1/indata/in
- root for output files -> /scratch/users/j/a/jabreu/flow_simple_8atoms/flow/w338/t1/outdata/out

 Symmetries : space group I-4 2 d (#122); Bravais tI (body-center tetrag.)
     intxc =       0      iscf =       7    lmnmax =      18     lnmax =       6
     mgfft =      60  mpssoang =       3    mqgrid =    3001     natom =       8
  nloc_mem =       1    nspden =       1   nspinor =       1    nsppol =       1
      nsym =       8    n1xccc =    2501    ntypat =       3    occopt =       1
   xclevel =       2
-    mband =          43        mffmem =           1         mkmem =           1
-   mkqmem =           1        mk1mem =           1           mpw =        9199
      nfft =      216000          nkpt =           1
  Rough estimation (10% accuracy) of disk space for files :

------------- Echo of variables that govern the present computation ------------
-
- outvars: echo of selected default values
-   iomode0 =  0 , fftalg0 =512 , wfoptalg0 =  0
-
- outvars: echo of global parameters not present in the input file
-  max_nthreads =    0
-
 -outvars: echo values of preprocessed input variables --------
            acell      1.0000000000E+00  1.0000000000E+00  1.0000000000E+00 Bohr
              amu      4.00780000E+01  7.26100000E+01  1.40067400E+01
             ecut      4.20000000E+01 Hartree
-          fftalg         512
           irdden           1
           irdwfk           1
           istwfk        1
              ixc     -116133
           kptopt           0
P           mkmem           1
P          mkqmem           1
P          mk1mem           1
            natom           8
            nband          43
           nbdbuf           4
            ngfft          60      60      60
             nkpt           1
            nstep        2000
             nsym           8
           ntypat           3
              occ      2.000000  2.000000  2.000000  2.000000  2.000000  2.000000
                       2.000000  2.000000  2.000000  2.000000  2.000000  2.000000
                       2.000000  2.000000  2.000000  2.000000  2.000000  2.000000
                       2.000000  2.000000  2.000000  2.000000  2.000000  2.000000
                       2.000000  2.000000  2.000000  2.000000  2.000000  2.000000
                       2.000000  2.000000  2.000000  2.000000  0.000000  0.000000
                       0.000000  0.000000  0.000000  0.000000  0.000000  0.000000
                       0.000000
        optdriver           1
            prtwf          -1
            rfdir           1       1       1
           rfelfd           2
            rprim      8.7490903905E+00  0.0000000000E+00 -4.5649504402E+00
                      -3.2148024132E+00  8.1370527899E+00 -4.5649504402E+00
                       0.0000000000E+00  0.0000000000E+00  9.8684018556E+00
          spgroup         122
           symrel      1  0  0   0  1  0   0  0  1      -1 -1 -1   0  0  1   0  1  0
                       0  1  0   1  0  0  -1 -1 -1       0  0  1  -1 -1 -1   1  0  0
                       0  1  0   1  0  0   0  0  1      -1 -1 -1   0  0  1   1  0  0
                       1  0  0   0  1  0  -1 -1 -1       0  0  1  -1 -1 -1   0  1  0
            tnons      0.0000000  0.0000000  0.0000000    -0.2500000  0.2500000  0.5000000
                      -0.0000000 -0.0000000 -0.0000000    -0.2500000  0.2500000  0.5000000
                      -0.2500000  0.2500000  0.5000000     0.0000000 -0.0000000 -0.0000000
                      -0.2500000  0.2500000  0.5000000    -0.0000000  0.0000000 -0.0000000
           tolwfr      1.00000000E-20
            typat      1  1  2  2  3  3  3  3
           useylm           1
           xangst      1.4643095317E+00  2.1529714408E+00 -2.4156677313E+00
                      -1.1844531775E-01  3.2294571611E+00  1.9539894230E-01
                       3.0470643811E+00  1.0764857204E+00  1.9539894230E-01
                       0.0000000000E+00  0.0000000000E+00  0.0000000000E+00
                       1.2278721075E+00  1.2865942033E+00  5.8544916286E-01
                      -8.3733807514E-01  2.6912143009E+00  3.1965158365E+00
                       2.4329017217E+00  4.0958343986E+00 -1.4024851439E+00
                       3.0338023727E+00  5.3824286019E-01 -1.5978840862E+00
            xcart      2.7671439886E+00  4.0685263949E+00 -4.5649504402E+00
                      -2.2382921228E-01  6.1027895924E+00  3.6925048760E-01
                       5.7581171896E+00  2.0342631975E+00  3.6925048760E-01
                       0.0000000000E+00  0.0000000000E+00  0.0000000000E+00
                       2.3203420094E+00  2.4313106884E+00  1.1063385825E+00
                      -1.5823396426E+00  5.0856579937E+00  6.0405395103E+00
                       4.5975179622E+00  7.7400052990E+00 -2.6503128274E+00
                       5.7330556256E+00  1.0171315987E+00 -3.0195633150E+00
             xred      5.0000000000E-01  5.0000000000E-01 -8.3266726847E-17
                       2.5000000000E-01  7.5000000000E-01  5.0000000000E-01
                       7.5000000000E-01  2.5000000000E-01  5.0000000000E-01
                       0.0000000000E+00  0.0000000000E+00  0.0000000000E+00
                       3.7500000000E-01  2.9879500000E-01  4.2379500000E-01
                       4.8795000000E-02  6.2500000000E-01  9.2379500000E-01
                       8.7500000000E-01  9.5120500000E-01  5.7620500000E-01
                       7.0120500000E-01  1.2500000000E-01  7.6205000000E-02
            znucl       20.00000   32.00000    7.00000

 chkinp: Checking input parameters for consistency.

== DATASET  1 ==================================================================
-   mpi_nproc: 1, omp_nthreads: -1 (-1 if OMP is not activated)

--- !DatasetInfo
iteration_state: {dtset: 1, }
dimensions: {natom: 8, nkpt: 1, mband: 43, nsppol: 1, nspinor: 1, nspden: 1, mpw: 9199, }
cutoff_energies: {ecut:  42.0, pawecutdg:  -1.0, }
electrons: {nelect:   6.80000000E+01, charge:   0.00000000E+00, occopt:   1.00000000E+00, tsmear:   1.00000000E-02, }
meta: {optdriver: 1, rfelfd: 2, }
...

 Real(R)+Recip(G) space primitive vectors, cartesian coordinates (Bohr,Bohr^-1):
 R(1)=  8.7490904  0.0000000 -4.5649504  G(1)=  0.1142976  0.0451569  0.0000000
 R(2)= -3.2148024  8.1370528 -4.5649504  G(2)=  0.0000000  0.1228946  0.0000000
 R(3)=  0.0000000  0.0000000  9.8684019  G(3)=  0.0528721  0.0777377  0.1013335
 Unit cell volume ucvol=  7.0254939E+02 bohr^3
 Angles (23,13,12)=  1.17553880E+02  1.17553880E+02  9.42917367E+01 degrees

 getcut: wavevector=  0.0000  0.0000  0.0000  ngfft=  60  60  60
         ecut(hartree)=     42.000   => boxcut(ratio)=   2.08415

--- Pseudopotential description ------------------------------------------------
- pspini: atom type   1  psp file is /scratch/users/j/a/jabreu/pseudos/PBEsol/Ca.psp8
- pspatm: opening atomic psp file    /scratch/users/j/a/jabreu/pseudos/PBEsol/Ca.psp8
- Ca    ONCVPSP-3.3.0  r_core=   1.45885   1.45885   1.85192
- 20.00000  10.00000    180112                znucl, zion, pspdat
    8 -116133    2    4       400   0.00000   pspcod,pspxc,lmax,lloc,mmax,r2well
    3.99000000000000    6.00000000000000    0.00000000000000   rchrg,fchrg,qchrg
     nproj     2     2     2
     extension_switch     1
  pspatm : epsatm=   12.46045226
         --- l  ekb(1:nproj) -->
             0   10.054847    0.973777
             1    2.998958    0.458102
             2   -3.447298   -1.091650
 pspatm: atomic psp has been read  and splines computed

- pspini: atom type   2  psp file is /scratch/users/j/a/jabreu/pseudos/PBEsol/Ge.psp8
- pspatm: opening atomic psp file    /scratch/users/j/a/jabreu/pseudos/PBEsol/Ge.psp8
- Ge    ONCVPSP-3.3.0  r_core=   1.91022   1.82122   1.91022
- 32.00000  14.00000    180112                znucl, zion, pspdat
    8 -116133    2    4       600   0.00000   pspcod,pspxc,lmax,lloc,mmax,r2well
    5.99000000000000    5.00000000000000    0.00000000000000   rchrg,fchrg,qchrg
     nproj     2     2     2
     extension_switch     1
  pspatm : epsatm=   30.86751540
         --- l  ekb(1:nproj) -->
             0    6.339734    0.583066
             1    3.813259    0.738801
             2   -9.332373   -3.602819
 pspatm: atomic psp has been read  and splines computed

- pspini: atom type   3  psp file is /scratch/users/j/a/jabreu/pseudos/PBEsol/N.psp8
- pspatm: opening atomic psp file    /scratch/users/j/a/jabreu/pseudos/PBEsol/N.psp8
- N     ONCVPSP-3.3.0  r_core=   1.20551   1.35824
-  7.00000   5.00000    180112                znucl, zion, pspdat
    8 -116133    1    4       600   0.00000   pspcod,pspxc,lmax,lloc,mmax,r2well
    5.99000000000000    4.00000000000000    0.00000000000000   rchrg,fchrg,qchrg
     nproj     2     2
     extension_switch     1
  pspatm : epsatm=    5.26508895
         --- l  ekb(1:nproj) -->
             0    7.464189    0.625868
             1   -4.309714   -1.012941
 pspatm: atomic psp has been read  and splines computed

   7.32470780E+03                                ecore*ucvol(ha*bohr**3)

-inwffil : will read wavefunctions from disk file /scratch/users/j/a/jabreu/flow_simple_8atoms/flow/w338/t1/indata/in_WFK

 ==>  initialize data related to q vector <==

 The list of irreducible perturbations for this q vector is:
    1)    idir= 1    ipert=   9
    2)    idir= 2    ipert=   9
    3)    idir= 3    ipert=   9

 Perturbation wavevector (in red.coord.)   0.000000  0.000000  0.000000
 Perturbation : derivative vs k along direction   1

 dfpt_looppert : COMMENT -
  In a d/dk calculation, iscf is set to -3 automatically.
 The set of symmetries contains only one element for this perturbation.
 symkpt : not enough symmetry to change the number of k points.

[...]

 Initialisation of the first-order wave-functions :
  ireadwf=   0

--- !BeginCycle
iteration_state: {dtset: 1, }
solver: {iscf: 7, nstep: 2000, nline: 4, wfoptalg: 0, }
tolerances: {tolwfr: 1.00E-20, }
...

     iter   2DEtotal(Ha)        deltaE(Ha) residm    vres2
-ETOT  1  -67.835067295979     -6.784E+01 1.193E-01 0.000E+00
 ETOT  2  -68.046161420836     -2.111E-01 3.688E-02 0.000E+00
 ETOT  3  -68.054427249271     -8.266E-03 7.055E-03 0.000E+00
 ETOT  4  -68.054927985466     -5.007E-04 2.622E-03 0.000E+00
 ETOT  5  -68.054962030634     -3.405E-05 7.791E-04 0.000E+00
 ETOT  6  -68.054964500192     -2.470E-06 3.029E-04 0.000E+00
 ETOT  7  -68.054964684375     -1.842E-07 9.044E-05 0.000E+00
 ETOT  8  -68.054964698383     -1.401E-08 3.631E-05 0.000E+00
 ETOT  9  -68.054964699460     -1.077E-09 1.078E-05 0.000E+00
 ETOT 10  -68.054964699544     -8.342E-11 4.420E-06 0.000E+00
 ETOT 11  -68.054964699550     -6.509E-12 1.302E-06 0.000E+00
[...]
 ETOT 40  -68.054964699551      0.000E+00 1.029E-19 0.000E+00
 ETOT 41  -68.054964699551     -1.421E-14 2.954E-20 0.000E+00
 ETOT 42  -68.054964699551     -1.421E-14 1.274E-20 0.000E+00
 ETOT 43  -68.054964699551      0.000E+00 9.849E-21 0.000E+00

 At SCF step   43   max residual=  9.85E-21 < tolwfr=  1.00E-20 =>converged.

 ----iterations are completed or convergence reached----

 dfpt_looppert: DFPT cycle converged with prtwf=-1. Will skip output of the 1st-order WFK file.
 dfpt_looppert : ek2=    8.1089454343E+01
          f-sum rule ratio=    1.0583038574E+00
 prteigrs : about to open file /scratch/users/j/a/jabreu/flow_simple_8atoms/flow/w338/t1/tmpdata/tmp_1WF1_EIG
 Expectation of eigenvalue derivatives (hartree) for nkpt=   1  k points:
  (in case of degenerate eigenvalues, averaged derivative)
 kpt#   1, nband= 43, wtk=  1.00000, kpt=  0.0000  0.0000  0.0000 (reduced coord)
   0.00000   -0.00000   -0.00000   -0.00000   -0.00000    0.00000    0.00000   -0.00000
   0.00000   -0.00000    0.00000    0.00000   -0.00000   -0.00000   -0.00000    0.00000
  -0.00000   -0.00000    0.00000   -0.00000   -0.00000   -0.00000   -0.00000   -0.00000
  -0.00000    0.00000   -0.00000   -0.00000    0.00000   -0.00000   -0.00000   -0.00000
  -0.00000   -0.00000    0.00000    0.00000   -0.00000    0.00000    0.00000    0.00000
   0.00000    0.00001   -0.01445

 Eight components of 2nd-order total energy (hartree) are
 1,2,3: 0th-order hamiltonian combined with 1st-order wavefunctions
     kin0=   9.01640699E+01 eigvalue=   2.94845710E+00  local=  -3.82101566E+01
 4,5,6: 1st-order hamiltonian combined with 1st and 0th-order wfs
     kin1=  -8.58172823E+01  Hartree=   0.00000000E+00     xc=   0.00000000E+00
 7,8,9: eventually, occupation + non-local contributions
    edocc=   1.00394136E+01     enl0=   3.11318075E+00   enl1=  -5.02926471E+01
 1-9 gives the relaxation energy (to be shifted if some occ is /=2.0)
   erelax=  -6.80549647E+01
  No Ewald or frozen-wf contrib.: the relaxation energy is the total one
 2DEtotal=   -0.6805496470E+02 Ha. Also 2DEtotal=   -0.185186976802E+04 eV
    (  non-var. 2DEtotal :   -6.8054964699E+01 Ha)

 Perturbation wavevector (in red.coord.)   0.000000  0.000000  0.000000
 Perturbation : derivative vs k along direction   2
 The set of symmetries contains only one element for this perturbation.
 symkpt : not enough symmetry to change the number of k points.

[...]

 Perturbation wavevector (in red.coord.)   0.000000  0.000000  0.000000
 Perturbation : derivative vs k along direction   3
 The set of symmetries contains only one element for this perturbation.
 symkpt : not enough symmetry to change the number of k points.

-inwffil : will read wavefunctions from disk file /scratch/users/j/a/jabreu/flow_simple_8atoms/flow/w338/t1/indata/in_WFK

 Initialisation of the first-order wave-functions :
  ireadwf=   0

--- !BeginCycle
iteration_state: {dtset: 1, }
solver: {iscf: 7, nstep: 2000, nline: 4, wfoptalg: 0, }
tolerances: {tolwfr: 1.00E-20, }
...

     iter   2DEtotal(Ha)        deltaE(Ha) residm    vres2
-ETOT  1  -85.437970987778     -8.544E+01 1.919E-01 0.000E+00
 ETOT  2  -85.738106599129     -3.001E-01 6.094E-02 0.000E+00
 ETOT  3  -85.748808841732     -1.070E-02 7.914E-03 0.000E+00
 ETOT  4  -85.749381397648     -5.726E-04 3.447E-03 0.000E+00
 ETOT  5  -85.749415228095     -3.383E-05 8.934E-04 0.000E+00
 ETOT  6  -85.749417341101     -2.113E-06 2.961E-04 0.000E+00
 ETOT  7  -85.749417478185     -1.371E-07 1.081E-04 0.000E+00
 ETOT  8  -85.749417487354     -9.169E-09 3.260E-05 0.000E+00
 ETOT  9  -85.749417487984     -6.306E-10 1.343E-05 0.000E+00
 ETOT 10  -85.749417488029     -4.435E-11 4.161E-06 0.000E+00
 ETOT 11  -85.749417488032     -3.283E-12 1.701E-06 0.000E+00
 ETOT 12  -85.749417488032     -1.563E-13 5.486E-07 0.000E+00
 ETOT 13  -85.749417488032     -4.263E-14 2.234E-07 0.000E+00
 ETOT 14  -85.749417488032      0.000E+00 7.779E-08 0.000E+00
 ETOT 15  -85.749417488032      0.000E+00 3.071E-08 0.000E+00
 ETOT 16  -85.749417488032      2.842E-14 1.097E-08 0.000E+00
 ETOT 17  -85.749417488032     -2.842E-14 4.200E-09 0.000E+00
 ETOT 18  -85.749417488032      0.000E+00 1.507E-09 0.000E+00
 ETOT 19  -85.749417488032      4.263E-14 5.725E-10 0.000E+00
 ETOT 20  -85.749417488032     -1.421E-14 2.060E-10 0.000E+00
 ETOT 21  -85.749417488032      0.000E+00 7.806E-11 0.000E+00
 ETOT 22  -85.749417488032     -2.842E-14 2.814E-11 0.000E+00
 ETOT 23  -85.749417488032      4.263E-14 1.065E-11 0.000E+00
 ETOT 24  -85.749417488032     -2.842E-14 3.846E-12 0.000E+00
 ETOT 25  -85.749417488032      4.263E-14 1.454E-12 0.000E+00
 ETOT 26  -85.749417488032     -4.263E-14 5.258E-13 0.000E+00
 ETOT 27  -85.749417488032      2.842E-14 1.986E-13 0.000E+00
 ETOT 28  -85.749417488032     -4.263E-14 7.192E-14 0.000E+00
 ETOT 29  -85.749417488032      2.842E-14 2.715E-14 0.000E+00
 ETOT 30  -85.749417488032      0.000E+00 9.841E-15 0.000E+00
 ETOT 31  -85.749417488032      0.000E+00 3.712E-15 0.000E+00
 ETOT 32  -85.749417488032     -2.842E-14 1.347E-15 0.000E+00
 ETOT 33  -85.749417488032      0.000E+00 5.076E-16 0.000E+00
 ETOT 34  -85.749417488032      2.842E-14 1.844E-16 0.000E+00
 ETOT 35  -85.749417488032     -2.842E-14 6.944E-17 0.000E+00
 ETOT 36  -85.749417488032      2.842E-14 2.525E-17 0.000E+00
 ETOT 37  -85.749417488032      0.000E+00 9.500E-18 0.000E+00
 ETOT 38  -85.749417488032      0.000E+00 3.458E-18 0.000E+00
 ETOT 39  -85.749417488032      0.000E+00 1.300E-18 0.000E+00
 ETOT 40  -85.749417488032      1.421E-14 4.736E-19 0.000E+00
 ETOT 41  -85.749417488032     -1.421E-14 1.779E-19 0.000E+00
 ETOT 42  -85.749417488032     -1.421E-14 6.489E-20 0.000E+00
 ETOT 43  -85.749417488032      0.000E+00 2.436E-20 0.000E+00
 ETOT 44  -85.749417488032      1.421E-14 9.967E-21 0.000E+00

 At SCF step   44   max residual=  9.97E-21 < tolwfr=  1.00E-20 =>converged.

 ----iterations are completed or convergence reached----

 dfpt_looppert: DFPT cycle converged with prtwf=-1. Will skip output of the 1st-order WFK file.
 dfpt_looppert : ek2=    1.0258721126E+02
          f-sum rule ratio=    1.0501172514E+00
 prteigrs : about to open file /scratch/users/j/a/jabreu/flow_simple_8atoms/flow/w338/t1/tmpdata/tmp_1WF1_EIG
 Expectation of eigenvalue derivatives (hartree) for nkpt=   1  k points:
  (in case of degenerate eigenvalues, averaged derivative)
 kpt#   1, nband= 43, wtk=  1.00000, kpt=  0.0000  0.0000  0.0000 (reduced coord)
   0.00000   -0.00000    0.00000   -0.00000   -0.00000    0.00000    0.00000   -0.00000
   0.00000    0.00000    0.00000    0.00000   -0.00000   -0.00000   -0.00000   -0.00000
   0.00000    0.00000    0.00000   -0.00000   -0.00000   -0.00000   -0.00000   -0.00000
  -0.00000    0.00000   -0.00000    0.00000    0.00000   -0.00000   -0.00000    0.00000
   0.00000    0.00000    0.00000    0.00000   -0.00000    0.00000    0.00000    0.00000
   0.00000   -0.00001   -0.00254

 Eight components of 2nd-order total energy (hartree) are
 1,2,3: 0th-order hamiltonian combined with 1st-order wavefunctions
     kin0=   1.20034832E+02 eigvalue=   3.48131002E+00  local=  -5.27179140E+01
 4,5,6: 1st-order hamiltonian combined with 1st and 0th-order wfs
     kin1=  -1.07728600E+02  Hartree=   0.00000000E+00     xc=   0.00000000E+00
 7,8,9: eventually, occupation + non-local contributions
    edocc=   1.14871096E+01     enl0=   3.46407976E+00   enl1=  -6.37702347E+01
 1-9 gives the relaxation energy (to be shifted if some occ is /=2.0)
   erelax=  -8.57494175E+01
  No Ewald or frozen-wf contrib.: the relaxation energy is the total one
 2DEtotal=   -0.8574941749E+02 Ha. Also 2DEtotal=   -0.233336031504E+04 eV
    (  non-var. 2DEtotal :   -8.5749417487E+01 Ha)

 CALCULATION OF EFFECTIVE MASSES
 NOTE : Additional infos (eff. mass eigenvalues, eigenvectors and, if degenerate, average mass) are available in stdout.

 K-point ( 0.000, 0.000, 0.000) | band =    34
 Effective mass tensor:
             -1.6787373419              0.4055009294             -0.4549548112
              0.4055009294             -1.3583544495             -0.6688934913
             -0.4549548112             -0.6688934913             -1.2039797566
 Effective mass tensor eigenvalues:
             -1.9545416914             -1.9544915568             -0.3320382999
 Angular average effective mass 1/(<1/m>)=  -0.7434996444
 Angular average effective mass for Frohlich model (<m**0.5>)**2=  -0.9412464159
 Effective masses along directions: (cart. coord. / red. coord. -> eff. mass)
    1:   1.000000  0.000000  0.000000 /   0.938640 -0.344898  0.000000 ->  -1.0676915722
    2:   0.000000  1.000000  0.000000 /   0.000000  1.000000  0.000000 ->  -0.6991753202
    3:   0.000000  0.000000  1.000000 /  -0.387106 -0.387106  0.836838 ->  -0.5994789934
    4:   0.577350  0.577350  0.577350 /   0.390139  0.033315  0.920153 ->  -1.6473627339
    5:   0.000000  0.707107  0.707107 /  -0.398866  0.312115  0.862259 ->  -1.9287196259
    6:   0.707107  0.000000  0.707107 /   0.315915 -0.587395  0.745094 ->  -1.6630273083
    7:   0.707107  0.707107  0.000000 /   0.871538  0.490328  0.000000 ->  -0.5530238141

 K-point ( 0.000, 0.000, 0.000) | band =    35
 Effective mass tensor:
              0.3188663116             -0.0153033909              0.0171681956
             -0.0153033909              0.3067756693              0.0252535850
              0.0171681956              0.0252535850              0.3009502683
 Effective mass tensor eigenvalues:
              0.2680359638              0.3292722221              0.3292840632
 Angular average effective mass 1/(<1/m>)=   0.3059746131
 Angular average effective mass for Frohlich model (<m**0.5>)**2=   0.3068691490
 Effective masses along directions: (cart. coord. / red. coord. -> eff. mass)
    1:   1.000000  0.000000  0.000000 /   0.938640 -0.344898  0.000000 ->   0.3169666672
    2:   0.000000  1.000000  0.000000 /   0.000000  1.000000  0.000000 ->   0.3037746137
    3:   0.000000  0.000000  1.000000 /  -0.387106 -0.387106  0.836838 ->   0.2978038618
    4:   0.577350  0.577350  0.577350 /   0.390139  0.033315  0.920153 ->   0.3264339696
    5:   0.000000  0.707107  0.707107 /  -0.398866  0.312115  0.862259 ->   0.3290784388
    6:   0.707107  0.000000  0.707107 /   0.315915 -0.587395  0.745094 ->   0.3265963479
    7:   0.707107  0.707107  0.000000 /   0.871538  0.490328  0.000000 ->   0.2943943144

 END OF EFFECTIVE MASSES SECTION

 ---- first-order wavefunction calculations are completed ----

 Total localisation tensor (bohr^2) in cartesian coordinates
  WARNING : still subject to testing - especially symmetries.
      direction              matrix element
   alpha     beta       real part   imaginary part
     1        1       1.2541403764    0.0000000000
     1        2      -0.3775924664    0.0000000000
     1        3      -0.3646949761    0.0000000000
     2        1      -0.3775924664    0.0000000000
     2        2       0.9557320908    0.0000000000
     2        3      -0.5361731995    0.0000000000
     3        1      -0.3646949761    0.0000000000
     3        2      -0.5361731995    0.0000000000
     3        3       2.3142036922    0.0000000000

 respfn : d/dk was computed, but no 2DTE, so no DDB output.

== END DATASET(S) ==============================================================

 -outvars: echo values of variables after computation  --------
            acell      1.0000000000E+00  1.0000000000E+00  1.0000000000E+00 Bohr
              amu      4.00780000E+01  7.26100000E+01  1.40067400E+01
             ecut      4.20000000E+01 Hartree
           etotal     -8.5749417488E+01
            fcart      0.0000000000E+00  0.0000000000E+00  0.0000000000E+00
                       0.0000000000E+00  0.0000000000E+00  0.0000000000E+00
                       0.0000000000E+00  0.0000000000E+00  0.0000000000E+00
                       0.0000000000E+00  0.0000000000E+00  0.0000000000E+00
                       0.0000000000E+00  0.0000000000E+00  0.0000000000E+00
                       0.0000000000E+00  0.0000000000E+00  0.0000000000E+00
                       0.0000000000E+00  0.0000000000E+00  0.0000000000E+00
                       0.0000000000E+00  0.0000000000E+00  0.0000000000E+00
-          fftalg         512
           irdden           1
           irdwfk           1
           istwfk        1
              ixc     -116133
           kptopt           0
P           mkmem           1
P          mkqmem           1
P          mk1mem           1
            natom           8
            nband          43
           nbdbuf           4
            ngfft          60      60      60
             nkpt           1
            nstep        2000
             nsym           8
           ntypat           3
              occ      2.000000  2.000000  2.000000  2.000000  2.000000  2.000000
                       2.000000  2.000000  2.000000  2.000000  2.000000  2.000000
                       2.000000  2.000000  2.000000  2.000000  2.000000  2.000000
                       2.000000  2.000000  2.000000  2.000000  2.000000  2.000000
                       2.000000  2.000000  2.000000  2.000000  2.000000  2.000000
                       2.000000  2.000000  2.000000  2.000000  0.000000  0.000000
                       0.000000  0.000000  0.000000  0.000000  0.000000  0.000000
                       0.000000
        optdriver           1
            prtwf          -1
            rfdir           1       1       1
           rfelfd           2
            rprim      8.7490903905E+00  0.0000000000E+00 -4.5649504402E+00
                      -3.2148024132E+00  8.1370527899E+00 -4.5649504402E+00
                       0.0000000000E+00  0.0000000000E+00  9.8684018556E+00
          spgroup         122
           strten      0.0000000000E+00  0.0000000000E+00  0.0000000000E+00
                       0.0000000000E+00  0.0000000000E+00  0.0000000000E+00
           symrel      1  0  0   0  1  0   0  0  1      -1 -1 -1   0  0  1   0  1  0
                       0  1  0   1  0  0  -1 -1 -1       0  0  1  -1 -1 -1   1  0  0
                       0  1  0   1  0  0   0  0  1      -1 -1 -1   0  0  1   1  0  0
                       1  0  0   0  1  0  -1 -1 -1       0  0  1  -1 -1 -1   0  1  0
            tnons      0.0000000  0.0000000  0.0000000    -0.2500000  0.2500000  0.5000000
                      -0.0000000 -0.0000000 -0.0000000    -0.2500000  0.2500000  0.5000000
                      -0.2500000  0.2500000  0.5000000     0.0000000 -0.0000000 -0.0000000
                      -0.2500000  0.2500000  0.5000000    -0.0000000  0.0000000 -0.0000000
           tolwfr      1.00000000E-20
            typat      1  1  2  2  3  3  3  3
           useylm           1
           xangst      1.4643095317E+00  2.1529714408E+00 -2.4156677313E+00
                      -1.1844531775E-01  3.2294571611E+00  1.9539894230E-01
                       3.0470643811E+00  1.0764857204E+00  1.9539894230E-01
                       0.0000000000E+00  0.0000000000E+00  0.0000000000E+00
                       1.2278721075E+00  1.2865942033E+00  5.8544916286E-01
                      -8.3733807514E-01  2.6912143009E+00  3.1965158365E+00
                       2.4329017217E+00  4.0958343986E+00 -1.4024851439E+00
                       3.0338023727E+00  5.3824286019E-01 -1.5978840862E+00
            xcart      2.7671439886E+00  4.0685263949E+00 -4.5649504402E+00
                      -2.2382921228E-01  6.1027895924E+00  3.6925048760E-01
                       5.7581171896E+00  2.0342631975E+00  3.6925048760E-01
                       0.0000000000E+00  0.0000000000E+00  0.0000000000E+00
                       2.3203420094E+00  2.4313106884E+00  1.1063385825E+00
                      -1.5823396426E+00  5.0856579937E+00  6.0405395103E+00
                       4.5975179622E+00  7.7400052990E+00 -2.6503128274E+00
                       5.7330556256E+00  1.0171315987E+00 -3.0195633150E+00
             xred      5.0000000000E-01  5.0000000000E-01 -8.3266726847E-17
                       2.5000000000E-01  7.5000000000E-01  5.0000000000E-01
                       7.5000000000E-01  2.5000000000E-01  5.0000000000E-01
                       0.0000000000E+00  0.0000000000E+00  0.0000000000E+00
                       3.7500000000E-01  2.9879500000E-01  4.2379500000E-01
                       4.8795000000E-02  6.2500000000E-01  9.2379500000E-01
                       8.7500000000E-01  9.5120500000E-01  5.7620500000E-01
                       7.0120500000E-01  1.2500000000E-01  7.6205000000E-02
            znucl       20.00000   32.00000    7.00000

- Timing analysis has been suppressed with timopt=0

 Suggested references for the acknowledgment of ABINIT usage.

 Calculation completed.
.Delivered   6 WARNINGs and   5 COMMENTs to log file.