.Version 9.5.2 of ABINIT

 ABINIT is a project of the Universite Catholique de Louvain,
 Corning Inc. and other collaborators, see ~abinit/doc/developers/contributors.txt .
 acknowledgments of the ABINIT effort.

.Starting date : Tue 25 May 2021.
- ( at 11h17 )

- input  file    -> /scratch/users/j/a/jabreu/flow_simple_10atoms/flow/w434/t1/run.abi
- output file    -> /scratch/users/j/a/jabreu/flow_simple_10atoms/flow/w434/t1/run.abo
- root for input  files -> /scratch/users/j/a/jabreu/flow_simple_10atoms/flow/w434/t1/indata/in
- root for output files -> /scratch/users/j/a/jabreu/flow_simple_10atoms/flow/w434/t1/outdata/out

 Symmetries : space group Cm c 2_1 (# 36); Bravais oC (1-face-center ortho.)
     intxc =       0      iscf =       7    lmnmax =      18     lnmax =       6
     mgfft =      90  mpssoang =       3    mqgrid =    4301     natom =      10
  nloc_mem =       1    nspden =       1   nspinor =       1    nsppol =       1
      nsym =       4    n1xccc =    2501    ntypat =       2    occopt =       1
   xclevel =       2
-    mband =          75        mffmem =           1         mkmem =           2
-   mkqmem =           2        mk1mem =           2           mpw =       29235
      nfft =      576000          nkpt =           2
  Rough estimation (10% accuracy) of disk space for files :

------------- Echo of variables that govern the present computation ------------
-
- outvars: echo of selected default values
-   iomode0 =  0 , fftalg0 =512 , wfoptalg0 =  0
-
- outvars: echo of global parameters not present in the input file
-  max_nthreads =    0
-
 -outvars: echo values of preprocessed input variables --------
            acell      1.0000000000E+00  1.0000000000E+00  1.0000000000E+00 Bohr
              amu      8.54678000E+01  7.89600000E+01
             ecut      4.30000000E+01 Hartree
-          fftalg         512
           irdden           1
           irdwfk           1
              ixc     -116133
              kpt      3.11010200E-01  3.11010200E-01  0.00000000E+00
                      -5.00000000E-01  5.00000000E-01  0.00000000E+00
           kptopt           0
P           mkmem           2
P          mkqmem           2
P          mk1mem           2
            natom          10
            nband          75
           nbdbuf           4
            ngfft          80      80      90
             nkpt           2
            nstep        2000
             nsym           4
           ntypat           2
              occ      2.000000  2.000000  2.000000  2.000000  2.000000  2.000000
                       2.000000  2.000000  2.000000  2.000000  2.000000  2.000000
                       2.000000  2.000000  2.000000  2.000000  2.000000  2.000000
                       2.000000  2.000000  2.000000  2.000000  2.000000  2.000000
                       2.000000  2.000000  2.000000  2.000000  2.000000  2.000000
                       2.000000  2.000000  2.000000  2.000000  2.000000  2.000000
                       2.000000  2.000000  2.000000  2.000000  2.000000  2.000000
                       2.000000  2.000000  2.000000  2.000000  2.000000  2.000000
                       2.000000  2.000000  2.000000  2.000000  2.000000  2.000000
                       2.000000  2.000000  2.000000  2.000000  2.000000  2.000000
                       2.000000  2.000000  2.000000  2.000000  2.000000  2.000000
                       0.000000  0.000000  0.000000  0.000000  0.000000  0.000000
                       0.000000  0.000000  0.000000
        optdriver           1
            prtwf          -1
            rfdir           1       1       1
           rfelfd           2
            rprim      1.2612504039E+01  0.0000000000E+00  0.0000000000E+00
                      -4.4625887034E+00  1.1796633427E+01  0.0000000000E+00
                       0.0000000000E+00  0.0000000000E+00  1.4567817002E+01
          spgroup          36
           symrel      1  0  0   0  1  0   0  0  1       0  1  0   1  0  0   0  0  1
                      -1  0  0   0 -1  0   0  0  1       0 -1  0  -1  0  0   0  0  1
            tnons      0.0000000  0.0000000  0.0000000     0.0000000  0.0000000  0.5000000
                       0.0000000  0.0000000  0.5000000     0.0000000  0.0000000  0.0000000
           tolwfr      1.00000000E-20
            typat      1  1  1  1  2  2  2  2  2  2
           useylm           1
              wtk        0.50000    0.50000
           xangst      1.4022058573E+00  3.6422858331E+00  6.3701653468E+00
                       2.9105435904E+00  2.6002237144E+00  2.5156869786E+00
                       5.8315033579E+00  5.8222638048E-01  4.2118733114E+00
                      -1.5187539102E+00  5.6602831670E+00  3.5739494325E-01
                       2.5766814848E+00  5.1385217340E-01  5.2255240327E+00
                       1.7360679629E+00  5.7286573741E+00  1.3710456645E+00
                       4.7438251440E+00  3.6506944935E+00  5.2255240327E+00
                      -4.3107569632E-01  2.5918150540E+00  1.3710456645E+00
                       4.7581285541E+00  1.3237865746E+00  7.6673592058E+00
                      -4.4537910639E-01  4.9187229729E+00  3.8128808376E+00
            xcart      2.6497850522E+00  6.8829227223E+00  1.2037867927E+01
                       5.5001302837E+00  4.9137107044E+00  4.7539594257E+00
                       1.1019944289E+01  1.1002484064E+00  7.9592870650E+00
                      -2.8700289535E+00  1.0696385020E+01  6.7537856403E-01
                       4.8692223379E+00  9.7103988052E-01  9.8748093226E+00
                       3.2806929980E+00  1.0825593546E+01  2.5909008216E+00
                       8.9645303445E+00  6.8988127875E+00  9.8748093226E+00
                      -8.1461500859E-01  4.8978206392E+00  2.5909008216E+00
                       8.9915598723E+00  2.5015940845E+00  1.4489209061E+01
                      -8.4164453638E-01  9.2950393422E+00  7.2053005604E+00
             xred      4.1653500000E-01  5.8346500000E-01  8.2633300000E-01
                       5.8346500000E-01  4.1653500000E-01  3.2633300000E-01
                       9.0673200000E-01  9.3268000000E-02  5.4636100000E-01
                       9.3268000000E-02  9.0673200000E-01  4.6361000000E-02
                       4.1518800000E-01  8.2315000000E-02  6.7785100000E-01
                       5.8481200000E-01  9.1768500000E-01  1.7785100000E-01
                       9.1768500000E-01  5.8481200000E-01  6.7785100000E-01
                       8.2315000000E-02  4.1518800000E-01  1.7785100000E-01
                       7.8794000000E-01  2.1206000000E-01  9.9460400000E-01
                       2.1206000000E-01  7.8794000000E-01  4.9460400000E-01
            znucl       37.00000   34.00000

 chkinp: Checking input parameters for consistency.

== DATASET  1 ==================================================================
-   mpi_nproc: 1, omp_nthreads: -1 (-1 if OMP is not activated)

--- !DatasetInfo
iteration_state: {dtset: 1, }
dimensions: {natom: 10, nkpt: 2, mband: 75, nsppol: 1, nspinor: 1, nspden: 1, mpw: 29235, }
cutoff_energies: {ecut:  43.0, pawecutdg:  -1.0, }
electrons: {nelect:   1.32000000E+02, charge:   0.00000000E+00, occopt:   1.00000000E+00, tsmear:   1.00000000E-02, }
meta: {optdriver: 1, rfelfd: 2, }
...

 Real(R)+Recip(G) space primitive vectors, cartesian coordinates (Bohr,Bohr^-1):
 R(1)= 12.6125040  0.0000000  0.0000000  G(1)=  0.0792864  0.0299935  0.0000000
 R(2)= -4.4625887 11.7966334  0.0000000  G(2)=  0.0000000  0.0847699  0.0000000
 R(3)=  0.0000000  0.0000000 14.5678170  G(3)=  0.0000000  0.0000000  0.0686445
 Unit cell volume ucvol=  2.1674739E+03 bohr^3
 Angles (23,13,12)=  9.00000000E+01  9.00000000E+01  1.10721300E+02 degrees

 getcut: wavevector=  0.0000  0.0000  0.0000  ngfft=  80  80  90
         ecut(hartree)=     43.000   => boxcut(ratio)=   2.09290

--- Pseudopotential description ------------------------------------------------
- pspini: atom type   1  psp file is /scratch/users/j/a/jabreu/pseudos/PBEsol/Rb.psp8
- pspatm: opening atomic psp file    /scratch/users/j/a/jabreu/pseudos/PBEsol/Rb.psp8
- Rb    ONCVPSP-3.3.0  r_core=   1.71227   1.75361   1.90633
- 37.00000   9.00000    180112                znucl, zion, pspdat
    8 -116133    2    4       600   0.00000   pspcod,pspxc,lmax,lloc,mmax,r2well
    5.99000000000000    7.00000000000000    0.00000000000000   rchrg,fchrg,qchrg
     nproj     2     2     2
     extension_switch     1
  pspatm : epsatm=   34.48400912
         --- l  ekb(1:nproj) -->
             0    8.196957   -0.477221
             1    3.231347   -0.378736
             2   -1.047201    0.996637
 pspatm: atomic psp has been read  and splines computed

- pspini: atom type   2  psp file is /scratch/users/j/a/jabreu/pseudos/PBEsol/Se.psp8
- pspatm: opening atomic psp file    /scratch/users/j/a/jabreu/pseudos/PBEsol/Se.psp8
- Se    ONCVPSP-3.3.0  r_core=   1.81943   1.50330   1.90835
- 34.00000  16.00000    180112                znucl, zion, pspdat
    8 -116133    2    4       600   0.00000   pspcod,pspxc,lmax,lloc,mmax,r2well
    5.99000000000000    5.00000000000000    0.00000000000000   rchrg,fchrg,qchrg
     nproj     2     2     2
     extension_switch     1
  pspatm : epsatm=   29.17862020
         --- l  ekb(1:nproj) -->
             0    8.973804    1.019550
             1    6.849857    1.297308
             2   -9.203962   -3.731027
 pspatm: atomic psp has been read  and splines computed

   4.13170240E+04                                ecore*ucvol(ha*bohr**3)

 ==>  initialize data related to q vector <==

 The list of irreducible perturbations for this q vector is:
    1)    idir= 1    ipert=  11
    2)    idir= 2    ipert=  11
    3)    idir= 3    ipert=  11

 Perturbation wavevector (in red.coord.)   0.000000  0.000000  0.000000
 Perturbation : derivative vs k along direction   1

 dfpt_looppert : COMMENT -
  In a d/dk calculation, iscf is set to -3 automatically.
 The set of symmetries contains only one element for this perturbation.
 symkpt : not enough symmetry to change the number of k points.

 Initialisation of the first-order wave-functions :
  ireadwf=   0

--- !BeginCycle
iteration_state: {dtset: 1, }
solver: {iscf: 7, nstep: 2000, nline: 4, wfoptalg: 0, }
tolerances: {tolwfr: 1.00E-20, }
...

     iter   2DEtotal(Ha)        deltaE(Ha) residm    vres2
-ETOT  1  -80.814355980870     -8.081E+01 6.505E-02 0.000E+00
 ETOT  2  -80.886223543345     -7.187E-02 8.698E-03 0.000E+00
 ETOT  3  -80.886415903801     -1.924E-04 4.323E-04 0.000E+00
 ETOT  4  -80.886417777268     -1.873E-06 1.237E-04 0.000E+00
 ETOT  5  -80.886417799240     -2.197E-08 7.440E-06 0.000E+00
 ETOT  6  -80.886417799515     -2.750E-10 2.541E-06 0.000E+00
 ETOT  7  -80.886417799519     -3.567E-12 1.601E-07 0.000E+00
 ETOT  8  -80.886417799519      0.000E+00 5.795E-08 0.000E+00
 ETOT  9  -80.886417799519     -5.684E-14 3.819E-09 0.000E+00
 ETOT 10  -80.886417799519     -2.842E-14 1.399E-09 0.000E+00
 ETOT 11  -80.886417799519      1.421E-14 9.598E-11 0.000E+00
 ETOT 12  -80.886417799519      1.421E-14 3.512E-11 0.000E+00
 ETOT 13  -80.886417799519      0.000E+00 2.489E-12 0.000E+00
[...]

 ----iterations are completed or convergence reached----

 dfpt_looppert: DFPT cycle converged with prtwf=-1. Will skip output of the 1st-order WFK file.
 dfpt_looppert : ek2=    7.4894080853E+01
          f-sum rule ratio=    1.0062410460E+00
 prteigrs : about to open file /scratch/users/j/a/jabreu/flow_simple_10atoms/flow/w434/t1/tmpdata/tmp_1WF1_EIG
 Expectation of eigenvalue derivatives (hartree) for nkpt=   2  k points:
  (in case of degenerate eigenvalues, averaged derivative)
 kpt#   1, nband= 75, wtk=  0.50000, kpt=  0.3110  0.3110  0.0000 (reduced coord)
  -0.00000    0.00000   -0.00000    0.00000   -0.00000    0.00000   -0.00000    0.00000
  -0.00000    0.00000   -0.00001   -0.00001    0.00000    0.00001   -0.00001   -0.00001
   0.00001    0.00001   -0.00001   -0.00001    0.00001    0.00001   -0.00000   -0.00000
   0.00000    0.00000   -0.00000   -0.00000    0.00000    0.00000    0.00006   -0.00002
  -0.00001    0.00001   -0.01626    0.01076   -0.01267    0.02776   -0.03386   -0.00862
  -0.00022    0.00552   -0.00257    0.00320    0.00375    0.00931    0.00000    0.00290
   0.00088    0.00353   -0.00356    0.02382   -0.03926    0.08699   -0.08949   -0.01522
  -0.00275    0.01011    0.01642    0.07201    0.01352   -0.01308   -0.03137    0.04484
  -0.03361   -0.00092   -0.14248   -0.08044    0.05222    0.12257    0.11900    0.02401
   0.04408   -0.04475   -0.07478
 prteigrs : prtvol=0 or 1, do not print more k-points.

 Eight components of 2nd-order total energy (hartree) are
 1,2,3: 0th-order hamiltonian combined with 1st-order wavefunctions
     kin0=   9.29702728E+01 eigvalue=   1.63524371E+01  local=  -4.12401968E+01
 4,5,6: 1st-order hamiltonian combined with 1st and 0th-order wfs
     kin1=  -7.53614983E+01  Hartree=   0.00000000E+00     xc=   0.00000000E+00
 7,8,9: eventually, occupation + non-local contributions
    edocc=   6.39463885E+00     enl0=   6.40926589E+00   enl1=  -8.64113373E+01
 1-9 gives the relaxation energy (to be shifted if some occ is /=2.0)
   erelax=  -8.08864178E+01
  No Ewald or frozen-wf contrib.: the relaxation energy is the total one
 2DEtotal=   -0.8088641780E+02 Ha. Also 2DEtotal=   -0.220103136380E+04 eV
    (  non-var. 2DEtotal :   -8.0886417799E+01 Ha)

 Perturbation wavevector (in red.coord.)   0.000000  0.000000  0.000000
 Perturbation : derivative vs k along direction   2
 The set of symmetries contains only one element for this perturbation.
 symkpt : not enough symmetry to change the number of k points.

[...]

 Perturbation wavevector (in red.coord.)   0.000000  0.000000  0.000000
 Perturbation : derivative vs k along direction   3
 The set of symmetries contains only one element for this perturbation.
 symkpt : not enough symmetry to change the number of k points.

 Initialisation of the first-order wave-functions :
  ireadwf=   0

--- !BeginCycle
iteration_state: {dtset: 1, }
solver: {iscf: 7, nstep: 2000, nline: 4, wfoptalg: 0, }
tolerances: {tolwfr: 1.00E-20, }
...

     iter   2DEtotal(Ha)        deltaE(Ha) residm    vres2
-ETOT  1  -52.984415011765     -5.298E+01 6.273E-02 0.000E+00
 ETOT  2  -53.032081303100     -4.767E-02 3.858E-03 0.000E+00
 ETOT  3  -53.032196082966     -1.148E-04 1.942E-04 0.000E+00
 ETOT  4  -53.032197062965     -9.800E-07 3.504E-05 0.000E+00
 ETOT  5  -53.032197073495     -1.053E-08 3.028E-06 0.000E+00
 ETOT  6  -53.032197073619     -1.238E-10 8.286E-07 0.000E+00
 ETOT  7  -53.032197073621     -1.521E-12 8.295E-08 0.000E+00
 ETOT  8  -53.032197073621     -2.132E-14 2.145E-08 0.000E+00
 ETOT  9  -53.032197073621     -7.105E-15 2.380E-09 0.000E+00
 ETOT 10  -53.032197073621      2.842E-14 5.580E-10 0.000E+00
 ETOT 11  -53.032197073621     -1.421E-14 6.890E-11 0.000E+00
 ETOT 12  -53.032197073621      0.000E+00 1.513E-11 0.000E+00
 ETOT 13  -53.032197073621     -1.421E-14 2.000E-12 0.000E+00
 ETOT 14  -53.032197073621     -7.105E-15 4.419E-13 0.000E+00
 ETOT 15  -53.032197073621      7.105E-15 5.816E-14 0.000E+00
 ETOT 16  -53.032197073621      0.000E+00 1.292E-14 0.000E+00
 ETOT 17  -53.032197073621     -7.105E-15 1.693E-15 0.000E+00
 ETOT 18  -53.032197073621      1.421E-14 3.778E-16 0.000E+00
 ETOT 19  -53.032197073621      7.105E-15 4.933E-17 0.000E+00
 ETOT 20  -53.032197073621     -7.105E-15 1.106E-17 0.000E+00
 ETOT 21  -53.032197073621      0.000E+00 1.439E-18 0.000E+00
 ETOT 22  -53.032197073621      0.000E+00 3.236E-19 0.000E+00
 ETOT 23  -53.032197073621     -1.421E-14 4.199E-20 0.000E+00
 ETOT 24  -53.032197073621      7.105E-15 9.963E-21 0.000E+00

 At SCF step   24   max residual=  9.96E-21 < tolwfr=  1.00E-20 =>converged.

 ----iterations are completed or convergence reached----

 dfpt_looppert: DFPT cycle converged with prtwf=-1. Will skip output of the 1st-order WFK file.
 dfpt_looppert : ek2=    4.9110539944E+01
          f-sum rule ratio=    1.0063362612E+00
 prteigrs : about to open file /scratch/users/j/a/jabreu/flow_simple_10atoms/flow/w434/t1/tmpdata/tmp_1WF1_EIG
 Expectation of eigenvalue derivatives (hartree) for nkpt=   2  k points:
  (in case of degenerate eigenvalues, averaged derivative)
 kpt#   1, nband= 75, wtk=  0.50000, kpt=  0.3110  0.3110  0.0000 (reduced coord)
  -0.00000   -0.00000   -0.00000    0.00000   -0.00000    0.00000    0.00000   -0.00000
   0.00000   -0.00000    0.00000    0.00000    0.00000   -0.00000    0.00000   -0.00000
  -0.00000    0.00000   -0.00000    0.00000   -0.00000    0.00000    0.00000   -0.00000
   0.00000   -0.00000    0.00000    0.00000    0.00000   -0.00000   -0.00000   -0.00000
   0.00000   -0.00000    0.00000    0.00000   -0.00000   -0.00000   -0.00000    0.00000
  -0.00000   -0.00000   -0.00000   -0.00000   -0.00000    0.00000    0.00000   -0.00000
   0.00000   -0.00000    0.00000    0.00000    0.00000    0.00000   -0.00000   -0.00000
  -0.00000   -0.00000   -0.00000    0.00000    0.00000   -0.00000    0.00000   -0.00000
  -0.00000   -0.00000    0.00000    0.00000   -0.00000    0.00000   -0.00000    0.00000
   0.00000    0.00001   -0.00000
 prteigrs : prtvol=0 or 1, do not print more k-points.

 Eight components of 2nd-order total energy (hartree) are
 1,2,3: 0th-order hamiltonian combined with 1st-order wavefunctions
     kin0=   6.14932277E+01 eigvalue=   1.06658642E+01  local=  -2.73730826E+01
 4,5,6: 1st-order hamiltonian combined with 1st and 0th-order wfs
     kin1=  -4.94217172E+01  Hartree=   0.00000000E+00     xc=   0.00000000E+00
 7,8,9: eventually, occupation + non-local contributions
    edocc=   4.01060238E+00     enl0=   4.23558541E+00   enl1=  -5.66426770E+01
 1-9 gives the relaxation energy (to be shifted if some occ is /=2.0)
   erelax=  -5.30321971E+01
  No Ewald or frozen-wf contrib.: the relaxation energy is the total one
 2DEtotal=   -0.5303219707E+02 Ha. Also 2DEtotal=   -0.144307947151E+04 eV
    (  non-var. 2DEtotal :   -5.3032197073E+01 Ha)

 CALCULATION OF EFFECTIVE MASSES
 NOTE : Additional infos (eff. mass eigenvalues, eigenvectors and, if degenerate, average mass) are available in stdout.

 K-point ( 0.311, 0.311, 0.000) | band =    66
 Effective mass tensor:
             -5.3267505176              3.0446860149             -0.0000208777
              3.0446860149             -3.0232165800              0.0000145757
             -0.0000208777              0.0000145757             -0.8149811184
 Effective mass tensor eigenvalues:
             -7.4302377755             -0.9197293222             -0.8149811183
 Angular average effective mass 1/(<1/m>)=  -1.2250478666
 Angular average effective mass for Frohlich model (<m**0.5>)**2=  -1.4636809090
 Effective masses along directions: (cart. coord. / red. coord. -> eff. mass)
    1:   1.000000  0.000000  0.000000 /   0.942729 -0.333559  0.000000 ->  -2.2604426021
    2:   0.000000  1.000000  0.000000 /   0.000000  1.000000  0.000000 ->  -1.2829223990
    3:   0.000000  0.000000  1.000000 /   0.000000  0.000000  1.000000 ->  -0.8149811183
    4:   0.577350  0.577350  0.577350 /   0.611735  0.355718  0.706572 ->  -0.8982175762
    5:   0.000000  0.707107  0.707107 /   0.000000  0.629315  0.777150 ->  -0.9967616614
    6:   0.707107  0.000000  0.707107 /   0.637670 -0.225622  0.736527 ->  -1.1980303419
    7:   0.707107  0.707107  0.000000 /   0.864472  0.502682  0.000000 ->  -0.9465540622

 K-point (-0.500, 0.500, 0.000) | band =    67
 Effective mass tensor:
              4.2961952481             -2.8029990607              0.0000018082
             -2.8029990607              2.1754830910             -0.0000012733
              0.0000018082             -0.0000012733              0.6228301152
 Effective mass tensor eigenvalues:
              0.2389810234              0.6228301152              6.2326973156
 Angular average effective mass 1/(<1/m>)=   0.5041634577
 Angular average effective mass for Frohlich model (<m**0.5>)**2=   0.6940153207
 Effective masses along directions: (cart. coord. / red. coord. -> eff. mass)
    1:   1.000000  0.000000  0.000000 /   0.942729 -0.333559  0.000000 ->   0.6846738499
    2:   0.000000  1.000000  0.000000 /   0.000000  1.000000  0.000000 ->   0.3467012781
    3:   0.000000  0.000000  1.000000 /   0.000000  0.000000  1.000000 ->   0.6228301152
    4:   0.577350  0.577350  0.577350 /   0.611735  0.355718  0.706572 ->   0.3088282209
    5:   0.000000  0.707107  0.707107 /   0.000000  0.629315  0.777150 ->   0.4454439677
    6:   0.707107  0.000000  0.707107 /   0.637670 -0.225622  0.736527 ->   0.6522895740
    7:   0.707107  0.707107  0.000000 /   0.864472  0.502682  0.000000 ->   0.2466528042

 END OF EFFECTIVE MASSES SECTION

 ---- first-order wavefunction calculations are completed ----

 Total localisation tensor (bohr^2) in cartesian coordinates
  WARNING : still subject to testing - especially symmetries.
      direction              matrix element
   alpha     beta       real part   imaginary part
     1        1       1.4507388404    0.0000000000
     1        2      -0.4266831351    0.0000000000
     1        3       0.0000000000    0.0000000000
     2        1      -0.4266831351    0.0000000000
     2        2       1.1279158508    0.0000000000
     2        3       0.0000000000    0.0000000000
     3        1       0.0000000000    0.0000000000
     3        2       0.0000000000    0.0000000000
     3        3       1.0027366933    0.0000000000

 respfn : d/dk was computed, but no 2DTE, so no DDB output.

== END DATASET(S) ==============================================================

 -outvars: echo values of variables after computation  --------
            acell      1.0000000000E+00  1.0000000000E+00  1.0000000000E+00 Bohr
              amu      8.54678000E+01  7.89600000E+01
             ecut      4.30000000E+01 Hartree
           etotal     -5.3032197074E+01
            fcart      0.0000000000E+00  0.0000000000E+00  0.0000000000E+00
                       0.0000000000E+00  0.0000000000E+00  0.0000000000E+00
                       0.0000000000E+00  0.0000000000E+00  0.0000000000E+00
                       0.0000000000E+00  0.0000000000E+00  0.0000000000E+00
                       0.0000000000E+00  0.0000000000E+00  0.0000000000E+00
                       0.0000000000E+00  0.0000000000E+00  0.0000000000E+00
                       0.0000000000E+00  0.0000000000E+00  0.0000000000E+00
                       0.0000000000E+00  0.0000000000E+00  0.0000000000E+00
                       0.0000000000E+00  0.0000000000E+00  0.0000000000E+00
                       0.0000000000E+00  0.0000000000E+00  0.0000000000E+00
-          fftalg         512
           irdden           1
           irdwfk           1
              ixc     -116133
              kpt      3.11010200E-01  3.11010200E-01  0.00000000E+00
                      -5.00000000E-01  5.00000000E-01  0.00000000E+00
           kptopt           0
P           mkmem           2
P          mkqmem           2
P          mk1mem           2
            natom          10
            nband          75
           nbdbuf           4
            ngfft          80      80      90
             nkpt           2
            nstep        2000
             nsym           4
           ntypat           2
              occ      2.000000  2.000000  2.000000  2.000000  2.000000  2.000000
                       2.000000  2.000000  2.000000  2.000000  2.000000  2.000000
                       2.000000  2.000000  2.000000  2.000000  2.000000  2.000000
                       2.000000  2.000000  2.000000  2.000000  2.000000  2.000000
                       2.000000  2.000000  2.000000  2.000000  2.000000  2.000000
                       2.000000  2.000000  2.000000  2.000000  2.000000  2.000000
                       2.000000  2.000000  2.000000  2.000000  2.000000  2.000000
                       2.000000  2.000000  2.000000  2.000000  2.000000  2.000000
                       2.000000  2.000000  2.000000  2.000000  2.000000  2.000000
                       2.000000  2.000000  2.000000  2.000000  2.000000  2.000000
                       2.000000  2.000000  2.000000  2.000000  2.000000  2.000000
                       0.000000  0.000000  0.000000  0.000000  0.000000  0.000000
                       0.000000  0.000000  0.000000
        optdriver           1
            prtwf          -1
            rfdir           1       1       1
           rfelfd           2
            rprim      1.2612504039E+01  0.0000000000E+00  0.0000000000E+00
                      -4.4625887034E+00  1.1796633427E+01  0.0000000000E+00
                       0.0000000000E+00  0.0000000000E+00  1.4567817002E+01
          spgroup          36
           strten      0.0000000000E+00  0.0000000000E+00  0.0000000000E+00
                       0.0000000000E+00  0.0000000000E+00  0.0000000000E+00
           symrel      1  0  0   0  1  0   0  0  1       0  1  0   1  0  0   0  0  1
                      -1  0  0   0 -1  0   0  0  1       0 -1  0  -1  0  0   0  0  1
            tnons      0.0000000  0.0000000  0.0000000     0.0000000  0.0000000  0.5000000
                       0.0000000  0.0000000  0.5000000     0.0000000  0.0000000  0.0000000
           tolwfr      1.00000000E-20
            typat      1  1  1  1  2  2  2  2  2  2
           useylm           1
              wtk        0.50000    0.50000
           xangst      1.4022058573E+00  3.6422858331E+00  6.3701653468E+00
                       2.9105435904E+00  2.6002237144E+00  2.5156869786E+00
                       5.8315033579E+00  5.8222638048E-01  4.2118733114E+00
                      -1.5187539102E+00  5.6602831670E+00  3.5739494325E-01
                       2.5766814848E+00  5.1385217340E-01  5.2255240327E+00
                       1.7360679629E+00  5.7286573741E+00  1.3710456645E+00
                       4.7438251440E+00  3.6506944935E+00  5.2255240327E+00
                      -4.3107569632E-01  2.5918150540E+00  1.3710456645E+00
                       4.7581285541E+00  1.3237865746E+00  7.6673592058E+00
                      -4.4537910639E-01  4.9187229729E+00  3.8128808376E+00
            xcart      2.6497850522E+00  6.8829227223E+00  1.2037867927E+01
                       5.5001302837E+00  4.9137107044E+00  4.7539594257E+00
                       1.1019944289E+01  1.1002484064E+00  7.9592870650E+00
                      -2.8700289535E+00  1.0696385020E+01  6.7537856403E-01
                       4.8692223379E+00  9.7103988052E-01  9.8748093226E+00
                       3.2806929980E+00  1.0825593546E+01  2.5909008216E+00
                       8.9645303445E+00  6.8988127875E+00  9.8748093226E+00
                      -8.1461500859E-01  4.8978206392E+00  2.5909008216E+00
                       8.9915598723E+00  2.5015940845E+00  1.4489209061E+01
                      -8.4164453638E-01  9.2950393422E+00  7.2053005604E+00
             xred      4.1653500000E-01  5.8346500000E-01  8.2633300000E-01
                       5.8346500000E-01  4.1653500000E-01  3.2633300000E-01
                       9.0673200000E-01  9.3268000000E-02  5.4636100000E-01
                       9.3268000000E-02  9.0673200000E-01  4.6361000000E-02
                       4.1518800000E-01  8.2315000000E-02  6.7785100000E-01
                       5.8481200000E-01  9.1768500000E-01  1.7785100000E-01
                       9.1768500000E-01  5.8481200000E-01  6.7785100000E-01
                       8.2315000000E-02  4.1518800000E-01  1.7785100000E-01
                       7.8794000000E-01  2.1206000000E-01  9.9460400000E-01
                       2.1206000000E-01  7.8794000000E-01  4.9460400000E-01
            znucl       37.00000   34.00000

- Timing analysis has been suppressed with timopt=0

 Suggested references for the acknowledgment of ABINIT usage.

 Calculation completed.
.Delivered   2 WARNINGs and   7 COMMENTs to log file.