.Version 9.7.2 of ABINIT

 ABINIT is a project of the Universite Catholique de Louvain,
 Corning Inc. and other collaborators, see ~abinit/doc/developers/contributors.txt .
 acknowledgments of the ABINIT effort.

.Starting date : Wed  1 Dec 2021.
- ( at 21h26 )

- input  file    -> /scratch/users/j/a/jabreu/flow_simple_remain_atoms/flow/w180/t1/run.abi
- output file    -> /scratch/users/j/a/jabreu/flow_simple_remain_atoms/flow/w180/t1/run.abo
- root for input  files -> /scratch/users/j/a/jabreu/flow_simple_remain_atoms/flow/w180/t1/indata/in
- root for output files -> /scratch/users/j/a/jabreu/flow_simple_remain_atoms/flow/w180/t1/outdata/out

 Symmetries : space group I4_1/a m d (#141); Bravais tI (body-center tetrag.)
     intxc =       0      iscf =       7    lmnmax =      32     lnmax =       8
     mgfft =      90  mpssoang =       4    mqgrid =    3001     natom =       8
  nloc_mem =       1    nspden =       1   nspinor =       1    nsppol =       1
      nsym =      16    n1xccc =    2501    ntypat =       3    occopt =       1
   xclevel =       2
-    mband =          41        mffmem =           1         mkmem =           1
-   mkqmem =           1        mk1mem =           1           mpw =       15583
      nfft =      729000          nkpt =           1
  Rough estimation (10% accuracy) of disk space for files :

------------- Echo of variables that govern the present computation ------------
-
- outvars: echo of selected default values
-   iomode0 =  0 , fftalg0 =512 , wfoptalg0 =  0
-
- outvars: echo of global parameters not present in the input file
-  max_nthreads =    0
-
 -outvars: echo values of preprocessed input variables --------
            acell      1.0000000000E+00  1.0000000000E+00  1.0000000000E+00 Bohr
              amu      2.29897680E+01  1.38905500E+02  1.59994000E+01
             ecut      5.20000000E+01 Hartree
-          fftalg         512
           irdden           1
           irdwfk           1
           istwfk        1
              ixc     -116133
           kptopt           0
P           mkmem           1
P          mkqmem           1
P          mk1mem           1
            natom           8
            nband          41
           nbdbuf           4
            ngfft          90      90      90
             nkpt           1
            nstep        2000
             nsym          16
           ntypat           3
              occ      2.000000  2.000000  2.000000  2.000000  2.000000  2.000000
                       2.000000  2.000000  2.000000  2.000000  2.000000  2.000000
                       2.000000  2.000000  2.000000  2.000000  2.000000  2.000000
                       2.000000  2.000000  2.000000  2.000000  2.000000  2.000000
                       2.000000  2.000000  2.000000  2.000000  2.000000  2.000000
                       2.000000  2.000000  0.000000  0.000000  0.000000  0.000000
                       0.000000  0.000000  0.000000  0.000000  0.000000
        optdriver           1
            prtwf          -1
            rfdir           1       1       1
           rfelfd           2
            rprim      8.3964483270E+00  0.0000000000E+00 -9.2376667948E+00
                      -1.2546577297E+00  8.3021791410E+00 -9.2376667948E+00
                       0.0000000000E+00  0.0000000000E+00  1.2483382247E+01
          spgroup         141
           symrel      1  0  0   0  1  0   0  0  1      -1  0  0   0 -1  0   0  0 -1
                       0  0  1  -1 -1 -1   1  0  0       0  0 -1   1  1  1  -1  0  0
                       0  1  0   1  0  0  -1 -1 -1       0 -1  0  -1  0  0   1  1  1
                      -1 -1 -1   0  0  1   0  1  0       1  1  1   0  0 -1   0 -1  0
                       0  1  0   1  0  0   0  0  1       0 -1  0  -1  0  0   0  0 -1
                       0  0  1  -1 -1 -1   0  1  0       0  0 -1   1  1  1   0 -1  0
                       1  0  0   0  1  0  -1 -1 -1      -1  0  0   0 -1  0   1  1  1
                      -1 -1 -1   0  0  1   1  0  0       1  1  1   0  0 -1  -1  0  0
            tnons      0.0000000  0.0000000  0.0000000    -0.2500000  0.2500000  0.5000000
                      -0.2500000  0.2500000  0.5000000    -0.0000000  0.0000000  0.0000000
                      -0.0000000 -0.0000000 -0.0000000    -0.2500000  0.2500000  0.5000000
                      -0.2500000  0.2500000  0.5000000     0.0000000 -0.0000000 -0.0000000
                      -0.2500000  0.2500000  0.5000000    -0.0000000 -0.0000000 -0.0000000
                      -0.0000000 -0.0000000 -0.0000000    -0.2500000  0.2500000  0.5000000
                      -0.2500000  0.2500000  0.5000000     0.0000000 -0.0000000  0.0000000
                       0.0000000 -0.0000000  0.0000000    -0.2500000  0.2500000  0.5000000
           tolwfr      1.00000000E-20
            typat      1  1  2  2  3  3  3  3
           useylm           1
           xangst      6.1285006558E-01  3.2949929873E+00 -1.5854020428E+00
                       1.8896364063E+00  2.1966619915E+00 -4.8883627284E+00
                       3.1664227470E+00  1.0983309958E+00 -1.5854020428E+00
                       0.0000000000E+00  0.0000000000E+00  0.0000000000E+00
                       2.3551149145E+00  1.5520295635E-01  5.1339694117E-01
                       8.1130783250E-01  9.4312803941E-01 -2.0987989840E+00
                       2.9679649801E+00  3.4501959436E+00 -7.6779264727E+00
                       3.9777305795E+00  2.0414590352E+00 -3.6842010268E+00
            xcart      1.1581187845E+00  6.2266343557E+00 -2.9959756714E+00
                       3.5708952986E+00  4.1510895705E+00 -9.2376667948E+00
                       5.9836718128E+00  2.0755447852E+00 -2.9959756714E+00
                       0.0000000000E+00  0.0000000000E+00  0.0000000000E+00
                       4.4505221999E+00  2.9329108251E-01  9.7017961628E-01
                       1.5331496129E+00  1.7822537027E+00 -3.9661552877E+00
                       5.6086409844E+00  6.5199254383E+00 -1.4509178302E+01
                       7.5168214257E+00  3.8577984880E+00 -6.9621309591E+00
             xred      2.5000000000E-01  7.5000000000E-01  5.0000000000E-01
                       5.0000000000E-01  5.0000000000E-01  0.0000000000E+00
                       7.5000000000E-01  2.5000000000E-01  5.0000000000E-01
                       0.0000000000E+00  0.0000000000E+00  0.0000000000E+00
                       5.3532700000E-01  3.5327000000E-02  5.0000000000E-01
                       2.1467300000E-01  2.1467300000E-01  2.7755575616E-17
                       7.8532700000E-01  7.8532700000E-01  0.0000000000E+00
                       9.6467300000E-01  4.6467300000E-01  5.0000000000E-01
            znucl       11.00000   57.00000    8.00000

 chkinp: Checking input parameters for consistency.

== DATASET  1 ==================================================================
-   mpi_nproc: 1, omp_nthreads: -1 (-1 if OMP is not activated)

--- !DatasetInfo
iteration_state: {dtset: 1, }
dimensions: {natom: 8, nkpt: 1, mband: 41, nsppol: 1, nspinor: 1, nspden: 1, mpw: 15583, }
cutoff_energies: {ecut:  52.0, pawecutdg:  -1.0, }
electrons: {nelect:   6.40000000E+01, charge:   0.00000000E+00, occopt:   1.00000000E+00, tsmear:   1.00000000E-02, }
meta: {optdriver: 1, rfelfd: 2, }
...

 Real(R)+Recip(G) space primitive vectors, cartesian coordinates (Bohr,Bohr^-1):
 R(1)=  8.3964483  0.0000000 -9.2376668  G(1)=  0.1190980  0.0179986  0.0000000
 R(2)= -1.2546577  8.3021791 -9.2376668  G(2)=  0.0000000  0.1204503  0.0000000
 R(3)=  0.0000000  0.0000000 12.4833822  G(3)=  0.0881322  0.1024518  0.0801065
 Unit cell volume ucvol=  8.7020182E+02 bohr^3
 Angles (23,13,12)=  1.37731169E+02  1.37731169E+02  6.13149754E+01 degrees

 getcut: wavevector=  0.0000  0.0000  0.0000  ngfft=  90  90  90
         ecut(hartree)=     52.000   => boxcut(ratio)=   2.22123

 getcut : COMMENT -
  Note that boxcut > 2.2 ; recall that boxcut=Gcut(box)/Gcut(sphere) = 2
  is sufficient for exact treatment of convolution.
  Such a large boxcut is a waste : you could raise ecut
  e.g. ecut=   64.140223 Hartrees makes boxcut=2

--- Pseudopotential description ------------------------------------------------
- pspini: atom type   1  psp file is /scratch/users/j/a/jabreu/pseudos/PBEsol/Na.psp8
- pspatm: opening atomic psp file    /scratch/users/j/a/jabreu/pseudos/PBEsol/Na.psp8
- Na    ONCVPSP-3.3.0  r_core=   1.20708   1.55069
- 11.00000   9.00000    180112                znucl, zion, pspdat
    8 -116133    1    4       400   0.00000   pspcod,pspxc,lmax,lloc,mmax,r2well
    3.99000000000000    0.00000000000000    0.00000000000000   rchrg,fchrg,qchrg
     nproj     2     2
     extension_switch     1
  pspatm : epsatm=    9.32878306
         --- l  ekb(1:nproj) -->
             0    2.657905   -0.678300
             1   -6.761319   -2.404728
 pspatm: atomic psp has been read  and splines computed

- pspini: atom type   2  psp file is /scratch/users/j/a/jabreu/pseudos/PBEsol/La.psp8
- pspatm: opening atomic psp file    /scratch/users/j/a/jabreu/pseudos/PBEsol/La.psp8
- La    ONCVPSP-3.3.0  r_core=   2.11664   1.60878   1.85636   1.66739
- 57.00000  11.00000    180112                znucl, zion, pspdat
    8 -116133    3    4       600   0.00000   pspcod,pspxc,lmax,lloc,mmax,r2well
    5.99000000000000    5.00000000000000    0.00000000000000   rchrg,fchrg,qchrg
     nproj     2     2     2     2
     extension_switch     1
  pspatm : epsatm=   29.08531775
         --- l  ekb(1:nproj) -->
             0    6.695600    0.639047
             1    6.383649    1.151322
             2    3.612966    0.847811
             3  -13.718437   -4.858923
 pspatm: atomic psp has been read  and splines computed

- pspini: atom type   3  psp file is /scratch/users/j/a/jabreu/pseudos/PBEsol/O.psp8
- pspatm: opening atomic psp file    /scratch/users/j/a/jabreu/pseudos/PBEsol/O.psp8
- O     ONCVPSP-3.3.0  r_core=   1.35509   1.45563   1.26150
-  8.00000   6.00000    180112                znucl, zion, pspdat
    8 -116133    2    4       600   0.00000   pspcod,pspxc,lmax,lloc,mmax,r2well
    5.99000000000000    4.00000000000000    0.00000000000000   rchrg,fchrg,qchrg
     nproj     2     2     1
     extension_switch     1
  pspatm : epsatm=    6.22910522
         --- l  ekb(1:nproj) -->
             0    6.050032    0.820363
             1   -4.739617   -1.153841
             2   -1.335834
 pspatm: atomic psp has been read  and splines computed

   6.51165584E+03                                ecore*ucvol(ha*bohr**3)

 ==>  initialize data related to q vector <==

 The list of irreducible perturbations for this q vector is:
    1)    idir= 1    ipert=   9
    2)    idir= 2    ipert=   9
    3)    idir= 3    ipert=   9

 Perturbation wavevector (in red.coord.)   0.000000  0.000000  0.000000
 Perturbation : derivative vs k along direction   1

 dfpt_looppert : COMMENT -
  In a d/dk calculation, iscf is set to -3 automatically.
 The set of symmetries contains only one element for this perturbation.
 symkpt : not enough symmetry to change the number of k points.

 Initialisation of the first-order wave-functions :
  ireadwf=   0

--- !BeginCycle
[...]
 ETOT 26  -79.830941475131     -3.411E-13 2.031E-05 0.000E+00
 ETOT 27  -79.830941475131     -2.558E-13 7.538E-06 0.000E+00
 ETOT 28  -79.830941475131      7.105E-14 1.271E-05 0.000E+00
 ETOT 29  -79.830941475131     -1.705E-13 4.769E-06 0.000E+00
 ETOT 30  -79.830941475131     -2.842E-14 7.953E-06 0.000E+00
 ETOT 31  -79.830941475131      1.705E-13 3.019E-06 0.000E+00
 ETOT 32  -79.830941475131     -1.421E-13 4.976E-06 0.000E+00
 ETOT 33  -79.830941475131      1.137E-13 1.912E-06 0.000E+00
 ETOT 34  -79.830941475131     -1.137E-13 3.114E-06 0.000E+00
 ETOT 35  -79.830941475131      1.279E-13 1.211E-06 0.000E+00
 ETOT 36  -79.830941475131     -8.527E-14 1.949E-06 0.000E+00
 ETOT 37  -79.830941475131      7.105E-14 7.677E-07 0.000E+00
 ETOT 38  -79.830941475131     -1.421E-14 1.220E-06 0.000E+00
 ETOT 39  -79.830941475131      1.421E-14 4.867E-07 0.000E+00
 ETOT 40  -79.830941475131      2.842E-14 7.640E-07 0.000E+00
 ETOT 41  -79.830941475131      0.000E+00 3.087E-07 0.000E+00
 ETOT 42  -79.830941475131      0.000E+00 4.786E-07 0.000E+00
 ETOT 43  -79.830941475131     -2.842E-14 1.958E-07 0.000E+00
 ETOT 44  -79.830941475131      0.000E+00 3.000E-07 0.000E+00
 ETOT 45  -79.830941475131      0.000E+00 1.242E-07 0.000E+00
 ETOT 46  -79.830941475131      0.000E+00 1.881E-07 0.000E+00
 ETOT 47  -79.830941475131      1.421E-14 7.880E-08 0.000E+00
 ETOT 48  -79.830941475131     -1.421E-14 1.180E-07 0.000E+00
 ETOT 49  -79.830941475131      4.263E-14 5.000E-08 0.000E+00
 ETOT 50  -79.830941475131      0.000E+00 7.407E-08 0.000E+00
 ETOT 51  -79.830941475131      0.000E+00 3.173E-08 0.000E+00
 ETOT 52  -79.830941475131     -1.421E-14 4.651E-08 0.000E+00
 ETOT 53  -79.830941475131     -2.842E-14 2.013E-08 0.000E+00
 ETOT 54  -79.830941475131      0.000E+00 2.922E-08 0.000E+00
 ETOT 55  -79.830941475131      2.842E-14 1.278E-08 0.000E+00
 ETOT 56  -79.830941475131     -1.421E-14 1.836E-08 0.000E+00
 ETOT 57  -79.830941475131      1.421E-14 8.107E-09 0.000E+00
 ETOT 58  -79.830941475131     -1.421E-14 1.155E-08 0.000E+00
 ETOT 59  -79.830941475131      1.421E-14 5.144E-09 0.000E+00
 ETOT 60  -79.830941475131      0.000E+00 7.262E-09 0.000E+00
 ETOT 61  -79.830941475131      2.842E-14 3.264E-09 0.000E+00
[...]
 ETOT  164  -79.830941475131     -1.421E-14 3.139E-19 0.000E+00
 ETOT  165  -79.830941475131      2.842E-14 1.593E-19 0.000E+00
 ETOT  166  -79.830941475131      0.000E+00 1.987E-19 0.000E+00
 ETOT  167  -79.830941475131      0.000E+00 1.008E-19 0.000E+00
 ETOT  168  -79.830941475131     -1.421E-14 1.258E-19 0.000E+00
 ETOT  169  -79.830941475131      1.421E-14 6.383E-20 0.000E+00
 ETOT  170  -79.830941475131     -1.421E-14 7.964E-20 0.000E+00
 ETOT  171  -79.830941475131      1.421E-14 4.040E-20 0.000E+00
 ETOT  172  -79.830941475131     -2.842E-14 5.042E-20 0.000E+00
 ETOT  173  -79.830941475131      2.842E-14 2.558E-20 0.000E+00
 ETOT  174  -79.830941475131      0.000E+00 3.192E-20 0.000E+00
 ETOT  175  -79.830941475131      0.000E+00 1.619E-20 0.000E+00
 ETOT  176  -79.830941475131      0.000E+00 2.021E-20 0.000E+00
 ETOT  177  -79.830941475131      1.421E-14 1.025E-20 0.000E+00
 ETOT  178  -79.830941475131     -1.421E-14 9.913E-21 0.000E+00

 At SCF step  178   max residual=  9.91E-21 < tolwfr=  1.00E-20 =>converged.

 ----iterations are completed or convergence reached----

 dfpt_looppert: DFPT cycle converged with prtwf=-1. Will skip output of the 1st-order WFK file.
 dfpt_looppert : ek2=    1.2471738443E+02
          f-sum rule ratio=    1.1983262432E+00
 prteigrs : about to open file /scratch/users/j/a/jabreu/flow_simple_remain_atoms/flow/w180/t1/tmpdata/tmp_1WF1_EIG
 Expectation of eigenvalue derivatives (hartree) for nkpt=   1  k points:
  (in case of degenerate eigenvalues, averaged derivative)
 kpt#   1, nband= 41, wtk=  1.00000, kpt=  0.0000  0.0000  0.0000 (reduced coord)
   0.00000    0.00000   -0.00000   -0.00000   -0.00000   -0.00000    0.00000    0.00000
   0.00000    0.00000    0.00000    0.00000   -0.00000    0.00000    0.00000    0.00000
   0.00000    0.00000    0.00000    0.00000   -0.00000    0.00000    0.00000    0.00000
   0.00000   -0.00000   -0.00000   -0.00000   -0.00000   -0.00000   -0.00000   -0.00000
  -0.00000   -0.00000   -0.00000   -0.00000    0.00000    0.00000   -0.00000   -0.00000
  -0.00004

 Eight components of 2nd-order total energy (hartree) are
 1,2,3: 0th-order hamiltonian combined with 1st-order wavefunctions
     kin0=   1.61102398E+02 eigvalue=   1.07309833E-01  local=  -8.57976695E+01
 4,5,6: 1st-order hamiltonian combined with 1st and 0th-order wfs
     kin1=  -1.49452115E+02  Hartree=   0.00000000E+00     xc=   0.00000000E+00
 7,8,9: eventually, occupation + non-local contributions
    edocc=   9.29654011E+00     enl0=  -4.87763746E+00   enl1=  -1.02097682E+01
 1-9 gives the relaxation energy (to be shifted if some occ is /=2.0)
   erelax=  -7.98309415E+01
  No Ewald or frozen-wf contrib.: the relaxation energy is the total one
 2DEtotal=   -0.7983094148E+02 Ha. Also 2DEtotal=   -0.217231039238E+04 eV
    (  non-var. 2DEtotal :   -7.9830941475E+01 Ha)

 CALCULATION OF EFFECTIVE MASSES
 NOTE : Additional infos (eff. mass eigenvalues, eigenvectors and, if degenerate, average mass) are available in stdout.

 COMMENTS:
 - At k-point ( 0.000, 0.000, 0.000), bands    31 through    32
   are DEGENERATE (effective mass tensor is therefore not defined).
   See Section IIIB Eqs. (67)-(70) and Appendix E of PRB 93 205147 (2016).
 - Angular average effective mass for Frohlich model is to be averaged over degenerate bands. See later.
 - Associated theta integrals calculated with ntheta=   1000 points.

 K-point ( 0.000, 0.000, 0.000) | band =    31
 Transport equivalent effective mass tensor:
             -2.1979798892             -1.8922275506              4.2109746512
             -1.8922275506             -2.7700385058              4.8953637717
              4.2109746512              4.8953637717            -11.4643479981
 Transport equivalent effective mass tensor eigenvalues:
            -15.2918254389             -0.5702870866             -0.5702538677
 Angular average effective mass 1/(<1/m>)=  -0.6507903625
 Angular average effective mass for Frohlich model (<m**0.5>)**2=  -0.8762040382
 Effective masses along directions: (cart. coord. / red. coord. -> eff. mass)
    1:   1.000000  0.000000  0.000000 /   0.989019 -0.147786  0.000000 ->  -0.4173752542
    2:   0.000000  1.000000  0.000000 /   0.000000  1.000000  0.000000 ->  -0.4263574015
    3:   0.000000  0.000000  1.000000 /  -0.511232 -0.511232  0.690857 ->  -2.2460827060
    4:   0.577350  0.577350  0.577350 /  -0.066228 -0.172426  0.982794 ->  -0.6414432774
    5:   0.000000  0.707107  0.707107 /  -0.593765 -0.060130  0.802389 ->  -0.4405280594
    6:   0.707107  0.000000  0.707107 /  -0.051517 -0.642564  0.764499 ->  -0.4334956034
    7:   0.707107  0.707107  0.000000 /   0.765952  0.642898  0.000000 ->  -0.8070735747

 K-point ( 0.000, 0.000, 0.000) | band =    32
 Transport equivalent effective mass tensor:
            -50.7163106452            -33.0324014246             73.5136894928
            -33.0324014246            -60.6948909446             85.4521672822
             73.5136894928             85.4521672822           -212.4717513956
 Transport equivalent effective mass tensor eigenvalues:
           -279.2861851241            -22.2987359538            -22.2980319075
 Angular average effective mass 1/(<1/m>)=  -2.4922702541
 Angular average effective mass for Frohlich model (<m**0.5>)**2=  -4.2157270005
 Effective masses along directions: (cart. coord. / red. coord. -> eff. mass)
    1:   1.000000  0.000000  0.000000 /   0.989019 -0.147786  0.000000 ->  -8.1708010674
    2:   0.000000  1.000000  0.000000 /   0.000000  1.000000  0.000000 -> -13.9317125200
    3:   0.000000  0.000000  1.000000 /  -0.511232 -0.511232  0.690857 ->  -2.3108545456
    4:   0.577350  0.577350  0.577350 /  -0.066228 -0.172426  0.982794 ->  -0.8128374318
    5:   0.000000  0.707107  0.707107 /  -0.593765 -0.060130  0.802389 ->  -4.0946948218
    6:   0.707107  0.000000  0.707107 /  -0.051517 -0.642564  0.764499 ->  -7.3102974479
    7:   0.707107  0.707107  0.000000 /   0.765952  0.642898  0.000000 ->  -1.1189100760

 Angular average effective mass for Frohlich model, averaged over degenerate bands.
 Value of     (<<m**0.5>>)**2 =     2.233951E+00
 Absolute Value of <<m**0.5>> =     1.494641E+00

 K-point ( 0.000, 0.000, 0.000) | band =    33
 Effective mass tensor:
              0.4844963499             -0.0201176330              0.0447689666
             -0.0201176330              0.4784158392              0.0520429683
              0.0447689666              0.0520429683              0.3859878424
 Effective mass tensor eigenvalues:
              0.3452957149              0.5018021583              0.5018021584
 Angular average effective mass 1/(<1/m>)=   0.4359386113
 Angular average effective mass for Frohlich model (<m**0.5>)**2=   0.4402597523
 Effective masses along directions: (cart. coord. / red. coord. -> eff. mass)
    1:   1.000000  0.000000  0.000000 /   0.989019 -0.147786  0.000000 ->   0.4778527497
    2:   0.000000  1.000000  0.000000 /   0.000000  1.000000  0.000000 ->   0.4699717345
    3:   0.000000  0.000000  1.000000 /  -0.511232 -0.511232  0.690857 ->   0.3757674382
    4:   0.577350  0.577350  0.577350 /  -0.066228 -0.172426  0.982794 ->   0.5002963535
    5:   0.000000  0.707107  0.707107 /  -0.593765 -0.060130  0.802389 ->   0.4775214877
    6:   0.707107  0.000000  0.707107 /  -0.051517 -0.642564  0.764499 ->   0.4720140579
    7:   0.707107  0.707107  0.000000 /   0.765952  0.642898  0.000000 ->   0.4491663191

 END OF EFFECTIVE MASSES SECTION

 ---- first-order wavefunction calculations are completed ----

 Total localisation tensor (bohr^2) in cartesian coordinates
  WARNING : still subject to testing - especially symmetries.
      direction              matrix element
   alpha     beta       real part   imaginary part
     1        1       0.9969168240    0.0000000000
     1        2      -0.1440787652    0.0000000000
     1        3      -0.9125266168    0.0000000000
     2        1      -0.1440787652    0.0000000000
     2        2       0.9533816998    0.0000000000
     2        3      -1.0608085325    0.0000000000
     3        1      -0.9125266168    0.0000000000
     3        2      -1.0608085325    0.0000000000
     3        3       6.1203709192    0.0000000000

 respfn : d/dk was computed, but no 2DTE, so no DDB output.

== END DATASET(S) ==============================================================

 -outvars: echo values of variables after computation  --------
            acell      1.0000000000E+00  1.0000000000E+00  1.0000000000E+00 Bohr
              amu      2.29897680E+01  1.38905500E+02  1.59994000E+01
             ecut      5.20000000E+01 Hartree
           etotal     -7.9830941475E+01
            fcart      0.0000000000E+00  0.0000000000E+00  0.0000000000E+00
                       0.0000000000E+00  0.0000000000E+00  0.0000000000E+00
                       0.0000000000E+00  0.0000000000E+00  0.0000000000E+00
                       0.0000000000E+00  0.0000000000E+00  0.0000000000E+00
                       0.0000000000E+00  0.0000000000E+00  0.0000000000E+00
                       0.0000000000E+00  0.0000000000E+00  0.0000000000E+00
                       0.0000000000E+00  0.0000000000E+00  0.0000000000E+00
                       0.0000000000E+00  0.0000000000E+00  0.0000000000E+00
-          fftalg         512
           irdden           1
           irdwfk           1
           istwfk        1
              ixc     -116133
           kptopt           0
P           mkmem           1
P          mkqmem           1
P          mk1mem           1
            natom           8
            nband          41
           nbdbuf           4
            ngfft          90      90      90
             nkpt           1
            nstep        2000
             nsym          16
           ntypat           3
              occ      2.000000  2.000000  2.000000  2.000000  2.000000  2.000000
                       2.000000  2.000000  2.000000  2.000000  2.000000  2.000000
                       2.000000  2.000000  2.000000  2.000000  2.000000  2.000000
                       2.000000  2.000000  2.000000  2.000000  2.000000  2.000000
                       2.000000  2.000000  2.000000  2.000000  2.000000  2.000000
                       2.000000  2.000000  0.000000  0.000000  0.000000  0.000000
                       0.000000  0.000000  0.000000  0.000000  0.000000
        optdriver           1
            prtwf          -1
            rfdir           1       1       1
           rfelfd           2
            rprim      8.3964483270E+00  0.0000000000E+00 -9.2376667948E+00
                      -1.2546577297E+00  8.3021791410E+00 -9.2376667948E+00
                       0.0000000000E+00  0.0000000000E+00  1.2483382247E+01
          spgroup         141
           strten      0.0000000000E+00  0.0000000000E+00  0.0000000000E+00
                       0.0000000000E+00  0.0000000000E+00  0.0000000000E+00
           symrel      1  0  0   0  1  0   0  0  1      -1  0  0   0 -1  0   0  0 -1
                       0  0  1  -1 -1 -1   1  0  0       0  0 -1   1  1  1  -1  0  0
                       0  1  0   1  0  0  -1 -1 -1       0 -1  0  -1  0  0   1  1  1
                      -1 -1 -1   0  0  1   0  1  0       1  1  1   0  0 -1   0 -1  0
                       0  1  0   1  0  0   0  0  1       0 -1  0  -1  0  0   0  0 -1
                       0  0  1  -1 -1 -1   0  1  0       0  0 -1   1  1  1   0 -1  0
                       1  0  0   0  1  0  -1 -1 -1      -1  0  0   0 -1  0   1  1  1
                      -1 -1 -1   0  0  1   1  0  0       1  1  1   0  0 -1  -1  0  0
            tnons      0.0000000  0.0000000  0.0000000    -0.2500000  0.2500000  0.5000000
                      -0.2500000  0.2500000  0.5000000    -0.0000000  0.0000000  0.0000000
                      -0.0000000 -0.0000000 -0.0000000    -0.2500000  0.2500000  0.5000000
                      -0.2500000  0.2500000  0.5000000     0.0000000 -0.0000000 -0.0000000
                      -0.2500000  0.2500000  0.5000000    -0.0000000 -0.0000000 -0.0000000
                      -0.0000000 -0.0000000 -0.0000000    -0.2500000  0.2500000  0.5000000
                      -0.2500000  0.2500000  0.5000000     0.0000000 -0.0000000  0.0000000
                       0.0000000 -0.0000000  0.0000000    -0.2500000  0.2500000  0.5000000
           tolwfr      1.00000000E-20
            typat      1  1  2  2  3  3  3  3
           useylm           1
           xangst      6.1285006558E-01  3.2949929873E+00 -1.5854020428E+00
                       1.8896364063E+00  2.1966619915E+00 -4.8883627284E+00
                       3.1664227470E+00  1.0983309958E+00 -1.5854020428E+00
                       0.0000000000E+00  0.0000000000E+00  0.0000000000E+00
                       2.3551149145E+00  1.5520295635E-01  5.1339694117E-01
                       8.1130783250E-01  9.4312803941E-01 -2.0987989840E+00
                       2.9679649801E+00  3.4501959436E+00 -7.6779264727E+00
                       3.9777305795E+00  2.0414590352E+00 -3.6842010268E+00
            xcart      1.1581187845E+00  6.2266343557E+00 -2.9959756714E+00
                       3.5708952986E+00  4.1510895705E+00 -9.2376667948E+00
                       5.9836718128E+00  2.0755447852E+00 -2.9959756714E+00
                       0.0000000000E+00  0.0000000000E+00  0.0000000000E+00
                       4.4505221999E+00  2.9329108251E-01  9.7017961628E-01
                       1.5331496129E+00  1.7822537027E+00 -3.9661552877E+00
                       5.6086409844E+00  6.5199254383E+00 -1.4509178302E+01
                       7.5168214257E+00  3.8577984880E+00 -6.9621309591E+00
             xred      2.5000000000E-01  7.5000000000E-01  5.0000000000E-01
                       5.0000000000E-01  5.0000000000E-01  0.0000000000E+00
                       7.5000000000E-01  2.5000000000E-01  5.0000000000E-01
                       0.0000000000E+00  0.0000000000E+00  0.0000000000E+00
                       5.3532700000E-01  3.5327000000E-02  5.0000000000E-01
                       2.1467300000E-01  2.1467300000E-01  2.7755575616E-17
                       7.8532700000E-01  7.8532700000E-01  0.0000000000E+00
                       9.6467300000E-01  4.6467300000E-01  5.0000000000E-01
            znucl       11.00000   57.00000    8.00000

- Timing analysis has been suppressed with timopt=0

 Suggested references for the acknowledgment of ABINIT usage.

 Calculation completed.
.Delivered   2 WARNINGs and  11 COMMENTs to log file.