.Version 9.7.2 of ABINIT

 ABINIT is a project of the Universite Catholique de Louvain,
 Corning Inc. and other collaborators, see ~abinit/doc/developers/contributors.txt .
 acknowledgments of the ABINIT effort.

.Starting date : Wed  1 Dec 2021.
- ( at 21h17 )

- input  file    -> /scratch/users/j/a/jabreu/flow_simple_remain_atoms/flow/w165/t1/run.abi
- output file    -> /scratch/users/j/a/jabreu/flow_simple_remain_atoms/flow/w165/t1/run.abo
- root for input  files -> /scratch/users/j/a/jabreu/flow_simple_remain_atoms/flow/w165/t1/indata/in
- root for output files -> /scratch/users/j/a/jabreu/flow_simple_remain_atoms/flow/w165/t1/outdata/out

 Symmetries : space group P-4 2_1 m (#113); Bravais tP (primitive tetrag.)
     intxc =       0      iscf =       7    lmnmax =      18     lnmax =       6
     mgfft =      90  mpssoang =       3    mqgrid =    4038     natom =       8
  nloc_mem =       1    nspden =       1   nspinor =       1    nsppol =       1
      nsym =       8    n1xccc =    2501    ntypat =       2    occopt =       1
   xclevel =       2
-    mband =          67        mffmem =           1         mkmem =           2
-   mkqmem =           2        mk1mem =           2           mpw =       19759
      nfft =      388800          nkpt =           2
  Rough estimation (10% accuracy) of disk space for files :

------------- Echo of variables that govern the present computation ------------
-
- outvars: echo of selected default values
-   iomode0 =  0 , fftalg0 =512 , wfoptalg0 =  0
-
- outvars: echo of global parameters not present in the input file
-  max_nthreads =    0
-
 -outvars: echo values of preprocessed input variables --------
            acell      1.0000000000E+00  1.0000000000E+00  1.0000000000E+00 Bohr
              amu      1.37327000E+02  7.89600000E+01
             ecut      4.30000000E+01 Hartree
-          fftalg         512
           irdden           1
           irdwfk           1
           istwfk        1    0
              ixc     -116133
              kpt      0.00000000E+00  0.00000000E+00  0.00000000E+00
                       0.00000000E+00  0.00000000E+00  1.52173913E-01
           kptopt           0
P           mkmem           2
P          mkqmem           2
P          mk1mem           2
            natom           8
            nband          67
           nbdbuf           4
            ngfft          90      90      48
             nkpt           2
            nstep        2000
             nsym           8
           ntypat           2
              occ      2.000000  2.000000  2.000000  2.000000  2.000000  2.000000
                       2.000000  2.000000  2.000000  2.000000  2.000000  2.000000
                       2.000000  2.000000  2.000000  2.000000  2.000000  2.000000
                       2.000000  2.000000  2.000000  2.000000  2.000000  2.000000
                       2.000000  2.000000  2.000000  2.000000  2.000000  2.000000
                       2.000000  2.000000  2.000000  2.000000  2.000000  2.000000
                       2.000000  2.000000  2.000000  2.000000  2.000000  2.000000
                       2.000000  2.000000  2.000000  2.000000  2.000000  2.000000
                       2.000000  2.000000  2.000000  2.000000  2.000000  2.000000
                       2.000000  2.000000  2.000000  2.000000  0.000000  0.000000
                       0.000000  0.000000  0.000000  0.000000  0.000000  0.000000
                       0.000000
        optdriver           1
            prtwf          -1
            rfdir           1       1       1
           rfelfd           2
            rprim      1.3676181742E+01  0.0000000000E+00  0.0000000000E+00
                       0.0000000000E+00  1.3676181742E+01  0.0000000000E+00
                       0.0000000000E+00  0.0000000000E+00  7.8294709497E+00
          spgroup         113
           symrel      1  0  0   0  1  0   0  0  1      -1  0  0   0  1  0   0  0 -1
                      -1  0  0   0 -1  0   0  0  1       1  0  0   0 -1  0   0  0 -1
                       0  1  0   1  0  0   0  0  1       0 -1  0   1  0  0   0  0 -1
                       0 -1  0  -1  0  0   0  0  1       0  1  0  -1  0  0   0  0 -1
            tnons      0.0000000  0.0000000  0.0000000     0.5000000  0.5000000  0.0000000
                       0.0000000  0.0000000  0.0000000     0.5000000  0.5000000  0.0000000
                       0.5000000  0.5000000  0.0000000     0.0000000  0.0000000  0.0000000
                       0.5000000  0.5000000  0.0000000     0.0000000  0.0000000  0.0000000
           tolwfr      1.00000000E-20
            typat      1  1  2  2  2  2  2  2
           useylm           1
              wtk        0.50000    0.50000
           xangst      3.6185618392E+00  3.6185618392E+00  0.0000000000E+00
                       0.0000000000E+00  0.0000000000E+00  0.0000000000E+00
                       5.8421246666E+00  2.2235628274E+00  2.0465847142E+00
                       2.2235628274E+00  1.3949990117E+00  2.0965928677E+00
                       0.0000000000E+00  3.6185618392E+00  6.8341299896E-01
                       3.6185618392E+00  0.0000000000E+00  3.4597645829E+00
                       1.3949990117E+00  5.0135608509E+00  2.0465847142E+00
                       5.0135608509E+00  5.8421246666E+00  2.0965928677E+00
            xcart      6.8380908710E+00  6.8380908710E+00  0.0000000000E+00
                       0.0000000000E+00  0.0000000000E+00  0.0000000000E+00
                       1.1040015654E+01  4.2019247831E+00  3.8674846177E+00
                       4.2019247831E+00  2.6361660878E+00  3.9619863320E+00
                       0.0000000000E+00  6.8380908710E+00  1.2914634037E+00
                       6.8380908710E+00  0.0000000000E+00  6.5380075460E+00
                       2.6361660878E+00  9.4742569588E+00  3.8674846177E+00
                       9.4742569588E+00  1.1040015654E+01  3.9619863320E+00
             xred      5.0000000000E-01  5.0000000000E-01  0.0000000000E+00
                       0.0000000000E+00  0.0000000000E+00  0.0000000000E+00
                       8.0724400000E-01  3.0724400000E-01  4.9396500000E-01
                       3.0724400000E-01  1.9275600000E-01  5.0603500000E-01
                       0.0000000000E+00  5.0000000000E-01  1.6494900000E-01
                       5.0000000000E-01  0.0000000000E+00  8.3505100000E-01
                       1.9275600000E-01  6.9275600000E-01  4.9396500000E-01
                       6.9275600000E-01  8.0724400000E-01  5.0603500000E-01
            znucl       56.00000   34.00000

 chkinp: Checking input parameters for consistency.

== DATASET  1 ==================================================================
-   mpi_nproc: 1, omp_nthreads: -1 (-1 if OMP is not activated)

--- !DatasetInfo
iteration_state: {dtset: 1, }
dimensions: {natom: 8, nkpt: 2, mband: 67, nsppol: 1, nspinor: 1, nspden: 1, mpw: 19759, }
cutoff_energies: {ecut:  43.0, pawecutdg:  -1.0, }
electrons: {nelect:   1.16000000E+02, charge:   0.00000000E+00, occopt:   1.00000000E+00, tsmear:   1.00000000E-02, }
meta: {optdriver: 1, rfelfd: 2, }
...

 Real(R)+Recip(G) space primitive vectors, cartesian coordinates (Bohr,Bohr^-1):
 R(1)= 13.6761817  0.0000000  0.0000000  G(1)=  0.0731198  0.0000000  0.0000000
 R(2)=  0.0000000 13.6761817  0.0000000  G(2)=  0.0000000  0.0731198  0.0000000
 R(3)=  0.0000000  0.0000000  7.8294709  G(3)=  0.0000000  0.0000000  0.1277226
 Unit cell volume ucvol=  1.4644082E+03 bohr^3
 Angles (23,13,12)=  9.00000000E+01  9.00000000E+01  9.00000000E+01 degrees

 getcut: wavevector=  0.0000  0.0000  0.0000  ngfft=  90  90  48
         ecut(hartree)=     43.000   => boxcut(ratio)=   2.07687

--- Pseudopotential description ------------------------------------------------
- pspini: atom type   1  psp file is /scratch/users/j/a/jabreu/pseudos/PBEsol/Ba.psp8
- pspatm: opening atomic psp file    /scratch/users/j/a/jabreu/pseudos/PBEsol/Ba.psp8
- Ba    ONCVPSP-3.3.0  r_core=   2.15444   1.91218   2.15444
- 56.00000  10.00000    180112                znucl, zion, pspdat
    8 -116133    2    4       600   0.00000   pspcod,pspxc,lmax,lloc,mmax,r2well
    5.99000000000000    5.00000000000000    0.00000000000000   rchrg,fchrg,qchrg
     nproj     2     2     2
     extension_switch     1
  pspatm : epsatm=   26.37418029
         --- l  ekb(1:nproj) -->
             0    6.652372    0.677024
             1    5.027722    0.408462
             2    2.543237    0.416854
 pspatm: atomic psp has been read  and splines computed

- pspini: atom type   2  psp file is /scratch/users/j/a/jabreu/pseudos/PBEsol/Se.psp8
- pspatm: opening atomic psp file    /scratch/users/j/a/jabreu/pseudos/PBEsol/Se.psp8
- Se    ONCVPSP-3.3.0  r_core=   1.81943   1.50330   1.90835
- 34.00000  16.00000    180112                znucl, zion, pspdat
    8 -116133    2    4       600   0.00000   pspcod,pspxc,lmax,lloc,mmax,r2well
    5.99000000000000    5.00000000000000    0.00000000000000   rchrg,fchrg,qchrg
     nproj     2     2     2
     extension_switch     1
  pspatm : epsatm=   29.17862020
         --- l  ekb(1:nproj) -->
             0    8.973804    1.019550
             1    6.849857    1.297308
             2   -9.203962   -3.731027
 pspatm: atomic psp has been read  and splines computed

   2.64271295E+04                                ecore*ucvol(ha*bohr**3)

 ==>  initialize data related to q vector <==

 The list of irreducible perturbations for this q vector is:
    1)    idir= 1    ipert=   9
    2)    idir= 2    ipert=   9
    3)    idir= 3    ipert=   9

 Perturbation wavevector (in red.coord.)   0.000000  0.000000  0.000000
 Perturbation : derivative vs k along direction   1

 dfpt_looppert : COMMENT -
  In a d/dk calculation, iscf is set to -3 automatically.
 The set of symmetries contains only one element for this perturbation.
 symkpt : not enough symmetry to change the number of k points.

 Initialisation of the first-order wave-functions :
  ireadwf=   0

--- !BeginCycle
iteration_state: {dtset: 1, }
solver: {iscf: 7, nstep: 2000, nline: 4, wfoptalg: 0, }
tolerances: {tolwfr: 1.00E-20, }
...

     iter   2DEtotal(Ha)        deltaE(Ha) residm    vres2
-ETOT  1  -58.785898518107     -5.879E+01 7.856E-02 0.000E+00
 ETOT  2  -58.836042440165     -5.014E-02 1.909E-03 0.000E+00
 ETOT  3  -58.836139599489     -9.716E-05 6.475E-05 0.000E+00
 ETOT  4  -58.836140254066     -6.546E-07 3.667E-06 0.000E+00
 ETOT  5  -58.836140259715     -5.648E-09 1.532E-07 0.000E+00
 ETOT  6  -58.836140259768     -5.360E-11 8.329E-09 0.000E+00
 ETOT  7  -58.836140259769     -5.542E-13 3.963E-10 0.000E+00
 ETOT  8  -58.836140259769      7.105E-15 2.158E-11 0.000E+00
 ETOT  9  -58.836140259769      2.842E-14 1.072E-12 0.000E+00
 ETOT 10  -58.836140259769     -2.842E-14 5.832E-14 0.000E+00
 ETOT 11  -58.836140259769     -1.421E-14 2.949E-15 0.000E+00
 ETOT 12  -58.836140259769      7.105E-15 1.604E-16 0.000E+00
 ETOT 13  -58.836140259769     -1.421E-14 8.171E-18 0.000E+00
 ETOT 14  -58.836140259769      0.000E+00 7.413E-19 0.000E+00
 ETOT 15  -58.836140259769      7.105E-15 4.094E-20 0.000E+00
 ETOT 16  -58.836140259769      7.105E-15 9.958E-21 0.000E+00

[...]
  -0.00000   -0.00000   -0.00000    0.00000   -0.00000   -0.00000    0.00000    0.00000
   0.00000    0.00000    0.00000    0.00000   -0.00000   -0.00000   -0.00000    0.00000
  -0.00000   -0.00000    0.00000    0.00000   -0.00000   -0.00000   -0.00000   -0.00000
  -0.00000    0.00000    0.00000
 prteigrs : prtvol=0 or 1, do not print more k-points.

 Eight components of 2nd-order total energy (hartree) are
 1,2,3: 0th-order hamiltonian combined with 1st-order wavefunctions
     kin0=   6.46936377E+01 eigvalue=   8.49184055E+00  local=  -2.78380742E+01
 4,5,6: 1st-order hamiltonian combined with 1st and 0th-order wfs
     kin1=  -5.27667823E+01  Hartree=   0.00000000E+00     xc=   0.00000000E+00
 7,8,9: eventually, occupation + non-local contributions
    edocc=   6.79818285E+00     enl0=   6.69055336E+00   enl1=  -6.49054982E+01
 1-9 gives the relaxation energy (to be shifted if some occ is /=2.0)
   erelax=  -5.88361403E+01
  No Ewald or frozen-wf contrib.: the relaxation energy is the total one
 2DEtotal=   -0.5883614026E+02 Ha. Also 2DEtotal=   -0.160101279745E+04 eV
    (  non-var. 2DEtotal :   -5.8836140260E+01 Ha)

 Perturbation wavevector (in red.coord.)   0.000000  0.000000  0.000000
 Perturbation : derivative vs k along direction   2
 The set of symmetries contains only one element for this perturbation.
 symkpt : not enough symmetry to change the number of k points.

[...]

 Perturbation wavevector (in red.coord.)   0.000000  0.000000  0.000000
 Perturbation : derivative vs k along direction   3
 The set of symmetries contains only one element for this perturbation.
 symkpt : not enough symmetry to change the number of k points.

 Initialisation of the first-order wave-functions :
  ireadwf=   0

--- !BeginCycle
iteration_state: {dtset: 1, }
solver: {iscf: 7, nstep: 2000, nline: 4, wfoptalg: 0, }
tolerances: {tolwfr: 1.00E-20, }
...

     iter   2DEtotal(Ha)        deltaE(Ha) residm    vres2
-ETOT  1  -180.72433430908     -1.807E+02 1.385E-01 0.000E+00
 ETOT  2  -180.87111550050     -1.468E-01 3.672E-03 0.000E+00
 ETOT  3  -180.87132463618     -2.091E-04 5.256E-05 0.000E+00
 ETOT  4  -180.87132581492     -1.179E-06 3.950E-06 0.000E+00
 ETOT  5  -180.87132582420     -9.276E-09 1.816E-07 0.000E+00
 ETOT  6  -180.87132582428     -8.453E-11 1.101E-08 0.000E+00
 ETOT  7  -180.87132582428     -7.958E-13 5.021E-10 0.000E+00
 ETOT  8  -180.87132582428      5.684E-14 5.188E-11 0.000E+00
 ETOT  9  -180.87132582428     -1.137E-13 1.879E-12 0.000E+00
 ETOT 10  -180.87132582428     -8.527E-14 2.902E-13 0.000E+00
 ETOT 11  -180.87132582428      1.137E-13 1.001E-14 0.000E+00
 ETOT 12  -180.87132582428     -2.842E-14 1.731E-15 0.000E+00
 ETOT 13  -180.87132582428      2.842E-14 6.286E-17 0.000E+00
 ETOT 14  -180.87132582428     -2.842E-14 1.065E-17 0.000E+00
 ETOT 15  -180.87132582428      0.000E+00 4.181E-19 0.000E+00
 ETOT 16  -180.87132582428     -5.684E-14 6.737E-20 0.000E+00
 ETOT 17  -180.87132582428      5.684E-14 9.967E-21 0.000E+00

 At SCF step   17   max residual=  9.97E-21 < tolwfr=  1.00E-20 =>converged.

 ----iterations are completed or convergence reached----

 dfpt_looppert: DFPT cycle converged with prtwf=-1. Will skip output of the 1st-order WFK file.
 dfpt_looppert : ek2=    1.4941110838E+02
          f-sum rule ratio=    1.0957495065E+00
 prteigrs : about to open file /scratch/users/j/a/jabreu/flow_simple_remain_atoms/flow/w165/t1/tmpdata/tmp_1WF1_EIG
 Expectation of eigenvalue derivatives (hartree) for nkpt=   2  k points:
  (in case of degenerate eigenvalues, averaged derivative)
 kpt#   1, nband= 67, wtk=  0.50000, kpt=  0.0000  0.0000  0.0000 (reduced coord)
   0.00000   -0.00000    0.00000    0.00000    0.00000    0.00000    0.00000    0.00000
  -0.00000   -0.00000    0.00000    0.00000    0.00000    0.00000    0.00000   -0.00000
  -0.00000   -0.00000    0.00000    0.00000    0.00000   -0.00000   -0.00000    0.00000
   0.00000   -0.00000   -0.00000    0.00000    0.00000    0.00000   -0.00000   -0.00000
  -0.00000    0.00000   -0.00000   -0.00000   -0.00000   -0.00000    0.00000   -0.00000
   0.00000    0.00000   -0.00000    0.00000    0.00000    0.00000   -0.00000   -0.00000
   0.00000   -0.00000   -0.00000   -0.00000    0.00000    0.00000   -0.00000   -0.00000
   0.00000    0.00000    0.00000    0.00000    0.00000    0.00000   -0.00000   -0.00000
   0.00000    0.00000   -0.00000
 prteigrs : prtvol=0 or 1, do not print more k-points.

 Eight components of 2nd-order total energy (hartree) are
 1,2,3: 0th-order hamiltonian combined with 1st-order wavefunctions
     kin0=   2.04945698E+02 eigvalue=   2.48186278E+01  local=  -8.91889587E+01
 4,5,6: 1st-order hamiltonian combined with 1st and 0th-order wfs
     kin1=  -1.63717148E+02  Hartree=   0.00000000E+00     xc=   0.00000000E+00
 7,8,9: eventually, occupation + non-local contributions
    edocc=   2.05633299E+01     enl0=   1.97326293E+01   enl1=  -1.98025503E+02
 1-9 gives the relaxation energy (to be shifted if some occ is /=2.0)
   erelax=  -1.80871326E+02
  No Ewald or frozen-wf contrib.: the relaxation energy is the total one
 2DEtotal=   -0.1808713258E+03 Ha. Also 2DEtotal=   -0.492175907627E+04 eV
    (  non-var. 2DEtotal :   -1.8087132582E+02 Ha)

 CALCULATION OF EFFECTIVE MASSES
 NOTE : Additional infos (eff. mass eigenvalues, eigenvectors and, if degenerate, average mass) are available in stdout.

 COMMENTS:
 - At k-point ( 0.000, 0.000, 0.000), bands    57 through    58
   are DEGENERATE (effective mass tensor is therefore not defined).
   See Section IIIB Eqs. (67)-(70) and Appendix E of PRB 93 205147 (2016).
 - Angular average effective mass for Frohlich model is to be averaged over degenerate bands. See later.
 - Associated theta integrals calculated with ntheta=   1000 points.

 K-point ( 0.000, 0.000, 0.000) | band =    57
 Transport equivalent effective mass tensor:
             -0.3386038328             -0.0000005037              0.0000199460
             -0.0000005037             -0.3386041638             -0.0000000077
              0.0000199460             -0.0000000077             -0.9228861497
 Transport equivalent effective mass tensor eigenvalues:
             -0.9228861504             -0.3386045282             -0.3386034677
 Angular average effective mass 1/(<1/m>)=  -0.4290598488
 Angular average effective mass for Frohlich model (<m**0.5>)**2=  -0.4526891359
 Effective masses along directions: (cart. coord. / red. coord. -> eff. mass)
    1:   1.000000  0.000000  0.000000 /   1.000000  0.000000  0.000000 ->  -0.3352240879
    2:   0.000000  1.000000  0.000000 /   0.000000  1.000000  0.000000 ->  -0.3352241112
    3:   0.000000  0.000000  1.000000 /   0.000000  0.000000  1.000000 ->  -0.9225190726
    4:   0.577350  0.577350  0.577350 /   0.655439  0.655439  0.375232 ->  -0.4326885845
    5:   0.000000  0.707107  0.707107 /   0.000000  0.867846  0.496833 ->  -0.4917569833
    6:   0.707107  0.000000  0.707107 /   0.867846  0.000000  0.496833 ->  -0.4917406375
    7:   0.707107  0.707107  0.000000 /   0.707107  0.707107  0.000000 ->  -0.3419227644

 K-point ( 0.000, 0.000, 0.000) | band =    58
 Transport equivalent effective mass tensor:
             -2.5878319783              0.0000029902              0.0000000993
              0.0000029902             -2.5878232534              0.0000030290
              0.0000000993              0.0000030290             -0.9432221153
 Transport equivalent effective mass tensor eigenvalues:
             -2.5878329048             -2.5878223270             -0.9432221153
 Angular average effective mass 1/(<1/m>)=  -1.6063116713
 Angular average effective mass for Frohlich model (<m**0.5>)**2=  -1.7372576952
 Effective masses along directions: (cart. coord. / red. coord. -> eff. mass)
    1:   1.000000  0.000000  0.000000 /   1.000000  0.000000  0.000000 ->  -2.7565592352
    2:   0.000000  1.000000  0.000000 /   0.000000  1.000000  0.000000 ->  -2.7565535189
    3:   0.000000  0.000000  1.000000 /   0.000000  0.000000  1.000000 ->  -0.9225308490
    4:   0.577350  0.577350  0.577350 /   0.655439  0.655439  0.375232 ->  -1.5573081077
    5:   0.000000  0.707107  0.707107 /   0.000000  0.867846  0.496833 ->  -1.3823924111
    6:   0.707107  0.000000  0.707107 /   0.867846  0.000000  0.496833 ->  -1.3824026304
    7:   0.707107  0.707107  0.000000 /   0.707107  0.707107  0.000000 ->  -2.3740955779

 Angular average effective mass for Frohlich model, averaged over degenerate bands.
 Value of     (<<m**0.5>>)**2 =     9.908933E-01
 Absolute Value of <<m**0.5>> =     9.954362E-01

 K-point ( 0.000, 0.000, 0.152) | band =    59
 Effective mass tensor:
              0.3157184176             -0.0000038199              0.0000297949
             -0.0000038199              0.3157259537             -0.0000726460
              0.0000297949             -0.0000726460              0.4596063158
 Effective mass tensor eigenvalues:
              0.3157168201              0.3157275084              0.4596063586
 Angular average effective mass 1/(<1/m>)=   0.3525074473
 Angular average effective mass for Frohlich model (<m**0.5>)**2=   0.3556012141
 Effective masses along directions: (cart. coord. / red. coord. -> eff. mass)
    1:   1.000000  0.000000  0.000000 /   1.000000  0.000000  0.000000 ->   0.3157184157
    2:   0.000000  1.000000  0.000000 /   0.000000  1.000000  0.000000 ->   0.3157259421
    3:   0.000000  0.000000  1.000000 /   0.000000  0.000000  1.000000 ->   0.4596062963
    4:   0.577350  0.577350  0.577350 /   0.655439  0.655439  0.375232 ->   0.3524798157
    5:   0.000000  0.707107  0.707107 /   0.000000  0.867846  0.496833 ->   0.3742458687
    6:   0.707107  0.000000  0.707107 /   0.867846  0.000000  0.496833 ->   0.3743394800
    7:   0.707107  0.707107  0.000000 /   0.707107  0.707107  0.000000 ->   0.3157183637

 END OF EFFECTIVE MASSES SECTION

 ---- first-order wavefunction calculations are completed ----

 Total localisation tensor (bohr^2) in cartesian coordinates
  WARNING : still subject to testing - especially symmetries.
      direction              matrix element
   alpha     beta       real part   imaginary part
     1        1       1.4526406493    0.0000000000
     1        2       0.0000000000    0.0000000000
     1        3       0.0000000000    0.0000000000
     2        1       0.0000000000    0.0000000000
     2        2       1.4526521204    0.0000000000
     2        3       0.0000000000    0.0000000000
     3        1       0.0000000000    0.0000000000
     3        2       0.0000000000    0.0000000000
     3        3       1.3050260971    0.0000000000

 respfn : d/dk was computed, but no 2DTE, so no DDB output.

== END DATASET(S) ==============================================================

 -outvars: echo values of variables after computation  --------
            acell      1.0000000000E+00  1.0000000000E+00  1.0000000000E+00 Bohr
              amu      1.37327000E+02  7.89600000E+01
             ecut      4.30000000E+01 Hartree
           etotal     -1.8087132582E+02
            fcart      0.0000000000E+00  0.0000000000E+00  0.0000000000E+00
                       0.0000000000E+00  0.0000000000E+00  0.0000000000E+00
                       0.0000000000E+00  0.0000000000E+00  0.0000000000E+00
                       0.0000000000E+00  0.0000000000E+00  0.0000000000E+00
                       0.0000000000E+00  0.0000000000E+00  0.0000000000E+00
                       0.0000000000E+00  0.0000000000E+00  0.0000000000E+00
                       0.0000000000E+00  0.0000000000E+00  0.0000000000E+00
                       0.0000000000E+00  0.0000000000E+00  0.0000000000E+00
-          fftalg         512
           irdden           1
           irdwfk           1
           istwfk        1    0
              ixc     -116133
              kpt      0.00000000E+00  0.00000000E+00  0.00000000E+00
                       0.00000000E+00  0.00000000E+00  1.52173913E-01
           kptopt           0
P           mkmem           2
P          mkqmem           2
P          mk1mem           2
            natom           8
            nband          67
           nbdbuf           4
            ngfft          90      90      48
             nkpt           2
            nstep        2000
             nsym           8
           ntypat           2
              occ      2.000000  2.000000  2.000000  2.000000  2.000000  2.000000
                       2.000000  2.000000  2.000000  2.000000  2.000000  2.000000
                       2.000000  2.000000  2.000000  2.000000  2.000000  2.000000
                       2.000000  2.000000  2.000000  2.000000  2.000000  2.000000
                       2.000000  2.000000  2.000000  2.000000  2.000000  2.000000
                       2.000000  2.000000  2.000000  2.000000  2.000000  2.000000
                       2.000000  2.000000  2.000000  2.000000  2.000000  2.000000
                       2.000000  2.000000  2.000000  2.000000  2.000000  2.000000
                       2.000000  2.000000  2.000000  2.000000  2.000000  2.000000
                       2.000000  2.000000  2.000000  2.000000  0.000000  0.000000
                       0.000000  0.000000  0.000000  0.000000  0.000000  0.000000
                       0.000000
        optdriver           1
            prtwf          -1
            rfdir           1       1       1
           rfelfd           2
            rprim      1.3676181742E+01  0.0000000000E+00  0.0000000000E+00
                       0.0000000000E+00  1.3676181742E+01  0.0000000000E+00
                       0.0000000000E+00  0.0000000000E+00  7.8294709497E+00
          spgroup         113
           strten      0.0000000000E+00  0.0000000000E+00  0.0000000000E+00
                       0.0000000000E+00  0.0000000000E+00  0.0000000000E+00
           symrel      1  0  0   0  1  0   0  0  1      -1  0  0   0  1  0   0  0 -1
                      -1  0  0   0 -1  0   0  0  1       1  0  0   0 -1  0   0  0 -1
                       0  1  0   1  0  0   0  0  1       0 -1  0   1  0  0   0  0 -1
                       0 -1  0  -1  0  0   0  0  1       0  1  0  -1  0  0   0  0 -1
            tnons      0.0000000  0.0000000  0.0000000     0.5000000  0.5000000  0.0000000
                       0.0000000  0.0000000  0.0000000     0.5000000  0.5000000  0.0000000
                       0.5000000  0.5000000  0.0000000     0.0000000  0.0000000  0.0000000
                       0.5000000  0.5000000  0.0000000     0.0000000  0.0000000  0.0000000
           tolwfr      1.00000000E-20
            typat      1  1  2  2  2  2  2  2
           useylm           1
              wtk        0.50000    0.50000
           xangst      3.6185618392E+00  3.6185618392E+00  0.0000000000E+00
                       0.0000000000E+00  0.0000000000E+00  0.0000000000E+00
                       5.8421246666E+00  2.2235628274E+00  2.0465847142E+00
                       2.2235628274E+00  1.3949990117E+00  2.0965928677E+00
                       0.0000000000E+00  3.6185618392E+00  6.8341299896E-01
                       3.6185618392E+00  0.0000000000E+00  3.4597645829E+00
                       1.3949990117E+00  5.0135608509E+00  2.0465847142E+00
                       5.0135608509E+00  5.8421246666E+00  2.0965928677E+00
            xcart      6.8380908710E+00  6.8380908710E+00  0.0000000000E+00
                       0.0000000000E+00  0.0000000000E+00  0.0000000000E+00
                       1.1040015654E+01  4.2019247831E+00  3.8674846177E+00
                       4.2019247831E+00  2.6361660878E+00  3.9619863320E+00
                       0.0000000000E+00  6.8380908710E+00  1.2914634037E+00
                       6.8380908710E+00  0.0000000000E+00  6.5380075460E+00
                       2.6361660878E+00  9.4742569588E+00  3.8674846177E+00
                       9.4742569588E+00  1.1040015654E+01  3.9619863320E+00
             xred      5.0000000000E-01  5.0000000000E-01  0.0000000000E+00
                       0.0000000000E+00  0.0000000000E+00  0.0000000000E+00
                       8.0724400000E-01  3.0724400000E-01  4.9396500000E-01
                       3.0724400000E-01  1.9275600000E-01  5.0603500000E-01
                       0.0000000000E+00  5.0000000000E-01  1.6494900000E-01
                       5.0000000000E-01  0.0000000000E+00  8.3505100000E-01
                       1.9275600000E-01  6.9275600000E-01  4.9396500000E-01
                       6.9275600000E-01  8.0724400000E-01  5.0603500000E-01
            znucl       56.00000   34.00000

- Timing analysis has been suppressed with timopt=0

 Suggested references for the acknowledgment of ABINIT usage.

 Calculation completed.
.Delivered   2 WARNINGs and   5 COMMENTs to log file.