.Version 9.5.2 of ABINIT

 ABINIT is a project of the Universite Catholique de Louvain,
 Corning Inc. and other collaborators, see ~abinit/doc/developers/contributors.txt .
 acknowledgments of the ABINIT effort.

.Starting date : Mon 31 May 2021.
- ( at 23h10 )

- input  file    -> /scratch/users/j/a/jabreu/flow_simple_11atoms/flow/w401/t1/run.abi
- output file    -> /scratch/users/j/a/jabreu/flow_simple_11atoms/flow/w401/t1/run.abo
- root for input  files -> /scratch/users/j/a/jabreu/flow_simple_11atoms/flow/w401/t1/indata/in
- root for output files -> /scratch/users/j/a/jabreu/flow_simple_11atoms/flow/w401/t1/outdata/out

 Symmetries : space group C2/m (# 12); Bravais mC (1-face-center monocl.)
     intxc =       0      iscf =       7    lmnmax =      18     lnmax =       6
     mgfft =      64  mpssoang =       3    mqgrid =    3001     natom =      11
  nloc_mem =       1    nspden =       1   nspinor =       1    nsppol =       1
      nsym =       4    n1xccc =    2501    ntypat =       3    occopt =       1
   xclevel =       2
-    mband =          53        mffmem =           1         mkmem =           2
-   mkqmem =           2        mk1mem =           2           mpw =       13414
      nfft =      245760          nkpt =           2
  Rough estimation (10% accuracy) of disk space for files :

------------- Echo of variables that govern the present computation ------------
-
- outvars: echo of selected default values
-   iomode0 =  0 , fftalg0 =512 , wfoptalg0 =  0
-
- outvars: echo of global parameters not present in the input file
-  max_nthreads =    0
-
 -outvars: echo values of preprocessed input variables --------
            acell      1.0000000000E+00  1.0000000000E+00  1.0000000000E+00 Bohr
              amu      4.49559100E+01  4.78800000E+01  1.59994000E+01
             ecut      4.40000000E+01 Hartree
-          fftalg         512
           irdden           1
           irdwfk           1
           istwfk        0    1
              ixc     -116133
              kpt      5.00000000E-01 -5.00000000E-01  5.00000000E-01
                       0.00000000E+00  0.00000000E+00  5.00000000E-01
           kptopt           0
P           mkmem           2
P          mkqmem           2
P          mk1mem           2
            natom          11
            nband          53
           nbdbuf           4
            ngfft          64      64      60
             nkpt           2
            nstep        2000
             nsym           4
           ntypat           3
              occ      2.000000  2.000000  2.000000  2.000000  2.000000  2.000000
                       2.000000  2.000000  2.000000  2.000000  2.000000  2.000000
                       2.000000  2.000000  2.000000  2.000000  2.000000  2.000000
                       2.000000  2.000000  2.000000  2.000000  2.000000  2.000000
                       2.000000  2.000000  2.000000  2.000000  2.000000  2.000000
                       2.000000  2.000000  2.000000  2.000000  2.000000  2.000000
                       2.000000  2.000000  2.000000  2.000000  2.000000  2.000000
                       2.000000  2.000000  0.000000  0.000000  0.000000  0.000000
                       0.000000  0.000000  0.000000  0.000000  0.000000
        optdriver           1
            prtwf          -1
            rfdir           1       1       1
           rfelfd           2
            rprim      1.0228878032E+01  0.0000000000E+00  1.0633312778E+00
                      -3.4550078158E+00  9.6277134763E+00  1.0633312778E+00
                       0.0000000000E+00  0.0000000000E+00  9.7412934151E+00
          spgroup          12
           symrel      1  0  0   0  1  0   0  0  1      -1  0  0   0 -1  0   0  0 -1
                       0 -1  0  -1  0  0   0  0 -1       0  1  0   1  0  0   0  0  1
           tolwfr      1.00000000E-20
            typat      1  1  2  2  3  3  3  3  3  3  3
           useylm           1
              wtk        0.50000    0.50000
           xangst      3.1481746979E+00  1.5934086152E+00  5.6269067739E-01
                       4.3640303440E-01  3.5013579273E+00  5.6269067739E-01
                       9.1463726958E-01  1.2999755362E+00  3.4088067035E+00
                       2.6699404627E+00  3.7947910063E+00  2.8714451087E+00
                      -4.3165397056E-01  2.0443260228E+00  4.3863928410E+00
                       2.0699780539E+00  2.8422683587E-01  4.3863928410E+00
                       1.5497635059E+00  2.2026815565E+00  1.8683281164E+00
                       0.0000000000E+00  0.0000000000E+00  2.5774352287E+00
                       2.0348142263E+00  2.8920849860E+00  4.4119236958E+00
                       1.5145996783E+00  4.8105397066E+00  1.8938589712E+00
                       4.0162317028E+00  3.0504405197E+00  1.8938589712E+00
            xcart      5.9491879974E+00  3.0111059006E+00  1.0633312778E+00
                       8.2468221858E-01  6.6166075757E+00  1.0633312778E+00
                       1.7284139504E+00  2.4565977429E+00  6.4417111096E+00
                       5.0454562656E+00  7.1711157334E+00  5.4262448611E+00
                      -8.1570778853E-01  3.8632163095E+00  8.2890811807E+00
                       3.9116916230E+00  5.3711087942E-01  8.2890811807E+00
                       2.9286285969E+00  4.1624648998E+00  3.5306284664E+00
                       0.0000000000E+00  0.0000000000E+00  4.8706467076E+00
                       3.8452416191E+00  5.4652485765E+00  8.3373275043E+00
                       2.8621785930E+00  9.0906025969E+00  3.5788747900E+00
                       7.5895780045E+00  5.7644971668E+00  3.5788747900E+00
             xred      6.8724600000E-01  3.1275400000E-01  0.0000000000E+00
                       3.1275400000E-01  6.8724600000E-01  2.6020852140E-17
                       2.5515900000E-01  2.5515900000E-01  6.0557400000E-01
                       7.4484100000E-01  7.4484100000E-01  3.9442600000E-01
                       5.5788000000E-02  4.0126000000E-01  8.0103200000E-01
                       4.0126000000E-01  5.5788000000E-02  8.0103200000E-01
                       4.3234200000E-01  4.3234200000E-01  2.6805300000E-01
                       0.0000000000E+00  0.0000000000E+00  5.0000000000E-01
                       5.6765800000E-01  5.6765800000E-01  7.3194700000E-01
                       5.9874000000E-01  9.4421200000E-01  1.9896800000E-01
                       9.4421200000E-01  5.9874000000E-01  1.9896800000E-01
            znucl       21.00000   22.00000    8.00000

 chkinp: Checking input parameters for consistency.

== DATASET  1 ==================================================================
-   mpi_nproc: 1, omp_nthreads: -1 (-1 if OMP is not activated)

--- !DatasetInfo
iteration_state: {dtset: 1, }
dimensions: {natom: 11, nkpt: 2, mband: 53, nsppol: 1, nspinor: 1, nspden: 1, mpw: 13414, }
cutoff_energies: {ecut:  44.0, pawecutdg:  -1.0, }
electrons: {nelect:   8.80000000E+01, charge:   0.00000000E+00, occopt:   1.00000000E+00, tsmear:   1.00000000E-02, }
meta: {optdriver: 1, rfelfd: 2, }
...

 Real(R)+Recip(G) space primitive vectors, cartesian coordinates (Bohr,Bohr^-1):
 R(1)= 10.2288780  0.0000000  1.0633313  G(1)=  0.0977624  0.0350831  0.0000000
 R(2)= -3.4550078  9.6277135  1.0633313  G(2)=  0.0000000  0.1038668  0.0000000
 R(3)=  0.0000000  0.0000000  9.7412934  G(3)= -0.0106715 -0.0151674  0.1026558
 Unit cell volume ucvol=  9.5932946E+02 bohr^3
 Angles (23,13,12)=  8.40651997E+01  8.40651997E+01  1.08872787E+02 degrees

 getcut: wavevector=  0.0000  0.0000  0.0000  ngfft=  64  64  60
         ecut(hartree)=     44.000   => boxcut(ratio)=   2.06297

--- Pseudopotential description ------------------------------------------------
- pspini: atom type   1  psp file is /scratch/users/j/a/jabreu/pseudos/PBEsol/Sc.psp8
- pspatm: opening atomic psp file    /scratch/users/j/a/jabreu/pseudos/PBEsol/Sc.psp8
- Sc    ONCVPSP-3.3.0  r_core=   1.35663   1.35663   1.66161
- 21.00000  11.00000    180112                znucl, zion, pspdat
    8 -116133    2    4       600   0.00000   pspcod,pspxc,lmax,lloc,mmax,r2well
    5.99000000000000    5.00000000000000    0.00000000000000   rchrg,fchrg,qchrg
     nproj     2     2     2
     extension_switch     1
  pspatm : epsatm=   13.58981094
         --- l  ekb(1:nproj) -->
             0   10.810997    0.948773
             1    2.871172    0.364831
             2   -4.789751   -1.321945
 pspatm: atomic psp has been read  and splines computed

- pspini: atom type   2  psp file is /scratch/users/j/a/jabreu/pseudos/PBEsol/Ti.psp8
- pspatm: opening atomic psp file    /scratch/users/j/a/jabreu/pseudos/PBEsol/Ti.psp8
- Ti    ONCVPSP-3.3.0  r_core=   1.35825   1.31050   1.66360
- 22.00000  12.00000    180112                znucl, zion, pspdat
    8 -116133    2    4       600   0.00000   pspcod,pspxc,lmax,lloc,mmax,r2well
    5.99000000000000    2.50000000000000    0.00000000000000   rchrg,fchrg,qchrg
     nproj     2     2     2
     extension_switch     1
  pspatm : epsatm=   14.76919902
         --- l  ekb(1:nproj) -->
             0   11.321950    1.254474
             1    1.946894   -0.084268
             2   -5.237105   -1.488377
 pspatm: atomic psp has been read  and splines computed

- pspini: atom type   3  psp file is /scratch/users/j/a/jabreu/pseudos/PBEsol/O.psp8
- pspatm: opening atomic psp file    /scratch/users/j/a/jabreu/pseudos/PBEsol/O.psp8
- O     ONCVPSP-3.3.0  r_core=   1.35509   1.45563   1.26150
-  8.00000   6.00000    180112                znucl, zion, pspdat
    8 -116133    2    4       600   0.00000   pspcod,pspxc,lmax,lloc,mmax,r2well
    5.99000000000000    4.00000000000000    0.00000000000000   rchrg,fchrg,qchrg
     nproj     2     2     1
     extension_switch     1
  pspatm : epsatm=    6.22910522
         --- l  ekb(1:nproj) -->
             0    6.050032    0.820363
             1   -4.739617   -1.153841
             2   -1.335834
 pspatm: atomic psp has been read  and splines computed

   8.82831457E+03                                ecore*ucvol(ha*bohr**3)

 ==>  initialize data related to q vector <==

 The list of irreducible perturbations for this q vector is:
    1)    idir= 1    ipert=  12
    2)    idir= 2    ipert=  12
    3)    idir= 3    ipert=  12

 Perturbation wavevector (in red.coord.)   0.000000  0.000000  0.000000
 Perturbation : derivative vs k along direction   1

 dfpt_looppert : COMMENT -
  In a d/dk calculation, iscf is set to -3 automatically.
 The set of symmetries contains only one element for this perturbation.
 symkpt : not enough symmetry to change the number of k points.

 Initialisation of the first-order wave-functions :
  ireadwf=   0

--- !BeginCycle
iteration_state: {dtset: 1, }
solver: {iscf: 7, nstep: 2000, nline: 4, wfoptalg: 0, }
tolerances: {tolwfr: 1.00E-20, }
...

     iter   2DEtotal(Ha)        deltaE(Ha) residm    vres2
-ETOT  1  -35.322919176894     -3.532E+01 6.754E-02 0.000E+00
 ETOT  2  -35.764942978797     -4.420E-01 2.584E-02 0.000E+00
 ETOT  3  -35.785306601611     -2.036E-02 1.165E-02 0.000E+00
 ETOT  4  -35.786647254728     -1.341E-03 1.133E-02 0.000E+00
[...]
  ireadwf=   0

--- !BeginCycle
iteration_state: {dtset: 1, }
solver: {iscf: 7, nstep: 2000, nline: 4, wfoptalg: 0, }
tolerances: {tolwfr: 1.00E-20, }
...

     iter   2DEtotal(Ha)        deltaE(Ha) residm    vres2
-ETOT  1  -35.630829969889     -3.563E+01 7.074E-02 0.000E+00
 ETOT  2  -35.956806585762     -3.260E-01 7.366E-02 0.000E+00
 ETOT  3  -35.970320716329     -1.351E-02 1.989E-02 0.000E+00
 ETOT  4  -35.971145996323     -8.253E-04 2.264E-02 0.000E+00
 ETOT  5  -35.971205323527     -5.933E-05 5.414E-03 0.000E+00
 ETOT  6  -35.971210033749     -4.710E-06 9.041E-03 0.000E+00
 ETOT  7  -35.971210436226     -4.025E-07 2.241E-03 0.000E+00
 ETOT  8  -35.971210472650     -3.642E-08 3.951E-03 0.000E+00
 ETOT  9  -35.971210476080     -3.430E-09 8.384E-04 0.000E+00
 ETOT 10  -35.971210476411     -3.306E-10 1.527E-03 0.000E+00
 ETOT 11  -35.971210476444     -3.321E-11 3.357E-04 0.000E+00
 ETOT 12  -35.971210476448     -3.453E-12 5.907E-04 0.000E+00
 ETOT 13  -35.971210476448     -3.197E-13 1.379E-04 0.000E+00
 ETOT 14  -35.971210476448     -1.137E-13 2.320E-04 0.000E+00
 ETOT 15  -35.971210476448      7.105E-14 5.873E-05 0.000E+00
 ETOT 16  -35.971210476448      0.000E+00 8.352E-05 0.000E+00
 ETOT 17  -35.971210476448     -3.553E-14 2.579E-05 0.000E+00
 ETOT 18  -35.971210476448     -2.842E-14 3.477E-05 0.000E+00
 ETOT 19  -35.971210476448      4.263E-14 1.054E-05 0.000E+00
 ETOT 20  -35.971210476448     -4.263E-14 1.494E-05 0.000E+00
 ETOT 21  -35.971210476448      0.000E+00 4.336E-06 0.000E+00
 ETOT 22  -35.971210476448      0.000E+00 6.442E-06 0.000E+00
 ETOT 23  -35.971210476448      7.105E-15 1.821E-06 0.000E+00
 ETOT 24  -35.971210476448      0.000E+00 2.774E-06 0.000E+00
 ETOT 25  -35.971210476448      0.000E+00 7.735E-07 0.000E+00
 ETOT 26  -35.971210476448      0.000E+00 1.197E-06 0.000E+00
 ETOT 27  -35.971210476448      2.842E-14 3.302E-07 0.000E+00
 ETOT 28  -35.971210476448     -2.132E-14 5.180E-07 0.000E+00
 ETOT 29  -35.971210476448      2.132E-14 1.414E-07 0.000E+00
 ETOT 30  -35.971210476448      7.105E-15 2.247E-07 0.000E+00
 ETOT 31  -35.971210476448     -7.105E-15 6.069E-08 0.000E+00
 ETOT 32  -35.971210476448      0.000E+00 9.765E-08 0.000E+00
 ETOT 33  -35.971210476448      7.105E-15 2.611E-08 0.000E+00
 ETOT 34  -35.971210476448     -2.842E-14 4.252E-08 0.000E+00
 ETOT 35  -35.971210476448     -7.105E-15 1.126E-08 0.000E+00
 ETOT 36  -35.971210476448      2.842E-14 1.854E-08 0.000E+00
 ETOT 37  -35.971210476448     -2.132E-14 4.869E-09 0.000E+00
 ETOT 38  -35.971210476448      2.842E-14 8.098E-09 0.000E+00
 ETOT 39  -35.971210476448     -7.105E-15 2.109E-09 0.000E+00
 ETOT 40  -35.971210476448      7.105E-15 3.540E-09 0.000E+00
 ETOT 41  -35.971210476448     -7.105E-15 9.157E-10 0.000E+00
 ETOT 42  -35.971210476448     -2.132E-14 1.549E-09 0.000E+00
 ETOT 43  -35.971210476448      2.842E-14 3.982E-10 0.000E+00
 ETOT 44  -35.971210476448     -2.132E-14 6.780E-10 0.000E+00
 ETOT 45  -35.971210476448      2.132E-14 1.734E-10 0.000E+00
 ETOT 46  -35.971210476448     -7.105E-15 2.970E-10 0.000E+00
 ETOT 47  -35.971210476448      7.105E-15 7.560E-11 0.000E+00
 ETOT 48  -35.971210476448     -7.105E-15 1.301E-10 0.000E+00
 ETOT 49  -35.971210476448      0.000E+00 3.300E-11 0.000E+00
 ETOT 50  -35.971210476448      0.000E+00 5.703E-11 0.000E+00
 ETOT 51  -35.971210476448      7.105E-15 1.441E-11 0.000E+00
 ETOT 52  -35.971210476448      0.000E+00 2.500E-11 0.000E+00
 ETOT 53  -35.971210476448      7.105E-15 6.300E-12 0.000E+00
 ETOT 54  -35.971210476448     -1.421E-14 1.096E-11 0.000E+00
 ETOT 55  -35.971210476448      0.000E+00 2.755E-12 0.000E+00
 ETOT 56  -35.971210476448      0.000E+00 4.807E-12 0.000E+00
 ETOT 57  -35.971210476448      0.000E+00 1.205E-12 0.000E+00
 ETOT 58  -35.971210476448      0.000E+00 2.108E-12 0.000E+00
 ETOT 59  -35.971210476448      0.000E+00 5.275E-13 0.000E+00
 ETOT 60  -35.971210476448      0.000E+00 9.246E-13 0.000E+00
 ETOT 61  -35.971210476448     -2.132E-14 2.310E-13 0.000E+00
[...]
 ETOT 89  -35.971210476448     -1.421E-14 2.239E-18 0.000E+00
 ETOT 90  -35.971210476448      2.842E-14 3.986E-18 0.000E+00
 ETOT 91  -35.971210476448      0.000E+00 9.826E-19 0.000E+00
 ETOT 92  -35.971210476448     -1.421E-14 1.750E-18 0.000E+00
 ETOT 93  -35.971210476448      0.000E+00 4.312E-19 0.000E+00
 ETOT 94  -35.971210476448      1.421E-14 7.684E-19 0.000E+00
 ETOT 95  -35.971210476448      0.000E+00 1.893E-19 0.000E+00
 ETOT 96  -35.971210476448     -2.132E-14 3.374E-19 0.000E+00
 ETOT 97  -35.971210476448      0.000E+00 8.307E-20 0.000E+00
 ETOT 98  -35.971210476448     -7.105E-15 1.482E-19 0.000E+00
 ETOT 99  -35.971210476448     -7.105E-15 3.646E-20 0.000E+00
 ETOT  100  -35.971210476448      7.105E-15 6.507E-20 0.000E+00
 ETOT  101  -35.971210476448      0.000E+00 1.601E-20 0.000E+00
 ETOT  102  -35.971210476448      0.000E+00 2.858E-20 0.000E+00
 ETOT  103  -35.971210476448      1.421E-14 9.970E-21 0.000E+00

 At SCF step  103   max residual=  9.97E-21 < tolwfr=  1.00E-20 =>converged.

 ----iterations are completed or convergence reached----

 dfpt_looppert: DFPT cycle converged with prtwf=-1. Will skip output of the 1st-order WFK file.
 dfpt_looppert : ek2=    7.5611279325E+01
          f-sum rule ratio=    9.9516580388E-01
 prteigrs : about to open file /scratch/users/j/a/jabreu/flow_simple_11atoms/flow/w401/t1/tmpdata/tmp_1WF1_EIG
 Expectation of eigenvalue derivatives (hartree) for nkpt=   2  k points:
  (in case of degenerate eigenvalues, averaged derivative)
 kpt#   1, nband= 53, wtk=  0.50000, kpt=  0.5000 -0.5000  0.5000 (reduced coord)
  -0.00000    0.00000    0.00000   -0.00000    0.00000   -0.00000   -0.00000    0.00000
   0.00000    0.00000   -0.00000    0.00000   -0.00000   -0.00000   -0.00000    0.00000
   0.00000   -0.00000   -0.00000    0.00000   -0.00000    0.00000   -0.00000    0.00000
   0.00000   -0.00000    0.00000    0.00000   -0.00000    0.00000    0.00000   -0.00000
  -0.00000    0.00000    0.00000   -0.00000   -0.00000    0.00000    0.00000   -0.00000
   0.00000    0.00000    0.00000   -0.00000    0.00000   -0.00000    0.00000   -0.00000
  -0.00000    0.00000   -0.00000   -0.00003    0.00006
 prteigrs : prtvol=0 or 1, do not print more k-points.

 Eight components of 2nd-order total energy (hartree) are
 1,2,3: 0th-order hamiltonian combined with 1st-order wavefunctions
     kin0=   7.12975654E+01 eigvalue=   1.98474287E+00  local=  -3.74771474E+01
 4,5,6: 1st-order hamiltonian combined with 1st and 0th-order wfs
     kin1=  -7.52457596E+01  Hartree=   0.00000000E+00     xc=   0.00000000E+00
 7,8,9: eventually, occupation + non-local contributions
    edocc=   6.32751428E+00     enl0=  -6.16146464E+00   enl1=   3.30333862E+00
 1-9 gives the relaxation energy (to be shifted if some occ is /=2.0)
   erelax=  -3.59712105E+01
  No Ewald or frozen-wf contrib.: the relaxation energy is the total one
 2DEtotal=   -0.3597121048E+02 Ha. Also 2DEtotal=   -0.978826416183E+03 eV
    (  non-var. 2DEtotal :   -3.5971210476E+01 Ha)

 CALCULATION OF EFFECTIVE MASSES
 NOTE : Additional infos (eff. mass eigenvalues, eigenvectors and, if degenerate, average mass) are available in stdout.

 K-point ( 0.500,-0.500, 0.500) | band =    44
 Effective mass tensor:
             -2.8056983520              0.8266519127              0.4956273008
              0.8266519127             -2.2123840851              0.7044316308
              0.4956273008              0.7044316308             -1.4050871550
 Effective mass tensor eigenvalues:
             -3.3873115867             -2.3866082452             -0.6492497602
 Angular average effective mass 1/(<1/m>)=  -1.3306936228
 Angular average effective mass for Frohlich model (<m**0.5>)**2=  -1.5708558599
 Effective masses along directions: (cart. coord. / red. coord. -> eff. mass)
    1:   1.000000  0.000000  0.000000 /   0.947415 -0.320008  0.000000 ->  -2.0091559028
    2:   0.000000  1.000000  0.000000 /   0.000000  1.000000  0.000000 ->  -1.4198586730
    3:   0.000000  0.000000  1.000000 /   0.107879  0.107879  0.988294 ->  -0.9501671130
    4:   0.577350  0.577350  0.577350 /   0.681234  0.436534  0.587671 ->  -0.6850793059
    5:   0.000000  0.707107  0.707107 /   0.073321  0.737187  0.671698 ->  -0.7501937056
    6:   0.707107  0.000000  0.707107 /   0.747637 -0.158349  0.644953 ->  -0.9132883278
    7:   0.707107  0.707107  0.000000 /   0.856184  0.516672  0.000000 ->  -1.1250800032

--- !WARNING
src_file: m_efmas.F90
src_line: 0
message: |

    Band(s)    45,
    are not band extrema, but saddle points;
    the transport equivalent formalism breaks down in these conditions.
    The associated tensor(s) will therefore not be printed.
...

 K-point ( 0.000, 0.000, 0.500) | band =    45
 Effective mass tensor:
     *** SADDLE POINT: TRANSPORT EQV. EFF. MASS NOT DEFINED (see WARNING above) ***
 Angular average effective mass 1/(<1/m>)=  93.3307117644
 Angular average effective mass for Frohlich model (<m**0.5>)**2=   9.8242083835
 Effective masses along directions: (cart. coord. / red. coord. -> eff. mass)
    1:   1.000000  0.000000  0.000000 /   0.947415 -0.320008  0.000000 ->   9.3664798447
    2:   0.000000  1.000000  0.000000 /   0.000000  1.000000  0.000000 ->  37.3547367040
    3:   0.000000  0.000000  1.000000 /   0.107879  0.107879  0.988294 ->  -9.8628762355
    4:   0.577350  0.577350  0.577350 /   0.681234  0.436534  0.587671 ->   3.1401840071
    5:   0.000000  0.707107  0.707107 /   0.073321  0.737187  0.671698 ->   3.3436251676
    6:   0.707107  0.000000  0.707107 /   0.747637 -0.158349  0.644953 ->   4.1777784467
    7:   0.707107  0.707107  0.000000 /   0.856184  0.516672  0.000000 -> -22.3776945415

 END OF EFFECTIVE MASSES SECTION

 ---- first-order wavefunction calculations are completed ----

 Total localisation tensor (bohr^2) in cartesian coordinates
  WARNING : still subject to testing - especially symmetries.
      direction              matrix element
   alpha     beta       real part   imaginary part
     1        1       0.8088226143    0.0000000000
     1        2      -0.2308071508    0.0000000000
     1        3       0.0499785185    0.0000000000
     2        1      -0.2308071508    0.0000000000
     2        2       0.6431664514    0.0000000000
     2        3       0.0710344160    0.0000000000
     3        1       0.0499785185    0.0000000000
     3        2       0.0710344160    0.0000000000
     3        3       0.6577816172    0.0000000000

 respfn : d/dk was computed, but no 2DTE, so no DDB output.

== END DATASET(S) ==============================================================

 -outvars: echo values of variables after computation  --------
            acell      1.0000000000E+00  1.0000000000E+00  1.0000000000E+00 Bohr
              amu      4.49559100E+01  4.78800000E+01  1.59994000E+01
             ecut      4.40000000E+01 Hartree
           etotal     -3.5971210476E+01
            fcart      0.0000000000E+00  0.0000000000E+00  0.0000000000E+00
                       0.0000000000E+00  0.0000000000E+00  0.0000000000E+00
                       0.0000000000E+00  0.0000000000E+00  0.0000000000E+00
                       0.0000000000E+00  0.0000000000E+00  0.0000000000E+00
                       0.0000000000E+00  0.0000000000E+00  0.0000000000E+00
                       0.0000000000E+00  0.0000000000E+00  0.0000000000E+00
                       0.0000000000E+00  0.0000000000E+00  0.0000000000E+00
                       0.0000000000E+00  0.0000000000E+00  0.0000000000E+00
                       0.0000000000E+00  0.0000000000E+00  0.0000000000E+00
                       0.0000000000E+00  0.0000000000E+00  0.0000000000E+00
                       0.0000000000E+00  0.0000000000E+00  0.0000000000E+00
-          fftalg         512
           irdden           1
           irdwfk           1
           istwfk        0    1
              ixc     -116133
              kpt      5.00000000E-01 -5.00000000E-01  5.00000000E-01
                       0.00000000E+00  0.00000000E+00  5.00000000E-01
           kptopt           0
P           mkmem           2
P          mkqmem           2
P          mk1mem           2
            natom          11
            nband          53
           nbdbuf           4
            ngfft          64      64      60
             nkpt           2
            nstep        2000
             nsym           4
           ntypat           3
              occ      2.000000  2.000000  2.000000  2.000000  2.000000  2.000000
                       2.000000  2.000000  2.000000  2.000000  2.000000  2.000000
                       2.000000  2.000000  2.000000  2.000000  2.000000  2.000000
                       2.000000  2.000000  2.000000  2.000000  2.000000  2.000000
                       2.000000  2.000000  2.000000  2.000000  2.000000  2.000000
                       2.000000  2.000000  2.000000  2.000000  2.000000  2.000000
                       2.000000  2.000000  2.000000  2.000000  2.000000  2.000000
                       2.000000  2.000000  0.000000  0.000000  0.000000  0.000000
                       0.000000  0.000000  0.000000  0.000000  0.000000
        optdriver           1
            prtwf          -1
            rfdir           1       1       1
           rfelfd           2
            rprim      1.0228878032E+01  0.0000000000E+00  1.0633312778E+00
                      -3.4550078158E+00  9.6277134763E+00  1.0633312778E+00
                       0.0000000000E+00  0.0000000000E+00  9.7412934151E+00
          spgroup          12
           strten      0.0000000000E+00  0.0000000000E+00  0.0000000000E+00
                       0.0000000000E+00  0.0000000000E+00  0.0000000000E+00
           symrel      1  0  0   0  1  0   0  0  1      -1  0  0   0 -1  0   0  0 -1
                       0 -1  0  -1  0  0   0  0 -1       0  1  0   1  0  0   0  0  1
           tolwfr      1.00000000E-20
            typat      1  1  2  2  3  3  3  3  3  3  3
           useylm           1
              wtk        0.50000    0.50000
           xangst      3.1481746979E+00  1.5934086152E+00  5.6269067739E-01
                       4.3640303440E-01  3.5013579273E+00  5.6269067739E-01
                       9.1463726958E-01  1.2999755362E+00  3.4088067035E+00
                       2.6699404627E+00  3.7947910063E+00  2.8714451087E+00
                      -4.3165397056E-01  2.0443260228E+00  4.3863928410E+00
                       2.0699780539E+00  2.8422683587E-01  4.3863928410E+00
                       1.5497635059E+00  2.2026815565E+00  1.8683281164E+00
                       0.0000000000E+00  0.0000000000E+00  2.5774352287E+00
                       2.0348142263E+00  2.8920849860E+00  4.4119236958E+00
                       1.5145996783E+00  4.8105397066E+00  1.8938589712E+00
                       4.0162317028E+00  3.0504405197E+00  1.8938589712E+00
            xcart      5.9491879974E+00  3.0111059006E+00  1.0633312778E+00
                       8.2468221858E-01  6.6166075757E+00  1.0633312778E+00
                       1.7284139504E+00  2.4565977429E+00  6.4417111096E+00
                       5.0454562656E+00  7.1711157334E+00  5.4262448611E+00
                      -8.1570778853E-01  3.8632163095E+00  8.2890811807E+00
                       3.9116916230E+00  5.3711087942E-01  8.2890811807E+00
                       2.9286285969E+00  4.1624648998E+00  3.5306284664E+00
                       0.0000000000E+00  0.0000000000E+00  4.8706467076E+00
                       3.8452416191E+00  5.4652485765E+00  8.3373275043E+00
                       2.8621785930E+00  9.0906025969E+00  3.5788747900E+00
                       7.5895780045E+00  5.7644971668E+00  3.5788747900E+00
             xred      6.8724600000E-01  3.1275400000E-01  0.0000000000E+00
                       3.1275400000E-01  6.8724600000E-01  2.6020852140E-17
                       2.5515900000E-01  2.5515900000E-01  6.0557400000E-01
                       7.4484100000E-01  7.4484100000E-01  3.9442600000E-01
                       5.5788000000E-02  4.0126000000E-01  8.0103200000E-01
                       4.0126000000E-01  5.5788000000E-02  8.0103200000E-01
                       4.3234200000E-01  4.3234200000E-01  2.6805300000E-01
                       0.0000000000E+00  0.0000000000E+00  5.0000000000E-01
                       5.6765800000E-01  5.6765800000E-01  7.3194700000E-01
                       5.9874000000E-01  9.4421200000E-01  1.9896800000E-01
                       9.4421200000E-01  5.9874000000E-01  1.9896800000E-01
            znucl       21.00000   22.00000    8.00000

- Timing analysis has been suppressed with timopt=0

 Suggested references for the acknowledgment of ABINIT usage.

 Calculation completed.
.Delivered   3 WARNINGs and   5 COMMENTs to log file.