.Version 9.5.2 of ABINIT

 ABINIT is a project of the Universite Catholique de Louvain,
 Corning Inc. and other collaborators, see ~abinit/doc/developers/contributors.txt .
 acknowledgments of the ABINIT effort.

.Starting date : Mon 31 May 2021.
- ( at 21h54 )

- input  file    -> /scratch/users/j/a/jabreu/flow_simple_11atoms/flow/w321/t1/run.abi
- output file    -> /scratch/users/j/a/jabreu/flow_simple_11atoms/flow/w321/t1/run.abo
- root for input  files -> /scratch/users/j/a/jabreu/flow_simple_11atoms/flow/w321/t1/indata/in
- root for output files -> /scratch/users/j/a/jabreu/flow_simple_11atoms/flow/w321/t1/outdata/out

 Symmetries : space group C2/m (# 12); Bravais mC (1-face-center monocl.)
     intxc =       0      iscf =       7    lmnmax =      18     lnmax =       6
     mgfft =      75  mpssoang =       3    mqgrid =    3492     natom =      11
  nloc_mem =       1    nspden =       1   nspinor =       1    nsppol =       1
      nsym =       4    n1xccc =    2501    ntypat =       3    occopt =       1
   xclevel =       2
-    mband =          54        mffmem =           1         mkmem =           2
-   mkqmem =           2        mk1mem =           2           mpw =       14429
      nfft =      388800          nkpt =           2
  Rough estimation (10% accuracy) of disk space for files :

------------- Echo of variables that govern the present computation ------------
-
- outvars: echo of selected default values
-   iomode0 =  0 , fftalg0 =512 , wfoptalg0 =  0
-
- outvars: echo of global parameters not present in the input file
-  max_nthreads =    0
-
 -outvars: echo values of preprocessed input variables --------
            acell      1.0000000000E+00  1.0000000000E+00  1.0000000000E+00 Bohr
              amu      2.29897680E+01  2.08980370E+02  1.59994000E+01
             ecut      4.40000000E+01 Hartree
-          fftalg         512
           irdden           1
           irdwfk           1
           istwfk        1    1
              ixc     -116133
              kpt      5.00000000E-01  0.00000000E+00  5.00000000E-01
                       0.00000000E+00  0.00000000E+00  0.00000000E+00
           kptopt           0
P           mkmem           2
P          mkqmem           2
P          mk1mem           2
            natom          11
            nband          54
           nbdbuf           4
            ngfft          72      72      75
             nkpt           2
            nstep        2000
             nsym           4
           ntypat           3
              occ      2.000000  2.000000  2.000000  2.000000  2.000000  2.000000
                       2.000000  2.000000  2.000000  2.000000  2.000000  2.000000
                       2.000000  2.000000  2.000000  2.000000  2.000000  2.000000
                       2.000000  2.000000  2.000000  2.000000  2.000000  2.000000
                       2.000000  2.000000  2.000000  2.000000  2.000000  2.000000
                       2.000000  2.000000  2.000000  2.000000  2.000000  2.000000
                       2.000000  2.000000  2.000000  2.000000  2.000000  2.000000
                       2.000000  2.000000  2.000000  0.000000  0.000000  0.000000
                       0.000000  0.000000  0.000000  0.000000  0.000000  0.000000
        optdriver           1
            prtwf          -1
            rfdir           1       1       1
           rfelfd           2
            rprim      1.0650469912E+01  0.0000000000E+00  3.2921644572E+00
                       7.1928261756E+00  7.8546649165E+00  3.2921644572E+00
                       0.0000000000E+00  0.0000000000E+00  1.2341249331E+01
          spgroup          12
           symrel      1  0  0   0  1  0   0  0  1      -1  0  0   0 -1  0   0  0 -1
                       0 -1  0  -1  0  0   0  0 -1       0  1  0   1  0  0   0  0  1
           tolwfr      1.00000000E-20
            typat      1  1  1  1  1  2  3  3  3  3  3
           useylm           1
              wtk        0.50000    0.50000
           xangst      6.4114588715E+00  2.8223407164E+00  3.3005711487E+00
                       6.5724778270E+00  2.8932216755E+00  6.8317650710E+00
                       2.8697877885E+00  1.2632879794E+00  3.1832195958E+00
                       3.0308067441E+00  1.3341689386E+00  6.7144135181E+00
                       0.0000000000E+00  0.0000000000E+00  3.2653539357E+00
                       0.0000000000E+00  0.0000000000E+00  0.0000000000E+00
                       1.3085186113E+00  5.7601326449E-01  1.5471901472E+00
                       4.7211328078E+00  2.0782548275E+00  1.7421383977E+00
                       1.4158771713E+00  6.2327277927E-01  5.0589682363E+00
                       8.0263884443E+00  3.5332368757E+00  4.9560164305E+00
                       8.1337470043E+00  3.5804963904E+00  8.4677945196E+00
            xcart      1.2115901379E+01  5.3334510076E+00  6.2371755532E+00
                       1.2420183108E+01  5.4673966084E+00  1.2910164988E+01
                       5.4231129798E+00  2.3872683081E+00  6.0154132568E+00
                       5.7273947080E+00  2.5212139089E+00  1.2688402692E+01
                       0.0000000000E+00  0.0000000000E+00  6.1706246654E+00
                       0.0000000000E+00  0.0000000000E+00  0.0000000000E+00
                       2.4727418151E+00  1.0885073188E+00  2.9237656537E+00
                       8.9216480437E+00  3.9273324582E+00  3.2921644572E+00
                       2.6756200916E+00  1.1778148589E+00  9.5600644815E+00
                       1.5167675996E+01  6.6768500576E+00  9.3655137638E+00
                       1.5370554272E+01  6.7661575977E+00  1.6001812592E+01
             xred      6.7901700000E-01  6.7901700000E-01  1.4312200000E-01
                       6.9607000000E-01  6.9607000000E-01  6.7473000000E-01
                       3.0393000000E-01  3.0393000000E-01  3.2527000000E-01
                       3.2098300000E-01  3.2098300000E-01  8.5687800000E-01
                       0.0000000000E+00  0.0000000000E+00  5.0000000000E-01
                       0.0000000000E+00  0.0000000000E+00  0.0000000000E+00
                       1.3858100000E-01  1.3858100000E-01  1.6297400000E-01
                       5.0000000000E-01  5.0000000000E-01  0.0000000000E+00
                       1.4995100000E-01  1.4995100000E-01  6.9464100000E-01
                       8.5004900000E-01  8.5004900000E-01  3.0535900000E-01
                       8.6141900000E-01  8.6141900000E-01  8.3702600000E-01
            znucl       11.00000   83.00000    8.00000

 chkinp: Checking input parameters for consistency.

== DATASET  1 ==================================================================
-   mpi_nproc: 1, omp_nthreads: -1 (-1 if OMP is not activated)

--- !DatasetInfo
iteration_state: {dtset: 1, }
dimensions: {natom: 11, nkpt: 2, mband: 54, nsppol: 1, nspinor: 1, nspden: 1, mpw: 14429, }
cutoff_energies: {ecut:  44.0, pawecutdg:  -1.0, }
electrons: {nelect:   9.00000000E+01, charge:   0.00000000E+00, occopt:   1.00000000E+00, tsmear:   1.00000000E-02, }
meta: {optdriver: 1, rfelfd: 2, }
...

 Real(R)+Recip(G) space primitive vectors, cartesian coordinates (Bohr,Bohr^-1):
 R(1)= 10.6504699  0.0000000  3.2921645  G(1)=  0.0938926 -0.0859811  0.0000000
 R(2)=  7.1928262  7.8546649  3.2921645  G(2)=  0.0000000  0.1273129  0.0000000
 R(3)=  0.0000000  0.0000000 12.3412493  G(3)= -0.0250469 -0.0110257  0.0810291
 Unit cell volume ucvol=  1.0324180E+03 bohr^3
 Angles (23,13,12)=  7.28231092E+01  7.28231092E+01  4.52780304E+01 degrees

 getcut: wavevector=  0.0000  0.0000  0.0000  ngfft=  72  72  75
         ecut(hartree)=     44.000   => boxcut(ratio)=   2.00810

--- Pseudopotential description ------------------------------------------------
- pspini: atom type   1  psp file is /scratch/users/j/a/jabreu/pseudos/PBEsol/Na.psp8
- pspatm: opening atomic psp file    /scratch/users/j/a/jabreu/pseudos/PBEsol/Na.psp8
- Na    ONCVPSP-3.3.0  r_core=   1.20708   1.55069
- 11.00000   9.00000    180112                znucl, zion, pspdat
    8 -116133    1    4       400   0.00000   pspcod,pspxc,lmax,lloc,mmax,r2well
    3.99000000000000    0.00000000000000    0.00000000000000   rchrg,fchrg,qchrg
     nproj     2     2
     extension_switch     1
  pspatm : epsatm=    9.32878306
         --- l  ekb(1:nproj) -->
             0    2.657905   -0.678300
             1   -6.761319   -2.404728
 pspatm: atomic psp has been read  and splines computed

- pspini: atom type   2  psp file is /scratch/users/j/a/jabreu/pseudos/PBEsol/Bi.psp8
- pspatm: opening atomic psp file    /scratch/users/j/a/jabreu/pseudos/PBEsol/Bi.psp8
- Bi    ONCVPSP-3.3.0  r_core=   2.42776   2.51622   2.10397
- 83.00000  15.00000    180112                znucl, zion, pspdat
    8 -116133    2    4       600   0.00000   pspcod,pspxc,lmax,lloc,mmax,r2well
    5.99000000000000    6.00000000000000    0.00000000000000   rchrg,fchrg,qchrg
     nproj     2     2     2
     extension_switch     1
  pspatm : epsatm=   42.90078186
         --- l  ekb(1:nproj) -->
             0    6.017688    0.961606
             1    4.379371    0.528498
             2   -3.458170   -0.753782
 pspatm: atomic psp has been read  and splines computed

- pspini: atom type   3  psp file is /scratch/users/j/a/jabreu/pseudos/PBEsol/O.psp8
- pspatm: opening atomic psp file    /scratch/users/j/a/jabreu/pseudos/PBEsol/O.psp8
- O     ONCVPSP-3.3.0  r_core=   1.35509   1.45563   1.26150
-  8.00000   6.00000    180112                znucl, zion, pspdat
    8 -116133    2    4       600   0.00000   pspcod,pspxc,lmax,lloc,mmax,r2well
    5.99000000000000    4.00000000000000    0.00000000000000   rchrg,fchrg,qchrg
     nproj     2     2     1
     extension_switch     1
  pspatm : epsatm=    6.22910522
         --- l  ekb(1:nproj) -->
             0    6.050032    0.820363
             1   -4.739617   -1.153841
             2   -1.335834
 pspatm: atomic psp has been read  and splines computed

   1.08621201E+04                                ecore*ucvol(ha*bohr**3)

 ==>  initialize data related to q vector <==

 The list of irreducible perturbations for this q vector is:
    1)    idir= 1    ipert=  12
    2)    idir= 2    ipert=  12
    3)    idir= 3    ipert=  12

 Perturbation wavevector (in red.coord.)   0.000000  0.000000  0.000000
 Perturbation : derivative vs k along direction   1

 dfpt_looppert : COMMENT -
  In a d/dk calculation, iscf is set to -3 automatically.
 The set of symmetries contains only one element for this perturbation.
 symkpt : not enough symmetry to change the number of k points.

 Initialisation of the first-order wave-functions :
  ireadwf=   0

--- !BeginCycle
iteration_state: {dtset: 1, }
solver: {iscf: 7, nstep: 2000, nline: 4, wfoptalg: 0, }
tolerances: {tolwfr: 1.00E-20, }
...

     iter   2DEtotal(Ha)        deltaE(Ha) residm    vres2
-ETOT  1  -76.908027172301     -7.691E+01 4.589E-02 0.000E+00
 ETOT  2  -76.973282002516     -6.525E-02 1.919E-03 0.000E+00
 ETOT  3  -76.973460285663     -1.783E-04 4.306E-05 0.000E+00
 ETOT  4  -76.973462211357     -1.926E-06 5.019E-06 0.000E+00
 ETOT  5  -76.973462240412     -2.905E-08 9.270E-07 0.000E+00
[...]
 ETOT 14  -76.973462240915     -2.842E-14 5.327E-14 0.000E+00
 ETOT 15  -76.973462240915      1.421E-14 9.089E-15 0.000E+00
 ETOT 16  -76.973462240915     -1.421E-14 1.502E-15 0.000E+00
 ETOT 17  -76.973462240915      2.842E-14 2.521E-16 0.000E+00
 ETOT 18  -76.973462240915     -1.421E-14 4.287E-17 0.000E+00
 ETOT 19  -76.973462240915      1.421E-14 7.088E-18 0.000E+00
 ETOT 20  -76.973462240915      1.421E-14 1.233E-18 0.000E+00
 ETOT 21  -76.973462240915      0.000E+00 2.013E-19 0.000E+00
 ETOT 22  -76.973462240915     -4.263E-14 3.564E-20 0.000E+00
 ETOT 23  -76.973462240915      0.000E+00 9.690E-21 0.000E+00

 At SCF step   23   max residual=  9.69E-21 < tolwfr=  1.00E-20 =>converged.

 ----iterations are completed or convergence reached----

 dfpt_looppert: DFPT cycle converged with prtwf=-1. Will skip output of the 1st-order WFK file.
 dfpt_looppert : ek2=    1.1517995822E+02
          f-sum rule ratio=    1.0255871086E+00
 prteigrs : about to open file /scratch/users/j/a/jabreu/flow_simple_11atoms/flow/w321/t1/tmpdata/tmp_1WF1_EIG
 Expectation of eigenvalue derivatives (hartree) for nkpt=   2  k points:
  (in case of degenerate eigenvalues, averaged derivative)
 kpt#   1, nband= 54, wtk=  0.50000, kpt=  0.5000  0.0000  0.5000 (reduced coord)
  -0.00000   -0.00000   -0.00000   -0.00000    0.00000   -0.00000    0.00000    0.00000
   0.00000    0.00000    0.00000   -0.00000    0.00000   -0.00000   -0.00000   -0.00000
   0.00000   -0.00000   -0.00000   -0.00000    0.00000   -0.00000   -0.00000    0.00000
  -0.00000    0.00000    0.00000    0.00000   -0.00000   -0.00000    0.00000    0.00000
  -0.00000   -0.00000   -0.00000   -0.00000    0.00000    0.00000    0.00000   -0.00000
   0.00000   -0.00000   -0.00000    0.00000   -0.00000    0.00000   -0.00000   -0.00000
  -0.00000    0.00000    0.00000    0.00000   -0.00002    0.01872
 prteigrs : prtvol=0 or 1, do not print more k-points.

 Eight components of 2nd-order total energy (hartree) are
 1,2,3: 0th-order hamiltonian combined with 1st-order wavefunctions
     kin0=   9.92466363E+01 eigvalue=   1.08204056E+01  local=  -4.06069257E+01
 4,5,6: 1st-order hamiltonian combined with 1st and 0th-order wfs
     kin1=  -1.18127080E+02  Hartree=   0.00000000E+00     xc=   0.00000000E+00
 7,8,9: eventually, occupation + non-local contributions
    edocc=   7.79148596E+00     enl0=  -2.78139928E-01   enl1=  -3.58198442E+01
 1-9 gives the relaxation energy (to be shifted if some occ is /=2.0)
   erelax=  -7.69734622E+01
  No Ewald or frozen-wf contrib.: the relaxation energy is the total one
 2DEtotal=   -0.7697346224E+02 Ha. Also 2DEtotal=   -0.209455442807E+04 eV
    (  non-var. 2DEtotal :   -7.6973462241E+01 Ha)

 Perturbation wavevector (in red.coord.)   0.000000  0.000000  0.000000
 Perturbation : derivative vs k along direction   2
 The set of symmetries contains only one element for this perturbation.
 symkpt : not enough symmetry to change the number of k points.

[...]

 Perturbation wavevector (in red.coord.)   0.000000  0.000000  0.000000
 Perturbation : derivative vs k along direction   3
 The set of symmetries contains only one element for this perturbation.
 symkpt : not enough symmetry to change the number of k points.

 Initialisation of the first-order wave-functions :
  ireadwf=   0

--- !BeginCycle
iteration_state: {dtset: 1, }
solver: {iscf: 7, nstep: 2000, nline: 4, wfoptalg: 0, }
tolerances: {tolwfr: 1.00E-20, }
...

     iter   2DEtotal(Ha)        deltaE(Ha) residm    vres2
-ETOT  1  -34.704949581906     -3.470E+01 8.719E-02 0.000E+00
 ETOT  2  -34.731924052062     -2.697E-02 9.361E-04 0.000E+00
 ETOT  3  -34.731984933348     -6.088E-05 5.146E-05 0.000E+00
 ETOT  4  -34.731985495508     -5.622E-07 7.532E-06 0.000E+00
 ETOT  5  -34.731985502690     -7.182E-09 1.108E-06 0.000E+00
 ETOT  6  -34.731985502795     -1.051E-10 1.739E-07 0.000E+00
 ETOT  7  -34.731985502796     -1.641E-12 2.794E-08 0.000E+00
 ETOT  8  -34.731985502796     -2.842E-14 4.405E-09 0.000E+00
 ETOT  9  -34.731985502797     -2.842E-14 7.305E-10 0.000E+00
 ETOT 10  -34.731985502796      2.842E-14 1.159E-10 0.000E+00
 ETOT 11  -34.731985502797     -1.421E-14 1.958E-11 0.000E+00
 ETOT 12  -34.731985502797      0.000E+00 3.140E-12 0.000E+00
 ETOT 13  -34.731985502797      0.000E+00 5.351E-13 0.000E+00
 ETOT 14  -34.731985502796      1.421E-14 8.683E-14 0.000E+00
 ETOT 15  -34.731985502796      0.000E+00 1.484E-14 0.000E+00
 ETOT 16  -34.731985502796      0.000E+00 2.432E-15 0.000E+00
 ETOT 17  -34.731985502796      7.105E-15 4.159E-16 0.000E+00
 ETOT 18  -34.731985502796     -7.105E-15 6.870E-17 0.000E+00
 ETOT 19  -34.731985502796      0.000E+00 1.175E-17 0.000E+00
 ETOT 20  -34.731985502796      0.000E+00 1.952E-18 0.000E+00
 ETOT 21  -34.731985502796      0.000E+00 3.341E-19 0.000E+00
 ETOT 22  -34.731985502796      0.000E+00 5.568E-20 0.000E+00
 ETOT 23  -34.731985502796      0.000E+00 9.963E-21 0.000E+00

 At SCF step   23   max residual=  9.96E-21 < tolwfr=  1.00E-20 =>converged.

 ----iterations are completed or convergence reached----

 dfpt_looppert: DFPT cycle converged with prtwf=-1. Will skip output of the 1st-order WFK file.
 dfpt_looppert : ek2=    5.1978553554E+01
          f-sum rule ratio=    1.0262461548E+00
 prteigrs : about to open file /scratch/users/j/a/jabreu/flow_simple_11atoms/flow/w321/t1/tmpdata/tmp_1WF1_EIG
 Expectation of eigenvalue derivatives (hartree) for nkpt=   2  k points:
  (in case of degenerate eigenvalues, averaged derivative)
 kpt#   1, nband= 54, wtk=  0.50000, kpt=  0.5000  0.0000  0.5000 (reduced coord)
   0.00000    0.00000   -0.00000    0.00000   -0.00000    0.00000    0.00000   -0.00000
  -0.00000   -0.00000    0.00000   -0.00000   -0.00000   -0.00000    0.00000    0.00000
  -0.00000    0.00000   -0.00000    0.00000   -0.00000    0.00000    0.00000   -0.00000
   0.00000   -0.00000    0.00000   -0.00000   -0.00000   -0.00000    0.00000    0.00000
   0.00000   -0.00000    0.00000   -0.00000    0.00000   -0.00000    0.00000   -0.00000
  -0.00000    0.00000    0.00000    0.00000    0.00000   -0.00000   -0.00000   -0.00000
  -0.00000    0.00000    0.00000    0.00000   -0.00013   -0.05760
 prteigrs : prtvol=0 or 1, do not print more k-points.

 Eight components of 2nd-order total energy (hartree) are
 1,2,3: 0th-order hamiltonian combined with 1st-order wavefunctions
     kin0=   4.45334347E+01 eigvalue=   4.89375823E+00  local=  -1.83652049E+01
 4,5,6: 1st-order hamiltonian combined with 1st and 0th-order wfs
     kin1=  -5.33427907E+01  Hartree=   0.00000000E+00     xc=   0.00000000E+00
 7,8,9: eventually, occupation + non-local contributions
    edocc=   3.63153678E+00     enl0=   3.84606223E-02   enl1=  -1.61211803E+01
 1-9 gives the relaxation energy (to be shifted if some occ is /=2.0)
   erelax=  -3.47319855E+01
  No Ewald or frozen-wf contrib.: the relaxation energy is the total one
 2DEtotal=   -0.3473198550E+02 Ha. Also 2DEtotal=   -0.945105389737E+03 eV
    (  non-var. 2DEtotal :   -3.4731985503E+01 Ha)

 CALCULATION OF EFFECTIVE MASSES
 NOTE : Additional infos (eff. mass eigenvalues, eigenvectors and, if degenerate, average mass) are available in stdout.

 K-point ( 0.500, 0.000, 0.500) | band =    45
 Effective mass tensor:
            -47.2541903660              2.7342644317            -21.4647571448
              2.7342644317             -4.5079073329             -7.2289072506
            -21.4647571448             -7.2289072506            -38.4369523733
 Effective mass tensor eigenvalues:
            -64.8598718136            -23.7099083489             -1.6292699096
 Angular average effective mass 1/(<1/m>)=  -4.4685004718
 Angular average effective mass for Frohlich model (<m**0.5>)**2=  -8.5706262202
 Effective masses along directions: (cart. coord. / red. coord. -> eff. mass)
    1:   1.000000  0.000000  0.000000 /   0.828713  0.559674  0.000000 -> -20.7045855666
    2:   0.000000  1.000000  0.000000 /   0.000000  1.000000  0.000000 ->  -1.8483177904
    3:   0.000000  0.000000  1.000000 /   0.249590  0.249590  0.935633 -> -12.1898926035
    4:   0.577350  0.577350  0.577350 /   0.533482  0.701724  0.472209 ->  -6.4297793666
    5:   0.000000  0.707107  0.707107 /   0.194196  0.657522  0.727978 ->  -6.5888125924
    6:   0.707107  0.000000  0.707107 /   0.652467  0.490661  0.577528 -> -53.5937662558
    7:   0.707107  0.707107  0.000000 /   0.577722  0.816233  0.000000 ->  -2.5091503948

 K-point ( 0.000, 0.000, 0.000) | band =    46
 Effective mass tensor:
              0.4011056759              0.0077722725              0.0222065593
              0.0077722725              0.3868709236              0.0097753846
              0.0222065593              0.0097753846              0.3251814580
 Effective mass tensor eigenvalues:
              0.3183502739              0.3834495492              0.4113582343
 Angular average effective mass 1/(<1/m>)=   0.3667450166
 Angular average effective mass for Frohlich model (<m**0.5>)**2=   0.3680668488
 Effective masses along directions: (cart. coord. / red. coord. -> eff. mass)
    1:   1.000000  0.000000  0.000000 /   0.828713  0.559674  0.000000 ->   0.3994586215
    2:   0.000000  1.000000  0.000000 /   0.000000  1.000000  0.000000 ->   0.3864507405
    3:   0.000000  0.000000  1.000000 /   0.249590  0.249590  0.935633 ->   0.3237262044
    4:   0.577350  0.577350  0.577350 /   0.533482  0.701724  0.472209 ->   0.3947568328
    5:   0.000000  0.707107  0.707107 /   0.194196  0.657522  0.727978 ->   0.3618344674
    6:   0.707107  0.000000  0.707107 /   0.652467  0.490661  0.577528 ->   0.3807150324
    7:   0.707107  0.707107  0.000000 /   0.577722  0.816233  0.000000 ->   0.4000781765

 END OF EFFECTIVE MASSES SECTION

 ---- first-order wavefunction calculations are completed ----

 Total localisation tensor (bohr^2) in cartesian coordinates
  WARNING : still subject to testing - especially symmetries.
      direction              matrix element
   alpha     beta       real part   imaginary part
     1        1       1.9451638394    0.0000000000
     1        2       0.6679155516    0.0000000000
     1        3       0.6921530608    0.0000000000
     2        1       0.6679155516    0.0000000000
     2        2       0.7293729505    0.0000000000
     2        3       0.3057056831    0.0000000000
     3        1       0.6921530608    0.0000000000
     3        2       0.3057056831    0.0000000000
     3        3       1.0815503106    0.0000000000

 respfn : d/dk was computed, but no 2DTE, so no DDB output.

== END DATASET(S) ==============================================================

 -outvars: echo values of variables after computation  --------
            acell      1.0000000000E+00  1.0000000000E+00  1.0000000000E+00 Bohr
              amu      2.29897680E+01  2.08980370E+02  1.59994000E+01
             ecut      4.40000000E+01 Hartree
           etotal     -3.4731985503E+01
            fcart      0.0000000000E+00  0.0000000000E+00  0.0000000000E+00
                       0.0000000000E+00  0.0000000000E+00  0.0000000000E+00
                       0.0000000000E+00  0.0000000000E+00  0.0000000000E+00
                       0.0000000000E+00  0.0000000000E+00  0.0000000000E+00
                       0.0000000000E+00  0.0000000000E+00  0.0000000000E+00
                       0.0000000000E+00  0.0000000000E+00  0.0000000000E+00
                       0.0000000000E+00  0.0000000000E+00  0.0000000000E+00
                       0.0000000000E+00  0.0000000000E+00  0.0000000000E+00
                       0.0000000000E+00  0.0000000000E+00  0.0000000000E+00
                       0.0000000000E+00  0.0000000000E+00  0.0000000000E+00
                       0.0000000000E+00  0.0000000000E+00  0.0000000000E+00
-          fftalg         512
           irdden           1
           irdwfk           1
           istwfk        1    1
              ixc     -116133
              kpt      5.00000000E-01  0.00000000E+00  5.00000000E-01
                       0.00000000E+00  0.00000000E+00  0.00000000E+00
           kptopt           0
P           mkmem           2
P          mkqmem           2
P          mk1mem           2
            natom          11
            nband          54
           nbdbuf           4
            ngfft          72      72      75
             nkpt           2
            nstep        2000
             nsym           4
           ntypat           3
              occ      2.000000  2.000000  2.000000  2.000000  2.000000  2.000000
                       2.000000  2.000000  2.000000  2.000000  2.000000  2.000000
                       2.000000  2.000000  2.000000  2.000000  2.000000  2.000000
                       2.000000  2.000000  2.000000  2.000000  2.000000  2.000000
                       2.000000  2.000000  2.000000  2.000000  2.000000  2.000000
                       2.000000  2.000000  2.000000  2.000000  2.000000  2.000000
                       2.000000  2.000000  2.000000  2.000000  2.000000  2.000000
                       2.000000  2.000000  2.000000  0.000000  0.000000  0.000000
                       0.000000  0.000000  0.000000  0.000000  0.000000  0.000000
        optdriver           1
            prtwf          -1
            rfdir           1       1       1
           rfelfd           2
            rprim      1.0650469912E+01  0.0000000000E+00  3.2921644572E+00
                       7.1928261756E+00  7.8546649165E+00  3.2921644572E+00
                       0.0000000000E+00  0.0000000000E+00  1.2341249331E+01
          spgroup          12
           strten      0.0000000000E+00  0.0000000000E+00  0.0000000000E+00
                       0.0000000000E+00  0.0000000000E+00  0.0000000000E+00
           symrel      1  0  0   0  1  0   0  0  1      -1  0  0   0 -1  0   0  0 -1
                       0 -1  0  -1  0  0   0  0 -1       0  1  0   1  0  0   0  0  1
           tolwfr      1.00000000E-20
            typat      1  1  1  1  1  2  3  3  3  3  3
           useylm           1
              wtk        0.50000    0.50000
           xangst      6.4114588715E+00  2.8223407164E+00  3.3005711487E+00
                       6.5724778270E+00  2.8932216755E+00  6.8317650710E+00
                       2.8697877885E+00  1.2632879794E+00  3.1832195958E+00
                       3.0308067441E+00  1.3341689386E+00  6.7144135181E+00
                       0.0000000000E+00  0.0000000000E+00  3.2653539357E+00
                       0.0000000000E+00  0.0000000000E+00  0.0000000000E+00
                       1.3085186113E+00  5.7601326449E-01  1.5471901472E+00
                       4.7211328078E+00  2.0782548275E+00  1.7421383977E+00
                       1.4158771713E+00  6.2327277927E-01  5.0589682363E+00
                       8.0263884443E+00  3.5332368757E+00  4.9560164305E+00
                       8.1337470043E+00  3.5804963904E+00  8.4677945196E+00
            xcart      1.2115901379E+01  5.3334510076E+00  6.2371755532E+00
                       1.2420183108E+01  5.4673966084E+00  1.2910164988E+01
                       5.4231129798E+00  2.3872683081E+00  6.0154132568E+00
                       5.7273947080E+00  2.5212139089E+00  1.2688402692E+01
                       0.0000000000E+00  0.0000000000E+00  6.1706246654E+00
                       0.0000000000E+00  0.0000000000E+00  0.0000000000E+00
                       2.4727418151E+00  1.0885073188E+00  2.9237656537E+00
                       8.9216480437E+00  3.9273324582E+00  3.2921644572E+00
                       2.6756200916E+00  1.1778148589E+00  9.5600644815E+00
                       1.5167675996E+01  6.6768500576E+00  9.3655137638E+00
                       1.5370554272E+01  6.7661575977E+00  1.6001812592E+01
             xred      6.7901700000E-01  6.7901700000E-01  1.4312200000E-01
                       6.9607000000E-01  6.9607000000E-01  6.7473000000E-01
                       3.0393000000E-01  3.0393000000E-01  3.2527000000E-01
                       3.2098300000E-01  3.2098300000E-01  8.5687800000E-01
                       0.0000000000E+00  0.0000000000E+00  5.0000000000E-01
                       0.0000000000E+00  0.0000000000E+00  0.0000000000E+00
                       1.3858100000E-01  1.3858100000E-01  1.6297400000E-01
                       5.0000000000E-01  5.0000000000E-01  0.0000000000E+00
                       1.4995100000E-01  1.4995100000E-01  6.9464100000E-01
                       8.5004900000E-01  8.5004900000E-01  3.0535900000E-01
                       8.6141900000E-01  8.6141900000E-01  8.3702600000E-01
            znucl       11.00000   83.00000    8.00000

- Timing analysis has been suppressed with timopt=0

 Suggested references for the acknowledgment of ABINIT usage.

 Calculation completed.
.Delivered   2 WARNINGs and   5 COMMENTs to log file.