.Version 9.5.1 of ABINIT

 ABINIT is a project of the Universite Catholique de Louvain,
 Corning Inc. and other collaborators, see ~abinit/doc/developers/contributors.txt .
 acknowledgments of the ABINIT effort.

.Starting date : Tue 11 May 2021.
- ( at 21h54 )

- input  file    -> /scratch/users/j/a/jabreu/flow_simple_8atoms/flow/w369/t1/run.abi
- output file    -> /scratch/users/j/a/jabreu/flow_simple_8atoms/flow/w369/t1/run.abo
- root for input  files -> /scratch/users/j/a/jabreu/flow_simple_8atoms/flow/w369/t1/indata/in
- root for output files -> /scratch/users/j/a/jabreu/flow_simple_8atoms/flow/w369/t1/outdata/out

 Symmetries : space group R-3 m (#166); Bravais hR (rhombohedral)
     intxc =       0      iscf =       7    lmnmax =      18     lnmax =       6
     mgfft =      60  mpssoang =       3    mqgrid =    3001     natom =       8
  nloc_mem =       1    nspden =       1   nspinor =       1    nsppol =       1
      nsym =      12    n1xccc =    2501    ntypat =       3    occopt =       1
   xclevel =       2
-    mband =          42        mffmem =           1         mkmem =           1
-   mkqmem =           1        mk1mem =           1           mpw =       10267
      nfft =      216000          nkpt =           1
  Rough estimation (10% accuracy) of disk space for files :

------------- Echo of variables that govern the present computation ------------
-
- outvars: echo of selected default values
-   iomode0 =  0 , fftalg0 =512 , wfoptalg0 =  0
-
- outvars: echo of global parameters not present in the input file
-  max_nthreads =    0
-
 -outvars: echo values of preprocessed input variables --------
            acell      1.0000000000E+00  1.0000000000E+00  1.0000000000E+00 Bohr
              amu      3.90983000E+01  7.49215900E+01  1.89984032E+01
             ecut      4.20000000E+01 Hartree
-          fftalg         512
           irdden           1
           irdwfk           1
           istwfk        1
              ixc     -116133
           kptopt           0
P           mkmem           1
P          mkqmem           1
P          mk1mem           1
            natom           8
            nband          42
           nbdbuf           4
            ngfft          60      60      60
             nkpt           1
            nstep        2000
             nsym          12
           ntypat           3
              occ      2.000000  2.000000  2.000000  2.000000  2.000000  2.000000
                       2.000000  2.000000  2.000000  2.000000  2.000000  2.000000
                       2.000000  2.000000  2.000000  2.000000  2.000000  2.000000
                       2.000000  2.000000  2.000000  2.000000  2.000000  2.000000
                       2.000000  2.000000  2.000000  2.000000  2.000000  2.000000
                       2.000000  2.000000  2.000000  0.000000  0.000000  0.000000
                       0.000000  0.000000  0.000000  0.000000  0.000000  0.000000
        optdriver           1
            prtwf          -1
            rfdir           1       1       1
           rfelfd           2
            rprim      9.2523166618E+00  0.0000000000E+00 -1.3625772354E+00
                      -1.5779388904E+00  9.1167687515E+00 -1.3625772354E+00
                       0.0000000000E+00  0.0000000000E+00  9.3521110094E+00
          spgroup         166
           symrel      1  0  0   0  1  0   0  0  1      -1  0  0   0 -1  0   0  0 -1
                       0  1  0   1  0  0   0  0  1       0 -1  0  -1  0  0   0  0 -1
                       0  0  1   1  0  0   0  1  0       0  0 -1  -1  0  0   0 -1  0
                       1  0  0   0  0  1   0  1  0      -1  0  0   0  0 -1   0 -1  0
                       0  1  0   0  0  1   1  0  0       0 -1  0   0  0 -1  -1  0  0
                       0  0  1   0  1  0   1  0  0       0  0 -1   0 -1  0  -1  0  0
           tolwfr      1.00000000E-20
            typat      1  2  3  3  3  3  3  3
           useylm           1
           xangst      2.0305529034E+00  2.4121931196E+00  1.7534171813E+00
                       0.0000000000E+00  0.0000000000E+00  0.0000000000E+00
                       4.6038995862E-01  4.4560491743E+00  3.9755460801E-01
                       1.0215955323E+00  1.2136033048E+00  4.2083122996E+00
                      -2.5114420646E-01  3.6107829345E+00  3.1092797545E+00
                       3.0395102744E+00  3.6107829345E+00 -7.0147793705E-01
                       3.6007158481E+00  3.6833706498E-01  3.1092797545E+00
                       4.3122500132E+00  1.2136033048E+00  3.9755460801E-01
            xcart      3.8371888857E+00  4.5583843758E+00  3.3134782693E+00
                       0.0000000000E+00  0.0000000000E+00  0.0000000000E+00
                       8.7001093612E-01  8.4207125741E+00  7.5126933200E-01
                       1.9305357747E+00  2.2933778801E+00  7.9525577279E+00
                      -4.7459377007E-01  6.8233908714E+00  5.8756872066E+00
                       5.7438419967E+00  6.8233908714E+00 -1.3256011893E+00
                       6.8043668353E+00  6.9605617741E-01  5.8756872066E+00
                       8.1489715415E+00  2.2933778801E+00  7.5126933200E-01
             xred      5.0000000000E-01  5.0000000000E-01  5.0000000000E-01
                       0.0000000000E+00  0.0000000000E+00  0.0000000000E+00
                       2.5155600000E-01  9.2365100000E-01  2.5155600000E-01
                       2.5155600000E-01  2.5155600000E-01  9.2365100000E-01
                       7.6349000000E-02  7.4844400000E-01  7.4844400000E-01
                       7.4844400000E-01  7.4844400000E-01  7.6349000000E-02
                       7.4844400000E-01  7.6349000000E-02  7.4844400000E-01
                       9.2365100000E-01  2.5155600000E-01  2.5155600000E-01
            znucl       19.00000   33.00000    9.00000

 chkinp: Checking input parameters for consistency.

== DATASET  1 ==================================================================
-   mpi_nproc: 1, omp_nthreads: -1 (-1 if OMP is not activated)

--- !DatasetInfo
iteration_state: {dtset: 1, }
dimensions: {natom: 8, nkpt: 1, mband: 42, nsppol: 1, nspinor: 1, nspden: 1, mpw: 10267, }
cutoff_energies: {ecut:  42.0, pawecutdg:  -1.0, }
electrons: {nelect:   6.60000000E+01, charge:   0.00000000E+00, occopt:   1.00000000E+00, tsmear:   1.00000000E-02, }
meta: {optdriver: 1, rfelfd: 2, }
...

 Real(R)+Recip(G) space primitive vectors, cartesian coordinates (Bohr,Bohr^-1):
 R(1)=  9.2523167  0.0000000 -1.3625772  G(1)=  0.1080810  0.0187068  0.0000000
 R(2)= -1.5779389  9.1167688 -1.3625772  G(2)=  0.0000000  0.1096880  0.0000000
 R(3)=  0.0000000  0.0000000  9.3521110  G(3)=  0.0157471  0.0187068  0.1069277
 Unit cell volume ucvol=  7.8886208E+02 bohr^3
 Angles (23,13,12)=  9.83776598E+01  9.83776598E+01  9.83776598E+01 degrees

 getcut: wavevector=  0.0000  0.0000  0.0000  ngfft=  60  60  60
         ecut(hartree)=     42.000   => boxcut(ratio)=   2.19955

--- Pseudopotential description ------------------------------------------------
- pspini: atom type   1  psp file is /scratch/users/j/a/jabreu/pseudos/PBEsol/K.psp8
- pspatm: opening atomic psp file    /scratch/users/j/a/jabreu/pseudos/PBEsol/K.psp8
- K     ONCVPSP-3.3.0  r_core=   1.36296   1.46408   1.61068
- 19.00000   9.00000    180112                znucl, zion, pspdat
    8 -116133    2    4       400   0.00000   pspcod,pspxc,lmax,lloc,mmax,r2well
    3.99000000000000    5.00000000000000    0.00000000000000   rchrg,fchrg,qchrg
     nproj     2     2     2
     extension_switch     1
  pspatm : epsatm=    8.32487830
         --- l  ekb(1:nproj) -->
             0   10.921326    0.816676
             1    4.431000    0.560368
             2   -3.384038   -1.043186
 pspatm: atomic psp has been read  and splines computed

- pspini: atom type   2  psp file is /scratch/users/j/a/jabreu/pseudos/PBEsol/As.psp8
- pspatm: opening atomic psp file    /scratch/users/j/a/jabreu/pseudos/PBEsol/As.psp8
- As    ONCVPSP-3.3.0  r_core=   1.76603   1.70395   1.80867
- 33.00000  15.00000    180112                znucl, zion, pspdat
    8 -116133    2    4       600   0.00000   pspcod,pspxc,lmax,lloc,mmax,r2well
    5.99000000000000    5.00000000000000    0.00000000000000   rchrg,fchrg,qchrg
     nproj     2     2     2
     extension_switch     1
  pspatm : epsatm=   28.79155382
         --- l  ekb(1:nproj) -->
             0    8.270760    0.868950
             1    4.919053    0.756587
             2  -10.048665   -4.076802
 pspatm: atomic psp has been read  and splines computed

- pspini: atom type   3  psp file is /scratch/users/j/a/jabreu/pseudos/PBEsol/F.psp8
- pspatm: opening atomic psp file    /scratch/users/j/a/jabreu/pseudos/PBEsol/F.psp8
- F     ONCVPSP-3.3.0  r_core=   1.30942   1.45782   1.60379
-  9.00000   7.00000    180112                znucl, zion, pspdat
    8 -116133    2    4       600   0.00000   pspcod,pspxc,lmax,lloc,mmax,r2well
    5.99000000000000    2.50000000000000    0.00000000000000   rchrg,fchrg,qchrg
     nproj     2     2     1
     extension_switch     1
  pspatm : epsatm=    4.89824824
         --- l  ekb(1:nproj) -->
             0    6.506434    1.065875
             1   -3.978753   -1.295852
             2   -2.394754
 pspatm: atomic psp has been read  and splines computed

   4.38939082E+03                                ecore*ucvol(ha*bohr**3)

-inwffil : will read wavefunctions from disk file /scratch/users/j/a/jabreu/flow_simple_8atoms/flow/w369/t1/indata/in_WFK

 ==>  initialize data related to q vector <==

 The list of irreducible perturbations for this q vector is:
    1)    idir= 1    ipert=   9
    2)    idir= 2    ipert=   9
    3)    idir= 3    ipert=   9

 Perturbation wavevector (in red.coord.)   0.000000  0.000000  0.000000
 Perturbation : derivative vs k along direction   1

 dfpt_looppert : COMMENT -
  In a d/dk calculation, iscf is set to -3 automatically.
 The set of symmetries contains only one element for this perturbation.
 symkpt : not enough symmetry to change the number of k points.

[...]

 Initialisation of the first-order wave-functions :
  ireadwf=   0

--- !BeginCycle
iteration_state: {dtset: 1, }
solver: {iscf: 7, nstep: 2000, nline: 4, wfoptalg: 0, }
tolerances: {tolwfr: 1.00E-20, }
...

     iter   2DEtotal(Ha)        deltaE(Ha) residm    vres2
-ETOT  1  -43.502315560837     -4.350E+01 8.876E-02 0.000E+00
 ETOT  2  -43.546162351190     -4.385E-02 1.993E-02 0.000E+00
 ETOT  3  -43.546374465738     -2.121E-04 7.777E-03 0.000E+00
 ETOT  4  -43.546377403758     -2.938E-06 2.926E-03 0.000E+00
 ETOT  5  -43.546377457451     -5.369E-08 1.649E-03 0.000E+00
 ETOT  6  -43.546377458583     -1.132E-09 6.588E-04 0.000E+00
 ETOT  7  -43.546377458609     -2.587E-11 3.674E-04 0.000E+00
 ETOT  8  -43.546377458609     -6.395E-13 1.657E-04 0.000E+00
 ETOT  9  -43.546377458609     -1.421E-14 8.757E-05 0.000E+00
 ETOT 10  -43.546377458609      2.842E-14 4.314E-05 0.000E+00
 ETOT 11  -43.546377458609      1.421E-14 2.180E-05 0.000E+00
 ETOT 12  -43.546377458609      7.105E-15 1.121E-05 0.000E+00
 ETOT 13  -43.546377458609     -2.132E-14 5.517E-06 0.000E+00
 ETOT 14  -43.546377458609      0.000E+00 2.885E-06 0.000E+00
[...]
   0.00000    0.00000    0.00000    0.00000   -0.00000   -0.00000   -0.00000   -0.00000
   0.00000    0.00000   -0.00000   -0.00000   -0.00000    0.00000   -0.00000   -0.00000
   0.00000    0.00000    0.00000   -0.00000   -0.00000   -0.00000    0.00000    0.00000
   0.00000   -0.00000    0.00000   -0.00000   -0.00000    0.00000    0.00000    0.00000
  -0.00000   -0.00004

 Eight components of 2nd-order total energy (hartree) are
 1,2,3: 0th-order hamiltonian combined with 1st-order wavefunctions
     kin0=   5.26504352E+01 eigvalue=   5.57628854E+00  local=  -2.11050258E+01
 4,5,6: 1st-order hamiltonian combined with 1st and 0th-order wfs
     kin1=  -6.33901649E+01  Hartree=   0.00000000E+00     xc=   0.00000000E+00
 7,8,9: eventually, occupation + non-local contributions
    edocc=   5.51698107E+00     enl0=   9.07698371E-01   enl1=  -2.37025900E+01
 1-9 gives the relaxation energy (to be shifted if some occ is /=2.0)
   erelax=  -4.35463775E+01
  No Ewald or frozen-wf contrib.: the relaxation energy is the total one
 2DEtotal=   -0.4354637746E+02 Ha. Also 2DEtotal=   -0.118495719274E+04 eV
    (  non-var. 2DEtotal :   -4.3546377458E+01 Ha)

 Perturbation wavevector (in red.coord.)   0.000000  0.000000  0.000000
 Perturbation : derivative vs k along direction   2
 The set of symmetries contains only one element for this perturbation.
 symkpt : not enough symmetry to change the number of k points.

[...]

 Perturbation wavevector (in red.coord.)   0.000000  0.000000  0.000000
 Perturbation : derivative vs k along direction   3
 The set of symmetries contains only one element for this perturbation.
 symkpt : not enough symmetry to change the number of k points.

-inwffil : will read wavefunctions from disk file /scratch/users/j/a/jabreu/flow_simple_8atoms/flow/w369/t1/indata/in_WFK

 Initialisation of the first-order wave-functions :
  ireadwf=   0

--- !BeginCycle
iteration_state: {dtset: 1, }
solver: {iscf: 7, nstep: 2000, nline: 4, wfoptalg: 0, }
tolerances: {tolwfr: 1.00E-20, }
...

     iter   2DEtotal(Ha)        deltaE(Ha) residm    vres2
-ETOT  1  -43.502240063987     -4.350E+01 8.593E-02 0.000E+00
 ETOT  2  -43.546132653423     -4.389E-02 2.023E-02 0.000E+00
 ETOT  3  -43.546344971500     -2.123E-04 7.598E-03 0.000E+00
 ETOT  4  -43.546347910147     -2.939E-06 2.984E-03 0.000E+00
 ETOT  5  -43.546347963863     -5.372E-08 1.650E-03 0.000E+00
 ETOT  6  -43.546347964997     -1.134E-09 7.031E-04 0.000E+00
 ETOT  7  -43.546347965023     -2.591E-11 3.813E-04 0.000E+00
 ETOT  8  -43.546347965023     -6.111E-13 1.815E-04 0.000E+00
 ETOT  9  -43.546347965023     -4.974E-14 9.313E-05 0.000E+00
 ETOT 10  -43.546347965023      3.553E-14 4.752E-05 0.000E+00
 ETOT 11  -43.546347965023     -7.105E-15 2.338E-05 0.000E+00
 ETOT 12  -43.546347965023      0.000E+00 1.234E-05 0.000E+00
 ETOT 13  -43.546347965023      7.105E-15 5.925E-06 0.000E+00
 ETOT 14  -43.546347965023     -7.105E-15 3.174E-06 0.000E+00
 ETOT 15  -43.546347965023      7.105E-15 1.504E-06 0.000E+00
 ETOT 16  -43.546347965023     -7.105E-15 8.106E-07 0.000E+00
 ETOT 17  -43.546347965023      7.105E-15 3.819E-07 0.000E+00
 ETOT 18  -43.546347965023     -7.105E-15 2.061E-07 0.000E+00
 ETOT 19  -43.546347965023      7.105E-15 9.687E-08 0.000E+00
 ETOT 20  -43.546347965023      0.000E+00 5.223E-08 0.000E+00
 ETOT 21  -43.546347965023     -7.105E-15 2.455E-08 0.000E+00
 ETOT 22  -43.546347965023      7.105E-15 1.321E-08 0.000E+00
 ETOT 23  -43.546347965023      0.000E+00 6.220E-09 0.000E+00
 ETOT 24  -43.546347965023      0.000E+00 3.339E-09 0.000E+00
 ETOT 25  -43.546347965023     -7.105E-15 1.575E-09 0.000E+00
 ETOT 26  -43.546347965023     -7.105E-15 8.429E-10 0.000E+00
 ETOT 27  -43.546347965023      1.421E-14 3.985E-10 0.000E+00
 ETOT 28  -43.546347965023      0.000E+00 2.127E-10 0.000E+00
 ETOT 29  -43.546347965023     -7.105E-15 1.008E-10 0.000E+00
 ETOT 30  -43.546347965023      0.000E+00 5.366E-11 0.000E+00
 ETOT 31  -43.546347965023      0.000E+00 2.550E-11 0.000E+00
 ETOT 32  -43.546347965023      0.000E+00 1.353E-11 0.000E+00
 ETOT 33  -43.546347965023      0.000E+00 6.448E-12 0.000E+00
 ETOT 34  -43.546347965023      7.105E-15 3.413E-12 0.000E+00
 ETOT 35  -43.546347965023      7.105E-15 1.630E-12 0.000E+00
 ETOT 36  -43.546347965023     -7.105E-15 8.608E-13 0.000E+00
 ETOT 37  -43.546347965023      7.105E-15 4.122E-13 0.000E+00
 ETOT 38  -43.546347965023     -7.105E-15 2.171E-13 0.000E+00
 ETOT 39  -43.546347965023      0.000E+00 1.042E-13 0.000E+00
 ETOT 40  -43.546347965023      7.105E-15 5.477E-14 0.000E+00
 ETOT 41  -43.546347965023      0.000E+00 2.634E-14 0.000E+00
 ETOT 42  -43.546347965023     -1.421E-14 1.382E-14 0.000E+00
 ETOT 43  -43.546347965023     -7.105E-15 6.658E-15 0.000E+00
 ETOT 44  -43.546347965023      7.105E-15 3.487E-15 0.000E+00
 ETOT 45  -43.546347965023     -7.105E-15 1.683E-15 0.000E+00
 ETOT 46  -43.546347965023      0.000E+00 8.802E-16 0.000E+00
 ETOT 47  -43.546347965023      1.421E-14 4.254E-16 0.000E+00
 ETOT 48  -43.546347965023     -7.105E-15 2.222E-16 0.000E+00
 ETOT 49  -43.546347965023      7.105E-15 1.076E-16 0.000E+00
 ETOT 50  -43.546347965023      7.105E-15 5.612E-17 0.000E+00
 ETOT 51  -43.546347965023     -7.105E-15 2.869E-17 0.000E+00
 ETOT 52  -43.546347965023      7.105E-15 1.418E-17 0.000E+00
 ETOT 53  -43.546347965023     -7.105E-15 8.047E-18 0.000E+00
 ETOT 54  -43.546347965023     -1.421E-14 3.582E-18 0.000E+00
 ETOT 55  -43.546347965023      3.553E-14 2.258E-18 0.000E+00
 ETOT 56  -43.546347965023     -2.132E-14 9.483E-19 0.000E+00
 ETOT 57  -43.546347965023      0.000E+00 6.337E-19 0.000E+00
 ETOT 58  -43.546347965023      0.000E+00 2.658E-19 0.000E+00
 ETOT 59  -43.546347965023     -7.105E-15 1.779E-19 0.000E+00
 ETOT 60  -43.546347965023      7.105E-15 7.453E-20 0.000E+00
 ETOT 61  -43.546347965023      1.421E-14 4.995E-20 0.000E+00
 ETOT 62  -43.546347965023      0.000E+00 2.090E-20 0.000E+00
 ETOT 63  -43.546347965023     -7.105E-15 1.403E-20 0.000E+00
 ETOT 64  -43.546347965023     -7.105E-15 9.945E-21 0.000E+00

 At SCF step   64   max residual=  9.94E-21 < tolwfr=  1.00E-20 =>converged.

 ----iterations are completed or convergence reached----

 dfpt_looppert: DFPT cycle converged with prtwf=-1. Will skip output of the 1st-order WFK file.
 dfpt_looppert : ek2=    6.2697726056E+01
          f-sum rule ratio=    1.0110425465E+00
 prteigrs : about to open file /scratch/users/j/a/jabreu/flow_simple_8atoms/flow/w369/t1/tmpdata/tmp_1WF1_EIG
 Expectation of eigenvalue derivatives (hartree) for nkpt=   1  k points:
  (in case of degenerate eigenvalues, averaged derivative)
 kpt#   1, nband= 42, wtk=  1.00000, kpt=  0.0000  0.0000  0.0000 (reduced coord)
  -0.00000   -0.00000    0.00000    0.00000    0.00000   -0.00000    0.00000    0.00000
  -0.00000   -0.00000   -0.00000   -0.00000   -0.00000    0.00000    0.00000   -0.00000
  -0.00000   -0.00000   -0.00000   -0.00000   -0.00000   -0.00000   -0.00000   -0.00000
  -0.00000   -0.00000   -0.00000    0.00000   -0.00000   -0.00000    0.00000    0.00000
   0.00000   -0.00000   -0.00000   -0.00000   -0.00000    0.00000    0.00000    0.00000
   0.00000    0.00001

 Eight components of 2nd-order total energy (hartree) are
 1,2,3: 0th-order hamiltonian combined with 1st-order wavefunctions
     kin0=   5.26657833E+01 eigvalue=   5.57966982E+00  local=  -2.11164954E+01
 4,5,6: 1st-order hamiltonian combined with 1st and 0th-order wfs
     kin1=  -6.33900686E+01  Hartree=   0.00000000E+00     xc=   0.00000000E+00
 7,8,9: eventually, occupation + non-local contributions
    edocc=   5.51035592E+00     enl0=   9.07034325E-01   enl1=  -2.37026273E+01
 1-9 gives the relaxation energy (to be shifted if some occ is /=2.0)
   erelax=  -4.35463480E+01
  No Ewald or frozen-wf contrib.: the relaxation energy is the total one
 2DEtotal=   -0.4354634797E+02 Ha. Also 2DEtotal=   -0.118495639018E+04 eV
    (  non-var. 2DEtotal :   -4.3546347965E+01 Ha)

 CALCULATION OF EFFECTIVE MASSES
 NOTE : Additional infos (eff. mass eigenvalues, eigenvectors and, if degenerate, average mass) are available in stdout.

 K-point ( 0.000, 0.000, 0.000) | band =    33
 Effective mass tensor:
             -4.8867342998             -2.0603169320             -1.4976392433
             -2.0603169320             -5.5999374886             -1.7791189053
             -1.4976392433             -1.7791189053             -4.4456233825
 Effective mass tensor eigenvalues:
             -8.6275226856             -3.1523862707             -3.1523862145
 Angular average effective mass 1/(<1/m>)=  -3.9981440590
 Angular average effective mass for Frohlich model (<m**0.5>)**2=  -4.2199061379
 Effective masses along directions: (cart. coord. / red. coord. -> eff. mass)
    1:   1.000000  0.000000  0.000000 /   0.985767 -0.168118  0.000000 ->  -3.9455381838
    2:   0.000000  1.000000  0.000000 /   0.000000  1.000000  0.000000 ->  -4.4008753216
    3:   0.000000  0.000000  1.000000 /  -0.142700 -0.142700  0.979425 ->  -3.7082390349
    4:   0.577350  0.577350  0.577350 /   0.575639  0.450622  0.682334 ->  -8.3827691489
    5:   0.000000  0.707107  0.707107 /  -0.111460  0.634299  0.765010 ->  -5.4634856155
    6:   0.707107  0.000000  0.707107 /   0.626967 -0.233671  0.743176 ->  -4.8427428578
    7:   0.707107  0.707107  0.000000 /   0.775239  0.631668  0.000000 ->  -6.0758998722

 K-point ( 0.000, 0.000, 0.000) | band =    34
 Effective mass tensor:
              0.8918540889             -0.0086068088             -0.0062562678
             -0.0086068088              0.8888747407             -0.0074321262
             -0.0062562678             -0.0074321262              0.8936967958
 Effective mass tensor eigenvalues:
              0.8762272464              0.8990991894              0.8990991896
 Angular average effective mass 1/(<1/m>)=   0.8913436816
 Angular average effective mass for Frohlich model (<m**0.5>)**2=   0.8913833148
 Effective masses along directions: (cart. coord. / red. coord. -> eff. mass)
    1:   1.000000  0.000000  0.000000 /   0.985767 -0.168118  0.000000 ->   0.8917259377
    2:   0.000000  1.000000  0.000000 /   0.000000  1.000000  0.000000 ->   0.8887288628
    3:   0.000000  0.000000  1.000000 /  -0.142700 -0.142700  0.979425 ->   0.8935897470
    4:   0.577350  0.577350  0.577350 /   0.575639  0.450622  0.682334 ->   0.8766021192
    5:   0.000000  0.707107  0.707107 /  -0.111460  0.634299  0.765010 ->   0.8837232190
    6:   0.707107  0.000000  0.707107 /   0.626967 -0.233671  0.743176 ->   0.8863735044
    7:   0.707107  0.707107  0.000000 /   0.775239  0.631668  0.000000 ->   0.8816502777

 END OF EFFECTIVE MASSES SECTION

 ---- first-order wavefunction calculations are completed ----

 Total localisation tensor (bohr^2) in cartesian coordinates
  WARNING : still subject to testing - especially symmetries.
      direction              matrix element
   alpha     beta       real part   imaginary part
     1        1       0.4748489079    0.0000000000
     1        2      -0.0775405380    0.0000000000
     1        3      -0.0563648675    0.0000000000
     2        1      -0.0775405380    0.0000000000
     2        2       0.4480016037    0.0000000000
     2        3      -0.0669575815    0.0000000000
     3        1      -0.0563648675    0.0000000000
     3        2      -0.0669575815    0.0000000000
     3        3       0.4914492554    0.0000000000

 respfn : d/dk was computed, but no 2DTE, so no DDB output.

== END DATASET(S) ==============================================================

 -outvars: echo values of variables after computation  --------
            acell      1.0000000000E+00  1.0000000000E+00  1.0000000000E+00 Bohr
              amu      3.90983000E+01  7.49215900E+01  1.89984032E+01
             ecut      4.20000000E+01 Hartree
           etotal     -4.3546347965E+01
            fcart      0.0000000000E+00  0.0000000000E+00  0.0000000000E+00
                       0.0000000000E+00  0.0000000000E+00  0.0000000000E+00
                       0.0000000000E+00  0.0000000000E+00  0.0000000000E+00
                       0.0000000000E+00  0.0000000000E+00  0.0000000000E+00
                       0.0000000000E+00  0.0000000000E+00  0.0000000000E+00
                       0.0000000000E+00  0.0000000000E+00  0.0000000000E+00
                       0.0000000000E+00  0.0000000000E+00  0.0000000000E+00
                       0.0000000000E+00  0.0000000000E+00  0.0000000000E+00
-          fftalg         512
           irdden           1
           irdwfk           1
           istwfk        1
              ixc     -116133
           kptopt           0
P           mkmem           1
P          mkqmem           1
P          mk1mem           1
            natom           8
            nband          42
           nbdbuf           4
            ngfft          60      60      60
             nkpt           1
            nstep        2000
             nsym          12
           ntypat           3
              occ      2.000000  2.000000  2.000000  2.000000  2.000000  2.000000
                       2.000000  2.000000  2.000000  2.000000  2.000000  2.000000
                       2.000000  2.000000  2.000000  2.000000  2.000000  2.000000
                       2.000000  2.000000  2.000000  2.000000  2.000000  2.000000
                       2.000000  2.000000  2.000000  2.000000  2.000000  2.000000
                       2.000000  2.000000  2.000000  0.000000  0.000000  0.000000
                       0.000000  0.000000  0.000000  0.000000  0.000000  0.000000
        optdriver           1
            prtwf          -1
            rfdir           1       1       1
           rfelfd           2
            rprim      9.2523166618E+00  0.0000000000E+00 -1.3625772354E+00
                      -1.5779388904E+00  9.1167687515E+00 -1.3625772354E+00
                       0.0000000000E+00  0.0000000000E+00  9.3521110094E+00
          spgroup         166
           strten      0.0000000000E+00  0.0000000000E+00  0.0000000000E+00
                       0.0000000000E+00  0.0000000000E+00  0.0000000000E+00
           symrel      1  0  0   0  1  0   0  0  1      -1  0  0   0 -1  0   0  0 -1
                       0  1  0   1  0  0   0  0  1       0 -1  0  -1  0  0   0  0 -1
                       0  0  1   1  0  0   0  1  0       0  0 -1  -1  0  0   0 -1  0
                       1  0  0   0  0  1   0  1  0      -1  0  0   0  0 -1   0 -1  0
                       0  1  0   0  0  1   1  0  0       0 -1  0   0  0 -1  -1  0  0
                       0  0  1   0  1  0   1  0  0       0  0 -1   0 -1  0  -1  0  0
           tolwfr      1.00000000E-20
            typat      1  2  3  3  3  3  3  3
           useylm           1
           xangst      2.0305529034E+00  2.4121931196E+00  1.7534171813E+00
                       0.0000000000E+00  0.0000000000E+00  0.0000000000E+00
                       4.6038995862E-01  4.4560491743E+00  3.9755460801E-01
                       1.0215955323E+00  1.2136033048E+00  4.2083122996E+00
                      -2.5114420646E-01  3.6107829345E+00  3.1092797545E+00
                       3.0395102744E+00  3.6107829345E+00 -7.0147793705E-01
                       3.6007158481E+00  3.6833706498E-01  3.1092797545E+00
                       4.3122500132E+00  1.2136033048E+00  3.9755460801E-01
            xcart      3.8371888857E+00  4.5583843758E+00  3.3134782693E+00
                       0.0000000000E+00  0.0000000000E+00  0.0000000000E+00
                       8.7001093612E-01  8.4207125741E+00  7.5126933200E-01
                       1.9305357747E+00  2.2933778801E+00  7.9525577279E+00
                      -4.7459377007E-01  6.8233908714E+00  5.8756872066E+00
                       5.7438419967E+00  6.8233908714E+00 -1.3256011893E+00
                       6.8043668353E+00  6.9605617741E-01  5.8756872066E+00
                       8.1489715415E+00  2.2933778801E+00  7.5126933200E-01
             xred      5.0000000000E-01  5.0000000000E-01  5.0000000000E-01
                       0.0000000000E+00  0.0000000000E+00  0.0000000000E+00
                       2.5155600000E-01  9.2365100000E-01  2.5155600000E-01
                       2.5155600000E-01  2.5155600000E-01  9.2365100000E-01
                       7.6349000000E-02  7.4844400000E-01  7.4844400000E-01
                       7.4844400000E-01  7.4844400000E-01  7.6349000000E-02
                       7.4844400000E-01  7.6349000000E-02  7.4844400000E-01
                       9.2365100000E-01  2.5155600000E-01  2.5155600000E-01
            znucl       19.00000   33.00000    9.00000

- Timing analysis has been suppressed with timopt=0

 Suggested references for the acknowledgment of ABINIT usage.

 Calculation completed.
.Delivered   6 WARNINGs and   5 COMMENTs to log file.