.Version 9.5.1 of ABINIT

 ABINIT is a project of the Universite Catholique de Louvain,
 Corning Inc. and other collaborators, see ~abinit/doc/developers/contributors.txt .
 acknowledgments of the ABINIT effort.

.Starting date : Wed 19 May 2021.
- ( at 01h36 )

- input  file    -> /scratch/users/j/a/jabreu/flow_simple_8atoms/flow/w446/t1/run.abi
- output file    -> /scratch/users/j/a/jabreu/flow_simple_8atoms/flow/w446/t1/run.abo
- root for input  files -> /scratch/users/j/a/jabreu/flow_simple_8atoms/flow/w446/t1/indata/in
- root for output files -> /scratch/users/j/a/jabreu/flow_simple_8atoms/flow/w446/t1/outdata/out

 Symmetries : space group P6_3/m m c (#194); Bravais hP (primitive hexag.)
     intxc =       0      iscf =       7    lmnmax =      18     lnmax =       6
     mgfft =     180  mpssoang =       3    mqgrid =    8395     natom =       8
  nloc_mem =       1    nspden =       1   nspinor =       1    nsppol =       1
      nsym =      24    n1xccc =    2501    ntypat =       3    occopt =       1
   xclevel =       2
-    mband =          43        mffmem =           1         mkmem =           2
-   mkqmem =           2        mk1mem =           2           mpw =       13245
      nfft =      288000          nkpt =           2
  Rough estimation (10% accuracy) of disk space for files :

------------- Echo of variables that govern the present computation ------------
-
- outvars: echo of selected default values
-   iomode0 =  0 , fftalg0 =512 , wfoptalg0 =  0
-
- outvars: echo of global parameters not present in the input file
-  max_nthreads =    0
-
 -outvars: echo values of preprocessed input variables --------
            acell      1.0000000000E+00  1.0000000000E+00  1.0000000000E+00 Bohr
              amu      3.90983000E+01  9.29063800E+01  3.20660000E+01
             ecut      4.10000000E+01 Hartree
-          fftalg         512
           irdden           1
           irdwfk           1
           istwfk        1    0
              ixc     -116133
              kpt      0.00000000E+00  0.00000000E+00  0.00000000E+00
                       1.26126126E-01  1.26126126E-01  0.00000000E+00
           kptopt           0
P           mkmem           2
P          mkqmem           2
P          mk1mem           2
            natom           8
            nband          43
           nbdbuf           4
            ngfft          40      40     180
             nkpt           2
            nstep        2000
             nsym          24
           ntypat           3
              occ      2.000000  2.000000  2.000000  2.000000  2.000000  2.000000
                       2.000000  2.000000  2.000000  2.000000  2.000000  2.000000
                       2.000000  2.000000  2.000000  2.000000  2.000000  2.000000
                       2.000000  2.000000  2.000000  2.000000  2.000000  2.000000
                       2.000000  2.000000  2.000000  2.000000  2.000000  2.000000
                       2.000000  2.000000  2.000000  2.000000  0.000000  0.000000
                       0.000000  0.000000  0.000000  0.000000  0.000000  0.000000
                       0.000000
        optdriver           1
            prtwf          -1
            rfdir           1       1       1
           rfelfd           2
            rprim      6.4636138698E+00  0.0000000000E+00  0.0000000000E+00
                      -3.2318069349E+00  5.5976538115E+00  0.0000000000E+00
                       0.0000000000E+00  0.0000000000E+00  2.9122271467E+01
          spgroup         194
           symrel      1  0  0   0  1  0   0  0  1      -1  0  0   0 -1  0   0  0 -1
                       0  1  0   1  0  0   0  0  1       0 -1  0  -1  0  0   0  0 -1
                       1  1  0  -1  0  0   0  0  1      -1 -1  0   1  0  0   0  0 -1
                      -1  0  0   1  1  0   0  0  1       1  0  0  -1 -1  0   0  0 -1
                       0  1  0  -1 -1  0   0  0  1       0 -1  0   1  1  0   0  0 -1
                      -1 -1  0   0  1  0   0  0  1       1  1  0   0 -1  0   0  0 -1
                      -1  0  0   0 -1  0   0  0  1       1  0  0   0  1  0   0  0 -1
                       0 -1  0  -1  0  0   0  0  1       0  1  0   1  0  0   0  0 -1
                      -1 -1  0   1  0  0   0  0  1       1  1  0  -1  0  0   0  0 -1
                       1  0  0  -1 -1  0   0  0  1      -1  0  0   1  1  0   0  0 -1
                       0 -1  0   1  1  0   0  0  1       0  1  0  -1 -1  0   0  0 -1
                       1  1  0   0 -1  0   0  0  1      -1 -1  0   0  1  0   0  0 -1
            tnons      0.0000000  0.0000000  0.0000000     0.0000000  0.0000000  0.0000000
                       0.0000000  0.0000000  0.5000000     0.0000000  0.0000000  0.5000000
                       0.0000000  0.0000000  0.5000000     0.0000000  0.0000000  0.5000000
                       0.0000000  0.0000000  0.0000000     0.0000000  0.0000000  0.0000000
                       0.0000000  0.0000000  0.0000000     0.0000000  0.0000000  0.0000000
                       0.0000000  0.0000000  0.5000000     0.0000000  0.0000000  0.5000000
                       0.0000000  0.0000000  0.5000000     0.0000000  0.0000000  0.5000000
                       0.0000000  0.0000000  0.0000000     0.0000000  0.0000000  0.0000000
                       0.0000000  0.0000000  0.0000000     0.0000000  0.0000000  0.0000000
                       0.0000000  0.0000000  0.5000000     0.0000000  0.0000000  0.5000000
                       0.0000000  0.0000000  0.5000000     0.0000000  0.0000000  0.5000000
                       0.0000000  0.0000000  0.0000000     0.0000000  0.0000000  0.0000000
           tolwfr      1.00000000E-20
            typat      1  1  2  2  3  3  3  3
           useylm           1
              wtk        0.50000    0.50000
           xangst      0.0000000000E+00  0.0000000000E+00  7.7054211613E+00
                       0.0000000000E+00  0.0000000000E+00 -8.5547359877E-16
                       0.0000000000E+00  0.0000000000E+00  1.1558131742E+01
                       0.0000000000E+00  0.0000000000E+00  3.8527105807E+00
                       2.3500188843E-16  1.9747672124E+00  1.0031780275E+01
                       1.7101985725E+00  9.8738360621E-01  2.3263591137E+00
                       2.3500188843E-16  1.9747672124E+00  1.3084483209E+01
                       1.7101985725E+00  9.8738360621E-01  5.3790620477E+00
            xcart      0.0000000000E+00  0.0000000000E+00  1.4561135733E+01
                       0.0000000000E+00  0.0000000000E+00 -1.6166108156E-15
                       0.0000000000E+00  0.0000000000E+00  2.1841703600E+01
                       0.0000000000E+00  0.0000000000E+00  7.2805678667E+00
                       4.4408920985E-16  3.7317692077E+00  1.8957317345E+01
                       3.2318069349E+00  1.8658846038E+00  4.3961816116E+00
                       4.4408920985E-16  3.7317692077E+00  2.4726089855E+01
                       3.2318069349E+00  1.8658846038E+00  1.0164954122E+01
             xred      0.0000000000E+00  0.0000000000E+00  5.0000000000E-01
                       0.0000000000E+00  0.0000000000E+00 -5.5511151231E-17
                       0.0000000000E+00  0.0000000000E+00  7.5000000000E-01
                       0.0000000000E+00  0.0000000000E+00  2.5000000000E-01
                       3.3333333333E-01  6.6666666667E-01  6.5095600000E-01
                       6.6666666667E-01  3.3333333333E-01  1.5095600000E-01
                       3.3333333333E-01  6.6666666667E-01  8.4904400000E-01
                       6.6666666667E-01  3.3333333333E-01  3.4904400000E-01
            znucl       19.00000   41.00000   16.00000

 chkinp: Checking input parameters for consistency.

== DATASET  1 ==================================================================
-   mpi_nproc: 1, omp_nthreads: -1 (-1 if OMP is not activated)

--- !DatasetInfo
iteration_state: {dtset: 1, }
dimensions: {natom: 8, nkpt: 2, mband: 43, nsppol: 1, nspinor: 1, nspden: 1, mpw: 13245, }
cutoff_energies: {ecut:  41.0, pawecutdg:  -1.0, }
electrons: {nelect:   6.80000000E+01, charge:   0.00000000E+00, occopt:   1.00000000E+00, tsmear:   1.00000000E-02, }
meta: {optdriver: 1, rfelfd: 2, }
...

 Real(R)+Recip(G) space primitive vectors, cartesian coordinates (Bohr,Bohr^-1):
 R(1)=  6.4636139  0.0000000  0.0000000  G(1)=  0.1547122  0.0893231  0.0000000
 R(2)= -3.2318069  5.5976538  0.0000000  G(2)=  0.0000000  0.1786463  0.0000000
 R(3)=  0.0000000  0.0000000 29.1222715  G(3)=  0.0000000  0.0000000  0.0343380
 Unit cell volume ucvol=  1.0536750E+03 bohr^3
 Angles (23,13,12)=  9.00000000E+01  9.00000000E+01  1.20000000E+02 degrees

 getcut: wavevector=  0.0000  0.0000  0.0000  ngfft=  40  40 180
         ecut(hartree)=     41.000   => boxcut(ratio)=   2.14432

--- Pseudopotential description ------------------------------------------------
- pspini: atom type   1  psp file is /scratch/users/j/a/jabreu/pseudos/PBEsol/K.psp8
- pspatm: opening atomic psp file    /scratch/users/j/a/jabreu/pseudos/PBEsol/K.psp8
- K     ONCVPSP-3.3.0  r_core=   1.36296   1.46408   1.61068
- 19.00000   9.00000    180112                znucl, zion, pspdat
    8 -116133    2    4       400   0.00000   pspcod,pspxc,lmax,lloc,mmax,r2well
    3.99000000000000    5.00000000000000    0.00000000000000   rchrg,fchrg,qchrg
     nproj     2     2     2
     extension_switch     1
  pspatm : epsatm=    8.32487830
         --- l  ekb(1:nproj) -->
             0   10.921326    0.816676
             1    4.431000    0.560368
             2   -3.384038   -1.043186
 pspatm: atomic psp has been read  and splines computed

- pspini: atom type   2  psp file is /scratch/users/j/a/jabreu/pseudos/PBEsol/Nb.psp8
- pspatm: opening atomic psp file    /scratch/users/j/a/jabreu/pseudos/PBEsol/Nb.psp8
- Nb    ONCVPSP-3.3.0  r_core=   1.50879   1.40458   1.40458
- 41.00000  13.00000    180112                znucl, zion, pspdat
    8 -116133    2    4       600   0.00000   pspcod,pspxc,lmax,lloc,mmax,r2well
    5.99000000000000    5.00000000000000    0.00000000000000   rchrg,fchrg,qchrg
     nproj     2     2     2
     extension_switch     1
  pspatm : epsatm=   15.66753381
         --- l  ekb(1:nproj) -->
             0   12.953547    1.345168
             1    7.772306    0.779703
             2    3.518917    1.091480
 pspatm: atomic psp has been read  and splines computed

- pspini: atom type   3  psp file is /scratch/users/j/a/jabreu/pseudos/PBEsol/S.psp8
- pspatm: opening atomic psp file    /scratch/users/j/a/jabreu/pseudos/PBEsol/S.psp8
- S     ONCVPSP-3.3.0  r_core=   1.45376   1.45376   1.61851
- 16.00000   6.00000    180112                znucl, zion, pspdat
    8 -116133    2    4       600   0.00000   pspcod,pspxc,lmax,lloc,mmax,r2well
    5.99000000000000    6.00000000000000    0.00000000000000   rchrg,fchrg,qchrg
     nproj     2     2     2
     extension_switch     1
  pspatm : epsatm=    8.71840985
         --- l  ekb(1:nproj) -->
             0    6.834532    0.579453
             1    3.282851    0.896984
             2   -3.496974   -0.974265
 pspatm: atomic psp has been read  and splines computed

[...]
  -0.00000    0.00000    0.00000    0.00000   -0.00000    0.00000    0.00000    0.00000
  -0.00000   -0.00000   -0.00000    0.00000    0.00000    0.00000    0.00000    0.00000
   0.00000    0.00000   -0.00000    0.00000    0.00000   -0.00000    0.00000   -0.00000
  -0.00000    0.00000    0.00000    0.00000    0.00000    0.00000   -0.00000   -0.00000
   0.00000    0.00000   -0.00000   -0.00000    0.00000    0.00000   -0.00000   -0.00000
  -0.00000   -0.00000   -0.00000
 prteigrs : prtvol=0 or 1, do not print more k-points.

 Eight components of 2nd-order total energy (hartree) are
 1,2,3: 0th-order hamiltonian combined with 1st-order wavefunctions
     kin0=   1.36542594E+02 eigvalue=  -1.25022134E+01  local=  -7.87383114E+01
 4,5,6: 1st-order hamiltonian combined with 1st and 0th-order wfs
     kin1=  -1.97242291E+02  Hartree=   0.00000000E+00     xc=   0.00000000E+00
 7,8,9: eventually, occupation + non-local contributions
    edocc=   3.12337843E+01     enl0=   1.61618132E+01   enl1=   1.18469583E+01
 1-9 gives the relaxation energy (to be shifted if some occ is /=2.0)
   erelax=  -9.26976665E+01
  No Ewald or frozen-wf contrib.: the relaxation energy is the total one
 2DEtotal=   -0.9269766653E+02 Ha. Also 2DEtotal=   -0.252243178684E+04 eV
    (  non-var. 2DEtotal :   -9.2697666528E+01 Ha)

 Perturbation wavevector (in red.coord.)   0.000000  0.000000  0.000000
 Perturbation : derivative vs k along direction   2
 The set of symmetries contains only one element for this perturbation.
 symkpt : not enough symmetry to change the number of k points.

[...]

 Perturbation wavevector (in red.coord.)   0.000000  0.000000  0.000000
 Perturbation : derivative vs k along direction   3
 The set of symmetries contains only one element for this perturbation.
 symkpt : not enough symmetry to change the number of k points.

-inwffil : will read wavefunctions from disk file /scratch/users/j/a/jabreu/flow_simple_8atoms/flow/w446/t1/indata/in_WFK

 Initialisation of the first-order wave-functions :
  ireadwf=   0

--- !BeginCycle
iteration_state: {dtset: 1, }
solver: {iscf: 7, nstep: 2000, nline: 4, wfoptalg: 0, }
tolerances: {tolwfr: 1.00E-20, }
...

     iter   2DEtotal(Ha)        deltaE(Ha) residm    vres2
-ETOT  1  -3.0056770573448     -3.006E+00 7.779E-03 0.000E+00
 ETOT  2  -3.0134259878140     -7.749E-03 1.607E-03 0.000E+00
 ETOT  3  -3.0135664080124     -1.404E-04 1.908E-04 0.000E+00
 ETOT  4  -3.0135703104213     -3.902E-06 6.563E-05 0.000E+00
 ETOT  5  -3.0135704396936     -1.293E-07 1.106E-05 0.000E+00
 ETOT  6  -3.0135704444886     -4.795E-09 3.976E-06 0.000E+00
 ETOT  7  -3.0135704446809     -1.922E-10 6.862E-07 0.000E+00
 ETOT  8  -3.0135704446894     -8.578E-12 2.514E-07 0.000E+00
 ETOT  9  -3.0135704446899     -4.379E-13 4.328E-08 0.000E+00
 ETOT 10  -3.0135704446899     -1.865E-14 1.622E-08 0.000E+00
 ETOT 11  -3.0135704446899     -5.773E-15 2.768E-09 0.000E+00
 ETOT 12  -3.0135704446899     -2.220E-15 1.063E-09 0.000E+00
 ETOT 13  -3.0135704446899     -1.776E-15 1.797E-10 0.000E+00
 ETOT 14  -3.0135704446899     -1.776E-15 7.071E-11 0.000E+00
 ETOT 15  -3.0135704446899      8.882E-16 1.184E-11 0.000E+00
 ETOT 16  -3.0135704446899      0.000E+00 4.758E-12 0.000E+00
 ETOT 17  -3.0135704446899      4.441E-16 7.900E-13 0.000E+00
 ETOT 18  -3.0135704446899      0.000E+00 3.232E-13 0.000E+00
 ETOT 19  -3.0135704446899      0.000E+00 5.329E-14 0.000E+00
 ETOT 20  -3.0135704446899     -8.882E-16 2.213E-14 0.000E+00
 ETOT 21  -3.0135704446899      8.882E-16 3.627E-15 0.000E+00
 ETOT 22  -3.0135704446899      4.441E-16 1.523E-15 0.000E+00
 ETOT 23  -3.0135704446899     -1.776E-15 2.486E-16 0.000E+00
 ETOT 24  -3.0135704446899      1.776E-15 1.054E-16 0.000E+00
 ETOT 25  -3.0135704446899      0.000E+00 1.713E-17 0.000E+00
 ETOT 26  -3.0135704446899      0.000E+00 7.312E-18 0.000E+00
 ETOT 27  -3.0135704446899     -4.441E-16 1.186E-18 0.000E+00
 ETOT 28  -3.0135704446899     -4.441E-16 5.087E-19 0.000E+00
 ETOT 29  -3.0135704446899      4.441E-16 8.232E-20 0.000E+00
 ETOT 30  -3.0135704446899     -8.882E-16 3.547E-20 0.000E+00
 ETOT 31  -3.0135704446899     -4.441E-16 9.912E-21 0.000E+00

 At SCF step   31   max residual=  9.91E-21 < tolwfr=  1.00E-20 =>converged.

 ----iterations are completed or convergence reached----

 dfpt_looppert: DFPT cycle converged with prtwf=-1. Will skip output of the 1st-order WFK file.
 dfpt_looppert : ek2=    6.3306478104E+00
          f-sum rule ratio=    1.0111573857E+00
 prteigrs : about to open file /scratch/users/j/a/jabreu/flow_simple_8atoms/flow/w446/t1/tmpdata/tmp_1WF1_EIG
 Expectation of eigenvalue derivatives (hartree) for nkpt=   2  k points:
  (in case of degenerate eigenvalues, averaged derivative)
 kpt#   1, nband= 43, wtk=  0.50000, kpt=  0.0000  0.0000  0.0000 (reduced coord)
  -0.00000   -0.00000   -0.00000   -0.00000    0.00000    0.00000   -0.00000   -0.00000
  -0.00000   -0.00000    0.00000    0.00000   -0.00000   -0.00000   -0.00000   -0.00000
  -0.00000    0.00000    0.00000    0.00000    0.00000   -0.00000   -0.00000    0.00000
   0.00000   -0.00000   -0.00000   -0.00000   -0.00000    0.00000    0.00000    0.00000
  -0.00000    0.00000   -0.00000   -0.00000   -0.00000   -0.00000   -0.00000   -0.00000
   0.00000    0.00000   -0.00000
 prteigrs : prtvol=0 or 1, do not print more k-points.

 Eight components of 2nd-order total energy (hartree) are
 1,2,3: 0th-order hamiltonian combined with 1st-order wavefunctions
     kin0=   4.68785334E+00 eigvalue=  -3.08899856E-01  local=  -3.02180458E+00
 4,5,6: 1st-order hamiltonian combined with 1st and 0th-order wfs
     kin1=  -6.40128129E+00  Hartree=   0.00000000E+00     xc=   0.00000000E+00
 7,8,9: eventually, occupation + non-local contributions
    edocc=   1.06242182E+00     enl0=   5.93999711E-01   enl1=   3.74140400E-01
 1-9 gives the relaxation energy (to be shifted if some occ is /=2.0)
   erelax=  -3.01357044E+00
  No Ewald or frozen-wf contrib.: the relaxation energy is the total one
 2DEtotal=   -0.3013570445E+01 Ha. Also 2DEtotal=   -0.820034221596E+02 eV
    (  non-var. 2DEtotal :   -3.0135704446E+00 Ha)

 CALCULATION OF EFFECTIVE MASSES
 NOTE : Additional infos (eff. mass eigenvalues, eigenvectors and, if degenerate, average mass) are available in stdout.

 K-point ( 0.000, 0.000, 0.000) | band =    34
 Effective mass tensor:
             -0.6237223405              0.0000000000              0.0000000000
              0.0000000000             -0.6237223405              0.0000000000
              0.0000000000              0.0000000000             -0.3255391210
 Effective mass tensor eigenvalues:
             -0.6237223405             -0.6237223405             -0.3255391210
 Angular average effective mass 1/(<1/m>)=  -0.4778300824
 Angular average effective mass for Frohlich model (<m**0.5>)**2=  -0.4927734778
 Effective masses along directions: (cart. coord. / red. coord. -> eff. mass)
    1:   1.000000  0.000000  0.000000 /   0.894427 -0.447214  0.000000 ->  -0.6237223405
    2:   0.000000  1.000000  0.000000 /   0.000000  1.000000  0.000000 ->  -0.6237223405
    3:   0.000000  0.000000  1.000000 /   0.000000  0.000000  1.000000 ->  -0.3255391210
    4:   0.577350  0.577350  0.577350 /   0.215997  0.079060  0.973188 ->  -0.4778300824
    5:   0.000000  0.707107  0.707107 /   0.000000  0.188757  0.982024 ->  -0.4277978843
    6:   0.707107  0.000000  0.707107 /   0.215414 -0.107707  0.970565 ->  -0.4277978843
    7:   0.707107  0.707107  0.000000 /   0.939071  0.343724  0.000000 ->  -0.6237223405

 K-point ( 0.126, 0.126, 0.000) | band =    35
 Effective mass tensor:
              2.6484683514             -1.1436944399             -0.0000005026
             -1.1436944399              1.3278461137             -0.0000010989
             -0.0000005026             -0.0000010989              0.5106102994
 Effective mass tensor eigenvalues:
              0.5106102994              0.6675332340              3.3087812311
 Angular average effective mass 1/(<1/m>)=   0.7981441434
 Angular average effective mass for Frohlich model (<m**0.5>)**2=   0.9146562414
 Effective masses along directions: (cart. coord. / red. coord. -> eff. mass)
    1:   1.000000  0.000000  0.000000 /   0.894427 -0.447214  0.000000 ->   1.6633866025
    2:   0.000000  1.000000  0.000000 /   0.000000  1.000000  0.000000 ->   0.8339618008
    3:   0.000000  0.000000  1.000000 /   0.000000  0.000000  1.000000 ->   0.5106102994
    4:   0.577350  0.577350  0.577350 /   0.215997  0.079060  0.973188 ->   0.6257370814
    5:   0.000000  0.707107  0.707107 /   0.000000  0.188757  0.982024 ->   0.6334039673
    6:   0.707107  0.000000  0.707107 /   0.215414 -0.107707  0.970565 ->   0.7813637620
    7:   0.707107  0.707107  0.000000 /   0.939071  0.343724  0.000000 ->   0.7052445859

 END OF EFFECTIVE MASSES SECTION

 ---- first-order wavefunction calculations are completed ----

 Total localisation tensor (bohr^2) in cartesian coordinates
  WARNING : still subject to testing - especially symmetries.
      direction              matrix element
   alpha     beta       real part   imaginary part
     1        1       2.9140677252    0.0000000000
     1        2      -1.0094625749    0.0000000000
     1        3       0.0000000000    0.0000000000
     2        1      -1.0094625749    0.0000000000
     2        2       1.7484404680    0.0000000000
     2        3       0.0000000000    0.0000000000
     3        1       0.0000000000    0.0000000000
     3        2       0.0000000000    0.0000000000
     3        3       1.4504448815    0.0000000000

 respfn : d/dk was computed, but no 2DTE, so no DDB output.

== END DATASET(S) ==============================================================

 -outvars: echo values of variables after computation  --------
            acell      1.0000000000E+00  1.0000000000E+00  1.0000000000E+00 Bohr
              amu      3.90983000E+01  9.29063800E+01  3.20660000E+01
             ecut      4.10000000E+01 Hartree
           etotal     -3.0135704447E+00
            fcart      0.0000000000E+00  0.0000000000E+00  0.0000000000E+00
                       0.0000000000E+00  0.0000000000E+00  0.0000000000E+00
                       0.0000000000E+00  0.0000000000E+00  0.0000000000E+00
                       0.0000000000E+00  0.0000000000E+00  0.0000000000E+00
                       0.0000000000E+00  0.0000000000E+00  0.0000000000E+00
                       0.0000000000E+00  0.0000000000E+00  0.0000000000E+00
                       0.0000000000E+00  0.0000000000E+00  0.0000000000E+00
                       0.0000000000E+00  0.0000000000E+00  0.0000000000E+00
-          fftalg         512
           irdden           1
           irdwfk           1
           istwfk        1    0
              ixc     -116133
              kpt      0.00000000E+00  0.00000000E+00  0.00000000E+00
                       1.26126126E-01  1.26126126E-01  0.00000000E+00
           kptopt           0
P           mkmem           2
P          mkqmem           2
P          mk1mem           2
            natom           8
            nband          43
           nbdbuf           4
            ngfft          40      40     180
             nkpt           2
            nstep        2000
             nsym          24
           ntypat           3
              occ      2.000000  2.000000  2.000000  2.000000  2.000000  2.000000
                       2.000000  2.000000  2.000000  2.000000  2.000000  2.000000
                       2.000000  2.000000  2.000000  2.000000  2.000000  2.000000
                       2.000000  2.000000  2.000000  2.000000  2.000000  2.000000
                       2.000000  2.000000  2.000000  2.000000  2.000000  2.000000
                       2.000000  2.000000  2.000000  2.000000  0.000000  0.000000
                       0.000000  0.000000  0.000000  0.000000  0.000000  0.000000
                       0.000000
        optdriver           1
            prtwf          -1
            rfdir           1       1       1
           rfelfd           2
            rprim      6.4636138698E+00  0.0000000000E+00  0.0000000000E+00
                      -3.2318069349E+00  5.5976538115E+00  0.0000000000E+00
                       0.0000000000E+00  0.0000000000E+00  2.9122271467E+01
          spgroup         194
           strten      0.0000000000E+00  0.0000000000E+00  0.0000000000E+00
                       0.0000000000E+00  0.0000000000E+00  0.0000000000E+00
           symrel      1  0  0   0  1  0   0  0  1      -1  0  0   0 -1  0   0  0 -1
                       0  1  0   1  0  0   0  0  1       0 -1  0  -1  0  0   0  0 -1
                       1  1  0  -1  0  0   0  0  1      -1 -1  0   1  0  0   0  0 -1
                      -1  0  0   1  1  0   0  0  1       1  0  0  -1 -1  0   0  0 -1
                       0  1  0  -1 -1  0   0  0  1       0 -1  0   1  1  0   0  0 -1
                      -1 -1  0   0  1  0   0  0  1       1  1  0   0 -1  0   0  0 -1
                      -1  0  0   0 -1  0   0  0  1       1  0  0   0  1  0   0  0 -1
                       0 -1  0  -1  0  0   0  0  1       0  1  0   1  0  0   0  0 -1
                      -1 -1  0   1  0  0   0  0  1       1  1  0  -1  0  0   0  0 -1
                       1  0  0  -1 -1  0   0  0  1      -1  0  0   1  1  0   0  0 -1
                       0 -1  0   1  1  0   0  0  1       0  1  0  -1 -1  0   0  0 -1
                       1  1  0   0 -1  0   0  0  1      -1 -1  0   0  1  0   0  0 -1
            tnons      0.0000000  0.0000000  0.0000000     0.0000000  0.0000000  0.0000000
                       0.0000000  0.0000000  0.5000000     0.0000000  0.0000000  0.5000000
                       0.0000000  0.0000000  0.5000000     0.0000000  0.0000000  0.5000000
                       0.0000000  0.0000000  0.0000000     0.0000000  0.0000000  0.0000000
                       0.0000000  0.0000000  0.0000000     0.0000000  0.0000000  0.0000000
                       0.0000000  0.0000000  0.5000000     0.0000000  0.0000000  0.5000000
                       0.0000000  0.0000000  0.5000000     0.0000000  0.0000000  0.5000000
                       0.0000000  0.0000000  0.0000000     0.0000000  0.0000000  0.0000000
                       0.0000000  0.0000000  0.0000000     0.0000000  0.0000000  0.0000000
                       0.0000000  0.0000000  0.5000000     0.0000000  0.0000000  0.5000000
                       0.0000000  0.0000000  0.5000000     0.0000000  0.0000000  0.5000000
                       0.0000000  0.0000000  0.0000000     0.0000000  0.0000000  0.0000000
           tolwfr      1.00000000E-20
            typat      1  1  2  2  3  3  3  3
           useylm           1
              wtk        0.50000    0.50000
           xangst      0.0000000000E+00  0.0000000000E+00  7.7054211613E+00
                       0.0000000000E+00  0.0000000000E+00 -8.5547359877E-16
                       0.0000000000E+00  0.0000000000E+00  1.1558131742E+01
                       0.0000000000E+00  0.0000000000E+00  3.8527105807E+00
                       2.3500188843E-16  1.9747672124E+00  1.0031780275E+01
                       1.7101985725E+00  9.8738360621E-01  2.3263591137E+00
                       2.3500188843E-16  1.9747672124E+00  1.3084483209E+01
                       1.7101985725E+00  9.8738360621E-01  5.3790620477E+00
            xcart      0.0000000000E+00  0.0000000000E+00  1.4561135733E+01
                       0.0000000000E+00  0.0000000000E+00 -1.6166108156E-15
                       0.0000000000E+00  0.0000000000E+00  2.1841703600E+01
                       0.0000000000E+00  0.0000000000E+00  7.2805678667E+00
                       4.4408920985E-16  3.7317692077E+00  1.8957317345E+01
                       3.2318069349E+00  1.8658846038E+00  4.3961816116E+00
                       4.4408920985E-16  3.7317692077E+00  2.4726089855E+01
                       3.2318069349E+00  1.8658846038E+00  1.0164954122E+01
             xred      0.0000000000E+00  0.0000000000E+00  5.0000000000E-01
                       0.0000000000E+00  0.0000000000E+00 -5.5511151231E-17
                       0.0000000000E+00  0.0000000000E+00  7.5000000000E-01
                       0.0000000000E+00  0.0000000000E+00  2.5000000000E-01
                       3.3333333333E-01  6.6666666667E-01  6.5095600000E-01
                       6.6666666667E-01  3.3333333333E-01  1.5095600000E-01
                       3.3333333333E-01  6.6666666667E-01  8.4904400000E-01
                       6.6666666667E-01  3.3333333333E-01  3.4904400000E-01
            znucl       19.00000   41.00000   16.00000

- Timing analysis has been suppressed with timopt=0

 Suggested references for the acknowledgment of ABINIT usage.

 Calculation completed.
.Delivered  14 WARNINGs and   9 COMMENTs to log file.