.Version 9.5.2 of ABINIT

 ABINIT is a project of the Universite Catholique de Louvain,
 Corning Inc. and other collaborators, see ~abinit/doc/developers/contributors.txt .
 acknowledgments of the ABINIT effort.

.Starting date : Mon 31 May 2021.
- ( at 22h05 )

- input  file    -> /scratch/users/j/a/jabreu/flow_simple_11atoms/flow/w341/t1/run.abi
- output file    -> /scratch/users/j/a/jabreu/flow_simple_11atoms/flow/w341/t1/run.abo
- root for input  files -> /scratch/users/j/a/jabreu/flow_simple_11atoms/flow/w341/t1/indata/in
- root for output files -> /scratch/users/j/a/jabreu/flow_simple_11atoms/flow/w341/t1/outdata/out

 Symmetries : space group Cm c m (# 63); Bravais oC (1-face-center ortho.)
     intxc =       0      iscf =       7    lmnmax =      18     lnmax =       6
     mgfft =      75  mpssoang =       3    mqgrid =    3671     natom =      12
  nloc_mem =       1    nspden =       1   nspinor =       1    nsppol =       1
      nsym =       8    n1xccc =    2501    ntypat =       3    occopt =       1
   xclevel =       2
-    mband =          49        mffmem =           1         mkmem =           2
-   mkqmem =           2        mk1mem =           2           mpw =       12588
      nfft =      218700          nkpt =           2
  Rough estimation (10% accuracy) of disk space for files :

------------- Echo of variables that govern the present computation ------------
-
- outvars: echo of selected default values
-   iomode0 =  0 , fftalg0 =512 , wfoptalg0 =  0
-
- outvars: echo of global parameters not present in the input file
-  max_nthreads =    0
-
 -outvars: echo values of preprocessed input variables --------
            acell      1.0000000000E+00  1.0000000000E+00  1.0000000000E+00 Bohr
              amu      2.43050000E+01  3.20660000E+01  1.59994000E+01
             ecut      4.40000000E+01 Hartree
-          fftalg         512
           irdden           1
           irdwfk           1
           istwfk        0    1
              ixc     -116133
              kpt     -5.00000000E-01  5.00000000E-01  0.00000000E+00
                       0.00000000E+00  0.00000000E+00  0.00000000E+00
           kptopt           0
P           mkmem           2
P          mkqmem           2
P          mk1mem           2
            natom          12
            nband          49
           nbdbuf           4
            ngfft          54      54      75
             nkpt           2
            nstep        2000
             nsym           8
           ntypat           3
              occ      2.000000  2.000000  2.000000  2.000000  2.000000  2.000000
                       2.000000  2.000000  2.000000  2.000000  2.000000  2.000000
                       2.000000  2.000000  2.000000  2.000000  2.000000  2.000000
                       2.000000  2.000000  2.000000  2.000000  2.000000  2.000000
                       2.000000  2.000000  2.000000  2.000000  2.000000  2.000000
                       2.000000  2.000000  2.000000  2.000000  2.000000  2.000000
                       2.000000  2.000000  2.000000  2.000000  0.000000  0.000000
                       0.000000  0.000000  0.000000  0.000000  0.000000  0.000000
                       0.000000
        optdriver           1
            prtwf          -1
            rfdir           1       1       1
           rfelfd           2
            rprim      8.9393029453E+00  0.0000000000E+00  0.0000000000E+00
                      -3.5941544299E+00  8.1849368404E+00  0.0000000000E+00
                       0.0000000000E+00  0.0000000000E+00  1.2292635541E+01
          spgroup          63
           symrel      1  0  0   0  1  0   0  0  1      -1  0  0   0 -1  0   0  0 -1
                       0 -1  0  -1  0  0   0  0 -1       0  1  0   1  0  0   0  0  1
                      -1  0  0   0 -1  0   0  0  1       1  0  0   0  1  0   0  0 -1
                       0  1  0   1  0  0   0  0 -1       0 -1  0  -1  0  0   0  0  1
            tnons      0.0000000  0.0000000  0.0000000     0.0000000  0.0000000  0.0000000
                       0.0000000  0.0000000  0.5000000     0.0000000  0.0000000  0.5000000
                       0.0000000  0.0000000  0.5000000     0.0000000  0.0000000  0.5000000
                       0.0000000  0.0000000  0.0000000     0.0000000  0.0000000  0.0000000
           tolwfr      1.00000000E-20
            typat      1  1  2  2  3  3  3  3  3  3  3  3
           useylm           1
              wtk        0.50000    0.50000
           xangst      0.0000000000E+00  0.0000000000E+00  0.0000000000E+00
                       0.0000000000E+00  0.0000000000E+00  3.2524912808E+00
                       4.2074876853E-01  2.8144540690E+00  1.6262456404E+00
                       2.4077820024E+00  1.5168279606E+00  4.8787369212E+00
                       1.8251295540E+00  3.3525552233E+00  1.6262456404E+00
                       1.0034012169E+00  9.7872680640E-01  4.8787369212E+00
                       2.3358258930E+00  3.0190465070E+00  4.8787369212E+00
                       4.9270487785E-01  1.3122355227E+00  1.6262456404E+00
                      -2.5178525065E-01  3.2536503981E+00  4.0718588843E-01
                       3.0803160215E+00  1.0776316316E+00  3.6596771692E+00
                       3.0803160215E+00  1.0776316316E+00  6.0977966732E+00
                      -2.5178525065E-01  3.2536503981E+00  2.8453053924E+00
            xcart      0.0000000000E+00  0.0000000000E+00  0.0000000000E+00
                       0.0000000000E+00  0.0000000000E+00  6.1463177703E+00
                       7.9509994327E-01  5.3185474041E+00  3.0731588852E+00
                       4.5500485721E+00  2.8663894363E+00  9.2194766554E+00
                       3.4489950140E+00  6.3354112174E+00  3.0731588852E+00
                       1.8961535014E+00  1.8495256230E+00  9.2194766554E+00
                       4.4140712319E+00  5.7051710807E+00  9.2194766554E+00
                       9.3107728348E-01  2.4797657597E+00  3.0731588852E+00
                      -4.7580516804E-01  6.1485081846E+00  7.6946981430E-01
                       5.8209536834E+00  2.0364286558E+00  6.9157875846E+00
                       5.8209536834E+00  2.0364286558E+00  1.1523165726E+01
                      -4.7580516804E-01  6.1485081846E+00  5.3768479560E+00
             xred      0.0000000000E+00  0.0000000000E+00  0.0000000000E+00
                       0.0000000000E+00  0.0000000000E+00  5.0000000000E-01
                       3.5020300000E-01  6.4979700000E-01  2.5000000000E-01
                       6.4979700000E-01  3.5020300000E-01  7.5000000000E-01
                       6.9703300000E-01  7.7403300000E-01  2.5000000000E-01
                       3.0296700000E-01  2.2596700000E-01  7.5000000000E-01
                       7.7403300000E-01  6.9703300000E-01  7.5000000000E-01
                       2.2596700000E-01  3.0296700000E-01  2.5000000000E-01
                       2.4880200000E-01  7.5119800000E-01  6.2596000000E-02
                       7.5119800000E-01  2.4880200000E-01  5.6259600000E-01
                       7.5119800000E-01  2.4880200000E-01  9.3740400000E-01
                       2.4880200000E-01  7.5119800000E-01  4.3740400000E-01
            znucl       12.00000   16.00000    8.00000

 chkinp: Checking input parameters for consistency.

== DATASET  1 ==================================================================
-   mpi_nproc: 1, omp_nthreads: -1 (-1 if OMP is not activated)

--- !DatasetInfo
iteration_state: {dtset: 1, }
dimensions: {natom: 12, nkpt: 2, mband: 49, nsppol: 1, nspinor: 1, nspden: 1, mpw: 12588, }
cutoff_energies: {ecut:  44.0, pawecutdg:  -1.0, }
electrons: {nelect:   8.00000000E+01, charge:   0.00000000E+00, occopt:   1.00000000E+00, tsmear:   1.00000000E-02, }
meta: {optdriver: 1, rfelfd: 2, }
...

 Real(R)+Recip(G) space primitive vectors, cartesian coordinates (Bohr,Bohr^-1):
 R(1)=  8.9393029  0.0000000  0.0000000  G(1)=  0.1118655  0.0491222  0.0000000
 R(2)= -3.5941544  8.1849368  0.0000000  G(2)=  0.0000000  0.1221757  0.0000000
 R(3)=  0.0000000  0.0000000 12.2926355  G(3)=  0.0000000  0.0000000  0.0813495
 Unit cell volume ucvol=  8.9942301E+02 bohr^3
 Angles (23,13,12)=  9.00000000E+01  9.00000000E+01  1.13707150E+02 degrees

 getcut: wavevector=  0.0000  0.0000  0.0000  ngfft=  54  54  75
         ecut(hartree)=     44.000   => boxcut(ratio)=   2.01602

--- Pseudopotential description ------------------------------------------------
- pspini: atom type   1  psp file is /scratch/users/j/a/jabreu/pseudos/PBEsol/Mg.psp8
- pspatm: opening atomic psp file    /scratch/users/j/a/jabreu/pseudos/PBEsol/Mg.psp8
- Mg    ONCVPSP-3.3.0  r_core=   1.16056   1.56380
- 12.00000  10.00000    180112                znucl, zion, pspdat
    8 -116133    1    4       400   0.00000   pspcod,pspxc,lmax,lloc,mmax,r2well
    3.99000000000000    0.00000000000000    0.00000000000000   rchrg,fchrg,qchrg
     nproj     2     2
     extension_switch     1
  pspatm : epsatm=    9.18164846
         --- l  ekb(1:nproj) -->
             0    2.230603   -0.826587
             1   -6.503151   -2.501445
 pspatm: atomic psp has been read  and splines computed

- pspini: atom type   2  psp file is /scratch/users/j/a/jabreu/pseudos/PBEsol/S.psp8
- pspatm: opening atomic psp file    /scratch/users/j/a/jabreu/pseudos/PBEsol/S.psp8
- S     ONCVPSP-3.3.0  r_core=   1.45376   1.45376   1.61851
- 16.00000   6.00000    180112                znucl, zion, pspdat
    8 -116133    2    4       600   0.00000   pspcod,pspxc,lmax,lloc,mmax,r2well
    5.99000000000000    6.00000000000000    0.00000000000000   rchrg,fchrg,qchrg
     nproj     2     2     2
     extension_switch     1
  pspatm : epsatm=    8.71840985
         --- l  ekb(1:nproj) -->
             0    6.834532    0.579453
             1    3.282851    0.896984
             2   -3.496974   -0.974265
 pspatm: atomic psp has been read  and splines computed

- pspini: atom type   3  psp file is /scratch/users/j/a/jabreu/pseudos/PBEsol/O.psp8
- pspatm: opening atomic psp file    /scratch/users/j/a/jabreu/pseudos/PBEsol/O.psp8
- O     ONCVPSP-3.3.0  r_core=   1.35509   1.45563   1.26150
-  8.00000   6.00000    180112                znucl, zion, pspdat
    8 -116133    2    4       600   0.00000   pspcod,pspxc,lmax,lloc,mmax,r2well
    5.99000000000000    4.00000000000000    0.00000000000000   rchrg,fchrg,qchrg
     nproj     2     2     1
     extension_switch     1
  pspatm : epsatm=    6.22910522
         --- l  ekb(1:nproj) -->
             0    6.050032    0.820363
             1   -4.739617   -1.153841
             2   -1.335834
 pspatm: atomic psp has been read  and splines computed

   6.85063667E+03                                ecore*ucvol(ha*bohr**3)

 ==>  initialize data related to q vector <==

 The list of irreducible perturbations for this q vector is:
    1)    idir= 1    ipert=  13
    2)    idir= 2    ipert=  13
    3)    idir= 3    ipert=  13

 Perturbation wavevector (in red.coord.)   0.000000  0.000000  0.000000
 Perturbation : derivative vs k along direction   1

 dfpt_looppert : COMMENT -
  In a d/dk calculation, iscf is set to -3 automatically.
[...]
     kin1=  -9.96574797E+01  Hartree=   0.00000000E+00     xc=   0.00000000E+00
 7,8,9: eventually, occupation + non-local contributions
    edocc=   1.00677463E+01     enl0=  -3.75205961E+00   enl1=  -4.86387695E+00
 1-9 gives the relaxation energy (to be shifted if some occ is /=2.0)
   erelax=  -5.22606783E+01
  No Ewald or frozen-wf contrib.: the relaxation energy is the total one
 2DEtotal=   -0.5226067834E+02 Ha. Also 2DEtotal=   -0.142208537916E+04 eV
    (  non-var. 2DEtotal :   -5.2260678342E+01 Ha)

 Perturbation wavevector (in red.coord.)   0.000000  0.000000  0.000000
 Perturbation : derivative vs k along direction   2
 The set of symmetries contains only one element for this perturbation.
 symkpt : not enough symmetry to change the number of k points.

[...]

 Perturbation wavevector (in red.coord.)   0.000000  0.000000  0.000000
 Perturbation : derivative vs k along direction   3
 The set of symmetries contains only one element for this perturbation.
 symkpt : not enough symmetry to change the number of k points.

 Initialisation of the first-order wave-functions :
  ireadwf=   0

--- !BeginCycle
iteration_state: {dtset: 1, }
solver: {iscf: 7, nstep: 2000, nline: 4, wfoptalg: 0, }
tolerances: {tolwfr: 1.00E-20, }
...

     iter   2DEtotal(Ha)        deltaE(Ha) residm    vres2
-ETOT  1  -22.464771214587     -2.246E+01 6.900E-02 0.000E+00
 ETOT  2  -22.479950879426     -1.518E-02 6.709E-03 0.000E+00
 ETOT  3  -22.479980405822     -2.953E-05 1.364E-03 0.000E+00
 ETOT  4  -22.479980568998     -1.632E-07 4.589E-04 0.000E+00
 ETOT  5  -22.479980570316     -1.318E-09 1.268E-04 0.000E+00
 ETOT  6  -22.479980570328     -1.223E-11 5.929E-05 0.000E+00
 ETOT  7  -22.479980570329     -1.563E-13 1.869E-05 0.000E+00
 ETOT  8  -22.479980570329      1.421E-14 8.768E-06 0.000E+00
 ETOT  9  -22.479980570329      0.000E+00 2.866E-06 0.000E+00
 ETOT 10  -22.479980570329      3.553E-15 1.335E-06 0.000E+00
 ETOT 11  -22.479980570329      0.000E+00 4.465E-07 0.000E+00
 ETOT 12  -22.479980570329      0.000E+00 2.055E-07 0.000E+00
 ETOT 13  -22.479980570329      3.553E-15 7.011E-08 0.000E+00
 ETOT 14  -22.479980570329      0.000E+00 3.180E-08 0.000E+00
 ETOT 15  -22.479980570329      0.000E+00 1.105E-08 0.000E+00
 ETOT 16  -22.479980570329      0.000E+00 4.936E-09 0.000E+00
 ETOT 17  -22.479980570329     -3.553E-15 1.745E-09 0.000E+00
 ETOT 18  -22.479980570329     -7.105E-15 7.674E-10 0.000E+00
 ETOT 19  -22.479980570329      0.000E+00 2.757E-10 0.000E+00
 ETOT 20  -22.479980570329      0.000E+00 1.194E-10 0.000E+00
 ETOT 21  -22.479980570329      0.000E+00 4.359E-11 0.000E+00
 ETOT 22  -22.479980570329      0.000E+00 1.861E-11 0.000E+00
 ETOT 23  -22.479980570329      0.000E+00 6.892E-12 0.000E+00
 ETOT 24  -22.479980570329      0.000E+00 2.902E-12 0.000E+00
 ETOT 25  -22.479980570329      0.000E+00 1.090E-12 0.000E+00
 ETOT 26  -22.479980570329      7.105E-15 4.530E-13 0.000E+00
 ETOT 27  -22.479980570329      0.000E+00 1.724E-13 0.000E+00
 ETOT 28  -22.479980570329     -7.105E-15 7.077E-14 0.000E+00
 ETOT 29  -22.479980570329      7.105E-15 2.728E-14 0.000E+00
 ETOT 30  -22.479980570329      0.000E+00 1.107E-14 0.000E+00
 ETOT 31  -22.479980570329     -7.105E-15 4.317E-15 0.000E+00
 ETOT 32  -22.479980570329      7.105E-15 1.733E-15 0.000E+00
 ETOT 33  -22.479980570329      0.000E+00 6.835E-16 0.000E+00
 ETOT 34  -22.479980570329     -3.553E-15 2.715E-16 0.000E+00
 ETOT 35  -22.479980570329      3.553E-15 1.082E-16 0.000E+00
 ETOT 36  -22.479980570329     -1.066E-14 4.260E-17 0.000E+00
 ETOT 37  -22.479980570329      3.553E-15 1.715E-17 0.000E+00
 ETOT 38  -22.479980570329      0.000E+00 6.690E-18 0.000E+00
 ETOT 39  -22.479980570329      3.553E-15 2.718E-18 0.000E+00
 ETOT 40  -22.479980570329     -3.553E-15 1.052E-18 0.000E+00
 ETOT 41  -22.479980570329      0.000E+00 4.310E-19 0.000E+00
 ETOT 42  -22.479980570329      3.553E-15 1.656E-19 0.000E+00
 ETOT 43  -22.479980570329     -7.105E-15 6.836E-20 0.000E+00
 ETOT 44  -22.479980570329      0.000E+00 2.609E-20 0.000E+00
 ETOT 45  -22.479980570329      0.000E+00 1.085E-20 0.000E+00
 ETOT 46  -22.479980570329      3.553E-15 9.977E-21 0.000E+00

 At SCF step   46   max residual=  9.98E-21 < tolwfr=  1.00E-20 =>converged.

 ----iterations are completed or convergence reached----

 dfpt_looppert: DFPT cycle converged with prtwf=-1. Will skip output of the 1st-order WFK file.
 dfpt_looppert : ek2=    4.1801292286E+01
          f-sum rule ratio=    1.0159476609E+00
 prteigrs : about to open file /scratch/users/j/a/jabreu/flow_simple_11atoms/flow/w341/t1/tmpdata/tmp_1WF1_EIG
 Expectation of eigenvalue derivatives (hartree) for nkpt=   2  k points:
  (in case of degenerate eigenvalues, averaged derivative)
 kpt#   1, nband= 49, wtk=  0.50000, kpt= -0.5000  0.5000  0.0000 (reduced coord)
  -0.00000    0.00000    0.00000   -0.00000   -0.00000   -0.00000   -0.00000    0.00000
   0.00000    0.00000    0.00000    0.00000   -0.00000   -0.00000   -0.00000   -0.00000
  -0.00000    0.00000    0.00000    0.00000   -0.00000    0.00000   -0.00000   -0.00000
   0.00000   -0.00000   -0.00000    0.00000   -0.00000    0.00000   -0.00000    0.00000
   0.00000    0.00000   -0.00000    0.00000   -0.00000    0.00000    0.00000   -0.00000
  -0.00000    0.00000   -0.00000   -0.00000    0.00000   -0.00000   -0.00000    0.00000
   0.00000
 prteigrs : prtvol=0 or 1, do not print more k-points.

 Eight components of 2nd-order total energy (hartree) are
 1,2,3: 0th-order hamiltonian combined with 1st-order wavefunctions
     kin0=   2.99760714E+01 eigvalue=   2.09898636E+00  local=  -1.21405083E+01
 4,5,6: 1st-order hamiltonian combined with 1st and 0th-order wfs
     kin1=  -4.24679251E+01  Hartree=   0.00000000E+00     xc=   0.00000000E+00
 7,8,9: eventually, occupation + non-local contributions
    edocc=   4.29936842E+00     enl0=  -1.75393728E+00   enl1=  -2.49203602E+00
 1-9 gives the relaxation energy (to be shifted if some occ is /=2.0)
   erelax=  -2.24799806E+01
  No Ewald or frozen-wf contrib.: the relaxation energy is the total one
 2DEtotal=   -0.2247998057E+02 Ha. Also 2DEtotal=   -0.611711380465E+03 eV
    (  non-var. 2DEtotal :   -2.2479980570E+01 Ha)

 CALCULATION OF EFFECTIVE MASSES
 NOTE : Additional infos (eff. mass eigenvalues, eigenvectors and, if degenerate, average mass) are available in stdout.

 K-point (-0.500, 0.500, 0.000) | band =    40
 Effective mass tensor:
             -2.6336254756              0.7665999080              0.0000010755
              0.7665999080             -1.9603695901             -0.0000007025
              0.0000010755             -0.0000007025             -2.4519766475
 Effective mass tensor eigenvalues:
             -3.1342512523             -2.4519766475             -1.4597438134
 Angular average effective mass 1/(<1/m>)=  -2.1247340602
 Angular average effective mass for Frohlich model (<m**0.5>)**2=  -2.1935310274
 Effective masses along directions: (cart. coord. / red. coord. -> eff. mass)
    1:   1.000000  0.000000  0.000000 /   0.927816 -0.373039  0.000000 ->  -2.3338476062
    2:   0.000000  1.000000  0.000000 /   0.000000  1.000000  0.000000 ->  -1.7372264651
    3:   0.000000  0.000000  1.000000 /   0.000000  0.000000  1.000000 ->  -2.4519766475
    4:   0.577350  0.577350  0.577350 /   0.563017  0.289137  0.774217 ->  -1.7171782136
    5:   0.000000  0.707107  0.707107 /   0.000000  0.554224  0.832367 ->  -2.0336275904
    6:   0.707107  0.000000  0.707107 /   0.572353 -0.230121  0.787055 ->  -2.3914534303
    7:   0.707107  0.707107  0.000000 /   0.889554  0.456831  0.000000 ->  -1.4934089624

 K-point ( 0.000, 0.000, 0.000) | band =    41
 Effective mass tensor:
              0.4937041855             -0.0388429722              0.0000001435
             -0.0388429722              0.4595908763             -0.0000000937
              0.0000001435             -0.0000000937              0.5689948077
 Effective mass tensor eigenvalues:
              0.4342245895              0.5190704723              0.5689948077
 Angular average effective mass 1/(<1/m>)=   0.5010888930
 Angular average effective mass for Frohlich model (<m**0.5>)**2=   0.5030225043
 Effective masses along directions: (cart. coord. / red. coord. -> eff. mass)
    1:   1.000000  0.000000  0.000000 /   0.927816 -0.373039  0.000000 ->   0.4904213168
    2:   0.000000  1.000000  0.000000 /   0.000000  1.000000  0.000000 ->   0.4565348429
    3:   0.000000  0.000000  1.000000 /   0.000000  0.000000  1.000000 ->   0.5689948077
    4:   0.577350  0.577350  0.577350 /   0.563017  0.289137  0.774217 ->   0.4738116458
    5:   0.000000  0.707107  0.707107 /   0.000000  0.554224  0.832367 ->   0.5065985430
    6:   0.707107  0.000000  0.707107 /   0.572353 -0.230121  0.787055 ->   0.5267944254
    7:   0.707107  0.707107  0.000000 /   0.889554  0.456831  0.000000 ->   0.4372401847

 END OF EFFECTIVE MASSES SECTION

 ---- first-order wavefunction calculations are completed ----

 Total localisation tensor (bohr^2) in cartesian coordinates
  WARNING : still subject to testing - especially symmetries.
      direction              matrix element
   alpha     beta       real part   imaginary part
     1        1       0.7950377781    0.0000000000
     1        2      -0.2519508170    0.0000000000
     1        3       0.0000000000    0.0000000000
     2        1      -0.2519508170    0.0000000000
     2        2       0.5737654194    0.0000000000
     2        3       0.0000000000    0.0000000000
     3        1       0.0000000000    0.0000000000
     3        2       0.0000000000    0.0000000000
     3        3       0.5338189542    0.0000000000

 respfn : d/dk was computed, but no 2DTE, so no DDB output.

== END DATASET(S) ==============================================================

 -outvars: echo values of variables after computation  --------
            acell      1.0000000000E+00  1.0000000000E+00  1.0000000000E+00 Bohr
              amu      2.43050000E+01  3.20660000E+01  1.59994000E+01
             ecut      4.40000000E+01 Hartree
           etotal     -2.2479980570E+01
            fcart      0.0000000000E+00  0.0000000000E+00  0.0000000000E+00
                       0.0000000000E+00  0.0000000000E+00  0.0000000000E+00
                       0.0000000000E+00  0.0000000000E+00  0.0000000000E+00
                       0.0000000000E+00  0.0000000000E+00  0.0000000000E+00
                       0.0000000000E+00  0.0000000000E+00  0.0000000000E+00
                       0.0000000000E+00  0.0000000000E+00  0.0000000000E+00
                       0.0000000000E+00  0.0000000000E+00  0.0000000000E+00
                       0.0000000000E+00  0.0000000000E+00  0.0000000000E+00
                       0.0000000000E+00  0.0000000000E+00  0.0000000000E+00
                       0.0000000000E+00  0.0000000000E+00  0.0000000000E+00
                       0.0000000000E+00  0.0000000000E+00  0.0000000000E+00
                       0.0000000000E+00  0.0000000000E+00  0.0000000000E+00
-          fftalg         512
           irdden           1
           irdwfk           1
           istwfk        0    1
              ixc     -116133
              kpt     -5.00000000E-01  5.00000000E-01  0.00000000E+00
                       0.00000000E+00  0.00000000E+00  0.00000000E+00
           kptopt           0
P           mkmem           2
P          mkqmem           2
P          mk1mem           2
            natom          12
            nband          49
           nbdbuf           4
            ngfft          54      54      75
             nkpt           2
            nstep        2000
             nsym           8
           ntypat           3
              occ      2.000000  2.000000  2.000000  2.000000  2.000000  2.000000
                       2.000000  2.000000  2.000000  2.000000  2.000000  2.000000
                       2.000000  2.000000  2.000000  2.000000  2.000000  2.000000
                       2.000000  2.000000  2.000000  2.000000  2.000000  2.000000
                       2.000000  2.000000  2.000000  2.000000  2.000000  2.000000
                       2.000000  2.000000  2.000000  2.000000  2.000000  2.000000
                       2.000000  2.000000  2.000000  2.000000  0.000000  0.000000
                       0.000000  0.000000  0.000000  0.000000  0.000000  0.000000
                       0.000000
        optdriver           1
            prtwf          -1
            rfdir           1       1       1
           rfelfd           2
            rprim      8.9393029453E+00  0.0000000000E+00  0.0000000000E+00
                      -3.5941544299E+00  8.1849368404E+00  0.0000000000E+00
                       0.0000000000E+00  0.0000000000E+00  1.2292635541E+01
          spgroup          63
           strten      0.0000000000E+00  0.0000000000E+00  0.0000000000E+00
                       0.0000000000E+00  0.0000000000E+00  0.0000000000E+00
           symrel      1  0  0   0  1  0   0  0  1      -1  0  0   0 -1  0   0  0 -1
                       0 -1  0  -1  0  0   0  0 -1       0  1  0   1  0  0   0  0  1
                      -1  0  0   0 -1  0   0  0  1       1  0  0   0  1  0   0  0 -1
                       0  1  0   1  0  0   0  0 -1       0 -1  0  -1  0  0   0  0  1
            tnons      0.0000000  0.0000000  0.0000000     0.0000000  0.0000000  0.0000000
                       0.0000000  0.0000000  0.5000000     0.0000000  0.0000000  0.5000000
                       0.0000000  0.0000000  0.5000000     0.0000000  0.0000000  0.5000000
                       0.0000000  0.0000000  0.0000000     0.0000000  0.0000000  0.0000000
           tolwfr      1.00000000E-20
            typat      1  1  2  2  3  3  3  3  3  3  3  3
           useylm           1
              wtk        0.50000    0.50000
           xangst      0.0000000000E+00  0.0000000000E+00  0.0000000000E+00
                       0.0000000000E+00  0.0000000000E+00  3.2524912808E+00
                       4.2074876853E-01  2.8144540690E+00  1.6262456404E+00
                       2.4077820024E+00  1.5168279606E+00  4.8787369212E+00
                       1.8251295540E+00  3.3525552233E+00  1.6262456404E+00
                       1.0034012169E+00  9.7872680640E-01  4.8787369212E+00
                       2.3358258930E+00  3.0190465070E+00  4.8787369212E+00
                       4.9270487785E-01  1.3122355227E+00  1.6262456404E+00
                      -2.5178525065E-01  3.2536503981E+00  4.0718588843E-01
                       3.0803160215E+00  1.0776316316E+00  3.6596771692E+00
                       3.0803160215E+00  1.0776316316E+00  6.0977966732E+00
                      -2.5178525065E-01  3.2536503981E+00  2.8453053924E+00
            xcart      0.0000000000E+00  0.0000000000E+00  0.0000000000E+00
                       0.0000000000E+00  0.0000000000E+00  6.1463177703E+00
                       7.9509994327E-01  5.3185474041E+00  3.0731588852E+00
                       4.5500485721E+00  2.8663894363E+00  9.2194766554E+00
                       3.4489950140E+00  6.3354112174E+00  3.0731588852E+00
                       1.8961535014E+00  1.8495256230E+00  9.2194766554E+00
                       4.4140712319E+00  5.7051710807E+00  9.2194766554E+00
                       9.3107728348E-01  2.4797657597E+00  3.0731588852E+00
                      -4.7580516804E-01  6.1485081846E+00  7.6946981430E-01
                       5.8209536834E+00  2.0364286558E+00  6.9157875846E+00
                       5.8209536834E+00  2.0364286558E+00  1.1523165726E+01
                      -4.7580516804E-01  6.1485081846E+00  5.3768479560E+00
             xred      0.0000000000E+00  0.0000000000E+00  0.0000000000E+00
                       0.0000000000E+00  0.0000000000E+00  5.0000000000E-01
                       3.5020300000E-01  6.4979700000E-01  2.5000000000E-01
                       6.4979700000E-01  3.5020300000E-01  7.5000000000E-01
                       6.9703300000E-01  7.7403300000E-01  2.5000000000E-01
                       3.0296700000E-01  2.2596700000E-01  7.5000000000E-01
                       7.7403300000E-01  6.9703300000E-01  7.5000000000E-01
                       2.2596700000E-01  3.0296700000E-01  2.5000000000E-01
                       2.4880200000E-01  7.5119800000E-01  6.2596000000E-02
                       7.5119800000E-01  2.4880200000E-01  5.6259600000E-01
                       7.5119800000E-01  2.4880200000E-01  9.3740400000E-01
                       2.4880200000E-01  7.5119800000E-01  4.3740400000E-01
            znucl       12.00000   16.00000    8.00000

- Timing analysis has been suppressed with timopt=0

 Suggested references for the acknowledgment of ABINIT usage.

 Calculation completed.
.Delivered   2 WARNINGs and   5 COMMENTs to log file.