.Version 9.5.1 of ABINIT

 ABINIT is a project of the Universite Catholique de Louvain,
 Corning Inc. and other collaborators, see ~abinit/doc/developers/contributors.txt .
 acknowledgments of the ABINIT effort.

.Starting date : Wed  5 May 2021.
- ( at 19h49 )

- input  file    -> /scratch/users/j/a/jabreu/flow_simple_7atoms/flow/w145/t1/run.abi
- output file    -> /scratch/users/j/a/jabreu/flow_simple_7atoms/flow/w145/t1/run.abo
- root for input  files -> /scratch/users/j/a/jabreu/flow_simple_7atoms/flow/w145/t1/indata/in
- root for output files -> /scratch/users/j/a/jabreu/flow_simple_7atoms/flow/w145/t1/outdata/out

 Symmetries : space group I4/m m m (#139); Bravais tI (body-center tetrag.)
     intxc =       0      iscf =       7    lmnmax =      32     lnmax =       8
     mgfft =      90  mpssoang =       4    mqgrid =    3001     natom =       7
  nloc_mem =       1    nspden =       1   nspinor =       1    nsppol =       1
      nsym =      16    n1xccc =    2501    ntypat =       3    occopt =       1
   xclevel =       2
-    mband =          37        mffmem =           1         mkmem =           2
-   mkqmem =           2        mk1mem =           2           mpw =       10829
      nfft =      729000          nkpt =           2
  Rough estimation (10% accuracy) of disk space for files :

------------- Echo of variables that govern the present computation ------------
-
- outvars: echo of selected default values
-   iomode0 =  0 , fftalg0 =512 , wfoptalg0 =  0
-
- outvars: echo of global parameters not present in the input file
-  max_nthreads =    0
-
 -outvars: echo values of preprocessed input variables --------
            acell      1.0000000000E+00  1.0000000000E+00  1.0000000000E+00 Bohr
              amu      1.37327000E+02  1.78490000E+02  1.59994000E+01
             ecut      4.40000000E+01 Hartree
-          fftalg         512
           irdden           1
           irdwfk           1
              ixc     -116133
              kpt     -1.31490142E-01  1.31490142E-01  1.31490142E-01
                       5.00000000E-01  5.00000000E-01 -5.00000000E-01
           kptopt           0
P           mkmem           2
P          mkqmem           2
P          mk1mem           2
            natom           7
            nband          37
           nbdbuf           4
            ngfft          90      90      90
             nkpt           2
            nstep        2000
             nsym          16
           ntypat           3
              occ      2.000000  2.000000  2.000000  2.000000  2.000000  2.000000
                       2.000000  2.000000  2.000000  2.000000  2.000000  2.000000
                       2.000000  2.000000  2.000000  2.000000  2.000000  2.000000
                       2.000000  2.000000  2.000000  2.000000  2.000000  2.000000
                       2.000000  2.000000  2.000000  2.000000  0.000000  0.000000
                       0.000000  0.000000  0.000000  0.000000  0.000000  0.000000
                       0.000000
        optdriver           1
            prtwf          -1
            rfdir           1       1       1
           rfelfd           2
            rprim      7.5033306382E+00  0.0000000000E+00 -1.1582332665E+01
                      -6.5567147940E-01  7.4746281230E+00 -1.1582332665E+01
                       0.0000000000E+00  0.0000000000E+00  1.3800376829E+01
          spgroup         139
           symrel      1  0  0   0  1  0   0  0  1      -1  0  0   0 -1  0   0  0 -1
                       0  0  1  -1 -1 -1   1  0  0       0  0 -1   1  1  1  -1  0  0
                       0  1  0   1  0  0  -1 -1 -1       0 -1  0  -1  0  0   1  1  1
                      -1 -1 -1   0  0  1   0  1  0       1  1  1   0  0 -1   0 -1  0
                       0  1  0   1  0  0   0  0  1       0 -1  0  -1  0  0   0  0 -1
                       0  0  1  -1 -1 -1   0  1  0       0  0 -1   1  1  1   0 -1  0
                       1  0  0   0  1  0  -1 -1 -1      -1  0  0   0 -1  0   1  1  1
                      -1 -1 -1   0  0  1   1  0  0       1  1  1   0  0 -1  -1  0  0
           tolwfr      1.00000000E-20
            typat      1  1  2  3  3  3  3
           useylm           1
              wtk        0.50000    0.50000
           xangst      2.3453116644E+00  2.5600474728E+00 -7.9338586431E+00
                       1.2783134946E+00  1.3953553726E+00 -4.3243542944E+00
                       0.0000000000E+00  0.0000000000E+00  0.0000000000E+00
                       1.9852957811E+00  0.0000000000E+00  5.8686920967E-01
                      -1.7348320161E-01  1.9777014227E+00  5.8686920967E-01
                       3.0568213353E+00  3.3367026877E+00 -1.0340795528E+01
                       5.6680382375E-01  6.1870015767E-01 -1.9174174095E+00
            xcart      4.4319967420E+00  4.8377886108E+00 -1.4992820012E+01
                       2.4156624168E+00  2.6368395122E+00 -8.1718453179E+00
                       0.0000000000E+00  0.0000000000E+00  0.0000000000E+00
                       3.7516653191E+00  0.0000000000E+00  1.1090220821E+00
                      -3.2783573970E-01  3.7373140615E+00  1.1090220821E+00
                       5.7765551608E+00  6.3054542666E+00 -1.9541271544E+01
                       1.0711039980E+00  1.1691738564E+00 -3.6233937863E+00
             xred      6.4722800000E-01  6.4722800000E-01 -1.6653345369E-16
                       3.5277200000E-01  3.5277200000E-01 -5.5511151231E-17
                       0.0000000000E+00  0.0000000000E+00  0.0000000000E+00
                       5.0000000000E-01  0.0000000000E+00  5.0000000000E-01
                       0.0000000000E+00  5.0000000000E-01  5.0000000000E-01
                       8.4358100000E-01  8.4358100000E-01 -3.3306690739E-16
                       1.5641900000E-01  1.5641900000E-01 -2.7755575616E-17
            znucl       56.00000   72.00000    8.00000

 chkinp: Checking input parameters for consistency.

== DATASET  1 ==================================================================
-   mpi_nproc: 1, omp_nthreads: -1 (-1 if OMP is not activated)

--- !DatasetInfo
iteration_state: {dtset: 1, }
dimensions: {natom: 7, nkpt: 2, mband: 37, nsppol: 1, nspinor: 1, nspden: 1, mpw: 10829, }
cutoff_energies: {ecut:  44.0, pawecutdg:  -1.0, }
electrons: {nelect:   5.60000000E+01, charge:   0.00000000E+00, occopt:   1.00000000E+00, tsmear:   1.00000000E-02, }
meta: {optdriver: 1, rfelfd: 2, }
...

 Real(R)+Recip(G) space primitive vectors, cartesian coordinates (Bohr,Bohr^-1):
 R(1)=  7.5033306  0.0000000-11.5823327  G(1)=  0.1332741  0.0116908  0.0000000
 R(2)= -0.6556715  7.4746281-11.5823327  G(2)=  0.0000000  0.1337859  0.0000000
 R(3)=  0.0000000  0.0000000 13.8003768  G(3)=  0.1118539  0.1220952  0.0724618
 Unit cell volume ucvol=  7.7398870E+02 bohr^3
 Angles (23,13,12)=  1.47063804E+02  1.47063804E+02  4.72693195E+01 degrees

 getcut: wavevector=  0.0000  0.0000  0.0000  ngfft=  90  90  90
         ecut(hartree)=     44.000   => boxcut(ratio)=   2.18425

--- Pseudopotential description ------------------------------------------------
- pspini: atom type   1  psp file is /scratch/users/j/a/jabreu/pseudos/PBEsol/Ba.psp8
- pspatm: opening atomic psp file    /scratch/users/j/a/jabreu/pseudos/PBEsol/Ba.psp8
- Ba    ONCVPSP-3.3.0  r_core=   2.15444   1.91218   2.15444
- 56.00000  10.00000    180112                znucl, zion, pspdat
    8 -116133    2    4       600   0.00000   pspcod,pspxc,lmax,lloc,mmax,r2well
    5.99000000000000    5.00000000000000    0.00000000000000   rchrg,fchrg,qchrg
     nproj     2     2     2
     extension_switch     1
  pspatm : epsatm=   26.37418029
         --- l  ekb(1:nproj) -->
             0    6.652372    0.677024
             1    5.027722    0.408462
             2    2.543237    0.416854
 pspatm: atomic psp has been read  and splines computed

- pspini: atom type   2  psp file is /scratch/users/j/a/jabreu/pseudos/PBEsol/Hf.psp8
- pspatm: opening atomic psp file    /scratch/users/j/a/jabreu/pseudos/PBEsol/Hf.psp8
- Hf    ONCVPSP-3.3.0  r_core=   1.71613   1.71613   1.71613   2.42541
- 72.00000  12.00000    180112                znucl, zion, pspdat
    8 -116133    3    4       600   0.00000   pspcod,pspxc,lmax,lloc,mmax,r2well
    5.99000000000000    5.40000000000000    0.00000000000000   rchrg,fchrg,qchrg
     nproj     2     2     2     2
     extension_switch     1
  pspatm : epsatm=   21.99082902
         --- l  ekb(1:nproj) -->
             0    5.882750   -0.519107
             1    2.555685   -1.768609
             2    1.383259    0.138001
             3    9.464546    0.347497
 pspatm: atomic psp has been read  and splines computed

- pspini: atom type   3  psp file is /scratch/users/j/a/jabreu/pseudos/PBEsol/O.psp8
- pspatm: opening atomic psp file    /scratch/users/j/a/jabreu/pseudos/PBEsol/O.psp8
- O     ONCVPSP-3.3.0  r_core=   1.35509   1.45563   1.26150
-  8.00000   6.00000    180112                znucl, zion, pspdat
    8 -116133    2    4       600   0.00000   pspcod,pspxc,lmax,lloc,mmax,r2well
    5.99000000000000    4.00000000000000    0.00000000000000   rchrg,fchrg,qchrg
     nproj     2     2     1
     extension_switch     1
  pspatm : epsatm=    6.22910522
         --- l  ekb(1:nproj) -->
             0    6.050032    0.820363
             1   -4.739617   -1.153841
             2   -1.335834
 pspatm: atomic psp has been read  and splines computed

   5.58071419E+03                                ecore*ucvol(ha*bohr**3)

-inwffil : will read wavefunctions from disk file /scratch/users/j/a/jabreu/flow_simple_7atoms/flow/w145/t1/indata/in_WFK

 ==>  initialize data related to q vector <==

 The list of irreducible perturbations for this q vector is:
    1)    idir= 1    ipert=   8
    2)    idir= 2    ipert=   8
    3)    idir= 3    ipert=   8

 Perturbation wavevector (in red.coord.)   0.000000  0.000000  0.000000
 Perturbation : derivative vs k along direction   1

 dfpt_looppert : COMMENT -
  In a d/dk calculation, iscf is set to -3 automatically.
 The set of symmetries contains only one element for this perturbation.
 symkpt : not enough symmetry to change the number of k points.

[...]

 Initialisation of the first-order wave-functions :
  ireadwf=   0

--- !BeginCycle
iteration_state: {dtset: 1, }
solver: {iscf: 7, nstep: 2000, nline: 4, wfoptalg: 0, }
tolerances: {tolwfr: 1.00E-20, }
...

     iter   2DEtotal(Ha)        deltaE(Ha) residm    vres2
-ETOT  1  -50.419566222201     -5.042E+01 1.197E-01 0.000E+00
 ETOT  2  -50.515800955660     -9.623E-02 1.354E-02 0.000E+00
 ETOT  3  -50.516594903550     -7.939E-04 1.395E-04 0.000E+00
 ETOT  4  -50.516603834265     -8.931E-06 4.794E-05 0.000E+00
 ETOT  5  -50.516603948293     -1.140E-07 8.003E-07 0.000E+00
 ETOT  6  -50.516603949874     -1.581E-09 4.764E-07 0.000E+00
 ETOT  7  -50.516603949897     -2.314E-11 1.015E-08 0.000E+00
 ETOT  8  -50.516603949898     -3.268E-13 7.029E-09 0.000E+00
 ETOT  9  -50.516603949898      2.842E-14 3.228E-10 0.000E+00
 ETOT 10  -50.516603949898      7.105E-15 1.341E-10 0.000E+00
 ETOT 11  -50.516603949898     -7.816E-14 1.109E-11 0.000E+00
 ETOT 12  -50.516603949898      5.684E-14 4.720E-12 0.000E+00
 ETOT 13  -50.516603949898     -1.421E-14 3.968E-13 0.000E+00
 ETOT 14  -50.516603949898     -2.842E-14 1.676E-13 0.000E+00
 ETOT 15  -50.516603949898      2.842E-14 1.445E-14 0.000E+00
 ETOT 16  -50.516603949898     -7.105E-15 5.984E-15 0.000E+00
 ETOT 17  -50.516603949898      0.000E+00 5.305E-16 0.000E+00
 ETOT 18  -50.516603949898      7.105E-15 2.144E-16 0.000E+00
 ETOT 19  -50.516603949898      0.000E+00 1.955E-17 0.000E+00
 ETOT 20  -50.516603949898     -1.421E-14 7.700E-18 0.000E+00
 ETOT 21  -50.516603949898      2.842E-14 7.223E-19 0.000E+00
 ETOT 22  -50.516603949898     -5.684E-14 2.771E-19 0.000E+00
 ETOT 23  -50.516603949898      4.263E-14 2.673E-20 0.000E+00
 ETOT 24  -50.516603949898      0.000E+00 9.993E-21 0.000E+00

 At SCF step   24   max residual=  9.99E-21 < tolwfr=  1.00E-20 =>converged.

 ----iterations are completed or convergence reached----

 dfpt_looppert: DFPT cycle converged with prtwf=-1. Will skip output of the 1st-order WFK file.
 dfpt_looppert : ek2=    7.9140461462E+01
          f-sum rule ratio=    1.2197322590E+00
 prteigrs : about to open file /scratch/users/j/a/jabreu/flow_simple_7atoms/flow/w145/t1/tmpdata/tmp_1WF1_EIG
 Expectation of eigenvalue derivatives (hartree) for nkpt=   2  k points:
  (in case of degenerate eigenvalues, averaged derivative)
 kpt#   1, nband= 37, wtk=  0.50000, kpt= -0.1315  0.1315  0.1315 (reduced coord)
   0.00000    0.00000   -0.00000    0.00000   -0.00000    0.00000   -0.00000    0.00000
   0.00000    0.00000    0.00000   -0.00000    0.00000   -0.00000    0.00000    0.00000
  -0.00000    0.00000   -0.00000    0.00000    0.00000    0.00000    0.00000    0.00000
   0.00000   -0.00000   -0.00000    0.00000   -0.00000    0.00000    0.00000    0.00000
  -0.00000   -0.00000   -0.00000    0.00056    0.00335
 prteigrs : prtvol=0 or 1, do not print more k-points.

 Eight components of 2nd-order total energy (hartree) are
 1,2,3: 0th-order hamiltonian combined with 1st-order wavefunctions
     kin0=   8.30220463E+01 eigvalue=  -4.08744531E+00  local=  -5.00131879E+01
 4,5,6: 1st-order hamiltonian combined with 1st and 0th-order wfs
     kin1=  -9.65301738E+01  Hartree=   0.00000000E+00     xc=   0.00000000E+00
 7,8,9: eventually, occupation + non-local contributions
    edocc=   1.53366636E+01     enl0=   6.25852724E+00   enl1=  -4.50303406E+00
 1-9 gives the relaxation energy (to be shifted if some occ is /=2.0)
   erelax=  -5.05166039E+01
  No Ewald or frozen-wf contrib.: the relaxation energy is the total one
 2DEtotal=   -0.5051660395E+02 Ha. Also 2DEtotal=   -0.137462670138E+04 eV
    (  non-var. 2DEtotal :   -5.0516603949E+01 Ha)

 Perturbation wavevector (in red.coord.)   0.000000  0.000000  0.000000
 Perturbation : derivative vs k along direction   2
 The set of symmetries contains only one element for this perturbation.
 symkpt : not enough symmetry to change the number of k points.

[...]

 Perturbation wavevector (in red.coord.)   0.000000  0.000000  0.000000
 Perturbation : derivative vs k along direction   3
 The set of symmetries contains only one element for this perturbation.
 symkpt : not enough symmetry to change the number of k points.

-inwffil : will read wavefunctions from disk file /scratch/users/j/a/jabreu/flow_simple_7atoms/flow/w145/t1/indata/in_WFK

 Initialisation of the first-order wave-functions :
  ireadwf=   0

--- !BeginCycle
iteration_state: {dtset: 1, }
solver: {iscf: 7, nstep: 2000, nline: 4, wfoptalg: 0, }
tolerances: {tolwfr: 1.00E-20, }
...

     iter   2DEtotal(Ha)        deltaE(Ha) residm    vres2
-ETOT  1  -89.729993900872     -8.973E+01 3.311E-01 0.000E+00
 ETOT  2  -89.858913636697     -1.289E-01 4.119E-02 0.000E+00
 ETOT  3  -89.859859332170     -9.457E-04 1.254E-03 0.000E+00
 ETOT  4  -89.859869654233     -1.032E-05 3.007E-04 0.000E+00
 ETOT  5  -89.859869787249     -1.330E-07 1.409E-05 0.000E+00
 ETOT  6  -89.859869789162     -1.914E-09 3.129E-06 0.000E+00
 ETOT  7  -89.859869789193     -3.087E-11 1.742E-07 0.000E+00
 ETOT  8  -89.859869789194     -4.974E-13 3.814E-08 0.000E+00
 ETOT  9  -89.859869789194      1.421E-14 2.258E-09 0.000E+00
 ETOT 10  -89.859869789194      1.563E-13 5.041E-10 0.000E+00
 ETOT 11  -89.859869789194     -9.948E-14 2.981E-11 0.000E+00
 ETOT 12  -89.859869789194      5.684E-14 8.218E-12 0.000E+00
 ETOT 13  -89.859869789194     -2.842E-14 3.972E-13 0.000E+00
 ETOT 14  -89.859869789194      5.684E-14 1.482E-13 0.000E+00
 ETOT 15  -89.859869789194     -4.263E-14 5.329E-15 0.000E+00
 ETOT 16  -89.859869789194      1.421E-14 2.676E-15 0.000E+00
 ETOT 17  -89.859869789194      0.000E+00 7.189E-17 0.000E+00
 ETOT 18  -89.859869789194      2.842E-14 5.202E-17 0.000E+00
 ETOT 19  -89.859869789194     -2.842E-14 9.744E-19 0.000E+00
 ETOT 20  -89.859869789194      0.000E+00 1.375E-18 0.000E+00
 ETOT 21  -89.859869789194      2.842E-14 2.592E-20 0.000E+00
 ETOT 22  -89.859869789194      0.000E+00 3.803E-20 0.000E+00
 ETOT 23  -89.859869789194      0.000E+00 9.900E-21 0.000E+00

 At SCF step   23   max residual=  9.90E-21 < tolwfr=  1.00E-20 =>converged.

 ----iterations are completed or convergence reached----

 dfpt_looppert: DFPT cycle converged with prtwf=-1. Will skip output of the 1st-order WFK file.
 dfpt_looppert : ek2=    1.4444969351E+02
          f-sum rule ratio=    1.1855409077E+00
 prteigrs : about to open file /scratch/users/j/a/jabreu/flow_simple_7atoms/flow/w145/t1/tmpdata/tmp_1WF1_EIG
 Expectation of eigenvalue derivatives (hartree) for nkpt=   2  k points:
  (in case of degenerate eigenvalues, averaged derivative)
 kpt#   1, nband= 37, wtk=  0.50000, kpt= -0.1315  0.1315  0.1315 (reduced coord)
   0.00009   -0.01802    0.00059    0.00114    0.01402   -0.00110    0.01359    0.09070
  -0.01362   -0.02145    0.00060   -0.00001    0.02575   -0.00154    0.00924   -0.01528
  -0.26806   -0.13879   -0.04524   -0.07367    0.00572   -0.08490   -0.01183   -0.09155
  -0.10118    0.03083   -0.04531    0.00101    0.16486    0.09541    0.30467    0.13785
   0.31981    0.31870    0.17693   -0.05288    0.10778
 prteigrs : prtvol=0 or 1, do not print more k-points.

 Eight components of 2nd-order total energy (hartree) are
 1,2,3: 0th-order hamiltonian combined with 1st-order wavefunctions
     kin0=   1.45396741E+02 eigvalue=  -6.68212371E+00  local=  -8.60561740E+01
 4,5,6: 1st-order hamiltonian combined with 1st and 0th-order wfs
     kin1=  -1.71251021E+02  Hartree=   0.00000000E+00     xc=   0.00000000E+00
 7,8,9: eventually, occupation + non-local contributions
    edocc=   2.66942770E+01     enl0=   1.05071492E+01   enl1=  -8.46871881E+00
 1-9 gives the relaxation energy (to be shifted if some occ is /=2.0)
   erelax=  -8.98598698E+01
  No Ewald or frozen-wf contrib.: the relaxation energy is the total one
 2DEtotal=   -0.8985986979E+02 Ha. Also 2DEtotal=   -0.244521141044E+04 eV
    (  non-var. 2DEtotal :   -8.9859869789E+01 Ha)

 CALCULATION OF EFFECTIVE MASSES
 NOTE : Additional infos (eff. mass eigenvalues, eigenvectors and, if degenerate, average mass) are available in stdout.

 K-point (-0.131, 0.131, 0.131) | band =    28
 Effective mass tensor:
             -3.1299918871              0.0838962883             -0.6659450970
              0.0838962883             -1.7407869250             -0.2836893707
             -0.6659450970             -0.2836893707             -1.0740926127
 Effective mass tensor eigenvalues:
             -3.3268537989             -1.8324117004             -0.7856059255
 Angular average effective mass 1/(<1/m>)=  -1.4156178480
 Angular average effective mass for Frohlich model (<m**0.5>)**2=  -1.5722631200
 Effective masses along directions: (cart. coord. / red. coord. -> eff. mass)
    1:   1.000000  0.000000  0.000000 /   0.996204 -0.087052  0.000000 ->  -2.6765883576
    2:   0.000000  1.000000  0.000000 /   0.000000  1.000000  0.000000 ->  -1.6410204151
    3:   0.000000  0.000000  1.000000 /  -0.540764 -0.540764  0.644321 ->  -0.8801041741
    4:   0.577350  0.577350  0.577350 /  -0.269091 -0.314239  0.910409 ->  -2.2262801278
    5:   0.000000  0.707107  0.707107 /  -0.626783 -0.222290  0.746813 ->  -1.4798795195
    6:   0.707107  0.000000  0.707107 /  -0.215927 -0.647833  0.730539 ->  -1.9689295690
    7:   0.707107  0.707107  0.000000 /   0.740051  0.672551  0.000000 ->  -1.8189861649

 K-point ( 0.500, 0.500,-0.500) | band =    29
 Effective mass tensor:
              0.4667759173              0.0176667420             -0.0547289333
              0.0176667420              0.4699338933             -0.0597198853
             -0.0547289333             -0.0597198853              0.6357502169
 Effective mass tensor eigenvalues:
              0.4505960843              0.4506653768              0.6711985664
 Angular average effective mass 1/(<1/m>)=   0.5060646940
 Angular average effective mass for Frohlich model (<m**0.5>)**2=   0.5110427174
 Effective masses along directions: (cart. coord. / red. coord. -> eff. mass)
    1:   1.000000  0.000000  0.000000 /   0.996204 -0.087052  0.000000 ->   0.4617266478
    2:   0.000000  1.000000  0.000000 /   0.000000  1.000000  0.000000 ->   0.4639844920
    3:   0.000000  0.000000  1.000000 /  -0.540764 -0.540764  0.644321 ->   0.6222512900
    4:   0.577350  0.577350  0.577350 /  -0.269091 -0.314239  0.910409 ->   0.4567595666
    5:   0.000000  0.707107  0.707107 /  -0.626783 -0.222290  0.746813 ->   0.4810972535
    6:   0.707107  0.000000  0.707107 /  -0.215927 -0.647833  0.730539 ->   0.4837039506
    7:   0.707107  0.707107  0.000000 /   0.740051  0.672551  0.000000 ->   0.4757171813

 END OF EFFECTIVE MASSES SECTION

 ---- first-order wavefunction calculations are completed ----

 Total localisation tensor (bohr^2) in cartesian coordinates
  WARNING : still subject to testing - especially symmetries.
      direction              matrix element
   alpha     beta       real part   imaginary part
     1        1       1.1969561506    0.0000000000
     1        2      -0.0909937838    0.0000000000
     1        3      -1.6943312427    0.0000000000
     2        1      -0.0909937838    0.0000000000
     2        2       1.0373254237    0.0000000000
     2        3      -1.6073907546    0.0000000000
     3        1      -1.6943312427    0.0000000000
     3        2      -1.6073907546    0.0000000000
     3        3      12.3627825566    0.0000000000

 respfn : d/dk was computed, but no 2DTE, so no DDB output.

== END DATASET(S) ==============================================================

 -outvars: echo values of variables after computation  --------
            acell      1.0000000000E+00  1.0000000000E+00  1.0000000000E+00 Bohr
              amu      1.37327000E+02  1.78490000E+02  1.59994000E+01
             ecut      4.40000000E+01 Hartree
           etotal     -8.9859869789E+01
            fcart      0.0000000000E+00  0.0000000000E+00  0.0000000000E+00
                       0.0000000000E+00  0.0000000000E+00  0.0000000000E+00
                       0.0000000000E+00  0.0000000000E+00  0.0000000000E+00
                       0.0000000000E+00  0.0000000000E+00  0.0000000000E+00
                       0.0000000000E+00  0.0000000000E+00  0.0000000000E+00
                       0.0000000000E+00  0.0000000000E+00  0.0000000000E+00
                       0.0000000000E+00  0.0000000000E+00  0.0000000000E+00
-          fftalg         512
           irdden           1
           irdwfk           1
              ixc     -116133
              kpt     -1.31490142E-01  1.31490142E-01  1.31490142E-01
                       5.00000000E-01  5.00000000E-01 -5.00000000E-01
           kptopt           0
P           mkmem           2
P          mkqmem           2
P          mk1mem           2
            natom           7
            nband          37
           nbdbuf           4
            ngfft          90      90      90
             nkpt           2
            nstep        2000
             nsym          16
           ntypat           3
              occ      2.000000  2.000000  2.000000  2.000000  2.000000  2.000000
                       2.000000  2.000000  2.000000  2.000000  2.000000  2.000000
                       2.000000  2.000000  2.000000  2.000000  2.000000  2.000000
                       2.000000  2.000000  2.000000  2.000000  2.000000  2.000000
                       2.000000  2.000000  2.000000  2.000000  0.000000  0.000000
                       0.000000  0.000000  0.000000  0.000000  0.000000  0.000000
                       0.000000
        optdriver           1
            prtwf          -1
            rfdir           1       1       1
           rfelfd           2
            rprim      7.5033306382E+00  0.0000000000E+00 -1.1582332665E+01
                      -6.5567147940E-01  7.4746281230E+00 -1.1582332665E+01
                       0.0000000000E+00  0.0000000000E+00  1.3800376829E+01
          spgroup         139
           strten      0.0000000000E+00  0.0000000000E+00  0.0000000000E+00
                       0.0000000000E+00  0.0000000000E+00  0.0000000000E+00
           symrel      1  0  0   0  1  0   0  0  1      -1  0  0   0 -1  0   0  0 -1
                       0  0  1  -1 -1 -1   1  0  0       0  0 -1   1  1  1  -1  0  0
                       0  1  0   1  0  0  -1 -1 -1       0 -1  0  -1  0  0   1  1  1
                      -1 -1 -1   0  0  1   0  1  0       1  1  1   0  0 -1   0 -1  0
                       0  1  0   1  0  0   0  0  1       0 -1  0  -1  0  0   0  0 -1
                       0  0  1  -1 -1 -1   0  1  0       0  0 -1   1  1  1   0 -1  0
                       1  0  0   0  1  0  -1 -1 -1      -1  0  0   0 -1  0   1  1  1
                      -1 -1 -1   0  0  1   1  0  0       1  1  1   0  0 -1  -1  0  0
           tolwfr      1.00000000E-20
            typat      1  1  2  3  3  3  3
           useylm           1
              wtk        0.50000    0.50000
           xangst      2.3453116644E+00  2.5600474728E+00 -7.9338586431E+00
                       1.2783134946E+00  1.3953553726E+00 -4.3243542944E+00
                       0.0000000000E+00  0.0000000000E+00  0.0000000000E+00
                       1.9852957811E+00  0.0000000000E+00  5.8686920967E-01
                      -1.7348320161E-01  1.9777014227E+00  5.8686920967E-01
                       3.0568213353E+00  3.3367026877E+00 -1.0340795528E+01
                       5.6680382375E-01  6.1870015767E-01 -1.9174174095E+00
            xcart      4.4319967420E+00  4.8377886108E+00 -1.4992820012E+01
                       2.4156624168E+00  2.6368395122E+00 -8.1718453179E+00
                       0.0000000000E+00  0.0000000000E+00  0.0000000000E+00
                       3.7516653191E+00  0.0000000000E+00  1.1090220821E+00
                      -3.2783573970E-01  3.7373140615E+00  1.1090220821E+00
                       5.7765551608E+00  6.3054542666E+00 -1.9541271544E+01
                       1.0711039980E+00  1.1691738564E+00 -3.6233937863E+00
             xred      6.4722800000E-01  6.4722800000E-01 -1.6653345369E-16
                       3.5277200000E-01  3.5277200000E-01 -5.5511151231E-17
                       0.0000000000E+00  0.0000000000E+00  0.0000000000E+00
                       5.0000000000E-01  0.0000000000E+00  5.0000000000E-01
                       0.0000000000E+00  5.0000000000E-01  5.0000000000E-01
                       8.4358100000E-01  8.4358100000E-01 -3.3306690739E-16
                       1.5641900000E-01  1.5641900000E-01 -2.7755575616E-17
            znucl       56.00000   72.00000    8.00000

- Timing analysis has been suppressed with timopt=0

 Suggested references for the acknowledgment of ABINIT usage.

 Calculation completed.
.Delivered  14 WARNINGs and   9 COMMENTs to log file.