.Version 9.5.2 of ABINIT

 ABINIT is a project of the Universite Catholique de Louvain,
 Corning Inc. and other collaborators, see ~abinit/doc/developers/contributors.txt .
 acknowledgments of the ABINIT effort.

.Starting date : Wed 26 May 2021.
- ( at 02h15 )

- input  file    -> /scratch/users/j/a/jabreu/flow_simple_11atoms/flow/w222/t1/run.abi
- output file    -> /scratch/users/j/a/jabreu/flow_simple_11atoms/flow/w222/t1/run.abo
- root for input  files -> /scratch/users/j/a/jabreu/flow_simple_11atoms/flow/w222/t1/indata/in
- root for output files -> /scratch/users/j/a/jabreu/flow_simple_11atoms/flow/w222/t1/outdata/out

 Symmetries : space group C2/m (# 12); Bravais mC (1-face-center monocl.)
     intxc =       0      iscf =       7    lmnmax =      18     lnmax =       6
     mgfft =      90  mpssoang =       3    mqgrid =    3858     natom =      12
  nloc_mem =       1    nspden =       1   nspinor =       1    nsppol =       1
      nsym =       4    n1xccc =    2501    ntypat =       3    occopt =       1
   xclevel =       2
-    mband =          87        mffmem =           1         mkmem =           2
-   mkqmem =           2        mk1mem =           2           mpw =       26523
      nfft =      576000          nkpt =           2
  Rough estimation (10% accuracy) of disk space for files :

------------- Echo of variables that govern the present computation ------------
-
- outvars: echo of selected default values
-   iomode0 =  0 , fftalg0 =512 , wfoptalg0 =  0
-
- outvars: echo of global parameters not present in the input file
-  max_nthreads =    0
-
 -outvars: echo values of preprocessed input variables --------
            acell      1.0000000000E+00  1.0000000000E+00  1.0000000000E+00 Bohr
              amu      2.29897680E+01  9.12240000E+01  7.89600000E+01
             ecut      4.40000000E+01 Hartree
-          fftalg         512
           irdden           1
           irdwfk           1
           istwfk        1    0
              ixc     -116133
              kpt      0.00000000E+00  0.00000000E+00  0.00000000E+00
                       5.00000000E-01 -5.00000000E-01  0.00000000E+00
           kptopt           0
P           mkmem           2
P          mkqmem           2
P          mk1mem           2
            natom          12
            nband          87
           nbdbuf           4
            ngfft          80      80      90
             nkpt           2
            nstep        2000
             nsym           4
           ntypat           3
              occ      2.000000  2.000000  2.000000  2.000000  2.000000  2.000000
                       2.000000  2.000000  2.000000  2.000000  2.000000  2.000000
                       2.000000  2.000000  2.000000  2.000000  2.000000  2.000000
                       2.000000  2.000000  2.000000  2.000000  2.000000  2.000000
                       2.000000  2.000000  2.000000  2.000000  2.000000  2.000000
                       2.000000  2.000000  2.000000  2.000000  2.000000  2.000000
                       2.000000  2.000000  2.000000  2.000000  2.000000  2.000000
                       2.000000  2.000000  2.000000  2.000000  2.000000  2.000000
                       2.000000  2.000000  2.000000  2.000000  2.000000  2.000000
                       2.000000  2.000000  2.000000  2.000000  2.000000  2.000000
                       2.000000  2.000000  2.000000  2.000000  2.000000  2.000000
                       2.000000  2.000000  2.000000  2.000000  2.000000  2.000000
                       2.000000  2.000000  2.000000  2.000000  2.000000  2.000000
                       0.000000  0.000000  0.000000  0.000000  0.000000  0.000000
                       0.000000  0.000000  0.000000
        optdriver           1
            prtwf          -1
            rfdir           1       1       1
           rfelfd           2
            rprim      1.2871193329E+01  0.0000000000E+00  2.0969274382E+00
                      -6.9677938041E+00  1.0822082388E+01  2.0969274382E+00
                       0.0000000000E+00  0.0000000000E+00  1.3644095629E+01
          spgroup          12
           symrel      1  0  0   0  1  0   0  0  1      -1  0  0   0 -1  0   0  0 -1
                       0 -1  0  -1  0  0   0  0 -1       0  1  0   1  0  0   0  0  1
           tolwfr      1.00000000E-20
            typat      1  1  1  1  2  2  3  3  3  3  3  3
           useylm           1
              wtk        0.50000    0.50000
           xangst      0.0000000000E+00  0.0000000000E+00  0.0000000000E+00
                       1.5619722409E+00  2.8633996746E+00  4.7197184276E+00
                      -2.0377510125E+00  4.8270332695E+00  4.7197184276E+00
                       5.1616954943E+00  8.9976607976E-01  4.7197184276E+00
                       3.3342494797E+00  1.8966300425E+00  1.1096462084E+00
                      -2.1030499791E-01  3.8301693068E+00  1.1096462084E+00
                       4.2149242111E+00  3.2284544992E+00  3.2773058712E+00
                       2.2341607469E+00  4.0956522710E+00  7.1999955595E+00
                      -1.0909797293E+00  2.4983448501E+00  6.1621309839E+00
                       2.6912046704E+00  4.3517948255E-01  6.1621309839E+00
                       4.3273981139E-01  5.2916198667E+00  3.2773058712E+00
                       8.8978373491E-01  1.6311470783E+00  2.2394412956E+00
            xcart      0.0000000000E+00  0.0000000000E+00  0.0000000000E+00
                       2.9516997625E+00  5.4110411940E+00  8.9189752525E+00
                      -3.8507913407E+00  9.1217709137E+00  8.9189752525E+00
                       9.7541908656E+00  1.7003114744E+00  8.9189752525E+00
                       6.3008183753E+00  3.5841113557E+00  2.0969274382E+00
                      -3.9741885042E-01  7.2379710324E+00  2.0969274382E+00
                       7.9650524298E+00  6.1008948359E+00  6.1932105503E+00
                       4.2219519484E+00  7.7396611277E+00  1.3606019765E+01
                      -2.0616529049E+00  4.7211875522E+00  1.1644739955E+01
                       5.0856397946E+00  8.2237004067E-01  1.1644739955E+01
                       8.1775973033E-01  9.9997123474E+00  6.1932105503E+00
                       1.6814475765E+00  3.0824212604E+00  4.2319307394E+00
             xred      0.0000000000E+00  0.0000000000E+00  0.0000000000E+00
                       5.0000000000E-01  5.0000000000E-01  5.0000000000E-01
                       1.5711500000E-01  8.4288500000E-01  5.0000000000E-01
                       8.4288500000E-01  1.5711500000E-01  5.0000000000E-01
                       6.6881500000E-01  3.3118500000E-01 -1.3877787808E-17
                       3.3118500000E-01  6.6881500000E-01  1.8214596498E-17
                       9.2401000000E-01  5.6374500000E-01  2.2526200000E-01
                       7.1517300000E-01  7.1517300000E-01  7.7738300000E-01
                       7.5990000000E-02  4.3625500000E-01  7.7473800000E-01
                       4.3625500000E-01  7.5990000000E-02  7.7473800000E-01
                       5.6374500000E-01  9.2401000000E-01  2.2526200000E-01
                       2.8482700000E-01  2.8482700000E-01  2.2261700000E-01
            znucl       11.00000   40.00000   34.00000

 chkinp: Checking input parameters for consistency.

== DATASET  1 ==================================================================
-   mpi_nproc: 1, omp_nthreads: -1 (-1 if OMP is not activated)

--- !DatasetInfo
iteration_state: {dtset: 1, }
dimensions: {natom: 12, nkpt: 2, mband: 87, nsppol: 1, nspinor: 1, nspden: 1, mpw: 26523, }
cutoff_energies: {ecut:  44.0, pawecutdg:  -1.0, }
electrons: {nelect:   1.56000000E+02, charge:   0.00000000E+00, occopt:   1.00000000E+00, tsmear:   1.00000000E-02, }
meta: {optdriver: 1, rfelfd: 2, }
...

 Real(R)+Recip(G) space primitive vectors, cartesian coordinates (Bohr,Bohr^-1):
 R(1)= 12.8711933  0.0000000  2.0969274  G(1)=  0.0776929  0.0500225  0.0000000
 R(2)= -6.9677938 10.8220824  2.0969274  G(2)=  0.0000000  0.0924037  0.0000000
 R(3)=  0.0000000  0.0000000 13.6440956  G(3)= -0.0119404 -0.0218891  0.0732918
 Unit cell volume ucvol=  1.9005286E+03 bohr^3
 Angles (23,13,12)=  8.07468756E+01  8.07468756E+01  1.20099000E+02 degrees

 getcut: wavevector=  0.0000  0.0000  0.0000  ngfft=  80  80  90
         ecut(hartree)=     44.000   => boxcut(ratio)=   2.05447

--- Pseudopotential description ------------------------------------------------
- pspini: atom type   1  psp file is /scratch/users/j/a/jabreu/pseudos/PBEsol/Na.psp8
- pspatm: opening atomic psp file    /scratch/users/j/a/jabreu/pseudos/PBEsol/Na.psp8
- Na    ONCVPSP-3.3.0  r_core=   1.20708   1.55069
- 11.00000   9.00000    180112                znucl, zion, pspdat
    8 -116133    1    4       400   0.00000   pspcod,pspxc,lmax,lloc,mmax,r2well
    3.99000000000000    0.00000000000000    0.00000000000000   rchrg,fchrg,qchrg
     nproj     2     2
     extension_switch     1
  pspatm : epsatm=    9.32878306
         --- l  ekb(1:nproj) -->
             0    2.657905   -0.678300
             1   -6.761319   -2.404728
 pspatm: atomic psp has been read  and splines computed

- pspini: atom type   2  psp file is /scratch/users/j/a/jabreu/pseudos/PBEsol/Zr.psp8
- pspatm: opening atomic psp file    /scratch/users/j/a/jabreu/pseudos/PBEsol/Zr.psp8
- Zr    ONCVPSP-3.3.0  r_core=   1.56507   1.56507   1.51006
- 40.00000  12.00000    180112                znucl, zion, pspdat
    8 -116133    2    4       600   0.00000   pspcod,pspxc,lmax,lloc,mmax,r2well
    5.99000000000000    5.00000000000000    0.00000000000000   rchrg,fchrg,qchrg
     nproj     2     2     2
     extension_switch     1
  pspatm : epsatm=   18.88750170
         --- l  ekb(1:nproj) -->
             0   10.584966    0.890424
             1    5.814585    0.741293
             2    1.525459    0.487901
 pspatm: atomic psp has been read  and splines computed

- pspini: atom type   3  psp file is /scratch/users/j/a/jabreu/pseudos/PBEsol/Se.psp8
- pspatm: opening atomic psp file    /scratch/users/j/a/jabreu/pseudos/PBEsol/Se.psp8
- Se    ONCVPSP-3.3.0  r_core=   1.81943   1.50330   1.90835
- 34.00000  16.00000    180112                znucl, zion, pspdat
    8 -116133    2    4       600   0.00000   pspcod,pspxc,lmax,lloc,mmax,r2well
    5.99000000000000    5.00000000000000    0.00000000000000   rchrg,fchrg,qchrg
     nproj     2     2     2
     extension_switch     1
  pspatm : epsatm=   29.17862020
         --- l  ekb(1:nproj) -->
             0    8.973804    1.019550
             1    6.849857    1.297308
             2   -9.203962   -3.731027
 pspatm: atomic psp has been read  and splines computed

   3.90252497E+04                                ecore*ucvol(ha*bohr**3)

 ==>  initialize data related to q vector <==

 The list of irreducible perturbations for this q vector is:
    1)    idir= 1    ipert=  13
    2)    idir= 2    ipert=  13
    3)    idir= 3    ipert=  13

 Perturbation wavevector (in red.coord.)   0.000000  0.000000  0.000000
 Perturbation : derivative vs k along direction   1

 dfpt_looppert : COMMENT -
  In a d/dk calculation, iscf is set to -3 automatically.
[...]
  -0.00000    0.00000   -0.00000   -0.00000   -0.00000    0.00000   -0.00000    0.00000
   0.00000   -0.00000   -0.00000   -0.00000    0.00000    0.00000    0.00000    0.00000
  -0.00000    0.00000   -0.00000   -0.00000    0.00000    0.00006   -0.00007
 prteigrs : prtvol=0 or 1, do not print more k-points.

 Eight components of 2nd-order total energy (hartree) are
 1,2,3: 0th-order hamiltonian combined with 1st-order wavefunctions
     kin0=   1.32641991E+02 eigvalue=   1.68547511E+01  local=  -6.04102587E+01
 4,5,6: 1st-order hamiltonian combined with 1st and 0th-order wfs
     kin1=  -1.08967275E+02  Hartree=   0.00000000E+00     xc=   0.00000000E+00
 7,8,9: eventually, occupation + non-local contributions
    edocc=   9.08321157E+00     enl0=   9.52776120E+00   enl1=  -1.06427636E+02
 1-9 gives the relaxation energy (to be shifted if some occ is /=2.0)
   erelax=  -1.07697456E+02
  No Ewald or frozen-wf contrib.: the relaxation energy is the total one
 2DEtotal=   -0.1076974557E+03 Ha. Also 2DEtotal=   -0.293059680704E+04 eV
    (  non-var. 2DEtotal :   -1.0769745567E+02 Ha)

 Perturbation wavevector (in red.coord.)   0.000000  0.000000  0.000000
 Perturbation : derivative vs k along direction   2
 The set of symmetries contains only one element for this perturbation.
 symkpt : not enough symmetry to change the number of k points.

[...]

 Perturbation wavevector (in red.coord.)   0.000000  0.000000  0.000000
 Perturbation : derivative vs k along direction   3
 The set of symmetries contains only one element for this perturbation.
 symkpt : not enough symmetry to change the number of k points.

 Initialisation of the first-order wave-functions :
  ireadwf=   0

--- !BeginCycle
iteration_state: {dtset: 1, }
solver: {iscf: 7, nstep: 2000, nline: 4, wfoptalg: 0, }
tolerances: {tolwfr: 1.00E-20, }
...

     iter   2DEtotal(Ha)        deltaE(Ha) residm    vres2
-ETOT  1  -75.449279461892     -7.545E+01 3.262E-02 0.000E+00
 ETOT  2  -75.544350490681     -9.507E-02 2.313E-03 0.000E+00
 ETOT  3  -75.545274144580     -9.237E-04 1.957E-04 0.000E+00
 ETOT  4  -75.545306169414     -3.202E-05 4.421E-05 0.000E+00
 ETOT  5  -75.545307662911     -1.493E-06 7.253E-06 0.000E+00
 ETOT  6  -75.545307744399     -8.149E-08 2.190E-06 0.000E+00
 ETOT  7  -75.545307749367     -4.967E-09 3.973E-07 0.000E+00
 ETOT  8  -75.545307749686     -3.195E-10 1.175E-07 0.000E+00
 ETOT  9  -75.545307749708     -2.152E-11 2.251E-08 0.000E+00
 ETOT 10  -75.545307749709     -1.464E-12 6.604E-09 0.000E+00
 ETOT 11  -75.545307749709     -8.527E-14 1.298E-09 0.000E+00
 ETOT 12  -75.545307749709     -2.842E-14 3.788E-10 0.000E+00
 ETOT 13  -75.545307749709     -1.421E-14 7.548E-11 0.000E+00
 ETOT 14  -75.545307749709      1.421E-14 2.197E-11 0.000E+00
 ETOT 15  -75.545307749709      4.263E-14 4.408E-12 0.000E+00
 ETOT 16  -75.545307749709      0.000E+00 1.282E-12 0.000E+00
 ETOT 17  -75.545307749709     -1.421E-14 2.583E-13 0.000E+00
 ETOT 18  -75.545307749709      1.421E-14 7.512E-14 0.000E+00
 ETOT 19  -75.545307749709     -1.421E-14 1.516E-14 0.000E+00
 ETOT 20  -75.545307749709      1.421E-14 4.414E-15 0.000E+00
 ETOT 21  -75.545307749709     -1.421E-14 8.917E-16 0.000E+00
 ETOT 22  -75.545307749709      1.421E-14 2.598E-16 0.000E+00
 ETOT 23  -75.545307749709     -1.421E-14 5.250E-17 0.000E+00
 ETOT 24  -75.545307749709      0.000E+00 1.531E-17 0.000E+00
 ETOT 25  -75.545307749709      0.000E+00 3.093E-18 0.000E+00
 ETOT 26  -75.545307749709     -1.421E-14 9.029E-19 0.000E+00
 ETOT 27  -75.545307749709      2.842E-14 1.824E-19 0.000E+00
 ETOT 28  -75.545307749709     -1.421E-14 5.328E-20 0.000E+00
 ETOT 29  -75.545307749709      0.000E+00 1.075E-20 0.000E+00
 ETOT 30  -75.545307749709      0.000E+00 9.922E-21 0.000E+00

 At SCF step   30   max residual=  9.92E-21 < tolwfr=  1.00E-20 =>converged.

 ----iterations are completed or convergence reached----

 dfpt_looppert: DFPT cycle converged with prtwf=-1. Will skip output of the 1st-order WFK file.
 dfpt_looppert : ek2=    7.3822207761E+01
          f-sum rule ratio=    1.0348829043E+00
 prteigrs : about to open file /scratch/users/j/a/jabreu/flow_simple_11atoms/flow/w222/t1/tmpdata/tmp_1WF1_EIG
 Expectation of eigenvalue derivatives (hartree) for nkpt=   2  k points:
  (in case of degenerate eigenvalues, averaged derivative)
 kpt#   1, nband= 87, wtk=  0.50000, kpt=  0.0000  0.0000  0.0000 (reduced coord)
  -0.00000    0.00000   -0.00000   -0.00000    0.00000   -0.00000    0.00000   -0.00000
  -0.00000   -0.00000   -0.00000   -0.00000    0.00000    0.00000    0.00000   -0.00000
   0.00000    0.00000    0.00000    0.00000   -0.00000    0.00000   -0.00000   -0.00000
   0.00000    0.00000    0.00000   -0.00000   -0.00000   -0.00000    0.00000   -0.00000
   0.00000   -0.00000   -0.00000   -0.00000    0.00000    0.00000   -0.00000   -0.00000
   0.00000   -0.00000    0.00000    0.00000   -0.00000   -0.00000    0.00000    0.00000
   0.00000   -0.00000    0.00000    0.00000    0.00000    0.00000   -0.00000   -0.00000
  -0.00000   -0.00000    0.00000    0.00000   -0.00000   -0.00000    0.00000   -0.00000
   0.00000    0.00000   -0.00000    0.00000    0.00000   -0.00000    0.00000   -0.00000
   0.00000    0.00000    0.00000   -0.00000   -0.00000    0.00000    0.00000   -0.00000
  -0.00000   -0.00000    0.00000   -0.00000    0.00000    0.00000    0.00082
 prteigrs : prtvol=0 or 1, do not print more k-points.

 Eight components of 2nd-order total energy (hartree) are
 1,2,3: 0th-order hamiltonian combined with 1st-order wavefunctions
     kin0=   9.47347939E+01 eigvalue=   1.17295403E+01  local=  -4.36798114E+01
 4,5,6: 1st-order hamiltonian combined with 1st and 0th-order wfs
     kin1=  -7.63973408E+01  Hartree=   0.00000000E+00     xc=   0.00000000E+00
 7,8,9: eventually, occupation + non-local contributions
    edocc=   6.06306975E+00     enl0=   6.69771515E+00   enl1=  -7.46932747E+01
 1-9 gives the relaxation energy (to be shifted if some occ is /=2.0)
   erelax=  -7.55453077E+01
  No Ewald or frozen-wf contrib.: the relaxation energy is the total one
 2DEtotal=   -0.7554530775E+02 Ha. Also 2DEtotal=   -0.205569236800E+04 eV
    (  non-var. 2DEtotal :   -7.5545307749E+01 Ha)

 CALCULATION OF EFFECTIVE MASSES
 NOTE : Additional infos (eff. mass eigenvalues, eigenvectors and, if degenerate, average mass) are available in stdout.

 K-point ( 0.000, 0.000, 0.000) | band =    78
 Effective mass tensor:
             -0.6261183851              0.1092950339              0.3468752561
              0.1092950339             -0.4860895178              0.6380272720
              0.3468752561              0.6380272720             -2.3173704985
 Effective mass tensor eigenvalues:
             -2.5640769141             -0.6859006405             -0.1796008469
 Angular average effective mass 1/(<1/m>)=  -0.4045392818
 Angular average effective mass for Frohlich model (<m**0.5>)**2=  -0.5433912362
 Effective masses along directions: (cart. coord. / red. coord. -> eff. mass)
    1:   1.000000  0.000000  0.000000 /   0.879409 -0.476066  0.000000 ->  -0.4390842781
    2:   0.000000  1.000000  0.000000 /   0.000000  1.000000  0.000000 ->  -0.2373803070
    3:   0.000000  0.000000  1.000000 /   0.150181  0.150181  0.977185 ->  -1.0802320567
    4:   0.577350  0.577350  0.577350 /   0.709061  0.281917  0.646340 ->  -0.2040879445
    5:   0.000000  0.707107  0.707107 /   0.110910  0.683307  0.721658 ->  -0.2529125698
    6:   0.707107  0.000000  0.707107 /   0.718550 -0.233828  0.654989 ->  -0.4244159199
    7:   0.707107  0.707107  0.000000 /   0.957971  0.286865  0.000000 ->  -0.2106336459

 K-point ( 0.500,-0.500, 0.000) | band =    79
 Effective mass tensor:
              0.5720064155              0.0230606265              0.1651935264
              0.0230606265              0.6017018286              0.3028318329
              0.1651935264              0.3028318329              1.0920752851
 Effective mass tensor eigenvalues:
              0.4335739174              0.5594270026              1.2727826094
 Angular average effective mass 1/(<1/m>)=   0.6148000516
 Angular average effective mass for Frohlich model (<m**0.5>)**2=   0.6484551550
 Effective masses along directions: (cart. coord. / red. coord. -> eff. mass)
    1:   1.000000  0.000000  0.000000 /   0.879409 -0.476066  0.000000 ->   0.5460188442
    2:   0.000000  1.000000  0.000000 /   0.000000  1.000000  0.000000 ->   0.5167808006
    3:   0.000000  0.000000  1.000000 /   0.150181  0.150181  0.977185 ->   0.8983594232
    4:   0.577350  0.577350  0.577350 /   0.709061  0.281917  0.646340 ->   0.8970346941
    5:   0.000000  0.707107  0.707107 /   0.110910  0.683307  0.721658 ->   1.0252874537
    6:   0.707107  0.000000  0.707107 /   0.718550 -0.233828  0.654989 ->   0.8525572220
    7:   0.707107  0.707107  0.000000 /   0.957971  0.286865  0.000000 ->   0.5092386790

 END OF EFFECTIVE MASSES SECTION

 ---- first-order wavefunction calculations are completed ----

 Total localisation tensor (bohr^2) in cartesian coordinates
  WARNING : still subject to testing - especially symmetries.
      direction              matrix element
   alpha     beta       real part   imaginary part
     1        1       1.8734366217    0.0000000000
     1        2      -0.6595302264    0.0000000000
     1        3       0.1082398298    0.0000000000
     2        1      -0.6595302264    0.0000000000
     2        2       1.0243544296    0.0000000000
     2        3       0.1984827719    0.0000000000
     3        1       0.1082398298    0.0000000000
     3        2       0.1984827719    0.0000000000
     3        3       1.1389449459    0.0000000000

 respfn : d/dk was computed, but no 2DTE, so no DDB output.

== END DATASET(S) ==============================================================

 -outvars: echo values of variables after computation  --------
            acell      1.0000000000E+00  1.0000000000E+00  1.0000000000E+00 Bohr
              amu      2.29897680E+01  9.12240000E+01  7.89600000E+01
             ecut      4.40000000E+01 Hartree
           etotal     -7.5545307750E+01
            fcart      0.0000000000E+00  0.0000000000E+00  0.0000000000E+00
                       0.0000000000E+00  0.0000000000E+00  0.0000000000E+00
                       0.0000000000E+00  0.0000000000E+00  0.0000000000E+00
                       0.0000000000E+00  0.0000000000E+00  0.0000000000E+00
                       0.0000000000E+00  0.0000000000E+00  0.0000000000E+00
                       0.0000000000E+00  0.0000000000E+00  0.0000000000E+00
                       0.0000000000E+00  0.0000000000E+00  0.0000000000E+00
                       0.0000000000E+00  0.0000000000E+00  0.0000000000E+00
                       0.0000000000E+00  0.0000000000E+00  0.0000000000E+00
                       0.0000000000E+00  0.0000000000E+00  0.0000000000E+00
                       0.0000000000E+00  0.0000000000E+00  0.0000000000E+00
                       0.0000000000E+00  0.0000000000E+00  0.0000000000E+00
-          fftalg         512
           irdden           1
           irdwfk           1
           istwfk        1    0
              ixc     -116133
              kpt      0.00000000E+00  0.00000000E+00  0.00000000E+00
                       5.00000000E-01 -5.00000000E-01  0.00000000E+00
           kptopt           0
P           mkmem           2
P          mkqmem           2
P          mk1mem           2
            natom          12
            nband          87
           nbdbuf           4
            ngfft          80      80      90
             nkpt           2
            nstep        2000
             nsym           4
           ntypat           3
              occ      2.000000  2.000000  2.000000  2.000000  2.000000  2.000000
                       2.000000  2.000000  2.000000  2.000000  2.000000  2.000000
                       2.000000  2.000000  2.000000  2.000000  2.000000  2.000000
                       2.000000  2.000000  2.000000  2.000000  2.000000  2.000000
                       2.000000  2.000000  2.000000  2.000000  2.000000  2.000000
                       2.000000  2.000000  2.000000  2.000000  2.000000  2.000000
                       2.000000  2.000000  2.000000  2.000000  2.000000  2.000000
                       2.000000  2.000000  2.000000  2.000000  2.000000  2.000000
                       2.000000  2.000000  2.000000  2.000000  2.000000  2.000000
                       2.000000  2.000000  2.000000  2.000000  2.000000  2.000000
                       2.000000  2.000000  2.000000  2.000000  2.000000  2.000000
                       2.000000  2.000000  2.000000  2.000000  2.000000  2.000000
                       2.000000  2.000000  2.000000  2.000000  2.000000  2.000000
                       0.000000  0.000000  0.000000  0.000000  0.000000  0.000000
                       0.000000  0.000000  0.000000
        optdriver           1
            prtwf          -1
            rfdir           1       1       1
           rfelfd           2
            rprim      1.2871193329E+01  0.0000000000E+00  2.0969274382E+00
                      -6.9677938041E+00  1.0822082388E+01  2.0969274382E+00
                       0.0000000000E+00  0.0000000000E+00  1.3644095629E+01
          spgroup          12
           strten      0.0000000000E+00  0.0000000000E+00  0.0000000000E+00
                       0.0000000000E+00  0.0000000000E+00  0.0000000000E+00
           symrel      1  0  0   0  1  0   0  0  1      -1  0  0   0 -1  0   0  0 -1
                       0 -1  0  -1  0  0   0  0 -1       0  1  0   1  0  0   0  0  1
           tolwfr      1.00000000E-20
            typat      1  1  1  1  2  2  3  3  3  3  3  3
           useylm           1
              wtk        0.50000    0.50000
           xangst      0.0000000000E+00  0.0000000000E+00  0.0000000000E+00
                       1.5619722409E+00  2.8633996746E+00  4.7197184276E+00
                      -2.0377510125E+00  4.8270332695E+00  4.7197184276E+00
                       5.1616954943E+00  8.9976607976E-01  4.7197184276E+00
                       3.3342494797E+00  1.8966300425E+00  1.1096462084E+00
                      -2.1030499791E-01  3.8301693068E+00  1.1096462084E+00
                       4.2149242111E+00  3.2284544992E+00  3.2773058712E+00
                       2.2341607469E+00  4.0956522710E+00  7.1999955595E+00
                      -1.0909797293E+00  2.4983448501E+00  6.1621309839E+00
                       2.6912046704E+00  4.3517948255E-01  6.1621309839E+00
                       4.3273981139E-01  5.2916198667E+00  3.2773058712E+00
                       8.8978373491E-01  1.6311470783E+00  2.2394412956E+00
            xcart      0.0000000000E+00  0.0000000000E+00  0.0000000000E+00
                       2.9516997625E+00  5.4110411940E+00  8.9189752525E+00
                      -3.8507913407E+00  9.1217709137E+00  8.9189752525E+00
                       9.7541908656E+00  1.7003114744E+00  8.9189752525E+00
                       6.3008183753E+00  3.5841113557E+00  2.0969274382E+00
                      -3.9741885042E-01  7.2379710324E+00  2.0969274382E+00
                       7.9650524298E+00  6.1008948359E+00  6.1932105503E+00
                       4.2219519484E+00  7.7396611277E+00  1.3606019765E+01
                      -2.0616529049E+00  4.7211875522E+00  1.1644739955E+01
                       5.0856397946E+00  8.2237004067E-01  1.1644739955E+01
                       8.1775973033E-01  9.9997123474E+00  6.1932105503E+00
                       1.6814475765E+00  3.0824212604E+00  4.2319307394E+00
             xred      0.0000000000E+00  0.0000000000E+00  0.0000000000E+00
                       5.0000000000E-01  5.0000000000E-01  5.0000000000E-01
                       1.5711500000E-01  8.4288500000E-01  5.0000000000E-01
                       8.4288500000E-01  1.5711500000E-01  5.0000000000E-01
                       6.6881500000E-01  3.3118500000E-01 -1.3877787808E-17
                       3.3118500000E-01  6.6881500000E-01  1.8214596498E-17
                       9.2401000000E-01  5.6374500000E-01  2.2526200000E-01
                       7.1517300000E-01  7.1517300000E-01  7.7738300000E-01
                       7.5990000000E-02  4.3625500000E-01  7.7473800000E-01
                       4.3625500000E-01  7.5990000000E-02  7.7473800000E-01
                       5.6374500000E-01  9.2401000000E-01  2.2526200000E-01
                       2.8482700000E-01  2.8482700000E-01  2.2261700000E-01
            znucl       11.00000   40.00000   34.00000

- Timing analysis has been suppressed with timopt=0

 Suggested references for the acknowledgment of ABINIT usage.

 Calculation completed.
.Delivered   2 WARNINGs and   5 COMMENTs to log file.