.Version 9.5.1 of ABINIT

 ABINIT is a project of the Universite Catholique de Louvain,
 Corning Inc. and other collaborators, see ~abinit/doc/developers/contributors.txt .
 acknowledgments of the ABINIT effort.

.Starting date : Tue 11 May 2021.
- ( at 21h56 )

- input  file    -> /scratch/users/j/a/jabreu/flow_simple_8atoms/flow/w375/t1/run.abi
- output file    -> /scratch/users/j/a/jabreu/flow_simple_8atoms/flow/w375/t1/run.abo
- root for input  files -> /scratch/users/j/a/jabreu/flow_simple_8atoms/flow/w375/t1/indata/in
- root for output files -> /scratch/users/j/a/jabreu/flow_simple_8atoms/flow/w375/t1/outdata/out

 Symmetries : space group I-4 2 m (#121); Bravais tI (body-center tetrag.)
     intxc =       0      iscf =       7    lmnmax =      18     lnmax =       6
     mgfft =      60  mpssoang =       3    mqgrid =    3001     natom =       8
  nloc_mem =       1    nspden =       1   nspinor =       1    nsppol =       1
      nsym =       8    n1xccc =    2501    ntypat =       4    occopt =       1
   xclevel =       2
-    mband =          31        mffmem =           1         mkmem =           2
-   mkqmem =           2        mk1mem =           2           mpw =        7631
      nfft =      216000          nkpt =           2
  Rough estimation (10% accuracy) of disk space for files :

------------- Echo of variables that govern the present computation ------------
-
- outvars: echo of selected default values
-   iomode0 =  0 , fftalg0 =512 , wfoptalg0 =  0
-
- outvars: echo of global parameters not present in the input file
-  max_nthreads =    0
-
 -outvars: echo values of preprocessed input variables --------
            acell      1.0000000000E+00  1.0000000000E+00  1.0000000000E+00 Bohr
              amu      6.94100000E+00  4.00780000E+01  2.80855000E+01
                       1.59994000E+01
             ecut      4.40000000E+01 Hartree
-          fftalg         512
           irdden           1
           irdwfk           1
           istwfk        0    1
              ixc     -116133
              kpt      5.00000000E-01  5.00000000E-01 -5.00000000E-01
                       0.00000000E+00  0.00000000E+00  0.00000000E+00
           kptopt           0
P           mkmem           2
P          mkqmem           2
P          mk1mem           2
            natom           8
            nband          31
           nbdbuf           4
            ngfft          60      60      60
             nkpt           2
            nstep        2000
             nsym           8
           ntypat           4
              occ      2.000000  2.000000  2.000000  2.000000  2.000000  2.000000
                       2.000000  2.000000  2.000000  2.000000  2.000000  2.000000
                       2.000000  2.000000  2.000000  2.000000  2.000000  2.000000
                       2.000000  2.000000  2.000000  2.000000  0.000000  0.000000
                       0.000000  0.000000  0.000000  0.000000  0.000000  0.000000
                       0.000000
        optdriver           1
            prtwf          -1
            rfdir           1       1       1
           rfelfd           2
            rprim      8.0789892767E+00  0.0000000000E+00 -4.0831037759E+00
                      -3.0562772945E+00  7.4785852160E+00 -4.0831037759E+00
                       0.0000000000E+00  0.0000000000E+00  9.0521712411E+00
          spgroup         121
           symrel      1  0  0   0  1  0   0  0  1      -1 -1 -1   0  0  1   0  1  0
                       0  1  0   1  0  0  -1 -1 -1       0  0  1  -1 -1 -1   1  0  0
                       0  1  0   1  0  0   0  0  1      -1 -1 -1   0  0  1   1  0  0
                       1  0  0   0  1  0  -1 -1 -1       0  0  1  -1 -1 -1   0  1  0
           tolwfr      1.00000000E-20
            typat      1  1  2  3  4  4  4  4
           useylm           1
              wtk        0.50000    0.50000
           xangst     -1.4417996712E-01  2.9681226366E+00  2.3441589601E-01
                       2.8020846734E+00  9.8937421220E-01  2.3441589601E-01
                       0.0000000000E+00  0.0000000000E+00  0.0000000000E+00
                       1.3289523531E+00  1.9787484244E+00 -2.1606854585E+00
                       4.3780208951E-01  6.5186700844E-01  2.2402166485E+00
                       1.4577411257E+00  2.1705089342E+00 -5.3189467914E-01
                       5.7953939807E-01  3.3056298404E+00 -2.7804305472E+00
                       2.8407267993E+00  1.7869879146E+00 -2.7804305472E+00
            xcart     -2.7246065170E-01  5.6089389120E+00  4.4298184465E-01
                       5.2951726339E+00  1.8696463040E+00  4.4298184465E-01
                       0.0000000000E+00  0.0000000000E+00  0.0000000000E+00
                       2.5113559911E+00  3.7392926080E+00 -4.0831037759E+00
                       8.2732604957E-01  1.2318501210E+00  4.2333959441E+00
                       2.7547315002E+00  4.1016674546E+00 -1.0051352751E+00
                       1.0951707456E+00  6.2467350950E+00 -5.2542522657E+00
                       5.3681956691E+00  3.3769177614E+00 -5.2542522657E+00
             xred      2.5000000000E-01  7.5000000000E-01  5.0000000000E-01
                       7.5000000000E-01  2.5000000000E-01  5.0000000000E-01
                       0.0000000000E+00  0.0000000000E+00  0.0000000000E+00
                       5.0000000000E-01  5.0000000000E-01  2.7755575616E-17
                       1.6471700000E-01  1.6471700000E-01  6.1626200000E-01
                       5.4845500000E-01  5.4845500000E-01  3.8373800000E-01
                       4.5154500000E-01  8.3528300000E-01  3.4694469520E-17
                       8.3528300000E-01  4.5154500000E-01  5.5511151231E-17
            znucl        3.00000   20.00000   14.00000    8.00000

 chkinp: Checking input parameters for consistency.

== DATASET  1 ==================================================================
-   mpi_nproc: 1, omp_nthreads: -1 (-1 if OMP is not activated)

--- !DatasetInfo
iteration_state: {dtset: 1, }
dimensions: {natom: 8, nkpt: 2, mband: 31, nsppol: 1, nspinor: 1, nspden: 1, mpw: 7631, }
cutoff_energies: {ecut:  44.0, pawecutdg:  -1.0, }
electrons: {nelect:   4.40000000E+01, charge:   0.00000000E+00, occopt:   1.00000000E+00, tsmear:   1.00000000E-02, }
meta: {optdriver: 1, rfelfd: 2, }
...

 Real(R)+Recip(G) space primitive vectors, cartesian coordinates (Bohr,Bohr^-1):
 R(1)=  8.0789893  0.0000000 -4.0831038  G(1)=  0.1237779  0.0505844  0.0000000
 R(2)= -3.0562773  7.4785852 -4.0831038  G(2)=  0.0000000  0.1337151  0.0000000
 R(3)=  0.0000000  0.0000000  9.0521712  G(3)=  0.0558317  0.0831308  0.1104707
 Unit cell volume ucvol=  5.4692684E+02 bohr^3
 Angles (23,13,12)=  1.16811936E+02  1.16811936E+02  9.56167049E+01 degrees

 getcut: wavevector=  0.0000  0.0000  0.0000  ngfft=  60  60  60
         ecut(hartree)=     44.000   => boxcut(ratio)=   2.22033

 getcut : COMMENT -
  Note that boxcut > 2.2 ; recall that boxcut=Gcut(box)/Gcut(sphere) = 2
  is sufficient for exact treatment of convolution.
  Such a large boxcut is a waste : you could raise ecut
  e.g. ecut=   54.228605 Hartrees makes boxcut=2

--- Pseudopotential description ------------------------------------------------
- pspini: atom type   1  psp file is /scratch/users/j/a/jabreu/pseudos/PBEsol/Li.psp8
- pspatm: opening atomic psp file    /scratch/users/j/a/jabreu/pseudos/PBEsol/Li.psp8
- Li    ONCVPSP-3.3.0  r_core=   1.40824   1.10935
-  3.00000   3.00000    180112                znucl, zion, pspdat
    8 -116133    1    4       400   0.00000   pspcod,pspxc,lmax,lloc,mmax,r2well
    3.99000000000000    0.00000000000000    0.00000000000000   rchrg,fchrg,qchrg
     nproj     2     2
     extension_switch     1
  pspatm : epsatm=    2.60859637
         --- l  ekb(1:nproj) -->
             0   -4.855856   -1.482423
             1   -2.171544   -0.427615
 pspatm: atomic psp has been read  and splines computed

- pspini: atom type   2  psp file is /scratch/users/j/a/jabreu/pseudos/PBEsol/Ca.psp8
- pspatm: opening atomic psp file    /scratch/users/j/a/jabreu/pseudos/PBEsol/Ca.psp8
- Ca    ONCVPSP-3.3.0  r_core=   1.45885   1.45885   1.85192
- 20.00000  10.00000    180112                znucl, zion, pspdat
    8 -116133    2    4       400   0.00000   pspcod,pspxc,lmax,lloc,mmax,r2well
    3.99000000000000    6.00000000000000    0.00000000000000   rchrg,fchrg,qchrg
     nproj     2     2     2
     extension_switch     1
  pspatm : epsatm=   12.46045226
         --- l  ekb(1:nproj) -->
             0   10.054847    0.973777
             1    2.998958    0.458102
             2   -3.447298   -1.091650
 pspatm: atomic psp has been read  and splines computed

[...]

- pspini: atom type   4  psp file is /scratch/users/j/a/jabreu/pseudos/PBEsol/O.psp8
- pspatm: opening atomic psp file    /scratch/users/j/a/jabreu/pseudos/PBEsol/O.psp8
- O     ONCVPSP-3.3.0  r_core=   1.35509   1.45563   1.26150
-  8.00000   6.00000    180112                znucl, zion, pspdat
    8 -116133    2    4       600   0.00000   pspcod,pspxc,lmax,lloc,mmax,r2well
    5.99000000000000    4.00000000000000    0.00000000000000   rchrg,fchrg,qchrg
     nproj     2     2     1
     extension_switch     1
  pspatm : epsatm=    6.22910522
         --- l  ekb(1:nproj) -->
             0    6.050032    0.820363
             1   -4.739617   -1.153841
             2   -1.335834
 pspatm: atomic psp has been read  and splines computed

   2.22018516E+03                                ecore*ucvol(ha*bohr**3)

-inwffil : will read wavefunctions from disk file /scratch/users/j/a/jabreu/flow_simple_8atoms/flow/w375/t1/indata/in_WFK

 ==>  initialize data related to q vector <==

 The list of irreducible perturbations for this q vector is:
    1)    idir= 1    ipert=   9
    2)    idir= 2    ipert=   9
    3)    idir= 3    ipert=   9

 Perturbation wavevector (in red.coord.)   0.000000  0.000000  0.000000
 Perturbation : derivative vs k along direction   1

 dfpt_looppert : COMMENT -
  In a d/dk calculation, iscf is set to -3 automatically.
 The set of symmetries contains only one element for this perturbation.
 symkpt : not enough symmetry to change the number of k points.

[...]

 Initialisation of the first-order wave-functions :
  ireadwf=   0

--- !BeginCycle
iteration_state: {dtset: 1, }
solver: {iscf: 7, nstep: 2000, nline: 4, wfoptalg: 0, }
tolerances: {tolwfr: 1.00E-20, }
...

     iter   2DEtotal(Ha)        deltaE(Ha) residm    vres2
-ETOT  1  -31.139962434818     -3.114E+01 5.050E-02 0.000E+00
 ETOT  2  -31.165229770385     -2.527E-02 5.748E-03 0.000E+00
 ETOT  3  -31.165374911179     -1.451E-04 2.895E-04 0.000E+00
 ETOT  4  -31.165376276932     -1.366E-06 5.179E-05 0.000E+00
 ETOT  5  -31.165376291797     -1.487E-08 3.374E-06 0.000E+00
 ETOT  6  -31.165376291968     -1.710E-10 6.631E-07 0.000E+00
 ETOT  7  -31.165376291970     -2.110E-12 4.466E-08 0.000E+00
 ETOT  8  -31.165376291970     -3.197E-14 9.205E-09 0.000E+00
 ETOT  9  -31.165376291970      2.487E-14 6.223E-10 0.000E+00
 ETOT 10  -31.165376291970     -1.066E-14 1.334E-10 0.000E+00
 ETOT 11  -31.165376291970      7.105E-15 8.955E-12 0.000E+00
 ETOT 12  -31.165376291970      1.421E-14 1.969E-12 0.000E+00
 ETOT 13  -31.165376291970      0.000E+00 1.313E-13 0.000E+00
 ETOT 14  -31.165376291970     -3.553E-15 2.933E-14 0.000E+00
 ETOT 15  -31.165376291970      3.553E-15 4.032E-15 0.000E+00
 ETOT 16  -31.165376291970     -7.105E-15 7.744E-16 0.000E+00
 ETOT 17  -31.165376291970      7.105E-15 1.291E-16 0.000E+00
 ETOT 18  -31.165376291970      7.105E-15 2.480E-17 0.000E+00
 ETOT 19  -31.165376291970     -1.066E-14 4.160E-18 0.000E+00
 ETOT 20  -31.165376291970      2.487E-14 7.994E-19 0.000E+00
 ETOT 21  -31.165376291970     -1.776E-14 1.347E-19 0.000E+00
 ETOT 22  -31.165376291970     -7.105E-15 2.591E-20 0.000E+00
 ETOT 23  -31.165376291970      7.105E-15 9.951E-21 0.000E+00

 At SCF step   23   max residual=  9.95E-21 < tolwfr=  1.00E-20 =>converged.

 ----iterations are completed or convergence reached----

 dfpt_looppert: DFPT cycle converged with prtwf=-1. Will skip output of the 1st-order WFK file.
 dfpt_looppert : ek2=    6.2116004901E+01
          f-sum rule ratio=    1.0198195841E+00
 prteigrs : about to open file /scratch/users/j/a/jabreu/flow_simple_8atoms/flow/w375/t1/tmpdata/tmp_1WF1_EIG
 Expectation of eigenvalue derivatives (hartree) for nkpt=   2  k points:
  (in case of degenerate eigenvalues, averaged derivative)
 kpt#   1, nband= 31, wtk=  0.50000, kpt=  0.5000  0.5000 -0.5000 (reduced coord)
  -0.00000   -0.00000    0.00000    0.00000   -0.00000   -0.00000   -0.00000    0.00000
   0.00000    0.00000    0.00000   -0.00000    0.00000   -0.00000    0.00000    0.00000
   0.00000    0.00000    0.00000   -0.00000   -0.00000   -0.00000   -0.00000   -0.00000
  -0.00000   -0.00000    0.00000   -0.00000   -0.00000   -0.00000    0.00000
 prteigrs : prtvol=0 or 1, do not print more k-points.

 Eight components of 2nd-order total energy (hartree) are
 1,2,3: 0th-order hamiltonian combined with 1st-order wavefunctions
     kin0=   3.81121007E+01 eigvalue=   1.16204217E+00  local=  -1.50566576E+01
 4,5,6: 1st-order hamiltonian combined with 1st and 0th-order wfs
     kin1=  -6.33471183E+01  Hartree=   0.00000000E+00     xc=   0.00000000E+00
 7,8,9: eventually, occupation + non-local contributions
    edocc=   8.74629979E+00     enl0=  -1.79840872E+00   enl1=   1.01636570E+00
 1-9 gives the relaxation energy (to be shifted if some occ is /=2.0)
   erelax=  -3.11653763E+01
  No Ewald or frozen-wf contrib.: the relaxation energy is the total one
 2DEtotal=   -0.3116537629E+02 Ha. Also 2DEtotal=   -0.848053017422E+03 eV
    (  non-var. 2DEtotal :   -3.1165376292E+01 Ha)

 Perturbation wavevector (in red.coord.)   0.000000  0.000000  0.000000
 Perturbation : derivative vs k along direction   2
 The set of symmetries contains only one element for this perturbation.
 symkpt : not enough symmetry to change the number of k points.

[...]

 Perturbation wavevector (in red.coord.)   0.000000  0.000000  0.000000
 Perturbation : derivative vs k along direction   3
 The set of symmetries contains only one element for this perturbation.
 symkpt : not enough symmetry to change the number of k points.

-inwffil : will read wavefunctions from disk file /scratch/users/j/a/jabreu/flow_simple_8atoms/flow/w375/t1/indata/in_WFK

 Initialisation of the first-order wave-functions :
  ireadwf=   0

--- !BeginCycle
iteration_state: {dtset: 1, }
solver: {iscf: 7, nstep: 2000, nline: 4, wfoptalg: 0, }
tolerances: {tolwfr: 1.00E-20, }
...

     iter   2DEtotal(Ha)        deltaE(Ha) residm    vres2
-ETOT  1  -38.352998229628     -3.835E+01 1.059E-01 0.000E+00
 ETOT  2  -38.383629106739     -3.063E-02 1.559E-02 0.000E+00
 ETOT  3  -38.383756562394     -1.275E-04 1.276E-03 0.000E+00
 ETOT  4  -38.383757751352     -1.189E-06 1.741E-04 0.000E+00
 ETOT  5  -38.383757765112     -1.376E-08 1.954E-05 0.000E+00
 ETOT  6  -38.383757765286     -1.741E-10 2.870E-06 0.000E+00
 ETOT  7  -38.383757765288     -2.309E-12 3.375E-07 0.000E+00
 ETOT  8  -38.383757765288     -2.842E-14 5.187E-08 0.000E+00
 ETOT  9  -38.383757765288     -7.105E-15 6.062E-09 0.000E+00
 ETOT 10  -38.383757765288     -1.421E-14 9.583E-10 0.000E+00
 ETOT 11  -38.383757765288     -7.105E-15 1.110E-10 0.000E+00
 ETOT 12  -38.383757765288      1.421E-14 1.787E-11 0.000E+00
 ETOT 13  -38.383757765288     -2.842E-14 2.055E-12 0.000E+00
 ETOT 14  -38.383757765288      1.421E-14 3.353E-13 0.000E+00
 ETOT 15  -38.383757765288      1.421E-14 3.830E-14 0.000E+00
 ETOT 16  -38.383757765288      1.421E-14 6.314E-15 0.000E+00
 ETOT 17  -38.383757765288     -1.421E-14 7.178E-16 0.000E+00
 ETOT 18  -38.383757765288      1.421E-14 1.193E-16 0.000E+00
 ETOT 19  -38.383757765288     -2.132E-14 1.351E-17 0.000E+00
 ETOT 20  -38.383757765288      7.105E-15 2.264E-18 0.000E+00
 ETOT 21  -38.383757765288      0.000E+00 2.553E-19 0.000E+00
 ETOT 22  -38.383757765288     -7.105E-15 4.309E-20 0.000E+00
 ETOT 23  -38.383757765288      7.105E-15 9.946E-21 0.000E+00

 At SCF step   23   max residual=  9.95E-21 < tolwfr=  1.00E-20 =>converged.

 ----iterations are completed or convergence reached----

 dfpt_looppert: DFPT cycle converged with prtwf=-1. Will skip output of the 1st-order WFK file.
 dfpt_looppert : ek2=    7.7235107393E+01
          f-sum rule ratio=    1.0098162947E+00
 prteigrs : about to open file /scratch/users/j/a/jabreu/flow_simple_8atoms/flow/w375/t1/tmpdata/tmp_1WF1_EIG
 Expectation of eigenvalue derivatives (hartree) for nkpt=   2  k points:
  (in case of degenerate eigenvalues, averaged derivative)
 kpt#   1, nband= 31, wtk=  0.50000, kpt=  0.5000  0.5000 -0.5000 (reduced coord)
   0.00000    0.00000    0.00000    0.00000    0.00000    0.00000   -0.00000    0.00000
   0.00000    0.00000    0.00000   -0.00000   -0.00000   -0.00000    0.00000    0.00000
   0.00000    0.00000    0.00000    0.00000    0.00000   -0.00000   -0.00000    0.00000
   0.00000   -0.00000    0.00000    0.00000   -0.00000   -0.00000    0.00000
 prteigrs : prtvol=0 or 1, do not print more k-points.

 Eight components of 2nd-order total energy (hartree) are
 1,2,3: 0th-order hamiltonian combined with 1st-order wavefunctions
     kin0=   4.78667940E+01 eigvalue=   1.54132449E+00  local=  -1.90650342E+01
 4,5,6: 1st-order hamiltonian combined with 1st and 0th-order wfs
     kin1=  -7.79932700E+01  Hartree=   0.00000000E+00     xc=   0.00000000E+00
 7,8,9: eventually, occupation + non-local contributions
    edocc=   1.03162055E+01     enl0=  -2.27553198E+00   enl1=   1.22575444E+00
 1-9 gives the relaxation energy (to be shifted if some occ is /=2.0)
   erelax=  -3.83837578E+01
  No Ewald or frozen-wf contrib.: the relaxation energy is the total one
 2DEtotal=   -0.3838375777E+02 Ha. Also 2DEtotal=   -0.104447516654E+04 eV
    (  non-var. 2DEtotal :   -3.8383757765E+01 Ha)

 CALCULATION OF EFFECTIVE MASSES
 NOTE : Additional infos (eff. mass eigenvalues, eigenvectors and, if degenerate, average mass) are available in stdout.

 K-point ( 0.500, 0.500,-0.500) | band =    22
 Effective mass tensor:
             -2.2459470698              0.0649242511             -0.0708937510
              0.0649242511             -2.1928818201             -0.1055575043
             -0.0708937510             -0.1055575043             -2.1742879801
 Effective mass tensor eigenvalues:
             -2.2895510256             -2.2895510158             -2.0340148287
 Angular average effective mass 1/(<1/m>)=  -2.1975249531
 Angular average effective mass for Frohlich model (<m**0.5>)**2=  -2.1996189377
 Effective masses along directions: (cart. coord. / red. coord. -> eff. mass)
    1:   1.000000  0.000000  0.000000 /   0.935311 -0.353828  0.000000 ->  -2.2414991497
    2:   0.000000  1.000000  0.000000 /   0.000000  1.000000  0.000000 ->  -2.1856740198
    3:   0.000000  0.000000  1.000000 /  -0.380280 -0.380280  0.843074 ->  -2.1667653090
    4:   0.577350  0.577350  0.577350 /   0.403596  0.034261  0.914296 ->  -2.2774278979
    5:   0.000000  0.707107  0.707107 /  -0.389056  0.323536  0.862531 ->  -2.2890911613
    6:   0.707107  0.000000  0.707107 /   0.327488 -0.585117  0.741882 ->  -2.2799786049
    7:   0.707107  0.707107  0.000000 /   0.877183  0.480156  0.000000 ->  -2.1469886100

 K-point ( 0.000, 0.000, 0.000) | band =    23
 Effective mass tensor:
              0.5005731347             -0.0084253517              0.0092035540
             -0.0084253517              0.4936845836              0.0137020705
              0.0092035540              0.0137020705              0.4912726101
 Effective mass tensor eigenvalues:
              0.4730639260              0.5062306573              0.5062357450
 Angular average effective mass 1/(<1/m>)=   0.4946717590
 Angular average effective mass for Frohlich model (<m**0.5>)**2=   0.4948249930
 Effective masses along directions: (cart. coord. / red. coord. -> eff. mass)
    1:   1.000000  0.000000  0.000000 /   0.935311 -0.353828  0.000000 ->   0.5002479116
    2:   0.000000  1.000000  0.000000 /   0.000000  1.000000  0.000000 ->   0.4931517844
    3:   0.000000  0.000000  1.000000 /  -0.380280 -0.380280  0.843074 ->   0.4907143370
    4:   0.577350  0.577350  0.577350 /   0.403596  0.034261  0.914296 ->   0.5047361987
    5:   0.000000  0.707107  0.707107 /  -0.389056  0.323536  0.862531 ->   0.5061769532
    6:   0.707107  0.000000  0.707107 /   0.327488 -0.585117  0.741882 ->   0.5050514604
    7:   0.707107  0.707107  0.000000 /   0.877183  0.480156  0.000000 ->   0.4881446020

 END OF EFFECTIVE MASSES SECTION

 ---- first-order wavefunction calculations are completed ----

 Total localisation tensor (bohr^2) in cartesian coordinates
  WARNING : still subject to testing - especially symmetries.
      direction              matrix element
   alpha     beta       real part   imaginary part
     1        1       0.8321158789    0.0000000000
     1        2      -0.2549129520    0.0000000000
     1        3      -0.2287240190    0.0000000000
     2        1      -0.2549129520    0.0000000000
     2        2       0.6237615407    0.0000000000
     2        3      -0.3405568070    0.0000000000
     3        1      -0.2287240190    0.0000000000
     3        2      -0.3405568070    0.0000000000
     3        3       1.4672610777    0.0000000000

 respfn : d/dk was computed, but no 2DTE, so no DDB output.

== END DATASET(S) ==============================================================

 -outvars: echo values of variables after computation  --------
            acell      1.0000000000E+00  1.0000000000E+00  1.0000000000E+00 Bohr
              amu      6.94100000E+00  4.00780000E+01  2.80855000E+01
                       1.59994000E+01
             ecut      4.40000000E+01 Hartree
           etotal     -3.8383757765E+01
            fcart      0.0000000000E+00  0.0000000000E+00  0.0000000000E+00
                       0.0000000000E+00  0.0000000000E+00  0.0000000000E+00
                       0.0000000000E+00  0.0000000000E+00  0.0000000000E+00
                       0.0000000000E+00  0.0000000000E+00  0.0000000000E+00
                       0.0000000000E+00  0.0000000000E+00  0.0000000000E+00
                       0.0000000000E+00  0.0000000000E+00  0.0000000000E+00
                       0.0000000000E+00  0.0000000000E+00  0.0000000000E+00
                       0.0000000000E+00  0.0000000000E+00  0.0000000000E+00
-          fftalg         512
           irdden           1
           irdwfk           1
           istwfk        0    1
              ixc     -116133
              kpt      5.00000000E-01  5.00000000E-01 -5.00000000E-01
                       0.00000000E+00  0.00000000E+00  0.00000000E+00
           kptopt           0
P           mkmem           2
P          mkqmem           2
P          mk1mem           2
            natom           8
            nband          31
           nbdbuf           4
            ngfft          60      60      60
             nkpt           2
            nstep        2000
             nsym           8
           ntypat           4
              occ      2.000000  2.000000  2.000000  2.000000  2.000000  2.000000
                       2.000000  2.000000  2.000000  2.000000  2.000000  2.000000
                       2.000000  2.000000  2.000000  2.000000  2.000000  2.000000
                       2.000000  2.000000  2.000000  2.000000  0.000000  0.000000
                       0.000000  0.000000  0.000000  0.000000  0.000000  0.000000
                       0.000000
        optdriver           1
            prtwf          -1
            rfdir           1       1       1
           rfelfd           2
            rprim      8.0789892767E+00  0.0000000000E+00 -4.0831037759E+00
                      -3.0562772945E+00  7.4785852160E+00 -4.0831037759E+00
                       0.0000000000E+00  0.0000000000E+00  9.0521712411E+00
          spgroup         121
           strten      0.0000000000E+00  0.0000000000E+00  0.0000000000E+00
                       0.0000000000E+00  0.0000000000E+00  0.0000000000E+00
           symrel      1  0  0   0  1  0   0  0  1      -1 -1 -1   0  0  1   0  1  0
                       0  1  0   1  0  0  -1 -1 -1       0  0  1  -1 -1 -1   1  0  0
                       0  1  0   1  0  0   0  0  1      -1 -1 -1   0  0  1   1  0  0
                       1  0  0   0  1  0  -1 -1 -1       0  0  1  -1 -1 -1   0  1  0
           tolwfr      1.00000000E-20
            typat      1  1  2  3  4  4  4  4
           useylm           1
              wtk        0.50000    0.50000
           xangst     -1.4417996712E-01  2.9681226366E+00  2.3441589601E-01
                       2.8020846734E+00  9.8937421220E-01  2.3441589601E-01
                       0.0000000000E+00  0.0000000000E+00  0.0000000000E+00
                       1.3289523531E+00  1.9787484244E+00 -2.1606854585E+00
                       4.3780208951E-01  6.5186700844E-01  2.2402166485E+00
                       1.4577411257E+00  2.1705089342E+00 -5.3189467914E-01
                       5.7953939807E-01  3.3056298404E+00 -2.7804305472E+00
                       2.8407267993E+00  1.7869879146E+00 -2.7804305472E+00
            xcart     -2.7246065170E-01  5.6089389120E+00  4.4298184465E-01
                       5.2951726339E+00  1.8696463040E+00  4.4298184465E-01
                       0.0000000000E+00  0.0000000000E+00  0.0000000000E+00
                       2.5113559911E+00  3.7392926080E+00 -4.0831037759E+00
                       8.2732604957E-01  1.2318501210E+00  4.2333959441E+00
                       2.7547315002E+00  4.1016674546E+00 -1.0051352751E+00
                       1.0951707456E+00  6.2467350950E+00 -5.2542522657E+00
                       5.3681956691E+00  3.3769177614E+00 -5.2542522657E+00
             xred      2.5000000000E-01  7.5000000000E-01  5.0000000000E-01
                       7.5000000000E-01  2.5000000000E-01  5.0000000000E-01
                       0.0000000000E+00  0.0000000000E+00  0.0000000000E+00
                       5.0000000000E-01  5.0000000000E-01  2.7755575616E-17
                       1.6471700000E-01  1.6471700000E-01  6.1626200000E-01
                       5.4845500000E-01  5.4845500000E-01  3.8373800000E-01
                       4.5154500000E-01  8.3528300000E-01  3.4694469520E-17
                       8.3528300000E-01  4.5154500000E-01  5.5511151231E-17
            znucl        3.00000   20.00000   14.00000    8.00000

- Timing analysis has been suppressed with timopt=0

 Suggested references for the acknowledgment of ABINIT usage.

 Calculation completed.
.Delivered  14 WARNINGs and  15 COMMENTs to log file.