.Version 9.5.1 of ABINIT

 ABINIT is a project of the Universite Catholique de Louvain,
 Corning Inc. and other collaborators, see ~abinit/doc/developers/contributors.txt .
 acknowledgments of the ABINIT effort.

.Starting date : Tue 11 May 2021.
- ( at 21h49 )

- input  file    -> /scratch/users/j/a/jabreu/flow_simple_8atoms/flow/w355/t1/run.abi
- output file    -> /scratch/users/j/a/jabreu/flow_simple_8atoms/flow/w355/t1/run.abo
- root for input  files -> /scratch/users/j/a/jabreu/flow_simple_8atoms/flow/w355/t1/indata/in
- root for output files -> /scratch/users/j/a/jabreu/flow_simple_8atoms/flow/w355/t1/outdata/out

 Symmetries : space group P6_3/m m c (#194); Bravais hP (primitive hexag.)
     intxc =       0      iscf =       7    lmnmax =      18     lnmax =       6
     mgfft =     180  mpssoang =       3    mqgrid =    8412     natom =       8
  nloc_mem =       1    nspden =       1   nspinor =       1    nsppol =       1
      nsym =      24    n1xccc =    2501    ntypat =       3    occopt =       1
   xclevel =       2
-    mband =          63        mffmem =           1         mkmem =           2
-   mkqmem =           2        mk1mem =           2           mpw =       15013
      nfft =      288000          nkpt =           2
  Rough estimation (10% accuracy) of disk space for files :

------------- Echo of variables that govern the present computation ------------
-
- outvars: echo of selected default values
-   iomode0 =  0 , fftalg0 =512 , wfoptalg0 =  0
-
- outvars: echo of global parameters not present in the input file
-  max_nthreads =    0
-
 -outvars: echo values of preprocessed input variables --------
            acell      1.0000000000E+00  1.0000000000E+00  1.0000000000E+00 Bohr
              amu      2.29897680E+01  9.29063800E+01  7.89600000E+01
             ecut      4.40000000E+01 Hartree
-          fftalg         512
           irdden           1
           irdwfk           1
           istwfk        1    0
              ixc     -116133
              kpt      0.00000000E+00  0.00000000E+00  0.00000000E+00
                       1.57407407E-01  1.57407407E-01  0.00000000E+00
           kptopt           0
P           mkmem           2
P          mkqmem           2
P          mk1mem           2
            natom           8
            nband          63
           nbdbuf           4
            ngfft          40      40     180
             nkpt           2
            nstep        2000
             nsym          24
           ntypat           3
              occ      2.000000  2.000000  2.000000  2.000000  2.000000  2.000000
                       2.000000  2.000000  2.000000  2.000000  2.000000  2.000000
                       2.000000  2.000000  2.000000  2.000000  2.000000  2.000000
                       2.000000  2.000000  2.000000  2.000000  2.000000  2.000000
                       2.000000  2.000000  2.000000  2.000000  2.000000  2.000000
                       2.000000  2.000000  2.000000  2.000000  2.000000  2.000000
                       2.000000  2.000000  2.000000  2.000000  2.000000  2.000000
                       2.000000  2.000000  2.000000  2.000000  2.000000  2.000000
                       2.000000  2.000000  2.000000  2.000000  2.000000  2.000000
                       0.000000  0.000000  0.000000  0.000000  0.000000  0.000000
                       0.000000  0.000000  0.000000
        optdriver           1
            prtwf          -1
            rfdir           1       1       1
           rfelfd           2
            rprim      6.6455644679E+00  0.0000000000E+00  0.0000000000E+00
                      -3.3227822340E+00  5.7552276517E+00  0.0000000000E+00
                       0.0000000000E+00  0.0000000000E+00  2.8169341201E+01
          spgroup         194
           symrel      1  0  0   0  1  0   0  0  1      -1  0  0   0 -1  0   0  0 -1
                       0  1  0   1  0  0   0  0  1       0 -1  0  -1  0  0   0  0 -1
                       1  1  0  -1  0  0   0  0  1      -1 -1  0   1  0  0   0  0 -1
                      -1  0  0   1  1  0   0  0  1       1  0  0  -1 -1  0   0  0 -1
                       0  1  0  -1 -1  0   0  0  1       0 -1  0   1  1  0   0  0 -1
                      -1 -1  0   0  1  0   0  0  1       1  1  0   0 -1  0   0  0 -1
                      -1  0  0   0 -1  0   0  0  1       1  0  0   0  1  0   0  0 -1
                       0 -1  0  -1  0  0   0  0  1       0  1  0   1  0  0   0  0 -1
                      -1 -1  0   1  0  0   0  0  1       1  1  0  -1  0  0   0  0 -1
                       1  0  0  -1 -1  0   0  0  1      -1  0  0   1  1  0   0  0 -1
                       0 -1  0   1  1  0   0  0  1       0  1  0  -1 -1  0   0  0 -1
                       1  1  0   0 -1  0   0  0  1      -1 -1  0   0  1  0   0  0 -1
            tnons      0.0000000  0.0000000  0.0000000     0.0000000  0.0000000  0.0000000
                       0.0000000  0.0000000  0.5000000     0.0000000  0.0000000  0.5000000
                       0.0000000  0.0000000  0.5000000     0.0000000  0.0000000  0.5000000
                       0.0000000  0.0000000  0.0000000     0.0000000  0.0000000  0.0000000
                       0.0000000  0.0000000  0.0000000     0.0000000  0.0000000  0.0000000
                       0.0000000  0.0000000  0.5000000     0.0000000  0.0000000  0.5000000
                       0.0000000  0.0000000  0.5000000     0.0000000  0.0000000  0.5000000
                       0.0000000  0.0000000  0.0000000     0.0000000  0.0000000  0.0000000
                       0.0000000  0.0000000  0.0000000     0.0000000  0.0000000  0.0000000
                       0.0000000  0.0000000  0.5000000     0.0000000  0.0000000  0.5000000
                       0.0000000  0.0000000  0.5000000     0.0000000  0.0000000  0.5000000
                       0.0000000  0.0000000  0.0000000     0.0000000  0.0000000  0.0000000
           tolwfr      1.00000000E-20
            typat      1  1  2  2  3  3  3  3
           useylm           1
              wtk        0.50000    0.50000
           xangst      0.0000000000E+00  0.0000000000E+00  0.0000000000E+00
                       0.0000000000E+00  0.0000000000E+00  7.4532866724E+00
                       0.0000000000E+00  0.0000000000E+00  1.1179930009E+01
                       0.0000000000E+00  0.0000000000E+00  3.7266433362E+00
                       1.7583406273E+00  1.0151784345E+00  1.2813660634E+01
                       1.7583406273E+00  1.0151784345E+00  9.5461993832E+00
                      -1.7639241746E-11  2.0303568690E+00  5.3603739617E+00
                      -1.7639241746E-11  2.0303568690E+00  2.0929127108E+00
            xcart      0.0000000000E+00  0.0000000000E+00  0.0000000000E+00
                       0.0000000000E+00  0.0000000000E+00  1.4084670601E+01
                       0.0000000000E+00  0.0000000000E+00  2.1127005901E+01
                       0.0000000000E+00  0.0000000000E+00  7.0423353004E+00
                       3.3227822339E+00  1.9184092172E+00  2.4214309358E+01
                       3.3227822339E+00  1.9184092172E+00  1.8039702444E+01
                      -3.3333336091E-11  3.8368184345E+00  1.0129638757E+01
                      -3.3333336091E-11  3.8368184345E+00  3.9550318434E+00
             xred      0.0000000000E+00  0.0000000000E+00  0.0000000000E+00
                       0.0000000000E+00  0.0000000000E+00  5.0000000000E-01
                       0.0000000000E+00  0.0000000000E+00  7.5000000000E-01
                       0.0000000000E+00  0.0000000000E+00  2.5000000000E-01
                       6.6666666667E-01  3.3333333333E-01  8.5959800000E-01
                       6.6666666667E-01  3.3333333333E-01  6.4040200000E-01
                       3.3333333333E-01  6.6666666667E-01  3.5959800000E-01
                       3.3333333333E-01  6.6666666667E-01  1.4040200000E-01
            znucl       11.00000   41.00000   34.00000

 chkinp: Checking input parameters for consistency.

== DATASET  1 ==================================================================
-   mpi_nproc: 1, omp_nthreads: -1 (-1 if OMP is not activated)

--- !DatasetInfo
iteration_state: {dtset: 1, }
dimensions: {natom: 8, nkpt: 2, mband: 63, nsppol: 1, nspinor: 1, nspden: 1, mpw: 15013, }
cutoff_energies: {ecut:  44.0, pawecutdg:  -1.0, }
electrons: {nelect:   1.08000000E+02, charge:   0.00000000E+00, occopt:   1.00000000E+00, tsmear:   1.00000000E-02, }
meta: {optdriver: 1, rfelfd: 2, }
...

 Real(R)+Recip(G) space primitive vectors, cartesian coordinates (Bohr,Bohr^-1):
 R(1)=  6.6455645  0.0000000  0.0000000  G(1)=  0.1504763  0.0868775  0.0000000
 R(2)= -3.3227822  5.7552277  0.0000000  G(2)=  0.0000000  0.1737551  0.0000000
 R(3)=  0.0000000  0.0000000 28.1693412  G(3)=  0.0000000  0.0000000  0.0354996
 Unit cell volume ucvol=  1.0773854E+03 bohr^3
 Angles (23,13,12)=  9.00000000E+01  9.00000000E+01  1.20000000E+02 degrees

 getcut: wavevector=  0.0000  0.0000  0.0000  ngfft=  40  40 180
         ecut(hartree)=     44.000   => boxcut(ratio)=   2.01575

--- Pseudopotential description ------------------------------------------------
- pspini: atom type   1  psp file is /scratch/users/j/a/jabreu/pseudos/PBEsol/Na.psp8
- pspatm: opening atomic psp file    /scratch/users/j/a/jabreu/pseudos/PBEsol/Na.psp8
- Na    ONCVPSP-3.3.0  r_core=   1.20708   1.55069
- 11.00000   9.00000    180112                znucl, zion, pspdat
    8 -116133    1    4       400   0.00000   pspcod,pspxc,lmax,lloc,mmax,r2well
    3.99000000000000    0.00000000000000    0.00000000000000   rchrg,fchrg,qchrg
     nproj     2     2
     extension_switch     1
  pspatm : epsatm=    9.32878306
         --- l  ekb(1:nproj) -->
             0    2.657905   -0.678300
             1   -6.761319   -2.404728
 pspatm: atomic psp has been read  and splines computed

- pspini: atom type   2  psp file is /scratch/users/j/a/jabreu/pseudos/PBEsol/Nb.psp8
- pspatm: opening atomic psp file    /scratch/users/j/a/jabreu/pseudos/PBEsol/Nb.psp8
- Nb    ONCVPSP-3.3.0  r_core=   1.50879   1.40458   1.40458
- 41.00000  13.00000    180112                znucl, zion, pspdat
    8 -116133    2    4       600   0.00000   pspcod,pspxc,lmax,lloc,mmax,r2well
    5.99000000000000    5.00000000000000    0.00000000000000   rchrg,fchrg,qchrg
     nproj     2     2     2
     extension_switch     1
  pspatm : epsatm=   15.66753381
         --- l  ekb(1:nproj) -->
             0   12.953547    1.345168
             1    7.772306    0.779703
             2    3.518917    1.091480
 pspatm: atomic psp has been read  and splines computed

- pspini: atom type   3  psp file is /scratch/users/j/a/jabreu/pseudos/PBEsol/Se.psp8
- pspatm: opening atomic psp file    /scratch/users/j/a/jabreu/pseudos/PBEsol/Se.psp8
- Se    ONCVPSP-3.3.0  r_core=   1.81943   1.50330   1.90835
- 34.00000  16.00000    180112                znucl, zion, pspdat
    8 -116133    2    4       600   0.00000   pspcod,pspxc,lmax,lloc,mmax,r2well
    5.99000000000000    5.00000000000000    0.00000000000000   rchrg,fchrg,qchrg
     nproj     2     2     2
     extension_switch     1
  pspatm : epsatm=   29.17862020
         --- l  ekb(1:nproj) -->
[...]
  (in case of degenerate eigenvalues, averaged derivative)
 kpt#   1, nband= 63, wtk=  0.50000, kpt=  0.0000  0.0000  0.0000 (reduced coord)
  -0.00000   -0.00000    0.00000    0.00000    0.00000    0.00000   -0.00000   -0.00000
   0.00000    0.00000   -0.00000   -0.00000   -0.00000   -0.00000   -0.00000   -0.00000
  -0.00000    0.00000   -0.00000   -0.00000    0.00000    0.00000   -0.00000    0.00000
  -0.00000   -0.00000   -0.00000   -0.00000   -0.00000   -0.00000    0.00000    0.00000
   0.00000    0.00000    0.00000    0.00000   -0.00000   -0.00000   -0.00000    0.00000
  -0.00000    0.00000   -0.00000   -0.00000   -0.00000   -0.00000   -0.00000   -0.00000
   0.00000    0.00000   -0.00000   -0.00000   -0.00000   -0.00000    0.00000    0.00000
  -0.00000   -0.00000    0.00000    0.00000   -0.00000   -0.00000   -0.00000
 prteigrs : prtvol=0 or 1, do not print more k-points.

 Eight components of 2nd-order total energy (hartree) are
 1,2,3: 0th-order hamiltonian combined with 1st-order wavefunctions
     kin0=   3.10434940E+02 eigvalue=   2.62434422E+01  local=  -1.31890964E+02
 4,5,6: 1st-order hamiltonian combined with 1st and 0th-order wfs
     kin1=  -2.74446661E+02  Hartree=   0.00000000E+00     xc=   0.00000000E+00
 7,8,9: eventually, occupation + non-local contributions
    edocc=   3.15099260E+01     enl0=   2.53774865E+01   enl1=  -2.48903000E+02
 1-9 gives the relaxation energy (to be shifted if some occ is /=2.0)
   erelax=  -2.61674830E+02
  No Ewald or frozen-wf contrib.: the relaxation energy is the total one
 2DEtotal=   -0.2616748305E+03 Ha. Also 2DEtotal=   -0.712053425795E+04 eV
    (  non-var. 2DEtotal :   -2.6167483045E+02 Ha)

 Perturbation wavevector (in red.coord.)   0.000000  0.000000  0.000000
 Perturbation : derivative vs k along direction   2
 The set of symmetries contains only one element for this perturbation.
 symkpt : not enough symmetry to change the number of k points.

[...]

 Perturbation wavevector (in red.coord.)   0.000000  0.000000  0.000000
 Perturbation : derivative vs k along direction   3
 The set of symmetries contains only one element for this perturbation.
 symkpt : not enough symmetry to change the number of k points.

-inwffil : will read wavefunctions from disk file /scratch/users/j/a/jabreu/flow_simple_8atoms/flow/w355/t1/indata/in_WFK

 Initialisation of the first-order wave-functions :
  ireadwf=   0

--- !BeginCycle
iteration_state: {dtset: 1, }
solver: {iscf: 7, nstep: 2000, nline: 4, wfoptalg: 0, }
tolerances: {tolwfr: 1.00E-20, }
...

     iter   2DEtotal(Ha)        deltaE(Ha) residm    vres2
-ETOT  1  -10.541479633970     -1.054E+01 1.881E-02 0.000E+00
 ETOT  2  -10.551547878096     -1.007E-02 5.442E-04 0.000E+00
 ETOT  3  -10.551661451489     -1.136E-04 2.527E-05 0.000E+00
 ETOT  4  -10.551664963242     -3.512E-06 1.045E-06 0.000E+00
 ETOT  5  -10.551665083176     -1.199E-07 6.438E-08 0.000E+00
 ETOT  6  -10.551665087379     -4.203E-09 2.879E-09 0.000E+00
 ETOT  7  -10.551665087528     -1.493E-10 2.589E-10 0.000E+00
 ETOT  8  -10.551665087534     -5.393E-12 1.272E-11 0.000E+00
 ETOT  9  -10.551665087534     -1.847E-13 1.357E-12 0.000E+00
 ETOT 10  -10.551665087534     -2.132E-14 6.479E-14 0.000E+00
 ETOT 11  -10.551665087534      5.329E-15 7.478E-15 0.000E+00
 ETOT 12  -10.551665087534     -3.553E-15 3.514E-16 0.000E+00
 ETOT 13  -10.551665087534      0.000E+00 4.192E-17 0.000E+00
 ETOT 14  -10.551665087534      5.329E-15 1.967E-18 0.000E+00
 ETOT 15  -10.551665087534     -1.776E-15 2.377E-19 0.000E+00
 ETOT 16  -10.551665087534      0.000E+00 1.125E-20 0.000E+00
 ETOT 17  -10.551665087534      0.000E+00 9.968E-21 0.000E+00

 At SCF step   17   max residual=  9.97E-21 < tolwfr=  1.00E-20 =>converged.

 ----iterations are completed or convergence reached----

 dfpt_looppert: DFPT cycle converged with prtwf=-1. Will skip output of the 1st-order WFK file.
 dfpt_looppert : ek2=    1.0746328382E+01
          f-sum rule ratio=    1.0021950685E+00
 prteigrs : about to open file /scratch/users/j/a/jabreu/flow_simple_8atoms/flow/w355/t1/tmpdata/tmp_1WF1_EIG
 Expectation of eigenvalue derivatives (hartree) for nkpt=   2  k points:
  (in case of degenerate eigenvalues, averaged derivative)
 kpt#   1, nband= 63, wtk=  0.50000, kpt=  0.0000  0.0000  0.0000 (reduced coord)
   0.00000    0.00000   -0.00000    0.00000    0.00000    0.00000    0.00000    0.00000
   0.00000    0.00000    0.00000    0.00000   -0.00000   -0.00000    0.00000    0.00000
  -0.00000   -0.00000    0.00000    0.00000    0.00000    0.00000   -0.00000   -0.00000
  -0.00000   -0.00000    0.00000    0.00000    0.00000    0.00000   -0.00000   -0.00000
  -0.00000   -0.00000    0.00000    0.00000   -0.00000   -0.00000   -0.00000    0.00000
   0.00000    0.00000   -0.00000    0.00000    0.00000   -0.00000   -0.00000    0.00000
  -0.00000   -0.00000   -0.00000   -0.00000   -0.00000    0.00000   -0.00000   -0.00000
  -0.00000   -0.00000   -0.00000   -0.00000    0.00000    0.00000    0.00000
 prteigrs : prtvol=0 or 1, do not print more k-points.

 Eight components of 2nd-order total energy (hartree) are
 1,2,3: 0th-order hamiltonian combined with 1st-order wavefunctions
     kin0=   1.22673953E+01 eigvalue=   1.11331234E+00  local=  -5.11412279E+00
 4,5,6: 1st-order hamiltonian combined with 1st and 0th-order wfs
     kin1=  -1.07699173E+01  Hartree=   0.00000000E+00     xc=   0.00000000E+00
 7,8,9: eventually, occupation + non-local contributions
    edocc=   1.27380419E+00     enl0=   1.01127603E+00   enl1=  -1.03334129E+01
 1-9 gives the relaxation energy (to be shifted if some occ is /=2.0)
   erelax=  -1.05516651E+01
  No Ewald or frozen-wf contrib.: the relaxation energy is the total one
 2DEtotal=   -0.1055166509E+02 Ha. Also 2DEtotal=   -0.287125409059E+03 eV
    (  non-var. 2DEtotal :   -1.0551665088E+01 Ha)

 CALCULATION OF EFFECTIVE MASSES
 NOTE : Additional infos (eff. mass eigenvalues, eigenvectors and, if degenerate, average mass) are available in stdout.

 K-point ( 0.000, 0.000, 0.000) | band =    54
 Effective mass tensor:
             -0.9977687957             -0.0000000000              0.0000000000
             -0.0000000000             -0.9977687957             -0.0000000000
              0.0000000000             -0.0000000000             -0.4815325933
 Effective mass tensor eigenvalues:
             -0.9977687957             -0.9977687956             -0.4815325933
 Angular average effective mass 1/(<1/m>)=  -0.7350824190
 Angular average effective mass for Frohlich model (<m**0.5>)**2=  -0.7642685130
 Effective masses along directions: (cart. coord. / red. coord. -> eff. mass)
    1:   1.000000  0.000000  0.000000 /   0.894427 -0.447214  0.000000 ->  -0.9977687957
    2:   0.000000  1.000000  0.000000 /   0.000000  1.000000  0.000000 ->  -0.9977687957
    3:   0.000000  0.000000  1.000000 /   0.000000  0.000000  1.000000 ->  -0.4815325933
    4:   0.577350  0.577350  0.577350 /   0.228805  0.083748  0.969863 ->  -0.7350824190
    5:   0.000000  0.707107  0.707107 /   0.000000  0.200173  0.979761 ->  -0.6495744535
    6:   0.707107  0.000000  0.707107 /   0.228113 -0.114057  0.966931 ->  -0.6495744535
    7:   0.707107  0.707107  0.000000 /   0.939071  0.343724  0.000000 ->  -0.9977687957

 K-point ( 0.157, 0.157, 0.000) | band =    55
 Effective mass tensor:
              0.6446436707              0.0085472549              0.0000001623
              0.0085472549              0.6545143408              0.0000002809
              0.0000001623              0.0000002809              0.3471161782
 Effective mass tensor eigenvalues:
              0.3471161782              0.6397091983              0.6594488132
 Angular average effective mass 1/(<1/m>)=   0.5033128005
 Angular average effective mass for Frohlich model (<m**0.5>)**2=   0.5178931031
 Effective masses along directions: (cart. coord. / red. coord. -> eff. mass)
    1:   1.000000  0.000000  0.000000 /   0.894427 -0.447214  0.000000 ->   0.6445320527
    2:   0.000000  1.000000  0.000000 /   0.000000  1.000000  0.000000 ->   0.6544010138
    3:   0.000000  0.000000  1.000000 /   0.000000  0.000000  1.000000 ->   0.3471161782
    4:   0.577350  0.577350  0.577350 /   0.228805  0.083748  0.969863 ->   0.5067582990
    5:   0.000000  0.707107  0.707107 /   0.000000  0.200173  0.979761 ->   0.4536183845
    6:   0.707107  0.000000  0.707107 /   0.228113 -0.114057  0.966931 ->   0.4512236648
    7:   0.707107  0.707107  0.000000 /   0.939071  0.343724  0.000000 ->   0.6580882633

 END OF EFFECTIVE MASSES SECTION

 ---- first-order wavefunction calculations are completed ----

 Total localisation tensor (bohr^2) in cartesian coordinates
  WARNING : still subject to testing - especially symmetries.
      direction              matrix element
   alpha     beta       real part   imaginary part
     1        1       1.9371367998    0.0000000000
     1        2      -0.6710438520    0.0000000000
     1        3       0.0000000000    0.0000000000
     2        1      -0.6710438520    0.0000000000
     2        2       1.1622820458    0.0000000000
     2        3       0.0000000000    0.0000000000
     3        1       0.0000000000    0.0000000000
     3        2       0.0000000000    0.0000000000
     3        3       0.9391613568    0.0000000000

 respfn : d/dk was computed, but no 2DTE, so no DDB output.

== END DATASET(S) ==============================================================

 -outvars: echo values of variables after computation  --------
            acell      1.0000000000E+00  1.0000000000E+00  1.0000000000E+00 Bohr
              amu      2.29897680E+01  9.29063800E+01  7.89600000E+01
             ecut      4.40000000E+01 Hartree
           etotal     -1.0551665088E+01
            fcart      0.0000000000E+00  0.0000000000E+00  0.0000000000E+00
                       0.0000000000E+00  0.0000000000E+00  0.0000000000E+00
                       0.0000000000E+00  0.0000000000E+00  0.0000000000E+00
                       0.0000000000E+00  0.0000000000E+00  0.0000000000E+00
                       0.0000000000E+00  0.0000000000E+00  0.0000000000E+00
                       0.0000000000E+00  0.0000000000E+00  0.0000000000E+00
                       0.0000000000E+00  0.0000000000E+00  0.0000000000E+00
                       0.0000000000E+00  0.0000000000E+00  0.0000000000E+00
-          fftalg         512
           irdden           1
           irdwfk           1
           istwfk        1    0
              ixc     -116133
              kpt      0.00000000E+00  0.00000000E+00  0.00000000E+00
                       1.57407407E-01  1.57407407E-01  0.00000000E+00
           kptopt           0
P           mkmem           2
P          mkqmem           2
P          mk1mem           2
            natom           8
            nband          63
           nbdbuf           4
            ngfft          40      40     180
             nkpt           2
            nstep        2000
             nsym          24
           ntypat           3
              occ      2.000000  2.000000  2.000000  2.000000  2.000000  2.000000
                       2.000000  2.000000  2.000000  2.000000  2.000000  2.000000
                       2.000000  2.000000  2.000000  2.000000  2.000000  2.000000
                       2.000000  2.000000  2.000000  2.000000  2.000000  2.000000
                       2.000000  2.000000  2.000000  2.000000  2.000000  2.000000
                       2.000000  2.000000  2.000000  2.000000  2.000000  2.000000
                       2.000000  2.000000  2.000000  2.000000  2.000000  2.000000
                       2.000000  2.000000  2.000000  2.000000  2.000000  2.000000
                       2.000000  2.000000  2.000000  2.000000  2.000000  2.000000
                       0.000000  0.000000  0.000000  0.000000  0.000000  0.000000
                       0.000000  0.000000  0.000000
        optdriver           1
            prtwf          -1
            rfdir           1       1       1
           rfelfd           2
            rprim      6.6455644679E+00  0.0000000000E+00  0.0000000000E+00
                      -3.3227822340E+00  5.7552276517E+00  0.0000000000E+00
                       0.0000000000E+00  0.0000000000E+00  2.8169341201E+01
          spgroup         194
           strten      0.0000000000E+00  0.0000000000E+00  0.0000000000E+00
                       0.0000000000E+00  0.0000000000E+00  0.0000000000E+00
           symrel      1  0  0   0  1  0   0  0  1      -1  0  0   0 -1  0   0  0 -1
                       0  1  0   1  0  0   0  0  1       0 -1  0  -1  0  0   0  0 -1
                       1  1  0  -1  0  0   0  0  1      -1 -1  0   1  0  0   0  0 -1
                      -1  0  0   1  1  0   0  0  1       1  0  0  -1 -1  0   0  0 -1
                       0  1  0  -1 -1  0   0  0  1       0 -1  0   1  1  0   0  0 -1
                      -1 -1  0   0  1  0   0  0  1       1  1  0   0 -1  0   0  0 -1
                      -1  0  0   0 -1  0   0  0  1       1  0  0   0  1  0   0  0 -1
                       0 -1  0  -1  0  0   0  0  1       0  1  0   1  0  0   0  0 -1
                      -1 -1  0   1  0  0   0  0  1       1  1  0  -1  0  0   0  0 -1
                       1  0  0  -1 -1  0   0  0  1      -1  0  0   1  1  0   0  0 -1
                       0 -1  0   1  1  0   0  0  1       0  1  0  -1 -1  0   0  0 -1
                       1  1  0   0 -1  0   0  0  1      -1 -1  0   0  1  0   0  0 -1
            tnons      0.0000000  0.0000000  0.0000000     0.0000000  0.0000000  0.0000000
                       0.0000000  0.0000000  0.5000000     0.0000000  0.0000000  0.5000000
                       0.0000000  0.0000000  0.5000000     0.0000000  0.0000000  0.5000000
                       0.0000000  0.0000000  0.0000000     0.0000000  0.0000000  0.0000000
                       0.0000000  0.0000000  0.0000000     0.0000000  0.0000000  0.0000000
                       0.0000000  0.0000000  0.5000000     0.0000000  0.0000000  0.5000000
                       0.0000000  0.0000000  0.5000000     0.0000000  0.0000000  0.5000000
                       0.0000000  0.0000000  0.0000000     0.0000000  0.0000000  0.0000000
                       0.0000000  0.0000000  0.0000000     0.0000000  0.0000000  0.0000000
                       0.0000000  0.0000000  0.5000000     0.0000000  0.0000000  0.5000000
                       0.0000000  0.0000000  0.5000000     0.0000000  0.0000000  0.5000000
                       0.0000000  0.0000000  0.0000000     0.0000000  0.0000000  0.0000000
           tolwfr      1.00000000E-20
            typat      1  1  2  2  3  3  3  3
           useylm           1
              wtk        0.50000    0.50000
           xangst      0.0000000000E+00  0.0000000000E+00  0.0000000000E+00
                       0.0000000000E+00  0.0000000000E+00  7.4532866724E+00
                       0.0000000000E+00  0.0000000000E+00  1.1179930009E+01
                       0.0000000000E+00  0.0000000000E+00  3.7266433362E+00
                       1.7583406273E+00  1.0151784345E+00  1.2813660634E+01
                       1.7583406273E+00  1.0151784345E+00  9.5461993832E+00
                      -1.7639241746E-11  2.0303568690E+00  5.3603739617E+00
                      -1.7639241746E-11  2.0303568690E+00  2.0929127108E+00
            xcart      0.0000000000E+00  0.0000000000E+00  0.0000000000E+00
                       0.0000000000E+00  0.0000000000E+00  1.4084670601E+01
                       0.0000000000E+00  0.0000000000E+00  2.1127005901E+01
                       0.0000000000E+00  0.0000000000E+00  7.0423353004E+00
                       3.3227822339E+00  1.9184092172E+00  2.4214309358E+01
                       3.3227822339E+00  1.9184092172E+00  1.8039702444E+01
                      -3.3333336091E-11  3.8368184345E+00  1.0129638757E+01
                      -3.3333336091E-11  3.8368184345E+00  3.9550318434E+00
             xred      0.0000000000E+00  0.0000000000E+00  0.0000000000E+00
                       0.0000000000E+00  0.0000000000E+00  5.0000000000E-01
                       0.0000000000E+00  0.0000000000E+00  7.5000000000E-01
                       0.0000000000E+00  0.0000000000E+00  2.5000000000E-01
                       6.6666666667E-01  3.3333333333E-01  8.5959800000E-01
                       6.6666666667E-01  3.3333333333E-01  6.4040200000E-01
                       3.3333333333E-01  6.6666666667E-01  3.5959800000E-01
                       3.3333333333E-01  6.6666666667E-01  1.4040200000E-01
            znucl       11.00000   41.00000   34.00000

- Timing analysis has been suppressed with timopt=0

 Suggested references for the acknowledgment of ABINIT usage.

 Calculation completed.
.Delivered  14 WARNINGs and   9 COMMENTs to log file.